
units lj                  # Use reduced LJ style units
atom_style atomic         # Uncharged point particles
atom_modify map hash      # Needed for indexing of clusters etc
                          # Used to be able to find where atoms are in relation to each other.

lattice fcc 1.0 spacing 1 1 1
Lattice spacing in x,y,z = 1.5874011 1.5874011 1.5874011
region box block 0 10 0 10 0 10 units lattice
create_box 2 box
Created orthogonal box = (0.0000000 0.0000000 0.0000000) to (15.874011 15.874011 15.874011)
  3 by 4 by 4 MPI processor grid
create_atoms 1 box
Created 4000 atoms
  using lattice units in orthogonal box = (0.0000000 0.0000000 0.0000000) to (15.874011 15.874011 15.874011)
  create_atoms CPU = 0.005 seconds
set type 1 type/fraction 2 0.99 78393
Setting atom values ...
  3965 settings made for type/fraction
mass 1 1.0
mass 2 1.0
pair_style lj/cut  3.5
pair_modify tail  yes
pair_coeff 1  1  1.0  1.0   # Intearaction between 1 and 1 set with epsilon = 1 and sigma = 1
pair_coeff 1  2  1.5  0.8
pair_coeff 2  2  0.5  0.88

write_data data.0
System init for write_data ...
Neighbor list info ...
  update every 1 steps, delay 10 steps, check yes
  max neighbors/atom: 2000, page size: 100000
  master list distance cutoff = 3.8
  ghost atom cutoff = 3.8
  binsize = 1.9, bins = 9 9 9
  1 neighbor lists, perpetual/occasional/extra = 1 0 0
  (1) pair lj/cut, perpetual
      attributes: half, newton on
      pair build: half/bin/atomonly/newton
      stencil: half/bin/3d
      bin: standard
WARNING: Not all mixed pair coeffs generated from mixing. Use write_data with 'pair ij' option to store all pair coeffs. (../write_data.cpp:312)


#############################
#   M E L T   S Y S T E M   #
#############################

velocity all create 2.4 5833274 mom yes dist gaussian # Assign velocities
                                                    # Temperature 2.4, random number seed, zero linear momentum
                                                                                # Gaussian distribution

timestep 0.002   # simulation timestep
thermo 1000       # output thermodynamic data every 1000 steps bf 100

# Define a fix  in this case with index 1 applied to all
# particles in the simulation. This fix is for simulations
# in the anisotropic NPT ensemble. Note that we use the MTK
# correction.
fix 1 all npt temp 2.4 2.4 0.1 iso 5.68 5.68 0.5 mtk yes tchain 5 pchain 5 # Use NPT ensemble
                                                                         # Set temperature and pressure and damping
                                                                         # Numbers of thermostats in chain and in barostat
run 10000          # run for 10000 steps
Per MPI rank memory allocation (min/avg/max) = 3.642 | 3.644 | 3.648 Mbytes
Step Temp E_pair E_mol TotEng Press Volume 
       0          2.4   -2.7429598            0   0.85614022   -1.7792645         4000 
    1000    2.4104989   -1.4633926            0    2.1514518     6.020558    4203.6727 
    2000    2.3742645   -1.5156334            0    2.0448731    5.7252852    4213.0739 
    3000    2.4569106    -1.552007            0    2.1324375    5.5323928    4227.8234 
    4000    2.4109818   -1.4839353            0    2.1316333    5.8121728    4220.9384 
    5000    2.3935563   -1.5556299            0    2.0338069    5.3699366    4247.5489 
    6000    2.3664587    -1.500028            0    2.0487727    5.6000853    4256.3998 
    7000    2.3697562   -1.5035837            0     2.050162    5.9049973    4175.1038 
    8000    2.3610845   -1.4882234            0     2.052518    5.5820623    4265.8706 
    9000    2.4051711   -1.5257821            0    2.0810726    5.6485647    4225.9086 
   10000    2.4425848   -1.4526002            0    2.2103611    5.9302961     4256.929 
Loop time of 2.35965 on 48 procs for 10000 steps with 4000 atoms

Performance: 732311.865 tau/day, 4237.916 timesteps/s
99.6% CPU use with 48 MPI tasks x no OpenMP threads

MPI task timing breakdown:
Section |  min time  |  avg time  |  max time  |%varavg| %total
---------------------------------------------------------------
Pair    | 1.0226     | 1.0848     | 1.1707     |   2.8 | 45.97
Neigh   | 0.20473    | 0.2089     | 0.21902    |   0.6 |  8.85
Comm    | 0.70508    | 0.80306    | 0.87126    |   3.6 | 34.03
Output  | 0.00024136 | 0.00024578 | 0.00031184 |   0.0 |  0.01
Modify  | 0.2246     | 0.24773    | 0.27406    |   2.6 | 10.50
Other   |            | 0.01493    |            |       |  0.63

Nlocal:        83.3333 ave          92 max          72 min
Histogram: 1 1 3 6 6 7 9 6 2 7
Nghost:        1572.21 ave        1597 max        1551 min
Histogram: 3 3 4 9 7 11 5 4 0 2
Neighs:        8963.79 ave       10097 max        7693 min
Histogram: 2 2 4 9 5 10 3 2 8 3

Total # of neighbors = 430262
Ave neighs/atom = 107.56550
Neighbor list builds = 907
Dangerous builds = 224

# Equilibrate just above the melting temperature to avoid step fn in T

fix 1 all npt temp 1.25 1.25 0.1 iso 5.68 5.68 0.5 mtk yes tchain 5 pchain 5
run 2000
Per MPI rank memory allocation (min/avg/max) = 3.643 | 3.645 | 3.649 Mbytes
Step Temp E_pair E_mol TotEng Press Volume 
   10000    2.4425848   -1.4526002            0    2.2103611    5.9302961     4256.929 
   11000    1.2526632    -2.304537            0  -0.42601192    5.6577037    3330.6248 
   12000    1.2456711   -2.3092455            0  -0.44120594    5.6780778    3321.9706 
Loop time of 0.568013 on 48 procs for 2000 steps with 4000 atoms

Performance: 608436.485 tau/day, 3521.044 timesteps/s
99.6% CPU use with 48 MPI tasks x no OpenMP threads

MPI task timing breakdown:
Section |  min time  |  avg time  |  max time  |%varavg| %total
---------------------------------------------------------------
Pair    | 0.2513     | 0.27214    | 0.29084    |   1.9 | 47.91
Neigh   | 0.038087   | 0.040219   | 0.042167   |   0.5 |  7.08
Comm    | 0.18403    | 0.20613    | 0.22931    |   2.5 | 36.29
Output  | 5.3342e-05 | 5.4906e-05 | 7.0088e-05 |   0.0 |  0.01
Modify  | 0.040795   | 0.044812   | 0.048838   |   1.0 |  7.89
Other   |            | 0.004655   |            |       |  0.82

Nlocal:        83.3333 ave          91 max          75 min
Histogram: 2 3 3 9 7 7 8 0 5 4
Nghost:        1863.92 ave        1885 max        1842 min
Histogram: 6 1 2 8 3 8 9 3 4 4
Neighs:        11509.5 ave       13375 max        9803 min
Histogram: 1 6 1 10 7 10 7 4 1 1

Total # of neighbors = 552456
Ave neighs/atom = 138.11400
Neighbor list builds = 145
Dangerous builds = 18

#############################
# L I N E A R  Q U E N C H  #
#############################

# Define solid atoms. This closely follows ten Wolde  Ruiz-Montero and Frenkel  Faraday Discuss  1996  104  93-110
# Compute components of the per-atom q6 vector
compute q6 all orientorder/atom degrees 1 6 components 6 nnn NULL cutoff 1.3 # compute the Q6 parameter.
                                                                             # Use all neighbours within 1.3 unit cell.

# get number of connections
compute coord_number all coord/atom orientorder q6 0.5

# An atom is solid if it has 8 or more connections (of a possible 14)
variable is_solid atom c_coord_number>=8
group solid dynamic all var is_solid    # Must be dynamic to update
dynamic group solid defined

# do clustering
compute cluster solid cluster/atom 1.3 # Create a cluster where all atoms within are solid and max 1.3 units from another member

# define chunks one chunk per cluster
compute clus_chunks solid chunk/atom c_cluster nchunk every compress yes  # Says which atoms are in which chunk

# count the size of each chunk
compute size_chunks solid property/chunk clus_chunks count


# Find the maximum entry in the vector of chunk sizes
variable max_n equal max(c_size_chunks)


# Thermo style which includes this variable
# thermo_style custom step temp pe vol v_max_n

thermo ${N}  # Print the thermo information every 100 steps
thermo 1000  

# Reset the npt fix at a lower temperature (below freezing)
fix 1  all npt temp  ${temp} ${temp}  0.1  iso  5.68  5.68  0.5  mtk yes tchain  5  pchain  5
fix 1  all npt temp  0.45 ${temp}  0.1  iso  5.68  5.68  0.5  mtk yes tchain  5  pchain  5
fix 1  all npt temp  0.45 0.45  0.1  iso  5.68  5.68  0.5  mtk yes tchain  5  pchain  5

dump dmp2 all dcd ${N} traj.dcd
dump dmp2 all dcd 1000 traj.dcd


compute msd all msd com yes
variable twopoint equal c_msd[4]/6/(step*dt+1.0e-6)
fix 9 all vector 10 c_msd[4]
variable fit equal slope(f_9)/6/(10*dt)
thermo_style custom step temp pe c_msd[4] v_twopoint v_fit v_max_n

fix 1 all npt temp 1.25 ${temp} 0.1 iso 5.68 5.68 0.5 mtk yes tchain 5 pchain 5
fix 1 all npt temp 1.25 0.45 0.1 iso 5.68 5.68 0.5 mtk yes tchain 5 pchain 5
run 500000 # 5000000  # Run for this many steps
Neighbor list info ...
  update every 1 steps, delay 10 steps, check yes
  max neighbors/atom: 2000, page size: 100000
  master list distance cutoff = 3.8
  ghost atom cutoff = 3.8
  binsize = 1.9, bins = 8 8 8
  4 neighbor lists, perpetual/occasional/extra = 1 3 0
  (1) pair lj/cut, perpetual
      attributes: half, newton on
      pair build: half/bin/atomonly/newton
      stencil: half/bin/3d
      bin: standard
  (2) compute orientorder/atom, occasional
      attributes: full, newton on
      pair build: full/bin/atomonly
      stencil: full/bin/3d
      bin: standard
  (3) compute coord/atom, occasional
      attributes: full, newton on
      pair build: full/bin/atomonly
      stencil: full/bin/3d
      bin: standard
  (4) compute cluster/atom, occasional
      attributes: full, newton on
      pair build: full/bin/atomonly
      stencil: full/bin/3d
      bin: standard
Per MPI rank memory allocation (min/avg/max) = 9.811 | 9.815 | 9.821 Mbytes
Step Temp PotEng c_msd[4] v_twopoint v_fit v_max_n 
   12000    1.2456711   -2.3092455 3.9443045e-34 2.7391003e-36 8.3333333e+20            1 
   13000    1.2329324   -2.3060795    1.1423046 0.0073224648  0.096961399            1 
   14000    1.2504781   -2.3381538    2.3602278  0.014048975   0.10098308            1 
   15000    1.2420524   -2.3168633    3.6247606  0.020137558   0.10194954            1 
   16000    1.2420918    -2.298255    4.8675522  0.025351834   0.10257829            1 
   17000    1.2414735   -2.3211529    6.1560135  0.030176536   0.10301094            2 
   18000    1.2531142   -2.3288768    7.5690391  0.035041846   0.10480844            2 
   19000    1.2465268   -2.3105441    8.8018655  0.038604672   0.10581181            1 
   20000    1.2316656   -2.3539242    10.192617  0.042469235   0.10656216            1 
   21000    1.2426148   -2.3305554    11.372666  0.045129624   0.10694005            2 
   22000    1.2270773    -2.337542    12.564697  0.047593546   0.10670395            1 
   23000    1.2403476   -2.3522784     14.14441  0.051247861   0.10706993            1 
   24000    1.2497769   -2.2999122    15.361284  0.053337791   0.10750464            1 
   25000    1.2277261   -2.3033422    16.515841  0.055052801   0.10762665            2 
   26000    1.2467634   -2.3322534    17.970207  0.057596817   0.10776786            2 
   27000    1.2389523    -2.355907    19.357645  0.059745817    0.1080521            1 
   28000     1.199816    -2.321531    20.514577  0.061055288   0.10837383            2 
   29000    1.2325128   -2.3512602    21.865538  0.062832004   0.10846135            1 
   30000    1.2232277   -2.3562128    23.487816  0.065243932   0.10872651            1 
   31000     1.241461   -2.3653054     24.74628  0.066522258   0.10901083            2 
   32000    1.2168152   -2.3247876     25.87414  0.067380572   0.10915177            1 
   33000    1.2047282   -2.3494496      26.9982  0.068177272   0.10917232            1 
   34000    1.1909401   -2.3600757    28.362624  0.069516234   0.10905049            1 
   35000    1.2241712   -2.3781145    29.752755  0.070839891   0.10895388            1 
   36000    1.2112284   -2.3268053     31.24492  0.072326202   0.10900314            1 
   37000    1.2250514   -2.3944624    32.556032  0.073324394    0.1091419            1 
   38000    1.2143648   -2.3509113    34.202796   0.07500613   0.10936845            1 
   39000    1.1846163   -2.3500074    35.188676  0.075189478   0.10953169            1 
   40000    1.1833995   -2.3595283    36.452931  0.075943606   0.10959915            1 
   41000    1.2020736   -2.3463647    37.756013  0.076739863   0.10964173            2 
   42000    1.2006118   -2.3403765    39.229402  0.077836114   0.10967664            1 
   43000    1.1787489    -2.361406    40.378639  0.078253175    0.1096696            3 
   44000    1.2046213   -2.3256222    41.626052  0.078837219     0.109575            1 
   45000    1.2015508   -2.3827111    42.895163  0.079435487   0.10943871            1 
   46000    1.1920695   -2.3944656    43.789966  0.079329647   0.10931384            1 
   47000    1.1950996   -2.3565007    45.187877  0.080120349   0.10907775            1 
   48000     1.198268   -2.3980191    46.168026  0.080152822    0.1088409            2 
   49000    1.1756865   -2.3773725    47.387925  0.080591709   0.10859598            1 
   50000    1.2070197   -2.3683896    48.474313  0.080790521   0.10837091            1 
   51000    1.1773518   -2.3674167    49.604484  0.081053077   0.10807616       -1e+20 
   52000    1.1757107   -2.3837852    50.795651  0.081403286    0.1078023            1 
   53000    1.1433504   -2.3447966    52.355397  0.082319805   0.10757816            1 
   54000    1.1940498   -2.3802437    52.860906  0.081575471   0.10731124            1 
   55000    1.1641827   -2.3721153    54.161494   0.08206287   0.10699491            1 
   56000    1.1508032   -2.3837362    55.160395  0.082083921   0.10669431            2 
   57000    1.1662823   -2.3982276    56.185271  0.082142208   0.10640576            1 
   58000    1.1582573   -2.4063165    57.415313  0.082493265   0.10609399            1 
   59000    1.1735253   -2.4031468    58.347541   0.08241178   0.10577712            3 
   60000    1.1869017   -2.3949444    59.735951  0.082966598   0.10547417            3 
   61000    1.2104077   -2.3997638    60.311057  0.082392154   0.10512406            5 
   62000    1.1599108   -2.4148012    61.322931  0.082423294    0.1047522            2 
   63000    1.1431988   -2.4073694    62.369635  0.082499517   0.10435624            2 
   64000    1.1714574    -2.375681     63.86454  0.083156953   0.10402876            2 
   65000    1.1565872   -2.4124259    64.634884  0.082865235   0.10371263            1 
   66000     1.197323   -2.4151511    66.142129  0.083512788   0.10338493            1 
   67000    1.1798463   -2.3927935    67.389133   0.08381733   0.10310988            2 
   68000    1.1352853   -2.4024869    68.635107   0.08411165   0.10286545            1 
   69000    1.1202484   -2.4001305    69.581779  0.084035965   0.10262342            2 
   70000    1.1684908   -2.4414438    70.962514  0.084479183   0.10242104            4 
   71000    1.1350883   -2.3851522    72.068047  0.084586909   0.10224234            2 
   72000    1.1491242   -2.4002982    73.254114  0.084784853   0.10206724            2 
   73000    1.1520329   -2.4265257    74.563451  0.085118094   0.10188217            3 
   74000    1.1665788   -2.4403443    75.066163  0.084533967   0.10170599            2 
   75000    1.1541813   -2.4666966    76.358069  0.084842298   0.10152637            3 
   76000    1.1593554   -2.4003626    77.634333  0.085125364   0.10135044            1 
   77000    1.1347921   -2.3898392    78.540271  0.085000293   0.10117835            1 
   78000    1.1156255     -2.39531    79.369182  0.084796134   0.10097409            1 
   79000    1.1629142   -2.4312515     80.21761  0.084617732   0.10074899            2 
   80000    1.1322708   -2.4514969    81.354944  0.084744732   0.10054057            1 
   81000    1.1589395   -2.4056751    82.674452   0.08505602    0.1003481            1 
   82000     1.160246   -2.4426448    83.889852  0.085253914   0.10014339            1 
   83000    1.1608651    -2.445258    84.714104   0.08505432  0.099939752            2 
   84000    1.1244692   -2.4390263    85.826166  0.085145006  0.099732509            1 
   85000    1.1428985   -2.4179724    87.153628  0.085444733  0.099534542            1 
   86000    1.1213644   -2.4655012     87.94402  0.085217073  0.099353248            1 
   87000    1.1342274   -2.4809272    88.853354  0.085108576  0.099172013            2 
   88000    1.1461754   -2.4185919    90.169315  0.085387608  0.098997839            2 
   89000    1.1196274    -2.438262    91.657745  0.085821858  0.098846162            1 
   90000    1.1003115   -2.4615405    92.148882  0.085323039  0.098684328            2 
   91000     1.139761   -2.4736576    92.866789  0.085042847  0.098505188            3 
   92000    1.1340925   -2.4617457    94.011832  0.085155644  0.098329697            1 
   93000    1.1162081   -2.4609491    95.278157  0.085374692  0.098176069            1 
   94000    1.0853544   -2.4597769    96.256937  0.085334164  0.098005582            2 
   95000    1.1092728   -2.4257052    97.434961  0.085469264  0.097839467            1 
   96000    1.1150515   -2.4510562     99.07486  0.086002482  0.097683645            1 
   97000    1.1106804   -2.4401918    100.00662  0.085916339  0.097531533            1 
   98000    1.1085273   -2.4652693    101.07721  0.085950004  0.097383426            1 
   99000    1.0851475   -2.4645101    101.58766  0.085511501  0.097238142            3 
  100000    1.1144349   -2.4588266    103.29428   0.08607857  0.097100055            2 
  101000    1.1232412   -2.4745241    104.76437  0.086439247  0.096987961            1 
  102000    1.0944531   -2.4637111     105.4496  0.086151633  0.096887174            1 
  103000    1.1147233   -2.4452798    106.50168  0.086166408   0.09677247            1 
  104000    1.1010213    -2.496614    107.03234  0.085763095  0.096653814            2 
  105000    1.1031211   -2.4795831     108.2608  0.085921271  0.096541124            2 
  106000    1.0881049   -2.4819833    109.47143  0.086062443  0.096427309            3 
  107000    1.1047413   -2.4760724    110.31415  0.085914445  0.096306203            2 
  108000    1.1230003   -2.4630108    112.05345  0.086460995  0.096174093            2 
  109000    1.0934172   -2.4723178    112.22678  0.085800289  0.096046101            3 
  110000    1.0831266   -2.4726024    113.75107  0.086175054  0.095926309            2 
  111000    1.0718089   -2.4966571    114.51288  0.085970629  0.095807582            1 
  112000    1.0966384   -2.4707541    115.32423  0.085806718  0.095691187            1 
  113000    1.0848355   -2.4840778    116.49175  0.085908367  0.095575718            3 
  114000    1.1220833   -2.4878635    116.82891  0.085401252  0.095447637            4 
  115000    1.0787581   -2.4850539    118.24594  0.085685465  0.095314697            3 
  116000    1.0972462   -2.5019218    119.21672  0.085644196  0.095176811            5 
  117000    1.0891428    -2.520418    119.63485  0.085210008  0.095043563            4 
  118000    1.0527373   -2.4965072    120.91682  0.085393231  0.094890042            1 
  119000    1.0795011   -2.4879911    121.87807  0.085348788  0.094738911            1 
  120000    1.0738098   -2.4985796    123.04524  0.085448082  0.094594739            1 
  121000     1.082369   -2.5112998    123.22655  0.084866772  0.094442824            3 
  122000     1.082999   -2.4849785     124.5407  0.085068782   0.09430057            2 
  123000     1.080339   -2.5332956    125.23154  0.084845217  0.094146507            1 
  124000    1.0786831   -2.4929897    126.07458  0.084727543  0.093984648            4 
  125000     1.085306   -2.5168204    126.62217   0.08441478  0.093822883            1 
  126000     1.095767   -2.5181303    127.68363  0.084446848  0.093664996            2 
  127000    1.0769338    -2.484303    129.74543  0.085134798  0.093516638            1 
  128000    1.0737042   -2.5128874    129.72443  0.084456006  0.093374245            3 
  129000    1.0467531   -2.5274496    130.43641  0.084261249  0.093220905            2 
  130000    1.0798617   -2.5134443    131.38155   0.08421894  0.093067668            4 
  131000    1.0766824   -2.5369647    132.14581  0.084062222  0.092905215            2 
  132000    1.0282918   -2.5120869    133.42063  0.084230197  0.092739646            3 
  133000    1.0541026   -2.5105456    134.43122  0.084230089  0.092590414            2 
  134000     1.051344   -2.5193345    134.52458  0.083659567  0.092436576            2 
  135000    1.0654119   -2.5073497    136.15896  0.084048741   0.09227262            2 
  136000    1.0530463   -2.5176874    137.00973  0.083952042  0.092103625            4 
  137000    1.0531675   -2.4949315    138.28518  0.084115072  0.091946218            1 
  138000     1.033514   -2.4817495    138.29599  0.083512074  0.091789866            3 
  139000    1.0572101   -2.5411734    139.25245  0.083484683  0.091627923            2 
  140000    1.0389032   -2.5350928    140.13465   0.08341348  0.091463468            2 
  141000    1.0242452   -2.5098652    140.91175  0.083281177  0.091292227            1 
  142000    1.0223685   -2.5114245    141.94096  0.083298684  0.091135244            1 
  143000    1.0466902   -2.5357832    142.75226  0.083188963  0.090976353            3 
  144000    1.0379406   -2.5219794    143.38556  0.082977756  0.090819312            2 
  145000    1.0364976   -2.5166054    144.96573  0.083313639  0.090669924            4 
  146000    1.0534001   -2.5368118     145.5195  0.083059073  0.090512532            2 
  147000    1.0528702   -2.5512215    145.59552  0.082537142  0.090342778            2 
  148000     1.033918   -2.5412429    146.80467  0.082660289  0.090176302            2 
  149000    1.0400644   -2.5624408    148.33193   0.08295969  0.090017359            3 
  150000    1.0450727   -2.5615143    148.25598  0.082364433  0.089849755            1 
  151000    1.0345385   -2.5499141    149.28815  0.082388601  0.089685928            2 
  152000    1.0312075   -2.5319349    150.96011  0.082763218   0.08953659            1 
  153000    1.0244159    -2.583011    151.60785   0.08257508  0.089379688            1 
  154000    1.0299581    -2.579281    151.97507  0.082237592  0.089222808            2 
  155000    1.0232136    -2.551085    152.40657  0.081939018  0.089069512            3 
  156000    1.0297153    -2.535462    154.22321  0.082384191  0.088916081            5 
  157000    1.0188159   -2.5602789    153.95746  0.081718398   0.08876851            1 
  158000   0.99681699   -2.5617897    155.39061  0.081957072  0.088619612            2 
  159000    1.0110148    -2.566552     156.1187   0.08182322  0.088469244            1 
  160000    1.0250035   -2.5419401    156.59248  0.081558584  0.088317351            2 
  161000    1.0039309   -2.5802335    157.02467   0.08127571  0.088161311            3 
  162000   0.98870147   -2.5837685    158.79116  0.081682694  0.088007799            1 
  163000    1.0037095   -2.5790229    158.69206  0.081130908  0.087846551            1 
  164000    1.0054336   -2.5966072    159.20844  0.080898599  0.087686846            1 
  165000    1.0159959    -2.580273    160.37619  0.080998077  0.087521558            1 
  166000   0.98646803    -2.588271    161.06228  0.080854559  0.087359257            2 
  167000   0.99583562   -2.5635289     162.2851  0.080980588  0.087203959            2 
  168000   0.99766677   -2.5590828    163.44873  0.081075761  0.087051147            2 
  169000    1.0073532   -2.5938505    163.54805  0.080644995  0.086899503            2 
  170000   0.98555691   -2.5435353    165.33193  0.081045065  0.086751562            2 
  171000   0.99130462   -2.5784418    165.80199  0.080800192  0.086611431            2 
  172000   0.99761922   -2.5860905    165.97429  0.080413898   0.08646164            1 
  173000   0.97544819   -2.5898834    166.71514  0.080305943   0.08630637            2 
  174000   0.97999897   -2.5826184    167.27506  0.080112576  0.086151437            2 
  175000   0.98623354   -2.5859158    168.91328  0.080434894  0.086006035            2 
  176000   0.99034803   -2.5931758    168.56177  0.079811445    0.0858534            3 
  177000   0.97987891   -2.6093524    169.99463  0.080035137  0.085706712            2 
  178000   0.99386388   -2.5983028    170.31897  0.079737343  0.085559636            3 
  179000   0.97363781   -2.6029051     171.4881  0.079836174  0.085408124            2 
  180000   0.97314611   -2.6005102    172.13824  0.079693631  0.085258744            2 
  181000   0.98901043   -2.6066225    172.78366  0.079550486  0.085106913            3 
  182000   0.98266043   -2.6217622    172.96252  0.079195292  0.084955282            3 
  183000   0.97424802   -2.6033637    174.65438   0.07953296   0.08480782            2 
  184000   0.97430692   -2.6205382    174.72124  0.079130998  0.084660285            3 
  185000   0.96500275   -2.6261231    175.87688  0.079223818    0.0845196            1 
  186000   0.98944921   -2.6099723    177.26169   0.07941832  0.084386516            2 
  187000   0.95224879   -2.6373156    177.82739  0.079245719  0.084250921            4 
  188000   0.97253746   -2.6042681     178.7755   0.07924446  0.084111363            1 
  189000   0.96085057   -2.6210433    178.77483  0.078824879  0.083968851            4 
  190000   0.98053661   -2.6052999    179.00658  0.078511656  0.083819966            3 
  191000   0.97263827   -2.6391027    179.19225   0.07818161  0.083669837            1 
  192000   0.96218426   -2.6287715    180.90495  0.078517772    0.0835168            3 
  193000   0.95422088   -2.6300798    181.66826  0.078440525  0.083369282            1 
  194000   0.95133131   -2.6329918    180.65161  0.077599488  0.083216421            1 
  195000   0.94952131    -2.621486    181.76832  0.077678769  0.083059092            2 
  196000   0.95195464   -2.6381046    182.97176  0.077794114  0.082907631            3 
  197000   0.95314287   -2.6582661    184.00289  0.077835403  0.082757374            2 
  198000   0.94710642    -2.623365    184.87387  0.077808868  0.082605016            3 
  199000   0.95698311   -2.6360585    185.08827  0.077507649  0.082454503            4 
  200000   0.94813462   -2.6333004    185.71506  0.077381276  0.082305135            4 
  201000   0.93133516   -2.6728623    185.41692  0.076872687  0.082155629            6 
  202000   0.95205413   -2.6617358    187.13698  0.077201726  0.082003101            3 
  203000   0.95397055     -2.63749    187.41918  0.076937267  0.081852852            3 
  204000   0.93899989   -2.6306482     187.9679  0.076784273  0.081702161            1 
  205000   0.94974874    -2.634214    188.94048  0.076805073  0.081554548            5 
  206000   0.95576253   -2.6514128    189.68077  0.076731702  0.081403096            4 
  207000   0.94506097   -2.6416927     190.0369  0.076504389  0.081254064            2 
  208000   0.91348153   -2.6593282    191.02673  0.076533144   0.08111053            3 
  209000   0.94512353   -2.6622291    192.55083  0.076774654  0.080971275            3 
  210000   0.93427092   -2.6646523    192.57904  0.076420252  0.080828075            4 
  211000   0.92523089   -2.6678715    192.71097  0.076110177  0.080685114            3 
  212000   0.92854063   -2.6157504     193.7419  0.076156407  0.080541739            3 
  213000   0.93319665   -2.6553551    194.24213  0.075994575  0.080401565            3 
  214000   0.94762223   -2.6767383    195.85151  0.076266162  0.080263029            4 
  215000   0.92998456   -2.6774725    196.11106  0.076012037  0.080119073            3 
  216000   0.92154692   -2.6624524    197.00554  0.076005225  0.079973413            2 
  217000   0.92451938   -2.6883933    197.17518  0.075720113  0.079830866            4 
  218000   0.90788246   -2.6673622    197.65139  0.075554812  0.079688415            4 
  219000   0.92317747   -2.6856151    198.51536  0.075538569  0.079550058            2 
  220000    0.9187297   -2.6834114    199.78194  0.075674975  0.079413356            2 
  221000   0.90100785   -2.6520248     199.6086  0.075267194   0.07927671            2 
  222000    0.9054583    -2.678841    200.20122  0.075150608  0.079136609            2 
  223000    0.9002651   -2.6759964    202.31643  0.075604046  0.078994772            5 
  224000   0.91179593   -2.6965587    201.73198  0.075049101   0.07885985            3 
  225000   0.90646753   -2.7027971     202.7487   0.07509211  0.078727054            1 
  226000   0.89580777   -2.7124249    203.17255  0.074916132  0.078596257            2 
  227000    0.8868658   -2.6873593    203.92591  0.074862669   0.07846266            5 
  228000    0.8729742    -2.712916    205.06435   0.07495042  0.078330364            6 
  229000   0.91723042   -2.6981387     204.8577  0.074547925  0.078200916            2 
  230000   0.89644619   -2.7130957    206.28221  0.074739931  0.078071457            4 
  231000   0.87801387   -2.6807851    207.10115  0.074711813  0.077944204            2 
  232000   0.89174033   -2.6907316    207.34815  0.074478501  0.077814986            4 
  233000    0.9010311   -2.7259684    208.05894  0.074413069  0.077686916            3 
  234000   0.90173142   -2.7002726    208.97157  0.074420075  0.077551953            4 
  235000   0.89305558   -2.7165286    209.00462  0.074115114   0.07742266            2 
  236000   0.88813402    -2.718518    209.69054  0.074043271  0.077294456            7 
  237000     0.907479   -2.7320961     211.5099   0.07437057  0.077170745            3 
  238000   0.88873543   -2.7138705    212.82293  0.074517833  0.077053493            3 
  239000   0.88410161   -2.7223371    213.01948  0.074274576    0.0769411            5 
  240000   0.89576226   -2.7555783    213.18329  0.074021976  0.076830854            4 
  241000   0.89399376    -2.733386    214.28306  0.074095111  0.076720682            6 
  242000   0.90806732   -2.7087019    215.92976  0.074355979   0.07660978            2 
  243000   0.88551864   -2.7391749    215.61685  0.073942677  0.076501258            2 
  244000   0.86542971   -2.6969328    216.72179  0.074017006  0.076391294            2 
  245000   0.87739298   -2.7491146    216.53708  0.073652069  0.076278567            4 
  246000   0.87297361   -2.7192197    216.64953  0.073390762  0.076164818            3 
  247000   0.88686331   -2.7138177    218.29987  0.073650428  0.076048715            4 
  248000   0.88637975   -2.7322166    218.16607  0.073308492  0.075932836            4 
  249000   0.89784187   -2.7283357    218.66218  0.073180113  0.075817493            2 
  250000   0.87801449   -2.7141193    219.98468  0.073328226  0.075701834            4 
  251000   0.87114025   -2.7497359    219.95373  0.073025807  0.075585595            3 
  252000   0.86851715   -2.7474615    220.78949  0.073012399  0.075471655            4 
  253000   0.84890094   -2.7195451     221.8658  0.073078325   0.07535798            2 
  254000   0.87151095   -2.7635272    221.26692  0.072594135  0.075244098            5 
  255000   0.86365731   -2.7625756    222.36224  0.072667399  0.075127173            3 
  256000   0.86521564   -2.7565516    222.82536  0.072534297  0.075009161            2 
  257000   0.86275244   -2.7293471    222.77504  0.072235747  0.074893265            1 
  258000   0.84708807    -2.774999    223.55402   0.07220737  0.074772781            2 
  259000   0.84302282   -2.7415538    224.40639  0.072202827  0.074653079            4 
  260000   0.83945615   -2.7689017    224.41606  0.071928223  0.074532345            5 
  261000   0.84563608   -2.7811292     224.5131  0.071683621  0.074411154            2 
  262000   0.83031439    -2.783236    225.07915  0.071590061  0.074286991            6 
  263000   0.83127697   -2.7811388    225.75258  0.071531234  0.074163668            6 
  264000   0.85752741   -2.7761189    226.67551  0.071551612  0.074042097            5 
  265000   0.85184996   -2.7554498    226.45306  0.071211655  0.073919561            3 
  266000   0.85233247   -2.7678895    227.02623  0.071123505  0.073796756            2 
  267000   0.83092973   -2.7625122    227.57523  0.071028475   0.07367415            2 
  268000   0.85210725   -2.7621378    227.38123  0.070703119  0.073551873            5 
  269000   0.84015844   -2.7739555    228.79589  0.070878527  0.073424749            5 
  270000   0.83548905   -2.7671993    228.24103  0.070444763  0.073296678            5 
  271000   0.83049529    -2.787407    227.93939  0.070092062  0.073170678            3 
  272000   0.84914924   -2.7759353    228.91736  0.070133996  0.073041271           11 
  273000   0.83237253   -2.7685551    230.40805  0.070332127  0.072915979            3 
  274000   0.84724275   -2.8175019    230.95529  0.070241878  0.072787843            3 
  275000   0.83140178   -2.7811129    231.30801  0.070093338  0.072662166            6 
  276000   0.82399944   -2.8012659    231.12127  0.069782992  0.072534798            5 
  277000   0.83573118   -2.8121266    231.65136  0.069690542  0.072409132            3 
  278000   0.81258433   -2.8070789    231.96389  0.069533539  0.072282661            2 
  279000   0.79790986   -2.8058745    233.43859  0.069724787  0.072157531            4 
  280000   0.83634798   -2.8047576    234.04965  0.069657635  0.072031973            3 
  281000   0.81206253   -2.8240825    233.94816  0.069379643  0.071905939            2 
  282000   0.81728646   -2.7937676    233.76595  0.069079771  0.071779755            2 
  283000   0.80472868   -2.8048871    235.01579  0.069203706  0.071655432            5 
  284000     0.826751   -2.8083463    235.47228  0.069093977  0.071531141            6 
  285000   0.80046603   -2.8227999    236.60974  0.069184136  0.071405814            2 
  286000   0.79784286   -2.8019102    236.84593  0.069011053  0.071281323            3 
  287000    0.8137967   -2.8200683    237.17386  0.068865813  0.071158253            3 
  288000   0.80694161   -2.8387147     237.2662  0.068653413  0.071035693            3 
  289000   0.81264488    -2.825479    238.90361  0.068888006  0.070914679            4 
  290000    0.8128079   -2.8399532    238.68142  0.068586616  0.070793634            4 
  291000   0.79617429   -2.8342164    239.53153  0.068594368  0.070670006            4 
  292000   0.80818498   -2.8457516    239.48272  0.068345526  0.070547989            4 
  293000   0.80807754   -2.8426692     239.4546  0.068104266  0.070423629            4 
  294000    0.7850312   -2.8290705    240.58577  0.068193245  0.070299706            4 
  295000   0.80764802   -2.8327439     240.3748  0.067902485  0.070172696            3 
  296000   0.80269522   -2.8312781    240.69822  0.067764137  0.070046813            4 
  297000   0.80781981    -2.813493    241.86332  0.067862884  0.069922664            2 
  298000   0.77761832   -2.8439286    242.56377  0.067831032  0.069800823            4 
  299000   0.79589723   -2.8435457    242.86837  0.067689065  0.069679122            3 
  300000   0.80107877   -2.8820708    243.20354  0.067556539  0.069556089            4 
  301000   0.79797799   -2.8468959    243.13156  0.067312171  0.069434063            4 
  302000    0.7934455   -2.8524303    244.05714  0.067344685  0.069309587            2 
  303000   0.79051078   -2.8343342    243.78542  0.067047695  0.069184675            5 
  304000   0.79649595   -2.8526844    245.17108  0.067206983  0.069059578            3 
  305000   0.80382514   -2.8301988    244.67373  0.066850746   0.06893569            4 
  306000   0.77434107   -2.8678199    245.39379  0.066828373  0.068811801            4 
  307000   0.77030105   -2.8632385     244.6615  0.066411917  0.068685874            6 
  308000   0.77952698   -2.8663475    245.02379  0.066294316  0.068558314            4 
  309000    0.7841606   -2.8736726    245.41792  0.066186061  0.068431012            3 
  310000   0.77448653   -2.8527975    245.54301  0.066006184  0.068302383            6 
  311000   0.77773481   -2.8917943    245.83859  0.065873149  0.068173962            4 
  312000   0.75885207    -2.854277    247.38719  0.066075638  0.068045035            5 
  313000    0.7731057    -2.861915    247.32978  0.065849248  0.067918036            4 
  314000   0.77958788   -2.8915148    247.76637  0.065755406  0.067790475            4 
  315000   0.75616367   -2.8789117    247.57095   0.06549496  0.067663606            7 
  316000   0.75504481   -2.8737304    248.31628  0.065484252  0.067538282            3 
  317000   0.75903426   -2.8611022    249.11296  0.065487108  0.067409819            5 
  318000   0.76652757   -2.8605045    248.77047  0.065191423  0.067283616            3 
  319000   0.74037234   -2.8911449    249.15166  0.065086642  0.067155523            8 
  320000   0.74818372   -2.8876055      248.809   0.06479401  0.067027602            5 
  321000   0.76071107   -2.8950951    249.56792   0.06478918  0.066900102            3 
  322000   0.74373361   -2.8955591    250.48419  0.064825102  0.066773283            2 
  323000   0.72945201    -2.897048    250.04834  0.064511955  0.066646788            3 
  324000   0.75145231   -2.9052425     250.8163  0.064510364  0.066519996            2 
  325000   0.73600925   -2.8682493    251.95819  0.064604664  0.066393212            5 
  326000   0.74376569   -2.9138807    251.41155  0.064266756  0.066265961           12 
  327000   0.75473652   -2.9023967    252.01442  0.064223859  0.066140426            6 
  328000     0.746672   -2.8976997    252.43301  0.064134402  0.066015114            3 
  329000   0.73450481   -2.9066294    252.94158  0.064068282  0.065888979            2 
  330000   0.74510243   -2.9280322    253.78464   0.06408703  0.065763578            7 
  331000   0.73273294   -2.9114375    253.95031  0.063935123  0.065639132            5 
  332000   0.72742216   -2.9070535     253.3402  0.063589407  0.065514707            4 
  333000   0.74192195   -2.9492404    253.35641  0.063402505  0.065390777            5 
  334000   0.75091751   -2.8895308    254.53201  0.063505991  0.065267861            4 
  335000   0.73000694   -2.9192418     254.3713  0.063276443  0.065144806            7 
  336000   0.73172025   -2.9210339    254.91873  0.063223891  0.065022255            2 
  337000   0.71001993   -2.9261971    255.65449  0.063218221  0.064899507            5 
  338000   0.71616087   -2.9234615    255.16863  0.062911398  0.064774655            7 
  339000   0.73530774   -2.9202691    257.27394  0.063243348   0.06465056            6 
  340000   0.72900455   -2.9391495    256.26161  0.062809217  0.064527077            6 
  341000   0.73010253   -2.9394057    257.13649   0.06283883  0.064402421            5 
  342000   0.71757729   -2.9292221    256.91725  0.062601668  0.064279387            3 
  343000   0.71714397   -2.9218164    257.34568  0.062523246  0.064156098            2 
  344000    0.7160658   -2.8963078      258.645   0.06265625  0.064034424            5 
  345000   0.72216618   -2.9466133     258.3908  0.062413235  0.063912255            5 
  346000   0.72340304   -2.9262003    258.09619  0.062161895  0.063790108            3 
  347000   0.70789997   -2.9498622    258.59575  0.062102725   0.06366785            2 
  348000   0.70494027   -2.9511888    259.34908  0.062104665  0.063545442            7 
  349000   0.71124316   -2.9738298    259.31705  0.061919067  0.063424095            3 
  350000   0.72245056   -2.9731077    259.97958  0.061899899  0.063302459            8 
  351000   0.70711075    -2.981279    260.62755  0.061877385  0.063183158            8 
  352000   0.71323861    -2.961103    260.24037  0.061609936  0.063062549            7 
  353000   0.69970038   -2.9975203    260.48396  0.061492907  0.062943252            5 
  354000   0.69261722   -2.9730027     261.7716  0.061622317  0.062823841            9 
  355000   0.71310667   -2.9766359    261.84814  0.061466698  0.062704961            8 
  356000    0.6901028   -2.9696516    261.70582  0.061260725  0.062586014            3 
  357000   0.69781512   -2.9665332    262.02698  0.061164093  0.062467833            5 
  358000   0.69267067   -2.9795227    261.89319  0.060962102  0.062347781            8 
  359000   0.69388759    -2.988991    261.59472  0.060723007  0.062227297            5 
  360000   0.69916614   -2.9819887    262.95423  0.060869034  0.062107184            3 
  361000    0.6865676   -2.9613072    262.40925  0.060574619  0.061986933            8 
  362000   0.68835906   -2.9997103    263.04237  0.060553032  0.061866175            6 
  363000   0.69066847   -2.9832131    262.60459  0.060285719  0.061746172            6 
  364000   0.67778812   -2.9989105      263.194  0.060255037  0.061625723            6 
  365000   0.69661182   -3.0049969    263.18832  0.060088658  0.061503875            7 
  366000    0.6769417   -3.0012136    263.32353  0.059955267  0.061382422            5 
  367000   0.68053482   -2.9791452    263.99318  0.059943955  0.061259812            6 
  368000   0.67152173   -2.9909608    264.13214  0.059812532  0.061138248            6 
  369000   0.69536953   -3.0260148    263.90439  0.059599005  0.061017275            4 
  370000   0.68377395   -2.9859051    264.34215   0.05953652  0.060895297            4 
  371000   0.68094618   -2.9888011     265.1838  0.059565094  0.060774154            6 
  372000   0.66208789   -3.0261767    265.35514  0.059443357  0.060654104            5 
  373000   0.68822925   -3.0111416    266.02204  0.059432985  0.060534304            6 
  374000   0.67066561   -3.0097946    265.89198  0.059245093  0.060414746            4 
  375000   0.67366054   -2.9982113    265.56848  0.059015217  0.060293731            5 
  376000   0.66808652   -3.0005132    265.18697  0.058773708  0.060172455            5 
  377000   0.67328823   -3.0153053    265.66391  0.058723235  0.060049934            4 
  378000   0.67521926   -3.0366414    265.96246  0.058633698  0.059927568            5 
  379000   0.66377224   -3.0266584    266.71684  0.058644863  0.059805408            4 
  380000   0.66470577   -3.0225536    266.40314   0.05842174  0.059683541            7 
  381000   0.66647604   -3.0278674    266.64752  0.058321855  0.059562066            7 
  382000   0.65405236   -3.0508868    266.47682  0.058131941  0.059440539           11 
  383000   0.65108056    -2.996222    267.61849  0.058228565  0.059319668            7 
  384000   0.66856117   -3.0438288     267.4434  0.058038932   0.05919969            5 
  385000   0.65168579   -3.0294715    266.83521  0.057756538   0.05907893            6 
  386000   0.66175911   -3.0569066    267.64776  0.057782332  0.058958086            7 
  387000   0.66030543   -3.0537342    268.09758  0.057729883  0.058838972           10 
  388000   0.65527261   -3.0598632    268.52174  0.057672196  0.058719137            8 
  389000    0.6488296   -3.0383338    269.02824  0.057632442  0.058599366           13 
  390000   0.65158994   -3.0574198    268.04868  0.057275359  0.058478654            6 
  391000   0.64621749   -3.0735394    268.80301  0.057289644  0.058357477           11 
  392000   0.63684317   -3.0837004    269.09322  0.057205191  0.058237204           12 
  393000    0.6563285   -3.0767199    269.45629  0.057136619  0.058117164            5 
  394000   0.63940859   -3.0473079     268.8376  0.056860745  0.057997475            6 
  395000   0.64703921   -3.0611851    269.15647  0.056784065  0.057878553            7 
  396000   0.64814633   -3.0683898    269.62093  0.056738411  0.057758663            4 
  397000   0.64201821   -3.0642089    269.32603  0.056533592  0.057639604            6 
  398000   0.62159711   -3.0787911    270.10981  0.056555655  0.057520731            9 
  399000   0.63825504   -3.0718434    270.71805  0.056540947  0.057402007           13 
  400000   0.62099091   -3.0708507    270.42778   0.05633912  0.057284663           10 
  401000   0.64307687   -3.0813448    271.60494  0.056443255  0.057167399            5 
  402000   0.62607862   -3.0903371    270.96688   0.05617058  0.057049979            8 
  403000   0.62965016   -3.0781907    271.31211  0.056102586  0.056932594           12 
  404000   0.61002188    -3.090333    271.32961  0.055967329  0.056815226            9 
  405000   0.62076952   -3.0876372    271.81313  0.055928628  0.056697857            8 
  406000   0.63530512   -3.1007551    272.16476  0.055863047  0.056581039            6 
  407000   0.62292864   -3.0945579    272.03538    0.0556993  0.056464842            5 
  408000   0.62025442   -3.1096482    272.32488  0.055621911  0.056348963            7 
  409000   0.61200327   -3.1142387     271.9004   0.05539943  0.056232951           13 
  410000   0.61751707   -3.1003882    272.33548  0.055352739  0.056117534            7 
  411000   0.61787763   -3.1155112    273.31174  0.055416006  0.056003405            6 
  412000   0.62644904   -3.0886561    273.19987  0.055258873  0.055888794            7 
  413000     0.594429   -3.1021219    273.75209  0.055236499  0.055773877           14 
  414000   0.60754243   -3.1117411    273.37747   0.05502767  0.055658688            5 
  415000   0.60766302   -3.1249314    273.91822  0.055003659  0.055543328            8 
  416000   0.59799389   -3.1096587    273.09149  0.054705826  0.055428343            4 
  417000   0.58692562   -3.1326931    273.29747  0.054615801   0.05531287            6 
  418000    0.6043904   -3.1350281    273.49061  0.054523646  0.055197932            8 
  419000   0.59749761   -3.1119028    273.44221  0.054383893  0.055082857            6 
  420000    0.5940476   -3.1327985    273.97436  0.054359993  0.054967643            8 
  421000   0.58572542   -3.1344126    274.14547   0.05426474  0.054852776           12 
  422000   0.59307689   -3.1366687    275.02891  0.054310607  0.054738351            8 
  423000   0.59006528   -3.1423423    274.09953  0.053999119  0.054624243            7 
  424000   0.58563278   -3.1367958    274.62763  0.053975557  0.054511213            7 
  425000   0.59332256   -3.1470871    273.98573  0.053722691  0.054398701           17 
  426000   0.58209091   -3.1436436    275.89314  0.053969707  0.054286167            7 
  427000   0.58585402   -3.1471421    275.41115  0.053749249  0.054173364           13 
  428000   0.58403471   -3.1515455    275.62453  0.053665213  0.054060911           12 
  429000   0.59081209   -3.1525972    275.30659  0.053478358  0.053947164           12 
  430000   0.57118302   -3.1468044     276.1452  0.053516512  0.053834503           20 
  431000   0.57315943   -3.1518352    275.46729   0.05326127  0.053721814            8 
  432000   0.57212098   -3.1479077    275.52282  0.053148691  0.053608806            8 
  433000   0.56859073   -3.1670914    275.66722  0.053053738  0.053495795           12 
  434000   0.58857035   -3.1595734    276.07015  0.053008861  0.053383164            6 
  435000   0.56577516   -3.1753738    275.94127  0.052862313   0.05327074            6 
  436000   0.58595407   -3.1890004    275.55929  0.052668061  0.053158916           10 
  437000   0.57263814   -3.1820284     275.8169  0.052596662  0.053046428            6 
  438000   0.56210759   -3.1686499     275.8261  0.052478329  0.052934031           12 
  439000   0.57449159   -3.1535396    276.04108  0.052399597  0.052821933            5 
  440000   0.55505463   -3.1898669    276.81141  0.052426403   0.05270949            7 
  441000    0.5674032     -3.18818    276.67994   0.05228268  0.052596851           10 
  442000      0.56974    -3.188106    276.23452  0.052080416  0.052484236            6 
  443000   0.56203953   -3.1857184    277.12949  0.052131206  0.052371677            7 
  444000    0.5499216    -3.167069    276.54056  0.051903258  0.052260251            9 
  445000   0.56041767   -3.1749432    277.12027  0.051895181  0.052148948            9 
  446000   0.55907418   -3.1837576    276.30492   0.05162648  0.052037254            7 
  447000   0.55393235    -3.187438    277.25265  0.051687668  0.051925476            6 
  448000   0.56254722   -3.2105711    277.45481  0.051609898  0.051814843           15 
  449000     0.548702   -3.1962031    277.36944  0.051479109  0.051703537            6 
  450000   0.55690384   -3.1978408    277.45412  0.051380392  0.051593205            6 
  451000   0.55665362   -3.1950469    277.65054   0.05130276  0.051482736            9 
  452000   0.54220756    -3.233515    277.29902  0.051124451  0.051371565            7 
  453000   0.54598158   -3.2170571    276.71712  0.050904548  0.051260496           13 
  454000   0.55113733   -3.2219986    277.03139  0.050850108  0.051149233           16 
  455000   0.53011473   -3.2252843    277.34621   0.05079601  0.051038329           11 
  456000   0.54125938   -3.2107331    276.84575  0.050593156  0.050927125           14 
  457000   0.54182785    -3.221495    278.02107  0.050696766   0.05081569           14 
  458000   0.53187433   -3.2220741    276.87303  0.050377189  0.050704385            7 
  459000   0.52657432   -3.2301214    276.93911  0.050279431   0.05059256           26 
  460000   0.53236246   -3.2332855    277.24202  0.050225003  0.050480798           14 
  461000   0.54588253   -3.2274237     276.9041  0.050054972  0.050369441           26 
  462000   0.53051521   -3.2217205    277.20851  0.050001535  0.050257299           26 
  463000   0.52132381   -3.2298174    277.42017  0.049931637  0.050145985           10 
  464000   0.52573449   -3.2382623    277.17059  0.049779201  0.050034866           13 
  465000   0.51853915   -3.2521932    277.40075  0.049713396   0.04992364           17 
  466000   0.52041136   -3.2438572    277.18068  0.049567361  0.049812642           29 
  467000   0.52359153   -3.2402528    277.26212  0.049475753  0.049701045            9 
  468000   0.50529044   -3.2384958    277.53319  0.049418303  0.049589544           12 
  469000   0.52111412   -3.2552134    277.22633   0.04925841  0.049478302           11 
  470000   0.51894048   -3.2477037    276.74906  0.049068982  0.049366963           13 
  471000   0.51245747   -3.2712748    277.40732  0.049081267  0.049255905           19 
  472000   0.52338158   -3.2662653    277.56702  0.049005477  0.049144391           16 
  473000   0.50286007   -3.2632236     277.6691  0.048919855  0.049033399           21 
  474000   0.51181494   -3.2781553    276.99453  0.048698054  0.048922077            9 
  475000   0.51798014    -3.270018    277.48342  0.048681302  0.048811214           30 
  476000   0.50855718   -3.2739391    277.50498  0.048582805  0.048700373           29 
  477000   0.50583399   -3.2667631    277.49633  0.048479442  0.048589856            9 
  478000   0.50466311   -3.2751095    277.85635  0.048440787  0.048480189           15 
  479000   0.50418363   -3.2800446    277.25008  0.048234182  0.048370006           12 
  480000   0.50022871   -3.2679537     277.6049  0.048195296  0.048259723           12 
  481000   0.49721159   -3.2914546    277.11436   0.04801011  0.048149428           10 
  482000   0.50384645   -3.2774427    277.94529  0.048054165  0.048039111           10 
  483000   0.49156235    -3.297684    277.45664  0.047870366  0.047929033           16 
  484000   0.49510088    -3.292511    277.10188  0.047710378  0.047818316            5 
  485000    0.4915181   -3.2979418    277.54949  0.047688916  0.047708134           11 
  486000   0.48041029   -3.3000278    277.70388  0.047617263  0.047597741           12 
  487000   0.49112811   -3.3071787    276.76624  0.047359041  0.047487254           11 
  488000   0.48136788   -3.3081913      276.612  0.047235655  0.047377021           14 
  489000   0.48511087   -3.3133897    277.37963  0.047269875  0.047266199           14 
  490000   0.49020488    -3.319444    277.38771  0.047174781  0.047156138           25 
  491000    0.4840565   -3.3148751    276.72277  0.046965848  0.047045858           18 
  492000   0.47976609   -3.2981297    277.70046  0.047035985   0.04693647           22 
  493000   0.48153484   -3.3299793    277.04342  0.046829516  0.046827182           11 
  494000   0.47597264   -3.3365199    277.21393  0.046763484  0.046718081           22 
  495000   0.47686673   -3.3265048    277.29989  0.046683484  0.046609266           16 
  496000   0.48554366    -3.329591    278.12366  0.046727765  0.046501038           16 
  497000   0.46357049   -3.3451796    277.86703  0.046590717  0.046393192            8 
  498000   0.46585672   -3.3406409    277.57016  0.046447484  0.046285496           16 
  499000   0.47544313   -3.3169401    277.72241  0.046379827  0.046178366           13 
  500000   0.46276866   -3.3351065    277.84024  0.046306706  0.046071553            6 
  501000    0.4587421   -3.3438446    277.92845   0.04622895  0.045964885            6 
  502000   0.47484681   -3.3528618    277.87015  0.046127182  0.045858272           23 
  503000   0.46562568   -3.3410123    277.57676  0.045986872  0.045751692           23 
  504000   0.45976039   -3.3623335    277.89218  0.045947781  0.045644865           23 
  505000   0.46679267   -3.3637402    278.09752   0.04589068  0.045538601           37 
  506000   0.46464716   -3.3567397    277.07869  0.045632196  0.045431758           28 
  507000   0.45822772   -3.3618423    277.58685  0.045625715  0.045325701           41 
  508000   0.45269509   -3.3769804    277.33261  0.045494194  0.045219464           42 
  509000   0.44901731   -3.3743537    277.61704  0.045451382  0.045113823           49 
  510000   0.44383332   -3.3561115    277.94452  0.045415771  0.045008192           20 
  511000   0.45143537    -3.393628    277.58407  0.045268113  0.044902615           20 
  512000   0.45403941   -3.3642737    277.69043   0.04519701  0.044797148           23 
Loop time of 1209.84 on 48 procs for 500000 steps with 4000 atoms

Performance: 71414.672 tau/day, 413.279 timesteps/s
99.4% CPU use with 48 MPI tasks x no OpenMP threads

MPI task timing breakdown:
Section |  min time  |  avg time  |  max time  |%varavg| %total
---------------------------------------------------------------
Pair    | 76.619     | 81.632     | 86.417     |  28.0 |  6.75
Neigh   | 8.1062     | 8.4173     | 8.8462     |   5.3 |  0.70
Comm    | 77.735     | 82.865     | 88.524     |  29.5 |  6.85
Output  | 0.86538    | 0.86591    | 0.87412    |   0.1 |  0.07
Modify  | 1021.8     | 1024.8     | 1027       |   3.5 | 84.70
Other   |            | 11.27      |            |       |  0.93

Nlocal:        83.3333 ave          93 max          76 min
Histogram: 2 2 10 6 11 11 1 3 1 1
Nghost:        2166.62 ave        2187 max        2138 min
Histogram: 2 1 4 5 6 5 8 6 9 2
Neighs:        14306.5 ave       16444 max       12634 min
Histogram: 2 2 9 10 6 8 6 4 0 1
FullNghs:      28612.9 ave       32289 max       25923 min
Histogram: 2 1 9 12 8 9 3 3 0 1

Total # of neighbors = 1373419
Ave neighs/atom = 343.35475
Neighbor list builds = 27146
Dangerous builds = 0

#clear
#
#next RN
#
#jump SELF
Total wall time: 0:20:13
