
units lj                  # Use reduced LJ style units
atom_style atomic         # Uncharged point particles
atom_modify map hash      # Needed for indexing of clusters etc
                          # Used to be able to find where atoms are in relation to each other.

lattice fcc 1.0 spacing 1 1 1
Lattice spacing in x,y,z = 1.5874011 1.5874011 1.5874011
region box block 0 10 0 10 0 10 units lattice
create_box 2 box
Created orthogonal box = (0.0000000 0.0000000 0.0000000) to (15.874011 15.874011 15.874011)
  3 by 4 by 4 MPI processor grid
create_atoms 1 box
Created 4000 atoms
  using lattice units in orthogonal box = (0.0000000 0.0000000 0.0000000) to (15.874011 15.874011 15.874011)
  create_atoms CPU = 0.003 seconds
set type 1 type/fraction 2 0.19 78393
Setting atom values ...
  784 settings made for type/fraction
mass 1 1.0
mass 2 1.0
pair_style lj/cut  3.5
pair_modify tail  yes
pair_coeff 1  1  1.0  1.0   # Intearaction between 1 and 1 set with epsilon = 1 and sigma = 1
pair_coeff 1  2  1.5  0.8
pair_coeff 2  2  0.5  0.88

write_data data.0
System init for write_data ...
Neighbor list info ...
  update every 1 steps, delay 10 steps, check yes
  max neighbors/atom: 2000, page size: 100000
  master list distance cutoff = 3.8
  ghost atom cutoff = 3.8
  binsize = 1.9, bins = 9 9 9
  1 neighbor lists, perpetual/occasional/extra = 1 0 0
  (1) pair lj/cut, perpetual
      attributes: half, newton on
      pair build: half/bin/atomonly/newton
      stencil: half/bin/3d
      bin: standard
WARNING: Not all mixed pair coeffs generated from mixing. Use write_data with 'pair ij' option to store all pair coeffs. (../write_data.cpp:312)


#############################
#   M E L T   S Y S T E M   #
#############################

velocity all create 2.4 1741580 mom yes dist gaussian # Assign velocities
                                                    # Temperature 2.4, random number seed, zero linear momentum
                                                                                # Gaussian distribution

timestep 0.002   # simulation timestep
thermo 1000       # output thermodynamic data every 1000 steps bf 100

# Define a fix  in this case with index 1 applied to all
# particles in the simulation. This fix is for simulations
# in the anisotropic NPT ensemble. Note that we use the MTK
# correction.
fix 1 all npt temp 2.4 2.4 0.1 iso 5.68 5.68 0.5 mtk yes tchain 5 pchain 5 # Use NPT ensemble
                                                                         # Set temperature and pressure and damping
                                                                         # Numbers of thermostats in chain and in barostat
run 10000          # run for 10000 steps
Per MPI rank memory allocation (min/avg/max) = 3.642 | 3.644 | 3.648 Mbytes
Step Temp E_pair E_mol TotEng Press Volume 
       0          2.4   -7.1181064            0   -3.5190064   -3.5570023         4000 
    1000    2.3580656   -4.7746881            0    -1.238474     5.733552    4525.7191 
    2000    2.3896904    -4.791683            0   -1.2080436    5.6136056    4533.7524 
    3000    2.4024555   -4.8223985            0   -1.2196162    5.8474848    4494.9307 
    4000    2.3723925   -4.8438215            0   -1.2861223    5.4211074    4510.1111 
    5000    2.4487665   -4.7668959            0   -1.0946645    5.9132366    4509.1256 
    6000    2.3382736   -4.8825675            0    -1.376034    5.4216375    4505.7445 
    7000    2.3912883   -4.7645907            0    -1.178555    5.6966351    4544.5493 
    8000    2.4194859   -4.8359218            0   -1.2076003    5.6903043    4498.0519 
    9000    2.4206165    -4.835281            0    -1.205264     5.643304    4500.0309 
   10000    2.4034273   -4.8254525            0   -1.2212128    5.5293152    4523.3392 
Loop time of 2.27804 on 48 procs for 10000 steps with 4000 atoms

Performance: 758547.194 tau/day, 4389.741 timesteps/s
99.7% CPU use with 48 MPI tasks x no OpenMP threads

MPI task timing breakdown:
Section |  min time  |  avg time  |  max time  |%varavg| %total
---------------------------------------------------------------
Pair    | 0.97115    | 1.0247     | 1.08       |   2.4 | 44.98
Neigh   | 0.19548    | 0.20417    | 0.21577    |   0.9 |  8.96
Comm    | 0.71598    | 0.78797    | 0.88159    |   3.3 | 34.59
Output  | 0.00025313 | 0.00025776 | 0.00032031 |   0.0 |  0.01
Modify  | 0.20615    | 0.24626    | 0.27316    |   3.8 | 10.81
Other   |            | 0.0147     |            |       |  0.65

Nlocal:        83.3333 ave          91 max          73 min
Histogram: 1 1 3 7 4 10 8 4 7 3
Nghost:        1513.58 ave        1534 max        1487 min
Histogram: 3 4 2 3 6 9 5 4 7 5
Neighs:        8434.25 ave        9363 max        6904 min
Histogram: 1 0 2 6 2 13 2 10 9 3

Total # of neighbors = 404844
Ave neighs/atom = 101.21100
Neighbor list builds = 908
Dangerous builds = 228

# Equilibrate just above the melting temperature to avoid step fn in T

fix 1 all npt temp 1.25 1.25 0.1 iso 5.68 5.68 0.5 mtk yes tchain 5 pchain 5
run 2000
Per MPI rank memory allocation (min/avg/max) = 3.642 | 3.645 | 3.649 Mbytes
Step Temp E_pair E_mol TotEng Press Volume 
   10000    2.4034273   -4.8254525            0   -1.2212128    5.5293152    4523.3392 
   11000    1.2558742   -6.5016011            0   -4.6182609    5.5921123    3693.5275 
   12000    1.2445932   -6.5421352            0   -4.6757121    5.5429615    3679.7447 
Loop time of 0.51089 on 48 procs for 2000 steps with 4000 atoms

Performance: 676466.686 tau/day, 3914.738 timesteps/s
99.6% CPU use with 48 MPI tasks x no OpenMP threads

MPI task timing breakdown:
Section |  min time  |  avg time  |  max time  |%varavg| %total
---------------------------------------------------------------
Pair    | 0.22591    | 0.24502    | 0.26783    |   1.9 | 47.96
Neigh   | 0.03181    | 0.034527   | 0.037994   |   0.6 |  6.76
Comm    | 0.15247    | 0.17636    | 0.20033    |   2.3 | 34.52
Output  | 5.2523e-05 | 5.3755e-05 | 6.7936e-05 |   0.0 |  0.01
Modify  | 0.043652   | 0.050321   | 0.059939   |   1.6 |  9.85
Other   |            | 0.004599   |            |       |  0.90

Nlocal:        83.3333 ave          92 max          74 min
Histogram: 1 2 3 9 8 6 8 8 2 1
Nghost:        1735.02 ave        1761 max        1713 min
Histogram: 2 3 7 9 7 7 6 3 2 2
Neighs:        10376.0 ave       11737 max        8710 min
Histogram: 1 1 0 8 11 9 9 4 3 2

Total # of neighbors = 498048
Ave neighs/atom = 124.51200
Neighbor list builds = 142
Dangerous builds = 6

#############################
# L I N E A R  Q U E N C H  #
#############################

# Define solid atoms. This closely follows ten Wolde  Ruiz-Montero and Frenkel  Faraday Discuss  1996  104  93-110
# Compute components of the per-atom q6 vector
compute q6 all orientorder/atom degrees 1 6 components 6 nnn NULL cutoff 1.3 # compute the Q6 parameter.
                                                                             # Use all neighbours within 1.3 unit cell.

# get number of connections
compute coord_number all coord/atom orientorder q6 0.5

# An atom is solid if it has 8 or more connections (of a possible 14)
variable is_solid atom c_coord_number>=8
group solid dynamic all var is_solid    # Must be dynamic to update
dynamic group solid defined

# do clustering
compute cluster solid cluster/atom 1.3 # Create a cluster where all atoms within are solid and max 1.3 units from another member

# define chunks one chunk per cluster
compute clus_chunks solid chunk/atom c_cluster nchunk every compress yes  # Says which atoms are in which chunk

# count the size of each chunk
compute size_chunks solid property/chunk clus_chunks count


# Find the maximum entry in the vector of chunk sizes
variable max_n equal max(c_size_chunks)


# Thermo style which includes this variable
# thermo_style custom step temp pe vol v_max_n

thermo ${N}  # Print the thermo information every 100 steps
thermo 1000  

# Reset the npt fix at a lower temperature (below freezing)
fix 1  all npt temp  ${temp} ${temp}  0.1  iso  5.68  5.68  0.5  mtk yes tchain  5  pchain  5
fix 1  all npt temp  0.45 ${temp}  0.1  iso  5.68  5.68  0.5  mtk yes tchain  5  pchain  5
fix 1  all npt temp  0.45 0.45  0.1  iso  5.68  5.68  0.5  mtk yes tchain  5  pchain  5

dump dmp2 all dcd ${N} traj.dcd
dump dmp2 all dcd 1000 traj.dcd


compute msd all msd com yes
variable twopoint equal c_msd[4]/6/(step*dt+1.0e-6)
fix 9 all vector 10 c_msd[4]
variable fit equal slope(f_9)/6/(10*dt)
thermo_style custom step temp pe c_msd[4] v_twopoint v_fit v_max_n

fix 1 all npt temp 1.25 ${temp} 0.1 iso 5.68 5.68 0.5 mtk yes tchain 5 pchain 5
fix 1 all npt temp 1.25 0.45 0.1 iso 5.68 5.68 0.5 mtk yes tchain 5 pchain 5
run 5000000 # 5000000  # Run for this many steps
Neighbor list info ...
  update every 1 steps, delay 10 steps, check yes
  max neighbors/atom: 2000, page size: 100000
  master list distance cutoff = 3.8
  ghost atom cutoff = 3.8
  binsize = 1.9, bins = 9 9 9
  4 neighbor lists, perpetual/occasional/extra = 1 3 0
  (1) pair lj/cut, perpetual
      attributes: half, newton on
      pair build: half/bin/atomonly/newton
      stencil: half/bin/3d
      bin: standard
  (2) compute orientorder/atom, occasional
      attributes: full, newton on
      pair build: full/bin/atomonly
      stencil: full/bin/3d
      bin: standard
  (3) compute coord/atom, occasional
      attributes: full, newton on
      pair build: full/bin/atomonly
      stencil: full/bin/3d
      bin: standard
  (4) compute cluster/atom, occasional
      attributes: full, newton on
      pair build: full/bin/atomonly
      stencil: full/bin/3d
      bin: standard
Per MPI rank memory allocation (min/avg/max) = 9.771 | 9.777 | 9.783 Mbytes
Step Temp PotEng c_msd[4] v_twopoint v_fit v_max_n 
   12000    1.2445932   -6.5421352 7.318657e-30 5.0824005e-32 8.3333333e+20            3 
   13000    1.2278966   -6.5480307   0.53600504 0.0034359296  0.043873343            2 
   14000    1.2823643    -6.500463    1.1301951 0.0067273513  0.046738504            2 
   15000    1.2624066   -6.5489187    1.6042019 0.0089122326  0.045426177            2 
   16000    1.2580581   -6.5732759    2.1095879  0.010987437   0.04377752            2 
   17000    1.2624392   -6.5161285    2.6771214  0.013123144  0.043758961            2 
   18000    1.2407713   -6.5447859    3.2440384  0.015018696  0.044310296            3 
   19000    1.2573852   -6.5728876    3.7945263  0.016642659  0.044738401            2 
   20000    1.2410232   -6.5365985     4.332059  0.018050246  0.044946052            4 
   21000    1.2458022   -6.5289928    4.7934817  0.019021752  0.044890675            2 
   22000    1.2735564   -6.5083302    5.2648186  0.019942494  0.044422275            2 
   23000    1.2280538    -6.507491    5.8400821  0.021159717  0.044183063            2 
   24000    1.2301467   -6.5326415    6.3926307  0.022196634  0.044158773            2 
   25000    1.2409289   -6.5286958    6.7829015  0.022609671  0.043960335            1 
   26000    1.2491466   -6.4927304    7.2399062  0.023204827   0.04355927            1 
   27000    1.2568892   -6.5453059    7.8371461  0.024188722  0.043354633            3 
   28000    1.2363193   -6.5489179    8.2568963  0.024574096  0.043194911            2 
   29000    1.2412143   -6.4874509    8.8527685  0.025438989  0.043054034            5 
   30000    1.2367175    -6.570261    9.3085401  0.025857055  0.042941757            1 
   31000    1.2462486   -6.5070662    9.8448988  0.026464781  0.042904768            3 
   32000    1.2378932    -6.520638    10.379051  0.027028779  0.042863217            2 
   33000    1.2521164   -6.5255687    11.029629  0.027852597  0.042936021            4 
   34000    1.2496837   -6.5224271    11.513817  0.028220138  0.043034093            4 
   35000    1.2496043   -6.5124989    12.056445  0.028705821  0.043107798            2 
   36000    1.2531305   -6.5519972    12.559355  0.029072581  0.043158838            1 
   37000    1.2160972    -6.522531     13.10648  0.029519099  0.043195959            1 
   38000    1.2499248   -6.5177679    13.554786  0.029725407  0.043246943            4 
   39000     1.260429   -6.5260369     14.19438  0.030329871  0.043265203            1 
   40000    1.2472447    -6.555333    14.726381  0.030679959   0.04334072            1 
   41000    1.2313529   -6.5331514    15.331113  0.031160798  0.043428841            2 
   42000    1.2251742   -6.5230585    15.910413   0.03156828  0.043532345            2 
   43000    1.2399586   -6.5374896    16.470462  0.031919499  0.043637391            2 
   44000    1.2481383   -6.5013238    16.977657  0.032154653  0.043697961            1 
   45000      1.24405   -6.5579496    17.435602  0.032288152  0.043765113            1 
   46000    1.2563693   -6.5577492    18.012589  0.032631501  0.043813299            1 
   47000    1.2494151   -6.5275438    18.442351  0.032699203  0.043837112            2 
   48000    1.2256798   -6.5059366    18.933286  0.032870288  0.043835939            2 
   49000     1.232927    -6.497066    19.421761  0.033030205  0.043813151            1 
   50000    1.2383883   -6.5623607    19.872662  0.033121103  0.043770312            5 
   51000    1.2445748   -6.5066553    20.390001  0.033316995  0.043717998            2 
   52000    1.2549991    -6.525328    20.776373  0.033295469  0.043672625            1 
   53000    1.2373869    -6.548182    21.112433  0.033195649  0.043588934            2 
   54000    1.2471807   -6.5106805    21.676925  0.033452045  0.043487017            1 
   55000    1.2525872   -6.5384925    22.159859  0.033575544  0.043390846            3 
   56000    1.2378124   -6.5499133    22.714912  0.033801952  0.043302878            3 
   57000    1.2279836   -6.5430872    23.174539  0.033880905  0.043240428            1 
   58000    1.2476763   -6.5122621    23.804096  0.034201287  0.043189596            2 
   59000    1.2574929    -6.529044    24.300773  0.034323126  0.043157467            1 
   60000    1.2244483   -6.5280115    24.703572  0.034310516  0.043117311            1 
   61000    1.2491487   -6.5366755    25.245903  0.034488938  0.043060916            2 
   62000    1.2437585   -6.5521514     25.74927  0.034609234  0.043011146            2 
   63000    1.2447453   -6.4990414    26.156531  0.034598586  0.042962357            3 
   64000    1.2373518   -6.5365676    26.605881  0.034643074  0.042893684            1 
   65000    1.2612833   -6.5274768      26.9628  0.034567692   0.04282054            3 
   66000    1.2423587   -6.5569816    27.670957  0.034938077  0.042747242            2 
   67000    1.2496592    -6.520613    28.273517  0.035166066  0.042707697            2 
   68000    1.2538269   -6.5310448    28.752882  0.035236375  0.042688538            2 
   69000     1.260232   -6.5288117    29.342317  0.035437581  0.042672699            1 
   70000    1.2387632    -6.568594    29.827597  0.035509044  0.042660814            1 
   71000    1.2160165   -6.5340199    30.379431  0.035656608  0.042643268            2 
   72000    1.2507239   -6.5274856    30.917964   0.03578468  0.042647011            1 
   73000    1.2243077   -6.5366459    31.491629  0.035949348   0.04266092            1 
   74000    1.2310965   -6.5275341    32.072954  0.036118191  0.042670124            1 
   75000    1.2247308   -6.5496437    32.683884  0.036315426  0.042686983            2 
   76000    1.2569217   -6.5671514     32.87133  0.036043125  0.042682574            3 
   77000    1.2637535   -6.5422916    33.486392  0.036240684  0.042683751            1 
   78000    1.2299582   -6.5197072    34.006471  0.036331699  0.042678359            1 
   79000    1.2264398   -6.5344588    34.782155  0.036690036  0.042684397            3 
   80000    1.2294597    -6.552513    35.085555  0.036547453  0.042696326            2 
   81000    1.1989123    -6.509227    35.551505  0.036575622  0.042698747            1 
   82000    1.2332223   -6.5107724    36.381651  0.036973222  0.042718816            3 
   83000    1.2365036   -6.5278978    36.891504  0.037039663  0.042742674            1 
   84000    1.2635786    -6.497319    37.345305  0.037048914   0.04276051            2 
   85000    1.2387759   -6.5271393    38.313261  0.037562021  0.042795757            2 
   86000    1.2555188   -6.5408433    38.638304  0.037440217  0.042841691            2 
   87000    1.2423191   -6.5140999    38.945121  0.037303755  0.042877918            4 
   88000    1.2418772     -6.54979     39.51738  0.037421761   0.04289397            3 
   89000    1.2309939   -6.5023819    40.105997  0.037552431  0.042911727            2 
   90000    1.2410151   -6.5330032    40.589393  0.037582771  0.042932989            2 
   91000    1.2277956   -6.5271645    40.781194  0.037345416     0.042937            2 
   92000    1.2397543   -6.5476751    41.224604  0.037341126  0.042933259            1 
   93000    1.2443227   -6.5427099    41.742205   0.03740341    0.0429357            1 
   94000    1.2329091   -6.5456081    42.547878   0.03771975  0.042934581            3 
   95000    1.2550184   -6.5648569    42.830508  0.037570621  0.042928675            1 
   96000    1.2583372   -6.5389256    43.415889  0.037687404  0.042922555            1 
   97000    1.2180033   -6.5228815    43.942942  0.037751668  0.042921928            2 
   98000    1.2568634   -6.5079983    44.453545  0.037800633  0.042920202            1 
   99000    1.2398005    -6.522137    44.776437  0.037690604  0.042909123            2 
  100000    1.2033556   -6.5505735    45.327585  0.037772987  0.042899531            2 
  101000    1.2504282   -6.6025833    45.522801  0.037560067  0.042877388            4 
  102000    1.2454243   -6.5642719    46.211323  0.037754348    0.0428582            3 
  103000    1.2379718   -6.5606115    46.649275  0.037742132  0.042847763            1 
  104000     1.248152   -6.5393032    47.523247  0.038079525  0.042837151            2 
  105000    1.2200607   -6.5261049    47.927914  0.038038027  0.042832601            1 
  106000    1.2304422   -6.4963756    48.478315  0.038111883   0.04282511            2 
  107000    1.2228023   -6.5718501    48.770276  0.037983081  0.042815679            2 
  108000    1.2077616   -6.5733053    49.292923  0.038034663  0.042804285            2 
  109000    1.2218433   -6.5890277    49.703108  0.037999318  0.042789732            2 
  110000    1.2338793   -6.5170554    50.141785  0.037986201  0.042776226            1 
  111000    1.2237034   -6.5482575    50.665377   0.03803707  0.042756535            3 
  112000    1.2530508   -6.5710057    50.989022  0.037938261  0.042736387            1 
  113000    1.2449855   -6.5462008      51.3667  0.037881047  0.042707811            2 
  114000    1.2422247    -6.550366    51.747992  0.037827479  0.042675095            2 
  115000    1.2403595     -6.55365    52.280578  0.037884477  0.042641972            2 
  116000    1.2218477   -6.5835462    52.737361  0.037886035  0.042610755            2 
  117000     1.237957   -6.5367368    53.287921  0.037954359  0.042579537            1 
  118000    1.2250977   -6.5460792    54.166901  0.038253461  0.042558297            3 
  119000    1.2415186   -6.4925534      54.6539  0.038273039   0.04254254            1 
  120000     1.223137   -6.5689839    55.153434  0.038300995  0.042528551            2 
  121000    1.2257956    -6.592403    55.077089   0.03793188  0.042511772            2 
  122000    1.2115696   -6.5347597    56.034343  0.038274824  0.042487767            1 
  123000     1.235583   -6.5435122       56.689  0.038407182   0.04247531            4 
  124000     1.226453   -6.5990579    57.196692  0.038438637  0.042463136            1 
  125000    1.2305921   -6.5624905    57.654125  0.038436083  0.042454773            2 
  126000    1.2286856   -6.5377822    58.022251  0.038374504  0.042441576            2 
  127000    1.2226338   -6.5596606    58.386993  0.038311675  0.042424539            1 
  128000    1.2227385   -6.5607789    58.962527  0.038387062    0.0424076            2 
  129000    1.2160075   -6.6090712    59.306949  0.038311982  0.042384462            1 
  130000    1.2735182   -6.5478335    59.983352  0.038450867  0.042368756            1 
  131000    1.2540639   -6.5472776    60.315267   0.03836849  0.042355591            2 
  132000    1.2549618   -6.5610438    60.854949  0.038418528  0.042342309            2 
  133000    1.2141737   -6.5831115    61.703536  0.038661363  0.042338359            2 
  134000    1.2046711    -6.574865    62.542358  0.038894501  0.042335866            1 
  135000    1.2093553     -6.55057     62.97189  0.038871537  0.042341771            2 
  136000    1.1935003   -6.5981398    63.491774  0.038904273  0.042341088            2 
  137000    1.2437929   -6.5321024    63.830744  0.038826487  0.042340684            2 
  138000    1.2343635   -6.5503242    64.341959   0.03885384   0.04233767            2 
  139000    1.2101883   -6.5538746    64.741113  0.038813617  0.042334183            2 
  140000    1.1938045   -6.5838652    65.160998  0.038786308  0.042332132            4 
  141000    1.2085924   -6.5254191    66.280178  0.039172682  0.042335713            1 
  142000    1.2270596   -6.5293273    66.517505  0.039036095  0.042334707            2 
  143000    1.2448225   -6.5899721    66.329184  0.038653371  0.042329471            3 
  144000    1.2266798   -6.5353434    67.346483  0.038973659  0.042322178            2 
  145000    1.2364512   -6.5393023    67.743777  0.038933205  0.042315917            1 
  146000    1.2040123    -6.531489    68.331581  0.039002044  0.042309721            1 
  147000     1.231181   -6.5802354    68.313155  0.038726278  0.042299651            2 
  148000    1.2263968   -6.5709685    68.904741  0.038797714  0.042282899            2 
  149000    1.2466835   -6.5535544    69.480154  0.038859147   0.04226859            2 
  150000    1.2187857   -6.5665876    69.977681  0.038876489  0.042254077            4 
  151000    1.2481239   -6.5705981    70.086716  0.038679203  0.042238462            1 
  152000    1.2176474   -6.5773649    70.770271   0.03879949  0.042221843            4 
  153000    1.2443739   -6.5223672    71.257808  0.038811442  0.042208001            1 
  154000    1.2300872   -6.5526763    71.824217  0.038865918   0.04219218            2 
  155000    1.2062873   -6.5509038    71.991771  0.038705253  0.042173058            2 
  156000    1.2088683   -6.5701407    72.563705  0.038762663  0.042151418            2 
  157000    1.2321371   -6.6019908    72.555554  0.038511441  0.042127844            2 
  158000    1.2223219   -6.5451794    73.356254  0.038690007  0.042101072            1 
  159000    1.2415405   -6.5470224    73.975806  0.038771386  0.042079663            2 
  160000    1.2256477   -6.5877123    74.198117  0.038644852  0.042058047            1 
  161000    1.2334665   -6.5620282    74.914991  0.038775875  0.042036568            2 
  162000    1.2299653   -6.5373697    75.087262  0.038625134  0.042015356            3 
  163000    1.2277012    -6.588227    74.989814  0.038338351  0.041988295            2 
  164000    1.2410439   -6.5450773    75.779473   0.03850583  0.041954149            2 
  165000    1.2215426   -6.5545853    76.370653  0.038571037  0.041923485            2 
  166000    1.2336372   -6.6146047    76.370227  0.038338467   0.04189634            3 
  167000    1.2214313   -6.5469036    77.243574  0.038544697  0.041867302            2 
  168000    1.2061242   -6.5442048    77.613153  0.038498588  0.041840757            2 
  169000    1.2434045   -6.5864753    78.250526  0.038585072  0.041816585            3 
  170000    1.2384576   -6.6093534    78.693691  0.038575339  0.041795744            1 
  171000    1.2217354   -6.5632543    79.371797  0.038680213  0.041774278            2 
  172000    1.2131951   -6.6174602    79.497257  0.038516113  0.041750278            2 
  173000    1.2239422    -6.579519    80.009695  0.038540316  0.041726014            2 
  174000    1.2260793    -6.566858    80.479149  0.038543653  0.041702554            2 
  175000     1.224169   -6.5769413    81.196359  0.038664933  0.041676149            2 
  176000    1.2278159   -6.6036729    81.747849  0.038706368  0.041653442            3 
  177000    1.2334567   -6.5644846    82.264129  0.038730757  0.041634302            1 
  178000    1.2381131    -6.559712    82.621248  0.038680359  0.041614807            1 
  179000    1.2139313   -6.5580269    82.908618  0.038598053   0.04159328            2 
  180000     1.236568   -6.5893169    83.157359  0.038498777  0.041571821            2 
  181000    1.2339008   -6.5716304    84.200948  0.038766551  0.041551406            2 
  182000    1.2464202   -6.5879081    84.515991  0.038697798   0.04153367            4 
  183000    1.2464621   -6.5712643    84.891988  0.038657553  0.041514771            3 
  184000    1.2110502   -6.5458857     85.59312     0.038765  0.041493416            1 
  185000    1.2200373   -6.5150418     85.90839  0.038697473  0.041472335            2 
  186000    1.2209231   -6.6060784    86.102664  0.038576462  0.041449078            2 
  187000    1.2152471   -6.5501044    86.674636   0.03862506  0.041428421            1 
  188000    1.2143883   -6.6038042    86.959163  0.038545728   0.04140445            3 
  189000    1.2133894   -6.5420825     87.29881  0.038491539  0.041381881            1 
  190000    1.2025964   -6.6212522    87.352579  0.038312535  0.041356823            1 
  191000    1.2103497   -6.5325681    88.402207  0.038569898  0.041335396            2 
  192000    1.2192002   -6.5569849    88.982741  0.038620981  0.041314296            2 
  193000    1.2497436   -6.5705125    89.397421  0.038599922  0.041294349            2 
  194000    1.2158115   -6.5913005    89.631943  0.038501694  0.041273717            2 
  195000     1.236294   -6.5515586    90.739931  0.038777748  0.041254372            1 
  196000    1.2090426   -6.6004449    90.397544   0.03843433  0.041233535            2 
  197000     1.200999   -6.5853308    91.577562  0.038738393  0.041214848            3 
  198000    1.1988054   -6.5948477    91.996605   0.03871911  0.041199089            2 
  199000    1.1981312   -6.5768776    92.140313   0.03858472  0.041181375            2 
  200000    1.2162867   -6.6350368    92.762282  0.038650951  0.041166281            1 
  201000    1.2385404    -6.550192    93.395595  0.038721225  0.041151277            2 
  202000    1.2264122   -6.5734173    93.974117    0.0387682  0.041138469            1 
  203000     1.224457   -6.5744888    94.475728  0.038783139  0.041126704            2 
  204000    1.2460086    -6.586246     94.90486  0.038768325  0.041115508            1 
  205000    1.2219437   -6.6074214    95.564105  0.038847197  0.041104578            2 
  206000    1.2456641   -6.5765714    96.204244  0.038917574  0.041093975            2 
  207000    1.2192713   -6.5652309    96.438778  0.038823984  0.041082423            1 
  208000    1.2093643   -6.5634013    96.739827  0.038757943  0.041069378            2 
  209000     1.207227   -6.6195504    96.818665  0.038603933  0.041053093            1 
  210000    1.1960193   -6.5695057    97.700975  0.038770228  0.041036266            3 
  211000    1.2251141   -6.5969184    98.182018  0.038776468  0.041021318            1 
  212000     1.208592   -6.5753577    98.826234   0.03884679  0.041006919            2 
  213000     1.212979    -6.555703    98.970011  0.038720661  0.040992228            2 
  214000    1.2016381   -6.5725136    99.361799  0.038692289   0.04097578            2 
  215000    1.2125042   -6.5387864    99.494698  0.038563836  0.040960953            2 
  216000    1.2188555   -6.6064607    99.909221  0.038545224  0.040944477            2 
  217000    1.2158507   -6.5624331    100.61977  0.038640463  0.040930699            2 
  218000    1.2390611   -6.5914283    101.26182  0.038708648  0.040912022            1 
  219000    1.1970092   -6.5692106    101.52603   0.03863243  0.040894834            2 
  220000    1.2047632   -6.6152673    101.79779   0.03855977  0.040875447            7 
  221000    1.1904035   -6.6247961    102.30278  0.038575709  0.040857024            4 
  222000    1.1960287   -6.5817688    102.70394   0.03855253  0.040840339            3 
  223000    1.2218805   -6.5993317    104.01418  0.038869277   0.04082652            2 
  224000    1.2118574   -6.6038055    104.00802   0.03869346  0.040812468            3 
  225000    1.2140282   -6.6136296     104.4126  0.038671335  0.040797858            2 
  226000    1.1983512   -6.6507907     104.6658  0.038593584  0.040783395            1 
  227000    1.2482243   -6.5614951    105.29396  0.038654169  0.040768641           10 
  228000    1.2188921   -6.6395944    105.92095  0.038713797  0.040757229            3 
  229000    1.2416586   -6.6064322     106.1999  0.038646252   0.04074659            4 
  230000    1.2025544   -6.5737235     107.0626  0.038790797  0.040737902            2 
  231000    1.2246634   -6.5636806    107.42832  0.038754804   0.04073102            1 
  232000    1.2062176   -6.5637672    108.26625   0.03888874  0.040723227            2 
  233000    1.1909663   -6.5793127     108.6416   0.03885608  0.040710621            2 
  234000    1.2188331   -6.5845223      109.226   0.03889815   0.04070175            2 
  235000    1.2060575   -6.5625382    109.41152  0.038798413  0.040693033            3 
  236000    1.2207556   -6.5482872    110.39523  0.038981367  0.040685476            1 
  237000    1.1969875   -6.5559771    110.54898  0.038870951  0.040677401            1 
  238000    1.2478909   -6.5956081    110.78994  0.038791996  0.040666136            2 
  239000    1.2207061   -6.5805747    111.18048  0.038765857  0.040653878            2 
  240000    1.2130323   -6.5648029    111.22913  0.038621226  0.040642491            3 
  241000    1.1820495   -6.6068779    112.07331  0.038752873  0.040630931            3 
  242000    1.2294105   -6.5837029    113.02012  0.038918774  0.040622304            4 
  243000    1.2000603   -6.6134376    112.95434  0.038736057  0.040613865            2 
  244000    1.2089216   -6.6120027    113.32687  0.038704532  0.040603881            1 
  245000    1.1971107   -6.5939131    114.07206  0.038800021  0.040595238            2 
  246000    1.1986524   -6.5534401    115.10941  0.038993703  0.040587742            2 
  247000    1.2262903   -6.5918958    115.17739  0.038858767  0.040582133            2 
  248000     1.220726   -6.6133376    115.62695  0.038853143  0.040576288            1 
  249000    1.2086476   -6.5766045    116.36566  0.038944331  0.040568631            3 
  250000    1.1960879   -6.5855587    116.40327  0.038801089  0.040559323            1 
  251000    1.2199719     -6.57271    116.79426  0.038776313  0.040549512            3 
  252000    1.2164095   -6.6119184    117.39142  0.038819913  0.040539344            2 
  253000    1.2261729   -6.6074022    118.16901  0.038922598   0.04053101            1 
  254000    1.2231452   -6.5820394    118.41089  0.038848717   0.04052334            2 
  255000    1.2655703   -6.5881243    118.76513  0.038812135  0.040516919            1 
  256000    1.2315648   -6.6094597    119.57165  0.038923062   0.04051226            2 
  257000    1.2036281   -6.6160058    120.32617  0.039016267    0.0405074            1 
  258000     1.215451   -6.6204403    120.61758  0.038959167  0.040503235            2 
  259000      1.22568   -6.6138536    121.04819  0.038947294  0.040496614            2 
  260000    1.2202526   -6.6008951    121.80208  0.039039128  0.040490509            3 
  261000    1.2110523   -6.5827884      122.207  0.039018839  0.040486502            2 
  262000    1.2011355   -6.6166591    122.55654  0.038981089  0.040483223            1 
  263000    1.2260503   -6.5910712    123.25125  0.039052996  0.040480299            1 
  264000    1.2162062   -6.6190771     123.9753  0.039133616  0.040479473            2 
  265000    1.2168485     -6.60924     124.5339  0.039161605  0.040478285            4 
  266000    1.2177286   -6.5946123    124.95462  0.039146185  0.040478842            2 
  267000       1.1919   -6.5880045    125.84144  0.039276353  0.040479756            4 
  268000    1.2112567   -6.6074162    126.55168  0.039350646  0.040483073            5 
  269000    1.2025145   -6.5860656    126.71818  0.039255942  0.040484278            4 
  270000    1.1750342   -6.6206881    127.26761  0.039280127  0.040485486            2 
  271000    1.2183047   -6.5778294    127.97302  0.039352097  0.040487154            2 
  272000    1.2246562   -6.6151415    127.67203  0.039115206  0.040487592            3 
  273000    1.2098206   -6.5747748    128.71187  0.039289338  0.040487871            2 
  274000    1.2139758   -6.5727483    129.32117  0.039331256   0.04048812            2 
  275000     1.232397   -6.6220614    129.40257    0.0392129  0.040488444            1 
  276000    1.2163484   -6.6108326    130.23515  0.039322208  0.040489543            1 
  277000    1.2081605   -6.6220414    130.40567   0.03923155  0.040489887            4 
  278000    1.1621728   -6.5951847    130.65346  0.039164707  0.040488597            2 
  279000    1.2172354   -6.5906412    130.89398  0.039096169  0.040485591            2 
  280000    1.1993646   -6.6045121    130.83311  0.038938425  0.040481191            2 
  281000    1.2225225   -6.6251703    131.77253  0.039078448  0.040476297            1 
  282000     1.220215   -6.6247892    132.47544   0.03914759  0.040472194            1 
  283000    1.2128931   -6.6301993    132.78802    0.0391013  0.040469073            1 
  284000    1.1977289   -6.5818413    133.41134  0.039146519  0.040467619            1 
  285000    1.2218642   -6.5873524     134.1587  0.039227689  0.040466605            2 
  286000    1.2242176   -6.5959925    134.47346  0.039182243  0.040466234            1 
  287000    1.2159275   -6.6212151    135.19696  0.039255797  0.040466247            2 
  288000    1.2072978   -6.5952234    135.85341  0.039309437  0.040465612            4 
  289000    1.2082685   -6.5966529    136.16472  0.039263182  0.040466589            1 
  290000     1.232482   -6.6237098    136.92396  0.039345965  0.040468781            3 
  291000    1.1965113   -6.5747836    137.97961  0.039513062  0.040471259            2 
  292000    1.1922569   -6.5855068    137.83265  0.039335801  0.040473449            4 
  293000    1.2122847   -6.5541758    138.90474  0.039506468  0.040476157            3 
  294000    1.2189142   -6.5884093    138.95928  0.039387551  0.040479606            2 
  295000    1.2068391   -6.6031131    140.23988  0.039615786  0.040482685            1 
  296000    1.2043566   -6.5762893    140.08287  0.039437744  0.040486516            2 
  297000    1.2153243   -6.6331781    140.92089  0.039540092  0.040488423            2 
  298000    1.1961504   -6.5698556    141.08987  0.039454662  0.040491194            2 
  299000    1.1704576   -6.6238125    141.27934  0.039375512  0.040493754            2 
  300000    1.1847926   -6.6205302    142.28774  0.039524373  0.040496351            2 
  301000    1.1801375   -6.6490785    142.68849   0.03950401  0.040498214            4 
  302000    1.1877352   -6.6045699    143.10003  0.039486762  0.040501385            1 
  303000    1.1855499   -6.6136599    143.71363    0.0395252  0.040505557            2 
  304000    1.2219219   -6.6453458    144.21007  0.039531268  0.040508994            1 
  305000     1.211464    -6.600552     144.5931   0.03950631  0.040511897            1 
  306000    1.2216895   -6.6125615     145.6974  0.039677941  0.040515547            2 
  307000    1.1946896   -6.6402985    145.28047  0.039435525  0.040519412            4 
  308000    1.2220058   -6.6152373     145.6694  0.039412715  0.040521504            1 
  309000    1.2092674   -6.6528625      146.857  0.039605447  0.040523251            1 
  310000    1.1814985   -6.6168909    147.32229  0.039602765  0.040526293            3 
  311000    1.2162264   -6.6084839    147.67139  0.039568969  0.040530106            2 
  312000    1.1971593   -6.6039507    147.61768  0.039427798   0.04053341            3 
  313000    1.1905298   -6.6232425    148.81699  0.039621136   0.04053601            2 
  314000    1.2269001    -6.627586    148.98022  0.039538274  0.040539232            2 
  315000    1.2050883   -6.6256082    149.23621  0.039480478  0.040540901            2 
  316000    1.1976733   -6.6511222    150.24507  0.039621589  0.040541945            5 
  317000     1.183703   -6.6319977    150.27886  0.039505483  0.040543086            1 
  318000    1.2038054   -6.5759303    151.07889  0.039590904  0.040544259            3 
  319000    1.2015959   -6.6127248    151.27758  0.039518699  0.040546397            2 
  320000     1.210217   -6.5601496    152.18192  0.039630707   0.04054846            2 
  321000    1.2044815   -6.6214016    152.41327  0.039567309  0.040550881            2 
  322000    1.2333636   -6.5975781     152.8594  0.039559886  0.040552405            2 
  323000    1.2065344   -6.6196418    152.98437  0.039469652  0.040552846            3 
  324000    1.2061586   -6.6579713    153.16711  0.039394833  0.040551655            2 
  325000    1.1936026   -6.6169294    154.14709  0.039524894  0.040551559            2 
  326000    1.1573753   -6.6109811    154.74846  0.039557377  0.040552969            1 
  327000    1.1977412    -6.625402    155.05211   0.03951379  0.040555391            5 
  328000    1.1778772   -6.5927862    155.47527   0.03950083  0.040556271            1 
  329000     1.161624   -6.6329049    156.09164  0.039536889  0.040556457            2 
  330000     1.210624   -6.6425366    156.30592  0.039471191  0.040555765            7 
  331000    1.2023075   -6.5787467    156.70227  0.039451729  0.040554842            2 
  332000    1.2022299   -6.6178699    157.03283   0.03941587  0.040552901            2 
  333000    1.1962515   -6.6114644    158.04281  0.039550254  0.040551723            2 
  334000    1.1906424   -6.6030235    157.69145  0.039344175  0.040549365            1 
  335000    1.2156567   -6.6125817    158.93387  0.039535788   0.04054752            2 
  336000    1.2107541   -6.6125164    159.34384  0.039519801  0.040546153            2 
  337000     1.186721   -6.6452302    159.22733   0.03937372  0.040544998            2 
  338000    1.1955355   -6.6446373    159.90618  0.039424601  0.040543307            2 
  339000    1.1795986   -6.6288974    160.56149  0.039469393  0.040541997            3 
  340000    1.2257976   -6.6523847    160.61917  0.039367443  0.040540493            3 
  341000    1.1976565    -6.596006    161.15034  0.039381804  0.040538178            1 
  342000    1.1902412   -6.6146449    161.87674   0.03944365  0.040536645            2 
  343000    1.2287175   -6.6243188    161.86309  0.039325337  0.040534427            2 
  344000    1.1978287   -6.6083721    162.49181  0.039363326   0.04053118            3 
  345000    1.2127912    -6.607814    163.29443  0.039443099  0.040529082            2 
  346000    1.1695291   -6.6698477    162.92397  0.039239878  0.040525289            1 
  347000    1.1963535   -6.6194462    163.57049  0.039282058  0.040520049            2 
  348000     1.183473   -6.6291658    163.64034  0.039185905  0.040514816            3 
  349000     1.191614   -6.6131313    163.81058  0.039114274   0.04050938            4 
  350000    1.2308437   -6.6111017    165.46964  0.039397533  0.040505038            1 
  351000    1.2150164   -6.5887258    165.99145  0.039409176  0.040501687            2 
  352000    1.2046251   -6.6497394    166.34405  0.039380692  0.040498683            2 
  353000    1.2132708   -6.6337983    166.59588  0.039328584  0.040495773            3 
  354000    1.1967463   -6.6275063     167.2643  0.039374834  0.040492856            2 
  355000     1.193438   -6.5691906    167.49518  0.039318118  0.040488727            2 
  356000    1.2024457   -6.6321122    167.25496  0.039151442  0.040483662            2 
  357000    1.1835592   -6.6573816    168.04892  0.039227105  0.040477977            3 
  358000    1.1827939    -6.628318    168.34314  0.039186019  0.040471778            4 
  359000    1.1988829   -6.6064596    168.73393  0.039167578  0.040465101            2 
  360000    1.1711644   -6.6259002    169.87763  0.039323525  0.040459292            2 
  361000    1.1926686   -6.6420668    169.83777  0.039205394  0.040454648            2 
  362000    1.1749181   -6.6306615    169.96188  0.039125663  0.040449255            1 
  363000    1.1787695   -6.6410526    171.02012  0.039260816  0.040444862            1 
  364000    1.1762295   -6.6361156    171.10465  0.039172309  0.040439616            3 
  365000    1.2023625   -6.6065043    172.37746  0.039355585   0.04043454            1 
  366000    1.1754124   -6.6037694    172.75565  0.039334164  0.040429932            2 
  367000    1.1739683   -6.6594688    172.27509  0.039117869  0.040425385            2 
  368000    1.1948313   -6.6061982    173.98598  0.039398999  0.040420814            2 
  369000    1.1802144   -6.6478594    174.45008  0.039397037  0.040418083            2 
  370000    1.2096438   -6.6237435     175.2589  0.039472725  0.040415687            1 
  371000    1.1906694   -6.6037511    175.36963  0.039391202   0.04041295            4 
  372000    1.1988827    -6.586558     175.1279   0.03923116  0.040409843            2 
  373000     1.195559   -6.6451155    176.08015  0.039338728  0.040405091            2 
  374000    1.1933355   -6.6192503     175.7994   0.03917099  0.040400695            2 
  375000    1.1899911    -6.642783    176.91462   0.03931436  0.040395891            1 
  376000     1.174577   -6.6006651    176.91199  0.039209218   0.04039138            3 
  377000    1.1725787   -6.6067113    177.49136   0.03923328  0.040386526            1 
  378000    1.1987376   -6.5953865    178.17921   0.03928113  0.040381101            2 
  379000     1.186514   -6.5967719     178.6937   0.03929061  0.040374371            3 
  380000    1.1929416    -6.628952    179.16302  0.039290136  0.040367633            1 
  381000    1.1932951   -6.6435009    178.41721  0.039023886  0.040362054            2 
  382000     1.168999   -6.6222284    179.91167  0.039247746  0.040356477            3 
  383000    1.2060266   -6.6259034    179.64894  0.039088106   0.04035071            2 
  384000    1.1966366   -6.5989878    180.05217  0.039073822  0.040344515            5 
  385000    1.1836722   -6.6110165    181.11813  0.039203059  0.040337226            2 
  386000    1.1948866   -6.6446949    180.48777  0.038965409  0.040328877            2 
  387000    1.1905667   -6.5954978    181.20518  0.039019203  0.040320528            3 
  388000     1.178212   -6.6422834    181.42755  0.038966398  0.040312897            1 
  389000    1.2009421    -6.639041    181.56855  0.038896433  0.040304204            4 
  390000    1.1903583   -6.6108537    182.43892  0.038982675  0.040294982            2 
  391000    1.1775148   -6.6268535    182.58349  0.038913787  0.040286961            2 
  392000    1.1786096   -6.6280136    183.72094  0.039056322  0.040279134            3 
  393000    1.1690626   -6.6314437    183.82247   0.03897847  0.040271326            4 
  394000    1.1905199   -6.6119616    184.80945  0.039088293  0.040263496            3 
  395000     1.164137    -6.644081     184.4686  0.038917425  0.040257085            2 
  396000    1.2009469   -6.6245088    185.29861  0.038993816  0.040250171            2 
  397000    1.1764273    -6.650696    186.18175  0.039080972  0.040244529            2 
  398000    1.2060325   -6.6223812     186.1033  0.038966352  0.040237664            1 
  399000    1.1613763   -6.5944572    187.53911   0.03916857  0.040230534            2 
  400000    1.1879743    -6.630891    187.42924  0.039047758  0.040223676            2 
  401000    1.1915534   -6.6507368    186.92579  0.038845758  0.040215987            1 
  402000    1.1832876   -6.6719488     187.5733  0.038883353  0.040207195            1 
  403000    1.1805164   -6.6494023     188.2007  0.038916604  0.040198465            1 
  404000    1.1975224   -6.6576833    187.89857  0.038757955  0.040189297            4 
  405000    1.1475098   -6.6751738    189.73709  0.039040553  0.040182442            1 
  406000     1.212707    -6.651078    189.84526  0.038966597  0.040175466            1 
  407000    1.1910313   -6.6289664    190.48675  0.039002201  0.040168697            2 
  408000    1.2069713   -6.6130695    191.99881  0.039215444  0.040162615            4 
  409000    1.1642584   -6.6286163     191.7554  0.039069967  0.040156263            2 
  410000    1.2119838   -6.6394121    192.53706  0.039133548  0.040150169            3 
  411000    1.1716809   -6.6256125     192.0017  0.038929786  0.040144314            3 
  412000    1.1918137   -6.6270241    193.06281   0.03904992  0.040138479            2 
  413000     1.211422   -6.6148023    193.20333  0.038983724  0.040132276            2 
  414000    1.1772349   -6.6535113    193.89587  0.039028959  0.040125887            1 
  415000    1.1760746   -6.6077755    194.57501  0.039071287  0.040119894            1 
  416000    1.2081513    -6.626515    194.65154  0.038992697  0.040114389            3 
  417000    1.2053376   -6.6803783    194.67946  0.038904768  0.040108037            2 
  418000    1.1798544   -6.6257072    195.39837  0.038955018  0.040101976            1 
  419000    1.1693837   -6.6603328    196.11768  0.039005108  0.040095355            2 
  420000    1.1811778   -6.6405963     196.4247  0.038973155  0.040088795            2 
  421000    1.1962489   -6.6808726    196.84064  0.038962913  0.040082557            2 
  422000    1.1811373   -6.6444782    198.03613  0.039106661  0.040076809            1 
  423000    1.1660023   -6.6325519    198.20691  0.039047855  0.040072162            2 
  424000    1.1941448   -6.6656853    199.03696    0.0391189  0.040066668            2 
  425000    1.1742822   -6.6436515    199.70757  0.039158348   0.04006228            3 
  426000    1.2060762   -6.6325477    200.14945  0.039152866  0.040057212            3 
  427000    1.1801441   -6.6480436    200.49561   0.03912873  0.040052568            2 
  428000     1.182903   -6.6176079    201.51727  0.039236229  0.040048121            2 
  429000    1.1581446   -6.6170135    201.75654  0.039191247   0.04004429            2 
  430000    1.1774772   -6.6664954    201.06096  0.038965303  0.040039527            3 
  431000     1.187212   -6.6314114    203.13018  0.039274976  0.040035174            6 
  432000    1.1756836    -6.615874    202.37017  0.039037456  0.040030966            2 
  433000    1.1666772   -6.6451645    202.48711  0.038969807  0.040026244            2 
  434000    1.1502844   -6.6583234    203.69483  0.039111911  0.040022038            3 
  435000    1.1952789   -6.6356223    203.94015  0.039068995  0.040018071            2 
  436000     1.202227   -6.6423969    204.81338  0.039146288  0.040014835            2 
  437000    1.1535977   -6.6766001    204.80031  0.039054216  0.040010993            4 
  438000    1.1820087   -6.6715993    205.20417   0.03904189  0.040006815            3 
  439000    1.1760181   -6.6550654     206.5636   0.03921101  0.040003867            3 
  440000     1.191183   -6.6373477    207.22052   0.03924631  0.040000882            3 
  441000    1.1892703   -6.6220413    207.77623  0.039262325  0.039997961            2 
  442000     1.189559   -6.6517009    207.44469  0.039110989  0.039994428            3 
  443000    1.1680616   -6.6465758    207.57531  0.039047273  0.039990773            2 
  444000    1.1973598   -6.6552779    208.61584  0.039154624  0.039986673            3 
  445000    1.1672189   -6.6524308    209.05608  0.039149079  0.039983428            2 
  446000    1.1783028    -6.663569    209.21652  0.039091279   0.03997985            3 
  447000    1.1872809   -6.6235998     208.8077  0.038927611  0.039975649            1 
  448000    1.2001805   -6.6349779    210.04093  0.039070114  0.039970526            2 
  449000    1.1852282    -6.650379    209.99194  0.038974005  0.039965776            1 
  450000    1.1619014   -6.6493395    211.83594  0.039228877  0.039961497            2 
  451000    1.1757155     -6.66926    210.61016  0.038915403  0.039956567            4 
  452000    1.1733093   -6.6404883    211.09602  0.038918882   0.03995088            2 
  453000    1.1970322   -6.6379868    212.43354  0.039079017  0.039945487            2 
  454000    1.1779346   -6.6415942    212.59491   0.03902256  0.039940565            4 
  455000    1.1597671   -6.6842209    212.65881  0.038948499  0.039935125            1 
  456000    1.1793415   -6.6632107    213.50285  0.039017334  0.039928888            1 
  457000    1.1772057   -6.6537264    212.98785  0.038838047  0.039922706            7 
  458000    1.1862132   -6.6144679    214.57792  0.039042562  0.039916905            4 
  459000     1.179495   -6.6657274    214.04139  0.038860092   0.03991069            1 
  460000    1.1638117   -6.6480929    215.48572  0.039037267  0.039905109            2 
  461000    1.1653335   -6.6227653    214.96854  0.038859099  0.039899276            3 
  462000    1.1559093   -6.6650878    215.39673  0.038852224  0.039893441            3 
  463000    1.1831954   -6.6212624    215.98106  0.038873482   0.03988695            3 
  464000    1.1858192   -6.6398853     216.5233  0.038887086  0.039881006            2 
  465000    1.1670474   -6.6051664    217.73211  0.039020092   0.03987583            1 
  466000    1.1529389   -6.6571785    217.79628  0.038947832  0.039870339            3 
  467000    1.1777149   -6.6282206    218.77787  0.039039591   0.03986563            2 
  468000    1.1865316   -6.6627369    218.26271  0.038864442  0.039860871            1 
  469000     1.180341   -6.6343112    219.27447  0.038961348  0.039855329            4 
  470000    1.1614746    -6.687175    219.45407  0.038910296  0.039850289            5 
  471000    1.1637184   -6.6741822    219.86052  0.038899596   0.03984474            4 
  472000    1.1792483   -6.6470032    220.05781  0.038852015  0.039839026            2 
  473000    1.1525913   -6.6919586    220.30471  0.038813374  0.039833198            1 
  474000    1.2056603    -6.635774    220.81278  0.038820812  0.039827381            1 
  475000    1.1748453   -6.7170765    221.22433  0.038811287  0.039821283            2 
  476000    1.1826574    -6.652621    222.69046  0.038986426  0.039815157            3 
  477000    1.1893463   -6.6559821      222.815   0.03892645  0.039809595            1 
  478000    1.1855996   -6.6822181     222.9293   0.03886494  0.039804098            3 
  479000    1.1607138   -6.6182793    223.72485  0.038922208  0.039798355            2 
  480000    1.1462829   -6.6775102    223.83956  0.038861035  0.039792877            3 
  481000    1.1667928   -6.6583702     224.5904  0.038910325  0.039787119            3 
  482000    1.1634614   -6.6386523    225.39932  0.038969453  0.039782163            4 
  483000    1.1821657   -6.6456922     225.1989  0.038854192  0.039776965            2 
  484000    1.1715562   -6.6283818    226.14715  0.038937182  0.039771727            3 
  485000    1.1790717   -6.6566583    225.78056   0.03879391  0.039765622            1 
  486000    1.1858142   -6.6895261    226.34281  0.038810495  0.039759496            3 
  487000    1.1652856     -6.64902    227.26572  0.038888727  0.039753806            3 
  488000    1.1864603   -6.6403603    227.18942  0.038796007   0.03974753            3 
  489000    1.1864994   -6.6757517    227.56925  0.038781399  0.039741502            1 
  490000    1.1678046   -6.6632564    228.41955  0.038846862  0.039735446            3 
  491000    1.1883851   -6.6620205    228.18581  0.038728073  0.039728459            2 
  492000    1.1544054   -6.6662914    228.96655  0.038781597  0.039722109            1 
  493000    1.1604792   -6.6325114     230.1068  0.038895672    0.0397157            2 
  494000    1.1451393   -6.6890599    229.61402   0.03873381  0.039709671            1 
  495000    1.1637592   -6.6794213    230.11954  0.038740663    0.0397035            4 
  496000    1.1779695   -6.6640788    230.18184  0.038673024  0.039696768            2 
  497000    1.1631511   -6.6676591      230.741  0.038688967  0.039689658            1 
  498000    1.1525475   -6.6715913    231.00065  0.038654727  0.039682835            1 
  499000    1.1515027   -6.6542904    231.62627  0.038681742  0.039675988            1 
  500000    1.1744947   -6.6617534    231.91154  0.038651923  0.039668955            2 
  501000    1.1680091    -6.668462    232.42936  0.038660905  0.039661254            1 
  502000    1.1904061   -6.6500877    232.92217    0.0386657  0.039653554            2 
  503000    1.1767563   -6.6477023    233.30188  0.038651736  0.039646394            2 
  504000    1.1577539   -6.6406976    234.05178  0.038699037  0.039639575            4 
  505000     1.166821   -6.6473964    235.50221  0.038861752  0.039632634            1 
  506000    1.1737198   -6.6567993    235.54321  0.038791701  0.039626046            3 
  507000    1.1620199   -6.6765339    235.16962  0.038653784  0.039619084            2 
  508000    1.1577233   -6.6373755    235.67065  0.038659883  0.039611906            1 
  509000    1.1468088   -6.6525081    236.17918  0.038667187  0.039605412            2 
  510000    1.1892739   -6.6949609    236.35841  0.038620655  0.039598464            2 
  511000    1.2052675     -6.67957    236.66981  0.038595859  0.039591259            1 
  512000    1.1849379   -6.6203795    237.78793  0.038702462  0.039584583            1 
  513000    1.1766653   -6.6600825    238.49666  0.038742148   0.03957779            1 
  514000    1.1773411   -6.6705457    237.89448  0.038569145  0.039570047            2 
  515000    1.1488945   -6.6514072    239.23543  0.038711234  0.039563264            2 
  516000    1.1655006   -6.6511586    238.36226  0.038495197  0.039555961            2 
  517000     1.156443   -6.6614421     239.0745  0.038535542  0.039547751            1 
  518000     1.201258   -6.6728526    238.64046  0.038391322  0.039539771            2 
  519000    1.1677947   -6.6806517    238.92123  0.038362433  0.039530574            3 
  520000     1.171136   -6.6865653     239.2561  0.038342324  0.039521152            4 
  521000    1.1381683   -6.6671272    239.43301  0.038297027  0.039511923            2 
  522000    1.1534189   -6.6722677    240.44712  0.038385556  0.039502828            2 
  523000    1.1732981   -6.6982219    241.00981  0.038401818  0.039494633            2 
  524000     1.183771   -6.6848572    241.49258  0.038405308  0.039486212            2 
  525000    1.1817845   -6.6536625    242.10353  0.038429131  0.039477746            3 
  526000    1.1675574   -6.6707993    241.54136  0.038267009  0.039469062            2 
  527000    1.1712115   -6.6622308    242.25579  0.038307367  0.039460238            2 
  528000    1.1817191   -6.6750376    242.62964   0.03829382  0.039450476            2 
  529000    1.1791567   -6.6255278    244.13843   0.03845911  0.039440979            3 
  530000    1.1562706   -6.6345353    244.32165  0.038415354  0.039431267            2 
  531000    1.1612381   -6.6739699    244.10633  0.038309216  0.039421955            2 
  532000    1.1536674   -6.6704339    244.46124  0.038292801  0.039411851            2 
  533000    1.1886086   -6.6757935    244.26563  0.038190374    0.0394019            3 
  534000    1.1891734    -6.677213    244.77957  0.038199058  0.039391197            2 
  535000    1.1489718   -6.6844749    245.41312  0.038226342   0.03938066            1 
  536000    1.1780642   -6.7031367    245.02184  0.038094191  0.039370385            2 
  537000    1.1810175    -6.704786    245.57772  0.038109516  0.039360177            4 
  538000    1.1436902   -6.6689465    247.23553  0.038295466  0.039350481            2 
  539000    1.1482998   -6.6665999    247.27478  0.038230485  0.039340444            1 
  540000    1.1828156   -6.6822962    247.91014  0.038257738  0.039329837            2 
  541000    1.1612187   -6.6541678    248.24648  0.038238829   0.03931951            1 
  542000    1.1581198   -6.6929771     247.7984  0.038099385  0.039308825            1 
  543000    1.1693224   -6.6699847    247.66845  0.038009278  0.039298046            3 
  544000    1.1768125   -6.6754208    247.88545  0.037972649  0.039286959            2 
  545000    1.1475259   -6.7079279    248.15012  0.037943444  0.039275331            2 
  546000    1.1703178   -6.6633364    248.96639  0.037998533  0.039263706            1 
  547000    1.1673439   -6.6870686    249.71904  0.038043729  0.039252126            1 
  548000    1.1505788   -6.6710015    249.93023  0.038006421  0.039240816            2 
  549000    1.1424644   -6.6556788     250.0279  0.037952018  0.039229466            3 
  550000    1.1651256   -6.7085334    249.50689  0.037804074  0.039217487            1 
  551000    1.1765014   -6.7050189    250.78791  0.037929207  0.039205555            1 
  552000    1.1597287    -6.659809    251.37155  0.037948603  0.039193781            4 
  553000    1.1648673   -6.7198206    250.93087  0.037813572  0.039181724            1 
  554000    1.1396554   -6.6943796     252.6673  0.038006513  0.039169538            1 
  555000    1.1627387    -6.648446    251.93897  0.037828675  0.039157798            3 
  556000     1.165238   -6.6721736    253.29649  0.037964103  0.039146184            3 
  557000    1.1653066   -6.6939613    253.37309  0.037907404  0.039134371            2 
  558000    1.1812028   -6.6600073    253.94891  0.037925464  0.039122405            2 
  559000    1.1692342    -6.650106    254.37802   0.03792159  0.039110739            2 
  560000    1.1879572   -6.6891916    254.80544  0.037917477   0.03909932            1 
  561000    1.1680458   -6.6623858    255.27674  0.037919896  0.039087624            2 
  562000    1.1593035   -6.7129067    255.07695  0.037822798  0.039075463            3 
  563000    1.1659398   -6.7012388    255.22927  0.037778164  0.039063213            4 
  564000    1.1896708    -6.647367    256.69027  0.037927049  0.039051656            2 
  565000    1.1718804   -6.6825518    256.20714  0.037788664  0.039039877            2 
  566000    1.1329558   -6.7052362    255.98477  0.037689159  0.039027693            2 
  567000    1.1482076   -6.7033881    256.30652  0.037669977  0.039015208            4 
  568000    1.1586974   -6.6805739    257.42422  0.037767639  0.039003411            2 
  569000    1.1579409   -6.6864183    257.15461  0.037661776  0.038990726            2 
  570000    1.1529094   -6.6835196    257.88656  0.037702714  0.038978262            1 
  571000    1.1603374   -6.7436003     257.6959  0.037608859  0.038965891            3 
  572000    1.1256729   -6.6895603    257.80477   0.03755897  0.038953309            1 
  573000    1.1463027   -6.6852051    260.07801  0.037824028  0.038940475            4 
  574000    1.1430126   -6.6731198    259.33424  0.037650151  0.038927181            1 
  575000    1.1577595   -6.7098337    259.12453   0.03755428  0.038913864            1 
  576000    1.1321471   -6.6936514    259.56173  0.037552333  0.038900473            2 
  577000    1.1902589   -6.6799662    260.62844  0.037641311  0.038887608            2 
  578000    1.1524961   -6.6666295    261.09159  0.037642963  0.038875012            2 
  579000    1.1707365   -6.6861378    261.14907  0.037586222  0.038862189            2 
  580000    1.1587151   -6.6689664    261.45672   0.03756562  0.038849939            1 
  581000    1.1515952   -6.6794705    262.06654  0.037588431  0.038838384            3 
  582000    1.1786059   -6.6906309    262.86712  0.037638476  0.038826946            3 
  583000     1.158611   -6.7307322    262.70897   0.03755131  0.038815169            1 
  584000    1.1459024   -6.6935415    262.54296  0.037463322  0.038802851            3 
  585000    1.1492896   -6.7073404    263.07986  0.037475763  0.038790319            2 
  586000    1.1634646   -6.6843341    264.30918   0.03758663  0.038777798            1 
  587000    1.1657567   -6.6590871    264.37032  0.037531278  0.038765696            1 
  588000    1.1578589   -6.6851101    264.49379  0.037484948  0.038753781            2 
  589000    1.1879314    -6.709581    265.74868  0.037598851  0.038741404            1 
  590000    1.1334246   -6.7052563    265.11994   0.03744632  0.038729391            3 
  591000    1.1552459   -6.7003386    265.22462  0.037397718  0.038717147            3 
  592000    1.1721107   -6.6921309    266.44608  0.037506486  0.038704958            2 
  593000    1.1590454   -6.6735477    266.88787  0.037505322   0.03869342            1 
  594000    1.1627331   -6.6860579    267.53914   0.03753355  0.038681472            2 
  595000    1.1623783   -6.6727233    268.34863  0.037583842  0.038669964            4 
  596000    1.1563143   -6.7093084    268.64077  0.037561628  0.038658458            2 
  597000    1.1603041   -6.6992139    268.30342  0.037451622  0.038646847            2 
  598000    1.1564286   -6.6639614    269.27643  0.037524586  0.038635058            1 
  599000    1.1496816   -6.6717405    269.82249  0.037537909   0.03862362            2 
  600000    1.1716593   -6.7215082    269.31081   0.03740428  0.038612755            2 
  601000    1.1522864   -6.6876987    270.27509  0.037475747  0.038601621            2 
  602000    1.1588646   -6.6978197    270.28493  0.037414858  0.038589893            3 
  603000    1.1384939   -6.7134736    270.89306  0.037436851   0.03857778            5 
  604000    1.1540945   -6.7153547    270.87838  0.037372845  0.038565829            2 
  605000    1.1523643   -6.7099625    270.87358   0.03731041  0.038554022            3 
  606000    1.1483747   -6.7054978     272.0432  0.037409682  0.038542046            2 
  607000    1.1523159   -6.7156483    272.92624  0.037469281  0.038530664            2 
  608000    1.1384605   -6.7090169    272.91033  0.037405473  0.038519492            4 
  609000    1.1229271   -6.7211997    273.45262  0.037418256  0.038507983            2 
  610000    1.1519545   -6.6828182     274.3666  0.037481776  0.038496953            3 
  611000    1.1373776   -6.7290329    274.01093  0.037371921  0.038486276            2 
  612000    1.1581748   -6.7155478    275.08001  0.037456428  0.038475203            4 
  613000     1.140141   -6.6781282    275.12393  0.037401295  0.038464338            3 
  614000    1.1349939   -6.7489614    275.16256  0.037345624  0.038453157            3 
  615000    1.1380726   -6.7058782    276.35636  0.037446661  0.038441976            2 
  616000    1.1457508   -6.6839124    276.51713  0.037407621  0.038430725            1 
  617000    1.1593997   -6.7423377    276.83767  0.037390285  0.038420327            1 
  618000    1.1502433   -6.6952769    276.97946  0.037348903  0.038409294            2 
  619000    1.1503672   -6.7388948     276.3173  0.037199421  0.038397934            2 
  620000    1.1412322   -6.6811029    276.06483  0.037105488  0.038386199            2 
  621000    1.1579683    -6.712523    277.09323   0.03718374  0.038374396            3 
  622000    1.1253854   -6.7184055     277.0563  0.037119011  0.038362068            3 
  623000    1.1446869   -6.6948078    278.76054  0.037287391  0.038349524            2 
  624000    1.1729313   -6.6937399    277.94569  0.037118815  0.038337198            2 
  625000    1.1258032   -6.6433814    278.91936  0.037189249  0.038324647            1 
  626000    1.1724182   -6.7077361    279.40989   0.03719514  0.038312264            6 
  627000    1.1539846   -6.6996555    279.66776  0.037170091  0.038299892            1 
  628000    1.1700457    -6.742467    279.78768  0.037126815  0.038287535            4 
  629000     1.137954    -6.679663    280.51757   0.03716449  0.038275245            2 
  630000    1.1399749   -6.6820831    282.48742   0.03736606  0.038263809            2 
  631000     1.159703   -6.6819839    281.45624   0.03717066  0.038252168            1 
  632000    1.1461758   -6.7008953    281.84814  0.037163521  0.038240348            5 
  633000    1.1504266   -6.6435886    283.37341   0.03730561  0.038229316            4 
  634000    1.1629352    -6.688262    284.19051  0.037354168  0.038217869            2 
  635000     1.136621     -6.71125    282.27819  0.037044382  0.038206101            2 
  636000    1.1730379   -6.6987301    283.06161  0.037088785  0.038194246            3 
  637000    1.1589766   -6.7323407    283.74931  0.037120528  0.038181985            3 
  638000    1.1450391   -6.7536393    283.55998  0.037037615  0.038169949            2 
  639000    1.1495008   -6.7220379    284.36196  0.037084242  0.038157937            1 
  640000     1.160313   -6.7582159    284.04862  0.036985497  0.038145429            2 
  641000    1.1599702    -6.725471    284.64834  0.037005765   0.03813287            1 
  642000    1.1486862   -6.6963063    285.15427  0.037013794  0.038120732            2 
  643000     1.160651   -6.7004359    285.46289  0.036996227  0.038108473            2 
  644000    1.1530693   -6.6919019    285.01545  0.036880882  0.038095846            4 
  645000     1.135034   -6.7192205    285.40019  0.036873409  0.038083258            3 
  646000    1.1454674   -6.7285939    286.26745  0.036928206  0.038070438            3 
  647000    1.1357116   -6.7645795    287.00967  0.036966727  0.038057639            2 
  648000    1.1377326   -6.7165576    286.78065  0.036880227  0.038045138            1 
  649000    1.1285911   -6.6970709    288.19352  0.037004817  0.038032512            2 
  650000    1.1278659   -6.7187293    287.37165  0.036842519   0.03801959            1 
  651000    1.1511542   -6.7599878    287.50634  0.036803167   0.03800636            2 
  652000    1.1247855    -6.716555    287.90729  0.036797966   0.03799318            2 
  653000    1.1196817   -6.7234361    289.02734  0.036884551  0.037980463            2 
  654000    1.1477008   -6.7372368    289.05528  0.036831712  0.037967631            2 
  655000    1.1423041   -6.6897303    289.90931  0.036884136  0.037955492            1 
  656000     1.150344   -6.6798602    290.00634  0.036840236  0.037943254            2 
  657000    1.1450162   -6.7103969    291.39322  0.036960073  0.037931444            1 
  658000    1.1415348    -6.684982    291.62182  0.036932855  0.037919257            2 
  659000    1.1753045   -6.7133374    291.76646  0.036895101  0.037907516            3 
  660000    1.1618274   -6.7001543    292.23462   0.03689831  0.037895951            2 
  661000    1.1424212   -6.7268615     293.3165  0.036978883   0.03788451            1 
  662000    1.1527241   -6.6886667      292.513  0.036821879  0.037873179            1 
  663000    1.1529137    -6.729835    292.96878  0.036823627   0.03786174            2 
  664000    1.1245732   -6.7116298    293.32985  0.036813485  0.037849824            3 
  665000    1.1564732   -6.7268582    293.05623  0.036723838  0.037837847            1 
  666000    1.1200168   -6.7135902    294.20746  0.036812745  0.037826266            1 
  667000    1.1547859   -6.7532369    294.88767  0.036842537  0.037814963            2 
  668000    1.1392784   -6.7008912     295.0863  0.036812164  0.037803378            2 
  669000    1.1357469   -6.6904011    296.35728  0.036915456  0.037792929            2 
  670000    1.1477971   -6.7344979    296.79587  0.036914909  0.037782408            2 
  671000     1.156417   -6.7193968    297.77147  0.036981057  0.037772167            3 
  672000    1.1566951   -6.7006324    298.21381  0.036980879  0.037762564            2 
  673000    1.1610964   -6.7098128     297.7576  0.036869441  0.037753004            1 
  674000    1.1615465   -6.7056034    298.13924  0.036861924  0.037743162            1 
  675000    1.1477718   -6.7360192    298.06514  0.036798165  0.037732721            2 
  676000     1.131826   -6.7296905    298.43542  0.036789377  0.037722457            2 
  677000    1.1638887   -6.7236688    299.33981  0.036846358   0.03771217            1 
  678000    1.1605603   -6.7227434     301.1732  0.037017356   0.03770206            1 
  679000    1.1210481   -6.7231318    299.90957  0.036807752  0.037692351            5 
  680000     1.154976   -6.7466549    300.35168  0.036807804  0.037682294            5 
  681000    1.1874116   -6.6782372    301.75888  0.036925952  0.037672072            2 
  682000     1.143637    -6.701377     302.1665  0.036921615  0.037662457            3 
  683000    1.1525826   -6.7354254    301.14795  0.036743283  0.037652246            2 
  684000    1.1383519   -6.7386257    301.41161  0.036721687  0.037641575            3 
  685000    1.1400961   -6.6805906    302.76413   0.03683262  0.037630953            2 
  686000    1.1312902   -6.7368393    302.49113  0.036745764   0.03762068            1 
  687000     1.153613   -6.7003992    303.68689  0.036837323  0.037610575            3 
  688000    1.1636939   -6.7213415    303.44486  0.036754464  0.037600345            3 
  689000    1.1268129   -6.7163335    303.61696  0.036721935  0.037589654            2 
  690000    1.1514557   -6.7209362     304.5691  0.036783708  0.037579221            2 
  691000      1.13197    -6.723863    304.32606  0.036701164  0.037568668            2 
  692000    1.1397547   -6.7566054    304.03456  0.036613025  0.037558007            1 
  693000    1.1127104   -6.7211513    305.52388  0.036739284  0.037547679            3 
  694000    1.1435642   -6.7261987    305.83935  0.036724225  0.037537393            1 
  695000    1.1229522   -6.6952306    305.84754  0.036672366  0.037526685            2 
  696000    1.1601904   -6.7158318    306.55389  0.036704249  0.037515816            2 
  697000    1.1277468   -6.7326568    307.02816  0.036708292  0.037505066            3 
  698000    1.1390828   -6.7078899    306.08805  0.036543464  0.037494311            3 
  699000     1.171062   -6.7877697    307.00902   0.03660098   0.03748305            5 
  700000    1.1311219   -6.7103651    307.65041  0.036625049  0.037471622            2 
  701000    1.1581529   -6.7155532    307.96666  0.036610397   0.03746011            3 
  702000    1.1212413   -6.7487514    307.06741  0.036451497  0.037448375            5 
  703000    1.1483231   -6.7201566    307.64402  0.036467997  0.037436607            2 
  704000     1.130659   -6.7476264    308.55229  0.036523708  0.037424791            3 
  705000    1.1589843   -6.7255373    308.80195  0.036501412  0.037412928            1 
  706000    1.1266537   -6.7234465    309.44805  0.036525974  0.037401837            2 
  707000    1.1388574   -6.7171715    310.41776  0.036588609  0.037391092            4 
  708000    1.1440724   -6.6927679    310.73828  0.036574656  0.037380637            2 
  709000    1.1273154   -6.7325265    311.13723  0.036569961  0.037370144            1 
  710000    1.1375381   -6.6992185      311.937  0.036612324  0.037359689            1 
  711000    1.1105236   -6.7260056    312.41934  0.036617363  0.037349238            2 
  712000    1.1425986   -6.7151409    312.18883  0.036538955  0.037339074            2 
  713000    1.1418319   -6.7181877    313.10072  0.036594287  0.037329186            1 
  714000    1.1290755   -6.7353069    312.39103  0.036460204  0.037318848            2 
  715000    1.1292514   -6.7575006    313.00753  0.036481064  0.037308208            3 
  716000    1.1669979   -6.7431601    313.18661  0.036450955  0.037297701            1 
  717000    1.1477615   -6.7230999    313.61014  0.036449342   0.03728748            1 
  718000    1.1493971   -6.7156566    313.88894  0.036430936  0.037277073            2 
  719000    1.1306673   -6.7624855    315.50237  0.036567266    0.0372666            2 
  720000    1.1548384   -6.7086235    314.94078  0.036451479  0.037256174            3 
  721000    1.1291635   -6.7566815    315.74625  0.036494019  0.037245619            3 
  722000    1.1470126   -6.7449235    315.70956  0.036439238  0.037235555            1 
  723000    1.1205781   -6.7620504    316.48133  0.036477793  0.037225738            3 
  724000    1.1246583   -6.7702464    316.45328  0.036424181   0.03721569            1 
  725000    1.1640543   -6.7198976    318.43164  0.036601338  0.037205613            2 
  726000    1.1506671   -6.7497895    316.92584   0.03637808  0.037196115            2 
  727000    1.1094711   -6.7646078    318.13956  0.036467166  0.037186357            1 
  728000    1.1314103   -6.7596222    317.71371  0.036368328  0.037176461            3 
  729000    1.1240242   -6.6954264    320.98653  0.036692562   0.03716682            1 
  730000    1.1389728   -6.7531893    317.90264  0.036290256  0.037157288            3 
  731000    1.1186148    -6.758829    319.81142   0.03645821  0.037147434            1 
  732000    1.1554332   -6.7349638    320.18055  0.036450427  0.037137718            3 
  733000    1.1129985   -6.7447333    320.49097   0.03643599    0.0371283            4 
  734000    1.1218166    -6.741586    320.51914  0.036389548  0.037118571            3 
  735000    1.1297994   -6.7124304    322.04603  0.036513156  0.037109382            2 
  736000    1.1471667   -6.7305735    323.19822  0.036594001  0.037100277            2 
  737000    1.1321918   -6.7623145    321.92187   0.03640003  0.037091087            1 
  738000    1.1148565   -6.7690029     322.9078  0.036462037  0.037081779            2 
  739000    1.1034015   -6.7602013    322.43194  0.036359037  0.037072585            2 
  740000    1.1403407   -6.7494765    322.48298  0.036315651   0.03706281            2 
  741000    1.1291704   -6.7719831    323.54537  0.036386119  0.037053158            2 
  742000    1.1286689   -6.7446799    322.77626  0.036250703  0.037043071            2 
  743000    1.1430585    -6.750404    324.18294  0.036359684   0.03703316            1 
  744000     1.128664     -6.73236    323.90551  0.036279739  0.037023584            1 
  745000    1.1340071   -6.7841607    324.51491  0.036299206  0.037014166            1 
  746000    1.1311992   -6.7318647    326.12262  0.036430141  0.037004792            4 
  747000    1.1458802   -6.7232829    325.50142  0.036312073  0.036995551            1 
  748000    1.1833309   -6.7672867    326.08352  0.036328377  0.036985954            1 
  749000    1.1180011    -6.793408    324.78416  0.036135309   0.03697599            3 
  750000    1.1533196   -6.7425828    327.04657  0.036338508  0.036966029            2 
  751000    1.1082522   -6.7692975    326.99358  0.036284241  0.036956591            2 
  752000     1.153225   -6.7208553    328.26209  0.036376562  0.036946979            5 
  753000    1.1104291    -6.749999    327.70348  0.036266432  0.036937476            1 
  754000     1.129737   -6.7470072    328.19708  0.036272887  0.036928138            2 
  755000    1.1538485   -6.7602227    329.52584  0.036371506  0.036918576            1 
  756000    1.1352587   -6.7227718    329.71384  0.036344118  0.036909416            1 
  757000    1.0960502   -6.7619877    329.63844  0.036287808   0.03690054            1 
  758000    1.1372671   -6.7610328    329.86915  0.036265298   0.03689157            2 
  759000    1.1397819   -6.7534566    330.12984   0.03624614   0.03688322            2 
  760000    1.1555169   -6.7569402     330.9685  0.036290405  0.036874582            2 
  761000    1.1406842   -6.7649964    331.02552  0.036248962  0.036865326            3 
  762000    1.1491685   -6.7623414       330.95  0.036193132  0.036855895            2 
  763000    1.1157572   -6.7478227    331.35698  0.036190147  0.036846353            2 
  764000    1.1276038   -6.7738626    331.30258  0.036136844  0.036836559            3 
  765000    1.1155139   -6.7075587    333.50315  0.036329319  0.036827436            1 
  766000    1.1499046   -6.7376313    332.92345  0.036218826  0.036818429            1 
  767000    1.1044506   -6.7543602    333.46893   0.03623087  0.036809618            4 
  768000    1.1297478   -6.7378939    333.25464  0.036160443  0.036800486            4 
  769000    1.1429913   -6.7421342    334.45953  0.036243989  0.036791376            4 
  770000    1.1223052   -6.7637694    333.33951  0.036075704  0.036782352            3 
  771000    1.0927525    -6.747507    334.27377  0.036129893  0.036773569            2 
  772000    1.1177984   -6.7273898    335.41719  0.036206518  0.036764409            4 
  773000    1.1254664   -6.7360634    335.91697  0.036213559   0.03675558            3 
  774000    1.1157298   -6.7477802    336.83054  0.036265131  0.036746858            2 
  775000    1.1294348   -6.7479987    336.98349  0.036234784   0.03673797            2 
  776000    1.1272042   -6.7405627    336.87659   0.03617661   0.03672871            2 
  777000    1.1310242   -6.7597356     337.5259  0.036199689  0.036719651            2 
  778000    1.1263095    -6.787895    337.57187  0.036158084  0.036710527            1 
  779000    1.1299867   -6.7573939    336.91374  0.036041265  0.036701418            2 
  780000    1.1263195    -6.754536    338.39992  0.036153838  0.036692297            2 
  781000    1.1280972    -6.790709    338.76824  0.036146846  0.036683051            3 
  782000    1.1323699   -6.7801654    337.74736  0.035991833  0.036673599            1 
  783000    1.1023032   -6.7505521    338.73657  0.036051146  0.036664084            2 
  784000    1.1257835   -6.7617542     338.2525  0.035953709  0.036654789            3 
  785000    1.1121023   -6.7504185    340.06066  0.036099858  0.036645644            2 
  786000    1.1242467   -6.7538085    340.20101   0.03606881  0.036636776            1 
  787000    1.1558191   -6.7652927    340.10138  0.036012429  0.036627823            6 
  788000    1.1293869   -6.7496485    340.90309  0.036051511  0.036618924            3 
  789000    1.1314407    -6.762446    341.71288  0.036091348  0.036610002            2 
  790000    1.1186278   -6.7396906     341.3621   0.03600866   0.03660122            2 
  791000    1.1164565   -6.7457483    342.74239  0.036108553  0.036592334            2 
  792000    1.1163678   -6.7394936    341.64405  0.035947396  0.036583886            2 
  793000     1.103246   -6.7683855    342.74463   0.03601772   0.03657493            1 
  794000    1.1058597   -6.7802228    342.59962  0.035957139  0.036565827            2 
  795000     1.144366   -6.7459636    342.47736  0.035899094  0.036556461            2 
  796000    1.1295065   -6.7591336    342.22485   0.03582756  0.036547043            2 
  797000    1.1345728    -6.783891     343.9945   0.03596764  0.036537485            3 
  798000    1.1011726   -6.7902389    343.57057  0.035878297   0.03652783            2 
  799000    1.1312874   -6.7554792     345.3327  0.036017178  0.036518531            1 
  800000     1.135796   -6.7336962    345.17429  0.035955655  0.036509497            6 
  801000    1.1114607   -6.7511872    345.44593  0.035939027  0.036500559            3 
  802000     1.106177   -6.7447614    345.61294  0.035911568  0.036491583            2 
  803000    1.1196348   -6.7567577    345.89402  0.035896017  0.036482298            3 
  804000    1.1217461   -6.7336619    346.40531  0.035904365  0.036473192            3 
  805000    1.1296813   -6.7213267    347.17385  0.035939322  0.036464178            1 
  806000    1.1115495   -6.7685847    346.95864  0.035872481  0.036454951            2 
  807000    1.1078616   -6.7696177    346.63522  0.035794633  0.036445578            3 
  808000    1.1215316    -6.806736     346.8225  0.035769647  0.036436318            1 
  809000    1.1219068   -6.7718557    348.32362   0.03588006  0.036426754            2 
  810000    1.1004045   -6.7594594    348.26142  0.035829364  0.036417017            7 
  811000    1.1108015   -6.7665584    348.57649  0.035817559  0.036407714            3 
  812000    1.1339142   -6.7485179    348.98872  0.035815755  0.036398445            4 
  813000    1.1253931   -6.7617031    349.70468  0.035845088  0.036389222            1 
  814000    1.1043433   -6.7450774    350.84864  0.035918165  0.036380091            2 
  815000    1.1233774   -6.7554054    349.55798  0.035742125  0.036370829            2 
  816000    1.1173338    -6.734167    351.07291  0.035853034  0.036361713            2 
  817000    1.1489961   -6.7695935    350.40676  0.035741204  0.036352266            2 
  818000      1.13713    -6.791246    349.74439  0.035630032  0.036342555            2 
  819000    1.1244523   -6.7473443    350.77712  0.035691608   0.03633292            2 
  820000    1.1486548   -6.7456057    351.21101  0.035692176  0.036323395            7 
  821000    1.1200708   -6.7922474    351.49518  0.035677545  0.036313414            2 
  822000      1.11866    -6.782394    351.76554  0.035661551   0.03630356            2 
  823000     1.111694   -6.7769171    352.09464  0.035651543   0.03629373            3 
  824000    1.1303339   -6.7522507    351.79279   0.03557775  0.036283554            2 
  825000    1.1084999   -6.8026468    351.79587  0.035534936  0.036273523            1 
  826000    1.1300969   -6.8033338    352.22876  0.035535589    0.0362637            2 
  827000    1.1083518    -6.790668    353.91231  0.035662264  0.036254028            2 
  828000    1.1212035   -6.8109844    354.19578  0.035647724   0.03624425            5 
  829000    1.1194416   -6.7886292    354.27328  0.035612513  0.036234397            4 
  830000    1.1269176   -6.7564181    354.96257  0.035638813  0.036224527            2 
  831000    1.0999072   -6.7496915    356.26689  0.035726724  0.036215307            4 
  832000    1.1225658   -6.7667222    356.23932  0.035681022  0.036206224            3 
  833000     1.108248   -6.7603238    356.86961  0.035701242  0.036196782            2 
  834000    1.1177884   -6.7876242    354.91437  0.035463067  0.036187188            2 
  835000    1.1223283   -6.7911538    356.82832  0.035611609  0.036177731            4 
  836000    1.1118164   -6.7826036    357.67821  0.035653729   0.03616847            5 
  837000    1.1084895   -6.7588189     357.3086  0.035574333  0.036159148            2 
  838000    1.1083619   -6.7723762    356.61616  0.035463023  0.036149564            2 
  839000    1.1291136   -6.8083341      358.091  0.035567242  0.036139978            2 
  840000    1.1210239    -6.757061    357.40374  0.035456721  0.036130048            4 
  841000    1.1291926   -6.7423867    359.51357   0.03562362  0.036120141            2 
  842000    1.1214534   -6.7701102     359.7341  0.035603137  0.036110687            4 
  843000     1.147452   -6.7795194    358.70218  0.035458894   0.03610082            2 
  844000    1.1365681   -6.7470392    360.50874  0.035595255  0.036091168            1 
  845000    1.1199721    -6.788204    359.35978   0.03543982  0.036081276            2 
  846000    1.1117654    -6.804619    359.00884  0.035363361  0.036071587            3 
  847000    1.1276816    -6.796475    359.58047  0.035377851  0.036061736            5 
  848000    1.1259644   -6.7833867    360.85608  0.035461486  0.036052053            3 
  849000    1.1181753   -6.7427462    360.59909  0.035394493  0.036042302            5 
  850000    1.1229997   -6.7815943    361.08009  0.035400008  0.036032173            3 
  851000     1.127107   -6.7729478    360.77188  0.035328229  0.036022083            1 
  852000    1.1454907   -6.7678616    361.69923  0.035377467  0.036012172            1 
  853000    1.1142614   -6.7997796    361.56558  0.035322937  0.036002188            3 
  854000    1.1046417   -6.7848779    361.53759  0.035278844  0.035992231            8 
  855000    1.1122876   -6.7751889    363.16631  0.035396326  0.035982387            2 
  856000     1.131508   -6.7616382    363.71486  0.035408378  0.035972586            2 
  857000    1.1023829   -6.7631912    363.54644  0.035350685  0.035962769            4 
  858000     1.116144   -6.7790029    365.41428  0.035490897  0.035953254            4 
  859000    1.1377374   -6.7446221    365.88443  0.035495191  0.035944182            5 
  860000    1.0876152   -6.7996956    365.05771  0.035373809  0.035935063            3 
  861000    1.0904823   -6.7809646    365.19422  0.035345937  0.035925426            1 
  862000    1.1108921   -6.7806917    365.92049  0.035375144  0.035916159            2 
  863000    1.1129057   -6.8186181    366.31472  0.035372221  0.035906876            1 
  864000     1.123037    -6.796897    365.94606  0.035295723  0.035897492            2 
  865000     1.103212   -6.7630547    367.86929  0.035440201   0.03588813            2 
  866000    1.1010289   -6.8195389     367.1372   0.03532883    0.0358787            2 
  867000    1.1160907   -6.8035536     366.5822  0.035234737  0.035869471            2 
  868000    1.1144488   -6.7636649    367.77237  0.035308408  0.035860406            2 
  869000    1.0889689   -6.8073848     369.1965  0.035404345  0.035851424            1 
  870000    1.0990789   -6.8104735    369.74516  0.035416203   0.03584241            3 
  871000    1.1037017   -6.7672077    370.66474  0.035463522  0.035833656            2 
  872000    1.1067714   -6.7945706    370.38933  0.035396534  0.035824647            3 
  873000    1.1246549   -6.7648034    371.47871  0.035459976  0.035815688            1 
  874000    1.1226828    -6.805455    371.13804  0.035386922  0.035806984            2 
  875000    1.0887215   -6.8085799    371.14911  0.035347534  0.035798183            4 
  876000    1.1340417   -6.8265468    370.91282  0.035284705   0.03578942            7 
  877000    1.1159092   -6.8026063    371.62313  0.035311966  0.035780773            1 
  878000    1.1100089   -6.7652648    372.31456  0.035337373  0.035772148            2 
  879000    1.1049803   -6.8148179    372.34946   0.03530048  0.035763517            2 
  880000    1.1204076   -6.8099812    372.76899  0.035300094   0.03575508            4 
  881000    1.1079056   -6.7944921    373.82056  0.035359493  0.035746563            2 
  882000    1.1062396   -6.7756759     374.7524  0.035407445   0.03573834            1 
  883000    1.1025268   -6.7735243    374.53813  0.035347124   0.03573004            2 
  884000     1.119181   -6.7684093    375.35008   0.03538368  0.035721945            2 
  885000    1.1171991   -6.7677281    375.76388  0.035382663  0.035713957            1 
  886000    1.0950123   -6.7967028    375.70365  0.035337062  0.035705721            1 
  887000    1.1212946   -6.7716745    376.08907  0.035333434   0.03569756            1 
  888000    1.0923603   -6.8208901    375.80006  0.035266522  0.035689323            3 
  889000     1.093248   -6.7597835    377.12763  0.035351296  0.035681026            2 
  890000    1.0732479   -6.7865823    376.41667  0.035245006  0.035672495            5 
  891000    1.1348835   -6.8044588    376.13622   0.03517922  0.035663569            6 
  892000    1.1224517   -6.7690038     378.0754  0.035320945  0.035655211            3 
  893000    1.0939199   -6.7728359    378.04773   0.03527881  0.035646906            2 
  894000    1.1166107   -6.7936533    378.68151  0.035298426  0.035638722            1 
  895000    1.0966258   -6.8110274    378.47867  0.035240099  0.035630534            1 
  896000    1.1041991   -6.7983839    378.21084   0.03517586  0.035622268            2 
  897000    1.0988727   -6.8019277    378.47347  0.035161044  0.035613678            3 
  898000    1.1046615   -6.8231083    378.37655  0.035112895  0.035605061            2 
  899000    1.1025023   -6.7838064    380.48708  0.035269474   0.03559651            3 
  900000    1.1137896   -6.8131388    379.90926  0.035176784  0.035588326            1 
  901000    1.1212001   -6.8049498    380.43095  0.035185992  0.035580139            2 
  902000    1.1094545   -6.7899072    382.79642  0.035365523  0.035571802            1 
  903000    1.1108628   -6.8100439    380.94411  0.035155418  0.035563621            2 
  904000    1.0834492   -6.8001301    381.26017  0.035145665  0.035555366           10 
  905000    1.0793147   -6.7729149     381.8841  0.035164282  0.035547096            3 
  906000     1.091702   -6.8162358    381.15473  0.035058382  0.035538678            1 
  907000    1.1228343    -6.766022    383.55439  0.035240204  0.035530285            1 
  908000    1.1061397   -6.7797838    383.12797  0.035162259  0.035522086            3 
  909000    1.1066447   -6.7645005    383.80552  0.035185691  0.035513789            2 
  910000    1.1048121   -6.8203109    383.65941  0.035133646  0.035505491            3 
  911000    1.1139657    -6.814178    383.64737  0.035093978    0.0354972            2 
  912000    1.1162982   -6.7729222    385.47288  0.035222303  0.035489249            1 
  913000    1.1145171   -6.8027606     384.7596   0.03511862  0.035480781            2 
  914000    1.1044507   -6.8067163     384.8817  0.035091329  0.035472166            3 
  915000    1.1068579   -6.8194379    384.62197  0.035029324  0.035463624            4 
  916000    1.0884526   -6.7884286    384.96286  0.035022094  0.035454615            7 
  917000     1.101204   -6.8157282    385.68426  0.035049461  0.035445817            6 
  918000    1.0913188    -6.825646    385.87376  0.035028482  0.035437099            2 
  919000    1.1291169   -6.8081921    386.97838  0.035090531  0.035428551            2 
  920000    1.0942859   -6.7986806    386.58217  0.035016501  0.035419824            1 
  921000    1.0788495   -6.7805065    387.12111  0.035027245  0.035411106            5 
  922000    1.0858033   -6.8004915    385.15313  0.034811382  0.035402077            4 
  923000    1.0953655   -6.7963616    386.47732  0.034893221  0.035392972            4 
  924000     1.132237   -6.8143118    386.86023  0.034889992  0.035383682            2 
  925000     1.103258   -6.8259542    387.00545  0.034865355   0.03537441            2 
  926000    1.1110539   -6.8092965    388.60046  0.034971244  0.035365316            2 
  927000    1.1108084   -6.7823107    387.79297  0.034860929   0.03535612            2 
  928000    1.1188409   -6.8091536    388.34885   0.03487328  0.035347023            3 
  929000    1.1029476    -6.782041    389.35296  0.034925812  0.035337845            3 
  930000    1.0984633   -6.7927331    389.22096   0.03487643  0.035328763            1 
  931000    1.1136428   -6.7907434    388.99444  0.034818693  0.035319797            1 
  932000     1.120857   -6.8260059    389.95563  0.034867277  0.035311048            4 
  933000    1.0904443   -6.7938814    390.56117  0.034883992  0.035302379            1 
  934000    1.1013533   -6.7579732    391.74199  0.034951997  0.035293733            4 
  935000    1.1001076    -6.793569    390.83253  0.034833559  0.035285176            1 
  936000    1.1188519    -6.816612    391.14491  0.034824155  0.035276581            3 
  937000    1.1133921   -6.8143507    391.81754  0.034846811  0.035268008            2 
  938000    1.1204899   -6.7862902    392.64024  0.034882751  0.035259614            2 
  939000    1.1001163   -6.7931525    393.01663  0.034879005  0.035251331            3 
  940000    1.1023862   -6.8125934    392.20501  0.034769947  0.035242695            6 
  941000    1.1195594   -6.7809169    394.10467  0.034901228  0.035234069            3 
  942000    1.1266937   -6.8207797    392.08318  0.034685348  0.035225609            3 
  943000    1.1084466   -6.8161585    394.58159  0.034869352  0.035217214            2 
  944000    1.0847794   -6.8001301    394.13676  0.034793146   0.03520846            4 
  945000    1.1124025     -6.82729    395.13828  0.034844646  0.035199679            2 
  946000     1.091996   -6.8004378    395.16694  0.034810337  0.035190789            2 
  947000    1.0878823   -6.7900799    395.35073  0.034789751  0.035181985            4 
  948000     1.100272   -6.7753938    395.46727  0.034763297  0.035173436            1 
  949000    1.1007509   -6.8540321    395.12252  0.034696393  0.035164641            3 
  950000     1.113136    -6.832678     395.9828  0.034735334  0.035155757            5 
  951000    1.0838274   -6.8193417    397.17952  0.034803673  0.035146739            2 
  952000    1.1118182   -6.8092312    397.58129  0.034802284  0.035137884            2 
  953000    1.0931027   -6.8073414    397.58617  0.034766192  0.035129243            2 
  954000    1.1099784     -6.82995    396.47707  0.034632868  0.035120379            4 
  955000    1.1014659   -6.7940708    397.25028  0.034664073  0.035111449            2 
  956000    1.1273311   -6.8023913    397.30661  0.034632724  0.035102814            2 
  957000    1.0973062   -6.8234773    397.95658  0.034653133  0.035094045            1 
  958000    1.1158507   -6.8489374    398.24959  0.034642449   0.03508525            2 
  959000    1.0848324   -6.8188303    399.36198  0.034702988  0.035076299            3 
  960000    1.1158327   -6.8110332    398.90072  0.034626799  0.035067643            2 
  961000    1.1016397   -6.8059576    400.23456  0.034706431  0.035059217            3 
  962000    1.0979819   -6.8201124    400.68236  0.034709144  0.035050582            2 
  963000      1.08999   -6.7997957    400.29795  0.034639837  0.035041879            5 
  964000    1.1025403   -6.7948695    401.52367  0.034709861   0.03503328            3 
  965000    1.0841188   -6.8712254    400.44255  0.034580531  0.035024706            2 
  966000    1.1041937   -6.8534705     401.9021  0.034670644  0.035016267            3 
  967000    1.1009146   -6.8557968    402.17197  0.034658047  0.035008151            2 
  968000     1.112661   -6.8100428    402.78261  0.034674812  0.034999834            3 
  969000    1.0822046    -6.840413    402.84527  0.034644416  0.034991825            3 
  970000    1.0894789   -6.8159676    403.55876  0.034669996   0.03498398            4 
  971000    1.0873353   -6.8274835    404.17641  0.034687299  0.034976182            3 
  972000    1.0960534   -6.8116731    405.12749  0.034733152  0.034968439            2 
  973000    1.0943248   -6.8326951    404.44408  0.034638924  0.034960637            7 
  974000    1.0792446   -6.8338089    404.33914  0.034594382  0.034952618            2 
  975000    1.1005374     -6.81642    404.19962  0.034546976  0.034944375            4 
  976000    1.1053812   -6.8196779    404.80555  0.034563316  0.034936242            3 
  977000    1.0815313   -6.7891186    406.27349  0.034653147  0.034928061            4 
  978000    1.0806795   -6.8354791    405.17977  0.034524521  0.034919799            2 
  979000    1.0946151   -6.8047817    407.95979  0.034725893  0.034911389            1 
  980000      1.11476   -6.8378114    406.58984  0.034573966  0.034903319            3 
  981000    1.0935444   -6.7832915    408.85494  0.034731137  0.034895309            3 
  982000    1.1056666   -6.8423234    406.80907  0.034522155  0.034887073            2 
  983000    1.0965138   -6.7942898     409.9514  0.034753425  0.034878918            2 
  984000    1.0792542   -6.8376153    408.56378  0.034600591  0.034871065            3 
  985000    1.1217394   -6.7996138    408.59769  0.034568332  0.034863035            4 
  986000    1.0916928   -6.8361582    408.82962  0.034552875  0.034854872            2 
  987000    1.1206531   -6.8042138    409.06784   0.03453798  0.034846447            2 
  988000    1.0796874   -6.8005148    408.20886  0.034430572   0.03483793            2 
  989000    1.0709667   -6.8274687      409.561   0.03450969  0.034829787            1 
  990000    1.1269802   -6.8144928    410.37367  0.034543238  0.034821756            1 
  991000    1.1092383   -6.8276145    409.61936  0.034444951  0.034813434            2 
  992000    1.0964497   -6.8114338    409.77275  0.034423114  0.034805078            2 
  993000    1.0984113   -6.8120565    410.17924  0.034422561  0.034796666            4 
  994000    1.1153248   -6.8177182    411.49171  0.034497963  0.034788343            3 
  995000    1.1145266   -6.8060699    412.12659  0.034516465  0.034779951            2 
  996000    1.1048344   -6.7966549    412.84392  0.034541827  0.034771746            1 
  997000     1.099604   -6.8161004    413.26998  0.034542793  0.034763692            1 
  998000    1.0932732   -6.8781629    412.81146  0.034469895  0.034755265            2 
  999000    1.0913019    -6.828416    412.11796   0.03437754  0.034746843            6 
 1000000    1.1035152   -6.8848942     411.5409  0.034295075  0.034738469            2 
 1001000    1.1139817   -6.8335285    412.43001  0.034334832  0.034729797            2 
 1002000    1.0924136   -6.8422393    413.79599   0.03441417  0.034721316            2 
 1003000    1.0877812    -6.809876    414.07284  0.034402861  0.034712576            1 
 1004000    1.0787966   -6.7978626    414.19323  0.034378588   0.03470414            5 
 1005000    1.0848817   -6.8380461    412.88999  0.034236317  0.034695338            1 
 1006000    1.0865358   -6.8238056    415.22949  0.034396081  0.034686705            2 
 1007000    1.0680848   -6.8084273    414.01381  0.034261322  0.034678147            3 
 1008000     1.096851   -6.8461069      414.818  0.034293816  0.034669504            3 
 1009000    1.1084284   -6.7884921    415.92402  0.034351175  0.034660871            1 
 1010000    1.0793348   -6.8497304    415.31367  0.034266804  0.034652399            3 
 1011000    1.1028379   -6.8675676    416.24638  0.034309791  0.034643617            3 
 1012000    1.0926438   -6.8352713    416.98197   0.03433646  0.034635151            3 
 1013000    1.1030151   -6.8439046    415.86943  0.034211042  0.034626525            5 
 1014000    1.0655424   -6.8553188     415.8493   0.03417565  0.034617783            1 
 1015000    1.0847586   -6.8055185    417.68694  0.034292852  0.034609106            3 
 1016000    1.0895812   -6.8264559    417.65033  0.034256097  0.034600371            1 
 1017000     1.084003   -6.8348007    416.87451  0.034158842  0.034591689            2 
 1018000     1.070115   -6.8206405    418.11622  0.034226934  0.034583149            1 
 1019000    1.0891214   -6.8108508    418.12056  0.034193699  0.034574835            2 
 1020000    1.0912391    -6.820284    418.56938  0.034196845  0.034566372            3 
 1021000    1.0565291   -6.8480817     418.0057  0.034117344  0.034557765            3 
 1022000    1.0829586   -6.8231665      419.683  0.034220727  0.034549301            3 
 1023000    1.1026973   -6.8638101    419.66882  0.034186121  0.034540764            1 
 1024000    1.0914324   -6.8256585    419.17561  0.034112598  0.034532259            1 
 1025000    1.0803982   -6.8399675    420.30522  0.034171156  0.034523565            3 
 1026000    1.0831886   -6.8197365     418.8216  0.034017349   0.03451485            3 
 1027000      1.07521   -6.8421848    420.68971  0.034135809  0.034506169            1 
 1028000    1.0896829   -6.8456694    422.00289  0.034209054  0.034497592            3 
 1029000    1.0813888   -6.8387396    420.66808   0.03406771  0.034488836            2 
 1030000    1.0864906   -6.8503531    421.39728  0.034093631  0.034480185            4 
 1031000    1.0839195   -6.8416151     421.6822  0.034083592   0.03447141            2 
 1032000     1.064826   -6.8285627    422.27554  0.034098477  0.034462441            2 
 1033000    1.0901719   -6.8170213    422.88394  0.034114548  0.034453734            3 
 1034000    1.0752513   -6.8875834    422.42364  0.034044458  0.034444954            3 
 1035000    1.0847721   -6.8327322    423.19677  0.034073814  0.034436169            2 
 1036000    1.0962805    -6.831028    423.91404   0.03409862   0.03442752            2 
 1037000    1.0949663   -6.8287697    424.36819  0.034102233    0.0344191            4 
 1038000    1.0985555    -6.846277    424.07436   0.03404579  0.034410623            3 
 1039000    1.0757284   -6.8318734    425.28133  0.034109827  0.034401786            3 
 1040000    1.1064418   -6.8590437     424.5826  0.034021042   0.03439323            2 
 1041000    1.1037172   -6.8239966    426.16559  0.034115081  0.034384933            2 
 1042000    1.0905756   -6.8136402    425.76164  0.034050035  0.034376808            6 
 1043000    1.1021634   -6.8547415    426.37009  0.034066002  0.034368488            3 
 1044000    1.0936363   -6.8295489    426.99014  0.034082865  0.034359975            5 
 1045000    1.0808738   -6.8270659    427.31459  0.034076123  0.034351649            3 
 1046000    1.0743868     -6.84085    426.45894  0.033975378  0.034343312            1 
 1047000    1.0770249   -6.8511777    427.39247   0.03401723  0.034335121            3 
 1048000    1.0818658   -6.8157157    428.69027  0.034087966  0.034326855            2 
 1049000     1.069375   -6.7968848    428.44204  0.034035751  0.034318671            2 
 1050000    1.0514034   -6.8671667    427.57818  0.033934776  0.034310193            2 
 1051000    1.0880654   -6.8490539    427.49823  0.033896149    0.0343013            2 
 1052000    1.0700036   -6.8717697    427.64498  0.033875553  0.034292524            1 
 1053000    1.0942028   -6.8570176    428.60253  0.033919162  0.034283494            3 
 1054000    1.0789396   -6.7852575    429.69953  0.033973713  0.034274724            2 
 1055000    1.0707983   -6.8412143    429.08439  0.033892922  0.034266064            2 
 1056000    1.0935491   -6.8329292    429.04011  0.033857332  0.034257318            3 
 1057000    1.0817049   -6.8517714    429.88143   0.03389163  0.034248392            1 
 1058000    1.0667144   -6.8663762    429.80938  0.033853921  0.034239428            3 
 1059000    1.0691992    -6.841827    430.11557  0.033846047  0.034230672            2 
 1060000    1.0856817   -6.8809156     430.5241  0.033846234  0.034221933            3 
 1061000    1.0700206    -6.914297    430.27065  0.033794428  0.034212994            2 
 1062000    1.0908149   -6.8642189    431.52133  0.033860745  0.034204098            2 
 1063000    1.0997242   -6.8853545     430.9871   0.03378701  0.034195239            3 
 1064000    1.0935234   -6.8258054    434.20518  0.034007298  0.034186741            2 
 1065000     1.078269   -6.8816691    432.04321  0.033806198  0.034178315            1 
 1066000    1.0763156   -6.8561677    433.41866  0.033882009  0.034169814            2 
 1067000    1.0755841   -6.8503687    433.00986  0.033818327  0.034161451            2 
 1068000     1.094864   -6.8419736    434.09413  0.033871264  0.034153089            2 
 1069000    1.0820482   -6.8406963    434.23504  0.033850564  0.034144615            2 
 1070000    1.0664126    -6.837293    436.44948  0.033991393  0.034136418            1 
 1071000    1.0585128   -6.8000156    436.92055  0.033996308  0.034128491            1 
 1072000    1.0675647   -6.8876337    434.49626   0.03377614   0.03412032            3 
 1073000    1.0836962   -6.8644975    436.56644  0.033905439  0.034112301            5 
 1074000    1.0858009   -6.8546404    435.78751  0.033813432  0.034104294            2 
 1075000    1.0750056   -6.8670219    436.26244  0.033818794  0.034096196            2 
 1076000    1.0936866   -6.8292523    437.86014  0.033911101  0.034088266            5 
 1077000    1.0974787   -6.7958376     438.5518  0.033933132  0.034080824            1 
 1078000     1.087369   -6.8383988    437.24618  0.033800725  0.034073171            4 
 1079000    1.0946491   -6.8828405    438.23116  0.033845471  0.034065118            2 
 1080000    1.0847054   -6.8226041    438.37567  0.033825283  0.034056964            3 
 1081000    1.0878349   -6.8341315    439.08577  0.033848734  0.034048952            1 
 1082000    1.0813559   -6.8821381    437.52809  0.033697481  0.034040827            3 
 1083000    1.0732375   -6.8566568    438.50862  0.033741815  0.034032745            3 
 1084000     1.072821    -6.894407    439.04617  0.033752012  0.034024493            2 
 1085000    1.0812193   -6.8226232    441.31236  0.033894959  0.034016798            4 
 1086000    1.0894431   -6.8591181     439.9568   0.03375973   0.03400887            3 
 1087000     1.061963   -6.8036864    443.07981  0.033968094  0.034000988            3 
 1088000    1.1036137   -6.8779271     440.7353  0.033757299   0.03399327            2 
 1089000    1.0605633   -6.8423658    441.93047  0.033817759  0.033985476            6 
 1090000    1.0654559   -6.8538796    443.31066  0.033892253  0.033977906            9 
 1091000     1.074456   -6.8571728    442.36552  0.033788995  0.033970366            3 
 1092000    1.0571881   -6.8782088     442.8702  0.033796566  0.033962905            1 
 1093000    1.0797199   -6.8766642     444.0364  0.033854559   0.03395539            2 
 1094000    1.0833071   -6.8635993    444.26483  0.033841014   0.03394786            1 
 1095000    1.0796207   -6.8680338    444.66735  0.033840742  0.033940519            2 
 1096000    1.0647353   -6.8517401    444.03871  0.033762067  0.033933089            3 
 1097000    1.0539085   -6.8072165     446.1033  0.033888126  0.033925518            2 
 1098000    1.0928169   -6.8980045    445.91585  0.033843036  0.033918019            3 
 1099000    1.0583133   -6.8591984    446.20587  0.033834233   0.03391069            2 
 1100000    1.0666404   -6.8322238    446.11545  0.033796625   0.03390331            3 
 1101000    1.0675502   -6.8754126    447.23358  0.033850559  0.033896298            1 
 1102000    1.0933727   -6.8561316    447.31166  0.033825745  0.033889067            5 
 1103000    1.0655269   -6.8567265    447.55703  0.033813616  0.033882007            4 
 1104000    1.0675737   -6.8649077    447.56337  0.033783467  0.033874768            3 
 1105000    1.0905088   -6.8611835    447.72246  0.033764892  0.033867756            1 
 1106000    1.0768085   -6.8730516     447.5272  0.033719651  0.033860574            2 
 1107000    1.0708629   -6.8528924    448.04803  0.033728397  0.033853011            2 
 1108000    1.0719463   -6.8869163    447.01839  0.033620516  0.033845389            1 
 1109000    1.0677987   -6.8511306    448.41644  0.033695254  0.033837886            3 
 1110000    1.0437142   -6.8601602    449.55646  0.033750485  0.033830219            1 
 1111000     1.076949   -6.8719544    447.68252  0.033579547  0.033822505            3 
 1112000    1.0865511   -6.8708752    447.98763  0.033572215  0.033814732            5 
 1113000    1.0741498   -6.8084059    451.48056  0.033803576  0.033807238            2 
 1114000    1.0687853   -6.8187673     450.7315  0.033717198  0.033799957            6 
 1115000    1.0657575   -6.8624948    450.94864  0.033703187  0.033792701            1 
 1116000    1.0661311   -6.8322163    450.03566  0.033604813  0.033785176            2 
 1117000    1.0662601   -6.8621565    451.19123  0.033660939  0.033777586            5 
 1118000    1.0626913    -6.865962    451.39289  0.033645863   0.03377009            3 
 1119000    1.0657128   -6.8788046    450.82801  0.033573727  0.033762429            2 
 1120000    1.0830111   -6.8595667    452.97156  0.033703241  0.033755069            3 
 1121000    1.0788805    -6.828863    453.25603  0.033694323  0.033747737            2 
 1122000    1.0808561   -6.8615921    452.10824  0.033579043  0.033740488            3 
 1123000    1.0582777   -6.8346123    454.49788  0.033726468  0.033733352            4 
 1124000    1.0772656   -6.8694464    454.09979  0.033666948  0.033726323            5 
 1125000    1.0693383   -6.8678017    453.46318  0.033589865  0.033719068            2 
 1126000     1.065633   -6.8782861    454.69087  0.033650893   0.03371184            4 
 1127000    1.0884053   -6.8731645    455.09998  0.033651285  0.033704579            2 
 1128000    1.0899462    -6.864798     454.0595  0.033544585  0.033697279            2 
 1129000    1.0563655   -6.8562448    455.81017  0.033644093  0.033689971            3 
 1130000    1.0531865   -6.8670727    455.40225  0.033584237   0.03368275            3 
 1131000    1.0593331   -6.8755304    456.73979  0.033653094  0.033675504            3 
 1132000    1.0679014   -6.9024875    455.57364  0.033537518  0.033668289            3 
 1133000     1.075561   -6.8730478    456.13904  0.033549503  0.033660893            2 
 1134000    1.0854501   -6.8955258    456.15081  0.033520782   0.03365351            5 
 1135000    1.0997629   -6.8988792     455.9914  0.033479545  0.033646102            4 
 1136000    1.0207431   -6.8997238     456.9923  0.033523496  0.033638836            3 
 1137000    1.0735166   -6.9148262    456.29179   0.03344267  0.033631553            3 
 1138000    1.0610425   -6.8540777    459.04957  0.033615229  0.033624468            9 
 1139000    1.0848278   -6.8728596    459.68544  0.033632239  0.033617427            3 
 1140000    1.0395731    -6.858479    458.91115  0.033546136  0.033610291            3 
 1141000    1.0660566   -6.9339662    458.95146   0.03351968   0.03360308            5 
 1142000    1.0872445   -6.8517315    461.45463  0.033672988  0.033596018            2 
 1143000    1.0663375   -6.9041215    460.17882  0.033550512  0.033588805            3 
 1144000    1.0758036   -6.8748756    459.88996  0.033500143  0.033581401            3 
 1145000    1.0459008    -6.869866    458.95268   0.03340267   0.03357429            4 
 1146000    1.0772378   -6.8340965    461.64988  0.033569654  0.033567001            1 
 1147000    1.0864432   -6.8720348    460.41392   0.03345059  0.033559563            3 
 1148000    1.0453774   -6.8968725    461.00921  0.033464664  0.033552148            2 
 1149000    1.0762417   -6.9263593    460.04068  0.033365295  0.033544549            5 
 1150000     1.046051    -6.885956    460.72734  0.033386039  0.033537009            1 
 1151000    1.0646639   -6.8499292    461.71508  0.033428546  0.033529452            2 
 1152000    1.0833697    -6.898693    462.65037  0.033467185  0.033522084            3 
 1153000    1.0763688   -6.8714253    461.56913  0.033360012  0.033514702            1 
 1154000     1.047317   -6.9053901    460.71905  0.033269718  0.033507213            2 
 1155000    1.0471528   -6.8698821    463.93937  0.033473259  0.033499739            4 
 1156000    1.0971854   -6.8324351     464.2549  0.033467049  0.033492639            2 
 1157000    1.0564195   -6.8648411    463.78503  0.033404281  0.033485507            2 
 1158000    1.0815167   -6.8751134    463.26557  0.033338052  0.033478313            4 
 1159000    1.0709561   -6.8322283     465.2571   0.03345248  0.033470975            3 
 1160000    1.0764354   -6.9006918    462.55797  0.033229739  0.033463488            3 
 1161000    1.0733964   -6.9021841    464.37983  0.033331886     0.033456            5 
 1162000    1.0827552   -6.8859389    465.32917  0.033371283  0.033448565            4 
 1163000    1.0845607   -6.8885595      464.789  0.033303884  0.033441074            3 
 1164000     1.040192   -6.8818659     465.5199  0.033327599  0.033433534            3 
 1165000    1.0795521   -6.8711302    464.66141  0.033237583  0.033426122            7 
 1166000    1.0638439    -6.844984    465.81286   0.03329137  0.033418954            2 
 1167000    1.0624888   -6.8945811    466.26289  0.033294979   0.03341139            1 
 1168000    1.0575295   -6.8196586    466.40567   0.03327666   0.03340383            2 
 1169000    1.0603038   -6.9062708     465.4137  0.033177481  0.033396308            2 
 1170000    1.0581563   -6.8906068    465.97799  0.033189316  0.033388651            2 
 1171000    1.0667907   -6.8982711    468.47644  0.033338773  0.033381056            1 
 1172000    1.0641844    -6.913648    467.31762  0.033227931  0.033373538            2 
 1173000    1.0936184   -6.8702689    468.70086  0.033297873  0.033366046            9 
 1174000    1.0608656    -6.872591    468.61041   0.03326309  0.033358624            3 
 1175000    1.0789389   -6.8649981     468.5016  0.033227064  0.033351271            3 
 1176000    1.0324333   -6.8543985    469.45261    0.0332662  0.033343805            2 
 1177000    1.0825235   -6.8438127    470.25015  0.033294403  0.033336529            2 
 1178000    1.0658866   -6.8520302    470.30088  0.033269729  0.033329145            2 
 1179000    1.0814551   -6.8975266    469.12002  0.033158045  0.033321628            1 
 1180000    1.0596149   -6.8745268    469.33276  0.033144969  0.033314036            2 
 1181000     1.050638   -6.8874831    468.26673  0.033041683  0.033306516            3 
 1182000    1.0705091   -6.8965691    469.14337  0.033075534    0.0332988            1 
 1183000     1.060599    -6.913028    469.67062  0.033084716  0.033290935            3 
 1184000    1.0715441   -6.8837789    469.58988  0.033051089  0.033283271            3 
 1185000    1.0615704   -6.8768981    471.89953  0.033185621  0.033275698            1 
 1186000     1.041798      -6.8785     471.4609   0.03312682  0.033267882            2 
 1187000    1.0826729   -6.8953628    471.49685  0.033101435  0.033260321            1 
 1188000    1.0815729   -6.8819449    472.15155  0.033119497  0.033252592            3 
 1189000     1.061689   -6.8694981    472.79265  0.033136575  0.033244918            2 
 1190000    1.0725729   -6.8739282    473.02325  0.033124877  0.033237241            1 
 1191000    1.0527839   -6.8938122    473.44868  0.033126832  0.033229627            2 
 1192000    1.0573369   -6.9058695    472.52209  0.033034262  0.033221864            2 
 1193000    1.0674751   -6.8707944    473.98414  0.033108699  0.033214331            3 
 1194000    1.0494288   -6.8736925     474.3404  0.033105835  0.033206608            2 
 1195000    1.0708056   -6.8786676    472.59913  0.032956704  0.033198877            3 
 1196000    1.0890116   -6.8927171    472.78912  0.032942386  0.033191002            1 
 1197000     1.031986   -6.8764534    474.11499   0.03300717  0.033183414            4 
 1198000    1.0701299   -6.8932839    475.83582   0.03309932  0.033175937            2 
 1199000    1.0518283   -6.8821495    476.18153  0.033095742  0.033168481            3 
 1200000    1.0815095   -6.9114381    474.99555  0.032985802  0.033160983            3 
 1201000    1.0541428   -6.8883517     474.8602  0.032948945  0.033153514            1 
 1202000    1.0577378   -6.8904231    475.65024  0.032976306  0.033145927            1 
 1203000    1.0260257   -6.8767917    475.84287  0.032962238  0.033138165            4 
 1204000    1.0581098   -6.9096921    476.21031  0.032960292  0.033130296            2 
 1205000    1.0567084   -6.9196044    475.91096  0.032912238  0.033122359            3 
 1206000    1.0481526   -6.8981759    475.66472  0.032867933  0.033114551            4 
 1207000    1.0657188   -6.8832302    476.15973  0.032874878  0.033106552            6 
 1208000    1.0561699   -6.9117912    477.04113  0.032908466  0.033098727            2 
 1209000    1.0570829   -6.9090901    476.52843  0.032845908  0.033090826            2 
 1210000     1.053873   -6.8921611    476.22977  0.032798193  0.033082903            3 
 1211000    1.0633218   -6.8946043    477.37518   0.03284993  0.033074824            1 
 1212000    1.0642978    -6.872759    477.29058  0.032817009  0.033066638            6 
 1213000    1.0592815   -6.9199304    477.34852  0.032793935  0.033058635            2 
 1214000    1.0396943   -6.8726572    477.04627  0.032746174   0.03305067            5 
 1215000     1.065293   -6.9109291    477.27791   0.03273511  0.033042557            4 
 1216000    1.0638455   -6.8808781    478.94051  0.032822129  0.033034652            4 
 1217000    1.0510577   -6.8996792     480.3297  0.032890283  0.033026674            2 
 1218000    1.0711385   -6.8951264    479.34343  0.032795801  0.033018772            2 
 1219000    1.0616869   -6.8969332    480.59571  0.032854506  0.033010973            2 
 1220000    1.0636024   -6.8536055     481.0296  0.032857213  0.033003162            3 
 1221000    1.0414413   -6.8486517    482.42427  0.032925489  0.032995503            2 
 1222000    1.0475059   -6.8698305    481.75711  0.032853049  0.032987989            3 
 1223000    1.0648149   -6.8801882    484.02334  0.032980604  0.032980416            2 
 1224000    1.0698809   -6.8855128    483.68305  0.032930491  0.032972905            1 
 1225000    1.0251452   -6.8972379     482.5519   0.03282666  0.032965321            2 
 1226000     1.075395   -6.8988796     484.3947  0.032925143  0.032957764            5 
 1227000    1.0658986    -6.912977    481.49704   0.03270151  0.032950333            3 
 1228000    1.0350268   -6.8972483    484.23392  0.032860608    0.0329428            4 
 1229000    1.0311025   -6.9137892    484.43978  0.032847829  0.032935363            5 
 1230000    1.0386946   -6.8741463    484.50538  0.032825567  0.032927849            2 
 1231000    1.0470062   -6.9091403    484.36604   0.03278947  0.032920426            4 
 1232000    1.0372733    -6.854758    485.68693  0.032852201  0.032913036            4 
 1233000    1.0638041   -6.8588144    485.41829    0.0328074  0.032905526            1 
 1234000     1.084276   -6.8890786    486.05794   0.03282401   0.03289822            2 
 1235000      1.04536   -6.8743268    486.88593  0.032853302  0.032890923            2 
 1236000    1.0649114   -6.8784416    487.28133   0.03285338  0.032883746            2 
 1237000    1.0486403    -6.892461    486.65857  0.032784868  0.032876482            2 
 1238000     1.051989   -6.9173235    486.16802  0.032725365  0.032869169            3 
 1239000    1.0400727   -6.9134062    487.32163  0.032776543  0.032861699            5 
 1240000    1.0555163   -6.8484021     487.1052  0.032735564  0.032854173            2 
 1241000    1.0584048   -6.8884207    487.72797  0.032751005  0.032846699            1 
 1242000    1.0782377   -6.9014667    488.03596    0.0327453  0.032839234            3 
 1243000    1.0725024    -6.925099    487.40038  0.032676346  0.032831819            2 
 1244000    1.0795034   -6.9090719    489.80839  0.032811387  0.032824392            4 
 1245000    1.0566177   -6.9304452    487.98949  0.032663286  0.032816978            2 
 1246000    1.0460942   -6.9072993    489.00644  0.032705086  0.032809416            4 
 1247000    1.0465032   -6.9350836    488.06613   0.03261602    0.0328018            3 
 1248000    1.0506462   -6.9063717       489.44  0.032681624  0.032794273            4 
 1249000    1.0529548   -6.9205584    488.56632  0.032597166   0.03278667            2 
 1250000      1.06579   -6.8990868    490.02005  0.032668003  0.032779151            2 
 1251000     1.050149   -6.8986913    491.61621  0.032748216  0.032771684            1 
 1252000    1.0303956    -6.924867    489.69464  0.032594159  0.032764283            5 
 1253000    1.0498915    -6.921647    492.21858  0.032736006  0.032756857            2 
 1254000    1.0443638   -6.9047623    491.23056  0.032644243  0.032749697            3 
 1255000    1.0477088   -6.9513466    490.82842  0.032591529  0.032742271            1 
 1256000    1.0578944   -6.9318694    492.76538  0.032694094  0.032734748            2 
 1257000    1.0523536   -6.8965953    493.38248  0.032708995  0.032727393            3 
 1258000    1.0452669   -6.9215095    492.70487  0.032638107  0.032720134            2 
 1259000    1.0644164   -6.9196106     493.9916  0.032697352  0.032712967            4 
 1260000    1.0500308   -6.9034481    492.06908  0.032544251  0.032705773            3 
 1261000    1.0345006   -6.9064007    493.47104  0.032611091  0.032698557            2 
 1262000    1.0286207   -6.8951108      494.892  0.032679081  0.032691301            2 
 1263000     1.040852   -6.9052468    494.34433  0.032617071  0.032684167            1 
 1264000    1.0543865   -6.9314575    494.35789   0.03259216  0.032677002            2 
 1265000    1.0552482   -6.9045482    495.41066  0.032635748  0.032669919            2 
 1266000    1.0629931   -6.8896138    494.85166  0.032573174  0.032662598            6 
 1267000    1.0400976   -6.8943418    495.31971   0.03257825  0.032655236            2 
 1268000    1.0522075   -6.9437142    494.95159  0.032528364  0.032647863            3 
 1269000    1.0453395   -6.8965959    496.25894  0.032588583  0.032640396            2 
 1270000    1.0520235   -6.9172302     495.5337  0.032515334  0.032632977            2 
 1271000    1.0499549   -6.9301169    495.72007  0.032501972  0.032625559            2 
 1272000     1.058729    -6.940566    496.15188  0.032504709  0.032618203            3 
 1273000    1.0242792   -6.9271579    498.24457  0.032616167  0.032610834            5 
 1274000    1.0574889   -6.9044165     497.8241  0.032563062  0.032603329            3 
 1275000    1.0617574   -6.9187045    497.36397  0.032507449  0.032595949            4 
 1276000    1.0523072   -6.8965027    497.98892  0.032522787  0.032588516            2 
 1277000    1.0367205   -6.8720193    498.36889  0.032522115  0.032581118            1 
 1278000    1.0513736   -6.9145133    498.32119  0.032493557  0.032573663            3 
 1279000    1.0270193   -6.9067805    499.01847  0.032513583   0.03256639            3 
 1280000     1.047363   -6.9237095    498.44049  0.032450553  0.032558976            4 
 1281000    1.0416172   -6.9077397    499.01304  0.032462467  0.032551588            3 
 1282000    1.0623936   -6.9190988    499.40812  0.032462827  0.032544149            1 
 1283000    1.0420229   -6.9513654    498.48553    0.0323776  0.032536528            3 
 1284000    1.0576774   -6.9156164    498.57113   0.03235794   0.03252882            2 
 1285000    1.0650866   -6.9375608    497.58751  0.032268969   0.03252108            2 
 1286000    1.0817219   -6.9045943    499.07567  0.032340311  0.032513439            3 
 1287000    1.0548502   -6.9004513    500.03411  0.032377241  0.032505858            3 
 1288000    1.0906261   -6.8979912    502.15099  0.032489065  0.032498418            2 
 1289000    1.0294725   -6.8799235    501.12693  0.032397655   0.03249088            1 
 1290000    1.0444896   -6.9167425    500.32754    0.0323209  0.032483422            2 
 1291000    1.0579166   -6.9202686    500.84419  0.032329214  0.032475792            2 
 1292000    1.0721285   -6.9310276    500.95582  0.032311392  0.032468066            2 
 1293000    1.0426062   -6.8983341    501.61754   0.03232905  0.032460292            2 
 1294000    1.0462445   -6.9538204    500.56579  0.032236334  0.032452379            2 
 1295000    1.0471832   -6.8973568    501.55006  0.032274779  0.032444656            2 
 1296000    1.0263307   -6.8966132    501.92614  0.032274058  0.032436696            2 
 1297000     1.041082   -6.9389498    501.39424  0.032214999   0.03242873            4 
 1298000    1.0531565   -6.9019071    502.97406  0.032291606  0.032420845            3 
 1299000    1.0438507    -6.919881    502.27836  0.032222117  0.032412993            2 
 1300000    1.0478881   -6.9246429    500.92856  0.032110805  0.032405105            3 
 1301000    1.0420403   -6.8777878    503.87222  0.032274674  0.032397289            3 
 1302000    1.0464989    -6.918832    502.66914  0.032172884  0.032389653            2 
 1303000    1.0326142   -6.8691092    504.31936  0.032253733  0.032381858            3 
 1304000    1.0580991   -6.8718353    503.57182  0.032181226  0.032373982            3 
 1305000    1.0465782   -6.9122146     503.1235  0.032127937  0.032366191            3 
 1306000    1.0334786    -6.921949    503.64904  0.032136871  0.032358444            3 
 1307000    1.0209377   -6.9492551    504.18179  0.032146251  0.032350315            8 
 1308000    1.0658806   -6.9519601    502.55779  0.032018208  0.032342203            3 
 1309000    1.0474762   -6.9264857    504.21017  0.032098941  0.032334111            4 
 1310000    1.0618241   -6.9421453     505.5688  0.032160865  0.032326108            2 
 1311000    1.0384369   -6.9533393    504.12506  0.032044563  0.032318069            2 
 1312000    1.0343185   -6.8878144    504.84266  0.032065718  0.032310241            2 
 1313000    1.0480693   -6.9011562    504.15705  0.031997782  0.032302355            3 
 1314000    1.0235804   -6.9180092    505.46337  0.032056277  0.032294338            1 
 1315000    1.0412447   -6.9353796    506.41432  0.032092163  0.032286415            1 
 1316000    1.0217913   -6.9246436     504.7365  0.031961531  0.032278528            3 
 1317000    1.0042221   -6.9424798    506.35225    0.0320395  0.032270535            3 
 1318000     1.063423   -6.9496195    506.61956  0.032032091  0.032262521            2 
 1319000    1.0222616   -6.9573074    505.97192  0.031966889  0.032254475            2 
 1320000    1.0426829   -6.9217733    508.40523   0.03209629  0.032246345            4 
 1321000    1.0338702   -6.9118764    508.39539  0.032071372  0.032238495            3 
 1322000    1.0264997   -6.9169654    508.08769  0.032027716  0.032230592            2 
 1323000    1.0575985   -6.9290287    508.61577  0.032036771  0.032222578            1 
 1324000    1.0324364   -6.9072619    508.47854  0.032003936  0.032214516            2 
 1325000    1.0544997   -6.9230985    508.76098  0.031997546  0.032206616            4 
 1326000    1.0525676   -6.9309451    509.87291  0.032043295  0.032198697            3 
 1327000    1.0555056   -6.9553906    508.29449  0.031920025  0.032190734            4 
 1328000    1.0382537   -6.9144711    510.54484  0.032037202  0.032182771            2 
 1329000    1.0355651    -6.939564    509.30862  0.031935579  0.032174627            6 
 1330000    1.0648355   -6.9308429    509.62888  0.031931634  0.032166607            2 
 1331000    1.0657961   -6.9340965    510.74434  0.031977482  0.032158633            2 
 1332000    1.0401369   -6.9223467    512.49379  0.032062925   0.03215073            1 
 1333000    1.0493993   -6.9271594    511.74155  0.031991845   0.03214284            3 
 1334000    1.0582432   -6.9651984    511.84639  0.031974412  0.032135039            4 
 1335000    1.0495665   -6.9508141    512.32569   0.03198038  0.032127168            3 
 1336000    1.0504693   -6.9743374    512.20982  0.031949216  0.032119418            3 
 1337000    1.0266553   -6.9285056    511.83708  0.031902087  0.032111587            2 
 1338000     1.033822   -6.9203616      512.581  0.031924576  0.032103742            3 
 1339000    1.0461987   -6.9202423    512.96947  0.031924911  0.032095875            1 
 1340000    1.0408036   -6.8922377    512.88613  0.031895904  0.032087998            2 
 1341000    1.0242874    -6.930547     512.8721  0.031871247  0.032080191            4 
 1342000    1.0225047   -6.9159803    513.21549  0.031868821  0.032072335            2 
 1343000    1.0495186   -6.9394145    514.00782  0.031894255  0.032064445            3 
 1344000    1.0440017   -6.9501972     512.8462  0.031798499  0.032056528            2 
 1345000    1.0484507   -6.9477969     512.7946   0.03177166   0.03204842            2 
 1346000    1.0533155   -6.9120752    516.38229  0.031970176  0.032040378            1 
 1347000    1.0129656   -6.9223834    514.22977  0.031813275  0.032032454            1 
 1348000     1.062273   -6.9303661    514.56465  0.031810376  0.032024492            1 
 1349000    1.0156736   -6.9204559    515.65585  0.031854204  0.032016529            6 
 1350000    1.0270017   -6.9353718     516.0627  0.031855722  0.032008485            5 
 1351000    1.0309269   -6.9396498    514.03036  0.031706783  0.032000582            2 
 1352000    1.0364436   -6.9572596    515.75656  0.031789729  0.031992429            3 
 1353000    1.0282766    -6.960593    514.49365  0.031688448  0.031984355            4 
 1354000    1.0061784   -6.9131039    516.06474  0.031761739  0.031976316            6 
 1355000    1.0260636     -6.95739    515.41089  0.031698087  0.031968273            2 
 1356000    1.0132106   -6.9717026    517.34243  0.031793414   0.03196012            1 
 1357000    1.0280632   -6.9413196    516.18844  0.031699118  0.031952054            3 
 1358000    1.0223972   -6.9379284    516.54036  0.031697371  0.031943755            3 
 1359000    1.0181622   -6.9266866    518.22307   0.03177723  0.031935566            3 
 1360000    1.0402785   -6.9091246    518.65622  0.031780406  0.031927531            3 
 1361000     1.050388   -6.9127362    516.92127  0.031650825  0.031919612            3 
 1362000     1.035626   -6.9662678    518.13071  0.031701585  0.031911664            2 
 1363000    1.0423808   -6.9145788    518.33029  0.031690529  0.031903563            2 
 1364000    1.0309068   -6.9279832    518.81245  0.031696753  0.031895363            3 
 1365000     1.038173   -6.9468539    518.95811  0.031682424  0.031887317            3 
 1366000    1.0342271   -6.9269458    518.64294  0.031640003  0.031879263            5 
 1367000    1.0546346   -6.9014699    519.56566  0.031673107  0.031871328            1 
 1368000    1.0436852   -6.9575993    519.33225  0.031635736  0.031863285            3 
 1369000    1.0398767    -6.982303     518.0934  0.031537217  0.031855114            2 
 1370000    1.0386027   -6.9340927    520.84808  0.031681757  0.031847034            3 
 1371000    1.0127796   -6.9753331    520.16699   0.03161725  0.031839095            2 
 1372000    1.0249802   -6.9407372    522.16125  0.031715333  0.031831281            6 
 1373000    1.0049187   -6.9287678    522.96295  0.031740893  0.031823496            2 
 1374000    1.0395299   -6.9468257    520.71067  0.031581191  0.031815661            1 
 1375000    1.0383875   -6.9340001    522.93788  0.031693205  0.031807881            2 
 1376000    1.0269733   -6.9610934    523.77362  0.031720786  0.031800206            2 
 1377000    1.0392649   -6.9500575    524.54517  0.031744443  0.031792501            3 
 1378000    1.0470982   -6.9542858    523.67868  0.031669006  0.031784946            3 
 1379000    1.0284054   -6.9823378    525.14105  0.031734412   0.03177742            2 
 1380000    1.0283663   -6.9322591    525.51088  0.031733749  0.031769804            2 
 1381000    1.0239355   -6.9618971     523.7763  0.031606101  0.031762152            2 
 1382000    1.0187092   -6.9223634    525.40945  0.031681708  0.031754558            2 
 1383000    1.0295087   -6.9043834    525.26399  0.031650035  0.031746996            1 
 1384000    1.0243355   -6.9554003    526.17582   0.03168207  0.031739424            3 
 1385000    1.0446082   -6.9360814    526.12838   0.03165634  0.031731833            1 
 1386000    1.0335434    -6.955932    526.82192    0.0316752  0.031724281            2 
 1387000    1.0243065   -6.9570058    524.64251   0.03152142  0.031716691            5 
 1388000    1.0329688   -6.9641617    526.30574  0.031598567  0.031709161            3 
 1389000      1.02803   -6.9272838    526.32848  0.031577183  0.031701572            3 
 1390000    1.0198527   -6.9418059    527.18299  0.031605695  0.031693819            3 
 1391000    1.0141305   -6.9496523    526.28766  0.031529335  0.031686051            5 
 1392000    1.0163858   -6.9142372     527.8272   0.03159885  0.031678364            5 
 1393000    1.0520943   -6.9099334    528.81255  0.031635113  0.031670791            3 
 1394000    1.0225591   -6.9326703    527.33762  0.031524248  0.031663179            2 
 1395000    1.0546579    -6.952291    529.04407  0.031603588  0.031655596            2 
 1396000     1.023376   -6.9424859    529.72023  0.031621313  0.031648239            4 
 1397000    1.0351718   -6.9829256    528.75846  0.031541307  0.031640914            2 
 1398000    1.0411391   -6.9359559    529.56724  0.031566955  0.031633482            2 
 1399000    1.0217735   -6.9397016    530.28968  0.031587424  0.031626138            2 
 1400000    1.0036021   -6.9539437    530.88209  0.031600124  0.031618658            2 
 1401000    1.0121766   -6.9666768    530.08108  0.031529924  0.031611302            2 
 1402000    1.0287019    -6.957311    530.36561  0.031524347  0.031603979            3 
 1403000    1.0423294   -6.9281172    530.69327   0.03152134  0.031596581            2 
 1404000     1.023629   -6.9713609    530.67801  0.031497982  0.031589289            3 
 1405000    1.0049575   -6.9694383    532.32673  0.031573353  0.031581924            1 
 1406000    1.0229974   -6.9505082    533.16669  0.031600681  0.031574537            1 
 1407000    1.0354018    -6.971535    532.55465  0.031541972  0.031567358            2 
 1408000    0.9971631   -6.9732783     531.9252  0.031482315  0.031560005            2 
 1409000    1.0234538   -6.9647148    532.27131  0.031480442  0.031552508            2 
 1410000    1.0357668   -6.9628999    532.30807  0.031460288  0.031545178            2 
 1411000    1.0326072   -6.9673988    532.67143  0.031459452  0.031537653            2 
 1412000    1.0278345   -6.9764638    532.65846  0.031436406  0.031530095            2 
 1413000    1.0002785    -6.951273    534.46183  0.031520514   0.03152261            4 
 1414000    1.0397516   -6.9615413    535.02883  0.031531638  0.031515252            4 
 1415000    1.0368316   -7.0029225    531.00523  0.031272393  0.031507763            4 
 1416000    1.0479845   -6.9778197    535.37863  0.031507688   0.03150031            1 
 1417000    1.0317564   -6.9634539    534.17477  0.031414654  0.031492881            2 
 1418000    1.0355826   -6.9867523    534.72835  0.031425032  0.031485445            2 
 1419000    1.0356478   -6.9632003    535.65696   0.03145742  0.031478099            1 
 1420000    1.0261249   -6.9899128    535.68875  0.031437133  0.031470685            2 
 1421000    1.0085534   -6.9495316    536.42532  0.031458205  0.031463374            2 
 1422000    1.0323289   -6.9407062    536.93097  0.031465716  0.031456134            3 
 1423000    1.0203145   -6.9684398    536.51916  0.031419487  0.031448853            4 
 1424000    1.0239958   -6.9601041    537.08466  0.031430516   0.03144145            2 
 1425000    1.0548691   -6.9681445    535.65907  0.031325092  0.031434191            2 
 1426000    1.0425189   -6.9496648     537.9246  0.031435519  0.031426829            3 
 1427000    1.0370323    -6.989387    536.81717  0.031348819  0.031419418            3 
 1428000    1.0106517   -6.9462595    535.69809   0.03126156  0.031411833            5 
 1429000    1.0379721   -6.9608815    536.30817  0.031275261  0.031404236            3 
 1430000    1.0316784   -6.9896213    536.27755  0.031251605  0.031396649            5 
 1431000     1.002011   -6.9457383    538.46189   0.03135697  0.031389132            5 
 1432000    1.0373708   -6.9714202    536.95205   0.03124721  0.031381561           10 
 1433000    1.0326267   -6.9434694    538.51434  0.031316256   0.03137397            2 
 1434000    1.0077994   -6.9414664    539.96137  0.031378509  0.031366474            4 
 1435000    1.0208493   -6.9406043    539.09748  0.031306474  0.031358939            3 
 1436000    1.0292967   -6.9459126    537.92445    0.0312166  0.031351359            3 
 1437000    1.0333043   -6.9587584     538.8038  0.031245871  0.031343789            5 
 1438000    1.0290485   -6.9544319    539.55058  0.031267419  0.031336177            5 
 1439000    1.0116856   -6.9487099    539.74335  0.031256854  0.031328664            4 
 1440000     1.003147   -6.9170744    539.93677  0.031246341  0.031321194            1 
 1441000    1.0282608   -6.9806589    538.43532  0.031137828  0.031313505            1 
 1442000     1.011675   -6.9354984     539.4286  0.031173636  0.031305654            6 
 1443000    1.0206778   -6.9797096     539.9627  0.031182877  0.031297977            2 
 1444000    1.0243977   -6.9742008    541.20397  0.031232916  0.031290387            2 
 1445000    1.0362125   -6.9489926    541.44805  0.031225378   0.03128278            4 
 1446000    1.0033265   -6.9867396    540.09694  0.031125919  0.031275262            3 
 1447000    1.0398788   -6.9550266    541.98265  0.031213007  0.031267679            4 
 1448000    1.0323805   -6.9678154    542.09228   0.03119776  0.031260103            3 
 1449000    1.0059298   -6.9791111    541.82038  0.031160592  0.031252496            2 
 1450000    1.0254379   -6.9601679    542.14955   0.03115802  0.031245105            2 
 1451000    1.0150515   -7.0153862    542.29294  0.031144782  0.031237663            3 
 1452000   0.99360616   -6.9948408    542.54981  0.031138075  0.031230225            2 
 1453000    1.0080179   -6.9740509    544.24069  0.031213621  0.031222887            2 
 1454000    1.0179753   -6.9870412    543.73999  0.031163457   0.03121557            3 
 1455000    1.0055423   -7.0091386    544.45578  0.031183034  0.031208252            2 
 1456000    1.0402202   -6.9696533    543.94341  0.031132292  0.031200998            2 
 1457000    1.0215129   -6.9743909    544.52574  0.031144232  0.031193777            4 
 1458000    1.0388124   -6.9410043    545.10166  0.031155787  0.031186613            3 
 1459000    1.0187527   -7.0055769    544.14609  0.031079854  0.031179284            2 
 1460000    1.0272291   -6.9726749    546.45557  0.031190386  0.031172012            1 
 1461000    1.0244056   -6.9802442    546.63282  0.031179148   0.03116468            5 
 1462000     1.024928   -6.9557909    545.57135  0.031097318  0.031157425            3 
 1463000    1.0411644   -6.9792096    546.62022  0.031135807  0.031149959            3 
 1464000     1.029035    -6.993557    546.52187  0.031108941  0.031142485            3 
 1465000    1.0205757    -6.945155    548.80833  0.031217766  0.031135044            2 
 1466000   0.99948722   -6.9931749    547.03232  0.031095516   0.03112769            3 
 1467000   0.99447535   -6.9876756    546.10857  0.031021846  0.031120176            1 
 1468000     1.013365   -6.9666628     547.4783  0.031078468  0.031112745            6 
 1469000   0.99845309   -7.0044389    546.78228  0.031017829   0.03110532            1 
 1470000    1.0279212    -6.971856    548.33728   0.03108488  0.031097821            2 
 1471000    1.0189178   -6.9736226    548.39497  0.031067016  0.031090315            2 
 1472000     1.004994   -7.0209594    546.47095  0.030936987  0.031082753            2 
 1473000    1.0011149   -6.9954911    548.40978  0.031025672  0.031075184            4 
 1474000   0.99600835    -7.005591    548.83296  0.031028548  0.031067805            1 
 1475000    1.0146818   -6.9196604    549.25365  0.031031279  0.031060387            4 
 1476000    1.0224639   -6.9937417    549.33291  0.031014731  0.031053043            1 
 1477000    1.0066503   -6.9480649    551.43504  0.031112336   0.03104561            4 
 1478000    1.0364354   -6.9734129     550.3505  0.031030136  0.031038306            1 
 1479000    1.0150425   -6.9739006    550.64565  0.031025786  0.031030992            2 
 1480000    1.0277961    -6.996599    550.54446  0.030999125  0.031023626            3 
 1481000    1.0094964   -7.0022588    550.35347  0.030967447  0.031016142            3 
 1482000    1.0271671   -6.9614319    551.12557  0.030989967  0.031008664            1 
 1483000   0.99901568   -6.9927813    550.76846  0.030949003  0.031001138            2 
 1484000    1.0200636   -6.9811139    550.92056  0.030936689  0.030993678            1 
 1485000    0.9964935   -6.9709791    552.32671  0.030994765  0.030986337            2 
 1486000    1.0211284   -6.9758748    552.57645  0.030987912  0.030978834            2 
 1487000    1.0352881   -6.9882085    552.17802  0.030944744  0.030971529            5 
 1488000    1.0037004   -6.9653681    551.80056  0.030902809  0.030964091            1 
 1489000     1.012263   -6.9928212    550.83548  0.030828044  0.030956516            3 
 1490000    1.0154471   -6.9616336    551.05849  0.030819826  0.030949109            3 
 1491000    1.0029868   -6.9594624    552.51241  0.030880417  0.030941718            2 
 1492000    1.0184506   -6.9772975    552.75904  0.030873494  0.030934326            2 
 1493000    1.0011609   -7.0113612    553.31279  0.030883723  0.030927057            1 
 1494000    1.0181653   -7.0008223    553.65576  0.030882182   0.03091971            3 
 1495000    1.0180677   -6.9680254    554.00883  0.030881206  0.030912332            3 
 1496000    1.0217692    -6.966996    555.07475  0.030919939  0.030904909            2 
 1497000    1.0399843   -7.0157437    553.75194  0.030825648  0.030897483            1 
 1498000      1.01059   -7.0131293    552.09874  0.030713103  0.030889867            3 
 1499000    1.0311383   -6.9835435    555.14549  0.030861991  0.030882341            3 
 1500000    1.0028921    -6.968896    554.75916  0.030819953  0.030874947            2 
 1501000    1.0110329   -6.9740638    555.38644  0.030834246  0.030867458            4 
 1502000    1.0235823   -6.9925137    554.91403  0.030787507  0.030860018            4 
 1503000    1.0167735   -6.9882516    555.09056  0.030776811  0.030852707            2 
 1504000   0.99755848   -6.9528042    557.26857  0.030877026  0.030845533            3 
 1505000    1.0111665   -6.9680288    556.18269  0.030796384  0.030838459            3 
 1506000     1.012641   -6.9895406    557.31303  0.030838481  0.030831289            2 
 1507000    1.0007581   -6.9762958    558.78251  0.030899276  0.030824116            3 
 1508000    1.0206773   -6.9913764    558.42378  0.030858962  0.030816963            3 
 1509000    1.0146154   -7.0084382    557.37272  0.030780468  0.030809782            3 
 1510000   0.99616035   -6.9974155    557.76497  0.030781731  0.030802554            1 
 1511000    1.0333598   -7.0213271    557.63391  0.030754131  0.030795389            6 
 1512000   0.99047179   -7.0149635    558.32268  0.030771753  0.030788116            2 
 1513000    1.0066144   -6.9911066    558.64035  0.030768911  0.030780964            2 
 1514000    1.0197379   -6.9796878    559.87461  0.030816524  0.030773802            3 
 1515000     1.008007   -6.9750731    559.16851  0.030757344  0.030766621            2 
 1516000    1.0309266   -6.9829609    560.76945  0.030825057  0.030759508            4 
 1517000    1.0250041   -6.9695977    560.59903  0.030795376  0.030752353            4 
 1518000     1.015334   -6.9754722      560.148  0.030750329  0.030745154            2 
 1519000    1.0007361   -7.0023084    559.16387  0.030676095  0.030738039            3 
 1520000   0.99802138   -6.9876327    560.60298  0.030734812  0.030730933            3 
 1521000    1.0165638   -6.9777371    561.57251  0.030767725  0.030723826            3 
 1522000    1.0129112   -7.0239479    560.17233  0.030670846  0.030716728            4 
 1523000    1.0005912   -7.0293163    562.02005  0.030751809  0.030709532            3 
 1524000    1.0043939   -6.9957884    560.04744  0.030623767  0.030702364            2 
 1525000     1.008897   -6.9697942    560.80124  0.030644877  0.030695306            6 
 1526000    1.0082482    -6.976087    562.19747  0.030701041  0.030688242            1 
 1527000    1.0040609   -6.9737574    563.43176  0.030748295  0.030681308            3 
 1528000    1.0245895   -6.9834058    563.66272  0.030740768  0.030674353            2 
 1529000    1.0249297   -7.0161495    563.03451  0.030686424  0.030667395            2 
 1530000   0.99282822   -6.9996365    562.85353   0.03065651  0.030660331            2 
 1531000     1.009394   -7.0355377    562.90048  0.030639042  0.030653277            2 
 1532000    1.0044096   -7.0552194    563.42316  0.030647474   0.03064626            7 
 1533000    1.0132875   -6.9811986    563.80787  0.030648394  0.030639176            2 
 1534000     1.003239   -7.0081906     563.3526  0.030603683  0.030632076            3 
 1535000    1.0012868   -6.9943895    566.19107  0.030737843  0.030625066            3 
 1536000   0.99666953   -7.0306535     564.6009  0.030631559  0.030618097            3 
 1537000    1.0121601   -6.9946868    565.67153  0.030669678  0.030611057            2 
 1538000   0.99887536   -7.0124441    565.31198  0.030630255  0.030603987            5 
 1539000    1.0039566   -7.0180218    566.50361  0.030674876  0.030596966            3 
 1540000   0.99512491   -6.9840995    569.13479  0.030797337  0.030589975            3 
 1541000    1.0395515   -6.9838751     567.6205  0.030695463   0.03058303            5 
 1542000    1.0010587   -6.9828108    567.42058  0.030664753  0.030576018            4 
 1543000    1.0335408   -6.9660431    569.22005  0.030742063  0.030569096            2 
 1544000   0.98587409   -7.0162352    564.02806  0.030441929  0.030562053            3 
 1545000    1.0085832   -6.9742667    567.81576  0.030626524   0.03055509            4 
 1546000    1.0118851    -6.996025    568.66007  0.030652224  0.030548029            4 
 1547000   0.99849405    -6.979804    568.30796  0.030613443  0.030541109            3 
 1548000    1.0007757   -7.0018702    568.17756  0.030586647  0.030534105            1 
 1549000   0.99816058   -6.9977569    569.67261  0.030647332  0.030527129            2 
 1550000    1.0232537   -7.0051999    568.85586  0.030583648  0.030520135            4 
 1551000   0.98653406   -7.0116593    566.69346  0.030447747  0.030513071            1 
 1552000    1.0091451   -6.9998368    566.78525  0.030433057  0.030505793            2 
 1553000    1.0023238   -7.0008164    567.71488  0.030463344  0.030498588            1 
 1554000    1.0029654   -6.9995059    569.80283  0.030555707  0.030491492            3 
 1555000    1.0009406   -7.0065655    568.86402  0.030485746  0.030484509            2 
 1556000    1.0131705   -6.9950437    570.06366  0.030530401  0.030477457            3 
 1557000    1.0008087   -6.9934605    569.31003  0.030470458  0.030470264            2 
 1558000    1.0139417    -7.035746    569.40825  0.030456154  0.030463065            2 
 1559000   0.98425602   -6.9612309    571.08598  0.030526298  0.030455968            3 
 1560000    1.0120845   -6.9682044    570.34762  0.030467287  0.030448899            4 
 1561000   0.98362464   -7.0296579    569.39937  0.030397148  0.030441826            3 
 1562000    1.0042579   -7.0274337    570.24503  0.030422803   0.03043474            3 
 1563000   0.99967402   -6.9927932    570.47897  0.030415812  0.030427569            3 
 1564000    0.9989033   -6.9836304    571.25322  0.030437618   0.03042046            1 
 1565000    1.0342469   -7.0125847    572.81165  0.030501153  0.030413336            4 
 1566000   0.98479342   -7.0093881    571.93581  0.030435069  0.030406191            2 
 1567000   0.99258203   -7.0323009    571.39559  0.030386917  0.030398977            2 
 1568000    1.0130273   -7.0461042    570.00527  0.030293647  0.030391684            2 
 1569000    1.0011114   -7.0222713    573.50151  0.030460033  0.030384504            3 
 1570000   0.98094519   -6.9842873    574.77009  0.030507967  0.030377451            2 
 1571000    1.0270226   -6.9923132    573.15355  0.030402798  0.030370413            3 
 1572000   0.98330499   -7.0470823    572.75835  0.030362508  0.030363315            2 
 1573000   0.98450743   -7.0137855    572.27025  0.030317348  0.030356238            3 
 1574000   0.99469815   -7.0306135    575.01754  0.030443538  0.030349168            2 
 1575000    1.0115394   -7.0208327    574.31642  0.030387112   0.03034215            3 
 1576000    1.0134315   -7.0246992    575.09197  0.030408839  0.030335184            2 
 1577000    1.0209815   -6.9911455    575.36443  0.030403954  0.030328218            2 
 1578000    1.0199601   -7.0001075       576.68  0.030454162  0.030321313            2 
 1579000   0.99063137   -7.0277657    575.51665  0.030373478  0.030314403            3 
 1580000   0.97839967   -7.0279561    575.90919  0.030374957  0.030307229            3 
 1581000   0.99472408   -7.0571015    575.60106  0.030339504  0.030300065            7 
 1582000    0.9949394   -7.0001068    577.87347  0.030440027  0.030292918            4 
 1583000    1.0202536    -6.974929    576.39283  0.030342853  0.030286009            3 
 1584000   0.98283281    -7.022162    576.18456   0.03031274  0.030279158            4 
 1585000    1.0115412   -7.0324112    577.28765  0.030351611  0.030272395            7 
 1586000   0.99362521   -6.9946513    579.17316  0.030431545  0.030265551            2 
 1587000   0.98975559   -6.9923247    578.28474  0.030365718  0.030258732            2 
 1588000    1.0067274   -7.0063474    578.08522  0.030336126  0.030251838            4 
 1589000   0.97427346   -7.0524147    578.79875  0.030354455  0.030244997            3 
 1590000    1.0080757   -7.0474279    580.30303  0.030414205  0.030238071            3 
 1591000   0.99421797   -7.0253882    578.91702  0.030322492  0.030231262            5 
 1592000   0.98703342   -7.0222838    577.58992  0.030233978  0.030224487            1 
 1593000   0.97908324   -7.0152378    579.74511  0.030327742  0.030217743            2 
 1594000    1.0141329   -7.0554879    578.53976    0.0302457  0.030210964            4 
 1595000   0.97946033   -7.0159772    579.83145  0.030294224  0.030204185            1 
 1596000    1.0081377   -6.9878188    580.46098  0.030308113  0.030197361            5 
 1597000    1.0012145   -7.0078152    580.80461  0.030307066  0.030190616            3 
 1598000   0.98685491   -7.0079249    581.54216  0.030326563  0.030183766            2 
 1599000   0.99740797   -7.0345072    580.80294  0.030269071   0.03017714            3 
 1600000   0.99532321   -7.0072883    581.56853  0.030290028   0.03017037            2 
 1601000    1.0001833   -7.0076026    582.59602   0.03032459  0.030163634            5 
 1602000    0.9811123   -7.0425193    581.07226  0.030226397  0.030156948            3 
 1603000   0.96658636   -7.0267596    580.83807  0.030195366  0.030150043            3 
 1604000   0.99077045   -7.0116432    581.72876  0.030222816  0.030143345            2 
 1605000    1.0025599   -7.0308233    583.99992  0.030321907  0.030136621            5 
 1606000    1.0059788   -7.0566713    582.58022   0.03022936    0.0301298            3 
 1607000    1.0022982   -6.9909408    583.27523  0.030246589  0.030122952            3 
 1608000     1.022654    -7.014154    582.91878  0.030209307  0.030116078            2 
 1609000    1.0153871   -7.0053542    583.35845  0.030213303  0.030109071            2 
 1610000    1.0041859   -7.0175671    583.19179   0.03018591  0.030102149            5 
 1611000   0.97779273   -7.0346306    582.79752  0.030146778  0.030095106            2 
 1612000   0.99308253   -7.0277398    582.37845  0.030106413  0.030087884            2 
 1613000    0.9966357   -6.9976245    584.20754  0.030182245  0.030080831            1 
 1614000    0.9986348   -7.0186305    584.12769  0.030159422  0.030073741            4 
 1615000   0.98235361   -7.0390082    583.58223  0.030112602  0.030066722            3 
 1616000   0.99364632    -6.998947    585.47702  0.030191678  0.030059738            4 
 1617000   0.99699967   -7.0360844    584.80448  0.030138347  0.030052805            5 
 1618000    1.0085011   -7.0217634    584.53328  0.030105752  0.030045832            6 
 1619000   0.97604589   -7.0469826    585.50132  0.030136984  0.030038873            4 
 1620000    1.0096089   -7.0174207    586.15518  0.030152015  0.030032054            1 
 1621000   0.99945207   -7.0205765    584.74864  0.030061106   0.03002514            2 
 1622000   0.99544776   -7.0434127    586.84556  0.030150306  0.030018297            2 
 1623000    1.0182224   -7.0425112    585.52314  0.030063829  0.030011371            3 
 1624000   0.99071184   -7.0293674    583.96833  0.029965534  0.030004331            6 
 1625000     1.013247   -6.9940758    587.39962  0.030123058  0.029997271            3 
 1626000   0.98942957   -6.9939909     585.2374  0.029993716  0.029990256            3 
 1627000    1.0074581   -7.0356482    585.55225  0.029991408  0.029983109            3 
 1628000   0.98207223   -7.0389313    586.28406  0.030010446  0.029975886            3 
 1629000    1.0067271   -7.0382572    585.92396  0.029973601  0.029968715            2 
 1630000   0.98229757   -7.0195919    586.95433   0.03000789  0.029961526            5 
 1631000    1.0016876   -7.0344624    586.48904  0.029965718  0.029954467            2 
 1632000   0.98828914   -7.0021547    587.01237  0.029974079  0.029947321            2 
 1633000    0.9974958     -7.00334    586.10035  0.029909183  0.029940143            4 
 1634000    1.0009188   -7.0283709    588.23385  0.029999686  0.029932937            3 
 1635000    0.9734042    -7.064335    586.15579  0.029875423  0.029925716            2 
 1636000    0.9981123   -7.0278401    586.88274   0.02989419  0.029918478            4 
 1637000   0.97843613   -7.0465811    587.13643  0.029888843  0.029911131            3 
 1638000   0.96894204   -7.0398831    587.67135   0.02989781  0.029903929            4 
 1639000   0.98879958   -7.0198359    589.37743  0.029966312  0.029896807            2 
 1640000    0.9813657   -7.0436803    589.86853  0.029972994  0.029889686            2 
 1641000    1.0080784   -7.0727568    586.53423  0.029785407  0.029882492            3 
 1642000   0.97830568   -7.0485038    588.24576  0.029854129  0.029875198            2 
 1643000   0.97404565   -7.0552413    589.28146   0.02988849  0.029867966            3 
 1644000   0.99403188   -7.0178117    588.67742  0.029839691  0.029860823            2 
 1645000   0.99774595   -7.0104666    588.26893  0.029800858  0.029853555            4 
 1646000   0.96871829   -7.0307902    589.47638  0.029843883  0.029846386            2 
 1647000   0.98343695   -7.0295846    588.77621  0.029790336  0.029839122            2 
 1648000   0.99471645   -7.0423723    588.82761  0.029774859  0.029831901            3 
 1649000    0.9899148   -7.0718395     589.7631  0.029804078  0.029824659            3 
 1650000   0.99151646   -7.0394558    589.13422  0.029754253  0.029817362            3 
 1651000   0.97455214   -6.9917076    591.98643  0.029880195  0.029810153            3 
 1652000   0.98390904   -7.0248177    591.98461  0.029862016  0.029803061            2 
 1653000   0.99733422   -7.0256214    591.00473  0.029794552  0.029796045            5 
 1654000   0.97521151   -7.0373811    591.82017  0.029817623  0.029788901            6 
 1655000    1.0019857   -7.0492665    591.80429  0.029798806  0.029781829            3 
 1656000    1.0002365    -7.068454    593.02964  0.029842474  0.029774671            2 
 1657000    1.0076718   -7.0665046    591.61623  0.029753381  0.029767497            3 
 1658000    1.0001199   -7.0837773    589.91392  0.029649875  0.029760287            3 
 1659000   0.97258293   -7.0492332     592.5643  0.029765135  0.029753007            2 
 1660000   0.99116233   -7.0414946    591.89908  0.029713809    0.0297458            3 
 1661000   0.96958232   -7.0312138    594.16447  0.029809576  0.029738588            3 
 1662000   0.97643968   -7.0577384    592.68653  0.029717536  0.029731277            3 
 1663000   0.97335295   -7.0326731    592.91156  0.029710942  0.029724077            3 
 1664000   0.98709691   -7.0617275    592.61966  0.029678469  0.029716805            3 
 1665000   0.97294273   -7.0311509    594.59452  0.029759486  0.029709502            2 
 1666000   0.99623716   -7.0047824    595.33573  0.029778698  0.029702283            6 
 1667000   0.98569476   -7.0437073    594.80106  0.029734106  0.029695091            4 
 1668000   0.98339978   -7.0743151    593.68382  0.029660463  0.029687837            3 
 1669000   0.98268443   -7.0730053    592.26269  0.029571734  0.029680576            2 
 1670000   0.99608948   -7.0745252     593.4339   0.02961247  0.029673275            3 
 1671000   0.97774318   -7.0457306    594.91953  0.029668838  0.029665918            5 
 1672000   0.98991569   -7.0717415    594.66407  0.029638361  0.029658656            4 
 1673000   0.96251422   -7.0538778    594.82021  0.029628423   0.02965144            3 
 1674000   0.96884613   -7.0814529    596.82186  0.029710367  0.029644222            5 
 1675000   0.98295296    -7.027939    597.03402  0.029703185  0.029637047            5 
 1676000   0.99024477   -7.0409106    594.98748  0.029583705  0.029629937            1 
 1677000   0.98459536   -7.0215433    596.80541  0.029656401  0.029622844            2 
 1678000   0.98248512   -7.0596874     597.6787  0.029682097  0.029615848            3 
 1679000    1.0032246   -7.0686824    598.11293   0.02968597  0.029608729            6 
 1680000     1.000729   -7.0421432    599.02813  0.029713697  0.029601671            3 
 1681000   0.99187092   -7.0884327    597.30499  0.029610598  0.029594631            3 
 1682000   0.98744288   -7.0458193    599.05998  0.029679944  0.029587528            2 
 1683000    0.9847868   -7.0399893    598.00077  0.029609862  0.029580381            3 
 1684000   0.99663418   -7.0948118    596.23575  0.029504936  0.029573222            6 
 1685000   0.97022668   -7.0578426    600.14193   0.02968061  0.029566205            2 
 1686000   0.96686299   -7.0966963    598.38842  0.029576336  0.029559196            4 
 1687000   0.98765536   -7.0519718    599.86018  0.029631505  0.029552063            3 
 1688000   0.97958957   -7.0598371    600.35525  0.029638391  0.029545076            1 
 1689000   0.99260175   -7.0253688    601.60035  0.029682275  0.029538201            2 
 1690000   0.96508553   -7.0591918     600.3495  0.029603033  0.029531209            5 
 1691000   0.97144289   -7.0378818    600.50489  0.029593184  0.029524209            3 
 1692000   0.98464213   -7.0449432     600.6702  0.029583836  0.029517204            3 
 1693000   0.98184359   -7.0533362    600.41274  0.029553689  0.029510142            2 
 1694000    0.9671609   -7.0502718    601.18494   0.02957423  0.029503099            2 
 1695000    0.9860892   -7.0457379    599.84912  0.029491107  0.029496094            2 
 1696000   0.97001393   -7.0472369    602.80745  0.029619077  0.029489143            3 
 1697000    1.0142317   -7.0704376    601.62707  0.029543659  0.029482268            2 
 1698000    0.9723686   -7.0766601    601.21506  0.029506039  0.029475193            4 
 1699000   0.98813101   -7.0575773    602.12222  0.029533167  0.029468169            2 
 1700000    0.9939502   -7.0529889    602.29661  0.029524343  0.029461216            5 
 1701000     1.003134   -7.0715189    604.34325  0.029607253  0.029454345            4 
 1702000   0.96082204   -7.0367535     603.7599  0.029561296  0.029447359            6 
 1703000   0.96154241   -7.0777199    601.56983   0.02943677  0.029440386            2 
 1704000   0.97516932   -7.0823517    603.08754  0.029493717  0.029433408            4 
 1705000   0.99321651   -7.0414516    602.70502  0.029457724  0.029426402            4 
 1706000   0.97680546   -7.0227876    603.36894  0.029472887  0.029419559            3 
 1707000   0.98663306   -7.0775108    603.03304  0.029439223  0.029412629            2 
 1708000   0.96594047   -7.0942432    604.80942  0.029508656  0.029405618            4 
 1709000   0.97752426   -7.0538487    604.09601  0.029456603  0.029398586            3 
 1710000   0.98132167    -7.073548    605.62217  0.029513751  0.029391506            5 
 1711000   0.97305101   -7.0741712     604.6918  0.029451188  0.029384607            3 
 1712000   0.99787164   -7.0732067    606.01814  0.029498547  0.029377675            3 
 1713000   0.97834729   -7.0202319     606.7054   0.02951476  0.029370956            3 
 1714000   0.97924096   -7.0432325     607.8581  0.029553583  0.029364143            2 
 1715000   0.96667993   -7.0718511    605.28795  0.029411465  0.029357266            6 
 1716000   0.98650709   -7.0162476    607.46549  0.029500072  0.029350478            5 
 1717000   0.99228598   -7.0335453    608.17832  0.029517488  0.029343801            1 
 1718000   0.98204741   -7.0471498    608.59878  0.029520701  0.029337007            2 
 1719000   0.98439656   -7.0192941    607.05054  0.029428473  0.029330251            2 
 1720000   0.98448099   -7.0825788    606.35329  0.029377582  0.029323304            3 
 1721000   0.97574181   -7.0258674    608.44709  0.029461897  0.029316381            3 
 1722000   0.95905384   -7.0158931    608.16545  0.029431158  0.029309461            3 
 1723000   0.98073933   -7.0978875    607.98529  0.029405363  0.029302542            3 
 1724000   0.97182733   -7.0423057    608.37614  0.029407199  0.029295606            2 
 1725000   0.97333898   -7.0595789    607.99323  0.029371654  0.029288759            3 
 1726000   0.97903206   -7.0510048    607.98511  0.029354244  0.029281867            3 
 1727000   0.94390453   -7.0481402    609.25295  0.029398425  0.029274886            6 
 1728000   0.93881052   -7.0620637    609.65959  0.029401022   0.02926797            3 
 1729000   0.97680089   -7.0543915    609.25988  0.029364752  0.029261026            2 
 1730000   0.96780168   -7.0880552    608.53815  0.029313013  0.029254077            4 
 1731000   0.98702447   -7.0559045    610.06725  0.029369692  0.029247202            1 
 1732000   0.97005898   -7.0448365    610.37683   0.02936763  0.029240429            4 
 1733000   0.97055271    -7.065822    609.60103  0.029313379  0.029233475            3 
 1734000    0.9644613   -7.0682959      610.166  0.029323625  0.029226581            2 
 1735000   0.96978431   -7.0268708    611.35734  0.029363945  0.029219704            3 
 1736000   0.96625205   -7.0904437    608.62166   0.02921571   0.02921278            6 
 1737000   0.98395524   -7.0547251    611.77407  0.029350128  0.029205979            3 
 1738000   0.97742922   -7.0945569    610.94419   0.02929345  0.029199117            8 
 1739000   0.98561305    -7.046927    611.44496  0.029300602  0.029192327            3 
 1740000   0.97614445   -7.0361855    612.65867   0.02934189  0.029185547            6 
 1741000   0.97849019   -7.0811935    613.82062  0.029380654  0.029178884            2 
 1742000   0.99506276   -7.0675981    610.17782  0.029189525   0.02917215            3 
 1743000   0.96756738   -7.0606792    613.92138  0.029351759  0.029165381            2 
 1744000   0.99112084     -7.06122     611.8503  0.029235966  0.029158603            2 
 1745000   0.96761301   -7.0936305    613.22913  0.029285059  0.029151826            2 
 1746000   0.97797814   -7.0604371    613.59916  0.029285947  0.029144989            3 
 1747000   0.96120711   -7.0792068    613.84045  0.029280693  0.029138211           10 
 1748000    0.9724865   -7.0584671    614.93922  0.029316325  0.029131576            4 
 1749000   0.94971495   -7.0696972    616.08162  0.029353994  0.029124922            3 
 1750000   0.98109543   -7.0553954    613.81646  0.029229355  0.029118201            5 
 1751000   0.96081317   -7.0827107    614.81915  0.029260382  0.029111516            5 
 1752000   0.98273532   -7.0869983    614.06083  0.029207612  0.029104807            4 
 1753000   0.96824385    -7.069549    615.98625   0.02928248   0.02909805            3 
 1754000   0.98965564   -7.0772551    614.99199  0.029218548   0.02909138            3 
 1755000   0.96065356   -7.1057934    615.85029  0.029242654  0.029084758            2 
 1756000   0.96993742   -7.1095126    615.79828  0.029223533  0.029078115            2 
 1757000   0.98074001   -7.1079671    615.44694  0.029190236  0.029071432            4 
 1758000     0.972135   -7.0627792    615.76214  0.029188573  0.029064769            2 
 1759000   0.98372343   -7.0680003    616.20912  0.029193155  0.029058104            6 
 1760000   0.97175447   -7.0970461    616.31604  0.029181631  0.029051391            1 
 1761000    0.9572887    -7.060617    617.21389  0.029207547   0.02904462            3 
 1762000   0.98939947   -7.0422416    616.65935  0.029164744   0.02903796            4 
 1763000   0.96832157   -7.0674725    616.57865  0.029144387  0.029031302            3 
 1764000   0.96652643   -7.0734951    618.94336  0.029239577  0.029024564            2 
 1765000   0.99136212   -7.0778653    617.29041  0.029144967  0.029017806            4 
 1766000   0.97413766   -6.9933811    621.33974  0.029319542  0.029011201            3 
 1767000   0.98102241   -7.0657709    617.28067   0.02911152  0.029004536            2 
 1768000   0.98056341   -7.0908468    617.54263  0.029107401  0.028997634            3 
 1769000   0.96282442   -7.1107139    615.42819  0.028991341  0.028990742            2 
 1770000   0.99369438   -7.0839267    618.17429  0.029104251  0.028983864            2 
 1771000   0.96371532   -7.0899083    618.20267  0.029089153  0.028977175            1 
 1772000   0.96077508   -7.1074094    620.05997  0.029160081  0.028970516            5 
 1773000   0.95793782   -7.0493963     618.5734  0.029073764  0.028963819            2 
 1774000   0.97150283   -7.0717409    619.92912   0.02912106  0.028957146            3 
 1775000    0.9663688   -7.0298809    619.52307   0.02908559  0.028950443            6 
 1776000   0.97311794   -7.0615143    621.56267  0.029164915  0.028943877            1 
 1777000   0.97055052    -7.065741     617.5819  0.028961823  0.028937067            5 
 1778000   0.94134907   -7.0638658    620.25772  0.029070947  0.028930347            2 
 1779000   0.96966636   -7.0712659    621.72369  0.029123276  0.028923628            4 
 1780000   0.97416321   -7.0793697    620.43286  0.029046482  0.028916863            4 
 1781000   0.95312324   -7.0734701    620.84758  0.029049578  0.028910046            6 
 1782000   0.96498996   -7.0634145    620.00199  0.028993733    0.0289033            3 
 1783000   0.97324148   -7.0836341    620.87796  0.029018413  0.028896564            8 
 1784000   0.96500514   -7.0960298    622.99374  0.029100978  0.028889963            3 
 1785000   0.97411538   -7.0815075    624.22769  0.029142282  0.028883314            2 
 1786000   0.96063973   -7.0832902    621.05973  0.028978151  0.028876585            3 
 1787000     0.953172   -7.0786371     622.3829  0.029023639  0.028870003            2 
 1788000   0.97533834   -7.1402644     620.1307  0.028902438  0.028863252            3 
 1789000   0.95907514    -7.130398    622.39434  0.028991725  0.028856453            5 
 1790000    0.9603443   -7.1006662    621.27982  0.028923641  0.028849756            3 
 1791000   0.95167528   -7.1124848    623.05977  0.028990311  0.028843043            3 
 1792000   0.97708337   -7.1116908    622.40316  0.028943599  0.028836249            2 
 1793000   0.95933899   -7.0704114    625.21737  0.029058253  0.028829544            1 
 1794000   0.96146392   -7.0857953    624.41527  0.029004797  0.028822791            6 
 1795000   0.96095452   -7.0919802    624.77658  0.029005412  0.028816102            2 
 1796000    0.9605265   -7.0494563     626.1412   0.02905258   0.02880954            3 
 1797000   0.95900261   -7.0664362    625.24493  0.028994849  0.028802928            3 
 1798000   0.96267166   -7.0545818    625.43456  0.028987512  0.028796317            4 
 1799000   0.95475066   -7.0713049    624.75487  0.028939914   0.02878968            3 
 1800000   0.94690921    -7.081871    624.40366  0.028907577  0.028782984            2 
 1801000   0.96177882   -7.0939562    625.60911  0.028947303  0.028776319           11 
 1802000   0.94854735   -7.1290765    625.45982  0.028924335   0.02876961            2 
 1803000   0.96454998   -7.0716861    626.25991  0.028945272  0.028762966            2 
 1804000   0.95991191   -7.0884564    625.99448  0.028916966  0.028756395            9 
 1805000   0.97642894   -7.0785072    628.29043  0.029006945  0.028749781            3 
 1806000   0.96018818   -7.0662051    625.65845  0.028869437  0.028743204            4 
 1807000    0.9653602   -7.1044872    627.24126  0.028926455  0.028736562            3 
 1808000   0.97031394     -7.12214    626.31753   0.02886788  0.028729966            3 
 1809000   0.96285565   -7.1074469    626.89581  0.028878562  0.028723404            3 
 1810000    0.9488445   -7.0809464    627.30007  0.028881219  0.028716893            3 
 1811000   0.96782451   -7.0873192    625.46105  0.028780648  0.028710251            4 
 1812000    0.9734402   -7.0886909    626.30201  0.028803441  0.028703627            2 
 1813000    0.9644523   -7.1141837    628.53782  0.028890321  0.028696965            2 
 1814000   0.96595394   -7.0959632    627.83131  0.028841938  0.028690284            5 
 1815000   0.96594336   -7.1007102    628.26904  0.028846145  0.028683671            4 
 1816000    0.9488148   -7.0974352    629.15285  0.028870817  0.028677069            7 
 1817000   0.94596033   -7.1054839    627.16707  0.028763854   0.02867038            4 
 1818000   0.97077139   -7.1221792    627.99114  0.028785806   0.02866371            3 
 1819000   0.95081897   -7.0995078    630.35713  0.028878373  0.028657033            4 
 1820000    0.9497313   -7.0950532    628.51091  0.028777972  0.028650385            4 
 1821000    0.9517312   -7.0766344     631.3254  0.028890967  0.028643857            3 
 1822000   0.96392903   -7.0876252    629.05384  0.028771215  0.028637385            5 
 1823000   0.95667582   -7.0929192    630.04146  0.028800579  0.028630804            4 
 1824000   0.96252297   -7.0777737    629.35766  0.028753548  0.028624242            2 
 1825000   0.96032547   -7.0671792    631.50023  0.028835627  0.028617652            4 
 1826000   0.95703519   -7.1048188    630.25088  0.028762818  0.028611082            6 
 1827000   0.95067562   -7.0827165    630.41576  0.028754596  0.028604417            4 
 1828000    0.9745553   -7.0931553    631.41464  0.028784402  0.028597846            3 
 1829000   0.97246236   -7.1064618    629.61598  0.028686713  0.028591223            5 
 1830000   0.94987897   -7.0871447    632.00838  0.028779981  0.028584515            5 
 1831000   0.95825775   -7.0951807    630.89369   0.02871353   0.02857783            3 
 1832000   0.96139361   -7.1092337    632.71843   0.02878086  0.028571286            8 
 1833000   0.95637988   -7.0897504    630.90899  0.028682896  0.028564735            2 
 1834000   0.96507469   -7.0911361    632.73872  0.028750396  0.028558168            3 
 1835000   0.96292514   -7.0799122    632.20686  0.028710575   0.02855165            3 
 1836000   0.95906361   -7.0689275    632.66506  0.028715734  0.028545164            3 
 1837000   0.94966133   -7.1125928    632.74914  0.028703917  0.028538638            3 
 1838000   0.95002168   -7.1166513    632.77301  0.028689382  0.028532065            4 
 1839000   0.94326987   -7.0737478    632.44163  0.028658765  0.028525461            2 
 1840000   0.94851878   -7.1041404    633.47715  0.028690088  0.028518834            4 
 1841000   0.95870113   -7.0861166     633.6359   0.02868169  0.028512218            3 
 1842000   0.94884649   -7.0711889    636.61428  0.028800863  0.028505613            3 
 1843000   0.97128061   -7.0890397    635.71047  0.028744369  0.028498973            2 
 1844000   0.93896047   -7.0866462    634.84141  0.028689507  0.028492357            2 
 1845000   0.96592178   -7.1315037    631.90327   0.02854125  0.028485775            3 
 1846000   0.94650268   -7.1136896    635.72903  0.028698494  0.028479075            3 
 1847000   0.94129756   -7.1149545    635.18643  0.028658475  0.028472442            3 
 1848000   0.96636952   -7.0927919    634.88582  0.028629411  0.028465799            3 
 1849000   0.97619107   -7.0827686    635.65355  0.028648529  0.028459181            3 
 1850000   0.95576097   -7.0868693    634.48916  0.028580593  0.028452647           10 
 1851000   0.96984779   -7.1172295    634.44986  0.028563383  0.028446064            2 
 1852000   0.95533177    -7.100373    636.49192  0.028639845  0.028439527            2 
 1853000   0.96500757   -7.1151806    637.15674  0.028654288  0.028433001            5 
 1854000   0.97933089   -7.0910329     636.9457  0.028629346   0.02842649            2 
 1855000   0.93783072   -7.0730341    637.17742  0.028624322  0.028419976            1 
 1856000   0.96037417   -7.1132059    635.26741  0.028523142  0.028413388            3 
 1857000   0.92748012   -7.1636167    635.23215  0.028506199  0.028406706            4 
 1858000   0.94607471   -7.1272255    637.70674  0.028601845  0.028400055            2 
 1859000   0.94704331   -7.0739726    637.06789  0.028557822  0.028393388            4 
 1860000   0.95373994   -7.1022341    637.89729  0.028579628  0.028386685            3 
 1861000    0.9605531   -7.1298473    637.32828  0.028538791  0.028380031            4 
 1862000   0.94446728   -7.1357206    637.43641  0.028528303  0.028373505            2 
 1863000   0.94137072   -7.1163549    637.81263  0.028529819  0.028366844            2 
 1864000    0.9611782   -7.1056289    637.56707  0.028503535  0.028360356            4 
 1865000   0.95677792   -7.0515764    638.21557  0.028517228  0.028353825            2 
 1866000   0.96069154    -7.094504     640.3458  0.028597079  0.028347324            2 
 1867000   0.96126643   -7.1244047    636.85671  0.028426027  0.028340737            3 
 1868000   0.96677706    -7.096483    637.28752  0.028430029  0.028334097            4 
 1869000   0.97173738    -7.141261    637.95673  0.028444655  0.028327396            3 
 1870000   0.97205137   -7.1212002    637.74278   0.02841991  0.028320593            3 
 1871000   0.95038607    -7.123868    639.33072  0.028475446  0.028313794            4 
 1872000   0.97144227   -7.1379307    639.42811   0.02846457  0.028306904            4 
 1873000   0.96473511   -7.1501214    639.56339  0.028455392  0.028300042            3 
 1874000   0.94193288    -7.111018    638.50792  0.028393273  0.028293173            4 
 1875000   0.94929299   -7.0871327     638.3862   0.02837272  0.028286259            2 
 1876000   0.94067573   -7.1265731    636.95052  0.028293822  0.028279423            3 
 1877000   0.94281146   -7.0907324    639.27644  0.028382012  0.028272556            5 
 1878000   0.95758331   -7.1519697    638.41903  0.028328853  0.028265711            2 
 1879000   0.94357002   -7.1239204    639.83353  0.028376509  0.028258796            2 
 1880000   0.92569009   -7.1175026    638.20193  0.028289093  0.028251856            4 
 1881000    0.9376658   -7.1338947    638.36965  0.028281484  0.028244909            4 
 1882000   0.92624222   -7.0921286    640.39082  0.028355952  0.028238092            2 
 1883000    0.9543951   -7.1006152    639.31682  0.028293363  0.028231292            4 
 1884000   0.96384204   -7.1124553    640.91878  0.028349203  0.028224595            2 
 1885000   0.94658232   -7.1021651    641.99688  0.028381825  0.028217867            2 
 1886000   0.94147008   -7.1160563    641.92764  0.028363717  0.028211098            2 
 1887000   0.95928866   -7.1062898    640.99588  0.028307537  0.028204271            2 
 1888000   0.96550626   -7.1177212    642.03329  0.028338334   0.02819747            3 
 1889000   0.95983044   -7.1141918    641.28881  0.028290489  0.028190685            2 
 1890000   0.93957929   -7.1101979    641.90524    0.0283027  0.028183874            4 
 1891000   0.94635785   -7.1385058    641.55366   0.02827224  0.028176926            3 
 1892000   0.94041702   -7.1195795    641.28031  0.028245257  0.028169902            4 
 1893000   0.94256063   -7.1243284    642.29996  0.028275223  0.028162981            3 
 1894000   0.93822002   -7.1160104     640.6292  0.028186783  0.028155976            3 
 1895000   0.96249172   -7.1127935    641.60804  0.028214953   0.02814905            1 
 1896000   0.93576467   -7.1440118    641.96445  0.028215737  0.028142187            5 
 1897000   0.96439771   -7.1259213    641.45615  0.028178534  0.028135304            4 
 1898000   0.95838092   -7.1398168    641.66265  0.028172754  0.028128344            4 
 1899000    0.9706606   -7.1223018     641.4132  0.028146972  0.028121375            5 
 1900000   0.93488445   -7.1063606    642.67222  0.028187378  0.028114381            3 
 1901000   0.94573783   -7.1423306    641.36122  0.028115081  0.028107431            4 
 1902000   0.94365272   -7.1431735    643.19139  0.028180485  0.028100462            2 
 1903000   0.93297901   -7.1309225    642.61035  0.028140233  0.028093517            2 
 1904000   0.94308132   -7.1107217    645.03557  0.028231599  0.028086582            2 
 1905000   0.92789187    -7.145832    643.46982  0.028148286  0.028079604            3 
 1906000   0.95971138   -7.0928298    642.81541  0.028104906  0.028072674            2 
 1907000   0.95823388   -7.1395736    641.86119   0.02804847  0.028065699            3 
 1908000   0.92547754   -7.1458174    645.24561  0.028181587  0.028058724            2 
 1909000    0.9324228    -7.125098    643.42335  0.028087277   0.02805175            3 
 1910000   0.93422724   -7.1476538    643.06915  0.028057118  0.028044739            2 
 1911000    0.9504163   -7.1190679     644.0915  0.028087018  0.028037712            5 
 1912000   0.93544088   -7.1343204    642.06331  0.027983931  0.028030664            2 
 1913000   0.92996397   -7.1588516    644.73119   0.02808552   0.02802367            3 
 1914000   0.94361337   -7.1360622    644.73127  0.028070849  0.028016697            2 
 1915000   0.94616602   -7.1116823    645.99356  0.028111121   0.02800966            7 
 1916000   0.94492067   -7.1231276    645.50238  0.028075086   0.02800259            5 
 1917000   0.95408551     -7.13933    643.49156  0.027973029  0.027995541            2 
 1918000   0.96987651   -7.1078366      644.989  0.028023505  0.027988498            5 
 1919000   0.95328553   -7.1501669    644.92852  0.028006276  0.027981545           11 
 1920000    0.9506489   -7.1103091    646.65332   0.02806655  0.027974517            2 
 1921000    0.9529609   -7.1274941    645.42594  0.027998696  0.027967528            5 
 1922000   0.93850738   -7.0940289    645.79058  0.027999938  0.027960526            4 
 1923000   0.93105697   -7.1454186    644.86653  0.027945334  0.027953493            2 
 1924000   0.92601073   -7.1586242    646.68189  0.028009437  0.027946454            2 
 1925000   0.93508782   -7.1231611    646.24666  0.027976046  0.027939368            1 
 1926000   0.95747173   -7.1210072    645.25465  0.027918599   0.02793233            3 
 1927000    0.9359724   -7.1148636    646.81008  0.027971375  0.027925392            2 
 1928000   0.92532208     -7.11842    645.70604  0.027909148  0.027918411           10 
 1929000   0.95913042   -7.1737482    646.40431  0.027924845  0.027911384            4 
 1930000   0.94572162   -7.1293317    647.61053  0.027962458  0.027904373            2 
 1931000   0.93722132   -7.1275395    647.93081  0.027961799   0.02789754            3 
 1932000   0.93809836   -7.1108325    647.86357  0.027944426  0.027890665            6 
 1933000    0.9134974   -7.1561839    649.49367  0.028000244  0.027883736            4 
 1934000   0.94116776   -7.1779243    648.20175    0.0279301   0.02787677            2 
 1935000   0.93771603   -7.1845509    648.27628  0.027918875  0.027869797            5 
 1936000   0.92118288   -7.1321398    649.11787   0.02794068  0.027862909            2 
 1937000   0.93959655   -7.1694616    649.27861   0.02793317  0.027855998            4 
 1938000   0.93035883   -7.1456338    648.73571  0.027895412  0.027849075            4 
 1939000   0.92687247   -7.1252689    647.83383  0.027842265  0.027842153            2 
 1940000   0.93777831   -7.1437082    648.77169    0.0278682   0.02783515            2 
 1941000   0.93179719   -7.1312588    649.06341  0.027866366  0.027828199            3 
 1942000   0.94811029   -7.1144204    650.31822  0.027905862  0.027821283            4 
 1943000   0.95203416   -7.1374355    649.05068  0.027837137   0.02781436            2 
 1944000   0.93538363   -7.1343525     650.2184  0.027872874  0.027807331            4 
 1945000   0.92735833   -7.1215944    649.90818  0.027845252  0.027800358            4 
 1946000   0.92985788   -7.1700803    649.86899  0.027829265   0.02779338            3 
 1947000   0.95185353   -7.1216032    650.22169  0.027830067  0.027786376            2 
 1948000   0.94337356   -7.0940217    650.05128  0.027808491  0.027779389            3 
 1949000   0.94850946   -7.1640543    650.21606  0.027801268  0.027772302            2 
 1950000   0.92688825   -7.1186773    650.14787  0.027784097    0.0277653            3 
 1951000   0.93731371   -7.1141926    650.77887  0.027796808  0.027758318            4 
 1952000   0.93491387   -7.1825004    652.49745  0.027855936  0.027751309            4 
 1953000   0.94131247   -7.0967587    653.45859  0.027882684  0.027744331            6 
 1954000   0.94866943   -7.1226351    651.22793  0.027773283  0.027737376            1 
 1955000   0.93139944   -7.1471615    652.03941  0.027793666  0.027730418            3 
 1956000   0.93692732   -7.1398213     651.8249  0.027770318  0.027723384            4 
 1957000   0.91201522   -7.1514768     653.3949  0.027822982  0.027716356            3 
 1958000   0.92885878   -7.1097205    653.52602  0.027814352  0.027709428            1 
 1959000   0.91696474   -7.1326145    652.54829  0.027758562  0.027702477            2 
 1960000   0.92003084   -7.1358541    652.03677  0.027722652  0.027695514           13 
 1961000   0.92501201   -7.1659713    651.51595  0.027686382  0.027688517            4 
 1962000   0.93521205   -7.1777626    653.93032  0.027774818  0.027681515            3 
 1963000   0.92624483   -7.1595435    653.02096  0.027722065   0.02767452            4 
 1964000   0.93915239   -7.1547525    652.64758  0.027692107  0.027667475            2 
 1965000   0.93739563    -7.160686    654.67281  0.027763902   0.02766043            4 
 1966000   0.93028841   -7.1354457    653.35972  0.027694122  0.027653511            3 
 1967000   0.92702979   -7.1243328    654.28049  0.027719052   0.02764653            3 
 1968000   0.93828538   -7.1758612     653.7037  0.027680543  0.027639476            2 
 1969000   0.94335363   -7.1025548    653.95378  0.027677069  0.027632398            6 
 1970000   0.95118871   -7.1552345    653.64469  0.027649945  0.027625413            4 
 1971000   0.91498611   -7.1243459     653.8734  0.027645586  0.027618414            5 
 1972000   0.95066984   -7.1234323    655.12112  0.027684294  0.027611428            2 
 1973000   0.97252868   -7.1449464    652.20483  0.027547087  0.027604403            2 
 1974000   0.92989541   -7.1480464    653.29764  0.027579266   0.02759741            2 
 1975000   0.92415319   -7.1045677    654.46355  0.027614496  0.027590408            5 
 1976000   0.94878339   -7.1610602    653.89899  0.027576712  0.027583426            2 
 1977000   0.93817973   -7.1483433    654.57086  0.027591083  0.027576387            4 
 1978000   0.93672731   -7.1545438    657.12856   0.02768489  0.027569383            8 
 1979000   0.91424768   -7.1500288    655.65196  0.027608723  0.027562413            2 
 1980000   0.93421953   -7.1533379    656.67877  0.027637995  0.027555427            2 
 1981000   0.91384582   -7.1707137    655.13818  0.027559237  0.027548427            3 
 1982000   0.91866516   -7.1860917    655.27646  0.027551146  0.027541451            2 
 1983000   0.94460942    -7.184464    656.19943  0.027576039  0.027534431            1 
 1984000   0.93722102   -7.1345463    658.25495  0.027648477  0.027527539            3 
 1985000   0.93747899   -7.1744546    657.36274  0.027597092  0.027520608            5 
 1986000   0.91653948    -7.138274    657.55414  0.027591228  0.027513713            3 
 1987000   0.93474218   -7.1708662    657.13281  0.027559672  0.027506781            3 
 1988000   0.93853047   -7.1452271    660.00287  0.027666116  0.027499814            3 
 1989000   0.94359537   -7.1778436    656.45467  0.027503547  0.027492876            2 
 1990000   0.91398807   -7.1564661    657.83289  0.027547441  0.027485959            4 
 1991000    0.9477609   -7.1679521    657.28486  0.027510667  0.027479031            3 
 1992000   0.91748968   -7.1287277    658.67523  0.027555021  0.027472079            1 
 1993000    0.9340939    -7.155236    658.05261  0.027515162  0.027465125            2 
 1994000   0.93194705   -7.1839884    657.86914  0.027493695  0.027458157            3 
 1995000   0.94369413   -7.1973296    659.11305  0.027531873  0.027451163            5 
 1996000   0.92211018   -7.1450492    659.06866  0.027516227  0.027444205            2 
 1997000   0.92764404   -7.1650479    658.55137  0.027480862  0.027437269            3 
 1998000   0.93688043    -7.148726    659.64376  0.027512669  0.027430316            1 
 1999000   0.93336518    -7.150728    660.57096  0.027537559  0.027423445            3 
 2000000   0.94390357   -7.1291007    660.19988  0.027508329  0.027416569            2 
 2001000   0.95530356   -7.1438965    659.86213  0.027480515  0.027409716            3 
 2002000   0.95323924   -7.1648048    660.50696   0.02749363  0.027402941            7 
 2003000   0.94051816   -7.1284163    660.57698  0.027482817  0.027396178            3 
 2004000   0.95552617   -7.1813902    659.61958  0.027429291  0.027389343            5 
 2005000   0.90771215   -7.1701356    660.44645  0.027449977  0.027382434            3 
 2006000   0.93769332   -7.1455249    661.16622  0.027466194  0.027375601            3 
 2007000   0.95422674   -7.1685192    660.85306  0.027439506  0.027368701            2 
 2008000   0.90268771   -7.1816358    658.66313  0.027334957   0.02736169            3 
 2009000   0.93957716   -7.1704385    661.69292  0.027447027  0.027354772            2 
 2010000   0.92546583   -7.1886856    661.36095  0.027419608  0.027347833            2 
 2011000    0.9338801   -7.1679307    661.86834  0.027426999  0.027340899            6 
 2012000   0.93499334    -7.142142    661.72243  0.027407324  0.027334025            3 
 2013000   0.93863451    -7.166179    662.18348  0.027412795  0.027327096            3 
 2014000   0.94099398   -7.1493754    663.17534  0.027440224  0.027320194            3 
 2015000   0.92926614   -7.1784196    661.97123  0.027376808  0.027313303            7 
 2016000   0.92101443   -7.1574345    663.39188  0.027421953  0.027306409            8 
 2017000   0.94388159   -7.1179519    664.45097  0.027452114  0.027299596            3 
 2018000   0.94911884   -7.1739049    662.29273  0.027349386    0.0272927            2 
 2019000   0.91268395   -7.1502118    662.87016  0.027359673  0.027285861            3 
 2020000   0.92160704    -7.159454    662.54356  0.027332655  0.027278946            4 
 2021000   0.93256673   -7.1628368    662.95665  0.027336164  0.027272087            4 
 2022000   0.93413608   -7.1628361    663.79215  0.027357078  0.027265204            7 
 2023000   0.91953582   -7.1622454     663.4553   0.02732968  0.027258298            2 
 2024000   0.92067121   -7.1656849    663.15831  0.027303949  0.027251317            3 
 2025000   0.93118762   -7.1770299    664.41395  0.027342138  0.027244439            4 
 2026000   0.91219365   -7.1441583    663.34248   0.02728457  0.027237588            5 
 2027000   0.92172906   -7.1327224    663.10886  0.027261505  0.027230685            7 
 2028000   0.92489781   -7.1521988    665.61971  0.027351237   0.02722382            2 
 2029000   0.93066727   -7.1725598    665.75085  0.027343143   0.02721697            4 
 2030000   0.92048531   -7.1880296    666.04871  0.027341901  0.027210133            4 
 2031000   0.92753361   -7.1367179    667.03297  0.027368824  0.027203392            7 
 2032000   0.92601185   -7.1656444    666.71686  0.027342391  0.027196699            3 
 2033000   0.93469811   -7.1540094    667.16486  0.027347305  0.027190021            4 
 2034000   0.92667486   -7.1405391    667.33106  0.027340669  0.027183318            2 
 2035000   0.90854673   -7.1485756    667.22304  0.027322811  0.027176616            4 
 2036000   0.92457923   -7.1880041    666.78978  0.027291658  0.027169898            3 
 2037000    0.9191382   -7.1647792    665.58915  0.027229142  0.027163187            5 
 2038000   0.91616095   -7.1711748    668.33974  0.027328252  0.027156504            5 
 2039000   0.92547134   -7.1548792     669.2141  0.027350584   0.02714986            5 
 2040000   0.89997832   -7.1628993    668.74377  0.027317964  0.027143203            4 
 2041000   0.93235635    -7.154312    668.10191  0.027278373  0.027136503            3 
 2042000   0.92892757   -7.1532538    669.80225  0.027334404  0.027129848            4 
 2043000   0.91706156    -7.157241    668.88648  0.027283671  0.027123209            3 
 2044000   0.92621306   -7.1762036    668.57088  0.027257456  0.027116475            4 
 2045000   0.93932606   -7.1327748    670.86648  0.027337673  0.027109838            3 
 2046000   0.94065592   -7.1843545     671.0747  0.027332791  0.027103163            2 
 2047000   0.93259338   -7.1493766    671.79376  0.027348712  0.027096583            3 
 2048000   0.91866223    -7.173995    669.54898  0.027244018  0.027089997            2 
 2049000   0.90822741   -7.1709181    669.62103  0.027233652  0.027083354            2 
 2050000   0.92839763   -7.1486439    671.31663  0.027289294  0.027076692            3 
 2051000   0.93722666     -7.17072    670.14365   0.02722833  0.027070046            7 
 2052000    0.9281911   -7.1655272    670.08191  0.027212553  0.027063407            2 
 2053000   0.90205116   -7.1733244    669.91218  0.027192409  0.027056807            2 
 2054000   0.91722348   -7.1805172    671.35587  0.027237742  0.027050216            4 
 2055000   0.91274161   -7.1885168    671.73959  0.027240048  0.027043585            4 
 2056000   0.91770104   -7.1917954    670.83387  0.027190089  0.027036983            2 
 2057000   0.89698902   -7.2083065    670.77399  0.027174445  0.027030341            2 
 2058000   0.93801034    -7.215031    672.49435  0.027230902  0.027023688            2 
 2059000   0.91521803   -7.1720291    672.44835  0.027215815  0.027017101            2 
 2060000   0.88534242    -7.192287    671.69928  0.027172301  0.027010486            3 
 2061000   0.91171749   -7.1987667    671.99442  0.027171051  0.027003884            4 
 2062000   0.92980648   -7.1713306    674.00933  0.027239303  0.026997278            7 
 2063000   0.92157717   -7.1766995    671.42436  0.027121682  0.026990688            3 
 2064000   0.95133744   -7.2255902    670.28437  0.027062515  0.026984091            3 
 2065000   0.91865122   -7.1532378    674.72331  0.027228544  0.026977497            4 
 2066000    0.9154549   -7.1854478    672.83659  0.027139262  0.026970897            8 
 2067000   0.92912782   -7.1874748    673.11503  0.027137358  0.026964261            3 
 2068000    0.9209643   -7.1652365    674.67258  0.027186999  0.026957731            2 
 2069000     0.926135    -7.164269    675.74074  0.027216882  0.026951129            5 
 2070000   0.93185532   -7.1856458    676.16136  0.027220667  0.026944633            3 
 2071000   0.92351311    -7.166228    674.96707  0.027159467  0.026938124            3 
 2072000    0.9169015   -7.1850094    674.88576  0.027143089  0.026931612            2 
 2073000   0.92485951   -7.1854446    674.33954  0.027108038  0.026925025            4 
 2074000   0.92918362    -7.198502    673.38192   0.02705649  0.026918456            5 
 2075000   0.94081148   -7.2277458    673.85368  0.027062397  0.026911887            4 
 2076000   0.91200314   -7.1971301    674.74166  0.027085006  0.026905322            2 
 2077000   0.91808667   -7.1760301    677.29391  0.027174366  0.026898732            2 
 2078000   0.92840197   -7.2085639    675.46216  0.027087831  0.026892118            2 
 2079000   0.92556697   -7.2001626    673.04516  0.026977921  0.026885481            3 
 2080000   0.89155261   -7.2023498    675.48631  0.027062753  0.026878849            3 
 2081000   0.91907534     -7.20869    675.99774  0.027070228  0.026872306            2 
 2082000    0.9165302   -7.2306137    675.72222  0.027046198  0.026865806            4 
 2083000    0.9081694   -7.1947256    676.82265  0.027077239   0.02685925            5 
 2084000   0.92262835   -7.2008275    675.34556  0.027005181  0.026852697            6 
 2085000   0.93119146   -7.1791791    677.96531  0.027096935  0.026846119            4 
 2086000   0.93031086   -7.1732758    677.75257  0.027075446  0.026839552            2 
 2087000   0.93376241   -7.1996706    677.64968  0.027058364  0.026833036            3 
 2088000   0.92206117   -7.1959254    677.07897  0.027022628   0.02682649            3 
 2089000   0.92094542   -7.1844808    677.34135  0.027020159  0.026819924            3 
 2090000   0.91626045   -7.1441769    679.02526  0.027074372  0.026813381            3 
 2091000   0.91315488   -7.1862221    675.58431  0.026924291  0.026806831            6 
 2092000   0.90814673   -7.1930352    677.34718  0.026981644  0.026800255            2 
 2093000   0.90936283   -7.1814412    676.88926   0.02695052  0.026793705            4 
 2094000    0.9317847    -7.181633    677.37033  0.026956794  0.026787165            3 
 2095000   0.91639512   -7.1862234    680.11859  0.027053246  0.026780626            1 
 2096000   0.90527539   -7.1941575    676.42912  0.026893651  0.026774036            3 
 2097000   0.93117519   -7.1803328    678.61461  0.026967677  0.026767515            4 
 2098000   0.92020585   -7.2007745    677.32883  0.026903751  0.026760926            4 
 2099000   0.92133412   -7.2089268    677.68536  0.026905088  0.026754296            9 
 2100000   0.90809523   -7.1821934     677.7961  0.026896671  0.026747625            3 
 2101000   0.92074034   -7.2070039    678.21919   0.02690065  0.026740978            2 
 2102000   0.91813137   -7.2112607    678.42974    0.0268962  0.026734272            7 
 2103000   0.93251815   -7.1935012     678.6937   0.02689387  0.026727528            2 
 2104000   0.90795283   -7.1977505    678.98638   0.02689268  0.026720873            2 
 2105000   0.91003171   -7.2089475    678.06939  0.026843602  0.026714196            4 
 2106000   0.91576699   -7.2029288    676.51067  0.026769178  0.026707467            5 
 2107000   0.92851158   -7.1986836    678.00862  0.026815718  0.026700732            4 
 2108000   0.90878527   -7.1936393    678.03752   0.02680414  0.026694093            3 
 2109000   0.93482614   -7.2393713    679.34292  0.026843011   0.02668743            2 
 2110000   0.90393566   -7.2135116    680.12685   0.02686125  0.026680768            3 
 2111000   0.91574065   -7.1944313    682.00739  0.026922761  0.026674179            3 
 2112000   0.92543765   -7.2164548    678.67852  0.026778666   0.02666763            4 
 2113000   0.90565187   -7.1798587    680.38626  0.026833344  0.026661096            5 
 2114000   0.93402829   -7.1625923    681.35779  0.026858948  0.026654583            4 
 2115000   0.90464457   -7.1599831    682.89355  0.026906759  0.026648072            3 
 2116000   0.90465506   -7.1994109    681.57426  0.026842086  0.026641525            9 
 2117000   0.91073133   -7.1860664    683.05292  0.026887613  0.026635035            4 
 2118000    0.9034527   -7.1868628    684.93621  0.026949017  0.026628478            6 
 2119000   0.91520934   -7.1912349    681.24103   0.02679098    0.0266219            2 
 2120000   0.90100089   -7.1988221    682.59162  0.026831431  0.026615402            4 
 2121000   0.92173592   -7.1966945    682.44388  0.026812977  0.026608864            5 
 2122000   0.89734026     -7.17826    681.49004  0.026762882  0.026602306            2 
 2123000   0.92476598   -7.1849056    682.63528   0.02679523   0.02659572            6 
 2124000   0.92359979   -7.2486114    681.75727  0.026748167  0.026589172            5 
 2125000   0.91318286   -7.2299852    684.58694  0.026846547  0.026582591            6 
 2126000   0.92159828   -7.1813823    684.48631  0.026829975  0.026576062            3 
 2127000   0.92534401     -7.18687    685.24474  0.026847075  0.026569572            5 
 2128000   0.91505077   -7.1903937     683.8189  0.026778623  0.026563051            3 
 2129000   0.93097514    -7.214279    684.47514  0.026791731  0.026556516            3 
 2130000   0.92882454   -7.1895432    684.01076  0.026760984  0.026549986            2 
 2131000   0.91049757   -7.2041566    683.91815  0.026744805  0.026543431            2 
 2132000   0.92207092   -7.2319791    683.85353  0.026729735  0.026536838            3 
 2133000   0.90518733   -7.1627696    685.60078  0.026785466  0.026530312            2 
 2134000    0.8858542   -7.2024743    684.26372  0.026720701  0.026523785            2 
 2135000   0.92453175    -7.222104    682.24562  0.026629415  0.026517232            3 
 2136000   0.91356912   -7.2354662    684.53324  0.026706197  0.026510672            2 
 2137000   0.90332533   -7.1838171    685.04122  0.026713509  0.026504126            2 
 2138000   0.94070889   -7.2031329    682.22846  0.026591381   0.02649756            3 
 2139000   0.92486452    -7.214311    684.61491  0.026671923   0.02649104            6 
 2140000   0.92164513   -7.2164967    684.56314  0.026657443  0.026484461            5 
 2141000   0.93488334   -7.1859279    686.30482  0.026712783  0.026477957            4 
 2142000   0.88851923   -7.2230395    684.50597  0.026630329  0.026471434            3 
 2143000   0.90958604    -7.228036     684.8961  0.026633073  0.026464867            2 
 2144000   0.89793106   -7.2122849    686.89063  0.026698174  0.026458312            7 
 2145000   0.92226787   -7.1605264     686.6726  0.026677257  0.026451828            2 
 2146000   0.91423707   -7.1768969    684.92763  0.026597065  0.026445333            4 
 2147000   0.90090438   -7.2113785    687.45569  0.026682801  0.026438726            2 
 2148000   0.91362725   -7.2090833    686.88241  0.026648138   0.02643221            4 
 2149000   0.90442094   -7.2085275    688.21714  0.026687496  0.026425682            4 
 2150000   0.90046537   -7.2029284    687.06494  0.026630424   0.02641916            4 
 2151000   0.91360759   -7.1994217    686.73244  0.026605162  0.026412625            2 
 2152000    0.9291579   -7.2213661    686.84027  0.026596974   0.02640608            4 
 2153000   0.86903053   -7.2269109    688.14539  0.026635137  0.026399557            2 
 2154000   0.90114181   -7.2098901    688.56441  0.026638982  0.026393067            3 
 2155000   0.91167832   -7.2262449     686.4946  0.026546581  0.026386558            3 
 2156000   0.91125094   -7.2307735    686.89574  0.026549773  0.026380022            3 
 2157000    0.8948577   -7.2494359    686.62672  0.026527071  0.026373451            4 
 2158000   0.89858655   -7.1868529    688.56512  0.026589632  0.026366879            3 
 2159000   0.91828777   -7.2145025    688.75851  0.026584781   0.02636031            7 
 2160000   0.90401851    -7.231646    688.14323  0.026548736  0.026353761            5 
 2161000   0.90760944   -7.1859368    687.36134  0.026506299  0.026347264            2 
 2162000   0.90340275   -7.2145108    686.05858  0.026443824  0.026340738            3 
 2163000   0.90527933   -7.2254193     687.1146  0.026472284  0.026334153            4 
 2164000   0.92290502   -7.2108706    687.14547   0.02646124  0.026327585            3 
 2165000   0.91018085   -7.2374677    687.06124  0.026445775  0.026321066            3 
 2166000   0.90722731   -7.2140487    688.83527  0.026501819  0.026314505            1 
 2167000   0.88572025   -7.2504417    687.22717  0.026427748  0.026307854            3 
 2168000   0.90234771   -7.2260038    688.61467  0.026468891  0.026301195            5 
 2169000   0.90907476    -7.218272    686.57296  0.026378245  0.026294511            2 
 2170000   0.90417983   -7.1927709    689.25858  0.026469223   0.02628783            3 
 2171000   0.90281712   -7.2143099    686.40132  0.026347356  0.026281096            9 
 2172000    0.8936032   -7.2234325    689.08895  0.026438342  0.026274362           11 
 2173000   0.90950513   -7.2131515    688.38292    0.0263991  0.026267638            3 
 2174000   0.92714616   -7.2205066    689.87374  0.026444102  0.026260958            8 
 2175000   0.90760103    -7.247861    688.06408  0.026362608  0.026254294            4 
 2176000   0.91479963   -7.2090939    688.96866  0.026385135  0.026247664            4 
 2177000   0.90409179   -7.2502206    689.02776  0.026375278  0.026240988            6 
 2178000   0.93290916   -7.2168239    690.12238   0.02640505   0.02623432            3 
 2179000   0.89436757   -7.1947522    691.01325  0.026427002  0.026227733            5 
 2180000   0.89411061   -7.1863978    692.23111  0.026461434   0.02622114            2 
 2181000   0.91925176   -7.2070066    689.35173  0.026339284  0.026214581            1 
 2182000    0.8935611   -7.2024984    693.74793  0.026495109  0.026208048            2 
 2183000   0.91425921   -7.2254297    692.57472  0.026438186  0.026201454            2 
 2184000    0.9186507   -7.2228165    692.16529  0.026410458  0.026194818            2 
 2185000   0.91235081   -7.2158293    690.27728  0.026326365  0.026188209            3 
 2186000   0.91049105   -7.1815064    690.86113  0.026336579  0.026181647            3 
 2187000   0.90469702   -7.1848406    691.65269  0.026354698  0.026175121            3 
 2188000   0.88759037   -7.1995009    691.93871  0.026353546  0.026168556            4 
 2189000   0.88983691   -7.2192588    691.76785  0.026335003  0.026161979            3 
 2190000   0.88968234   -7.2574232    689.53297  0.026237937  0.026155297            6 
 2191000   0.92331252   -7.2402162    693.00833  0.026358144  0.026148653            3 
 2192000   0.89488641    -7.224024    692.30847  0.026319513  0.026142026            3 
 2193000   0.88409718   -7.2201045     693.0394  0.026335287   0.02613543            2 
 2194000   0.90017768   -7.2190341    693.49021  0.026340406  0.026128825            8 
 2195000   0.91240915   -7.2513875    693.10556  0.026313803  0.026122231            6 
 2196000   0.89418797    -7.227139    694.12223    0.0263404  0.026115634            3 
 2197000   0.89144043   -7.2335666    693.06342   0.02628825  0.026109095            4 
 2198000   0.90194112   -7.2290907    692.56868  0.026257533  0.026102583            3 
 2199000   0.90218501   -7.2044969    693.24838   0.02627135  0.026096052            3 
 2200000   0.90981573   -7.2290833    692.98784  0.026249539   0.02608953            2 
 2201000   0.88563324   -7.2366584    694.36333  0.026289692  0.026082965            2 
 2202000   0.89248221   -7.2352568    695.16432  0.026308066  0.026076478            3 
 2203000   0.89926449   -7.2217948    694.86664  0.026284863  0.026069988            3 
 2204000   0.89718128   -7.2467211    693.00425   0.02620252  0.026063394            5 
 2205000   0.89001312   -7.2268479    694.12769  0.026233095  0.026056853            6 
 2206000   0.90710087   -7.2430221    695.24754  0.026263506  0.026050243            3 
 2207000   0.90576846   -7.2144827     694.2851  0.026215266  0.026043592            5 
 2208000   0.91022222   -7.2139146    694.94547  0.026228316  0.026037016            3 
 2209000   0.89094958   -7.2563704    694.74488  0.026208876  0.026030501            4 
 2210000   0.89690683   -7.2059318    695.34259  0.026219555  0.026023901            5 
 2211000   0.89899063    -7.265018    694.52116  0.026176736  0.026017316           11 
 2212000   0.88846915   -7.2453313    693.67674   0.02613309  0.026010693            8 
 2213000   0.87565661   -7.2414054    695.84359  0.026202877  0.026004033            4 
 2214000   0.87778868   -7.2237819    696.05712  0.026199079  0.025997364            5 
 2215000   0.88293495   -7.2149633    695.14468  0.026152922  0.025990769            3 
 2216000    0.9143864   -7.2627588    694.91646  0.026132538  0.025984166            2 
 2217000   0.90436962    -7.257487    695.54371  0.026144328  0.025977562            4 
 2218000   0.87532161   -7.2615116    695.12152  0.026116679     0.025971            2 
 2219000   0.88809739   -7.2435917    695.47453  0.026118166   0.02596444            2 
 2220000   0.89237594   -7.2218324    695.88423   0.02612178  0.025957817            4 
 2221000   0.90008764   -7.2086996    698.02468   0.02619033  0.025951232            5 
 2222000      0.86865   -7.2049837    696.16585   0.02610883  0.025944671            4 
 2223000   0.88216139   -7.2501873    694.51475  0.026035191  0.025938028            4 
 2224000   0.87987322   -7.2576934    695.99963  0.026079123  0.025931351            4 
 2225000   0.88961557    -7.199467    698.04508   0.02614401  0.025924706            6 
 2226000    0.9037316   -7.2179685     698.3564   0.02614392  0.025918085            2 
 2227000   0.87913857   -7.2289817    696.39653  0.026058843  0.025911428            5 
 2228000   0.90589584   -7.2498511    697.33996  0.026082434  0.025904736            9 
 2229000   0.91213705   -7.2365439    696.83702   0.02605193  0.025898053            8 
 2230000   0.87164933   -7.2270185    697.08626  0.026049561  0.025891378            2 
 2231000   0.89352758    -7.256586    695.50748  0.025978914  0.025884679            4 
 2232000   0.90325461   -7.2372158    697.30779   0.02603449     0.025878            4 
 2233000   0.88799846   -7.2122996    698.07166  0.026051338  0.025871311            2 
 2234000    0.8715063   -7.2268426    696.33522  0.025974904  0.025864612            5 
 2235000   0.88493759   -7.2189871    696.14795  0.025956299  0.025857924            3 
 2236000   0.88966588   -7.2222074    696.81423  0.025969522  0.025851278            5 
 2237000   0.89883539   -7.2422587    698.63427  0.026025714  0.025844653            2 
 2238000   0.87348645   -7.2199576     698.0889  0.025993778  0.025838027            3 
 2239000   0.90369583   -7.2423332    699.27486  0.026026309  0.025831333            2 
 2240000     0.885644   -7.2032745     699.1065  0.026008426  0.025824673            3 
 2241000   0.89622355   -7.2706569    697.98654  0.025955174     0.025818            4 
 2242000   0.89284136   -7.2031156    696.97072   0.02590584  0.025811293            2 
 2243000   0.87843059   -7.2675477    699.67514  0.025994767  0.025804597            3 
 2244000   0.89465436   -7.2536761    698.37615  0.025934943  0.025797857            3 
 2245000   0.88629493    -7.251117    698.44692  0.025926018  0.025791142            4 
 2246000   0.88183843   -7.2313148    698.45718  0.025914855  0.025784482            3 
 2247000   0.89472372   -7.2333627    698.96746  0.025922247  0.025777746            8 
 2248000   0.88242714   -7.2596081    697.31259   0.02584937  0.025771059            7 
 2249000   0.89543788   -7.2574502    698.08892  0.025866641  0.025764395            2 
 2250000   0.88311544   -7.2363222    699.80412  0.025918671  0.025757723            6 
 2251000   0.89493293    -7.252426    701.16044  0.025957369  0.025751005            3 
 2252000   0.87841714   -7.2084367    699.19671  0.025873176  0.025744221            2 
 2253000   0.89363054   -7.2389404    697.08924  0.025783742  0.025737507            7 
 2254000    0.8962311   -7.2289378    699.75874  0.025870997  0.025730772            5 
 2255000   0.88788362   -7.2139636    700.05952   0.02587064  0.025723994            4 
 2256000   0.91427744   -7.2264788    699.50148  0.025838559  0.025717217            3 
 2257000   0.89791024   -7.2485331    699.31686  0.025820295   0.02571044            2 
 2258000   0.89614767   -7.2793571    698.93857  0.025794899  0.025703646            2 
 2259000   0.89801285   -7.2634243     698.4525  0.025765549  0.025696889            3 
 2260000   0.89317932   -7.2390331    698.90229  0.025770733  0.025690132            3 
 2261000   0.89281494   -7.2407532    699.10414  0.025766775  0.025683392            2 
 2262000   0.89605006   -7.2280336    700.19413   0.02579554  0.025676687            3 
 2263000   0.91095251   -7.2578261    700.69325  0.025802521  0.025669999            2 
 2264000   0.89452863   -7.2321087    702.98283  0.025875399   0.02566328            3 
 2265000   0.88013739   -7.2584947    699.61244  0.025739972  0.025656585            2 
 2266000   0.88491282   -7.2475184    699.87538  0.025738283  0.025649803            3 
 2267000   0.89483287    -7.292677    700.36317   0.02574486   0.02564309            2 
 2268000   0.88336398   -7.2387365    700.44297  0.025736441  0.025636386            2 
 2269000   0.87608441   -7.2554509    701.37522  0.025759337  0.025629705            6 
 2270000   0.89676196   -7.2490584    701.57148  0.025755194  0.025623025            4 
 2271000   0.88346789   -7.2363316    701.36043  0.025736109  0.025616338            2 
 2272000    0.8825336   -7.2444859    700.56778  0.025695708  0.025609658            2 
 2273000    0.8916967   -7.2313045    701.85833  0.025731718  0.025602957            4 
 2274000   0.88050352   -7.2473904    701.38767  0.025703154  0.025596254            4 
 2275000   0.87278479   -7.2385449    701.23796  0.025686372  0.025589521            3 
 2276000   0.93232344   -7.1992602    702.00758  0.025703265  0.025582868            4 
 2277000   0.87552323   -7.2518457    701.58053  0.025676348   0.02557612           12 
 2278000    0.8957417   -7.2550624    702.15495   0.02568609  0.025569315            3 
 2279000   0.88800514   -7.2110406    700.75783  0.025623732  0.025562612            4 
 2280000   0.88206247   -7.2129422    704.55732  0.025751364  0.025555906            3 
 2281000   0.85944731   -7.2396039    701.34027  0.025622544  0.025549251            1 
 2282000   0.90044658   -7.2501457    703.69618  0.025697348  0.025542548            6 
 2283000   0.88609271   -7.2377994     702.0391  0.025625606  0.025535862            3 
 2284000   0.87761519   -7.2220456    704.06113  0.025688161    0.0255292            2 
 2285000   0.89586197   -7.2584533    701.99089  0.025601418   0.02552253            3 
 2286000   0.89790196   -7.2448556    702.73725  0.025617427  0.025515758            1 
 2287000   0.89656776   -7.2417926    705.65132  0.025712408  0.025509009            5 
 2288000    0.9229905   -7.2409368    702.63425  0.025591282  0.025502282            3 
 2289000   0.91105073   -7.2670463    702.23426   0.02556554  0.025495539            3 
 2290000   0.90856167   -7.2527741    705.21533  0.025662858  0.025488724            2 
 2291000   0.87767801    -7.261269    706.79466  0.025709103  0.025482025            2 
 2292000   0.87351664   -7.2385665    704.29185  0.025606888  0.025475305            5 
 2293000   0.88667695   -7.2744011    704.63024  0.025608019  0.025468562            3 
 2294000   0.90336859   -7.3106234    703.44726  0.025553882  0.025461854            2 
 2295000   0.88303639   -7.2565415     703.8407  0.025557033  0.025455118            3 
 2296000   0.86556539   -7.2532572    705.02725  0.025588968  0.025448375            4 
 2297000    0.8880868   -7.2631352    705.10378  0.025580604  0.025441645            6 
 2298000   0.88365636   -7.2713971     706.0333   0.02560318  0.025434947            3 
 2299000   0.88968402   -7.2908663    703.91982  0.025515435  0.025428265            7 
 2300000   0.84958858   -7.2608511    705.40841  0.025558276  0.025421521            3 
 2301000   0.88505025   -7.3011513    703.76441  0.025487629  0.025414863            3 
 2302000   0.87551926   -7.2627926    706.16243  0.025563366  0.025408142            3 
 2303000   0.89843466   -7.2526401    706.10148  0.025550061   0.02540146            4 
 2304000    0.8883765   -7.2804465    704.37812  0.025476639  0.025394775            3 
 2305000   0.88466465   -7.2494613    707.45983     0.025577  0.025388113            4 
 2306000   0.89261909   -7.2443192    707.29972  0.025560123  0.025381442            6 
 2307000   0.91038393   -7.2617552     703.8815  0.025425571  0.025374729            3 
 2308000   0.88769559   -7.2814354    705.36482  0.025468111  0.025367991            2 
 2309000   0.89355842   -7.2342583    705.89659  0.025476274  0.025361251            4 
 2310000   0.86538804   -7.2579866    705.24863   0.02544187   0.02535455            4 
 2311000   0.88623924   -7.2397543    707.26142  0.025503441  0.025347875            4 
 2312000   0.89048065   -7.2292691    708.26551  0.025528601  0.025341218            2 
 2313000   0.88560106   -7.2789831    705.28031  0.025410013  0.025334581            2 
 2314000    0.8586483   -7.2621724     707.7323  0.025487334  0.025327923            6 
 2315000   0.86912944   -7.2798833    707.66287  0.025473825  0.025321327            4 
 2316000    0.8898403   -7.2747924    707.33483  0.025451023  0.025314686            5 
 2317000   0.87225995   -7.2643313     707.0041  0.025428143   0.02530798            4 
 2318000   0.87663165   -7.2462388    707.61282  0.025439057  0.025301295            8 
 2319000   0.88144187    -7.272513    708.04897  0.025443761  0.025294607            6 
 2320000   0.89000724   -7.2592715    707.75446  0.025422215  0.025287938            4 
 2321000   0.87387698   -7.2775256    707.62248  0.025406523   0.02528125            3 
 2322000   0.87742959   -7.2880774    708.66261   0.02543291  0.025274553            7 
 2323000   0.88016175   -7.2950682    706.98274    0.0253617  0.025267804            2 
 2324000   0.89600853   -7.2705314    708.31938  0.025398716  0.025261095            3 
 2325000   0.87187054   -7.2719703    709.45117  0.025428357  0.025254383            3 
 2326000   0.85875854   -7.2883875    709.44188  0.025417092  0.025247773            3 
 2327000   0.88168673   -7.2822487    709.73828  0.025416784  0.025241154            1 
 2328000   0.87443379   -7.2658643    708.09678  0.025347107  0.025234457            2 
 2329000   0.86617227   -7.2937864    708.96259  0.025367203  0.025227793            3 
 2330000   0.87714134   -7.3078765    707.52333   0.02530484  0.025221097            5 
 2331000   0.86598354   -7.2792328    709.22758  0.025354911   0.02521434            5 
 2332000   0.87323267   -7.2497844     709.4313  0.025351319  0.025207634            2 
 2333000   0.87793041   -7.2915335    709.77768  0.025352825  0.025200926            4 
 2334000   0.89839764   -7.3003089     708.6751  0.025302596  0.025194251            3 
 2335000   0.88089856   -7.3181054    708.62535  0.025289984  0.025187582            3 
 2336000   0.87781518   -7.2405402    711.12484  0.025368323  0.025180854            2 
 2337000   0.88065541   -7.2678227    710.78751   0.02534544  0.025174104            4 
 2338000   0.89132949   -7.2869181    707.40352  0.025213984  0.025167313            4 
 2339000   0.87237163   -7.2803049    708.80737   0.02525322  0.025160581            2 
 2340000    0.8647431    -7.279807    708.99708  0.025249184   0.02515386            2 
 2341000   0.86689645   -7.2619184    709.25484  0.025247574  0.025147128            4 
 2342000   0.86729991   -7.2613317    709.80902  0.025256512  0.025140318            3 
 2343000   0.87445675   -7.2654449    709.43903  0.025232573  0.025133557            5 
 2344000   0.86250199   -7.2545532    710.35276  0.025254293  0.025126815            5 
 2345000   0.85311443   -7.2640462    711.59294  0.025287596  0.025120081            3 
 2346000   0.87122147   -7.2663583    708.63207  0.025171642  0.025113315            2 
 2347000   0.89570314   -7.2708701    708.77217  0.025165892  0.025106546            4 
 2348000   0.87562159   -7.2948654     710.2325  0.025207003  0.025099721           11 
 2349000   0.85800506   -7.2502622    708.84322  0.025146985  0.025092904            2 
 2350000    0.8752306   -7.2563054    711.80828  0.025241428  0.025086166            3 
 2351000   0.89557506   -7.2843507    709.86544  0.025161826  0.025079451            4 
 2352000   0.86712011   -7.2475575    711.75317  0.025218012  0.025072683            5 
 2353000   0.86997069    -7.261401    713.94823  0.025285034  0.025065941            4 
 2354000   0.87978834   -7.2750732    711.97723  0.025204518  0.025059223            3 
 2355000   0.87640438   -7.2555767    712.15358  0.025200056  0.025052528            4 
 2356000   0.89604193   -7.3295928    709.22182  0.025085662  0.025045799            3 
 2357000    0.8918362   -7.2851259    710.64591  0.025125368  0.025039091            5 
 2358000   0.86184386   -7.2742726    713.79508  0.025226006  0.025032373            5 
 2359000   0.86778642   -7.2515848    715.45047  0.025273791  0.025025722            6 
 2360000   0.87692377   -7.2613034    713.28936  0.025186771    0.0250191            6 
 2361000   0.87036108   -7.2606065    713.90118  0.025197698  0.025012508            2 
 2362000   0.86638399   -7.2676848    713.96094  0.025189138   0.02500588            2 
 2363000   0.86101723    -7.251482    712.17041  0.025115334  0.024999267            6 
 2364000    0.8848215   -7.2821756     714.5516  0.025188649  0.024992676            2 
 2365000   0.88499769   -7.3104954     712.6344  0.025110444  0.024986047            1 
 2366000   0.86136681   -7.2746911    713.81083  0.025141266  0.024979463            1 
 2367000   0.85517334   -7.2824748    714.58931  0.025158052  0.024972886            2 
 2368000   0.86236014   -7.2733742    714.58767   0.02514737   0.02496634            2 
 2369000   0.87865801   -7.2657893    715.43566  0.025166584  0.024959795            2 
 2370000    0.8801536   -7.2581397    715.11663  0.025144748  0.024953269            5 
 2371000   0.85869068   -7.2959119    715.78632   0.02515768  0.024946744            5 
 2372000   0.86919946   -7.2517556    715.55889  0.025139084  0.024940193            2 
 2373000   0.87946004    -7.285606    716.04464  0.025145549  0.024933636            4 
 2374000   0.85703342   -7.2800306    715.00278  0.025098385   0.02492707            2 
 2375000   0.85669884    -7.247517    717.28747  0.025167981  0.024920537            4 
 2376000    0.8731328   -7.2489628    714.45626   0.02505809  0.024913979            3 
 2377000   0.88040207    -7.265133    717.20304  0.025143845  0.024907467            5 
 2378000   0.85811805   -7.3198906    715.13019  0.025060632  0.024900912            5 
 2379000   0.87678534   -7.2870897    715.76441  0.025072314  0.024894305            4 
 2380000   0.85790032   -7.3151593    715.60793    0.0250563  0.024887767            4 
 2381000   0.86437325   -7.2724634    714.39483  0.025003319  0.024881254            2 
 2382000    0.8764581   -7.2801002     718.6674  0.025142296  0.024874778            2 
 2383000   0.86253498   -7.2852812    717.49648  0.025090799  0.024868317            4 
 2384000   0.88074952   -7.2838107    716.86246  0.025058112   0.02486186            9 
 2385000   0.88117994   -7.3098004    718.05351  0.025089221  0.024855363            4 
 2386000   0.85667876   -7.3028432     716.7456  0.025033026  0.024848917            4 
 2387000   0.88434526    -7.314575    718.80853  0.025094558  0.024842398            2 
 2388000   0.86406473   -7.2709865    719.55467  0.025110088  0.024835921            3 
 2389000   0.85543583   -7.3059935    716.84626  0.025005102  0.024829492            5 
 2390000   0.88073205   -7.2693777    718.66116   0.02505792   0.02482297            3 
 2391000   0.85312261   -7.2989103    717.99223  0.025024126  0.024816473            7 
 2392000   0.86325709   -7.2906138    718.54866   0.02503305  0.024809961            2 
 2393000   0.86094642   -7.3231184    717.17978  0.024974919  0.024803464            3 
 2394000   0.85619513    -7.267957    718.33262  0.025004617  0.024797009            3 
 2395000   0.86832906    -7.279426    719.69231  0.025041486  0.024790534            2 
 2396000   0.89201034   -7.2527131     720.5869  0.025062149  0.024784084            8 
 2397000   0.87619229   -7.3093638    720.13439  0.025035961  0.024777633           10 
 2398000   0.88617954   -7.2949152    719.99648  0.025020729  0.024771247            3 
 2399000   0.86593917   -7.2603471    721.44799  0.025060719  0.024764908            3 
 2400000   0.86865579   -7.3030592    720.76932  0.025026712  0.024758536            3 
 2401000   0.86488767   -7.2957684    720.24635  0.024998138  0.024752158            1 
 2402000   0.88758933   -7.2943055    721.39101  0.025027443  0.024745784            3 
 2403000   0.86500881   -7.3130968    721.87116  0.025033679  0.024739417            4 
 2404000   0.85701927   -7.3084812    719.77445  0.024950584  0.024733055            4 
 2405000   0.86935177   -7.3082995    720.89291  0.024978964  0.024726688            7 
 2406000   0.86110434   -7.2744793    720.16981  0.024943537  0.024720315            4 
 2407000   0.86859507    -7.316175    719.03967  0.024894047  0.024713919            4 
 2408000   0.86534222   -7.2925617    722.12139  0.024990358  0.024707545            3 
 2409000   0.86656932   -7.2832852    723.23831  0.025018622  0.024701217            6 
 2410000   0.86225803   -7.2790008    721.17316  0.024936831  0.024694823            3 
 2411000   0.86411614   -7.2839387    721.29261  0.024930617  0.024688468            3 
 2412000   0.86645056   -7.3230603    721.67265  0.024933411  0.024682104            4 
 2413000   0.86191769   -7.2847975    723.43823  0.024984053  0.024675742            2 
 2414000   0.87056522   -7.2771654    722.16765  0.024929842  0.024669402            2 
 2415000   0.85977113   -7.3023303    723.20302  0.024955246  0.024663019            3 
 2416000   0.89085736   -7.2705514    720.89294  0.024865237  0.024656665            5 
 2417000   0.85833177   -7.2986615    721.22064  0.024866247  0.024650288            1 
 2418000   0.85151835   -7.3180438    722.00925  0.024883142  0.024643875            3 
 2419000   0.85427641   -7.3008846    724.08736  0.024944445  0.024637468            2 
 2420000    0.8387994   -7.3290179    722.39864  0.024875986  0.024631014            3 
 2421000    0.8701393   -7.2944702    723.02106  0.024887136  0.024624579            2 
 2422000   0.85344104   -7.2837093    724.60762  0.024931448  0.024618208            8 
 2423000   0.84409641   -7.3225612    724.63625  0.024922144  0.024611853            7 
 2424000   0.86786422   -7.2889267    725.69771  0.024948353  0.024605504            6 
 2425000   0.84832444   -7.3132125    723.97667  0.024878923  0.024599195            2 
 2426000   0.83440494   -7.3203138    721.96618  0.024799608  0.024592813            5 
 2427000    0.8555017   -7.3163751    724.14588  0.024864232  0.024586466            3 
 2428000   0.85985019   -7.3132496    725.00577  0.024883504   0.02458014            2 
 2429000   0.87587909   -7.2925044    725.93823   0.02490525  0.024573844            3 
 2430000   0.85508097   -7.3115025    723.50413  0.024811527   0.02456753            6 
 2431000   0.88188185   -7.3025238    724.72751  0.024843258  0.024561191            2 
 2432000    0.8427002   -7.3137756    724.07268  0.024810605   0.02455489            5 
 2433000   0.84955373   -7.3196348    724.16708   0.02480364  0.024548554            3 
 2434000   0.85749374   -7.2945353     723.2938  0.024763551  0.024542235            7 
 2435000   0.86470111    -7.304653    723.95122   0.02477588  0.024535923            2 
 2436000   0.84249159   -7.2957542    725.96031  0.024834439  0.024529576            6 
 2437000   0.85544844   -7.3082654    724.85364  0.024786406  0.024523263            6 
 2438000   0.86679531   -7.3170929    724.91344  0.024778283  0.024516976            4 
 2439000   0.86585389   -7.2878197    727.33824  0.024850972  0.024510738            4 
 2440000   0.85503212   -7.3090478    724.94794  0.024759151  0.024504446            4 
 2441000   0.87799255   -7.3322122    726.31936  0.024795827  0.024498195            6 
 2442000    0.8458599    -7.333142    727.42158  0.024823286  0.024491872            3 
 2443000    0.8641557   -7.2594637    729.37517  0.024879764  0.024485601            3 
 2444000   0.84080144   -7.3033892    727.22501   0.02479627  0.024479358            2 
 2445000    0.8429444   -7.3513453    727.24337  0.024786754  0.024473074            3 
 2446000   0.86583632   -7.3056773    726.44449  0.024749403  0.024466791            3 
 2447000   0.87447794    -7.333192    725.85851  0.024719334  0.024460505            3 
 2448000    0.8699403   -7.3162829    727.85198  0.024777096  0.024454195            3 
 2449000   0.84442124   -7.2936682     727.4556  0.024753491  0.024447966            6 
 2450000   0.85529634   -7.3206791    726.27029  0.024703071  0.024441692            6 
 2451000    0.8760032   -7.3234964    725.12846   0.02465417  0.024435362            7 
 2452000   0.86567437   -7.3251749    728.30008  0.024751906  0.024429032            3 
 2453000   0.87248019   -7.3076154    727.17572  0.024703619  0.024422745            5 
 2454000   0.85844441   -7.3174594    727.86251  0.024716874  0.024416484            2 
 2455000   0.85577283   -7.3203245    728.28619  0.024721188  0.024410247            2 
 2456000   0.86279821   -7.3318597    729.02049  0.024736037  0.024404014            5 
 2457000   0.86959652   -7.3056679    728.90128  0.024721927  0.024397773            5 
 2458000   0.84898598   -7.3218307    729.51807   0.02473278  0.024391557            4 
 2459000     0.851454   -7.2945352     726.7778  0.024629856  0.024385334            4 
 2460000   0.85630684   -7.3084499    728.88093  0.024691088  0.024379106            3 
 2461000   0.84301453   -7.3060626     729.5738  0.024704517  0.024372941            7 
 2462000   0.85818246   -7.3432487    729.99267  0.024708661  0.024366824            4 
 2463000   0.86039145   -7.2952661    731.31866  0.024743492   0.02436063            3 
 2464000    0.8492243   -7.2834945       730.27  0.024697984  0.024354467            5 
 2465000   0.84452664   -7.2932394    730.70417  0.024702643  0.024348284            6 
 2466000   0.86108764    -7.307778    730.75052  0.024694192  0.024342068            3 
 2467000    0.8781537   -7.3223818    730.65566  0.024680978  0.024335946            3 
 2468000   0.85930397   -7.3114378    731.84041  0.024710981  0.024329823            4 
 2469000      0.86905    -7.335827    730.94148  0.024670632  0.024323679            3 
 2470000   0.86490553   -7.3245686     730.6894  0.024652139  0.024317521            3 
 2471000   0.86339305    -7.324827    732.34892  0.024698129  0.024311407            4 
 2472000    0.8586144   -7.3003568    731.89394    0.0246728  0.024305263            5 
 2473000   0.85097234   -7.3214408    731.62826   0.02465387  0.024299141            7 
 2474000    0.8673418   -7.3366097    732.34438  0.024668027  0.024292969            2 
 2475000   0.86785408   -7.3566757    730.48421  0.024595428  0.024286839            2 
 2476000   0.85374295   -7.3100682    731.34288  0.024614394  0.024280693            4 
 2477000   0.85647481   -7.2874892    732.20873  0.024633587  0.024274586            3 
 2478000    0.8548248   -7.2947893     732.3553  0.024628575  0.024268446            3 
 2479000   0.84200316   -7.3499898    732.91456   0.02463744  0.024262277            3 
 2480000   0.86023591   -7.3434929    731.03949  0.024564499  0.024256112            4 
 2481000   0.86788286   -7.3343959     732.2383  0.024594864  0.024249988            8 
 2482000   0.85978448   -7.3265679    731.00751  0.024543631  0.024243857            3 
 2483000    0.8478045   -7.3363077    732.21282  0.024574198  0.024237675            3 
 2484000   0.84874429   -7.3352632    733.34866  0.024602411  0.024231494            4 
 2485000   0.87352171   -7.3373389     733.3938  0.024594024  0.024225317            4 
 2486000   0.85419349   -7.3480801    730.49885  0.024487089   0.02421914            3 
 2487000   0.85727229   -7.3693593    731.51663  0.024511347  0.024212925            8 
 2488000   0.85000455   -7.3290323    729.59755  0.024437217  0.024206712            6 
 2489000   0.82895165   -7.3499577    730.48729  0.024457188  0.024200504            4 
 2490000   0.85964763   -7.3176419    732.04727  0.024499574  0.024194318            4 
 2491000   0.86395448    -7.332824    733.36633  0.024533866  0.024188119            4 
 2492000   0.86891668   -7.2892465    733.19322  0.024518232   0.02418195            3 
 2493000   0.87894505   -7.3496519    733.02944  0.024502923  0.024175805            2 
 2494000   0.85639735   -7.3398432    733.32692  0.024503038  0.024169574            7 
 2495000   0.85286739   -7.3063011    733.09256  0.024485389  0.024163377            2 
 2496000   0.84176248   -7.2973254    733.57723  0.024491761  0.024157268            5 
 2497000   0.88319039   -7.2924083    734.24382  0.024504199  0.024151112            5 
 2498000   0.86366734   -7.3031983    735.02592   0.02452048  0.024144962            6 
 2499000   0.83809949   -7.3416899    734.35188  0.024488191  0.024138855            6 
 2500000   0.84386851   -7.3131069    734.70921  0.024490307   0.02413272            6 
 2501000   0.84938368   -7.3209722    735.29692  0.024500097  0.024126569            1 
 2502000   0.85421136   -7.3043591     733.8416  0.024441833  0.024120435            2 
 2503000   0.83828428   -7.3379994    734.63719  0.024458556  0.024114255            3 
 2504000   0.86992521   -7.3452153    732.11645  0.024364898  0.024108042            3 
 2505000    0.8600977   -7.3334002    733.94879  0.024416127  0.024101809            3 
 2506000   0.84261209   -7.3447245    735.10982  0.024444993  0.024095594            7 
 2507000   0.84410642   -7.3389001    733.45393    0.0243802  0.024089347            4 
 2508000   0.82056171   -7.3254662    734.03099  0.024389653  0.024083149            2 
 2509000   0.86173487   -7.3412661    732.21677  0.024319675   0.02407692            7 
 2510000   0.85199865   -7.3332185    734.60128  0.024389153  0.024070687            7 
 2511000   0.84301258   -7.3356978    734.90667  0.024389575  0.024064503           10 
 2512000   0.84706701   -7.3586658    733.25494  0.024325071  0.024058326            3 
 2513000   0.85018291   -7.3154431    735.69283  0.024396234  0.024052189            3 
 2514000   0.84289475   -7.3223944    736.18883  0.024402971  0.024046041            3 
 2515000   0.84121502   -7.3126902    736.71082  0.024410564  0.024039883            4 
 2516000    0.8651213   -7.3411479     735.8009  0.024370724  0.024033742            2 
 2517000   0.83629271    -7.345027     735.5966  0.024354278  0.024027618            4 
 2518000   0.84633751   -7.3151223    735.13036  0.024329175  0.024021478            4 
 2519000   0.85827631   -7.3202936    737.62853  0.024402161  0.024015351            7 
 2520000   0.86330266   -7.3425666    737.63934  0.024392835  0.024009254            7 
 2521000   0.84602351   -7.3354451    735.61437  0.024316223  0.024003134            4 
 2522000   0.84472882   -7.3241526    737.02453  0.024353176  0.023996969            2 
 2523000   0.85888259   -7.3317047    736.31928   0.02432023  0.023990788            4 
 2524000   0.85695617   -7.3402242    738.36986  0.024378297   0.02398459            6 
 2525000    0.8472615   -7.3443899    737.03886  0.024324715  0.023978412            3 
 2526000   0.85493103   -7.3108932    736.56272  0.024299377  0.023972237            6 
 2527000   0.84618006    -7.324859    735.65179  0.024259721  0.023966083            4 
 2528000   0.84272036   -7.3613282     737.2146  0.024301641  0.023959853            4 
 2529000   0.84342604   -7.3619323    735.32537   0.02422978  0.023953646            2 
 2530000   0.83318423   -7.3342361     736.4281  0.024256525  0.023947458            2 
 2531000   0.85356338   -7.3597428    735.79458  0.024226083  0.023941253            3 
 2532000   0.85457657   -7.3288049     736.3256  0.024233992  0.023935059            4 
 2533000   0.84525175   -7.3364111    738.21977  0.024286741  0.023928908            4 
 2534000   0.83975539   -7.3150634    737.46228  0.024252245  0.023922755            4 
 2535000   0.85034404   -7.3785754     736.7577  0.024219517  0.023916541            3 
 2536000   0.85751836   -7.3447401     738.5565  0.024269075  0.023910306            2 
 2537000   0.84710785   -7.3507607    738.21711  0.024248361  0.023904104            2 
 2538000   0.83560872   -7.3609698     735.7984  0.024159391  0.023897906            4 
 2539000   0.84997697   -7.3554664    735.60561  0.024143548  0.023891655            4 
 2540000   0.86109703   -7.3458961     736.5346  0.024164521  0.023885371            4 
 2541000   0.85922841   -7.4039763    735.34667  0.024116052  0.023879108            5 
 2542000   0.85791611   -7.3907127    735.23659  0.024102957  0.023872844            8 
 2543000   0.85463995   -7.3364291    736.52772  0.024135789  0.023866576            2 
 2544000   0.85071189   -7.3527233    738.93708  0.024205224  0.023860347            4 
 2545000   0.84521748   -7.3188129    737.02824   0.02413321  0.023854126            3 
 2546000   0.85250491   -7.3806067    736.30323  0.024100001   0.02384792            5 
 2547000   0.84340291   -7.3349109    737.43795  0.024127665  0.023841679            8 
 2548000   0.83855259   -7.3130856    738.68015  0.024158822  0.023835485            4 
 2549000   0.83533405   -7.3652801    736.64755  0.024082894  0.023829287            3 
 2550000   0.85372339   -7.3595759    740.04265    0.0241844  0.023823055            5 
 2551000   0.83646113   -7.3410533    737.55826  0.024093762  0.023816821            7 
 2552000   0.83485354   -7.3667584     738.6106  0.024118685  0.023810637            2 
 2553000   0.83409096   -7.3632464    737.75794  0.024081406  0.023804405            3 
 2554000   0.83586847   -7.3137842    739.44906  0.024127155  0.023798193            2 
 2555000   0.84317712   -7.3272925      740.357  0.024147326  0.023792032            3 
 2556000   0.85610683   -7.3157499    740.59052  0.024145492  0.023785887            5 
 2557000   0.84506338   -7.3284922     739.9805  0.024116168  0.023779705            3 
 2558000   0.83719994   -7.3419945    738.71017  0.024065356  0.023773531            5 
 2559000   0.83756809   -7.3313114     737.7433  0.024024466   0.02376732            6 
 2560000   0.83273328   -7.3406233    742.16605  0.024159051  0.023761151            3 
 2561000   0.84758219   -7.3380433    739.92902  0.024076826  0.023754975            4 
 2562000   0.85768044   -7.3309073    741.74712  0.024126565  0.023748817            2 
 2563000   0.84784848   -7.3405826    740.91438  0.024090076  0.023742649            3 
 2564000   0.84724608   -7.3060713    739.20613   0.02402516  0.023736498            7 
 2565000    0.8242472   -7.3685696    739.83577   0.02403625  0.023730283            2 
 2566000   0.84812404   -7.3938387    741.23411  0.024072295  0.023724044            2 
 2567000   0.83856427   -7.3562984    741.31569  0.024065566  0.023717783            3 
 2568000   0.85866969   -7.3842428    740.45724  0.024028337  0.023711559            4 
 2569000    0.8248269    -7.366024    739.44187  0.023986047  0.023705326            4 
 2570000   0.83024996   -7.3644535    740.50769  0.024011274  0.023699077            6 
 2571000   0.83188097   -7.3838713    738.41596  0.023934136  0.023692856            5 
 2572000   0.83428154   -7.3685197     742.6141  0.024060851  0.023686605            2 
 2573000   0.83082725    -7.359075    739.86214   0.02396237  0.023680382            5 
 2574000   0.84172279   -7.3297325    740.13351  0.023961846  0.023674091            5 
 2575000   0.84593306   -7.3650761    740.88637  0.023976905  0.023667807            4 
 2576000   0.85942124   -7.3735469    740.32662  0.023949489  0.023661554            4 
 2577000   0.83180776   -7.3545788    740.88304  0.023958189  0.023655279            2 
 2578000   0.84684441   -7.3526017    742.45519  0.023999715  0.023649044            7 
 2579000   0.81643812   -7.3676329    741.09037  0.023946309  0.023642846            5 
 2580000   0.83988797   -7.3818617    741.82189  0.023960655   0.02363668            4 
 2581000   0.83086798   -7.3641856    742.57824  0.023975792  0.023630483            3 
 2582000   0.82923835   -7.3675584    741.06871  0.023917787  0.023624297            5 
 2583000   0.84118462   -7.3380376    743.74144  0.023994755  0.023618137            8 
 2584000   0.82503764   -7.3263283    743.19048  0.023967701  0.023611991            2 
 2585000   0.84747014   -7.3412901    741.78515  0.023913126   0.02360587            2 
 2586000   0.84875219   -7.3182029    743.11515  0.023946737  0.023599743            5 
 2587000   0.83709365   -7.3242289    742.85889  0.023929226  0.023593628            5 
 2588000   0.84249677   -7.3804868    743.01153  0.023924895  0.023587499            3 
 2589000   0.83749907   -7.3438576    742.13229  0.023887353  0.023581289            4 
 2590000   0.84120517   -7.3806289    740.37793  0.023821684  0.023575046            4 
 2591000   0.84935055   -7.3566285    742.65948   0.02388587  0.023568816            4 
 2592000   0.82785557   -7.3519656    742.87121  0.023883462  0.023562571            4 
 2593000   0.83273426   -7.3673213    744.18156  0.023916363  0.023556332            4 
 2594000   0.85157629    -7.391066    742.67287  0.023858676  0.023550109           13 
 2595000   0.84305164   -7.3257368    744.71373   0.02391502  0.023543932            9 
 2596000   0.83026268   -7.3659085    745.61834  0.023934847  0.023537728            4 
 2597000   0.83433197   -7.3585219    742.44188  0.023823703  0.023531495            4 
 2598000    0.8227085   -7.3466679    742.07517   0.02380277  0.023525302            4 
 2599000    0.8258758   -7.3661699    743.01066  0.023823607  0.023519093            5 
 2600000   0.84599119   -7.3417617    743.35559    0.0238255  0.023512904            6 
 2601000    0.8255874   -7.3423543     743.0825   0.02380759  0.023506621            3 
 2602000   0.82749858   -7.3638433    743.57977  0.023814366  0.023500381            2 
 2603000   0.83233388   -7.3397978    744.20504  0.023825235  0.023494154            6 
 2604000   0.85106123   -7.3380052    744.80238  0.023835202  0.023487956            1 
 2605000   0.83107196   -7.3571041     745.0591  0.023834264   0.02348174            2 
 2606000   0.82624434   -7.3697552    742.91267  0.023756481   0.02347553            1 
 2607000   0.82761715   -7.3705154    742.06922  0.023720407  0.023469313            3 
 2608000   0.82248851   -7.3689827    744.51641  0.023789507  0.023463091            8 
 2609000   0.83510056   -7.3449238    744.74507  0.023787692  0.023456953            3 
 2610000   0.85206851   -7.3778676    743.75849  0.023747078  0.023450797            2 
 2611000   0.83898648   -7.3546335    745.28641  0.023786749  0.023444642            3 
 2612000   0.83135041   -7.3731767    745.16952  0.023773913   0.02343849            4 
 2613000   0.83040566    -7.361055    743.26109  0.023703951  0.023432348            3 
 2614000   0.83352839   -7.3777944    745.22826  0.023757596  0.023426168            2 
 2615000    0.8360013   -7.3880336     745.2199  0.023748244  0.023419966            2 
 2616000   0.82628681   -7.3647479    744.32305  0.023710596  0.023413792            2 
 2617000   0.84986393   -7.3670281    743.02155  0.023660093  0.023407592            3 
 2618000   0.83933578   -7.3614705     745.8551   0.02374125  0.023401372            4 
 2619000   0.82972752   -7.3943064    744.67806  0.023694733   0.02339518            3 
 2620000   0.82997212   -7.3965381    746.22994  0.023735049   0.02338896            2 
 2621000   0.82168509   -7.3512471     747.8119  0.023776291  0.023382814            1 
 2622000    0.8384966   -7.3856842    745.68528  0.023699634  0.023376649            3 
 2623000   0.83189995   -7.3856971    745.59974  0.023687881  0.023370493            3 
 2624000   0.84333599   -7.3767571    745.64877  0.023680411  0.023364322            5 
 2625000    0.8461518   -7.3930367    747.54616  0.023731624  0.023358173            4 
 2626000   0.82010489   -7.3685882    747.16591   0.02371052  0.023352004            4 
 2627000   0.82573594   -7.3332446    746.93715  0.023694238  0.023345917            7 
 2628000   0.82226258   -7.3687836    745.23147  0.023631135  0.023339802            6 
 2629000   0.82588053   -7.3362563    747.00283  0.023678294  0.023333653            4 
 2630000   0.83732742   -7.3704689    745.57149  0.023623938  0.023327487            2 
 2631000   0.84365492   -7.3765753    745.39827  0.023609473  0.023321311            4 
 2632000   0.83576842   -7.3891919    746.58182  0.023637976  0.023315115            3 
 2633000   0.83647106   -7.4139187    744.29131  0.023556504  0.023308893            6 
 2634000   0.82926347   -7.3488382    747.04886  0.023634803  0.023302651            4 
 2635000   0.82791753   -7.3808159    746.86819   0.02362012  0.023296472            2 
 2636000   0.83371666   -7.3363395    746.95158  0.023613796  0.023290311            6 
 2637000   0.82395262   -7.3389706    748.07054  0.023640202  0.023284153            2 
 2638000   0.85219209   -7.3847256    746.82031  0.023591746  0.023278023            5 
 2639000   0.82753236   -7.3744897     748.6336  0.023640066  0.023271878            6 
 2640000   0.80799308   -7.3744434    746.96043  0.023578297  0.023265706            6 
 2641000    0.8349333   -7.3685615    746.40513  0.023551847  0.023259546            2 
 2642000   0.82775047   -7.3805052    748.79628  0.023618354  0.023253337            2 
 2643000   0.82021325   -7.3784876       747.05  0.023554357  0.023247161            3 
 2644000   0.83391232   -7.4184963    746.85733  0.023539376  0.023240953            7 
 2645000   0.81652949   -7.3964018    746.52751  0.023520085  0.023234747            5 
 2646000   0.82402011   -7.3755283    748.89367  0.023585716  0.023228609            4 
 2647000   0.83191977   -7.4084018    747.19523  0.023523335  0.023222458            5 
 2648000   0.84899366   -7.3911945    748.05458  0.023541496  0.023216286            5 
 2649000   0.82785254   -7.3842423    748.80124  0.023556098  0.023210146            8 
 2650000   0.83705715   -7.3742751    749.77338  0.023577779  0.023204029            3 
 2651000   0.84065573   -7.3827856    747.04374   0.02348308   0.02319784            4 
 2652000   0.81634591   -7.3863625    747.79152  0.023497723  0.023191705            2 
 2653000   0.82460052   -7.3781808    749.56259  0.023544497  0.023185532            3 
 2654000   0.80793398   -7.3782385    748.88426  0.023514326  0.023179421            5 
 2655000   0.83556107   -7.3982073    748.12689  0.023481698   0.02317328            5 
 2656000   0.81837545   -7.3691962    747.99499  0.023468718  0.023167098            3 
 2657000   0.83159648   -7.3866898    747.62001  0.023448125  0.023160943            3 
 2658000   0.83122994   -7.4094953     746.5735  0.023406493  0.023154804            4 
 2659000   0.83373559   -7.3813377    747.74816  0.023434504  0.023148667            4 
 2660000   0.81995481   -7.3540547    750.96967  0.023526619  0.023142548            3 
 2661000   0.82744153   -7.3670921    750.62213  0.023506894  0.023136438            3 
 2662000   0.80161504   -7.3845371    749.29941  0.023456656  0.023130284            3 
 2663000   0.82961473   -7.3915411    747.89144  0.023403788  0.023124125            4 
 2664000   0.85187618   -7.3834492    748.74329   0.02342165  0.023117967            4 
 2665000    0.8228592   -7.4006948    750.44916  0.023466203  0.023111803            5 
 2666000   0.80829956   -7.3761587     749.9611  0.023442145  0.023105625            4 
 2667000   0.81117304   -7.4008855     749.1068  0.023406662  0.023099414            9 
 2668000   0.82703365   -7.3822656    750.22864  0.023432929  0.023093239            5 
 2669000   0.82277892   -7.4144162    749.69204  0.023407395  0.023087049            3 
 2670000   0.83920143   -7.3959173    749.38036    0.0233889  0.023080834            3 
 2671000   0.80622722   -7.3953042    750.20025  0.023405724  0.023074662            9 
 2672000   0.81733101   -7.3789263    749.11394  0.023363085  0.023068529            5 
 2673000   0.82355854   -7.4064135    748.21746  0.023326395  0.023062319            6 
 2674000   0.81458013   -7.4049249     750.8933  0.023401063  0.023056141            7 
 2675000    0.8192892   -7.3719551    752.72686  0.023449435   0.02304998            7 
 2676000   0.81706717   -7.4056212    750.82163  0.023381341  0.023043852            2 
 2677000   0.80915498    -7.404001    750.47474  0.023361809  0.023037707            7 
 2678000    0.8111787   -7.3967657    748.95265  0.023305721  0.023031557            3 
 2679000   0.82050337   -7.4225713    750.36936   0.02334109  0.023025371           10 
 2680000   0.80968025   -7.4004961    749.72338  0.023312294  0.023019156            4 
 2681000   0.82139687   -7.3799469    750.02066  0.023312839  0.023012975            5 
 2682000   0.80076231   -7.3778035    751.22819  0.023341666  0.023006821            4 
 2683000   0.81735511    -7.365843    751.70324  0.023347722  0.023000664            1 
 2684000    0.8241867   -7.3993921    750.04356  0.023287493   0.02299448            2 
 2685000   0.81196479   -7.4055063    753.06905   0.02337272  0.022988287            4 
 2686000   0.82228018   -7.4080222    750.39118  0.023280938  0.022982077            2 
 2687000    0.8200869   -7.3947534    753.39982  0.023365582  0.022975886            7 
 2688000   0.82325034   -7.4039152    750.67947  0.023272553  0.022969675            5 
 2689000   0.80860578   -7.3900301    751.37337  0.023285402  0.022963469            7 
 2690000   0.83069526   -7.4105289    750.44275  0.023247917  0.022957301            4 
 2691000    0.8276836   -7.3776851    753.03444  0.023319535  0.022951135            4 
 2692000   0.82455818   -7.3945654    752.15245   0.02328357  0.022944985            3 
 2693000   0.80754325   -7.3730585    753.56525  0.023318642  0.022938857            4 
 2694000   0.82221414   -7.3969721    750.41876  0.023212657  0.022932668            3 
 2695000   0.82945331   -7.3990916     751.1677  0.023227201  0.022926468            5 
 2696000   0.81112388   -7.4123787    750.58783  0.023200662  0.022920287            3 
 2697000    0.8204995   -7.3977943      753.517  0.023282567  0.022914145            2 
 2698000   0.82541335   -7.4103113    750.36098  0.023176457  0.022907943            2 
 2699000    0.8057054   -7.4104254    751.54207  0.023204337  0.022901745            3 
 2700000   0.83672872    -7.409396    751.83391   0.02320475   0.02289553            4 
 2701000   0.84460043    -7.410724    752.68295  0.023222354  0.022889326            2 
 2702000   0.83932188   -7.3974294    754.04339  0.023255718  0.022883118            9 
 2703000   0.81366125   -7.4131013    750.74895  0.023145547  0.022876929            5 
 2704000   0.81361755   -7.4037256    752.22201  0.023182384  0.022870704            5 
 2705000    0.8198668   -7.4039827    751.65365  0.023156305  0.022864467            4 
 2706000    0.8268099   -7.3814787    752.02923  0.023159314  0.022858244            9 
 2707000   0.80672431   -7.4209667    751.69064  0.023140335  0.022852044            7 
 2708000   0.80587253   -7.4359081    751.64343  0.023130337  0.022845825            9 
 2709000   0.81467604   -7.4042107    750.26101  0.023079273  0.022839584            5 
 2710000   0.83636273   -7.4296742    750.32752  0.023072802  0.022833345            8 
 2711000   0.81422117   -7.4327543     753.0975  0.023149437  0.022827098            5 
 2712000   0.82006239   -7.3994026     752.7804  0.023131158  0.022820895            6 
 2713000   0.81511446   -7.4056337    752.50269  0.023114101  0.022814695            3 
 2714000    0.8078251   -7.3886173    752.12482  0.023093983  0.022808569            7 
 2715000   0.82175198   -7.4146598    752.98409   0.02311185  0.022802416            2 
 2716000   0.82839972   -7.4121329    754.11572  0.023138062  0.022796243            3 
 2717000   0.81524136   -7.4056647    753.70547  0.023116963  0.022790093            5 
 2718000   0.81190158   -7.4236382    753.78812  0.023110992  0.022783928            4 
 2719000   0.81546576   -7.3976783     753.8348  0.023103923  0.022777785            7 
 2720000   0.79764652   -7.4037416    753.73102  0.023092249  0.022771675            4 
 2721000   0.81775989   -7.4072037     753.9497   0.02309046  0.022765498            4 
 2722000   0.80517369    -7.402993    756.15972  0.023149636  0.022759316           10 
 2723000    0.8084682   -7.4162332    754.85161  0.023101102  0.022753156            5 
 2724000   0.81371172   -7.3949232    754.62135  0.023085577  0.022746979            3 
 2725000   0.79786586   -7.3877298     752.0231  0.022997648  0.022740791            4 
 2726000   0.82032398   -7.4060744    754.68057   0.02307045  0.022734635            5 
 2727000   0.80281015    -7.397015    755.04649  0.023073172  0.022728493            7 
 2728000   0.82578682   -7.4298075    754.11972  0.023036404  0.022722338            2 
 2729000   0.80132575   -7.3972694    753.45538  0.023007676  0.022716172            8 
 2730000   0.79625051    -7.433596    752.95631  0.022984014  0.022710011            4 
 2731000    0.8263109   -7.4064218    754.30019  0.023016605  0.022703866            7 
 2732000   0.82165004   -7.3925337    754.11826  0.023002631  0.022697742            5 
 2733000   0.82775691    -7.414224    753.72312  0.022982166  0.022691625            6 
 2734000   0.81241774    -7.409027    753.77438  0.022975323  0.022685462            4 
 2735000   0.79391798   -7.4372161    754.60579  0.022992254  0.022679313            5 
 2736000   0.82529262   -7.4165363    755.88443  0.023022796  0.022673158            6 
 2737000   0.82241457   -7.4230302    753.57173  0.022943969  0.022667004            5 
 2738000   0.82473769   -7.4302806    755.10069  0.022982125  0.022660822            4 
 2739000   0.82571973   -7.4222871    754.46303  0.022954333  0.022654679            4 
 2740000   0.81527093     -7.40528     755.0049  0.022962436  0.022648533            4 
 2741000   0.83487178    -7.427704    756.46183  0.022998353  0.022642401            3 
 2742000   0.79727719   -7.4172517    754.46776  0.022929363   0.02263624            4 
 2743000   0.81899238   -7.4037758    755.86077  0.022963324  0.022630084            3 
 2744000   0.82025875   -7.4774248    752.27302  0.022845998  0.022623909            4 
 2745000   0.82297252   -7.4014952    755.19443  0.022926364  0.022617761            3 
 2746000    0.8111541    -7.426094     755.0997   0.02291514  0.022611652            5 
 2747000   0.80975558   -7.4114239    756.68761  0.022954969  0.022605558            2 
 2748000   0.82208964   -7.3991355    756.17674  0.022931124  0.022599445            3 
 2749000   0.80187819   -7.3952324    756.16243  0.022922348  0.022593309            2 
 2750000   0.81317627     -7.40653    756.76327   0.02293222  0.022587174            4 
 2751000   0.81448878   -7.4275469    757.47045  0.022945306  0.022581036            8 
 2752000   0.79930841   -7.4150948    755.97471  0.022891676  0.022574891            6 
 2753000   0.82494302   -7.4087579     757.0784   0.02291677  0.022568762            6 
 2754000    0.8286075   -7.4175475    756.29566  0.022884763  0.022562613            6 
 2755000   0.82158503   -7.4177653    755.75693  0.022860161  0.022556466            5 
 2756000     0.803103   -7.4051947    757.81292  0.022914034  0.022550329            3 
 2757000   0.81080785   -7.3998332    757.81931  0.022905916   0.02254422            3 
 2758000   0.80667248   -7.4226639    758.42926   0.02291604  0.022538113            3 
 2759000   0.79045772   -7.4210562    759.38376  0.022936564  0.022532003            4 
 2760000   0.81011676   -7.4271519     755.7321  0.022817998  0.022525904            3 
 2761000   0.79940103   -7.3753096    759.86984   0.02293462  0.022519813            4 
 2762000   0.80825239   -7.3873437    758.34353  0.022880266  0.022513741            5 
 2763000   0.80875346   -7.3913868    758.09817  0.022864585   0.02250767            3 
 2764000   0.80362771   -7.4307892    756.91545  0.022820654  0.022501589            6 
 2765000   0.78952807    -7.412211    758.07862  0.022847457  0.022495532            5 
 2766000   0.80728797   -7.4271138    758.96772  0.022865983  0.022489442            3 
 2767000   0.80726732   -7.4255337    758.60989  0.022846943  0.022483374            6 
 2768000   0.81332896   -7.3851114    760.34765  0.022891006  0.022477326            2 
 2769000   0.80170957   -7.4207596    756.73958  0.022774154  0.022471257           12 
 2770000   0.80590974   -7.4288112    759.00335  0.022834036  0.022465192            3 
 2771000   0.79805839   -7.4157306     758.9471  0.022824104  0.022459147            5 
 2772000   0.81445374   -7.4322847    758.79911  0.022811421  0.022453047            4 
 2773000     0.799455   -7.4373126    757.46852  0.022763208  0.022446917            2 
 2774000   0.81926735   -7.4463366    757.41996  0.022753544  0.022440829            5 
 2775000    0.8070712   -7.4582651    760.24558  0.022830198  0.022434716            4 
 2776000   0.81876644    -7.421852    758.89656  0.022781477  0.022428628            6 
 2777000    0.8035944   -7.3995566    760.63232  0.022825361  0.022422531            4 
 2778000   0.81032499   -7.4645737    757.60426   0.02272631  0.022416432            4 
 2779000   0.81924209   -7.4333002    758.77302  0.022753179  0.022410344            4 
 2780000   0.80550089   -7.4179775    762.03147   0.02284267  0.022404313            4 
 2781000   0.81578909   -7.4236922    759.72907  0.022765464  0.022398288            4 
 2782000   0.80592662   -7.4097198    759.49983  0.022750414  0.022392229            7 
 2783000   0.81612801   -7.4657884    758.22585  0.022704092  0.022386169            7 
 2784000   0.80121352   -7.4402652    759.10548  0.022722267  0.022380086            9 
 2785000   0.78706195   -7.4469507    759.74802  0.022733334  0.022373968            6 
 2786000   0.78910284    -7.434056    757.28904  0.022651622  0.022367849            8 
 2787000   0.81609802   -7.4321985     760.6898   0.02274518  0.022361737            7 
 2788000   0.81081275   -7.4323711    759.51634  0.022701947  0.022355662            4 
 2789000   0.81824121   -7.4071896    758.50406  0.022663561  0.022349564            6 
 2790000   0.82303795   -7.4140425    758.61238  0.022658673  0.022343466            5 
 2791000   0.81070677   -7.4362526    760.43648  0.022705018  0.022337368            5 
 2792000   0.81503464    -7.427195    760.78425  0.022707266   0.02233129            3 
 2793000    0.7976447   -7.4448683    758.31259   0.02262539  0.022325194            3 
 2794000   0.79706235   -7.4537843    758.82515   0.02263258  0.022319073            4 
 2795000   0.82613699   -7.4349037    759.71339  0.022650966  0.022312954            4 
 2796000   0.80000562   -7.4563609      760.211  0.022657695  0.022306835            5 
 2797000   0.80877932   -7.4547372    758.57485  0.022600848  0.022300718            4 
 2798000   0.79249637   -7.4842417    758.75538  0.022598147  0.022294597            5 
 2799000   0.78954061   -7.4661495    760.80742  0.022651168  0.022288474            5 
 2800000   0.80578179   -7.4256707    759.41185  0.022601543  0.022282352            7 
 2801000   0.78819119   -7.3991214    762.48214  0.022684819  0.022276278            2 
 2802000   0.78943422   -7.4412124    760.66584  0.022622705  0.022270224            3 
 2803000   0.79107665   -7.4348331    758.28393   0.02254382  0.022264145            2 
 2804000   0.81859103   -7.4438418    761.18543  0.022622011  0.022258075            4 
 2805000   0.79662403   -7.4210396    761.34989  0.022618832  0.022251991            3 
 2806000   0.80836537   -7.4395805    760.70266   0.02259155  0.022245941            5 
 2807000   0.81238002   -7.4288907    760.97773  0.022591668  0.022239874            5 
 2808000   0.79861749   -7.4039137    761.97394  0.022613187  0.022233857            6 
 2809000   0.80972499   -7.4071522    760.32082  0.022556094   0.02222781            4 
 2810000   0.77783114    -7.464113    762.54657  0.022614074  0.022221739            7 
 2811000   0.81375546   -7.4276141    760.23303  0.022537443  0.022215677            5 
 2812000   0.79985884    -7.443414    760.44853  0.022535815  0.022209568            4 
 2813000   0.82292992   -7.4597877    759.98218  0.022513988  0.022203447            5 
 2814000   0.80675962   -7.4493313    761.03021  0.022537024  0.022197323            3 
 2815000   0.79521321   -7.4605892    759.82941   0.02249347  0.022191195            6 
 2816000   0.80031326   -7.4826274    758.68794  0.022451703  0.022185072            7 
 2817000   0.79792372   -7.4711875    759.76873  0.022475705  0.022178915            4 
 2818000   0.80793758   -7.4664409    760.36654  0.022485407  0.022172776            6 
 2819000   0.79788768   -7.4197374    759.10062  0.022440009  0.022166617            5 
 2820000   0.78575916   -7.4205707    762.14202  0.022521927  0.022160502            2 
 2821000   0.79251935   -7.4325207    761.57337  0.022497146  0.022154395            5 
 2822000   0.81191727   -7.4495035    759.69328  0.022433654  0.022148242            5 
 2823000   0.78866638   -7.4366896    761.04883  0.022465723  0.022142085            3 
 2824000   0.79879393   -7.4306635    762.30216  0.022494752  0.022135949           12 
 2825000   0.78280882   -7.4546414    760.49257  0.022433409  0.022129802            4 
 2826000   0.79121588   -7.4515459    759.93752  0.022409104  0.022123646            6 
 2827000   0.80449953   -7.4530454     760.5704  0.022419833  0.022117497            5 
 2828000   0.80056801   -7.4464158    759.24976  0.022372989  0.022111322            5 
 2829000   0.81626506   -7.4256796    760.82902  0.022411601  0.022105188            4 
 2830000    0.7993281   -7.4567523    760.03866  0.022380408  0.022099056            5 
 2831000   0.80039994   -7.4668835    760.13319  0.022375285   0.02209289            2 
 2832000   0.78911384    -7.406229    762.64214  0.022441212  0.022086762            5 
 2833000   0.78643381   -7.4392333    762.54267  0.022430364  0.022080648            3 
 2834000   0.79456314   -7.4613768    762.85356  0.022431591  0.022074514            4 
 2835000   0.82538018   -7.4718512    763.40939  0.022440017   0.02206837            4 
 2836000   0.81849008   -7.4555922    763.76889  0.022442669  0.022062248            2 
 2837000    0.7861819   -7.4463537    762.57226  0.022399608  0.022056107            7 
 2838000   0.80298148   -7.4493215    761.75799  0.022367806  0.022049982            3 
 2839000   0.79809523   -7.4261945    764.59539  0.022443213  0.022043839            4 
 2840000    0.7860213   -7.4676722    761.32345  0.022339303  0.022037684           13 
 2841000   0.80373884   -7.4520824    762.67941  0.022371213  0.022031501            4 
 2842000   0.79179096   -7.4701243    762.11897  0.022346908  0.022025306            2 
 2843000   0.77217544   -7.4562318    762.49637  0.022350111  0.022019144            9 
 2844000   0.79953226   -7.4689062    762.55134  0.022343862  0.022012981            6 
 2845000   0.80293515   -7.4706812    761.19393  0.022296249  0.022006814            6 
 2846000   0.78522211   -7.4563123    761.89032  0.022308805  0.022000657            3 
 2847000   0.79662586   -7.4544769    761.36852  0.022285696  0.021994497            4 
 2848000   0.79689848   -7.4483813    762.16069   0.02230105  0.021988334            4 
 2849000   0.80744495   -7.4416372    762.27681  0.022296619  0.021982192           11 
 2850000   0.80397753   -7.4657876    760.55486  0.022238446  0.021976022            6 
 2851000    0.7923453   -7.4568239    762.38992  0.022284284  0.021969839            6 
 2852000   0.81384113   -7.4887167    760.83245  0.022230962  0.021963656            1 
 2853000   0.79751586   -7.4933157    761.44137  0.022240956  0.021957474            7 
 2854000   0.79952478   -7.4759558    764.04533  0.022309196  0.021951297            6 
 2855000   0.78921762   -7.4679104    762.27747   0.02224978  0.021945143            9 
 2856000   0.79794649   -7.4697383    764.04037  0.022293428  0.021939016            3 
 2857000   0.77565869   -7.4804259    762.08496   0.02222859  0.021932873            7 
 2858000     0.800219   -7.4685777    760.73272  0.022181383  0.021926708            3 
 2859000    0.7917164   -7.4591028     762.7374  0.022232057   0.02192054            5 
 2860000   0.79056585   -7.4568492    764.23485  0.022267915  0.021914381            7 
 2861000   0.78704069   -7.4604772    763.19056  0.022229714  0.021908233            6 
 2862000   0.78921078   -7.4547211    763.22403  0.022222922  0.021902068            2 
 2863000   0.78130477   -7.4620986    763.93804  0.022235942  0.021895967            4 
 2864000    0.7939072   -7.4298689    762.38363   0.02218295  0.021889856            5 
 2865000   0.79508424    -7.448853    765.70844  0.022271915  0.021883744           11 
 2866000   0.79950135   -7.4469639     764.8037  0.022237837  0.021877627            7 
 2867000   0.79823424   -7.4548041    765.82348  0.022259722  0.021871542            4 
 2868000   0.76594718   -7.4663551    764.75743  0.022220985  0.021865444            5 
 2869000   0.78908994   -7.4603484    761.98327  0.022132661  0.021859355            3 
 2870000   0.78885322   -7.4467391    764.38628  0.022194724  0.021853257            3 
 2871000   0.76866752   -7.4470527    766.07944  0.022236139  0.021847179            6 
 2872000   0.78224844   -7.4916903    763.30351   0.02214785  0.021841082            2 
 2873000   0.78172571   -7.4692787    763.45497  0.022144535  0.021834992           10 
 2874000   0.80541404   -7.4597219    764.73247  0.022173871  0.021828885            5 
 2875000   0.77850457   -7.4648904    765.51868  0.022188947  0.021822786            3 
 2876000   0.80052418   -7.4646345    764.87626  0.022162618  0.021816706            7 
 2877000   0.79097789   -7.4376126    765.65062  0.022177344  0.021810639            6 
 2878000   0.80094485   -7.4784373    764.49892   0.02213629   0.02180459            6 
 2879000   0.78554026   -7.4760497    764.13327  0.022118018  0.021798466            4 
 2880000   0.80122033   -7.4611341    765.06743  0.022137368  0.021792376            8 
 2881000   0.79440201   -7.4871487    765.04775  0.022129115  0.021786262            8 
 2882000   0.78846572   -7.4596723    764.58778  0.022108136   0.02178018            7 
 2883000   0.80353282   -7.4810982    764.68607  0.022103309  0.021774091            6 
 2884000   0.78090455   -7.4619907    765.32797  0.022114192  0.021767977            6 
 2885000   0.78639059   -7.4942795    764.63378  0.022086475  0.021761844            3 
 2886000    0.7833852   -7.4900857    763.16508  0.022036414  0.021755684            5 
 2887000   0.78107631   -7.4734922     765.4828  0.022095682  0.021749531            9 
 2888000    0.7990117   -7.4808342    767.42492  0.022144071  0.021743417            7 
 2889000   0.77879509   -7.4571899     765.5052  0.022081032  0.021737318            3 
 2890000   0.79532993   -7.4438737    766.48068  0.022101519  0.021731247            5 
 2891000   0.79720844   -7.4736971    762.83755  0.021988861  0.021725164            2 
 2892000   0.77595779   -7.4928394    764.00114  0.022014786  0.021719052            4 
 2893000   0.78668351   -7.4670228    765.55116  0.022051825  0.021712938            4 
 2894000   0.79759921   -7.4756429    765.10517  0.022031363  0.021706834            6 
 2895000   0.78160596    -7.482495    763.42226   0.02197531  0.021700685            1 
 2896000   0.80256434   -7.5182055    766.06378  0.022043732  0.021694551            2 
 2897000   0.78132744   -7.4788238    764.21705  0.021983001  0.021688444            6 
 2898000   0.78756617   -7.4786671     765.6026  0.022015258  0.021682353            4 
 2899000   0.77802649   -7.4690249    764.47337  0.021975203  0.021676271            4 
 2900000   0.79632998   -7.4737458    766.51938  0.022026419  0.021670188            8 
 2901000   0.78578592   -7.4797258    764.46777  0.021959892  0.021664119            3 
 2902000   0.79024843   -7.4779777    764.71727   0.02195949  0.021658039           10 
 2903000   0.78547112   -7.4752297    764.88945  0.021956868  0.021651943            6 
 2904000   0.78508603   -7.4899669    766.09965  0.021984035  0.021645851            5 
 2905000   0.76724284   -7.4853605    765.40512  0.021956544  0.021639741            4 
 2906000   0.78125453   -7.4721902    766.98425  0.021994272  0.021633649            6 
 2907000   0.78860655   -7.4447735    767.27309  0.021994986  0.021627619            4 
 2908000   0.77253745   -7.4872958    768.73245  0.022029243  0.021621609            4 
 2909000   0.81093543    -7.491658    766.10048  0.021946272  0.021615598            4 
 2910000   0.79830232   -7.4820963    766.02959  0.021936701  0.021609603            5 
 2911000    0.7989923   -7.4481437    767.69029  0.021976706  0.021603552            4 
 2912000   0.79655763   -7.4906276    766.85024  0.021945119  0.021597504            5 
 2913000   0.77770482   -7.4333346    769.08358  0.022001476  0.021591486            9 
 2914000   0.78577867   -7.4803759    767.52901  0.021949468  0.021585489            6 
 2915000   0.80258365   -7.4793302    767.20196  0.021932589  0.021579484            4 
 2916000   0.78007646   -7.4776681    766.98768  0.021918944  0.021573428            3 
 2917000   0.78343548   -7.4710168    768.17014   0.02194521  0.021567392            6 
 2918000   0.78612268   -7.4737391    767.34961  0.021914257  0.021561372            3 
 2919000   0.78211501   -7.4471111    769.85698  0.021978331  0.021555347            4 
 2920000   0.78603008   -7.4656842    767.99645  0.021917707  0.021549334            2 
 2921000   0.79290781   -7.4714038    767.61868  0.021899426  0.021543319            3 
 2922000   0.78514812   -7.4646597    766.21879  0.021852008  0.021537294            7 
 2923000   0.77589877   -7.5164699    768.61401  0.021912818  0.021531255            3 
 2924000   0.77966141   -7.4876335    767.45669  0.021872341  0.021525183            4 
 2925000   0.80247733   -7.4996856     767.4793  0.021865507  0.021519109            4 
 2926000   0.76774819   -7.4866056    767.21894  0.021850619   0.02151305            3 
 2927000   0.78435156   -7.4630901    766.70754  0.021828594  0.021506959            4 
 2928000   0.79520279   -7.5009485    768.63012  0.021875857  0.021500884            3 
 2929000   0.78765193   -7.4987505    767.52852  0.021837047  0.021494791            4 
 2930000   0.78910668   -7.4981678    766.00644  0.021786304  0.021488705            5 
 2931000   0.78954587   -7.4730657    768.36237  0.021845854  0.021482586            4 
 2932000   0.77989043   -7.4731395    766.16575  0.021775971  0.021476486            5 
 2933000   0.78405074   -7.5127549    766.68557  0.021783315  0.021470397            4 
 2934000   0.78826322   -7.4752361    768.36848   0.02182369   0.02146433            4 
 2935000   0.79316695    -7.499991    768.80815  0.021828738  0.021458263            5 
 2936000   0.78426666    -7.501806    767.94539  0.021796815  0.021452184            4 
 2937000   0.78539807   -7.5285958    766.05554  0.021735772  0.021446075            6 
 2938000    0.7922104   -7.4982864     768.6981  0.021803327  0.021439974            8 
 2939000   0.77374096   -7.4968984    766.03482  0.021720393  0.021433883            4 
 2940000    0.7823439   -7.4992802    767.05298  0.021741865  0.021427817            4 
 2941000   0.77425276   -7.4864536    766.80054  0.021727319  0.021421759            4 
 2942000   0.77465697   -7.4849454    767.98275   0.02175342    0.0214157            6 
 2943000   0.77461035   -7.4735003    767.84871  0.021742233  0.021409652            4 
 2944000   0.76537883   -7.5000485    769.85013  0.021791501  0.021403609            5 
 2945000   0.77017419   -7.5037138    767.13066  0.021707149  0.021397537            3 
 2946000   0.78048283   -7.4794971    767.77651   0.02171805  0.021391455            3 
 2947000   0.77125253   -7.4621549    767.93947  0.021715289  0.021385408            6 
 2948000   0.78978807   -7.4665567    768.06879  0.021711578  0.021379352           16 
 2949000   0.79343893   -7.4562096     771.8377  0.021810718  0.021373334            5 
 2950000   0.77788726   -7.4718497    769.72355  0.021743603  0.021367318            9 
 2951000   0.76213777    -7.475618    767.74334  0.021680316  0.021361263            5 
 2952000   0.77197129   -7.4847454      767.217  0.021658113  0.021355217            2 
 2953000   0.78100716   -7.4978478    768.24192  0.021679702  0.021349141            8 
 2954000   0.79003703   -7.5180421    767.07882  0.021639551  0.021343017            5 
 2955000   0.76035156   -7.5226646    769.39977  0.021697681  0.021336893            2 
 2956000    0.7539072    -7.501888    766.84491  0.021618316  0.021330763            4 
 2957000   0.79790613   -7.5014769     767.9933  0.021643369  0.021324649            7 
 2958000   0.78876003   -7.5276126    767.03034  0.021608923  0.021318535            6 
 2959000    0.7755762   -7.5183307     769.1564  0.021661496  0.021312423            7 
 2960000   0.77401473   -7.4844919    770.65816  0.021696457  0.021306325            7 
 2961000   0.78467757   -7.5141823    768.73748  0.021635075  0.021300258            5 
 2962000   0.79159983    -7.497216    768.67627  0.021626049  0.021294166            6 
 2963000   0.75856858   -7.4918131    768.61922  0.021617145  0.021288086            6 
 2964000   0.77943443   -7.4785732    770.32245  0.021657739  0.021282002           11 
 2965000   0.77497945   -7.5283363    768.23119  0.021591658  0.021275898            4 
 2966000    0.7711384   -7.5071353    770.74055  0.021654882  0.021269773            4 
 2967000   0.77101614   -7.4999769    768.12226  0.021574044  0.021263648            3 
 2968000   0.78569431   -7.5237173    766.98176  0.021534753   0.02125751            4 
 2969000   0.76958749   -7.5323613    768.57005   0.02157208  0.021251402            4 
 2970000   0.78589951   -7.5021086    769.27861  0.021584697  0.021245334            2 
 2971000   0.79347368   -7.5206947    768.24535   0.02154845  0.021239226            4 
 2972000   0.78621734    -7.512138    768.56181  0.021550073  0.021233121            3 
 2973000    0.7852989   -7.5007364    768.04198  0.021528254  0.021227035            3 
 2974000    0.7723321   -7.4704591    769.19151  0.021553225  0.021220949           13 
 2975000   0.79834616   -7.4780664    769.55992    0.0215563  0.021214879            6 
 2976000   0.77441609   -7.4826947    770.46685  0.021574453  0.021208829            7 
 2977000   0.78906153   -7.4861679    770.06272  0.021555893   0.02120274            3 
 2978000   0.78109306   -7.4967598    769.78894  0.021540993  0.021196661            7 
 2979000   0.76262209   -7.4729762    768.87661  0.021508241  0.021190574            8 
 2980000   0.77130208    -7.509105    767.97656  0.021475855  0.021184482            3 
 2981000   0.77080616   -7.5119436    767.40859  0.021452773  0.021178352            6 
 2982000    0.7842105    -7.543193    768.66789   0.02148077  0.021172206            8 
 2983000   0.77042039   -7.5178448    770.47051  0.021523928   0.02116605            6 
 2984000   0.76658721   -7.5090643    767.17661  0.021424727  0.021159941            9 
 2985000   0.78849834   -7.4921327    769.47356  0.021481674  0.021153823            4 
 2986000   0.76738318   -7.4928349    770.43562  0.021501329  0.021147725            4 
 2987000   0.77176342   -7.5202407    768.88037  0.021450741  0.021141625            4 
 2988000   0.76734812   -7.4876773    771.92622  0.021528509  0.021135561            6 
 2989000   0.77169181   -7.5128872    770.01488  0.021468018  0.021129479            4 
 2990000   0.77368076   -7.5129198    769.45446  0.021445219  0.021123401            3 
 2991000   0.77511403   -7.5394398    768.59294  0.021414046  0.021117295            5 
 2992000   0.75831478   -7.4998268    767.86072  0.021386495  0.021111172            4 
 2993000   0.79115715   -7.5106801    771.53646  0.021481692  0.021105094            3 
 2994000   0.76885383   -7.5122346    769.33959  0.021413371  0.021099027            4 
 2995000   0.75780093   -7.5226769    768.31228  0.021377637  0.021092933            6 
 2996000   0.77000861   -7.4789615    771.06759   0.02144714  0.021086872            4 
 2997000   0.76169761    -7.498697    770.41557  0.021421854  0.021080802            4 
 2998000     0.765752    -7.505146     770.4891  0.021416753  0.021074731            5 
 2999000   0.75117342   -7.4900952     770.9585  0.021422655  0.021068678            3 
 3000000   0.76762054    -7.507468    768.90533  0.021358481  0.021062634            9 
 3001000   0.78597346   -7.5043821    769.58036  0.021370109   0.02105659            7 
 3002000   0.76984647   -7.5171572    769.73362  0.021367245  0.021050586            5 
 3003000   0.75826709   -7.5096901     771.2342   0.02140177  0.021044547            4 
 3004000   0.77549878   -7.5071412    771.28954  0.021396181  0.021038517            3 
 3005000   0.78675362   -7.4966121    771.39035  0.021391857   0.02103251            5 
 3006000   0.76753672   -7.5142263    770.46935  0.021359208  0.021026518           11 
 3007000   0.77846005    -7.528883    770.31636  0.021347865  0.021020507            5 
 3008000   0.78232088   -7.5452684    769.54549  0.021319412  0.021014468            6 
 3009000   0.76171379   -7.4930687    772.18987  0.021385562  0.021008442            3 
 3010000   0.75534132    -7.512223    772.73483  0.021393545   0.02100242            7 
 3011000   0.77576499   -7.5002156     770.2839  0.021318607  0.020996392            8 
 3012000   0.76288507     -7.48752    772.29768  0.021367244  0.020990357            5 
 3013000   0.76751049   -7.5122525    771.88287   0.02134868  0.020984323            4 
 3014000   0.74534618   -7.4846789    772.34217  0.021354296  0.020978348           12 
 3015000   0.76000475   -7.4893306    770.37919  0.021292957  0.020972328            5 
 3016000   0.77685119   -7.5019868    771.25945  0.021310219  0.020966349            3 
 3017000   0.76595478   -7.5114681    772.98401   0.02135079   0.02096035            4 
 3018000   0.77092298   -7.5017035    771.68141  0.021307748  0.020954341            4 
 3019000   0.77324362   -7.5122029    772.46141  0.021322221  0.020948331            4 
 3020000   0.76937969   -7.5394424    771.63324  0.021292308  0.020942277            4 
 3021000   0.76996379   -7.4977675    773.56036  0.021338419  0.020936265            6 
 3022000   0.76892546    -7.526132    772.57382  0.021304153  0.020930291            9 
 3023000   0.75852265   -7.5065847    771.83237  0.021276667  0.020924303            5 
 3024000   0.75032186    -7.492129    771.82086  0.021269314  0.020918305            4 
 3025000   0.75471996   -7.5109725    772.89953  0.021291998  0.020912301            3 
 3026000   0.77004197   -7.5355885    771.38316  0.021243202  0.020906273            4 
 3027000   0.76725021   -7.5219936      773.596  0.021297104  0.020900263            4 
 3028000   0.79022896   -7.5317044    773.56162  0.021289124  0.020894257            4 
 3029000   0.77023428   -7.5053989    773.69093  0.021285653  0.020888259            3 
 3030000   0.77707764   -7.5265178    771.62529  0.021221818  0.020882241            3 
 3031000   0.75662415   -7.5371952    771.38322  0.021208161  0.020876219            3 
 3032000   0.75534446   -7.4771878    772.76224  0.021239068  0.020870207            8 
 3033000   0.76430046   -7.5606989    772.71628  0.021230802  0.020864201            4 
 3034000   0.75715696   -7.4949762    771.61322  0.021193508   0.02085819            3 
 3035000   0.78317169   -7.5096382    772.17097  0.021201839  0.020852206            5 
 3036000   0.76534006   -7.5094591     774.4164  0.021256489  0.020846218            6 
 3037000   0.77615943   -7.4954534    773.03846   0.02121168  0.020840241            3 
 3038000    0.7562123   -7.4966064    775.65511  0.021276473  0.020834263            5 
 3039000   0.76485847   -7.5102442    773.02038  0.021197224  0.020828291           10 
 3040000   0.77738045   -7.5056742    772.61416  0.021179116   0.02082232            3 
 3041000   0.75030573   -7.5497241    773.11429  0.021185857  0.020816317            5 
 3042000   0.74344306   -7.5084407    773.93867  0.021201476  0.020810302            8 
 3043000   0.75820997   -7.5372191    773.45504  0.021181264  0.020804309            4 
 3044000    0.7694132   -7.5254812    772.37892  0.021144846  0.020798309            8 
 3045000   0.77066948   -7.5282823    774.04266  0.021183433  0.020792308            3 
 3046000    0.7759423   -7.5030719    773.86447  0.021171604  0.020786318            3 
 3047000    0.7630873   -7.4834442    774.73576  0.021188485  0.020780368            2 
 3048000   0.75345321   -7.5367303    772.69354  0.021125698  0.020774401            8 
 3049000   0.76423708   -7.5322699    771.55223  0.021087576  0.020768406            7 
 3050000   0.75894527   -7.5292748    774.08622  0.021149897  0.020762386            4 
 3051000   0.76797075   -7.5483295    773.76093   0.02113408  0.020756391            4 
 3052000   0.76734177   -7.5032662    773.74773  0.021126795  0.020750391            3 
 3053000   0.78348404   -7.5346118     773.1434  0.021103379  0.020744399            4 
 3054000   0.75703571   -7.5466204    772.93679  0.021090831  0.020738381            3 
 3055000   0.76990401   -7.5327453    773.87337  0.021109475  0.020732357            3 
 3056000   0.75634293   -7.5123399    773.70856  0.021098074  0.020726372            4 
 3057000   0.76520356   -7.5326634    774.78928  0.021120632  0.020720399            4 
 3058000   0.75641146   -7.5045573    773.86245  0.021088469  0.020714404            3 
 3059000    0.7669144    -7.497538    774.38547  0.021095823  0.020708423            4 
 3060000   0.74613862   -7.5358897    772.47962  0.021037027  0.020702418            9 
 3061000   0.76349755   -7.5228343    772.65102   0.02103482  0.020696406            4 
 3062000     0.751822   -7.5409912    772.96746  0.021036563  0.020690398            3 
 3063000   0.75889331   -7.5331433     772.9724  0.021029829   0.02068439            2 
 3064000   0.77332373   -7.5083069    773.68645  0.021042386  0.020678402            3 
 3065000   0.75651883   -7.4935363    774.33803  0.021053236  0.020672399            2 
 3066000   0.76006983   -7.5509036    771.70469  0.020974796   0.02066638            5 
 3067000   0.76319945   -7.5539424    774.53793  0.021044939  0.020660324            3 
 3068000   0.77544195   -7.5330174    773.53217  0.021010761  0.020654267            7 
 3069000   0.76609063   -7.5590604    773.52464   0.02100371  0.020648209            5 
 3070000   0.75249281   -7.5523628    772.27872  0.020963049  0.020642152            4 
 3071000   0.74926387   -7.5614996    771.99559   0.02094854  0.020636084            5 
 3072000    0.7621143   -7.5296484    774.11518  0.020999218  0.020630021            4 
 3073000   0.74636824   -7.5672436    772.91795  0.020959918  0.020623976            5 
 3074000   0.75959727   -7.5482355    771.99841  0.020928172  0.020617917            6 
 3075000   0.75693056   -7.5468392    771.57371  0.020909857  0.020611853            8 
 3076000   0.75385592   -7.5429107    770.74698  0.020880661  0.020605801            3 
 3077000   0.75655352   -7.5396484    774.36294  0.020971805  0.020599741            3 
 3078000   0.76129565   -7.5592728    772.71799  0.020920457  0.020593696            6 
 3079000   0.75229062   -7.5670068    772.30498  0.020902484  0.020587657            3 
 3080000   0.75230781   -7.5161664    774.82916  0.020963992  0.020581643            3 
 3081000   0.73358316   -7.5310939    774.21515  0.020940581  0.020575611            7 
 3082000   0.76407857   -7.5353817    774.76852  0.020948749  0.020569595            5 
 3083000   0.77482725   -7.5438723    773.57945  0.020909813  0.020563573            4 
 3084000   0.76431718   -7.5310446    775.00215  0.020941476  0.020557554            8 
 3085000   0.74910205    -7.530523    773.55518  0.020895602  0.020551549           10 
 3086000   0.75404814   -7.5578426     774.1069  0.020903729  0.020545536            6 
 3087000   0.76126092   -7.5494186      774.951  0.020919744  0.020539513            2 
 3088000   0.75200981   -7.5583881    772.66608  0.020851308    0.0205335           13 
 3089000    0.7603239   -7.5131343    775.62199  0.020924301  0.020527512            4 
 3090000   0.74557071    -7.553027    774.11307  0.020876836   0.02052154            9 
 3091000   0.77026171   -7.5466417    774.56138  0.020882168  0.020515561            7 
 3092000   0.75245732   -7.5612928    773.83115  0.020855734  0.020509555            4 
 3093000   0.75877794   -7.5606626    774.73158  0.020873251  0.020503538            3 
 3094000   0.76197945   -7.5657928    774.01911  0.020847315  0.020497506            3 
 3095000   0.76754225   -7.5806193    772.22004  0.020792139  0.020491473            5 
 3096000   0.76303635    -7.557963    774.21846  0.020839214  0.020485451            3 
 3097000    0.7439167   -7.5575723    771.70125  0.020764752  0.020479453           10 
 3098000   0.75572452   -7.5639306     773.4708  0.020805649  0.020473436            9 
 3099000   0.73703494    -7.551287     775.6178  0.020856669  0.020467412            6 
 3100000   0.76998758   -7.5400841    774.99293  0.020833143  0.020461442            6 
 3101000   0.75156282   -7.5183707     777.2756  0.020887768  0.020455474            9 
 3102000   0.74848478   -7.5143084    774.58222  0.020808678  0.020449498            6 
 3103000   0.76455115   -7.5324831    774.18522   0.02079131  0.020443524            3 
 3104000   0.74255001   -7.5311772    773.63253  0.020769774  0.020437505            9 
 3105000   0.75814046   -7.5584133    773.42242  0.020757446  0.020431497            4 
 3106000   0.75762116   -7.5656403    773.34779   0.02074876  0.020425478            3 
 3107000   0.74724122   -7.5521209    775.34473  0.020795642  0.020419468            4 
 3108000   0.74323094   -7.5642115     773.8407  0.020748624  0.020413474            5 
 3109000   0.74942974   -7.5536503    774.20098  0.020751608  0.020407451            4 
 3110000   0.74905836   -7.5941316     775.4537  0.020778502  0.020401425            3 
 3111000   0.73909703   -7.5677932    774.21615  0.020738673  0.020395391           14 
 3112000   0.75798372   -7.5550154    775.33876  0.020762071  0.020389375            6 
 3113000   0.76324638   -7.5391457    775.01388  0.020746704  0.020383366            3 
 3114000   0.75232084   -7.5415954    775.40624  0.020750542  0.020377376            4 
 3115000    0.7477015   -7.5399494     773.7661  0.020700003  0.020371369           16 
 3116000   0.74274276   -7.5733594    775.29801  0.020734328  0.020365369           14 
 3117000   0.75226944    -7.561621    775.75213  0.020739817  0.020359354           11 
 3118000   0.74756557   -7.5845921    774.97516    0.0207124  0.020353342            4 
 3119000   0.74364903   -7.5620948    774.84369  0.020702247  0.020347322            5 
 3120000   0.74463505    -7.544166    775.97702  0.020725882  0.020341318            4 
 3121000   0.76873257   -7.5601508    772.92166  0.020637661  0.020335306            5 
 3122000    0.7512692    -7.554785    774.52127  0.020673747  0.020329303            6 
 3123000   0.74676511   -7.5688869    775.08398  0.020682143  0.020323285            3 
 3124000   0.74138926   -7.5580436    774.16941  0.020651126  0.020317282            8 
 3125000   0.75983858   -7.5927094    775.88345  0.020690225  0.020311276            5 
 3126000   0.74447503   -7.5454922    775.06599  0.020661815  0.020305254            9 
 3127000   0.75383474   -7.5673181    773.10347  0.020602907  0.020299237            5 
 3128000   0.74589676   -7.5675182    774.26369   0.02062723  0.020293243            6 
 3129000   0.75530205    -7.549313     774.5062  0.020627096  0.020287265            4 
 3130000   0.76369646   -7.5469616    775.25344    0.0206404  0.020281278            4 
 3131000   0.75172627   -7.5685597    774.80102  0.020621767  0.020275289            5 
 3132000   0.76247796   -7.5430817    776.78323  0.020667923  0.020269317            3 
 3133000   0.74134759   -7.5650227     776.3596  0.020650058  0.020263322            4 
 3134000   0.75669623   -7.5648788    777.09034    0.0206629  0.020257348            4 
 3135000   0.73172416   -7.5741605    775.79477  0.020621871  0.020251355            2 
 3136000   0.75034686   -7.5575057    775.22791  0.020600232  0.020245372            2 
 3137000   0.73005284   -7.5379955    776.22233  0.020620081  0.020239378            4 
 3138000   0.75269335   -7.5518529    775.96053  0.020606557  0.020233402            4 
 3139000   0.73639009   -7.5534035    777.04747  0.020628849  0.020227424            3 
 3140000   0.75844655   -7.5714818    776.52307  0.020608362  0.020221443            4 
 3141000   0.76160247    -7.567535    775.40062  0.020572021  0.020215476            4 
 3142000    0.7501264   -7.5603384    777.75568  0.020627935  0.020209524            2 
 3143000   0.75692186   -7.5654532    776.85516  0.020597496  0.020203576            4 
 3144000   0.74365975   -7.5647038    775.31083  0.020550011  0.020197622            5 
 3145000   0.75184291   -7.5624852    775.87065  0.020558311  0.020191653            4 
 3146000   0.74744436   -7.5913046    775.14217   0.02053248  0.020185688            4 
 3147000   0.75558971   -7.5457872    776.02985  0.020549461  0.020179728            3 
 3148000   0.76007246   -7.5878433    775.69921  0.020534181  0.020173749            5 
 3149000   0.75812718   -7.6146151    774.07697   0.02048473   0.02016775            3 
 3150000   0.74639892   -7.6006832    776.34314  0.020538178  0.020161744            4 
 3151000   0.74862038   -7.5891781    776.43146  0.020533996  0.020155774            5 
 3152000   0.74739209   -7.5901886    777.73464  0.020561935    0.0201498            6 
 3153000    0.7575194   -7.5897133    775.53092   0.02049717  0.020143829            6 
 3154000    0.7369751   -7.5888407    774.86529  0.020473084  0.020137853            8 
 3155000   0.73574443   -7.5966474    775.48808  0.020483045  0.020131896           12 
 3156000   0.75816602   -7.5811564    777.49904  0.020529654  0.020125936            4 
 3157000   0.75522804    -7.571813    777.93289  0.020534603  0.020120006            4 
 3158000   0.75053257   -7.5751514    776.66376   0.02049461  0.020114065            7 
 3159000    0.7528234    -7.582057    776.47264  0.020483081  0.020108125            5 
 3160000   0.73955471   -7.5607491     778.8575  0.020539491  0.020102182            8 
 3161000   0.76871347   -7.5827957    776.62842  0.020474228  0.020096246            4 
 3162000   0.73493631   -7.5612334     778.0449  0.020505084  0.020090354            5 
 3163000   0.73140348    -7.530845    779.14492  0.020527582  0.020084456            3 
 3164000   0.73721248   -7.5621517    778.28208  0.020498369  0.020078567            5 
 3165000   0.74608295   -7.5811049    777.15009  0.020462088  0.020072651            2 
 3166000   0.74147506   -7.5826002    775.88876  0.020422425  0.020066725            2 
 3167000   0.74591572   -7.5831117    776.79223  0.020439749  0.020060807            6 
 3168000   0.72844515   -7.5571135    777.80759  0.020460006  0.020054859           10 
 3169000   0.73663459   -7.5765706    777.18204    0.0204371  0.020048889            3 
 3170000   0.75058977   -7.6004057    774.28357  0.020354458  0.020042934            3 
 3171000   0.73952621   -7.5679449    776.64614  0.020410127  0.020037007            4 
 3172000   0.74509082    -7.588516    778.55131  0.020453744  0.020031076            5 
 3173000   0.72900941   -7.5795611    778.68977  0.020450934  0.020025159            6 
 3174000   0.75207133   -7.5606877    778.70181  0.020444807   0.02001926            2 
 3175000    0.7408209   -7.6109232    776.27118  0.020374572  0.020013342            6 
 3176000   0.75367533   -7.5891269    777.14593  0.020391109  0.020007423            4 
 3177000   0.76014497   -7.6005018    776.91953  0.020378752  0.020001475            6 
 3178000   0.73833931   -7.6185444    776.54974  0.020362643  0.019995509            6 
 3179000   0.74785507   -7.6136012     777.6772  0.020385792  0.019989531            6 
 3180000   0.73641243   -7.6125328    777.07639  0.020363637  0.019983591            8 
 3181000   0.74677567   -7.5859297    776.14634  0.020332871  0.019977643            5 
 3182000    0.7397299   -7.6020967    778.00182  0.020375074  0.019971678            3 
 3183000   0.75165597   -7.5825111    777.16611  0.020346793  0.019965732            6 
 3184000    0.7289851   -7.5801335    777.76119  0.020355978  0.019959813            5 
 3185000   0.76475779   -7.5741761    777.37878  0.020339581  0.019953886            5 
 3186000   0.74119913   -7.5946462    777.34461  0.020332303  0.019947956            5 
 3187000   0.74592017   -7.5668562    776.24607  0.020297199  0.019942015           13 
 3188000   0.73758262    -7.578996    777.74051  0.020329896  0.019936095            3 
 3189000   0.74535817   -7.5894372    778.29684  0.020338059  0.019930163            3 
 3190000   0.75191621   -7.5524338    778.51817  0.020337465  0.019924238            5 
 3191000   0.73260583   -7.5764362     778.4788  0.020330064  0.019918342            2 
 3192000   0.75052851   -7.5804955    779.77541  0.020357545  0.019912454            8 
 3193000   0.75101442   -7.5742832    778.50465  0.020318004  0.019906549            4 
 3194000   0.73097688   -7.5657463    777.65735  0.020289536  0.019900682            6 
 3195000    0.7362184   -7.5742784    777.73027  0.020285088  0.019894786           12 
 3196000   0.74204656   -7.5996446    777.27083  0.020266761   0.01988888            4 
 3197000   0.75312198   -7.5873581    777.62934  0.020269767  0.019882975            4 
 3198000   0.74149713   -7.5667437    779.98636  0.020324848   0.01987709            6 
 3199000   0.73292909   -7.5509112     779.4217  0.020303785  0.019871202            6 
 3200000   0.73269063   -7.5899013    777.10077  0.020236999  0.019865311            3 
 3201000    0.7316523   -7.5719966     778.2709   0.02026114   0.01985941           10 
 3202000   0.72916382   -7.5627004    778.73393  0.020266863  0.019853504            9 
 3203000   0.74369311   -7.5971496    775.85539  0.020185644  0.019847558            4 
 3204000   0.75551658   -7.5644442     778.2986  0.020242889  0.019841631            3 
 3205000   0.75331647   -7.5787002    778.69374  0.020246847  0.019835686            3 
 3206000    0.7383545   -7.6073733    777.28387  0.020203885  0.019829741            5 
 3207000   0.73562812   -7.5889853    777.80522  0.020211132  0.019823817            3 
 3208000   0.73535141   -7.5884603    777.33738  0.020192679  0.019817922            7 
 3209000    0.7337684   -7.5653253    780.20502  0.020260855  0.019812032            9 
 3210000    0.7348375   -7.5884461    778.41046  0.020207956  0.019806138            5 
 3211000   0.73003243   -7.5875154    778.82162  0.020212333  0.019800262            9 
 3212000   0.74351285    -7.563165    777.57797  0.020173775  0.019794398            6 
 3213000   0.73649121     -7.60378    777.73054  0.020171453  0.019788508            7 
 3214000   0.72928207   -7.6214676    777.43885  0.020157614  0.019782603            2 
 3215000   0.73698321   -7.5759899    778.20866  0.020171298    0.0197767            3 
 3216000   0.75304123    -7.571198    779.59469   0.02020094  0.019770795            7 
 3217000   0.73383294   -7.5955256    778.24649  0.020159737   0.01976492            6 
 3218000   0.74004056   -7.5825609    779.26515  0.020179852   0.01975905            6 
 3219000   0.72414302   -7.6026415    777.93324  0.020139102   0.01975318            4 
 3220000   0.73628842    -7.569758    779.23647  0.020166575  0.019747331            5 
 3221000    0.7469846   -7.6000415    778.17943  0.020132967   0.01974148            7 
 3222000   0.75509192   -7.5878844    781.15651  0.020203717  0.019735622            6 
 3223000   0.71738316   -7.5902717    780.46617  0.020179599  0.019729795            3 
 3224000   0.73807129   -7.5655947    780.57778  0.020176225  0.019723948           10 
 3225000   0.72398165   -7.5849077    779.22188  0.020134932  0.019718112            2 
 3226000   0.74060917   -7.6019122    778.81195  0.020118102  0.019712284           12 
 3227000    0.7453973   -7.6080643    778.47061  0.020103053  0.019706441            7 
 3228000   0.73584589   -7.5862564    780.94482  0.020160699  0.019700599            3 
 3229000   0.73565252    -7.619157    779.52532  0.020117821  0.019694758            8 
 3230000   0.73490889   -7.5859813    780.53473  0.020137635  0.019688912            3 
 3231000   0.73167549   -7.6086574    779.01389  0.020092177  0.019683053            2 
 3232000   0.73280418   -7.5896022    779.23973  0.020091783  0.019677232            3 
 3233000   0.74199413   -7.5989271    779.48879  0.020091989  0.019671393            7 
 3234000   0.72310819   -7.6079258    780.04124  0.020100011  0.019665547            6 
 3235000   0.74477125   -7.6066035    779.51347  0.020080203  0.019659695            6 
 3236000   0.73804665   -7.5741117    779.75977   0.02008034  0.019653851            3 
 3237000   0.73158228   -7.5829772    779.56663  0.020069165   0.01964799            3 
 3238000   0.72901484   -7.6060745    780.66575  0.020091254  0.019642167            9 
 3239000   0.72845229   -7.5839262    779.92306  0.020065943  0.019636322            3 
 3240000   0.72405828   -7.6060436    778.43924  0.020021585  0.019630503            3 
 3241000   0.73750436   -7.5980181     780.6816  0.020073064  0.019624667            5 
 3242000   0.73015923    -7.569684    780.87605  0.020071871  0.019618844            5 
 3243000   0.73244576   -7.5902378     781.3059  0.020076727   0.01961302            4 
 3244000   0.73036979   -7.5879242    779.26204  0.020018034  0.019607193           12 
 3245000   0.74305484   -7.5833085    778.55817   0.01999379  0.019601357            7 
 3246000   0.73015099   -7.6085029    780.01244  0.020024965  0.019595534            3 
 3247000   0.71835653   -7.6002578     779.1968  0.019997865  0.019589669            3 
 3248000   0.72611127   -7.5922548     779.0191  0.019987148  0.019583821            4 
 3249000   0.72821573   -7.6127792    779.46989  0.019992559  0.019577956            6 
 3250000    0.7369097   -7.6118589    780.28261  0.020007246  0.019572104            5 
 3251000   0.71599346   -7.5974748     778.6671  0.019959682  0.019566288            4 
 3252000   0.74205897   -7.5944243    781.05271  0.020014676  0.019560432            4 
 3253000   0.73548863   -7.5895508    780.16583  0.019985804  0.019554589            7 
 3254000   0.73230004   -7.5821896    779.64647  0.019966361  0.019548725            4 
 3255000   0.73514845    -7.594637    780.19175  0.019974187  0.019542869            3 
 3256000   0.72711741    -7.622393    779.25315   0.01994403   0.01953701            4 
 3257000   0.73883518   -7.6058109    780.78842  0.019977188  0.019531165            9 
 3258000   0.72218162   -7.6341806    779.52645  0.019938778  0.019525291            4 
 3259000   0.74004564   -7.6201225    779.86725  0.019941374  0.019519415            8 
 3260000   0.73388374   -7.6358623    780.05752  0.019940121   0.01951355            9 
 3261000   0.73148817   -7.6162054    780.35475  0.019941602  0.019507686            7 
 3262000   0.74081781   -7.6152228    780.00272  0.019926495  0.019501822            4 
 3263000   0.74920246   -7.6087026    781.36079  0.019955072  0.019495955            5 
 3264000   0.72930943   -7.6217709    779.25863  0.019895288  0.019490104            6 
 3265000   0.72246683     -7.64983    780.25613  0.019914654  0.019484222            4 
 3266000    0.7363645    -7.625048    780.09554  0.019904458  0.019478348            8 
 3267000   0.71959372   -7.6249163    781.08529  0.019923612  0.019472478            5 
 3268000   0.72962425   -7.6327198    781.63325  0.019931488  0.019466628            8 
 3269000   0.74769563    -7.603705    781.85884  0.019931142  0.019460802            4 
 3270000   0.72780541   -7.6067853    779.96952  0.019876899  0.019454982            4 
 3271000   0.73817542   -7.6170954    779.38597  0.019855956  0.019449143            2 
 3272000   0.71382548   -7.6286389     779.3506  0.019848986  0.019443288            4 
 3273000   0.72843571   -7.6148514    781.01868  0.019885393  0.019437449            3 
 3274000   0.72121482   -7.6156554    780.81835   0.01987422  0.019431626            4 
 3275000   0.74398816   -7.6225561    781.47966  0.019884979  0.019425798            4 
 3276000   0.72480031   -7.6391069    781.80408  0.019887161  0.019419967            3 
 3277000    0.7284858   -7.6175363    779.73997  0.019828603  0.019414142            8 
 3278000   0.74317357   -7.6122466    781.11893  0.019857609  0.019408312            4 
 3279000   0.72883391   -7.6081192    779.66219  0.019814532  0.019402486            4 
 3280000   0.72847882   -7.5882151    781.61565  0.019858121  0.019396689            6 
 3281000   0.73301546   -7.6259705    779.81357  0.019806298  0.019390883            4 
 3282000   0.73977363   -7.6475567      779.756  0.019798802  0.019385051            4 
 3283000   0.73372121    -7.654395    779.64667  0.019789996   0.01937922            4 
 3284000   0.72006953   -7.6200612     781.3388  0.019826908  0.019373376            7 
 3285000   0.72018859   -7.6553673    781.23311  0.019818192  0.019367555            3 
 3286000   0.71581941   -7.6340523    779.98363  0.019780474   0.01936174            6 
 3287000   0.72423629   -7.5955566    781.22435  0.019805911  0.019355953            4 
 3288000   0.72022491   -7.6254568    782.66468  0.019836392   0.01935016            4 
 3289000   0.70237385   -7.6142577    782.63499  0.019829609  0.019344372            6 
 3290000   0.71450266   -7.6181366     781.4401  0.019793316   0.01933858            4 
 3291000   0.72163142   -7.5953164    781.68105  0.019793403  0.019332798            3 
 3292000   0.72221826   -7.6255888    781.26072   0.01977675  0.019327022            8 
 3293000   0.72740945   -7.6034009    781.39499  0.019774142   0.01932123            5 
 3294000     0.719385   -7.6258634    779.83529  0.019728681  0.019315417            7 
 3295000   0.73002698   -7.6775485    780.34981  0.019735706  0.019309611            8 
 3296000   0.71459603   -7.6227193    782.32979  0.019779778  0.019303798            5 
 3297000    0.7137977   -7.6188975    780.43428  0.019725869  0.019297985            4 
 3298000   0.72291307   -7.6254675    782.07087  0.019761241  0.019292202           13 
 3299000   0.71992782    -7.608032    781.50233  0.019740889  0.019286414            3 
 3300000   0.71475868   -7.5964439    780.92257  0.019720267  0.019280651            3 
 3301000   0.71893275   -7.6121033    780.95949  0.019715225  0.019274877           15 
 3302000   0.72048676   -7.6207465    780.19476  0.019689955  0.019269094            3 
 3303000   0.72033929    -7.638323    780.80536  0.019699398  0.019263299            7 
 3304000   0.73445052   -7.6231226    781.10003  0.019700868  0.019257507            7 
 3305000    0.7187742   -7.6201571    779.83928  0.019663119  0.019251711            2 
 3306000   0.71894125   -7.6433596    781.84176  0.019707647  0.019245905            8 
 3307000   0.72960225   -7.6252478    780.26651  0.019661993  0.019240127            4 
 3308000   0.72770459   -7.6088647    782.44954  0.019711042  0.019234353            4 
 3309000   0.72780764    -7.563405    782.73444   0.01971226  0.019228606            7 
 3310000   0.72448599   -7.5953097    782.33468  0.019696241  0.019222871            8 
 3311000   0.72042316   -7.6188518    782.85957  0.019703503  0.019217107            6 
 3312000   0.71172915    -7.622349    781.73287  0.019669205  0.019211339            4 
 3313000   0.71578486   -7.6394395    781.54199  0.019658466  0.019205562            5 
 3314000   0.74282906   -7.6335692      781.726  0.019657162  0.019199786            8 
 3315000   0.71891936   -7.6420299    780.47302  0.019619734  0.019193989            4 
 3316000   0.71537919   -7.6113391    781.57768  0.019641578  0.019188189            7 
 3317000     0.691921   -7.6043598    783.40917   0.01968167  0.019182407            3 
 3318000   0.71433573   -7.6133579    781.05901  0.019616712  0.019176635            4 
 3319000   0.72037554   -7.6408455    781.72438  0.019627508  0.019170863            6 
 3320000   0.71968734   -7.6237308    782.47178  0.019640356   0.01916509            4 
 3321000   0.70824412    -7.642732    780.89884  0.019594972  0.019159282            3 
 3322000   0.71657106   -7.6322435     781.9178  0.019614635  0.019153476            5 
 3323000   0.72478606   -7.6365786    779.63591  0.019551507  0.019147675            4 
 3324000   0.71364509   -7.6349337    781.33214   0.01958815   0.01914188            4 
 3325000   0.73541827   -7.6402211      781.653  0.019590301  0.019136091            3 
 3326000   0.72935751   -7.6609928     780.8497  0.019564284  0.019130299            4 
 3327000   0.71635562   -7.6555007    781.54142  0.019575729  0.019124514            7 
 3328000   0.71767395   -7.6510834    779.49616  0.019518634  0.019118721            4 
 3329000   0.71536713   -7.6297269    781.42877  0.019561149  0.019112927            2 
 3330000   0.71471359   -7.6459553     781.8451  0.019565693  0.019107149            4 
 3331000   0.71473533    -7.636775    782.68173   0.01958075  0.019101361            2 
 3332000   0.71457137   -7.6520005      781.446  0.019543968  0.019095575            7 
 3333000   0.70902697   -7.6151504    780.59104  0.019516728  0.019089762            5 
 3334000   0.70188326   -7.6436262    779.53436  0.019484462  0.019083947            4 
 3335000   0.73172496   -7.6480562    781.08595   0.01951739  0.019078131            4 
 3336000   0.71641031   -7.6305551    780.95952  0.019508381  0.019072334            4 
 3337000   0.71715189   -7.6616355    780.94153  0.019502086  0.019066539            5 
 3338000   0.70860612   -7.6744966    783.09967  0.019550122  0.019060737            6 
 3339000   0.72452686    -7.631459    781.98667  0.019516489  0.019054961            4 
 3340000   0.71994809   -7.6001246     781.4027  0.019496075  0.019049186            8 
 3341000   0.72027588   -7.6248643    781.06026  0.019481699  0.019043424            8 
 3342000   0.71957136   -7.6473166     780.4965  0.019461812  0.019037647            5 
 3343000   0.71705279   -7.6243357    783.37187  0.019527667  0.019031878            4 
 3344000   0.72066973   -7.6249039    783.34949  0.019521269  0.019026118            5 
 3345000   0.69621829   -7.6279851    783.31373  0.019514542  0.019020368            4 
 3346000   0.71297978   -7.6176279     781.7848  0.019470632  0.019014612            5 
 3347000   0.71797241    -7.637166    782.77205  0.019489395   0.01900887            5 
 3348000   0.71587434   -7.6412801    782.57219  0.019478599  0.019003125            9 
 3349000   0.72976496   -7.6229854    782.37113   0.01946778  0.018997392            4 
 3350000   0.71148932   -7.6440166    782.21379  0.019458054  0.018991635            4 
 3351000   0.71009941   -7.6563001    782.12779  0.019450109  0.018985878            8 
 3352000   0.70146278   -7.6381939    781.25971  0.019422725  0.018980122            6 
 3353000   0.70209739   -7.6457039     782.5583  0.019449207  0.018974379            5 
 3354000   0.69563591   -7.6384067    780.90634  0.019402364  0.018968618            5 
 3355000   0.71947557   -7.5988348    782.01926  0.019424224  0.018962883            6 
 3356000    0.7030393   -7.6167384    781.95659   0.01941688  0.018957133            7 
 3357000   0.72309864   -7.6419832    783.17814  0.019441419  0.018951401           11 
 3358000   0.71208944   -7.6429668    781.69122   0.01939873   0.01894566            4 
 3359000   0.73273503    -7.639084    783.82291   0.01944584  0.018939919            3 
 3360000   0.71662166   -7.6270037     782.5643  0.019408837  0.018934181           14 
 3361000    0.7100198   -7.6188341     782.0008   0.01938909  0.018928441           10 
 3362000   0.73052255   -7.6270243    784.11901  0.019435827  0.018922704           16 
 3363000   0.69989642   -7.6434284    782.00561  0.019377679  0.018916956            7 
 3364000   0.70365573   -7.6642191    782.83315  0.019392419  0.018911195           14 
 3365000   0.72520029   -7.6553822    782.27921  0.019372937  0.018905417            7 
 3366000   0.71657974   -7.6550214    780.99422  0.019335369  0.018899653            9 
 3367000   0.70792024   -7.6472661    781.40846  0.019339879  0.018893889           10 
 3368000    0.7064645   -7.6635663    780.35788  0.019308142  0.018888113           16 
 3369000   0.72685745   -7.6463204    782.93725  0.019366213  0.018882322            5 
 3370000   0.71999813   -7.6484487    780.53309  0.019301016  0.018876537            5 
 3371000   0.71144128   -7.6645686    782.70514  0.019348985  0.018870768            8 
 3372000   0.70305407   -7.6484009    780.33681  0.019284717  0.018865002            5 
 3373000   0.71583073   -7.6372108    782.57162  0.019334213  0.018859241           10 
 3374000   0.71140987   -7.6578619    781.46105  0.019301053  0.018853475            6 
 3375000   0.69978084   -7.6550477    782.85323  0.019329709    0.0188477            4 
 3376000   0.70903092   -7.6470322     781.3258  0.019286281  0.018841944            7 
 3377000   0.72130656   -7.6514231    782.61927  0.019312488  0.018836177            4 
 3378000   0.71802833    -7.623274    782.11417   0.01929431   0.01883042            8 
 3379000   0.70377257   -7.6485766    781.84269  0.019281905  0.018824687            6 
 3380000   0.70495663   -7.6144603    782.08116   0.01928208  0.018818941            7 
 3381000   0.69949598   -7.6377757    781.87261  0.019271237  0.018813209            4 
 3382000   0.72158433   -7.6426773    781.02971  0.019244769  0.018807457            4 
 3383000    0.7075666   -7.6263925    782.17159  0.019267208  0.018801701           16 
 3384000   0.69172011    -7.642529    783.20236  0.019286898  0.018795956            9 
 3385000   0.70673105   -7.6528154    782.41316  0.019261772  0.018790222            5 
 3386000   0.68696128   -7.6354354    780.69221  0.019213728  0.018784476            7 
 3387000   0.71747461   -7.6293218    782.44251   0.01925112  0.018778737            2 
 3388000   0.71181246   -7.6391385    781.86924  0.019231337  0.018772997            4 
 3389000   0.69930684   -7.6713175    783.73648  0.019271577  0.018767244            6 
 3390000   0.71516872   -7.6379496    782.72358  0.019240993  0.018761516            3 
 3391000   0.69527714   -7.6453534    782.19519  0.019222333  0.018755804            7 
 3392000    0.7189667   -7.6548265     782.6745  0.019228442  0.018750078            3 
 3393000   0.70222356    -7.644865    782.16518  0.019210266  0.018744341            6 
 3394000   0.71252173   -7.6353644    781.30182  0.019183408  0.018738615            8 
 3395000    0.7066401   -7.6481477    782.71721  0.019212499  0.018732876            3 
 3396000   0.70603422   -7.6300874    782.00755  0.019189427  0.018727143            5 
 3397000   0.71212377    -7.649328    783.54995  0.019221616  0.018721422            4 
 3398000   0.71163357   -7.6554979    782.01326  0.019178273  0.018715705            5 
 3399000   0.71143189   -7.6660078    782.26714  0.019178855  0.018709984            4 
 3400000   0.70166417    -7.663252    780.57546  0.019131751   0.01870425            3 
 3401000   0.70546652   -7.6535148    783.46731  0.019196984  0.018698522            8 
 3402000    0.7106095   -7.6739894    782.22065  0.019160804  0.018692793            8 
 3403000   0.70932638   -7.6695774    783.52001  0.019186992  0.018687062            6 
 3404000   0.71864571   -7.6502392    782.10308  0.019146668  0.018681321            6 
 3405000   0.71538264     -7.64326    782.22707  0.019144079  0.018675587            7 
 3406000   0.69746761   -7.6310414    782.37129  0.019141987  0.018669856            4 
 3407000   0.70656866   -7.6579726    783.01595  0.019152137  0.018664133            3 
 3408000    0.7200609   -7.6556924    781.73764  0.019115259  0.018658434            5 
 3409000     0.713363    -7.638075    783.79359   0.01915991  0.018652741            8 
 3410000   0.71427384   -7.6476671    782.52909  0.019123389  0.018647046            7 
 3411000   0.71187533   -7.6565786    780.81611  0.019075934  0.018641342           11 
 3412000   0.70041209   -7.6399215    781.84511  0.019095474  0.018635649            7 
 3413000   0.70291716   -7.6349211    780.21308  0.019050031  0.018629935            2 
 3414000   0.70689345   -7.6527105    782.34174   0.01909641  0.018624227            4 
 3415000   0.71471349   -7.6695991    783.70387  0.019124057  0.018618524            9 
 3416000   0.69250608   -7.6677633    783.60436  0.019116031  0.018612821            6 
 3417000   0.71557934   -7.6437941     783.2925  0.019102831  0.018607107            4 
 3418000   0.71244842   -7.6478927    782.96207  0.019089186  0.018601402            3 
 3419000   0.72066371   -7.6668058    782.25324  0.019066326  0.018595683            7 
 3420000   0.70429299   -7.6888318      781.643  0.019045882   0.01858997            6 
 3421000   0.71551323   -7.6371493    782.83518  0.019069356  0.018584249            7 
 3422000   0.69904942   -7.6612503    782.16241  0.019047399  0.018578515            8 
 3423000   0.70018798   -7.6441212    782.93194  0.019060569  0.018572802            7 
 3424000   0.70333209   -7.6280295    783.01971  0.019057139  0.018567094            5 
 3425000   0.71136299   -7.6566885    782.60331  0.019041443  0.018561384            9 
 3426000   0.71983743   -7.6496029    782.34492    0.0190296  0.018555692            4 
 3427000   0.70044815   -7.6781175    782.47704   0.01902726  0.018549995            6 
 3428000   0.70328628   -7.6407112    783.14932  0.019038052  0.018544291            7 
 3429000    0.7051473   -7.6765701    782.52452  0.019017316  0.018538573            6 
 3430000   0.70108661   -7.6361377      781.909  0.018996817  0.018532866            5 
 3431000   0.69042063   -7.6526638    783.49293  0.019029752  0.018527157            8 
 3432000   0.70361481   -7.6846808    782.95261  0.019011087  0.018521446            3 
 3433000    0.6961738   -7.6531036    781.90808  0.018980194  0.018515738            7 
 3434000   0.71145631   -7.6355511    782.25734  0.018983143  0.018510046            5 
 3435000    0.7039711   -7.6806495    781.74146  0.018965101   0.01850435            5 
 3436000    0.6941051   -7.7020978    781.73248  0.018959364  0.018498644            4 
 3437000   0.70183708   -7.6539843    782.45964  0.018971478  0.018492946            6 
 3438000   0.70162486   -7.6934193    782.79494  0.018974087  0.018487235            4 
 3439000    0.7037526   -7.6648628    784.16073  0.019001665  0.018481523            4 
 3440000   0.69745041   -7.6897737    784.04111  0.018993244  0.018475803            4 
 3441000    0.7055603   -7.6592285    783.10255  0.018964995  0.018470088            5 
 3442000    0.6938993   -7.6715164    782.15876  0.018936635  0.018464381            5 
 3443000   0.69504679   -7.6714466    781.84159  0.018923458   0.01845868            8 
 3444000   0.70261828   -7.6842425    784.90469   0.01899208  0.018452977            4 
 3445000   0.69300923   -7.6598414    784.26675  0.018971136  0.018447304           12 
 3446000   0.69246477   -7.6815518      783.887  0.018956447  0.018441619            4 
 3447000   0.70180435   -7.6813721     781.4153  0.018891193  0.018435908            6 
 3448000   0.70452883   -7.6734526    782.52942  0.018912641  0.018430187            5 
 3449000   0.70310733   -7.6870144    782.38555  0.018903681   0.01842447            4 
 3450000   0.70820993     -7.71019    781.20395  0.018869661  0.018418738            4 
 3451000   0.70573923   -7.7017169    781.93107  0.018881751  0.018413028            3 
 3452000   0.70312423    -7.674147     782.1129  0.018880671  0.018407334            9 
 3453000   0.71106331    -7.723004    781.66873  0.018864483   0.01840163            5 
 3454000    0.7054632   -7.6932139    783.39934  0.018900775  0.018395932            6 
 3455000    0.7056634   -7.6844212    783.07744  0.018887541  0.018390263            5 
 3456000   0.72228628   -7.6895785    783.67349  0.018896448   0.01838459            4 
 3457000   0.71163631   -7.6727881     781.4501  0.018837386  0.018378916            3 
 3458000   0.71182155   -7.7228088    782.50704  0.018857409  0.018373221            5 
 3459000   0.70592342   -7.6883691    782.97858  0.018863317  0.018367552            5 
 3460000   0.69026762   -7.6733484     782.9307  0.018856712  0.018361882            6 
 3461000   0.70866705   -7.6804297    783.41273   0.01886287  0.018356201            6 
 3462000   0.71229769   -7.6765896    783.18642  0.018851974  0.018350539            4 
 3463000   0.70270088   -7.6780447    785.20835  0.018895186  0.018344878            5 
 3464000   0.69649666    -7.692476    782.45402   0.01882347  0.018339239            3 
 3465000   0.69032435   -7.6869808    782.25628  0.018813282  0.018333601            6 
 3466000   0.70450438   -7.7067543    782.94497  0.018824413  0.018327944            7 
 3467000   0.69126419   -7.6814724    783.45779  0.018831309  0.018322317            4 
 3468000   0.69535083   -7.6647017    783.93488  0.018837343  0.018316702           11 
 3469000   0.69443934    -7.676665    784.77763  0.018852158  0.018311092            5 
 3470000   0.67160982   -7.6623401    783.64336  0.018819485  0.018305486            5 
 3471000   0.70696358    -7.678284    784.77452  0.018841221  0.018299876            5 
 3472000   0.70454764   -7.6751795    783.16374  0.018797133  0.018294285            7 
 3473000   0.69439077   -7.6510397    784.78095  0.018830525  0.018288684            5 
 3474000   0.69600166   -7.6513942    784.53023   0.01881909  0.018283088            4 
 3475000   0.70002088   -7.6533026    785.12588  0.018827959  0.018277495            6 
 3476000   0.69800212    -7.674064    784.00333   0.01879563  0.018271888            6 
 3477000   0.69048973   -7.7088435    783.77091  0.018784654  0.018266273           13 
 3478000   0.69208625   -7.6827058    783.67999  0.018777075  0.018260648           14 
 3479000   0.69848902   -7.6825751    784.05764  0.018780723   0.01825503           11 
 3480000   0.69962289   -7.6815041    783.59158  0.018764166  0.018249403            8 
 3481000   0.69820024     -7.70247    784.96265  0.018791598  0.018243802            9 
 3482000   0.67788292   -7.6996776    785.32885  0.018794966  0.018238182            7 
 3483000   0.68373632   -7.6907624    784.79895  0.018776891  0.018232571            8 
 3484000   0.69376361   -7.6620131    783.43329  0.018738837  0.018226966            6 
 3485000    0.6875432   -7.6622167    783.80143  0.018742263   0.01822136            3 
 3486000   0.70599463   -7.6655818    782.62191   0.01870869   0.01821574            4 
 3487000   0.68183132   -7.6813649    783.02086  0.018712859  0.018210126            5 
 3488000   0.68933233   -7.6812228    784.10707  0.018733445  0.018204531            7 
 3489000   0.69878911   -7.6753057    785.36765  0.018758184  0.018198946            5 
 3490000   0.69682918   -7.6834908    783.91543  0.018718134  0.018193342            3 
 3491000   0.69667034   -7.6736296    784.72766   0.01873216  0.018187737            5 
 3492000   0.69168887   -7.6803827    783.24321  0.018691371  0.018182124            7 
 3493000   0.68796497   -7.6814297    784.97395  0.018727311  0.018176504            6 
 3494000   0.69464128   -7.6843541    782.95378  0.018673769   0.01817087            6 
 3495000   0.69027669    -7.673001    783.93362  0.018691789   0.01816526           13 
 3496000   0.69837815   -7.6907865    782.65731  0.018656019  0.018159645           10 
 3497000   0.68932898   -7.6721684    783.82809  0.018678584  0.018154028           10 
 3498000   0.68440356   -7.6819085    782.04358  0.018630731  0.018148414            9 
 3499000   0.68164404   -7.7061215    783.07221  0.018649905  0.018142815            3 
 3500000   0.69215187   -7.6915797    782.87865  0.018639968  0.018137192            4 
 3501000   0.69140098   -7.7384303    783.14648  0.018641019   0.01813154            6 
 3502000   0.70402777   -7.7087923    782.46727  0.018619533  0.018125889            5 
 3503000   0.70497466   -7.7188306    783.71682  0.018643944  0.018120249            5 
 3504000   0.70320486   -7.7131073    781.88755  0.018595119  0.018114611            8 
 3505000   0.69416862   -7.6705994    784.33594  0.018648025  0.018108991            4 
 3506000    0.6870043   -7.7144797    783.43005  0.018621174  0.018103373            3 
 3507000   0.68369388   -7.7379595    785.55725  0.018666411  0.018097744            3 
 3508000   0.68061683   -7.7243982     781.5131   0.01856502  0.018092103           18 
 3509000    0.6855561   -7.7122644    784.72439  0.018635993  0.018086473            5 
 3510000   0.67569167    -7.729785       784.15  0.018617047  0.018080841            4 
 3511000    0.6822101    -7.687742    783.20424  0.018589297  0.018075205            4 
 3512000   0.69034838   -7.7134662    783.40058  0.018588662  0.018069566            4 
 3513000   0.68549114    -7.735655    782.04357  0.018551181  0.018063947            6 
 3514000   0.68235719   -7.6997658    784.67158  0.018608224  0.018058329            7 
 3515000   0.68529596   -7.6888857    782.93336   0.01856172  0.018052721            5 
 3516000   0.67827738   -7.7030683    783.26726  0.018564355    0.0180471            4 
 3517000   0.69837708   -7.7170405    782.41116  0.018538791   0.01804148            8 
 3518000   0.67467606   -7.6920874    782.55945  0.018537035  0.018035865            4 
 3519000   0.70423165   -7.7035348    784.63403  0.018580895  0.018030256            3 
 3520000   0.69488865   -7.7184828     782.3215  0.018520869  0.018024644            5 
 3521000   0.69659582   -7.6990961    783.48094   0.01854305  0.018019022            6 
 3522000    0.6737246   -7.7187392    783.91158  0.018547974  0.018013409            6 
 3523000   0.69759637   -7.7167088    784.96988  0.018567742  0.018007829            4 
 3524000   0.70781594    -7.684451    784.14082  0.018542868  0.018002245            5 
 3525000   0.68360705   -7.7109583     785.3977  0.018567322  0.017996667            7 
 3526000   0.69474533    -7.690352    784.28556  0.018535771  0.017991096            2 
 3527000   0.69398982   -7.7161891    784.63796  0.018538842  0.017985531            6 
 3528000   0.68119891   -7.7137973    785.64065  0.018557272  0.017979967            7 
 3529000   0.67798363   -7.7201483    783.51974   0.01850193  0.017974402            5 
 3530000   0.68722486   -7.7022758    785.69083  0.018547942  0.017968851            6 
 3531000   0.69022868   -7.6834914      784.945  0.018525087  0.017963312            5 
 3532000   0.69989816   -7.6964638    785.41975  0.018531044  0.017957773            3 
 3533000   0.69082929   -7.7115096    785.90513  0.018537247  0.017952241            6 
 3534000   0.69569647   -7.6861152    785.00582  0.018510795  0.017946705            8 
 3535000   0.69572114   -7.6988262    785.73725  0.018522802  0.017941168            8 
 3536000   0.67711473   -7.6929561    784.36282  0.018485172  0.017935621            9 
 3537000   0.68094609   -7.7359083    784.15311  0.018475005  0.017930075            5 
 3538000   0.67608851   -7.7238929     785.2723  0.018496144  0.017924531           12 
 3539000   0.68455335   -7.6941822     785.7214  0.018501493  0.017918991            8 
 3540000   0.69459382   -7.7122018     784.8427  0.018475581  0.017913462           10 
 3541000   0.69305842   -7.7103464    784.96617  0.018473269  0.017907916           19 
 3542000   0.68939737   -7.7102199    783.86146  0.018442063  0.017902372            9 
 3543000   0.68136985   -7.7185418    785.35449  0.018471975  0.017896825            9 
 3544000   0.68762888   -7.7296129      785.258  0.018464494  0.017891277            4 
 3545000   0.67739222   -7.7328792    785.11054  0.018455819  0.017885725            4 
 3546000   0.71097937   -7.7207607    782.58825  0.018391339  0.017880179            8 
 3547000   0.69577551   -7.7033114    784.86454  0.018439633  0.017874633            8 
 3548000   0.66828089   -7.7086354    784.58868  0.018427957  0.017869084            5 
 3549000   0.68170727   -7.6987058    783.14869  0.018388952  0.017863528            3 
 3550000   0.68965491   -7.7040391    787.36822  0.018482822  0.017857985            5 
 3551000   0.67809371   -7.7394698    783.14637  0.018378541  0.017852433            4 
 3552000   0.67953364   -7.7207104    784.77914  0.018411673  0.017846888            8 
 3553000   0.67992017   -7.7060268    784.59998  0.018402289  0.017841351            3 
 3554000   0.68142929   -7.7282324    785.71409  0.018423234  0.017835831            7 
 3555000   0.68240831   -7.7032899    784.84594  0.018397701  0.017830312            5 
 3556000   0.67946449   -7.7292814    784.73687  0.018389972  0.017824772            5 
 3557000   0.67456026    -7.719259    784.71444  0.018384276  0.017819223            6 
 3558000    0.6796562   -7.7296164    784.68694  0.018378465  0.017813683            5 
 3559000   0.67515015   -7.7097653     784.0938  0.018359413  0.017808149            5 
 3560000    0.6854185   -7.7115693    784.13704  0.018355268  0.017802622            5 
 3561000   0.69752521   -7.7015598     785.9141    0.0183917  0.017797101            4 
 3562000   0.68978085   -7.7205195    784.07717  0.018343561  0.017791555           10 
 3563000   0.68906795   -7.7214748    784.86434  0.018356823   0.01778603           10 
 3564000   0.67338301   -7.7680509    784.80774  0.018350349  0.017780512            6 
 3565000   0.68065824   -7.7158559    785.97452  0.018372476  0.017774991            7 
 3566000   0.68954292   -7.7122161    785.09834  0.018346848   0.01776949            8 
 3567000   0.67842779   -7.7404811    786.01982  0.018363233   0.01776397            4 
 3568000   0.67914998   -7.7234179    784.16305   0.01831472  0.017758448            3 
 3569000   0.68578703   -7.7241459      784.177  0.018309914  0.017752934            6 
 3570000   0.68495723   -7.7200619    785.69833  0.018340297  0.017747442            7 
 3571000   0.68407449   -7.7252395     783.4094  0.018281746  0.017741936            6 
 3572000   0.68575284   -7.7397661    784.03055   0.01829112  0.017736429            4 
 3573000   0.67849458   -7.7435081    784.15972  0.018289013  0.017730901           10 
 3574000   0.68682567   -7.7254441    783.34341  0.018264862  0.017725382            7 
 3575000   0.69250128   -7.7312341    783.92114   0.01827322  0.017719871            3 
 3576000   0.67485472   -7.7160073     784.4279  0.018279919  0.017714355           10 
 3577000   0.67932463   -7.7152797     786.2591   0.01831747  0.017708837            9 
 3578000   0.68343228    -7.713835    786.16963  0.018310267  0.017703336            3 
 3579000    0.6764454   -7.7186097    785.37852  0.018286731  0.017697837            4 
 3580000   0.69173831   -7.7136418    785.65476  0.018288053  0.017692349            6 
 3581000   0.66888837   -7.7114979    785.22531  0.018272952  0.017686863            9 
 3582000   0.66296624   -7.7301847    785.01894   0.01826305  0.017681356            8 
 3583000   0.68590087   -7.7257316    784.55385  0.018247136  0.017675852            5 
 3584000   0.68501465   -7.7358693     784.2426  0.018234808  0.017670357            9 
 3585000   0.66855151   -7.7363557    784.40557  0.018233509  0.017664858           25 
 3586000   0.69397255    -7.740858    783.67787  0.018211514  0.017659371            3 
 3587000   0.67348048   -7.7127198    785.82315  0.018256276  0.017653894           10 
 3588000   0.68163875   -7.7428419    786.48613  0.018266586  0.017648417           11 
 3589000   0.69086433   -7.7143352    786.26747  0.018256419  0.017642945           13 
 3590000   0.68510499    -7.735949    785.76044  0.018239564  0.017637473            6 
 3591000   0.68076017   -7.7151216    787.14448  0.018266604  0.017632008            4 
 3592000   0.67932601   -7.7437688    785.63672  0.018226539  0.017626542            5 
 3593000   0.66693798   -7.7314954    785.16726  0.018210577  0.017621063           11 
 3594000   0.67487716   -7.7229167    786.35927  0.018233149  0.017615579           11 
 3595000   0.67084832   -7.7287972    785.86269  0.018216567  0.017610114           17 
 3596000   0.68917399   -7.7419628    785.33973  0.018199382  0.017604661           11 
 3597000   0.67657396   -7.7266707    785.60621  0.018200496  0.017599204           16 
 3598000   0.67888615   -7.7268028    784.71617  0.018174823  0.017593739            8 
 3599000   0.68504361   -7.7334087    784.86452  0.018173208  0.017588266            4 
 3600000    0.6640012   -7.7146577     786.4577  0.018205039  0.017582799           10 
 3601000   0.67322868    -7.729313    784.99229  0.018166072   0.01757733            7 
 3602000   0.67150935   -7.7255858    786.91738  0.018205566  0.017571879            6 
 3603000   0.66733553   -7.7155304    785.72035  0.018172827  0.017566427            8 
 3604000   0.67500893   -7.7224062    785.62549  0.018165591  0.017560968            6 
 3605000    0.6633344   -7.7243692    786.19917  0.018173813   0.01755553            8 
 3606000   0.66640188   -7.6983546    786.66324  0.018179498   0.01755009            6 
 3607000   0.68245282   -7.7232137     785.2722  0.018142321  0.017544644            5 
 3608000   0.69024407   -7.7122071    786.31671  0.018161417    0.0175392            9 
 3609000   0.68741067   -7.7210771    786.37122  0.018157643  0.017533747            5 
 3610000   0.67653045   -7.7410489    784.90364  0.018118736  0.017528291            9 
 3611000   0.67429602   -7.7252802    785.81088  0.018134655  0.017522837           12 
 3612000   0.67515276   -7.7341601    786.23446  0.018139407  0.017517394            6 
 3613000   0.66617661   -7.7239215    787.29623  0.018158876  0.017511972            8 
 3614000    0.6605077   -7.7323869    785.92886  0.018122322  0.017506547           10 
 3615000   0.67042828   -7.7422721    784.64678  0.018087754   0.01750112           10 
 3616000   0.67854832   -7.7227552    785.78859  0.018109066  0.017495687            8 
 3617000   0.67839546    -7.740693    785.77642  0.018103779  0.017490235            7 
 3618000   0.68138456    -7.735757    786.17815  0.018108028  0.017484787            7 
 3619000   0.66683574   -7.7513083    784.87684   0.01807306   0.01747935            4 
 3620000   0.66890791   -7.7393015    784.44173  0.018058051   0.01747391            9 
 3621000    0.6631387   -7.7447155    785.33717  0.018073671  0.017468459            7 
 3622000   0.65860421   -7.7318549    786.07581  0.018085676  0.017463008            9 
 3623000   0.68393697   -7.7317642    784.27605  0.018039287   0.01745756            5 
 3624000   0.66710376   -7.7273374    785.13366   0.01805403   0.01745212            6 
 3625000   0.67352134   -7.7867515    785.16294  0.018049723  0.017446668            6 
 3626000   0.67146293   -7.7493336    786.14943  0.018067417  0.017441225            4 
 3627000   0.67034051   -7.7495816    785.82359  0.018054949  0.017435788            5 
 3628000   0.66336418   -7.7243884    785.82752  0.018050063  0.017430348            6 
 3629000   0.67574319   -7.7396903    786.96558  0.018071222  0.017424918            5 
 3630000   0.66776588   -7.7520325    784.63445  0.018012728  0.017419465            6 
 3631000   0.66518961   -7.7371858    785.62373  0.018030472  0.017414011            6 
 3632000   0.66896597   -7.7376924    785.08409  0.018013126  0.017408559            8 
 3633000   0.66481421   -7.7265919    783.69478    0.0179763  0.017403112           11 
 3634000   0.67377558    -7.730095    785.13679  0.018004421  0.017397675            4 
 3635000   0.67143655    -7.758604    785.50363  0.018007878  0.017392243            5 
 3636000   0.67899052   -7.7484692    783.13641  0.017948671  0.017386809           13 
 3637000   0.65675828   -7.7719567    784.05034  0.017964676   0.01738137            8 
 3638000   0.64516283   -7.7624775    785.49947  0.017992933  0.017375916            8 
 3639000    0.6687691   -7.7616729    783.29052  0.017937403  0.017370471            7 
 3640000   0.66915851   -7.7412471     785.2977  0.017978427  0.017365023            6 
 3641000   0.67769782   -7.7638997    784.58685   0.01795722  0.017359573           13 
 3642000   0.66066183   -7.7630253    785.27707  0.017968082  0.017354128            5 
 3643000    0.6866836   -7.7367257    786.38092  0.017988401  0.017348688            5 
 3644000   0.65918633   -7.7544018    783.68799   0.01792188  0.017343264            6 
 3645000   0.67112011   -7.7505213    785.51511  0.017958736  0.017337827           12 
 3646000   0.65998737   -7.7737368    784.70887  0.017935383   0.01733239            4 
 3647000   0.66414393   -7.7743867    783.42916  0.017901224  0.017326949            8 
 3648000   0.66436831    -7.753686     785.7692  0.017949771  0.017321508            4 
 3649000   0.66730164   -7.7590794    785.34913  0.017935259  0.017316073            9 
 3650000   0.67978301   -7.7599453    786.05612  0.017946487  0.017310632            6 
 3651000   0.66538514   -7.7712961    783.77694  0.017889549  0.017305196            3 
 3652000   0.66519729   -7.7740624    783.74114  0.017883834  0.017299752            3 
 3653000   0.67261919   -7.7583025     784.8603  0.017904469   0.01729431            5 
 3654000   0.67588189   -7.7554633    786.12351  0.017928378  0.017288875            3 
 3655000   0.65752468   -7.7874701    785.31461   0.01790503  0.017283436            6 
 3656000   0.65421504   -7.7862476    784.32044  0.017877472  0.017277989            3 
 3657000   0.66162629   -7.7610515    783.90389  0.017863091  0.017272555            5 
 3658000   0.66505973   -7.7577502    785.06301  0.017884614  0.017267118            3 
 3659000   0.66110472   -7.7462719     784.0216  0.017856008  0.017261681            5 
 3660000   0.66493459   -7.7527136    782.88632   0.01782528   0.01725624            5 
 3661000   0.68128494   -7.7658834    784.31334  0.017852894  0.017250789            4 
 3662000   0.66581616   -7.7663414    783.87451  0.017838033  0.017245356           14 
 3663000   0.67994593   -7.7840539    784.17987   0.01784011    0.0172399            5 
 3664000   0.66418348   -7.7779716    783.96235  0.017830294  0.017234444            7 
 3665000   0.67461816   -7.7675401    782.89518  0.017801164  0.017228987            4 
 3666000   0.66361992   -7.7838277    783.97369  0.017820824   0.01722355            6 
 3667000   0.67273657   -7.7813562    785.19011  0.017843608  0.017218114            6 
 3668000   0.65906196   -7.7669907    785.43813  0.017844378  0.017212677            4 
 3669000   0.66265873   -7.7822735    783.70736  0.017800204  0.017207248            7 
 3670000   0.67433416   -7.7651749    783.98633  0.017801688  0.017201816            4 
 3671000   0.66192328   -7.7687388    783.22645  0.017779589   0.01719637            7 
 3672000   0.66528259   -7.7818001     783.6383  0.017784094  0.017190906            6 
 3673000   0.64415747   -7.7656338    786.25201  0.017838552  0.017185458            9 
 3674000   0.66034505   -7.7889653    784.12123  0.017785366  0.017179998            7 
 3675000   0.64182681   -7.7937446    784.68379  0.017793283  0.017174539            8 
 3676000   0.66087778   -7.7850665    783.12231  0.017753045  0.017169072            8 
 3677000   0.66746498   -7.7844142    783.37826  0.017754017  0.017163627            8 
 3678000   0.65187105   -7.7638941    784.28478  0.017769729  0.017158189            8 
 3679000   0.66466114   -7.8014525    782.88887  0.017733281  0.017152751           10 
 3680000   0.66725992   -7.7637407    786.91301  0.017819588  0.017147328            4 
 3681000   0.66473711   -7.7730197    783.21089  0.017730936   0.01714191            5 
 3682000   0.67336845   -7.7675259    785.16371  0.017770318  0.017136489            7 
 3683000   0.65330052   -7.7927526    783.66179  0.017731509  0.017131071           11 
 3684000   0.67488707   -7.7763557    784.26592  0.017740362  0.017125645           13 
 3685000   0.63897607   -7.7925451    783.12482  0.017709743  0.017120239            9 
 3686000   0.67140079   -7.7882286    783.58238  0.017715283  0.017114821            4 
 3687000   0.67014366   -7.7504062    785.41005  0.017751787  0.017109412            9 
 3688000   0.65157726   -7.7671563     785.1075  0.017740137  0.017104027            7 
 3689000   0.65399778    -7.778881    783.19435  0.017692111  0.017098623           13 
 3690000   0.66718444   -7.7981282    784.31493  0.017712623  0.017093205           11 
 3691000   0.64629442   -7.7631987    783.34641  0.017685957  0.017087789            8 
 3692000   0.65981974   -7.7855474    782.52818  0.017662698  0.017082378           10 
 3693000   0.66507734   -7.7794089    782.08089  0.017647822  0.017076958           13 
 3694000   0.65111629   -7.7946991    784.36387  0.017694547  0.017071537            9 
 3695000    0.6527168   -7.7934899    783.95185  0.017680466  0.017066122            6 
 3696000    0.6748412   -7.7869731    783.84234  0.017673213   0.01706071            7 
 3697000   0.66247281   -7.7831413    783.93329  0.017670483  0.017055308            9 
 3698000   0.65264585   -7.7790622    785.39398   0.01769862  0.017049902           15 
 3699000   0.65541664   -7.8039754    783.50573  0.017651296  0.017044497           15 
 3700000   0.67510156   -7.7869848    783.68781  0.017650626  0.017039086           15 
 3701000   0.64211851   -7.7594922    784.08501  0.017654801  0.017033679           10 
 3702000   0.67617722   -7.7969049    784.38963  0.017656889   0.01702827           10 
 3703000   0.66603167   -7.7781952    783.38051  0.017629411  0.017022866            7 
 3704000   0.66334939   -7.8097529    784.19678  0.017643016  0.017017451           12 
 3705000   0.66788443   -7.7847487    786.00338  0.017678888  0.017012058            8 
 3706000    0.6707903   -7.7964528    783.56285   0.01761924   0.01700667            7 
 3707000    0.6541027   -7.7708826    786.31206  0.017676289  0.017001313            8 
 3708000   0.65030051   -7.7560522    785.29421  0.017648647  0.016995946            9 
 3709000   0.66915288   -7.7999466    783.59527  0.017605718  0.016990576           21 
 3710000   0.64006737   -7.7821073    784.14808  0.017613389  0.016985201           10 
 3711000   0.65867336   -7.7988787    784.10907  0.017607767   0.01697982            8 
 3712000   0.66870781   -7.7886381    785.27406  0.017629177  0.016974456           17 
 3713000   0.66135835   -7.7675766    784.40628  0.017604953  0.016969092            7 
 3714000   0.65109735   -7.7831524    784.35194  0.017598993  0.016963722            7 
 3715000   0.66489582   -7.7757939    785.55756    0.0176213  0.016958348            8 
 3716000   0.67462202   -7.7624346    786.23985  0.017631859  0.016952997            3 
 3717000   0.65988941   -7.7904409     784.8266  0.017595431  0.016947651            5 
 3718000   0.64614207   -7.7700145    785.69496  0.017610161   0.01694231            7 
 3719000    0.6459266   -7.7866693    786.24137   0.01761767  0.016936964            7 
 3720000    0.6550693   -7.8008784    785.02108  0.017585598  0.016931605            6 
 3721000   0.67360569   -7.8107833    785.48725  0.017591312  0.016926255            6 
 3722000   0.66916671   -7.7864236    784.22547  0.017558335  0.016920889            7 
 3723000   0.64317881   -7.7790531    785.17959  0.017574975  0.016915527           11 
 3724000   0.65504214   -7.7572898    785.09423  0.017568346  0.016910167            7 
 3725000   0.64160322   -7.7866906    782.58263  0.017507441  0.016904799            4 
 3726000   0.65047162   -7.7798249    783.56043  0.017524612  0.016899437            5 
 3727000    0.6543734   -7.7804933    785.13946  0.017555216  0.016894077            6 
 3728000   0.64200802   -7.8051801    784.68272  0.017540297  0.016888716           11 
 3729000   0.65704574   -7.7769246    785.34364  0.017550363  0.016883354            6 
 3730000   0.65183575   -7.7988509    784.88623  0.017535439  0.016877989            5 
 3731000   0.64746017   -7.7909461    784.55176  0.017523268  0.016872627           11 
 3732000   0.65688916   -7.7698483    785.39305  0.017537358   0.01686728            4 
 3733000   0.65466508   -7.7814378    784.65129  0.017516102  0.016861937           10 
 3734000   0.65744318   -7.8017895    784.95346  0.017518154  0.016856591           12 
 3735000   0.65110092   -7.8084817    784.69202  0.017507631  0.016851249            6 
 3736000   0.66656493   -7.7994782    783.98601  0.017487197   0.01684591            9 
 3737000   0.65382652   -7.7805421    785.52506  0.017516837  0.016840581            7 
 3738000   0.65417194   -7.7668686    785.74578  0.017517072  0.016835254            6 
 3739000   0.66154796   -7.7951927    784.59919  0.017486832  0.016829922            6 
 3740000   0.64406945   -7.7881339    783.25364  0.017452176  0.016824581            8 
 3741000   0.65205792   -7.7789408    784.88388  0.017483825  0.016819246           13 
 3742000   0.66567461   -7.7670604    784.81026  0.017477513  0.016813927            6 
 3743000   0.65990268   -7.7749018    784.73214  0.017471105  0.016808611           12 
 3744000   0.65558379    -7.788242    785.38836  0.017481044  0.016803297            9 
 3745000   0.65143686   -7.7707968    784.52647  0.017457198  0.016797983            5 
 3746000   0.64287725   -7.7546495    785.30362  0.017469826  0.016792676           10 
 3747000   0.64469678   -7.7840225    785.86737  0.017477702  0.016787365            4 
 3748000   0.65125633   -7.7796487    785.34605  0.017461447   0.01678205            5 
 3749000    0.6512663   -7.7660606    785.86157  0.017468249  0.016776734            7 
 3750000   0.65649403   -7.7864548    784.41593  0.017431465  0.016771417            7 
 3751000   0.65172595   -7.7911772    783.85878   0.01741444   0.01676609            9 
 3752000   0.65417867   -7.7681417    783.85316  0.017409674  0.016760778            6 
 3753000   0.64458368   -7.7801407      784.275  0.017414402  0.016755462            4 
 3754000   0.65503849   -7.8003991    783.63902  0.017395645   0.01675014            4 
 3755000   0.64275764   -7.7586902    785.00988  0.017421435  0.016744828            7 
 3756000    0.6617896   -7.7751043    783.24666  0.017377677  0.016739516            6 
 3757000   0.65051426   -7.7961499    784.90409  0.017409815  0.016734196            5 
 3758000   0.65977818    -7.754554    785.04039  0.017408205  0.016728882           10 
 3759000   0.65380311   -7.7709418    785.01538  0.017403019  0.016723573            5 
 3760000   0.64019267   -7.7848877    784.59489  0.017389071  0.016718262            2 
 3761000   0.64845819    -7.795282    784.69993  0.017386775  0.016712949            4 
 3762000   0.64429919   -7.7791806    784.04797  0.017367711  0.016707653            4 
 3763000   0.65709351   -7.7941978    785.75727  0.017400949  0.016702368            5 
 3764000   0.65621341   -7.7844722    784.30106  0.017364087  0.016697064            8 
 3765000   0.65913796   -7.8216103    782.97554  0.017330136  0.016691765           11 
 3766000    0.6542508   -7.8010234    786.02117  0.017392927   0.01668645            7 
 3767000   0.64044276   -7.7960903    784.19917  0.017348004  0.016681129           12 
 3768000   0.65904496   -7.7828891     784.2877  0.017345358  0.016675825            5 
 3769000   0.64445448   -7.8053126    785.10189  0.017358758  0.016670535            8 
 3770000   0.65306345   -7.8196277    786.28355  0.017380273  0.016665245            2 
 3771000   0.64519855   -7.7845311    784.42852  0.017334671  0.016659949            1 
 3772000   0.64811903   -7.7845896    783.90903  0.017318598  0.016654646            6 
 3773000   0.64476959   -7.7949388     784.6271  0.017329868  0.016649346            5 
 3774000   0.65555545   -7.7975889     786.1165  0.017358163  0.016644064            5 
 3775000   0.64196256   -7.8168526    783.75424  0.017301418  0.016638786            2 
 3776000   0.63783612   -7.8044187    784.64238  0.017316437  0.016633495            6 
 3777000   0.64923833   -7.7765168    785.24404  0.017325127  0.016628217            4 
 3778000   0.63773502   -7.8159549    784.85417  0.017311941  0.016622936            5 
 3779000   0.63715356   -7.7804196    786.02918  0.017333271  0.016617651            5 
 3780000   0.63766017    -7.805971    784.00944  0.017284159  0.016612375            5 
 3781000   0.63195423   -7.7911113    784.98081  0.017300996  0.016607091            5 
 3782000   0.64723971   -7.7936784    785.93398  0.017317424  0.016601806            3 
 3783000   0.63088928   -7.8085298     783.7307  0.017264312  0.016596516            4 
 3784000   0.65149333   -7.7843827     783.6574  0.017258135  0.016591233           10 
 3785000   0.64357657   -7.8038358    784.21679  0.017265891  0.016585959            6 
 3786000   0.64278468   -7.8047097    785.28434  0.017284829  0.016580685            6 
 3787000   0.63601631     -7.79494    783.81602  0.017247954  0.016575407            5 
 3788000   0.64056857   -7.8074664    784.63153  0.017261341  0.016570131            3 
 3789000   0.64133351   -7.8018574    784.55369  0.017255074  0.016564876            7 
 3790000       0.6522   -7.8058934    785.65304  0.017274693  0.016559621            5 
 3791000   0.64559706   -7.8036343    784.41169  0.017242849  0.016554357            6 
 3792000   0.65208868   -7.8009339    784.33975  0.017236721  0.016549095            5 
 3793000   0.62753776   -7.8108673    784.69135  0.017239901  0.016543835            8 
 3794000   0.64855903   -7.7972477    785.10119  0.017244359  0.016538569            5 
 3795000   0.63949112   -7.8128479    784.88117  0.017234984  0.016533302            6 
 3796000    0.6560053   -7.8030508    783.56637   0.01720158  0.016528042            5 
 3797000   0.64182021   -7.7999328    785.05431  0.017229706  0.016522788            6 
 3798000   0.64381753   -7.7859483    784.66033  0.017216525  0.016517533            6 
 3799000   0.64214766   -7.7947324    784.68962  0.017212635  0.016512266            5 
 3800000   0.64336273   -7.7974372    783.82739  0.017189197  0.016507012            5 
 3801000   0.63345203   -7.7911318    786.48996  0.017243049  0.016501763            5 
 3802000    0.6366305   -7.8039635      785.549   0.01721789  0.016496513            5 
 3803000   0.62608681   -7.8052063    783.82085  0.017175494  0.016491258            9 
 3804000   0.65085111   -7.8151625    783.25324  0.017158545   0.01648601            8 
 3805000   0.64611595    -7.822704    783.06578   0.01714993  0.016480751            5 
 3806000   0.63565281   -7.8063248    783.73326  0.017160038   0.01647548           10 
 3807000   0.64760903   -7.8246664    783.83502  0.017157758  0.016470218            4 
 3808000   0.63122114   -7.7949403    783.37916  0.017143276  0.016464963            7 
 3809000   0.64555217   -7.8199565    785.70007  0.017189553  0.016459689            6 
 3810000   0.63986328    -7.833996    783.83439  0.017144234  0.016454424            4 
 3811000    0.6408067   -7.8170713    785.18771  0.017169328  0.016449161            5 
 3812000   0.64550889   -7.8026452    784.46908  0.017149114  0.016443901            6 
 3813000   0.63703014   -7.8129212    783.40801  0.017121427  0.016438638            6 
 3814000   0.65166704   -7.8233434    783.82303  0.017126006   0.01643338            9 
 3815000   0.63967509    -7.809672    783.60929  0.017116848  0.016428109            7 
 3816000   0.63754889   -7.8072703    784.26107  0.017126596  0.016422847            5 
 3817000   0.62539641    -7.808045    784.96086  0.017137387  0.016417595            6 
 3818000   0.65627234   -7.8116581    785.43469   0.01714324  0.016412349           15 
 3819000   0.63753846    -7.807508    783.39292  0.017094198  0.016407108           15 
 3820000   0.63603898   -7.8329091    784.78718  0.017120139   0.01640186           16 
 3821000   0.63883694   -7.8041777    784.86205  0.017117291  0.016396622            6 
 3822000   0.63141411   -7.8070336    784.64831  0.017108153  0.016391391            7 
 3823000   0.63561813   -7.8157276    783.57504  0.017080282  0.016386143            9 
 3824000   0.63037431   -7.8159102     783.2178  0.017068031  0.016380906            7 
 3825000   0.62540722   -7.8323224    784.68817  0.017095603  0.016375651            5 
 3826000   0.64237374    -7.815661    783.03491  0.017055125  0.016370408            6 
 3827000   0.62891108   -7.8456934     783.9906  0.017071479  0.016365163            7 
 3828000   0.62596139   -7.8419249    783.99227  0.017067056  0.016359932            3 
 3829000   0.63889536   -7.8076373    784.45427  0.017072653  0.016354706            5 
 3830000   0.63299359   -7.8106194    783.81017  0.017054181  0.016349485            4 
 3831000   0.65392884   -7.8085227    784.36481  0.017061794  0.016344261            8 
 3832000   0.63764352   -7.8124672    783.22625  0.017032582  0.016339035            4 
 3833000   0.63278429   -7.8111011    785.74265  0.017082847  0.016333824            7 
 3834000   0.62477491   -7.8009415    783.44732  0.017028502  0.016328629            4 
 3835000   0.63663258   -7.8010644    784.07883  0.017037784  0.016323424            8 
 3836000   0.63657123   -7.7969698    784.65121  0.017045777  0.016318218            8 
 3837000   0.64029082   -7.8178266    785.08398  0.017050734  0.016313018            4 
 3838000    0.6308149   -7.8052678    783.72217  0.017016723  0.016307807            6 
 3839000    0.6517804   -7.8309051    784.01423   0.01701863  0.016302597            5 
 3840000   0.63261774   -7.8236213    785.35292  0.017043249  0.016297382            4 
 3841000   0.62824289   -7.8317957    785.31257  0.017037936  0.016292156            5 
 3842000   0.64531691    -7.825977    785.37223  0.017034796  0.016286944            4 
 3843000   0.65619207   -7.8263516    784.38628  0.017008983  0.016281737           12 
 3844000   0.64730312   -7.8405824    783.70538  0.016989798  0.016276532            5 
 3845000    0.6465495   -7.8372812    783.97957  0.016991321  0.016271333            6 
 3846000   0.63202049   -7.8445113    784.06144  0.016988677  0.016266123            9 
 3847000   0.64174135    -7.833942    785.00672  0.017004738  0.016260921            5 
 3848000   0.63241936   -7.8405339    782.60348  0.016948274    0.0162557            6 
 3849000    0.6360413   -7.8468936    784.08406  0.016975926  0.016250477            6 
 3850000   0.62717384   -7.8284993    782.71083  0.016941793  0.016245253            7 
 3851000   0.64089909   -7.8282148    782.27583   0.01692798  0.016240029            7 
 3852000   0.62943263   -7.8236764    782.14507  0.016920757  0.016234805            5 
 3853000   0.65513299    -7.811607    784.21789  0.016961197  0.016229587            4 
 3854000   0.63351505   -7.8513495    782.27399  0.016914764  0.016224373            5 
 3855000   0.64068884   -7.8624551    782.48778  0.016914997  0.016219155            7 
 3856000   0.63326507   -7.8461584    784.64195  0.016957165  0.016213942            7 
 3857000   0.63337189   -7.8314239    783.06344  0.016918664  0.016208733           11 
 3858000   0.62101905   -7.8239344    783.51444   0.01692402  0.016203545            8 
 3859000   0.62028371   -7.8314329    783.38054  0.016916743  0.016198338            6 
 3860000   0.64192861   -7.8329114    780.98203  0.016860579  0.016193135            5 
 3861000   0.63001786   -7.8379843    782.82922  0.016896081  0.016187933            5 
 3862000    0.6526133   -7.8539216    784.19656   0.01692121  0.016182738            4 
 3863000   0.63302204   -7.8314315    782.99969  0.016891011  0.016177547            8 
 3864000   0.63508869   -7.8184487    784.88214  0.016927237   0.01617236            8 
 3865000    0.6284846   -7.8315511    783.05479  0.016883458  0.016167181            9 
 3866000   0.63025099    -7.824503    785.23144   0.01692601  0.016162009            7 
 3867000   0.61352257   -7.8386663    783.89871  0.016892912  0.016156827            6 
 3868000   0.64989024   -7.8434214    784.23907  0.016895878  0.016151651            5 
 3869000    0.6441317   -7.8425957    784.76557  0.016902851  0.016146485            2 
 3870000   0.61786185   -7.8445162    783.47813  0.016870761  0.016141307            4 
 3871000   0.64008625   -7.8545957    784.93841  0.016897839   0.01613613            4 
 3872000    0.6248404   -7.8170556    784.73177  0.016889028  0.016130962            4 
 3873000   0.62655303   -7.8217388    784.10951  0.016871278   0.01612581           12 
 3874000   0.61893247   -7.8144227      784.723   0.01688012  0.016120652           12 
 3875000   0.62055916   -7.8157476    784.09926   0.01686235    0.0161155            7 
 3876000   0.63492799   -7.8227002    784.31625  0.016862664  0.016110341            7 
 3877000   0.64435191   -7.8489225    783.93152  0.016850046  0.016105179            3 
 3878000   0.63581174   -7.8255302     782.8717  0.016822926  0.016100017            7 
 3879000   0.62476913   -7.8399423    784.25471  0.016848301  0.016094858           11 
 3880000   0.62747001   -7.8361279    783.45173  0.016826712  0.016089702            8 
 3881000   0.65011234   -7.8346463    783.13986   0.01681568  0.016084538            7 
 3882000   0.62540098    -7.838559      783.611  0.016821462  0.016079377            8 
 3883000   0.63885904   -7.8384059    783.03267  0.016804719  0.016074211            9 
 3884000   0.61682982   -7.8377612    784.26238  0.016826776  0.016069062            9 
 3885000    0.6321389    -7.844497    783.79564  0.016812433  0.016063918           10 
 3886000   0.62406651   -7.8224351    784.67862  0.016827042  0.016058763           13 
 3887000   0.63609023   -7.8359204    783.73093  0.016802395  0.016053623           12 
 3888000   0.63918712   -7.8343473    784.72211  0.016819318  0.016048484           13 
 3889000   0.64310012   -7.8460261    784.00279   0.01679958  0.016043338           17 
 3890000   0.62233805   -7.8489459    783.93498  0.016793809  0.016038194            9 
 3891000   0.62918353   -7.8395555    782.81423  0.016765489  0.016033058            8 
 3892000   0.63781093    -7.829692    784.03047  0.016787223  0.016027925           14 
 3893000   0.62063435   -7.8158454     784.8097  0.016799591  0.016022791            7 
 3894000   0.62684663    -7.831089    784.56134  0.016789962   0.01601766            8 
 3895000   0.62270184   -7.8231988    783.76512  0.016768616  0.016012527            6 
 3896000   0.63543363   -7.8084017    785.15339  0.016794006  0.016007408           10 
 3897000   0.62404816   -7.8394626    784.30366  0.016771526  0.016002288            8 
 3898000   0.62229538   -7.8527604    783.17346  0.016743062  0.015997157           15 
 3899000   0.61895167    -7.833464    784.52605  0.016767677   0.01599203           10 
 3900000   0.62861903    -7.853665    784.90915  0.016771563  0.015986906            4 
 3901000   0.63621894   -7.8645875    783.93032  0.016746354  0.015981779           12 
 3902000   0.63692379   -7.8395528    783.79078  0.016739082  0.015976654           14 
 3903000   0.63738458   -7.8373759    784.74765  0.016755223   0.01597153            7 
 3904000   0.61949709   -7.8379248     782.6392  0.016705925  0.015966413            8 
 3905000   0.64127822   -7.8479068     783.4866  0.016719731  0.015961297            9 
 3906000   0.61729427   -7.8567138    784.70658  0.016741479  0.015956186           10 
 3907000   0.63000788   -7.8351202    783.58295  0.016713227  0.015951069           10 
 3908000   0.61876455   -7.8599332    783.54192  0.016708076  0.015945965           11 
 3909000   0.61565035   -7.8726616    783.34314  0.016699564  0.015940846           10 
 3910000   0.61809993   -7.8504824    783.03787  0.016688787  0.015935732            5 
 3911000   0.63977874   -7.8575038    783.64352  0.016697424  0.015930619            8 
 3912000   0.61953114   -7.8613584    783.41571  0.016688303  0.015925505           10 
 3913000   0.63400979   -7.8706811    783.40028   0.01668371  0.015920384            8 
 3914000   0.62794123   -7.8508491    784.48273  0.016702494   0.01591526            4 
 3915000   0.61982027   -7.8484408    783.83366  0.016684412   0.01591013            5 
 3916000   0.61641606   -7.8549203     784.3058  0.016690198  0.015905008            6 
 3917000   0.63288275   -7.8702151    783.57867  0.016670468  0.015899887           10 
 3918000   0.62219797   -7.8571285    783.15388  0.016657178  0.015894783            5 
 3919000   0.62337521   -7.8599378    782.52722  0.016639602  0.015889685            7 
 3920000   0.61985246   -7.8329261    783.76118   0.01666159  0.015884585           16 
 3921000   0.62357813   -7.8582974    783.86843   0.01665962  0.015879481            8 
 3922000   0.62449198   -7.8442681    783.50523  0.016647655  0.015874367            3 
 3923000   0.62620794   -7.8615856    783.54518   0.01664426  0.015869261            6 
 3924000   0.62754316   -7.8420276    784.15928   0.01665306  0.015864157           10 
 3925000   0.63030493   -7.8622495    782.82705  0.016620532  0.015859052            6 
 3926000   0.62316836   -7.8686997    784.09794  0.016643274  0.015853943            7 
 3927000   0.61216933    -7.868019    783.06471   0.01661711  0.015848839            5 
 3928000   0.61681445   -7.8594941    782.70998  0.016605354  0.015843747            7 
 3929000   0.61167873   -7.8636259    784.42626   0.01663753   0.01583865           14 
 3930000   0.63477646   -7.8485914    783.93011  0.016622776  0.015833554           12 
 3931000   0.61721215   -7.8698818    782.91796  0.016597091  0.015828466            6 
 3932000   0.63776643   -7.8639666    781.66073  0.016566224  0.015823367            6 
 3933000   0.61955606   -7.8645512    783.45656  0.016600063  0.015818269           18 
 3934000   0.63054898   -7.8570708    784.83031  0.016624943  0.015813175            7 
 3935000   0.62393072   -7.8587773    781.85407  0.016557689  0.015808084            8 
 3936000   0.61142951   -7.8844456    781.86363  0.016553685  0.015802988           13 
 3937000   0.62503522   -7.8765647    783.88278  0.016592219  0.015797893           10 
 3938000     0.615405   -7.8688635    782.98349  0.016568975  0.015792802            7 
 3939000   0.62372908   -7.8628948    782.12484  0.016546603  0.015787722           11 
 3940000   0.60914603   -7.8480253    782.49644  0.016550263  0.015782639           11 
 3941000   0.62847433    -7.857431    782.79105  0.016552293  0.015777557            5 
 3942000   0.62521771   -7.8560472    783.09577  0.016554536  0.015772474            5 
 3943000   0.62769096   -7.8665841    783.15183  0.016551522   0.01576739            8 
 3944000   0.61902047   -7.8728257    783.66732  0.016558217  0.015762315           18 
 3945000   0.62203923   -7.8542437    783.92257  0.016559412  0.015757238           11 
 3946000    0.6096769   -7.8590172    782.80826  0.016531683   0.01575217           17 
 3947000   0.63336603   -7.8607907    782.74119  0.016526079  0.015747096           11 
 3948000   0.62692377   -7.8557931    783.33813  0.016534493  0.015742015           17 
 3949000   0.62763522   -7.8675145    781.54088  0.016492379  0.015736938            6 
 3950000    0.6149996   -7.8539992    782.09686  0.016499934  0.015731859           16 
 3951000   0.61624726   -7.8845183    784.46032  0.016545607  0.015726787            7 
 3952000    0.6214421   -7.8815222    781.63211  0.016481784  0.015721711            6 
 3953000   0.61877836   -7.8688558     782.8976  0.016504292  0.015716635            6 
 3954000   0.64095094   -7.8881266    782.46928  0.016491091  0.015711574            6 
 3955000   0.61978527   -7.8711065    783.50668   0.01650878  0.015706518            7 
 3956000   0.61203349   -7.8515082    783.76054  0.016509954   0.01570146            7 
 3957000   0.61232266   -7.8588418    782.40506  0.016477236  0.015696416           15 
 3958000   0.61298317   -7.8791771    783.31994  0.016492335  0.015691364            7 
 3959000    0.6309443   -7.8718994    782.39451   0.01646869  0.015686302           11 
 3960000   0.63116628   -7.8705197    784.28554  0.016504325  0.015681249            9 
 3961000   0.61025154   -7.8916819    784.00289  0.016494212  0.015676209           13 
 3962000   0.61864007   -7.8733852    783.52725  0.016480045  0.015671147           23 
 3963000    0.6216818   -7.8908053    782.63479   0.01645712  0.015666084            9 
 3964000   0.61384799   -7.8868996    782.56672  0.016451537   0.01566102            7 
 3965000   0.61905734   -7.8679625    781.32097  0.016421206  0.015655952           12 
 3966000   0.62933364   -7.8988967    783.20212  0.016456592  0.015650887            9 
 3967000   0.59917906   -7.8768543    782.22626  0.016431944  0.015645828           13 
 3968000   0.61681553   -7.8648184    782.88984  0.016441739  0.015640774           11 
 3969000   0.61156866   -7.8945568     781.4597  0.016407569  0.015635713           15 
 3970000   0.61847174   -7.8682444    783.32741  0.016442641  0.015630657           12 
 3971000    0.6207734   -7.8567724    783.83171  0.016449083  0.015625611            9 
 3972000   0.61163965    -7.877881    782.40635  0.016415037  0.015620569            7 
 3973000   0.62451679   -7.8801438    782.36625  0.016410065  0.015615524            9 
 3974000   0.60466385   -7.8638303    782.63244  0.016411517  0.015610483           20 
 3975000   0.62427104   -7.8743389    782.69711  0.016408744  0.015605441           10 
 3976000   0.62244866   -7.8853896    782.11915  0.016392504  0.015600404           13 
 3977000   0.61860064   -7.9121386    782.54285   0.01639726  0.015595362            9 
 3978000   0.61069376   -7.8800305    783.48526   0.01641288  0.015590325           13 
 3979000   0.62828096   -7.8773245    782.86098  0.016395681  0.015585293           11 
 3980000   0.60281364    -7.879945    783.11004  0.016396776  0.015580264            8 
 3981000   0.60874406   -7.8583747    784.85945  0.016429278  0.015575241            9 
 3982000   0.60106064   -7.8743703     783.2982  0.016392479  0.015570218           18 
 3983000   0.59980427   -7.8852719    782.97455  0.016381592  0.015565196           13 
 3984000   0.61061457   -7.8982752     781.5753  0.016348212  0.015560173           14 
 3985000   0.61750461   -7.8745906    782.12322  0.016355567   0.01555515           17 
 3986000   0.60647315   -7.8860962    780.60916   0.01631981  0.015550119            7 
 3987000   0.61174897   -7.8676182    783.57977  0.016377806  0.015545104            5 
 3988000   0.60339367   -7.8654397     782.1934   0.01634473  0.015540092           13 
 3989000   0.62332319   -7.8825684    785.05017  0.016400313  0.015535086           14 
 3990000    0.6116068   -7.8718072    782.37114  0.016340249   0.01553008           26 
 3991000   0.62940044   -7.9021559    781.23757  0.016312486  0.015525073           29 
 3992000   0.60219717   -7.8622576    784.01391  0.016366356   0.01552006           25 
 3993000   0.62024552   -7.8819141    781.36387  0.016306951  0.015515045           30 
 3994000   0.61513992   -7.8999945    782.53079  0.016327216  0.015510043           14 
 3995000   0.61535203   -7.8928244    782.73149  0.016327315  0.015505031           18 
 3996000    0.6013127   -7.8658838    783.25601  0.016334168  0.015500032           24 
 3997000   0.61453734   -7.8795016    782.19142  0.016307886  0.015495033           13 
 3998000   0.61918533   -7.8687587    783.37541  0.016328485  0.015490031           17 
 3999000   0.60758586   -7.8783327    781.60907  0.016287594  0.015485036           11 
 4000000   0.59804305   -7.8698485    782.84704  0.016309313  0.015480044            8 
 4001000   0.61320754   -7.8830947    784.08413  0.016331003  0.015475054           25 
 4002000   0.59916051   -7.8678628    783.99572  0.016325082  0.015470061           20 
 4003000   0.62000909    -7.888548    781.31939  0.016265288  0.015465079           10 
 4004000   0.60552683    -7.870294    782.25396  0.016280677  0.015460092           12 
 4005000   0.61274362   -7.8918473    781.87455  0.016268717  0.015455112           17 
 4006000   0.61142387      -7.8702    783.87917  0.016306356  0.015450135           16 
 4007000   0.61718035   -7.8744038     784.5999  0.016317276  0.015445162           25 
 4008000   0.61871878   -7.8795427    783.03832  0.016280737  0.015440187           20 
 4009000   0.62372358   -7.8888012    782.25978  0.016260493  0.015435203           19 
 4010000   0.60022536   -7.8842128    783.56398  0.016283541  0.015430229           14 
 4011000    0.6175701   -7.8862348    784.16729  0.016292015  0.015425247            8 
 4012000   0.61711071   -7.8815956    783.28764  0.016269683  0.015420277           17 
 4013000   0.60810531   -7.8863163    783.14768  0.016262723  0.015415301           23 
 4014000   0.60499812   -7.9078626    783.87264  0.016273722  0.015410332           13 
 4015000   0.59263548    -7.863314    783.07786  0.016253173  0.015405364           11 
 4016000   0.59877482   -7.8901211    783.72757  0.016262607  0.015400399           10 
 4017000   0.61342224   -7.9002572    783.23123  0.016248262  0.015395443           20 
 4018000   0.59196453   -7.8744922    783.19873  0.016243544   0.01539049           21 
 4019000   0.59339348   -7.8717269    782.90522  0.016233417  0.015385537            6 
 4020000    0.6103073    -7.889066    782.67749  0.016224658  0.015380584           18 
 4021000   0.61415971   -7.8812584    783.85023  0.016244927  0.015375634            9 
 4022000   0.60370968   -7.9026796    783.40339   0.01623163  0.015370692            7 
 4023000   0.59999748   -7.8861553    783.13749  0.016222087  0.015365743           11 
 4024000   0.61551465   -7.8800957    783.83232  0.016232445  0.015360808           13 
 4025000   0.60012438   -7.8938506    784.04026  0.016232718  0.015355863           13 
 4026000   0.61009401   -7.9002729    784.57262  0.016239705  0.015350924           13 
 4027000   0.61280125   -7.9154903    782.89783  0.016201015  0.015345986           12 
 4028000   0.60296018   -7.8787758    784.58293  0.016231855   0.01534106           12 
 4029000   0.60556723   -7.9000372    783.04873  0.016196094  0.015336135           15 
 4030000   0.61229134   -7.8861205    785.31257  0.016238887  0.015331208           13 
 4031000   0.61100822    -7.899037    784.93274  0.016227006  0.015326286            8 
 4032000   0.59974911    -7.902569    784.90233  0.016222353  0.015321367            5 
 4033000   0.61672463   -7.8944964    784.82292   0.01621669   0.01531645           14 
 4034000   0.59098681   -7.8856783    782.81627  0.016171217  0.015311535           12 
 4035000   0.60146251   -7.8946763    783.72141  0.016185903  0.015306621            9 
 4036000   0.60079575   -7.8939817    782.36248  0.016153834  0.015301712            6 
 4037000   0.60480608   -7.8751836    783.04373  0.016163895  0.015296808           11 
 4038000   0.61822005   -7.8735613    784.18643  0.016183474  0.015291911           12 
 4039000   0.60458908   -7.9023264    783.15783  0.016158245  0.015287006           14 
 4040000   0.61069253   -7.8882499    782.35781  0.016137744  0.015282105           10 
 4041000   0.61146937   -7.8870171     783.0054  0.016147105  0.015277201           33 
 4042000   0.60009239   -7.8868603    784.00998  0.016163821  0.015272293           15 
 4043000   0.60905323   -7.9002112    783.39858  0.016147221  0.015267394           11 
 4044000   0.60072853      -7.9053    783.60231  0.016147426  0.015262493           15 
 4045000   0.60102316   -7.8838528    784.28211  0.016157439  0.015257594           10 
 4046000   0.61075467   -7.8979309     783.1548  0.016130227  0.015252695           15 
 4047000   0.61054112   -7.8897101    781.97263  0.016101899  0.015247798           22 
 4048000   0.60134215    -7.888054    784.63524  0.016152735  0.015242905           20 
 4049000   0.58916215   -7.9045052    783.67713  0.016129026  0.015238012            7 
 4050000   0.60129635   -7.8909369    784.05921  0.016132906  0.015233121           17 
 4051000   0.62451026    -7.895772    783.61743  0.016119835  0.015228235            7 
 4052000   0.60277457   -7.9025183    782.62858   0.01609552  0.015223349           12 
 4053000   0.58849127   -7.8998048    784.09749  0.016121751  0.015218458            9 
 4054000   0.61098746   -7.8815937    784.06753  0.016117159  0.015213571           16 
 4055000   0.59643997   -7.9019022    784.15879  0.016115059  0.015208698           15 
 4056000   0.59025701     -7.89877    783.80847  0.016103889  0.015203824            6 
 4057000   0.60207802   -7.9193294    784.68352  0.016117893  0.015198956           28 
 4058000   0.60771359   -7.8797272    783.74348  0.016094617  0.015194083           15 
 4059000   0.61206823    -7.907649    785.37324  0.016124112  0.015189212            9 
 4060000   0.61145812   -7.9118211    781.62197  0.016043144  0.015184338           14 
 4061000   0.60493206   -7.9303697     782.4833  0.016056868  0.015179469           22 
 4062000   0.59654987   -7.9071256    782.88425  0.016061141  0.015174598           17 
 4063000   0.61111861   -7.9091832    782.88593  0.016057222   0.01516973           17 
 4064000   0.60055272   -7.9445218    784.41756  0.016084678  0.015164868            6 
 4065000   0.58361663   -7.9225593    783.30041  0.016057819  0.015160003            6 
 4066000   0.61497266   -7.9167143    785.30084  0.016094869  0.015155151           12 
 4067000   0.59250429   -7.9172013    784.83726  0.016081413  0.015150298           10 
 4068000   0.59775524    -7.912434    782.42475  0.016028039  0.015145442           13 
 4069000    0.6037113   -7.9250666    784.13014  0.016059026  0.015140586           14 
 4070000   0.60698136   -7.9103617    783.53015  0.016042796   0.01513573           12 
 4071000   0.61337159   -7.9058198    783.17384  0.016031562  0.015130879            3 
 4072000   0.60917205   -7.8980598    783.57317  0.016035797  0.015126031           15 
 4073000   0.59188184   -7.9065168    783.35375   0.01602737  0.015121188            4 
 4074000   0.60818737   -7.8750227    783.97429  0.016036129  0.015116345            5 
 4075000   0.59736893   -7.9044542    782.94473   0.01601114  0.015111501            6 
 4076000     0.601638   -7.9073664    782.59602  0.016000082  0.015106658            6 
 4077000   0.59884918   -7.8970409    783.75707  0.016019889  0.015101824            6 
 4078000   0.59965019   -7.8936694    784.14417  0.016023871  0.015096982            6 
 4079000   0.59482743   -7.9137832    784.42038  0.016025586  0.015092129           10 
 4080000   0.60945614   -7.9067409    783.72975  0.016007552   0.01508728            6 
 4081000   0.59885981   -7.8962469    782.89543  0.015986593  0.015082434            9 
 4082000   0.59306257   -7.9214543    784.00904  0.016005411  0.015077603            6 
 4083000   0.59465652   -7.9166291    782.98115  0.015980512  0.015072769            5 
 4084000   0.59353852   -7.9336445    782.82868  0.015973488   0.01506794            4 
 4085000   0.60137672    -7.915003    782.38882  0.015960604   0.01506311            6 
 4086000   0.58938676   -7.9036059    784.68991  0.016003629  0.015058266            9 
 4087000   0.58858539   -7.9265735    784.88256  0.016003641  0.015053428            9 
 4088000   0.60718307   -7.8994783    783.99465  0.015981626  0.015048594            9 
 4089000   0.60222985   -7.9022885    784.20065  0.015981916   0.01504376            7 
 4090000   0.59293716   -7.9083994     783.4817   0.01596336  0.015038924           19 
 4091000   0.58908477   -7.9278142    782.69756  0.015943485  0.015034087           13 
 4092000   0.59993393   -7.9106181    782.10324  0.015927485  0.015029246           10 
 4093000   0.59187327   -7.8955562    783.05331  0.015942937   0.01502442            9 
 4094000   0.59423822   -7.9150921    784.12402  0.015960837  0.015019589           10 
 4095000   0.59239763   -7.9120812    783.80646  0.015950477  0.015014768           10 
 4096000   0.59412348   -7.9224342    782.58995  0.015921833  0.015009945            8 
 4097000   0.59405128   -7.9374112    784.66664  0.015960187  0.015005118            8 
 4098000   0.59465019   -7.9203275    782.27526  0.015907664  0.015000293            7 
 4099000   0.59961136   -7.9319266    783.29284   0.01592447   0.01499547            7 
 4100000   0.59048067    -7.924279    783.40484  0.015922863  0.014990654            5 
 4101000   0.60396294   -7.9042123    784.06676   0.01593243  0.014985845           11 
 4102000   0.59496793   -7.9149729    782.58061  0.015898355  0.014981034            4 
 4103000   0.59575557    -7.915165    783.52363  0.015913633  0.014976224            6 
 4104000    0.5966473   -7.9153651    784.12261  0.015921918  0.014971409            7 
 4105000   0.58448505    -7.929379    782.21203  0.015879254  0.014966591            6 
 4106000   0.58481084   -7.9271853    781.67844  0.015864557  0.014961764            8 
 4107000   0.58197928   -7.9239536    784.37802   0.01591547  0.014956954            9 
 4108000   0.58449615   -7.9439341    781.74018  0.015858085  0.014952148            7 
 4109000   0.58458822   -7.9384003    783.47171  0.015889343  0.014947331            8 
 4110000   0.59758335   -7.9176731    783.11911  0.015878327  0.014942517            7 
 4111000   0.59614623   -7.9226229    782.48923  0.015861697  0.014937709            7 
 4112000   0.60159363   -7.9241697    782.22019  0.015852387  0.014932904            9 
 4113000   0.59515906   -7.9077301    782.19439   0.01584801  0.014928097            5 
 4114000   0.59329979   -7.9226626    783.36226  0.015867814  0.014923291           10 
 4115000   0.59605351   -7.9128535    783.78828  0.015872586  0.014918496            6 
 4116000   0.59743203   -7.9100725    783.46273  0.015862138  0.014913711            8 
 4117000   0.59101209   -7.9229699    782.74284  0.015843714  0.014908924            9 
 4118000   0.59256343   -7.9336258    781.05117  0.015805633  0.014904137            6 
 4119000   0.60079007   -7.9378172    783.85686  0.015858559  0.014899344           12 
 4120000   0.60113423   -7.9058355    783.30986  0.015843646  0.014894553            9 
 4121000   0.58667451   -7.9258671    783.80632  0.015849841  0.014889767           15 
 4122000   0.58875499   -7.9158049    782.74995  0.015824639  0.014884977           14 
 4123000   0.60664681   -7.9302611    781.30259  0.015791547  0.014880192           14 
 4124000    0.5975205   -7.9248702    782.15019  0.015804845  0.014875405           15 
 4125000   0.58818206   -7.9308084    782.28884  0.015803815  0.014870617           12 
 4126000   0.58633967   -7.9068501     782.0314  0.015794785  0.014865823           17 
 4127000   0.58802592   -7.9366286    782.01756  0.015790679  0.014861032           11 
 4128000   0.58630267   -7.9267239    781.93802  0.015785248  0.014856246           18 
 4129000   0.60357103   -7.9385921    783.23008  0.015807501  0.014851463            9 
 4130000   0.58637792   -7.9161478    783.34405  0.015805974  0.014846677           16 
 4131000   0.59225415   -7.9240222    782.37933  0.015782686  0.014841887           19 
 4132000   0.59130409   -7.9444233    782.04715  0.015772167  0.014837099           12 
 4133000   0.60729754   -7.9367158    781.25833  0.015752446  0.014832315           16 
 4134000   0.59376763   -7.9346833    782.48887  0.015773441  0.014827534            9 
 4135000   0.59118222   -7.9145431     782.0979  0.015761747  0.014822752           10 
 4136000   0.59580714   -7.9401854    782.96846  0.015775477  0.014817971           16 
 4137000   0.58851924   -7.9431352    781.47006  0.015741481  0.014813199           24 
 4138000   0.58280712   -7.9349003    781.29766  0.015734205  0.014808422           13 
 4139000   0.59929791   -7.9356359    782.50051  0.015754621   0.01480365           16 
 4140000   0.59103517   -7.9170454    781.50857  0.015730849  0.014798877           16 
 4141000   0.59273254    -7.930184    783.18166  0.015760719  0.014794111           18 
 4142000   0.59461035   -7.9268439    782.13007  0.015735757  0.014789347           17 
 4143000   0.58991174   -7.9313403    782.18807  0.015733126  0.014784589            6 
 4144000   0.59549269   -7.9241547     781.9778  0.015725101  0.014779829           15 
 4145000   0.59686236    -7.921815    784.35311  0.015769061  0.014775068           16 
 4146000   0.58099937   -7.9193431    783.35107  0.015745117  0.014770307           16 
 4147000   0.58632784   -7.9285111    781.42571  0.015702631  0.014765545           18 
 4148000   0.59359435   -7.9459823    782.23369  0.015715077  0.014760793           13 
 4149000   0.58774517   -7.9506451    782.88305  0.015724332  0.014756036           15 
 4150000   0.58120281   -7.9409597    782.94531  0.015721793  0.014751283           19 
 4151000   0.57202779   -7.9283076    782.90968  0.015717291  0.014746533            5 
 4152000   0.59383104   -7.9328754    781.84252  0.015692086  0.014741786           21 
 4153000   0.58718065   -7.9719275    782.06397  0.015692752  0.014737035           10 
 4154000   0.58316505   -7.9203692    782.00491  0.015687789  0.014732288           12 
 4155000   0.59799382   -7.9522723    782.20308  0.015687988  0.014727538           10 
 4156000   0.58275618   -7.9599084    782.93423  0.015698874   0.01472279           10 
 4157000   0.59082179    -7.939328    781.61285  0.015668608  0.014718042            6 
 4158000   0.58772104   -7.9271551    781.60259  0.015664634  0.014713292           11 
 4159000   0.59325541   -7.9298798    783.37399  0.015696361  0.014708559            5 
 4160000    0.5813824   -7.9512595    781.34119  0.015651867  0.014703827            7 
 4161000   0.59132234   -7.9541336    782.97059  0.015680738   0.01469909           12 
 4162000   0.57684929   -7.9544531     782.6264  0.015670079   0.01469436            5 
 4163000   0.58572872   -7.9381143    782.04505  0.015654677  0.014689627           14 
 4164000   0.58270392   -7.9495352    781.26051  0.015635217  0.014684897           13 
 4165000   0.58521635   -7.9387932    781.96979  0.015645654  0.014680165            7 
 4166000   0.59462812   -7.9483804    782.35406  0.015649585   0.01467544            9 
 4167000   0.58509937   -7.9468401    782.98215   0.01565839  0.014670713           11 
 4168000   0.58203329   -7.9405548    782.78483  0.015650688  0.014665995           18 
 4169000   0.56925342   -7.9352958    783.23813  0.015655995  0.014661275           10 
 4170000   0.59427615   -7.9558184     782.3948  0.015635388  0.014656557           11 
 4171000   0.57932013   -7.9608361    781.18342  0.015607437  0.014651834            5 
 4172000   0.57211738   -7.9313776    783.15469  0.015643071  0.014647115           14 
 4173000   0.58597697   -7.9289105    782.63075  0.015628859  0.014642403           11 
 4174000   0.59210738   -7.9742545    783.45671  0.015641605  0.014637691           11 
 4175000   0.58773099   -7.9586157     782.5641  0.015620042  0.014632976           10 
 4176000   0.57785641   -7.9362067    781.69107   0.01559888  0.014628268           18 
 4177000   0.57693076   -7.9666252    781.94414  0.015600194   0.01462356           14 
 4178000   0.58657972   -7.9294733    781.70892  0.015591769  0.014618849            9 
 4179000   0.57529991   -7.9363648     782.8877  0.015611544  0.014614153            9 
 4180000   0.59002182   -7.9559937    782.57576   0.01560159  0.014609454            7 
 4181000   0.58213396   -7.9311152    783.11981  0.015608702  0.014604751           13 
 4182000   0.58809996   -7.9611577    782.17157  0.015586075  0.014600046            9 
 4183000   0.57634107    -7.937465    782.08298  0.015580584  0.014595347            7 
 4184000   0.58472626   -7.9319659    782.67178  0.015588587  0.014590642           12 
 4185000   0.57543588   -7.9609293    782.98591  0.015591117   0.01458594            6 
 4186000   0.56711824    -7.933132    782.90182  0.015585719  0.014581239            8 
 4187000   0.58041935   -7.9405674    782.91425  0.015582244  0.014576536            6 
 4188000    0.5885018   -7.9534068    781.18862  0.015544186  0.014571838            8 
 4189000    0.5797858   -7.9425069    782.34571  0.015563494  0.014567142            7 
 4190000   0.59259684   -7.9824917    782.24234  0.015557724  0.014562443           12 
 4191000   0.58294506   -7.9662818    780.14134  0.015512235   0.01455774            7 
 4192000   0.58048804   -7.9503867    781.84771  0.015542456  0.014553044           10 
 4193000   0.57413751   -7.9498011    782.29609  0.015547661  0.014548358            6 
 4194000   0.57446602    -7.944928    782.94591  0.015556865  0.014543668            5 
 4195000   0.58408055   -7.9713662    782.73691  0.015549005  0.014538986            6 
 4196000   0.58374276   -7.9671565    781.65212  0.015523755  0.014534306            5 
 4197000   0.58821252   -7.9493846    782.02765  0.015527513  0.014529622            6 
 4198000   0.58239943    -7.970793    781.63714  0.015516062   0.01452494            4 
 4199000   0.58150156   -7.9655807    780.44087  0.015488626   0.01452026            7 
 4200000   0.58275891   -7.9544947    781.40343  0.015504036  0.014515571            6 
 4201000   0.58337698    -7.930111     781.5648  0.015503547  0.014510894            8 
 4202000   0.56997132   -7.9600878     781.6763  0.015502068  0.014506207            8 
 4203000   0.57757162   -7.9643464    782.48651  0.015514444  0.014501524            8 
 4204000   0.56994557   -7.9717354    781.33598  0.015487948  0.014496847            6 
 4205000   0.58644404   -7.9892178    782.01715  0.015497764  0.014492173            7 
 4206000   0.59188603   -7.9557171     781.9866  0.015493474  0.014487497            9 
 4207000   0.57126341   -7.9408539    783.27965  0.015515404  0.014482831           11 
 4208000    0.5703214   -7.9562433    781.63385  0.015479124  0.014478163            5 
 4209000   0.56904475   -7.9571859    783.26755  0.015507792  0.014473495            5 
 4210000   0.58454296   -7.9664191    783.45375  0.015507794  0.014468825            3 
 4211000    0.5753192   -7.9636739    782.84564  0.015492077  0.014464161            5 
 4212000   0.58501361   -7.9796748    781.26891  0.015457204    0.0144595            5 
 4213000   0.58675448   -7.9628235    783.14569  0.015490658  0.014454836            6 
 4214000   0.58936597   -7.9658369    781.48213  0.015454084  0.014450184            3 
 4215000   0.58193379   -7.9726687    781.98752   0.01546041  0.014445522            7 
 4216000   0.56144971   -7.9649611     781.1855   0.01544089  0.014440858            6 
 4217000   0.57485719   -7.9584272    781.82375  0.015449841  0.014436193            7 
 4218000   0.56777532   -7.9723554    782.40492   0.01545766  0.014431534            5 
 4219000   0.57105815   -7.9502767    782.35139  0.015452939  0.014426882            5 
 4220000   0.57322516   -7.9475882    782.62738  0.015454727  0.014422228            4 
 4221000   0.58502029   -7.9646552    782.20232  0.015442674  0.014417577            6 
 4222000   0.57732766   -7.9603773    782.18467  0.015438668  0.014412929            7 
 4223000   0.59817833   -7.9621076     782.2067  0.015435447  0.014408283            4 
 4224000   0.58421503   -7.9734058    782.02576  0.015428223  0.014403639            6 
 4225000   0.57640944   -7.9699512    781.33191  0.015410886  0.014398995            5 
 4226000    0.5656262   -7.9884713    781.42558  0.015409086  0.014394353            9 
 4227000    0.5828588   -7.9747934    782.39552  0.015424563   0.01438971            4 
 4228000   0.56406197   -7.9545812    781.23455  0.015398032  0.014385065           14 
 4229000   0.56938964   -7.9679564    781.72193  0.015403995  0.014380424            2 
 4230000   0.57003357   -7.9413734    781.94793  0.015404805  0.014375784            5 
 4231000    0.5708409   -7.9645861    782.02317  0.015402646  0.014371145            3 
 4232000   0.57385329   -7.9513197    781.72546  0.015393145  0.014366509            5 
 4233000   0.56923277   -7.9591334    782.08797  0.015396645  0.014361875            6 
 4234000   0.57223641   -7.9876483    782.23276  0.015395858  0.014357247            4 
 4235000   0.57929992   -7.9704846    781.39616  0.015375761  0.014352618            3 
 4236000   0.57329749   -7.9695683     782.7431  0.015398629  0.014347989            7 
 4237000   0.57339475   -7.9870686    780.70374  0.015354884  0.014343359            3 
 4238000   0.56422575   -7.9518503    782.12271  0.015379163  0.014338732            2 
 4239000    0.5704591   -7.9911308    782.34594  0.015379923  0.014334107            3 
 4240000   0.56449025   -8.0012667    781.68592  0.015363324  0.014329485            4 
 4241000   0.58150379   -7.9823304    781.09723  0.015348134  0.014324859            5 
 4242000   0.57679329   -7.9707593    783.11461  0.015384147  0.014320235            5 
 4243000   0.57770775   -7.9716327    781.95555  0.015357757  0.014315619            3 
 4244000   0.56265214   -7.9939493    781.44847  0.015344181  0.014310999            4 
 4245000   0.57600334   -7.9898595    781.29706  0.015337594   0.01430638            3 
 4246000    0.5552313     -7.97962     780.8164  0.015324549   0.01430176            3 
 4247000   0.56381571   -7.9711434    782.12238  0.015346566  0.014297141            6 
 4248000   0.58503399   -7.9760959    780.55907  0.015312286  0.014292524            4 
 4249000   0.56681545   -7.9723442    781.63417  0.015329767  0.014287909            7 
 4250000   0.57134753   -7.9673491    779.91729  0.015292496  0.014283295            5 
 4251000   0.57446519    -7.985143    781.76062  0.015325034  0.014278685            4 
 4252000   0.57532195   -7.9728674     779.7851  0.015282712  0.014274075            5 
 4253000   0.56721381   -7.9657671    782.49001  0.015332119  0.014269472            5 
 4254000   0.57433404   -8.0002603    780.81613  0.015295724  0.014264866            4 
 4255000   0.57069423   -7.9663597    781.25261  0.015300678  0.014260258            4 
 4256000   0.56998155   -7.9702447     781.6314  0.015304499  0.014255652            4 
 4257000   0.57319255    -7.981708    780.50381  0.015278831  0.014251053            5 
 4258000   0.56076618   -7.9815344    781.08738  0.015286664  0.014246451           10 
 4259000   0.56925035   -7.9848589    781.40729  0.015289334  0.014241855            6 
 4260000    0.5714052   -7.9695121    780.89982  0.015275818  0.014237255            4 
 4261000   0.56209506   -7.9765661     780.6934  0.015268196  0.014232661            6 
 4262000   0.56249383   -7.9755708    781.83186  0.015286874  0.014228064            7 
 4263000   0.56597701   -8.0091417    782.40749   0.01529454  0.014223464            5 
 4264000    0.5785545   -7.9822738    782.00527  0.015283092  0.014218874            4 
 4265000   0.57114669   -7.9863633    780.57302  0.015251524  0.014214292            4 
 4266000   0.57210785   -7.9690664    780.87898  0.015253926  0.014209704            5 
 4267000     0.584368    -7.980141    781.54298  0.015263319  0.014205118            5 
 4268000   0.56453976   -7.9695402    780.65156  0.015242338  0.014200528            4 
 4269000   0.55176206   -7.9938446     780.1078  0.015228153  0.014195943            5 
 4270000   0.57703995   -7.9863254    781.73134  0.015256271  0.014191366            6 
 4271000   0.56287514   -7.9898602     781.3391  0.015245046  0.014186788            5 
 4272000   0.56938782   -8.0006691    781.50546  0.015244723  0.014182211            8 
 4273000   0.56239047   -7.9750554    780.60676  0.015223628  0.014177635            6 
 4274000   0.55878754    -7.984171    779.57376  0.015199925   0.01417306            6 
 4275000   0.56735562   -7.9840478    781.25154  0.015229075  0.014168492            8 
 4276000   0.57302681   -7.9780543     781.8868  0.015237894  0.014163924            3 
 4277000   0.56386703   -7.9811959    781.69489  0.015230592   0.01415936            4 
 4278000   0.56203351   -7.9656262    781.77487   0.01522859  0.014154794            5 
 4279000   0.56923672   -7.9790342    780.88132  0.015207629  0.014150232            6 
 4280000   0.56473423   -7.9957006     782.0161   0.01522617  0.014145667            4 
 4281000   0.55885037   -7.9856121    781.90269  0.015220406  0.014141102            5 
 4282000   0.56124576   -7.9755327     782.0283  0.015219296  0.014136549            4 
 4283000   0.56787105   -7.9856514    780.57289  0.015187425  0.014131994            5 
 4284000   0.57063306   -7.9839489    780.62714  0.015184935   0.01412745            7 
 4285000   0.56996086   -7.9720394    782.54673  0.015218723  0.014122905            8 
 4286000    0.5847483   -7.9716824    783.00281   0.01522404  0.014118362            4 
 4287000   0.57935909   -7.9963501     782.5574   0.01521183  0.014113814            6 
 4288000   0.56657477   -7.9701033    781.15949  0.015181116  0.014109262            7 
 4289000   0.55510593   -7.9890419    781.42307  0.015182697  0.014104719            4 
 4290000   0.56496861   -7.9788242    781.26658  0.015176119   0.01410017            3 
 4291000   0.57118941   -7.9600692    782.09181  0.015188608  0.014095629            5 
 4292000   0.56167892   -7.9707265    782.05414  0.015184338  0.014091087            6 
 4293000    0.5572336   -7.9786095    781.55946  0.015171198   0.01408654            6 
 4294000   0.57343439   -7.9857632    780.04456  0.015138266  0.014081998            7 
 4295000   0.56175688    -7.985223    782.05816   0.01517381  0.014077464            6 
 4296000   0.56036611   -7.9842828    781.18319  0.015153305  0.014072935            4 
 4297000   0.56009681   -7.9777151    781.60334  0.015157927  0.014068397            4 
 4298000   0.56549313   -7.9999241     780.9319  0.015141382  0.014063863            4 
 4299000   0.57659194   -7.9686766    780.71491  0.015133653  0.014059333            5 
 4300000   0.56692665   -7.9775357    780.84052  0.015132568  0.014054806            5 
 4301000   0.56603482   -7.9798395    782.17545  0.015154914  0.014050282            8 
 4302000   0.56279879   -7.9934286    780.74331   0.01512365  0.014045754            5 
 4303000   0.55920898   -8.0045945    781.44582   0.01513374  0.014041225            5 
 4304000   0.57650892   -7.9890406    780.48821  0.015111683   0.01403669            5 
 4305000   0.57228822   -7.9733684    781.40893  0.015125995  0.014032163            8 
 4306000   0.56426979   -7.9872164    781.84909  0.015131001  0.014027632            8 
 4307000   0.55499393    -7.983038    781.96249  0.015129682  0.014023103            7 
 4308000   0.56276342   -8.0033133    780.90763  0.015105765  0.014018565           12 
 4309000   0.56258429   -7.9995849    780.59207  0.015096157   0.01401404            5 
 4310000   0.57167306   -7.9866808    782.30211  0.015125718  0.014009521            3 
 4311000   0.56376564   -7.9911048    781.22948  0.015101474  0.014005003            6 
 4312000   0.55957921    -7.990994    781.66904  0.015106467  0.014000489            8 
 4313000   0.58146517   -7.9793193    781.93334  0.015108071  0.013995974            8 
 4314000   0.54633589    -7.985019    780.96335  0.015085832  0.013991464            5 
 4315000   0.55965201   -7.9969607    780.64125  0.015076115  0.013986949            4 
 4316000   0.56595243   -7.9776802    781.79961  0.015094988  0.013982446            5 
 4317000   0.55492441    -7.986194    781.56099  0.015086885   0.01397794            9 
 4318000   0.56158486   -8.0091917    780.47246  0.015062383  0.013973438            6 
 4319000   0.54752615   -7.9836433     780.7502  0.015064255  0.013968932            9 
 4320000    0.5541249   -7.9973723    780.62716  0.015058394  0.013964427            7 
 4321000   0.56536932   -7.9823452    781.44756  0.015070731  0.013959928            5 
 4322000    0.5627321   -7.9887914    781.18252  0.015062134  0.013955431            6 
 4323000   0.57348962   -7.9976077    780.65143  0.015048412  0.013950935            7 
 4324000   0.56856609   -7.9805315    781.53763  0.015062011  0.013946446            7 
 4325000   0.55019054   -7.9805746    780.47732  0.015038099  0.013941955            7 
 4326000   0.56433904   -7.9954401    780.91507  0.015043055   0.01393746           10 
 4327000   0.54959083   -7.9822569    778.89067  0.015000591  0.013932964           15 
 4328000   0.56564636   -7.9752953    780.38033  0.015025807  0.013928471            6 
 4329000   0.55599401   -7.9809885    781.46068  0.015043133  0.013923979           14 
 4330000   0.56420451   -7.9964623    780.04228  0.015012361  0.013919486            6 
 4331000   0.55304927    -7.972855    781.30974  0.015033282  0.013914997            8 
 4332000   0.55355912   -7.9927061    779.40716  0.014993212  0.013910513           19 
 4333000   0.54941461   -7.9896484    781.08631  0.015022046   0.01390603            7 
 4334000   0.55173966   -7.9970445    781.06146  0.015018102  0.013901552           11 
 4335000   0.54975598   -8.0041718    779.29679  0.014980715  0.013897068            4 
 4336000   0.55826404   -7.9975261    781.01186  0.015010222  0.013892587            8 
 4337000   0.55646729   -7.9821136     779.4116  0.014976013  0.013888109            7 
 4338000   0.55128033   -7.9931735    780.02511  0.014984346  0.013883632            6 
 4339000   0.56037635   -8.0002643    781.58337   0.01501082  0.013879165           10 
 4340000   0.55433769   -7.9994935    780.44871  0.014985574  0.013874693            8 
 4341000   0.54846392   -7.9871342    780.13198  0.014976042  0.013870215            6 
 4342000   0.55893051    -8.015774    782.34197  0.015015008  0.013865747            6 
 4343000   0.54761106   -7.9902721    780.77128  0.014981412  0.013861275            5 
 4344000   0.55798568   -7.9853643    780.30713  0.014969059  0.013856814            7 
 4345000   0.55464483    -7.999052    780.68881  0.014972935  0.013852344            6 
 4346000   0.55805922   -7.9766621    781.95072  0.014993686  0.013847882            6 
 4347000   0.55341288    -7.995233    780.06909  0.014954165  0.013843419            5 
 4348000   0.54690729   -7.9766723    780.54635  0.014959873  0.013838959            8 
 4349000    0.5563112   -7.9868781    779.53329  0.014937022  0.013834496            7 
 4350000   0.54435859   -7.9828612    780.07916  0.014944045  0.013830037            4 
 4351000   0.55960702   -7.9936774    780.63125  0.014951185  0.013825579            7 
 4352000   0.55617978   -7.9751288    781.80802  0.014970282  0.013821121            7 
 4353000   0.55216778   -7.9930853    781.94562  0.014969477  0.013816672            5 
 4354000   0.54067088   -7.9952641    781.00507  0.014948038  0.013812218            6 
 4355000   0.55999856   -7.9866086    780.21904  0.014929564  0.013807772           13 
 4356000   0.55825725   -7.9917252    779.78026  0.014917743  0.013803329           18 
 4357000   0.54840965   -8.0076556    780.94393  0.014936576  0.013798878            9 
 4358000   0.55240317   -7.9949244     780.1097  0.014917196  0.013794429            6 
 4359000   0.54511932   -8.0040477    781.71783  0.014944518  0.013789983            7 
 4360000   0.55567355   -7.9969669    782.26937  0.014951632  0.013785528            9 
 4361000   0.56929961   -7.9914749    780.58503  0.014916017  0.013781084           11 
 4362000   0.56147371   -8.0081694    779.04543  0.014883185  0.013776643            9 
 4363000    0.5470445   -8.0153287    780.49391   0.01490744  0.013772201           12 
 4364000    0.5573947    -7.995992    781.20152  0.014917536  0.013767763            7 
 4365000   0.54552242   -7.9841407    779.81464  0.014887641  0.013763319            7 
 4366000   0.53256145   -7.9952391    780.33497  0.014894163  0.013758887            8 
 4367000   0.55339027   -7.9767785    781.23147   0.01490786  0.013754458            6 
 4368000   0.54995264   -7.9973161     780.6319  0.014893008  0.013750028            7 
 4369000   0.55217013   -8.0047461     779.8571  0.014874821    0.0137456            9 
 4370000   0.55167202   -8.0114184    780.45639  0.014882845  0.013741173           11 
 4371000   0.55049112   -8.0011902    779.51785  0.014861547  0.013736739            7 
 4372000   0.53984927   -8.0065904    781.17516  0.014889737  0.013732316            5 
 4373000   0.55628305   -8.0066854    780.37292  0.014871044   0.01372789            9 
 4374000   0.56221963    -8.006715    780.86325  0.014876986  0.013723466            6 
 4375000   0.54732243   -8.0106245    780.64837  0.014869493  0.013719042            8 
 4376000    0.5467463   -7.9806867    779.27484  0.014839938   0.01371462           10 
 4377000   0.56150068   -8.0026845    780.22486  0.014854635  0.013710203            5 
 4378000   0.55568271   -7.9977301    782.07671  0.014886491  0.013705788           10 
 4379000    0.5562712   -8.0117316    780.72659  0.014857399  0.013701373           17 
 4380000   0.55403613   -7.9947148    780.66726  0.014852878  0.013696958            7 
 4381000   0.54694926   -8.0082304    779.24035  0.014822346  0.013692541           14 
 4382000   0.55315382   -8.0071504    780.31848  0.014839466  0.013688129            5 
 4383000   0.55418299   -7.9968901      781.271   0.01485419  0.013683723            6 
 4384000   0.55289716   -8.0094497    781.58757   0.01485682   0.01367931            7 
 4385000   0.55133892   -7.9986995    779.28582  0.014809689  0.013674896            9 
 4386000   0.55169711   -8.0148871    778.74228  0.014795985  0.013670489           12 
 4387000   0.55657667   -8.0036618    780.71937  0.014830168   0.01366608            8 
 4388000   0.55593861   -7.9989112    781.09199  0.014833865  0.013661678            7 
 4389000   0.54920626   -8.0231045    779.30563  0.014796568  0.013657269           10 
 4390000   0.55303661    -8.021735    779.89289  0.014804345  0.013652866            6 
 4391000   0.55481429   -8.0389106    779.73698  0.014798015  0.013648457            8 
 4392000   0.54272862    -8.005726    779.52433   0.01479061   0.01364405            6 
 4393000   0.53495526   -8.0261847    779.88579    0.0147941  0.013639647            8 
 4394000   0.55008836   -8.0025007    779.15398  0.014776854  0.013635245            5 
 4395000   0.55158763   -8.0085492    779.43481  0.014778817  0.013630845            8 
 4396000   0.54521351   -8.0306681    779.95125  0.014785245  0.013626444           12 
 4397000   0.55797796   -8.0207341    779.05414   0.01476488  0.013622041            9 
 4398000   0.54301495    -8.008623    779.10831  0.014762549   0.01361765           12 
 4399000   0.55177563    -8.022919    780.66994  0.014788777  0.013613255            9 
 4400000   0.53786922   -7.9998055    779.79566  0.014768857  0.013608865            9 
 4401000   0.54598316   -8.0037226    779.91763  0.014767811   0.01360447           11 
 4402000   0.56505547   -8.0283907    778.48424  0.014737321  0.013600083            6 
 4403000    0.5630046   -8.0163617    780.11306  0.014764802  0.013595698            9 
 4404000   0.54110234   -8.0266329    779.11602  0.014742583  0.013591312            9 
 4405000   0.54562133   -8.0033094    779.17046  0.014740266  0.013586922            5 
 4406000   0.55400536   -8.0041769    780.49779  0.014762025  0.013582532           10 
 4407000   0.55239559   -8.0146745    778.27894  0.014716719  0.013578147            8 
 4408000   0.55653931   -8.0433972    778.40715  0.014715804  0.013573764            9 
 4409000   0.54721562   -8.0132759    780.03172  0.014743172  0.013569384           12 
 4410000   0.55463731   -8.0190565    779.60368   0.01473174     0.013565           10 
 4411000   0.53854673   -8.0409934     778.9995  0.014716986  0.013560618            6 
 4412000   0.54572697   -8.0340082    779.24546  0.014718296  0.013556239            9 
 4413000   0.55272723   -8.0454317    780.57603  0.014740087  0.013551858           13 
 4414000   0.54530771   -8.0145892    780.37945  0.014733036  0.013547487            7 
 4415000   0.54830946   -8.0218302    779.11413  0.014705816  0.013543118            5 
 4416000    0.5503339   -8.0060299    780.21328  0.014723228  0.013538748            5 
 4417000   0.54995546   -8.0411735    778.90561  0.014695223  0.013534377            5 
 4418000   0.53762676   -8.0200616    780.55911  0.014723086  0.013530016            9 
 4419000   0.55153298   -8.0204381    779.44332  0.014698712  0.013525652            4 
 4420000   0.55878331    -8.024026    778.28708  0.014673588  0.013521285            8 
 4421000   0.52927062   -8.0206748    781.08096  0.014722932  0.013516928            5 
 4422000   0.54708687   -8.0279685    780.45809  0.014707864  0.013512571            6 
 4423000   0.54009318   -8.0402051    779.76212  0.014691426  0.013508223            9 
 4424000   0.54490004   -8.0130499    779.43497  0.014681943  0.013503866            6 
 4425000    0.5361535   -8.0103661    779.80773  0.014685645  0.013499519            6 
 4426000   0.53855819   -8.0012694    779.18002  0.014670508  0.013495178            8 
 4427000   0.52910387   -8.0269832    779.47399  0.014672728  0.013490835            5 
 4428000   0.54646687   -8.0120537    780.00427  0.014679394  0.013486496            3 
 4429000   0.54305384   -8.0187327    779.63097  0.014669056  0.013482153            6 
 4430000   0.54454874   -8.0289548    781.15036  0.014694326  0.013477811            3 
 4431000   0.54218301   -8.0198375    779.69751  0.014663686  0.013473466            3 
 4432000   0.55225672   -8.0208735    778.81964  0.014643871  0.013469125            6 
 4433000   0.53715803   -8.0045247    779.24056   0.01464848  0.013464791            6 
 4434000   0.53199926   -8.0152624    780.04389  0.014660275  0.013460454            8 
 4435000   0.54521463   -8.0304732    779.74902  0.014651428  0.013456126            7 
 4436000   0.54304061   -7.9910284    779.56619  0.014644691  0.013451794            7 
 4437000   0.54563942    -8.031141    781.44061  0.014676595  0.013447472            5 
 4438000   0.54193286   -8.0290754    778.98186  0.014627119  0.013443146            4 
 4439000   0.54138109   -8.0298308    780.27805  0.014648157  0.013438823            6 
 4440000    0.5350749   -8.0063258    780.68157  0.014652432  0.013434494            4 
 4441000   0.54058734   -8.0318012    779.07643  0.014619013  0.013430172            6 
 4442000   0.53978715   -8.0222128    778.54403  0.014605734  0.013425847            6 
 4443000   0.52987196   -8.0329679    779.26991  0.014616061  0.013421526            5 
 4444000   0.53599992   -8.0262329     778.9434   0.01460665  0.013417203            6 
 4445000   0.53895938   -8.0290401    779.28932  0.014609848  0.013412887            6 
 4446000    0.5507062   -8.0407131    778.09859  0.014584244  0.013408573            6 
 4447000   0.53529825   -8.0179182    779.27352  0.014602982  0.013404257            3 
 4448000   0.53915948   -8.0251748    778.59761  0.014587036  0.013399943            5 
 4449000   0.53553116   -8.0394797    778.53301  0.014582547  0.013395634            7 
 4450000   0.55105883   -8.0151026    779.13416  0.014590527   0.01339132            5 
 4451000   0.54024529   -8.0158343    780.10242  0.014605377  0.013387014            5 
 4452000   0.54077616   -8.0200742    779.38164  0.014588605  0.013382707            4 
 4453000   0.53877335   -8.0318509    779.87339  0.014594532  0.013378401            5 
 4454000   0.53983094   -8.0334371    778.97585  0.014574462  0.013374095            5 
 4455000   0.53533359   -8.0437839    779.09491  0.014573418  0.013369791            8 
 4456000   0.54860018   -8.0474367    780.27918  0.014592295   0.01336549            8 
 4457000   0.53748119    -8.029428    778.19136  0.014549984  0.013361184            6 
 4458000   0.53660155   -8.0400755     779.4218  0.014569721  0.013356883            8 
 4459000   0.53384305   -8.0452205    779.56155  0.014569065  0.013352587            7 
 4460000   0.54055478    -8.025284    780.53384  0.014583966  0.013348281            4 
 4461000   0.54117967    -8.033662    779.74228   0.01456591  0.013343984            5 
 4462000   0.52987753   -8.0317883    781.28772  0.014591508  0.013339691            4 
 4463000   0.52944588   -8.0124285    777.49852  0.014517487  0.013335398            5 
 4464000   0.53671566   -8.0314875    779.34996  0.014548797  0.013331101            4 
 4465000   0.55417081   -8.0281143    779.06664  0.014540251  0.013326807            5 
 4466000   0.53874736   -8.0168638    779.22788  0.014540004  0.013322513            6 
 4467000   0.53903999   -8.0242322    778.42539  0.014521778  0.013318223            6 
 4468000   0.54831047   -8.0400386    779.41241  0.014536937  0.013313937            3 
 4469000   0.52981489   -8.0263901    779.39114  0.014533288  0.013309652            4 
 4470000   0.54104449   -8.0241384    777.63977  0.014497386   0.01330537            6 
 4471000   0.53424021   -8.0437832    779.20716  0.014523357  0.013301092            7 
 4472000   0.54642977   -8.0323925    778.88226  0.014514055  0.013296815            4 
 4473000   0.53139448    -8.047711    779.13562  0.014515531  0.013292536            3 
 4474000   0.52505517   -8.0562587    778.77181   0.01450551  0.013288253            4 
 4475000   0.54177487   -8.0268685    779.44588  0.014514821  0.013283976            8 
 4476000   0.53910228    -8.024835     779.1129  0.014505379  0.013279702            4 
 4477000   0.52802905    -8.041399    778.89852  0.014498148  0.013275435            4 
 4478000   0.53398405   -8.0430118    780.95155  0.014533117  0.013271164            5 
 4479000   0.53386788   -8.0507953     779.0876  0.014495192  0.013266896            5 
 4480000   0.52665944   -8.0431444    779.07509  0.014491724  0.013262634            5 
 4481000   0.53800082   -8.0392437    779.48683  0.014496147  0.013258367            7 
 4482000   0.53147324   -8.0447384    778.75756  0.014479354  0.013254103            7 
 4483000   0.53320386   -8.0376234    779.42994  0.014488623  0.013249844            7 
 4484000    0.5271499    -8.039221    778.43944  0.014466983  0.013245582            9 
 4485000   0.52325816   -8.0294984    779.24096   0.01447865  0.013241326            5 
 4486000   0.54538159   -8.0352029    779.02933  0.014471491  0.013237065            5 
 4487000   0.53505416   -8.0283672    779.00532   0.01446782  0.013232809            5 
 4488000   0.52895713   -8.0389625    779.88284  0.014480891   0.01322855           10 
 4489000   0.52895911    -8.042529    778.71015  0.014455895  0.013224293            7 
 4490000   0.52260311   -8.0388457    778.90023  0.014456203  0.013220038            7 
 4491000   0.54024699   -8.0253686    778.83667  0.014451805  0.013215783            9 
 4492000   0.54419415   -8.0312588    778.05458  0.014434079  0.013211534            5 
 4493000   0.53277188   -8.0345087    779.03383  0.014449029  0.013207281            9 
 4494000   0.52627089   -8.0480345    778.60404  0.014437844   0.01320303            6 
 4495000    0.5329527   -8.0301995    778.20223  0.014427183  0.013198779            5 
 4496000   0.52961868   -8.0302972    778.10774  0.014422222  0.013194533            8 
 4497000   0.53702529   -8.0398037    778.03133  0.014417599  0.013190289            4 
 4498000    0.5320114   -8.0240754    778.44551  0.014422067   0.01318605            3 
 4499000   0.53195035   -8.0474898    779.16556  0.014432199  0.013181813            5 
 4500000   0.53050034   -8.0314682    779.59683  0.014436978  0.013177574            5 
 4501000   0.52767175   -8.0373019    778.44489  0.014412443  0.013173333            5 
 4502000   0.52761963   -8.0608547    779.32888  0.014425605  0.013169094            5 
 4503000   0.53198515   -8.0397092    778.28543  0.014403091  0.013164862           12 
 4504000   0.54487176   -8.0410382    780.90427  0.014448347  0.013160635            7 
 4505000   0.53717737   -8.0565486    779.21086  0.014413815    0.0131564            5 
 4506000    0.5335161   -8.0309042    777.96005  0.014387484  0.013152162            9 
 4507000   0.53067543   -8.0412798    779.24318  0.014408017  0.013147931            6 
 4508000   0.54473248   -8.0484761    778.34913  0.014388293  0.013143702            3 
 4509000   0.53548224   -8.0644612    777.84041  0.014375701   0.01313947            7 
 4510000   0.52994942    -8.059511    778.98527  0.014393667  0.013135241            7 
 4511000   0.53249757   -8.0455944    779.00678  0.014390874  0.013131014            8 
 4512000   0.54291384   -8.0391424    780.40218  0.014413456  0.013126791            9 
 4513000   0.52897379   -8.0422327     779.0174  0.014384692  0.013122574            7 
 4514000   0.53836156   -8.0326749    778.68376  0.014375346  0.013118359            5 
 4515000   0.52545394   -8.0602519    779.36661  0.014384766   0.01311414            4 
 4516000   0.52921423   -8.0324258     779.3654  0.014381558  0.013109923            8 
 4517000   0.55099669   -8.0447763    777.42465   0.01434257  0.013105704            8 
 4518000   0.52568383    -8.051679    778.01892  0.014350356  0.013101483           11 
 4519000   0.52922048   -8.0586747    778.89923  0.014363414  0.013097268            5 
 4520000   0.53228438   -8.0449943    778.41903  0.014351383  0.013093054            4 
 4521000   0.52376692   -8.0366912    778.19536  0.014344086   0.01308885            6 
 4522000   0.51704382   -8.0427699    779.21938  0.014359785  0.013084646            9 
 4523000   0.53050736   -8.0319216    778.90496  0.014350817  0.013080439            4 
 4524000   0.52735287   -8.0361418    779.01527  0.014349677  0.013076234            4 
 4525000   0.52730326   -8.0460662    779.91583  0.014363091  0.013072029            5 
 4526000   0.53708634    -8.043258    778.91867  0.014341558  0.013067823            4 
 4527000   0.52966743   -8.0500889    779.97811  0.014357892  0.013063628            8 
 4528000   0.53511714   -8.0639137    778.56774  0.014328764  0.013059429            5 
 4529000   0.53083533    -8.057886    776.41693  0.014286026  0.013055234           17 
 4530000   0.53061281   -8.0495335    777.80692  0.014308442  0.013051036            6 
 4531000   0.52667432   -8.0640564    780.29843  0.014351108  0.013046844           12 
 4532000   0.51930192    -8.034009    778.39019  0.014312853  0.013042653           10 
 4533000   0.53114307   -8.0652111    777.87076  0.014300146  0.013038459            9 
 4534000   0.52320054   -8.0426771    777.83826  0.014296395  0.013034269            6 
 4535000   0.53703541    -8.047377    779.17482  0.014317803  0.013030078            4 
 4536000   0.53322446   -8.0404817    778.46727  0.014301647  0.013025889            7 
 4537000   0.51312496    -8.064408     778.4261  0.014297739  0.013021698            5 
 4538000   0.52373368   -8.0487702    778.16802  0.014289849  0.013017512            7 
 4539000     0.521934   -8.0522921    777.60643   0.01427639  0.013013323            9 
 4540000   0.52004666   -8.0468309    777.21453  0.014266052  0.013009136            8 
 4541000   0.50845604   -8.0645897    778.52275  0.014286918  0.013004948            6 
 4542000   0.51598652   -8.0475184    779.43175  0.014300451  0.013000763            6 
 4543000   0.52339074   -8.0347655    777.26056  0.014257476  0.012996582           20 
 4544000   0.52070421   -8.0577705    777.87034  0.014265521  0.012992403            8 
 4545000   0.52572788   -8.0578599    778.22153  0.014268822   0.01298822            6 
 4546000     0.525205   -8.0418731    777.78663  0.014257711  0.012984036            5 
 4547000   0.53308633   -8.0596586    778.29535  0.014263898  0.012979859            7 
 4548000    0.5252445   -8.0620564    777.92463  0.014253969  0.012975685            6 
 4549000   0.51954239   -8.0656718    778.60425  0.014263286  0.012971515            9 
 4550000   0.52925299   -8.0445572    778.06981  0.014250363  0.012967342           11 
 4551000   0.51427678   -8.0600077    778.16729  0.014249017  0.012963171            7 
 4552000   0.52268406   -8.0566103    777.92914  0.014241526  0.012959001            8 
 4553000    0.5243098   -8.0645252     778.7299  0.014253055  0.012954835           13 
 4554000   0.51955213   -8.0656164    777.22372  0.014222364  0.012950669           10 
 4555000   0.51789695   -8.0554289    778.65647  0.014245453  0.012946504            7 
 4556000   0.52215803   -8.0606057    778.79251  0.014244815  0.012942343            8 
 4557000   0.52442704   -8.0746429     777.9039  0.014225439   0.01293818            7 
 4558000   0.52491301   -8.0577384    777.04746   0.01420666  0.012934018           10 
 4559000   0.51579513   -8.0466557    779.79577   0.01425378  0.012929861            6 
 4560000   0.51819789   -8.0643412    776.72846  0.014194599  0.012925704            8 
 4561000   0.52553017   -8.0659219    778.25102  0.014219305  0.012921551           12 
 4562000   0.52566514   -8.0557117    778.70674  0.014224513  0.012917403           11 
 4563000    0.5158437   -8.0617327     779.5862  0.014237457  0.012913255           10 
 4564000   0.52358901   -8.0484364    779.21927  0.014227638  0.012909106           13 
 4565000   0.51002651    -8.053651    778.42736  0.014210065  0.012904963           13 
 4566000   0.52638028   -8.0639944    778.05417  0.014200142  0.012900818           10 
 4567000   0.52501707   -8.0667893    778.69574  0.014208739  0.012896674           10 
 4568000   0.52122176   -8.0619532    778.20722  0.014196717  0.012892537           16 
 4569000   0.50327811   -8.0567045     778.3742  0.014196655  0.012888394            9 
 4570000   0.51989938   -8.0766132    777.12848  0.014170833  0.012884251           12 
 4571000   0.52171789   -8.0662017    777.78462  0.014179695  0.012880109           16 
 4572000   0.51969222   -8.0671409    778.24077  0.014184908  0.012875968           10 
 4573000   0.50689398   -8.0659654     778.0092  0.014177586  0.012871826           15 
 4574000   0.51087177   -8.0611719    777.63751  0.014167714  0.012867688            7 
 4575000   0.51080465   -8.0712395    777.96654  0.014170611  0.012863552            7 
 4576000   0.52180301   -8.0716445    778.60569  0.014179154  0.012859418           16 
 4577000   0.51362407   -8.0557381    777.32315  0.014152705  0.012855281            8 
 4578000   0.51432361   -8.0670757    778.00134  0.014161958  0.012851144            9 
 4579000   0.51757907   -8.0789227     778.2601  0.014163575  0.012847015           13 
 4580000   0.52979607   -8.0604524    778.08698  0.014157332  0.012842883            5 
 4581000   0.52119477   -8.0796623    778.57649  0.014163147   0.01283876           19 
 4582000   0.52402837   -8.0670668     777.3385   0.01413754  0.012834634            6 
 4583000   0.51362908   -8.0666429    777.41813  0.014135903  0.012830511            9 
 4584000   0.50790894   -8.0798271    777.17894  0.014128471  0.012826388           10 
 4585000   0.52510316   -8.0687073    776.59022  0.014114689  0.012822264           12 
 4586000   0.51895572   -8.0796827    777.80172  0.014133626  0.012818143            5 
 4587000   0.51760821   -8.0715861    777.65756  0.014127926  0.012814025           11 
 4588000   0.52662006   -8.0577818    777.11486  0.014114989  0.012809909            6 
 4589000   0.51188206   -8.0728528    776.46049  0.014100031  0.012805791           11 
 4590000   0.51012968   -8.0572317    777.81047  0.014121468  0.012801676            9 
 4591000   0.50904564   -8.0787863    778.03231  0.014122419  0.012797565           11 
 4592000   0.51409801   -8.0794711    777.19266  0.014104106  0.012793458            9 
 4593000   0.52630528   -8.0663284    776.97784  0.014097138  0.012789349           11 
 4594000   0.51468496   -8.0759392    777.11472  0.014096552   0.01278524            4 
 4595000   0.52499549   -8.0722444     778.5466  0.014119452  0.012781131            7 
 4596000   0.51303133   -8.0779121    777.97841  0.014106078  0.012777022            5 
 4597000     0.501963   -8.0773878    776.78065  0.014081297  0.012772915            5 
 4598000   0.51471255   -8.0846376    777.14575  0.014084851  0.012768811           11 
 4599000   0.52851491   -8.0933569    778.03633  0.014097926  0.012764708           13 
 4600000   0.50459465   -8.0820929    777.33074  0.014082079  0.012760606            8 
 4601000   0.51491583   -8.0688294    777.93336  0.014089933  0.012756505           16 
 4602000   0.51557107   -8.0891587    776.69737   0.01406449  0.012752408            5 
 4603000   0.52778429   -8.0708212    776.52899  0.014058386  0.012748311            9 
 4604000   0.51293386   -8.0654477    777.31607  0.014069578   0.01274421            6 
 4605000   0.51872684   -8.0836187    778.11991   0.01408107  0.012740114           10 
 4606000   0.50689326   -8.0952801    778.49936  0.014084878  0.012736019           10 
 4607000   0.51365681   -8.0769012    776.13943  0.014039133  0.012731925           11 
 4608000   0.52088688   -8.0856187    778.55574  0.014079784  0.012727837           16 
 4609000   0.49763151   -8.0865829    776.79955  0.014044976  0.012723745           10 
 4610000   0.51640936   -8.0911571    777.39679  0.014052726  0.012719654           11 
 4611000   0.51104747   -8.0813763    776.44874  0.014032544   0.01271557            6 
 4612000   0.51328843   -8.0882847     776.4189  0.014028962  0.012711485            6 
 4613000   0.51442274   -8.0770831    777.10539  0.014038323  0.012707405            9 
 4614000   0.50948415   -8.0806829    777.53636  0.014043064  0.012703323            8 
 4615000    0.5119217   -8.0748901    777.93831  0.014047279  0.012699243           11 
 4616000   0.51238547   -8.0918573    776.36333  0.014015802  0.012695166            5 
 4617000   0.51533171   -8.0813851    777.82576  0.014039163   0.01269109            7 
 4618000   0.51754014   -8.0706844    776.88277  0.014019106  0.012687018            5 
 4619000   0.52466809    -8.082789    778.06979  0.014037486  0.012682949            7 
 4620000   0.51606127   -8.0799947     777.8605  0.014030673  0.012678878            7 
 4621000   0.51450852   -8.0860646    776.99191  0.014011973  0.012674807            7 
 4622000   0.52581051   -8.0787732    777.47273   0.01401761   0.01267074            6 
 4623000   0.51371253   -8.0831533    778.06077  0.014025178  0.012666677           16 
 4624000   0.50791956   -8.0691044    776.03487  0.013985634  0.012662619            4 
 4625000   0.51452835   -8.0777701    776.60512  0.013992885   0.01265856            8 
 4626000   0.51925836   -8.0843105    778.26783  0.014019812  0.012654506            4 
 4627000   0.51647255   -8.0681198    776.82635  0.013990821  0.012650452           10 
 4628000   0.49619408   -8.0862815    777.23155  0.013995094  0.012646396            9 
 4629000   0.51642204   -8.0858429    777.25337  0.013992464  0.012642343            6 
 4630000   0.50466306   -8.0833018    776.32764   0.01397278  0.012638289            9 
 4631000   0.51465017   -8.0930543    776.68547  0.013976201  0.012634235            7 
 4632000   0.51251564   -8.0742569    776.55352   0.01397081   0.01263018           10 
 4633000   0.52078892   -8.0794656    778.05494  0.013994801   0.01262613           10 
 4634000   0.51179833   -8.0863771    777.53785  0.013982482  0.012622083            5 
 4635000   0.50322013   -8.0819459     777.3908  0.013976821  0.012618035           16 
 4636000   0.50919758   -8.0736605    775.77224  0.013944712  0.012613986           10 
 4637000   0.51843583   -8.0768689    776.34974  0.013952084  0.012609942           10 
 4638000   0.51413425   -8.0671695    776.48638  0.013951531  0.012605898            7 
 4639000    0.5110736   -8.0810376    775.75843  0.013935446  0.012601858            4 
 4640000   0.52045109   -8.0890899    777.49113  0.013963562  0.012597822           10 
 4641000   0.50876425   -8.0860231    777.04795  0.013952595  0.012593781            9 
 4642000   0.49951272   -8.0871427    776.37954   0.01393759  0.012589739            6 
 4643000   0.50886876     -8.10319    775.67407  0.013921927  0.012585701           11 
 4644000   0.50870021   -8.1064669    777.18053  0.013945961  0.012581665            6 
 4645000   0.51076646   -8.0784573    777.56713  0.013949895  0.012577627           10 
 4646000   0.51382573   -8.0844121    776.77647   0.01393271  0.012573591            9 
 4647000   0.50812857   -8.0843331    778.39923  0.013958813  0.012569556            6 
 4648000   0.51410127   -8.0879925    776.64635  0.013924382  0.012565523            7 
 4649000    0.5083135   -8.0729042    777.58713  0.013938251  0.012561498            8 
 4650000   0.50499981   -8.0943219    778.06375  0.013943795  0.012557474            9 
 4651000   0.49644386   -8.0681352    777.74253  0.013935041  0.012553451            6 
 4652000   0.50987577   -8.0801416    777.08894  0.013920338  0.012549428            5 
 4653000   0.50846685   -8.0935596    777.54618  0.013925535  0.012545405            8 
 4654000   0.50784508   -8.1005526    776.68712  0.013907161  0.012541381            8 
 4655000   0.49993093   -8.1112603    776.54394   0.01390161  0.012537355            5 
 4656000    0.5109411   -8.0877442     776.4497  0.013896938  0.012533336            8 
 4657000    0.5088427   -8.0710916     776.0982  0.013887664  0.012529316            4 
 4658000   0.50054307   -8.0863254    776.76854  0.013896675  0.012525305            6 
 4659000   0.50655642   -8.0811875    777.08474  0.013899348  0.012521289            5 
 4660000   0.50616905   -8.0743661    776.66397  0.013888841  0.012517276            6 
 4661000   0.50854933   -8.0911815    777.40766  0.013899157  0.012513264            6 
 4662000   0.51100104   -8.1112177    776.27058  0.013875851  0.012509256            7 
 4663000   0.51383569   -8.0974034    776.08746  0.013869602  0.012505249            6 
 4664000    0.5093622   -8.0973565    776.31154  0.013870632   0.01250124            7 
 4665000   0.50058104   -8.1080631    776.84479  0.013877184  0.012497232            7 
 4666000   0.50775708   -8.0976338    777.60368  0.013887764  0.012493225           12 
 4667000   0.52108679    -8.082941     776.1395  0.013858644  0.012489219           12 
 4668000   0.50009581   -8.0823599    775.90462  0.013851482  0.012485217            6 
 4669000   0.51437296    -8.077911     776.3527  0.013856513  0.012481217            9 
 4670000   0.51555567   -8.1014707    775.55876  0.013839378  0.012477217            5 
 4671000   0.52249102    -8.104031    777.35849  0.013868524  0.012473218            6 
 4672000   0.51106822   -8.0919131    776.40792    0.0138486  0.012469226            6 
 4673000   0.51323189   -8.0836084    775.25351   0.01382505  0.012465232            8 
 4674000   0.50852418   -8.0779915    775.33897  0.013823616  0.012461243            8 
 4675000   0.51493974   -8.0841593    776.70597  0.013845026  0.012457255            6 
 4676000   0.49360057   -8.1036825    777.71725  0.013860088  0.012453266            4 
 4677000   0.50845231   -8.0967004    777.68602  0.013856568   0.01244928            8 
 4678000   0.50727094   -8.0959894     776.1237  0.013825775  0.012445302           14 
 4679000   0.50103364   -8.0756117    775.80776  0.013817193  0.012441322            3 
 4680000   0.50945167   -8.0881752    776.67379  0.013829662  0.012437342            8 
 4681000   0.50331257   -8.0857116    776.02579  0.013815171  0.012433366           15 
 4682000   0.49840092   -8.0899861    777.14419  0.013832126  0.012429391            8 
 4683000   0.50827493   -8.0921643    777.01223  0.013826824  0.012425418           14 
 4684000   0.51276245   -8.0863115    776.93673  0.013822529   0.01242145            9 
 4685000   0.49842591    -8.103281    776.60683  0.013813711  0.012417478           18 
 4686000   0.49659207   -8.0895605    776.46687  0.013808274  0.012413506            7 
 4687000   0.51609542   -8.0888885    776.95746  0.013814051  0.012409531           15 
 4688000   0.50513283   -8.0922611    775.99786  0.013794046   0.01240556           15 
 4689000   0.49033513   -8.0932955     776.5888  0.013801607  0.012401587           12 
 4690000   0.50809319    -8.110145    775.75246  0.013783803   0.01239762            9 
 4691000   0.49434163   -8.0837045    777.13304  0.013805391  0.012393653            6 
 4692000   0.49344469   -8.1211238    776.98314  0.013799786   0.01238969            6 
 4693000   0.50370218    -8.116034    776.60866  0.013790196  0.012385724           15 
 4694000   0.50281008   -8.1028277    776.34098  0.013782506  0.012381762            8 
 4695000   0.49899465   -8.0873061    776.68285  0.013785638  0.012377798           14 
 4696000   0.50815876   -8.1110518    776.93044  0.013787096  0.012373841            7 
 4697000   0.49727398   -8.0952407     776.6792  0.013779703  0.012369879           13 
 4698000   0.49937198   -8.1052562    776.21997  0.013768624  0.012365919           14 
 4699000   0.49510084   -8.1068782    776.93362   0.01377835  0.012361962           10 
 4700000   0.50497383   -8.1193226      774.823  0.013737996  0.012358008           12 
 4701000   0.49956397   -8.1029531    776.26105  0.013760566  0.012354055            6 
 4702000   0.49265322   -8.1040674    776.36468  0.013759476  0.012350099            7 
 4703000   0.50522205     -8.09217    775.89922  0.013748303  0.012346143           10 
 4704000   0.50026849   -8.0971184    775.25926  0.013734043   0.01234219           14 
 4705000   0.48882134    -8.100324    776.21813  0.013748107  0.012338241            7 
 4706000   0.49111777    -8.103088    775.08558  0.013725131  0.012334292            6 
 4707000   0.50339126   -8.0945119    775.53582  0.013730186  0.012330345           16 
 4708000   0.49225206   -8.0942706    775.93247   0.01373429    0.0123264            9 
 4709000   0.50241564   -8.1145811    776.41777  0.013739962  0.012322453           11 
 4710000   0.49506362   -8.1023712    776.60994  0.013740445  0.012318508            7 
 4711000   0.49478791   -8.1032472    776.35518  0.013733022  0.012314569            5 
 4712000   0.49695962   -8.1133315     777.0724  0.013742792   0.01231063           10 
 4713000   0.50703617   -8.1235168    776.72165  0.013733674  0.012306694            9 
 4714000   0.50097747    -8.101604    776.36947  0.013724534  0.012302757           11 
 4715000   0.50675609   -8.1237134     775.8505  0.013712451  0.012298822           10 
 4716000   0.49357511   -8.1117397    776.14225  0.013714699  0.012294889           11 
 4717000   0.49059402   -8.1191165    775.01755  0.013691922  0.012290956            7 
 4718000   0.49967623   -8.1105635    776.70523  0.013718829  0.012287029            9 
 4719000   0.48833664   -8.0981677    776.16712  0.013706419  0.012283098            8 
 4720000   0.49727066   -8.1066735    776.57684  0.013710749  0.012279177           11 
 4721000    0.5057155    -8.102492     775.6976  0.013692325  0.012275257            4 
 4722000   0.49201515   -8.1113898    775.85509  0.013692205  0.012271333            8 
 4723000   0.49654459   -8.1099071    776.56949  0.013701911   0.01226741            8 
 4724000   0.49487533   -8.1100811    775.56331  0.013681261  0.012263487            9 
 4725000   0.49903682   -8.0993414    776.74823  0.013699263   0.01225957           15 
 4726000   0.49706636   -8.0953311    775.37874  0.013672216  0.012255654           12 
 4727000   0.49563787   -8.1183881    776.84315   0.01369514   0.01225174           13 
 4728000   0.50537174   -8.1253139    776.75608  0.013690709  0.012247826            6 
 4729000   0.49018988   -8.1082592    774.82225  0.013653737  0.012243913           12 
 4730000   0.50903928   -8.1198425     776.3841  0.013678367  0.012240002            7 
 4731000   0.49943616    -8.090901    775.80165  0.013665216  0.012236094           11 
 4732000     0.494174   -8.1024822    776.42958  0.013673386  0.012232186           10 
 4733000   0.50351215   -8.1091211    776.87896   0.01367841  0.012228279           13 
 4734000   0.49657474   -8.1090545    776.15259  0.013662734  0.012224374           13 
 4735000   0.49607317    -8.117072    774.47006  0.013630237  0.012220466           10 
 4736000   0.49883771   -8.1125522     776.1416  0.013656771  0.012216561            7 
 4737000   0.48674771   -8.1040831    774.95545  0.013633021   0.01221266           12 
 4738000   0.48721132   -8.1201021    774.96596  0.013630328   0.01220876           11 
 4739000   0.49047428   -8.1145986    775.46183  0.013636172  0.012204865            9 
 4740000   0.48873613   -8.1113953    775.42398   0.01363263  0.012200969            8 
 4741000   0.48974029   -8.0984844    777.34815  0.013663576  0.012197077           13 
 4742000   0.49532883   -8.1166344     776.7018  0.013649336  0.012193184            9 
 4743000   0.49462287   -8.1211124    775.46422  0.013624714  0.012189292            6 
 4744000   0.49585368   -8.1198722     776.6707  0.013643035  0.012185401            9 
 4745000   0.49282137    -8.117307    775.67572  0.013622686  0.012181516           15 
 4746000   0.48749268   -8.1049193    775.86463  0.013623132  0.012177628            5 
 4747000   0.50118577    -8.112696    776.09686  0.013624339  0.012173741           11 
 4748000   0.49490277   -8.1068105    775.81326  0.013616492  0.012169858           10 
 4749000    0.5023977   -8.1218105    776.83769  0.013631601  0.012165977            7 
 4750000   0.48905441   -8.1127144    775.23143  0.013600551  0.012162096            5 
 4751000   0.49135106   -8.0987344     775.2565  0.013598128  0.012158214            8 
 4752000   0.48779558   -8.1042572    775.70734  0.013603173  0.012154331            5 
 4753000   0.48848951   -8.1082504    775.95851  0.013604715  0.012150448            9 
 4754000   0.49079433   -8.1178065    776.63096   0.01361364  0.012146574            7 
 4755000     0.490624   -8.1079217    776.46268  0.013607828  0.012142696           13 
 4756000   0.49935674   -8.1463237     775.3034  0.013584655  0.012138818           10 
 4757000   0.48160859   -8.1103956    776.41295  0.013601236  0.012134944            9 
 4758000   0.49546381   -8.1047539     775.4946  0.013582293  0.012131072            5 
 4759000   0.49080139   -8.1186631    776.14104  0.013590759  0.012127199            9 
 4760000   0.48672131   -8.1122981    776.36461  0.013591817  0.012123326            6 
 4761000   0.49388632   -8.1297158    774.82673  0.013562045  0.012119456           10 
 4762000   0.49909447   -8.1241054    775.62471  0.013573161  0.012115588           15 
 4763000   0.48465382   -8.1084654    774.59716  0.013552333  0.012111724           10 
 4764000   0.49369675   -8.1180787    776.52359  0.013583186   0.01210786            8 
 4765000   0.48340918   -8.1352752    774.60863  0.013546846  0.012103996            9 
 4766000   0.48504633   -8.1359005     775.9207  0.013566945  0.012100131            5 
 4767000   0.48312085   -8.1272708    775.63084  0.013559032  0.012096269           11 
 4768000   0.48405804   -8.1187665    775.32947  0.013550921  0.012092413            6 
 4769000   0.47429425   -8.1336421     775.4315  0.013549862  0.012088555            7 
 4770000   0.48425465   -8.1257624    776.01132  0.013557151  0.012084702           11 
 4771000   0.48713238   -8.1067529    775.49897   0.01354536  0.012080845            9 
 4772000   0.49623782   -8.1269626    775.26536  0.013538442  0.012076994           11 
 4773000    0.4930232   -8.1157416    775.63198  0.013542007  0.012073139            7 
 4774000   0.49857507   -8.1078261    774.74091  0.013523616  0.012069286            7 
 4775000   0.49049925   -8.1264203    774.76177  0.013521148  0.012065435           11 
 4776000   0.48961943   -8.1245203    774.45629  0.013512987  0.012061584            5 
 4777000   0.48975011   -8.1241587    774.60613  0.013512772  0.012057737            6 
 4778000   0.49556678   -8.1162062    775.72135  0.013529394   0.01205389            8 
 4779000   0.48485836   -8.1341448    776.03749  0.013532076  0.012050047            6 
 4780000   0.48071413   -8.1151491    776.79455  0.013542443  0.012046207            7 
 4781000   0.48591082    -8.118054    776.00116  0.013525782  0.012042367            7 
 4782000   0.48355934   -8.1206628    775.64838  0.013516806  0.012038524            8 
 4783000   0.47919146   -8.1172151    775.47029  0.013510877  0.012034687            8 
 4784000   0.47848399   -8.1171441    775.08164  0.013501283  0.012030849            7 
 4785000   0.49091465   -8.1239356    775.67469   0.01350879  0.012027011            8 
 4786000   0.49199922   -8.1368445    774.58348  0.013486967  0.012023177           14 
 4787000   0.49116216   -8.1241464    774.81366  0.013488157  0.012019346            7 
 4788000   0.47790716   -8.1312087    775.30038  0.013493811  0.012015514            8 
 4789000   0.48527006   -8.1220902    776.02614  0.013503622  0.012011683            9 
 4790000   0.48856076   -8.1186683    775.36335  0.013489272  0.012007852           12 
 4791000   0.49372811   -8.1205892    775.67767  0.013491924  0.012004025            9 
 4792000   0.47223049   -8.1116364    775.43843  0.013484948  0.012000199            8 
 4793000   0.48546172    -8.124104    776.81714  0.013506105   0.01199638            8 
 4794000    0.4805343   -8.1237547    777.45505  0.013514376  0.011992559            7 
 4795000   0.48187428   -8.1243369     776.5243  0.013495382  0.011988738            8 
 4796000   0.47896467   -8.1192155     776.3071  0.013488794  0.011984921           11 
 4797000   0.47820377   -8.1236195    775.28736  0.013468268  0.011981102            8 
 4798000   0.49526161   -8.1229797    775.30485  0.013465764  0.011977286            6 
 4799000   0.48439902     -8.13586    774.49533  0.013448901  0.011973469            7 
 4800000   0.47271265   -8.1362878    775.04665  0.013455671  0.011969653            8 
 4801000    0.4864307   -8.1241818    774.70878  0.013447004  0.011965836           10 
 4802000   0.47914422   -8.1136972    773.41919  0.013421824  0.011962021            6 
 4803000   0.47549044    -8.137227    775.03481  0.013447061  0.011958208            7 
 4804000   0.49604694   -8.1356231    775.03861  0.013444328  0.011954398            5 
 4805000   0.47875683   -8.1306447    775.70354  0.013453062  0.011950588            8 
 4806000   0.47902786    -8.147378    775.19101  0.013441376  0.011946783            8 
 4807000    0.4925675   -8.1235997    774.95799   0.01343454  0.011942975            7 
 4808000   0.48266769   -8.1259473    774.68066  0.013426939  0.011939167            6 
 4809000   0.48295554   -8.1447923    775.52657  0.013438805   0.01193536            8 
 4810000    0.4659568   -8.1365358    775.17311  0.013429888  0.011931552            9 
 4811000   0.47276724   -8.1230686    774.57288  0.013416699  0.011927752            7 
 4812000   0.48884538   -8.1369641    774.39868  0.013410894  0.011923954            8 
 4813000   0.48922782   -8.1301669    775.15201  0.013421151  0.011920157            5 
 4814000   0.48423186   -8.1310652    774.75543  0.013411498   0.01191636            4 
 4815000    0.4860085   -8.1504059    775.05296  0.013413862  0.011912565            6 
 4816000   0.48878487    -8.142675    775.48837  0.013418611  0.011908773            7 
 4817000   0.48371712    -8.138926    775.09394  0.013409002   0.01190498           12 
 4818000   0.48532198   -8.1401963    773.87527   0.01338514  0.011901188            9 
 4819000   0.48253366   -8.1413637    774.50015  0.013393169    0.0118974            7 
 4820000   0.48399148   -8.1331183    774.41223   0.01338887   0.01189361            6 
 4821000   0.48069462   -8.1243439    774.65097  0.013390219   0.01188982            7 
 4822000   0.48952476   -8.1228105    776.39664  0.013417611  0.011886037            9 
 4823000   0.47845859   -8.1528715    774.82186  0.013387619  0.011882254            7 
 4824000   0.48519047   -8.1213151    775.78515  0.013401485  0.011878474            9 
 4825000   0.48025426   -8.1505275    775.75092  0.013398116  0.011874696            7 
 4826000   0.46656123   -8.1211436     774.4712  0.013373242  0.011870919            6 
 4827000   0.48479182   -8.1331896    774.23185  0.013366339  0.011867141            8 
 4828000   0.48186525   -8.1280246    774.69226  0.013371518  0.011863365            6 
 4829000   0.47528676   -8.1303687    775.12144  0.013376155  0.011859593            6 
 4830000   0.47646222   -8.1235921     775.3381  0.013377124  0.011855822            8 
 4831000   0.47464341   -8.1335224    774.13112  0.013353535  0.011852051           12 
 4832000   0.47676308    -8.116833     774.2491  0.013352806  0.011848284            7 
 4833000   0.47388593     -8.12821    774.08741  0.013347255  0.011844514            7 
 4834000   0.47821359   -8.1350118    774.76528   0.01335618  0.011840752            8 
 4835000   0.47050208   -8.1621313    775.53214  0.013366635  0.011836985            8 
 4836000   0.49094638   -8.1464814    775.16917  0.013357616  0.011833222            6 
 4837000   0.47919321   -8.1349338     774.1651  0.013337556   0.01182946            7 
 4838000   0.47780979   -8.1489383    774.37245  0.013338371  0.011825698           10 
 4839000   0.47870741   -8.1281784    774.43536  0.013336698  0.011821937           11 
 4840000    0.4692398   -8.1418391    775.01401  0.013343905  0.011818178            7 
 4841000   0.48348419   -8.1465902    776.11378   0.01336008  0.011814423           10 
 4842000   0.47753799   -8.1334158    774.09466  0.013322571  0.011810667           15 
 4843000   0.46416212    -8.137686    774.97963  0.013335048  0.011806911            9 
 4844000   0.47587374   -8.1437573    775.31984  0.013338148  0.011803159           10 
 4845000   0.47682984   -8.1420467    774.70557  0.013324829  0.011799409            5 
 4846000   0.48194327   -8.1380364    774.50547  0.013318639   0.01179566            7 
 4847000     0.481151   -8.1238447    774.91655  0.013322958  0.011791911           11 
 4848000   0.47766412    -8.132246    775.54627  0.013331035  0.011788164            9 
 4849000     0.474571    -8.145802    774.77421  0.013315017  0.011784418            7 
 4850000   0.47530586   -8.1451947    773.55789  0.013291373  0.011780673            9 
 4851000    0.4869301   -8.1435076    774.92471  0.013312113   0.01177693            8 
 4852000   0.47012374   -8.1451341    774.75629  0.013306477  0.011773191            7 
 4853000   0.47590201   -8.1396682    774.98568  0.013307674  0.011769452            9 
 4854000   0.47568529   -8.1429223    774.93971  0.013304143  0.011765717            6 
 4855000   0.47525324   -8.1510641     774.7202  0.013297635   0.01176198            7 
 4856000    0.4849808   -8.1265571    775.29657  0.013304787  0.011758247           10 
 4857000   0.46840016   -8.1508486    774.32932  0.013285453  0.011754513            7 
 4858000   0.47869663   -8.1630669     774.7779  0.013290413  0.011750781            8 
 4859000   0.48121738    -8.151357    774.51229  0.013283122  0.011747054            8 
 4860000   0.47737575   -8.1550073    775.34123  0.013294603  0.011743328           10 
 4861000   0.47221263   -8.1399819     774.5799  0.013278816  0.011739597            9 
 4862000    0.4700269   -8.1593932    774.95009   0.01328243   0.01173587            7 
 4863000    0.4715904    -8.139272    773.02373  0.013246688  0.011732144           11 
 4864000   0.46841868    -8.148118       774.56  0.013270285   0.01172842            7 
 4865000   0.46165352   -8.1456518    774.15207   0.01326057  0.011724698            6 
 4866000   0.46831415   -8.1389179    774.45654  0.013263059  0.011720975           10 
 4867000    0.4652437   -8.1387463    774.92025  0.013268274  0.011717255           10 
 4868000   0.47385071   -8.1451796    775.35132  0.013272927  0.011713534            9 
 4869000   0.47196447   -8.1491309    774.29457  0.013252115  0.011709817           11 
 4870000   0.47295285   -8.1292902    775.16445  0.013264279  0.011706101            8 
 4871000   0.46480341   -8.1380744    775.45436  0.013266515   0.01170239            7 
 4872000   0.46261915   -8.1524743    774.47252  0.013246998  0.011698676           10 
 4873000   0.48050858   -8.1502537    775.56988  0.013263046  0.011694963            6 
 4874000   0.47823571   -8.1528049    774.79363  0.013247053  0.011691251            8 
 4875000    0.4649253   -8.1560691    775.09215  0.013249438   0.01168754            7 
 4876000   0.47701694   -8.1558035    773.78443  0.013224372   0.01168383            8 
 4877000   0.46374577   -8.1537328    774.93497  0.013241319  0.011680124            8 
 4878000   0.47108601   -8.1527965    773.72678  0.013217965  0.011676421            9 
 4879000   0.47684976   -8.1314001    774.23999  0.013224021  0.011672718           10 
 4880000   0.47917507   -8.1557956    774.13176  0.013219463  0.011669018            8 
 4881000     0.464635    -8.145335    774.30325  0.013219683  0.011665318            8 
 4882000   0.46785945   -8.1560341    774.01114  0.013211989  0.011661616            8 
 4883000   0.46688536   -8.1540208    774.80185  0.013222777  0.011657919           10 
 4884000   0.47610364   -8.1446569    774.33838  0.013212162  0.011654226            6 
 4885000   0.46916618   -8.1461829    774.25284  0.013207998  0.011650531            9 
 4886000   0.48429409   -8.1604109    772.91838  0.013182535  0.011646838            7 
 4887000   0.46632162   -8.1555687     774.5261  0.013207252  0.011643145            7 
 4888000   0.47013656   -8.1365428    774.80402  0.013209288  0.011639457            9 
 4889000   0.46853472   -8.1492554    774.38386  0.013199425  0.011635768            6 
 4890000    0.4694493    -8.167302    773.94244  0.013189203  0.011632083            6 
 4891000   0.46771972   -8.1481757       772.89  0.013168575  0.011628395            8 
 4892000   0.46440561   -8.1534629    774.30456   0.01318998   0.01162471            8 
 4893000   0.46703988   -8.1382386    775.18728  0.013202318   0.01162103            6 
 4894000   0.46337365   -8.1552797    773.84842  0.013176822  0.011617351            6 
 4895000   0.47583135    -8.176089    774.58913   0.01318674  0.011613671            7 
 4896000      0.47336   -8.1413775    773.74363  0.013169656  0.011609992           11 
 4897000   0.47499719   -8.1408576    774.42657  0.013178588  0.011606318            8 
 4898000   0.46862993   -8.1455335    774.75012  0.013181403  0.011602646           10 
 4899000   0.46410652   -8.1578286     775.0236  0.013183364  0.011598972            9 
 4900000   0.47325332   -8.1438404    772.03222    0.0131298    0.0115953            6 
 4901000   0.47153767   -8.1532433    774.30429  0.013165753  0.011591629            8 
 4902000   0.47225995   -8.1571312    774.78519  0.013171243  0.011587958           10 
 4903000    0.4633299   -8.1555863    774.57676  0.013165014  0.011584289            7 
 4904000   0.46820071   -8.1657573    774.00508  0.013152615  0.011580622           10 
 4905000   0.47044486   -8.1583783    774.66239  0.013161101  0.011576958           11 
 4906000    0.4737139   -8.1636199    774.30503  0.013152348  0.011573293            8 
 4907000   0.47261286   -8.1578074    774.18666  0.013147657  0.011569629           10 
 4908000   0.46816499   -8.1590027     774.7115   0.01315389  0.011565969            7 
 4909000   0.46984607   -8.1501961    773.38221  0.013128645   0.01156231            9 
 4910000   0.45988723   -8.1684716    774.14575   0.01313893  0.011558653            8 
 4911000   0.46159988   -8.1503915    774.91003  0.013149223  0.011554996            8 
 4912000   0.46011635   -8.1531756    774.74287   0.01314371  0.011551342            7 
 4913000     0.470232   -8.1652762    776.11111  0.013164243  0.011547691            6 
 4914000   0.46412701   -8.1680125    774.02824  0.013126242  0.011544037            9 
 4915000   0.46725516   -8.1633547      774.415  0.013130129  0.011540384            5 
 4916000    0.4665671   -8.1650309    772.79511  0.013099998   0.01153673            8 
 4917000   0.46819044   -8.1666389    774.29033  0.013122675  0.011533081           15 
 4918000   0.46234247   -8.1546405    774.54323  0.013124292  0.011529433            8 
 4919000   0.45378674   -8.1658451    774.05076  0.013113281  0.011525786           11 
 4920000   0.47505138   -8.1557013    774.31993  0.013115175   0.01152214            5 
 4921000   0.46824939   -8.1527033    774.24363  0.013111218  0.011518497           12 
 4922000   0.44647356   -8.1560598    772.76638  0.013083543  0.011514857           11 
 4923000   0.46564517    -8.159041     774.8526  0.013116199  0.011511216           15 
 4924000   0.45740737   -8.1499301    775.13558  0.013118325  0.011507575           10 
 4925000   0.46864758   -8.1671852    773.12645  0.013081666  0.011503938           12 
 4926000   0.46446335   -8.1559021    773.52392  0.013085734  0.011500305            8 
 4927000   0.45489842   -8.1551501    773.82015  0.013088089  0.011496672            6 
 4928000   0.46295568   -8.1593199    774.84189   0.01310271   0.01149304            8 
 4929000   0.46848798   -8.1529101    772.69066  0.013063682  0.011489413            7 
 4930000   0.46164663   -8.1536653    774.64602  0.013094084  0.011485786            6 
 4931000   0.46541168   -8.1546299    771.99259  0.013046586  0.011482162            9 
 4932000    0.4689845   -8.1578731    775.66053  0.013105916  0.011478536            6 
 4933000    0.4589986   -8.1712274    773.83208  0.013072371  0.011474909            8 
 4934000   0.46298734   -8.1614315    774.51434  0.013081245  0.011471286            7 
 4935000     0.454843   -8.1776533    774.69499  0.013081645  0.011467663            8 
 4936000   0.45286725   -8.1578879    773.48377  0.013058545   0.01146404           10 
 4937000   0.46605394   -8.1465172    773.51717  0.013056464  0.011460418           11 
 4938000   0.46123596   -8.1571657    774.12153  0.013064019  0.011456796           10 
 4939000   0.46276146   -8.1649554     773.5671   0.01305202  0.011453177           10 
 4940000   0.46304116   -8.1572222    773.81412  0.013053545   0.01144956            9 
 4941000   0.47314291   -8.1831019    774.59916  0.013064143  0.011445945            5 
 4942000   0.45288325   -8.1535745    773.98026  0.013051063  0.011442332            8 
 4943000   0.46039623    -8.163523    774.61138  0.013059063  0.011438719            6 
 4944000    0.4653366   -8.1601735    773.82717  0.013043203  0.011435108            7 
 4945000   0.46649013   -8.1660701    775.16242  0.013063067  0.011431498            7 
 4946000    0.4579577   -8.1709846    774.08191  0.013042221  0.011427889           11 
 4947000    0.4622514   -8.1559907     773.2664  0.013025847  0.011424281            6 
 4948000   0.46115845   -8.1680505    773.76921  0.013031683  0.011420677            5 
 4949000   0.45949569   -8.1653465    773.07841  0.013017418  0.011417074           10 
 4950000   0.45688142   -8.1745124    772.99568  0.013013395  0.011413471            9 
 4951000   0.46179141   -8.1542584    774.54856  0.013036904  0.011409869           14 
 4952000   0.46203049   -8.1636975    774.22427  0.013028814  0.011406271            7 
 4953000   0.46220829   -8.1560927    773.11774  0.013007567  0.011402672            5 
 4954000   0.46850567   -8.1628464     773.8095  0.013016577  0.011399073            7 
 4955000   0.46022273   -8.1584921    773.09084  0.013001864  0.011395476           12 
 4956000   0.46022968   -8.1469339    774.14228   0.01301692  0.011391882           11 
 4957000   0.45976623   -8.1574308    773.42707  0.013002271  0.011388288           11 
 4958000   0.45805451   -8.1772187    774.22177  0.013013005  0.011384695           14 
 4959000   0.44547567   -8.1568428    773.36529  0.012995989  0.011381104            8 
 4960000   0.46700794    -8.168153    773.76079  0.013000013  0.011377515            6 
 4961000   0.46579536   -8.1601609    774.03562  0.013002009  0.011373927            7 
 4962000   0.46370911   -8.1790716    773.96415  0.012998189  0.011370343            6 
 4963000   0.45918499   -8.1625688    773.75607  0.012992076  0.011366761            7 
 4964000    0.4572208   -8.1788133    774.57237  0.013003162  0.011363177            6 
 4965000    0.4592577   -8.1735889    773.43393  0.012981436  0.011359597            6 
 4966000    0.4612347   -8.1825109    775.16993  0.013007953  0.011356014            8 
 4967000   0.44326734   -8.1716285    774.25972  0.012990063  0.011352434           15 
 4968000   0.45156038   -8.1757099    773.35916  0.012972342  0.011348856            7 
 4969000   0.46197576   -8.1592948    773.66041  0.012974784  0.011345282           10 
 4970000   0.46299702   -8.1756109    774.53911  0.012986907  0.011341707            9 
 4971000   0.45209373   -8.1784582    773.47331  0.012966427  0.011338138            9 
 4972000   0.45915243   -8.1610425    772.81746  0.012952827  0.011334566           10 
 4973000   0.46014364   -8.1696308    773.47407  0.012961225  0.011330996            7 
 4974000   0.45638441   -8.1718674    772.66637  0.012945087  0.011327428            5 
 4975000   0.45153892   -8.1657178    773.47378   0.01295601   0.01132386            8 
 4976000   0.44343307   -8.1754735     773.4213  0.012952527  0.011320296            6 
 4977000    0.4534541   -8.1800226    774.09995  0.012961288  0.011316731            9 
 4978000   0.45808235   -8.1567685    772.80288  0.012936971  0.011313169           11 
 4979000   0.45954033   -8.1565575    772.49557  0.012929229  0.011309608            6 
 4980000   0.45574595   -8.1621794    773.62992  0.012945614  0.011306047            9 
 4981000    0.4609185   -8.1679463    774.00191  0.012949239  0.011302485           15 
 4982000   0.44420441   -8.1637215    773.72081  0.012941938  0.011298925           12 
 4983000   0.44819926   -8.1738537    773.82855  0.012941142  0.011295369            9 
 4984000   0.46649754   -8.1597517    774.37056  0.012947608  0.011291813            8 
 4985000   0.45064042   -8.1736066    773.10061  0.012923781  0.011288258            8 
 4986000    0.4585977   -8.1802409    773.80139  0.012932902  0.011284704            9 
 4987000   0.45910751   -8.1625809     773.7604  0.012929624  0.011281155            5 
 4988000   0.45751947   -8.1786452    774.30374  0.012936109  0.011277604           11 
 4989000   0.45428798   -8.1715412    774.17015  0.012931285  0.011274053            9 
 4990000   0.46163494   -8.1648902     774.0077   0.01292598  0.011270506            9 
 4991000   0.44158063   -8.1598913    774.34322  0.012928992  0.011266959            7 
 4992000   0.45408546   -8.1805914    773.35437  0.012909895  0.011263411           11 
 4993000   0.44920546   -8.1770982    773.10157  0.012903091  0.011259869            9 
 4994000   0.45332844   -8.1826041    773.41656  0.012905763  0.011256322            7 
 4995000   0.44915988    -8.179264    772.79731  0.012892848   0.01125278            6 
 4996000    0.4487352   -8.1787277     772.8485  0.012891121  0.011249238            8 
 4997000   0.45627293   -8.1664678    773.56702  0.012900524  0.011245696            9 
 4998000   0.44301619    -8.180596    773.00396  0.012888555  0.011242156            9 
 4999000   0.46136903   -8.1798922    773.56621  0.012895349  0.011238619            8 
 5000000   0.46020931   -8.1818099    773.18478  0.012886413  0.011235085            9 
 5001000   0.45926524    -8.183792    773.61806  0.012891056   0.01123155            9 
 5002000   0.44746416   -8.1766246    774.20523  0.012898261  0.011228018            8 
 5003000   0.44904657   -8.1657769    774.09751  0.012893889  0.011224484           18 
 5004000   0.45550095   -8.1874624    773.42545   0.01288012  0.011220951            6 
 5005000    0.4526108   -8.1677274    773.84541  0.012884539  0.011217423           10 
 5006000   0.45098987   -8.1772277    774.57584  0.012894124  0.011213894            5 
 5007000   0.44281094   -8.1795194    773.21384  0.012868881  0.011210369           14 
 5008000     0.452027   -8.1897031    774.28878  0.012884198  0.011206844           13 
 5009000   0.45761562   -8.1772609    774.01917  0.012877141  0.011203322           10 
 5010000   0.45486996    -8.178471    773.70068  0.012869273  0.011199803           12 
 5011000   0.46333003   -8.1764176    773.62633  0.012865468  0.011196284           11 
 5012000   0.45091064   -8.1849161    773.32307  0.012857859  0.011192768           17 
Loop time of 11339.8 on 48 procs for 5000000 steps with 4000 atoms

Performance: 76191.814 tau/day, 440.925 timesteps/s
99.4% CPU use with 48 MPI tasks x no OpenMP threads

MPI task timing breakdown:
Section |  min time  |  avg time  |  max time  |%varavg| %total
---------------------------------------------------------------
Pair    | 744.06     | 783.67     | 822.28     |  53.9 |  6.91
Neigh   | 73.348     | 75.618     | 77.663     |  11.8 |  0.67
Comm    | 674.02     | 717.5      | 764.36     |  63.1 |  6.33
Output  | 13.47      | 13.475     | 13.567     |   0.4 |  0.12
Modify  | 9625.8     | 9645.7     | 9662       |   9.8 | 85.06
Other   |            | 103.8      |            |       |  0.92

Nlocal:        83.3333 ave          94 max          75 min
Histogram: 2 4 4 6 11 17 1 1 1 1
Nghost:        1916.42 ave        1944 max        1888 min
Histogram: 4 2 4 4 6 11 7 4 5 1
Neighs:        12113.3 ave       13815 max       10783 min
Histogram: 3 4 9 5 9 8 3 4 1 2
FullNghs:      24227.6 ave       27444 max       21658 min
Histogram: 2 4 4 7 12 12 4 1 1 1

Total # of neighbors = 1162923
Ave neighs/atom = 290.73075
Neighbor list builds = 268827
Dangerous builds = 1

#clear
#
#next RN
#
#jump SELF
Total wall time: 3:09:03
