
units lj                  # Use reduced LJ style units
atom_style atomic         # Uncharged point particles
atom_modify map hash      # Needed for indexing of clusters etc
                          # Used to be able to find where atoms are in relation to each other.

lattice fcc 1.0 spacing 1 1 1
Lattice spacing in x,y,z = 1.5874011 1.5874011 1.5874011
region box block 0 10 0 10 0 10 units lattice
create_box 2 box
Created orthogonal box = (0.0000000 0.0000000 0.0000000) to (15.874011 15.874011 15.874011)
  3 by 4 by 4 MPI processor grid
create_atoms 1 box
Created 4000 atoms
  using lattice units in orthogonal box = (0.0000000 0.0000000 0.0000000) to (15.874011 15.874011 15.874011)
  create_atoms CPU = 0.011 seconds
set type 1 type/fraction 2 0.14 78393
Setting atom values ...
  590 settings made for type/fraction
mass 1 1.0
mass 2 1.0
pair_style lj/cut  3.5
pair_modify tail  yes
pair_coeff 1  1  1.0  1.0   # Intearaction between 1 and 1 set with epsilon = 1 and sigma = 1
pair_coeff 1  2  1.5  0.8
pair_coeff 2  2  0.5  0.88

write_data data.0
System init for write_data ...
Neighbor list info ...
  update every 1 steps, delay 10 steps, check yes
  max neighbors/atom: 2000, page size: 100000
  master list distance cutoff = 3.8
  ghost atom cutoff = 3.8
  binsize = 1.9, bins = 9 9 9
  1 neighbor lists, perpetual/occasional/extra = 1 0 0
  (1) pair lj/cut, perpetual
      attributes: half, newton on
      pair build: half/bin/atomonly/newton
      stencil: half/bin/3d
      bin: standard
WARNING: Not all mixed pair coeffs generated from mixing. Use write_data with 'pair ij' option to store all pair coeffs. (../write_data.cpp:312)


#############################
#   M E L T   S Y S T E M   #
#############################

velocity all create 2.4 3143649 mom yes dist gaussian # Assign velocities
                                                    # Temperature 2.4, random number seed, zero linear momentum
                                                                                # Gaussian distribution

timestep 0.002   # simulation timestep
thermo 1000       # output thermodynamic data every 1000 steps bf 100

# Define a fix  in this case with index 1 applied to all
# particles in the simulation. This fix is for simulations
# in the anisotropic NPT ensemble. Note that we use the MTK
# correction.
fix 1 all npt temp 2.4 2.4 0.1 iso 5.68 5.68 0.5 mtk yes tchain 5 pchain 5 # Use NPT ensemble
                                                                         # Set temperature and pressure and damping
                                                                         # Numbers of thermostats in chain and in barostat
run 10000          # run for 10000 steps
Per MPI rank memory allocation (min/avg/max) = 3.642 | 3.644 | 3.648 Mbytes
Step Temp E_pair E_mol TotEng Press Volume 
       0          2.4   -7.4253508            0   -3.8262508   -3.2887046         4000 
    1000    2.4278616   -4.7447875            0   -1.1039055    5.5680645    4682.8509 
    2000    2.3843557   -4.6815501            0   -1.1059107    5.6686353    4697.6055 
    3000    2.4415908   -4.7260261            0   -1.0645554    5.6469234    4684.2205 
    4000    2.3905187   -4.6946703            0   -1.1097888    5.6607876    4684.0627 
    5000    2.4160353   -4.7073696            0   -1.0842227    5.5511904    4700.2561 
    6000    2.4030831   -4.7473052            0   -1.1435816    5.8420688    4649.8033 
    7000    2.3826772    -4.689731            0   -1.1166087    5.7696033    4681.3548 
    8000    2.3990647   -4.6783785            0   -1.0806812    5.9095313    4671.9353 
    9000    2.3974243   -4.7219633            0   -1.1267259    5.8337037    4655.7742 
   10000    2.4043166   -4.7135521            0   -1.1079788    5.6851669    4682.5239 
Loop time of 2.24191 on 48 procs for 10000 steps with 4000 atoms

Performance: 770772.371 tau/day, 4460.488 timesteps/s
99.6% CPU use with 48 MPI tasks x no OpenMP threads

MPI task timing breakdown:
Section |  min time  |  avg time  |  max time  |%varavg| %total
---------------------------------------------------------------
Pair    | 0.94203    | 0.99854    | 1.1267     |   3.4 | 44.54
Neigh   | 0.19336    | 0.20254    | 0.22393    |   1.3 |  9.03
Comm    | 0.67934    | 0.78369    | 0.88183    |   4.9 | 34.96
Output  | 0.00024716 | 0.00025053 | 0.00031485 |   0.0 |  0.01
Modify  | 0.19691    | 0.24236    | 0.28746    |   4.7 | 10.81
Other   |            | 0.01452    |            |       |  0.65

Nlocal:        83.3333 ave          90 max          74 min
Histogram: 2 2 2 7 3 4 12 7 5 4
Nghost:        1478.12 ave        1500 max        1444 min
Histogram: 2 1 1 5 1 12 9 5 7 5
Neighs:        8141.40 ave        9188 max        7006 min
Histogram: 1 4 2 8 6 10 6 7 2 2

Total # of neighbors = 390787
Ave neighs/atom = 97.696750
Neighbor list builds = 910
Dangerous builds = 224

# Equilibrate just above the melting temperature to avoid step fn in T

fix 1 all npt temp 1.25 1.25 0.1 iso 5.68 5.68 0.5 mtk yes tchain 5 pchain 5
run 2000
Per MPI rank memory allocation (min/avg/max) = 3.642 | 3.644 | 3.648 Mbytes
Step Temp E_pair E_mol TotEng Press Volume 
   10000    2.4043166   -4.7135521            0   -1.1079788    5.6851669    4682.5239 
   11000    1.2497366   -6.3667377            0   -4.4926015    5.4957775    3847.1648 
   12000    1.2637408   -6.3004967            0   -4.4053594    5.8077632    3858.0933 
Loop time of 0.494026 on 48 procs for 2000 steps with 4000 atoms

Performance: 699558.288 tau/day, 4048.370 timesteps/s
99.6% CPU use with 48 MPI tasks x no OpenMP threads

MPI task timing breakdown:
Section |  min time  |  avg time  |  max time  |%varavg| %total
---------------------------------------------------------------
Pair    | 0.21975    | 0.23624    | 0.25397    |   1.9 | 47.82
Neigh   | 0.031724   | 0.03383    | 0.036029   |   0.5 |  6.85
Comm    | 0.14729    | 0.1685     | 0.1892     |   2.7 | 34.11
Output  | 5.2339e-05 | 5.3396e-05 | 6.6469e-05 |   0.0 |  0.01
Modify  | 0.043337   | 0.050745   | 0.058221   |   1.9 | 10.27
Other   |            | 0.004662   |            |       |  0.94

Nlocal:        83.3333 ave          92 max          74 min
Histogram: 1 1 2 5 7 17 6 7 1 1
Nghost:        1678.90 ave        1701 max        1659 min
Histogram: 1 3 10 3 7 11 2 9 1 1
Neighs:        9892.90 ave       11322 max        8449 min
Histogram: 1 0 4 5 13 14 6 2 2 1

Total # of neighbors = 474859
Ave neighs/atom = 118.71475
Neighbor list builds = 141
Dangerous builds = 11

#############################
# L I N E A R  Q U E N C H  #
#############################

# Define solid atoms. This closely follows ten Wolde  Ruiz-Montero and Frenkel  Faraday Discuss  1996  104  93-110
# Compute components of the per-atom q6 vector
compute q6 all orientorder/atom degrees 1 6 components 6 nnn NULL cutoff 1.3 # compute the Q6 parameter.
                                                                             # Use all neighbours within 1.3 unit cell.

# get number of connections
compute coord_number all coord/atom orientorder q6 0.5

# An atom is solid if it has 8 or more connections (of a possible 14)
variable is_solid atom c_coord_number>=8
group solid dynamic all var is_solid    # Must be dynamic to update
dynamic group solid defined

# do clustering
compute cluster solid cluster/atom 1.3 # Create a cluster where all atoms within are solid and max 1.3 units from another member

# define chunks one chunk per cluster
compute clus_chunks solid chunk/atom c_cluster nchunk every compress yes  # Says which atoms are in which chunk

# count the size of each chunk
compute size_chunks solid property/chunk clus_chunks count


# Find the maximum entry in the vector of chunk sizes
variable max_n equal max(c_size_chunks)


# Thermo style which includes this variable
# thermo_style custom step temp pe vol v_max_n

thermo ${N}  # Print the thermo information every 100 steps
thermo 1000  

# Reset the npt fix at a lower temperature (below freezing)
fix 1  all npt temp  ${temp} ${temp}  0.1  iso  5.68  5.68  0.5  mtk yes tchain  5  pchain  5
fix 1  all npt temp  0.45 ${temp}  0.1  iso  5.68  5.68  0.5  mtk yes tchain  5  pchain  5
fix 1  all npt temp  0.45 0.45  0.1  iso  5.68  5.68  0.5  mtk yes tchain  5  pchain  5

dump dmp2 all dcd ${N} traj.dcd
dump dmp2 all dcd 1000 traj.dcd


compute msd all msd com yes
variable twopoint equal c_msd[4]/6/(step*dt+1.0e-6)
fix 9 all vector 10 c_msd[4]
variable fit equal slope(f_9)/6/(10*dt)
thermo_style custom step temp pe c_msd[4] v_twopoint v_fit v_max_n

fix 1 all npt temp 1.25 ${temp} 0.1 iso 5.68 5.68 0.5 mtk yes tchain 5 pchain 5
fix 1 all npt temp 1.25 0.45 0.1 iso 5.68 5.68 0.5 mtk yes tchain 5 pchain 5
run 500000 # 5000000  # Run for this many steps
Neighbor list info ...
  update every 1 steps, delay 10 steps, check yes
  max neighbors/atom: 2000, page size: 100000
  master list distance cutoff = 3.8
  ghost atom cutoff = 3.8
  binsize = 1.9, bins = 9 9 9
  4 neighbor lists, perpetual/occasional/extra = 1 3 0
  (1) pair lj/cut, perpetual
      attributes: half, newton on
      pair build: half/bin/atomonly/newton
      stencil: half/bin/3d
      bin: standard
  (2) compute orientorder/atom, occasional
      attributes: full, newton on
      pair build: full/bin/atomonly
      stencil: full/bin/3d
      bin: standard
  (3) compute coord/atom, occasional
      attributes: full, newton on
      pair build: full/bin/atomonly
      stencil: full/bin/3d
      bin: standard
  (4) compute cluster/atom, occasional
      attributes: full, newton on
      pair build: full/bin/atomonly
      stencil: full/bin/3d
      bin: standard
Per MPI rank memory allocation (min/avg/max) = 9.756 | 9.763 | 9.769 Mbytes
Step Temp PotEng c_msd[4] v_twopoint v_fit v_max_n 
   12000    1.2637408   -6.3004967 6.646942e-30 4.6159317e-32 8.3333333e+20            2 
   13000     1.253951   -6.3042137   0.54169724 0.0034724181  0.044862417            4 
   14000    1.2446907   -6.2952355    1.0545096 0.0062768425  0.043329577            3 
   15000    1.2402107   -6.3903495     1.584733 0.0088040721  0.043241618            2 
   16000    1.2492141   -6.3831878    2.1106207  0.010992816   0.04369677            2 
   17000     1.225154   -6.3600156    2.6378961  0.012930863  0.043693704            3 
   18000    1.2424422    -6.382712    3.1632205  0.014644539  0.043895108            3 
   19000    1.2637397   -6.3414511    3.6932353    0.0161984  0.043811397            3 
   20000    1.2159388   -6.3896365    4.1849545   0.01743731  0.043660847            7 
   21000    1.2368707   -6.3575295    4.7355211   0.01879175  0.043597515            2 
   22000     1.211556   -6.3854554    5.3335508  0.020202843  0.043926193            3 
   23000    1.2240291   -6.3635293     5.847314   0.02118592  0.044228195            2 
   24000    1.2294067   -6.3819022    6.4325578   0.02233527  0.044435827            3 
   25000    1.2421067   -6.3878063    6.9731386  0.023243795  0.044610214            1 
   26000    1.2504627   -6.4239014    7.3785663  0.023649251  0.044609085            2 
   27000    1.2097959   -6.4199846     7.816829  0.024126015  0.044329134            4 
   28000    1.2088794   -6.4379675    8.2195326  0.024462894  0.043931498            6 
   29000    1.2505493   -6.3980441    8.8040487   0.02529899   0.04361908            2 
   30000    1.2114292   -6.4056908    9.2694095  0.025748359  0.043365986            3 
   31000     1.239035   -6.4464331    9.7285432  0.026151998  0.043137793            2 
   32000    1.2260515   -6.3570525    10.359839  0.026978748  0.042990579            2 
   33000    1.2367191   -6.4292964    10.833345   0.02735693  0.042910473            2 
   34000    1.2248992   -6.3987902    11.268465  0.027618787   0.04279953            4 
   35000    1.2167275   -6.4307557    11.772341  0.028029382  0.042682343            2 
   36000    1.2092679   -6.4779175    12.245015  0.028344942  0.042558442            2 
   37000    1.2121221   -6.3700037    12.864944    0.0289751  0.042504017            2 
   38000    1.2189179   -6.4377488    13.383946  0.029350758  0.042492637            1 
   39000    1.1850841   -6.4349061     14.00395   0.02992297   0.04252747            3 
   40000    1.2014964   -6.4457687    14.357313  0.029911068  0.042548049            2 
   41000    1.1987811   -6.4195457    14.858288  0.030199771  0.042504411            1 
   42000    1.2232117   -6.4341048    15.286971   0.03033129  0.042452584            2 
   43000    1.1953545   -6.4468806     15.69918  0.030424767  0.042367581            1 
   44000    1.1979657    -6.433995    16.081078  0.030456586  0.042251391            2 
   45000    1.1872332    -6.426382    16.590101   0.03072241  0.042118607            3 
   46000    1.2031821   -6.4503483    17.112469  0.031000849  0.042016006            3 
   47000    1.1793462   -6.4509964    17.589685  0.031187384  0.041909515            1 
   48000    1.1840144   -6.4261613    18.206251  0.031608074  0.041868796            1 
   49000    1.2081803   -6.4606436    18.732737  0.031858396  0.041849028            3 
   50000    1.1795628   -6.4369373     19.19783  0.031996383  0.041833312            2 
   51000    1.1952309   -6.4737696    19.662764  0.032128699  0.041799532            2 
   52000     1.177683   -6.4791947    20.039531  0.032114632  0.041750278            2 
   53000     1.180426   -6.4750157     20.44535  0.032146776  0.041689586            5 
   54000    1.1820611   -6.4930986    20.932678  0.032303515  0.041609504            1 
   55000    1.1709917   -6.4925002    21.478535  0.032543235   0.04153312            2 
   56000    1.2073673   -6.4490975    21.984484  0.032715006  0.041472212            4 
   57000    1.2036037   -6.4872332     22.45206  0.032824648   0.04141438            3 
   58000    1.1838891   -6.5131584    22.810718   0.03277402  0.041346808            1 
   59000    1.1785413   -6.5065191    23.280481  0.032882034   0.04126935            3 
   60000    1.1539918   -6.4867054    23.694912    0.0329096  0.041194324            3 
   61000    1.1825148   -6.5206354     23.92346  0.032682322  0.041096297            3 
   62000    1.1789951   -6.5012018    24.379865  0.032768636  0.040987314            1 
   63000    1.1858259   -6.5023775    24.924139  0.032968438  0.040886364            2 
   64000    1.1492986    -6.479891    25.375602  0.033041149  0.040794527            2 
   65000    1.1575756   -6.5438178    25.855966  0.033148674  0.040692997            4 
   66000    1.1551789   -6.5271803    26.424292  0.033364005  0.040622983            2 
   67000    1.1625198   -6.4718266    26.931632  0.033497055  0.040558541            3 
   68000    1.1507875   -6.5381073    27.166466  0.033292238  0.040494069            2 
   69000    1.1704603   -6.4628695    27.629546  0.033369016  0.040415831            2 
   70000    1.1486225   -6.5398435    28.114914  0.033470135   0.04034976            3 
   71000     1.170118   -6.5097687    28.389722   0.03332127  0.040267179            2 
   72000    1.1407863   -6.5168309    28.742909  0.033267256  0.040176419            2 
   73000    1.1417202   -6.5004328    29.163681  0.033291873  0.040081302            4 
   74000    1.1562295   -6.5653574    29.441455  0.033154792  0.039976135            2 
   75000    1.1479142   -6.5451619    29.941354  0.033268171  0.039870754            2 
   76000    1.1667835   -6.5666427    30.305962  0.033230221  0.039767728            3 
   77000    1.1383382   -6.5126868    30.684576  0.033208416  0.039672542            3 
   78000    1.1300967   -6.5650467    31.336384  0.033479042  0.039581595            3 
   79000    1.1290695   -6.5462343    31.735967  0.033476758   0.03949854            3 
   80000    1.1356885   -6.4974924     32.25523  0.033599197  0.039428134            3 
   81000    1.1326257   -6.5338358    32.505464  0.033441835  0.039348909            1 
   82000    1.1084795   -6.5618181    32.875686   0.03341025  0.039268536            3 
   83000    1.1520333   -6.5552909    33.193297  0.033326603  0.039176903            3 
   84000    1.1452008    -6.512299    33.784685  0.033516552  0.039091636            6 
   85000    1.1556051   -6.5567259    34.255085  0.033583416  0.039022624            1 
   86000    1.1248056   -6.5755588    34.804399  0.033725192  0.038956436            1 
   87000    1.1306142   -6.5678142    35.162604  0.033680655  0.038893432            3 
   88000    1.1244982   -6.5311571    35.707343  0.033813772  0.038831836            4 
   89000    1.1239881   -6.5916713    36.267436  0.033958273  0.038777584            4 
   90000    1.1416613   -6.5965555    36.618964  0.033906448  0.038726448            3 
   91000    1.1114883   -6.6130909    36.954231  0.033840871   0.03867721            2 
   92000    1.1202036   -6.5822858    37.436426  0.033909806  0.038628756            6 
   93000    1.1191304   -6.5474891    37.869658  0.033933385  0.038580764            4 
   94000    1.1239118   -6.5889482     38.14095  0.033812899  0.038533167            3 
   95000    1.1042052    -6.603051    38.763577  0.034003138  0.038478697            4 
   96000    1.1125866   -6.5693913    39.130662  0.033967588  0.038429766            2 
   97000     1.121665   -6.5960705    39.385197   0.03383608  0.038376318            1 
   98000    1.1142936   -6.6166011    39.955422  0.033975699  0.038321914            1 
   99000    1.0997714    -6.593667    40.240044   0.03387209  0.038272478            3 
  100000    1.1292347    -6.629186    40.259731  0.033549776  0.038207327            3 
  101000    1.1192027   -6.5964883    40.689086  0.033571853   0.03813192            3 
  102000    1.1298356   -6.6204496    40.917908  0.033429663  0.038052723            3 
  103000    1.1017676   -6.6455352    41.240558  0.033366147  0.037970739            3 
  104000    1.0773681   -6.6174356    41.447766  0.033211351  0.037883809            2 
  105000    1.0950484   -6.6710093    41.978279  0.033316094  0.037791277            4 
  106000    1.0899637   -6.6637129    42.154924  0.033140663  0.037698466            2 
  107000     1.101935   -6.6141148    42.599695  0.033177332  0.037606082            1 
  108000    1.1115105   -6.6152542    42.834377  0.033051216  0.037512026            6 
  109000    1.0826395   -6.6670066    43.097143  0.032948886  0.037418205            7 
  110000    1.0949063   -6.6508935    43.760209  0.033151674  0.037329399            2 
  111000    1.0732827   -6.6291544    44.147414  0.033143704  0.037247486            4 
  112000    1.0637352   -6.6626501    44.651277  0.033222676  0.037167537            1 
  113000    1.0803899   -6.6464489    45.206053  0.033337797  0.037096727            3 
  114000    1.0876582   -6.6149146    45.536696  0.033287058  0.037029326            4 
  115000    1.0940089   -6.6510559    45.753164  0.033154467  0.036958944            3 
  116000    1.0841188   -6.6132063    46.347755  0.033295801  0.036888757            3 
  117000    1.0873174   -6.7024046    46.466605  0.033095872  0.036820704            2 
  118000    1.0814878   -6.6720446    46.886735  0.033112101  0.036750331            3 
  119000    1.0773082    -6.703706    46.935539  0.032868025   0.03667923            2 
  120000    1.0607318   -6.6962868    47.228522  0.032797585  0.036600003            3 
  121000    1.0753431    -6.670215    47.672192  0.032832088  0.036514666            3 
  122000    1.0694784   -6.7147287    47.937493  0.032744189  0.036434406            4 
  123000    1.0728675   -6.6652908    48.413009  0.032800141  0.036356466            4 
  124000    1.0729141   -6.7257737    48.725536  0.032745656  0.036277159            1 
  125000    1.0741536   -6.6855823    49.240328  0.032826885  0.036206542            2 
  126000    1.0854419   -6.7032048    49.484506  0.032727848  0.036135898            3 
  127000    1.0578169   -6.7014601    49.932818  0.032764316  0.036065527            3 
  128000    1.0414903    -6.679041    50.488426  0.032870069  0.035998728            4 
  129000     1.036765   -6.7046111    50.739334  0.032777347  0.035933854            3 
  130000    1.0487013   -6.6978393    50.985469  0.032682993  0.035866945            3 
  131000    1.0684075   -6.6445943    51.616756  0.032835087  0.035805036            7 
  132000    1.0556929   -6.6998408    52.075924  0.032876214  0.035746729            3 
  133000     1.042251   -6.7538969    52.272402  0.032752132  0.035690966            3 
  134000     1.053814   -6.6871984    52.882005  0.032886819    0.0356389            2 
  135000    1.0510837   -6.7323719    52.895099  0.032651296  0.035584248            3 
  136000    1.0519753   -6.7280426    53.181458  0.032586678  0.035523317            2 
  137000    1.0395299   -6.7251624    53.553925   0.03257538  0.035461017            5 
  138000    1.0458195   -6.7319668    53.765216  0.032466918  0.035398955            3 
  139000    1.0535188   -6.7169252    54.075563  0.032419402   0.03533419            3 
  140000     1.027323   -6.7152845    54.274989  0.032306541  0.035267506            8 
  141000    1.0471045   -6.7579399    54.556951  0.032244061  0.035201489            4 
  142000    1.0315453   -6.7394126    55.025926   0.03229221  0.035135899           10 
  143000    1.0425258   -6.7500578    55.308785  0.032231226  0.035069047            4 
  144000    1.0458104   -6.7367086    55.620089  0.032187552   0.03500272            3 
  145000    1.0574541   -6.7557425    56.013534  0.032191686  0.034935832            3 
  146000    1.0272357   -6.7183758    56.070815   0.03200389  0.034869569            2 
  147000    1.0192697   -6.7511676     56.29453  0.031912999  0.034796453            4 
  148000    1.0498368   -6.7473343    56.683297  0.031916271  0.034724746            2 
  149000     1.039537    -6.776494    56.850635  0.031795657  0.034654599            7 
  150000     1.022163   -6.8000174    57.517988  0.031954438  0.034586908            4 
  151000    1.0601286   -6.7811772    57.836052  0.031918351  0.034521894            3 
  152000    1.0032881   -6.7630416    58.073548  0.031838568  0.034455649            6 
  153000    1.0159314   -6.7656872    58.379356  0.031797035  0.034388583            4 
  154000    1.0178544   -6.7940695     58.42241  0.031613858   0.03432089            1 
  155000    1.0257151   -6.7892183    58.915285  0.031674885  0.034251335            2 
  156000    1.0296729   -6.8024794    58.983448  0.031508252  0.034180992            2 
  157000    1.0189259   -6.8152311    59.328607  0.031490768   0.03410905            4 
  158000   0.98152335   -6.7865658    59.589527  0.031429075  0.034035018            4 
  159000    1.0107795   -6.7897401    59.880488  0.031383904   0.03396384            4 
  160000     1.021566   -6.7931432    59.996802  0.031248334  0.033891891            9 
  161000    1.0206765   -6.8245474    60.440812  0.031284064  0.033819175            2 
  162000   0.98313201   -6.7529698    60.762726  0.031256546  0.033747804            2 
  163000   0.99448543   -6.8091477    60.993769  0.031182909  0.033677423            3 
  164000    1.0162757   -6.7968173    61.229121  0.031112358  0.033603427            3 
  165000    1.0260579   -6.8242812    61.197595  0.030907876  0.033526693            2 
  166000     1.029559   -6.8207525    61.713479  0.030980662  0.033449701            3 
  167000   0.99327872    -6.840336    61.781819  0.030829251  0.033373693            4 
  168000   0.99620755   -6.8260577    61.972548  0.030740351  0.033295655            3 
  169000   0.96715963   -6.8242999    62.255669  0.030698062  0.033216452            5 
  170000    1.0060223   -6.8585579    62.559739  0.030666538   0.03313951            6 
  171000    1.0008129   -6.7988968    62.897256  0.030651684  0.033062803            7 
  172000    1.0005397   -6.8349611    62.955996  0.030501936   0.03298479            4 
  173000    1.0048357   -6.8772419    63.323963  0.030502872  0.032907067            3 
  174000    1.0044213    -6.797386    63.879874  0.030593809  0.032829021            3 
  175000    1.0188386   -6.8771734    63.380672  0.030181272  0.032748646            5 
  176000   0.97844776   -6.8294578    63.475436  0.030054657  0.032663529            5 
  177000   0.98856267   -6.8786426    63.828368  0.030051021  0.032577884            4 
  178000   0.98623744    -6.869186    64.092676  0.030005935  0.032494704            1 
  179000   0.99348996   -6.8703708    64.393184  0.029978205   0.03241044            4 
  180000   0.96354143    -6.848203    64.577676  0.029897072   0.03232768            6 
  181000   0.99961446   -6.8864199     64.58447  0.029735023  0.032244145            3 
  182000    0.9610398   -6.8759775    64.923604  0.029726925  0.032159003            9 
  183000   0.95805249   -6.8712615    65.226159  0.029702258  0.032072598            2 
  184000   0.98202215   -6.8862505    65.400433  0.029619761  0.031987164            6 
  185000   0.97153948   -6.8823264    65.214693  0.029375988  0.031899797            3 
  186000   0.96684752   -6.8830381    65.497151  0.029344602  0.031811688            3 
  187000   0.95041042   -6.9115951    65.678504  0.029268496  0.031723821            4 
  188000   0.95297488   -6.8831879    65.912729  0.029216635  0.031634663            5 
  189000   0.97386244   -6.9116613      66.0061  0.029103218  0.031543511            4 
  190000   0.97587196    -6.884376    65.991517  0.028943648  0.031452427            2 
  191000   0.96300339   -6.8853328    66.362643  0.028954033   0.03136235            3 
  192000   0.95437657   -6.8813965    66.495069  0.028860707    0.0312699            4 
  193000   0.96938069    -6.900583    66.658383  0.028781685  0.031177181           11 
  194000   0.95076615    -6.906289    66.895651  0.028735245  0.031085173            3 
  195000   0.95699071   -6.9356062    66.856979  0.028571358   0.03099363            1 
  196000   0.96227717   -6.9052209    66.895079  0.028441785  0.030900926            4 
  197000   0.93979848   -6.8847879     67.47179  0.028541366  0.030809762            2 
  198000   0.93809755   -6.9270742    67.352013  0.028346807   0.03071873            4 
  199000   0.92970132   -6.9661209    67.530167  0.028278964  0.030626953            7 
  200000    0.9546706   -6.9568445    67.785079  0.028243783  0.030536095            3 
  201000   0.96254467   -6.9427057     68.04639  0.028211604  0.030445055            4 
  202000   0.95933463   -6.9274756    67.905368  0.028013765  0.030353583            4 
  203000    0.9506173   -6.9489874    67.938718  0.027889457  0.030261033            4 
  204000   0.95580241   -6.9520782    68.183792  0.027852856  0.030167786            3 
  205000   0.95148367   -6.9401105    68.615752  0.027892582  0.030076384            5 
  206000   0.94767791   -6.9420949    68.912264  0.027877129  0.029986178            7 
  207000   0.95422457   -6.9467691    68.969753  0.027765601  0.029894719            3 
  208000   0.92861178   -6.9981574    68.984333  0.027637954  0.029803593            4 
  209000   0.93259778   -6.9922787    69.143002   0.02756898  0.029712914            8 
  210000   0.92760253   -6.9743686    69.485921  0.027573778  0.029622514            3 
  211000   0.92476306   -6.9679718    69.618721  0.027495545   0.02953207            4 
  212000   0.93141675   -6.9703029    69.871872  0.027465358  0.029443942            9 
  213000   0.93312479   -7.0182919    69.877056  0.027338441  0.029354483            3 
  214000   0.93000135   -6.9696054    70.066979  0.027284649  0.029264662            5 
  215000   0.92137964   -6.9774661    70.330493  0.027259881   0.02917629            3 
  216000   0.89775717   -6.9480566    70.492315  0.027196109  0.029088813            3 
  217000   0.95656624   -6.9928819    70.694973  0.027148607  0.029002947            3 
  218000   0.92203018   -6.9971044    70.779601  0.027056422  0.028917417            5 
  219000   0.93484392   -6.9929121    71.160997  0.027078005  0.028832257            5 
  220000   0.92415078   -7.0178327    71.113654   0.02693699  0.028746278            6 
  221000   0.89959292   -7.0078682     71.18319  0.026841323  0.028659694           19 
  222000   0.91828244    -7.001306    71.305083  0.026766172  0.028572631            4 
  223000   0.91364739   -7.0124761    71.465361  0.026706039  0.028486763            3 
  224000   0.91879379   -7.0158979    71.534553  0.026612557  0.028400397            4 
  225000   0.92496112   -6.9977123    71.668156  0.026543762  0.028314433            4 
  226000   0.90184403   -7.0379355     71.71185  0.026442423  0.028228207            5 
  227000    0.9007299   -6.9643448    72.122721   0.02647677  0.028143011            4 
  228000    0.8868767   -7.0200397    72.127815  0.026362505  0.028057858            7 
  229000   0.90223712   -7.0047371     72.27301  0.026300222  0.027973293            3 
  230000   0.88941751   -7.0252236    72.380528  0.026224829  0.027890299            7 
  231000   0.90141156   -7.0488764    72.574662  0.026181335  0.027807453            5 
  232000   0.91246566    -7.021317    72.831546  0.026160757  0.027724266            2 
  233000   0.91202523   -7.0438656     73.06596  0.026132318  0.027641727            7 
  234000   0.91961393   -7.0540141    73.268945  0.026092929  0.027558506            5 
  235000   0.89265626   -7.0238598    73.452721  0.026047064  0.027476676            6 
  236000   0.88904668   -7.0612457    73.241587  0.025862142  0.027395572            8 
  237000   0.88792193   -7.0519749    73.523719  0.025852222  0.027314248            8 
  238000   0.88766726   -7.0621166    73.439273  0.025714031  0.027232769            6 
  239000    0.8836596   -7.0559311    73.703342  0.025698515  0.027150619            5 
  240000   0.87050574    -7.054366    73.948995  0.025676734  0.027068432            8 
  241000   0.87203563   -7.0580205    73.920132  0.025560212  0.026986296            3 
  242000   0.87953234    -7.039099    74.248642  0.025567714  0.026905877            2 
  243000   0.88537459   -7.0747673    74.086854  0.025407014  0.026825428            4 
  244000   0.88829693   -7.0473661    74.312065  0.025379804  0.026745182            4 
  245000   0.88329069   -7.1096291    74.576739  0.025366238  0.026666272            6 
  246000   0.87302075   -7.0907224     74.92257  0.025380274  0.026587874            6 
  247000    0.8557595   -7.0762111    75.125862  0.025346107  0.026511421            3 
  248000   0.89558948   -7.1045966    75.162135  0.025256094   0.02643503            9 
  249000    0.8420945   -7.0771052    75.517794  0.025273693  0.026358868            4 
  250000   0.86260842   -7.0917066    75.322862  0.025107621  0.026282274            5 
  251000   0.87179998   -7.0953602    75.609513   0.02510276  0.026205978            5 
  252000   0.86258947   -7.1191115    75.633453  0.025011062  0.026130175            6 
  253000   0.86957296   -7.1035892    75.939059  0.025012865  0.026054844            5 
  254000   0.86157059    -7.117554    76.124375  0.024975189  0.025980753            5 
  255000   0.83265247   -7.1231203    75.996073  0.024835318   0.02590697           10 
  256000   0.87114514   -7.1262682    76.415477   0.02487483  0.025832797            5 
  257000   0.86854255    -7.118304    76.595529  0.024836423  0.025760159            3 
  258000    0.8319228   -7.1346206    76.572075  0.024732582  0.025688258            6 
  259000   0.85943575   -7.1137226    76.568806  0.024636038  0.025615571            5 
  260000   0.86519966   -7.1238977    76.751243  0.024599757  0.025542532            7 
  261000   0.86095156   -7.1425358    77.018904  0.024590966  0.025469833            3 
  262000   0.81776891   -7.1282932    76.989219  0.024487665   0.02539724            7 
  263000   0.84902843    -7.123063    77.105602  0.024431433  0.025324633            6 
  264000   0.85669546   -7.1459761    77.137799  0.024349053   0.02525232           15 
  265000   0.85516761   -7.1695909    77.540815  0.024383904  0.025180895            8 
  266000   0.82937342    -7.155982    77.579197   0.02430426  0.025109901            3 
  267000   0.84230459   -7.1458729    77.769682  0.024272685  0.025039739           11 
  268000   0.82280969   -7.1532941    77.824429  0.024199138  0.024970031            3 
  269000   0.83273641   -7.1779026    78.194994  0.024223976  0.024900953            3 
  270000   0.84957435   -7.1562179    78.027956  0.024082703  0.024831988            3 
  271000   0.84094082    -7.180466    78.328743  0.024086329  0.024762813            7 
  272000   0.81388733   -7.1491098    78.075564   0.02392021  0.024694321            5 
  273000   0.83376254   -7.1722148    78.482574   0.02395683  0.024625576            6 
  274000   0.83527913    -7.144322    78.480252   0.02386869  0.024556866           12 
  275000   0.84167343   -7.1762238    78.461893  0.023776331  0.024487664           15 
  276000   0.84001485   -7.2128759    78.762735  0.023781019  0.024419105            7 
  277000   0.80593232   -7.1591132    78.869699  0.023727346  0.024351485            4 
  278000   0.82529688   -7.2173854    78.860958  0.023639376  0.024283425            5 
  279000   0.84305314   -7.2016301    79.147988  0.023640379  0.024216077            6 
  280000    0.8149982    -7.195022    79.365497  0.023620684  0.024149982            2 
  281000   0.82029004   -7.2129434    79.390716  0.023544103  0.024083547            5 
  282000   0.82708518   -7.2092871    79.309023  0.023436473  0.024016731           16 
  283000   0.81285728   -7.2055133    79.694724  0.023467233  0.023950088            5 
  284000   0.81138175   -7.2260407    79.407789  0.023300407  0.023883321            6 
  285000   0.80928938   -7.2333173    79.600902  0.023275118  0.023816929            6 
  286000   0.82357718    -7.198335    79.692572  0.023220446  0.023750723            4 
  287000   0.80766026   -7.2209367    79.805494  0.023172327  0.023684718            6 
  288000   0.80091236   -7.2168977    79.730234  0.023070091  0.023617799            7 
  289000   0.81854652   -7.2505636    79.910157  0.023042144  0.023551453            9 
  290000   0.80349686   -7.2603469    79.984023  0.022983915   0.02348543           10 
  291000   0.79619181   -7.2268123    80.126187  0.022945644  0.023419318            5 
  292000   0.80176192   -7.2481159    80.402921  0.022946039  0.023353926            5 
  293000   0.80965417   -7.2641689    80.124057  0.022788412  0.023288003           10 
  294000   0.79871011   -7.2660731    80.098058  0.022703531  0.023221776            5 
  295000   0.79429753   -7.2483012    80.269142  0.022674899  0.023155852            8 
  296000   0.79067898   -7.2747569    80.341577  0.022618687  0.023090273            9 
  297000    0.8020537   -7.2641814    80.580761  0.022609641  0.023024336           11 
  298000   0.79320055   -7.2524687    80.674908  0.022560097  0.022959609            9 
  299000   0.78216952   -7.2712999    80.570149  0.022455449  0.022894485            9 
  300000   0.79830942   -7.2639265    80.746834  0.022429676  0.022829433           10 
  301000   0.79893208    -7.273821    81.021898  0.022431312   0.02276452            6 
  302000   0.78857362   -7.2826719    80.944079  0.022335563  0.022699655            5 
  303000   0.80457192   -7.2813568    81.121005  0.022310507   0.02263539            6 
  304000   0.77293842   -7.2995027    80.970733  0.022195925  0.022571257           10 
  305000   0.76768323   -7.3017825    80.977321  0.022124951  0.022506967            8 
  306000   0.78851875   -7.2846036    81.267896   0.02213178  0.022442673            6 
  307000   0.76327936   -7.2687254    81.428713  0.022103342   0.02237912            6 
  308000   0.78382831   -7.3064449    81.350096  0.022010307  0.022315924            8 
  309000   0.77159329   -7.2914484    81.332715  0.021934389  0.022252439            8 
  310000   0.78521669   -7.2852586    81.723848  0.021968776  0.022190362            4 
  311000    0.7754062   -7.2917732    81.796096  0.021917496  0.022128469            7 
  312000   0.74109948    -7.317481     81.84914  0.021861416  0.022067109            9 
  313000   0.76442894   -7.3062531    81.813775  0.021782155  0.022005168           10 
  314000   0.75939193    -7.323133    81.819535  0.021714314  0.021942936            8 
  315000    0.7674572   -7.3076217    81.841279  0.021651132  0.021880601            5 
  316000   0.77636437   -7.3673625    81.914597  0.021601951   0.02181866            6 
  317000    0.7490443   -7.3476181    81.919049  0.021534976   0.02175695            6 
  318000   0.74718056   -7.3515959    82.140132  0.021525192  0.021695211           11 
  319000   0.75099427   -7.3415115    82.363102  0.021515962  0.021633718           22 
  320000   0.76106565   -7.3363298    82.101074  0.021380488  0.021572603            9 
  321000   0.75018399   -7.3392846    82.200144  0.021339601  0.021511093           10 
  322000   0.74625627   -7.3484219    82.411396  0.021328001  0.021449697           11 
  323000   0.74281114   -7.3512001    82.569042  0.021302642  0.021388661            9 
  324000   0.75410203    -7.321919    82.505756  0.021220616   0.02132775            7 
  325000   0.75278348   -7.3442269    82.507403  0.021155744  0.021267196            8 
  326000   0.74034026   -7.3755705    82.514794  0.021092739  0.021206158           13 
  327000   0.72384419   -7.3764695     82.61217   0.02105305   0.02114508            5 
  328000    0.7500785   -7.3628176    82.590159  0.020983272  0.021083829            4 
  329000   0.72387051    -7.357941    82.583507  0.020917808  0.021023178            7 
  330000   0.73862923   -7.3772491    82.690381  0.020881409  0.020962405            3 
  331000   0.75371355   -7.3518871    82.730942  0.020828535  0.020901641            4 
  332000   0.74806886   -7.3532042    82.635435  0.020741826  0.020841604            9 
  333000   0.74099091   -7.3729933    82.936044  0.020754766  0.020781733            4 
  334000   0.74530013   -7.3603356     82.81913  0.020663455  0.020722061           13 
  335000   0.73183139   -7.3637842    82.847542  0.020608841   0.02066269           13 
  336000   0.72197193   -7.3702091    83.124803  0.020616271  0.020603357           11 
  337000   0.72841987   -7.4172099    83.061037  0.020539327   0.02054427           10 
  338000    0.7506741   -7.4209673    83.127853  0.020495033  0.020485486            6 
  339000   0.72542599   -7.4544848    83.149144  0.020439809  0.020427089           24 
  340000   0.71025044   -7.4227425    83.181551  0.020387635   0.02036815            5 
  341000   0.72622694   -7.4484658    83.031906  0.020291277  0.020309211            7 
  342000   0.72171689   -7.4430944    82.964627  0.020215552  0.020250697           25 
  343000   0.71607287   -7.4273873    83.311446  0.020240876  0.020192212            8 
  344000   0.72371531   -7.4068911    83.413379  0.020206729  0.020134254           13 
  345000   0.73776417   -7.3984737    83.568958  0.020185739  0.020076508            9 
  346000   0.72752184   -7.4430906     83.28854   0.02005986   0.02001864            7 
  347000   0.72167383    -7.429878    83.450942  0.020041052  0.019960546            6 
  348000   0.72173709   -7.4276572    83.412066  0.019974154  0.019902347            5 
  349000   0.71304519   -7.4362097    83.508767  0.019940011  0.019844397           13 
  350000   0.72366029    -7.434407    83.593142  0.019903129  0.019786934           18 
  351000   0.71166407    -7.437815    83.470838  0.019817388  0.019729476           10 
  352000    0.7053306   -7.4284402    83.543827  0.019778368  0.019672211           20 
  353000   0.70513604   -7.4462251    83.699409  0.019759067  0.019615313           27 
  354000   0.70242001   -7.4534085    83.730079  0.019710471  0.019558335           14 
  355000   0.69874116   -7.4613933    83.736524  0.019656461  0.019501646           17 
  356000   0.70889327   -7.4380376    84.008119  0.019664822  0.019445286           11 
  357000   0.71199973   -7.4314141    83.723212  0.019543233  0.019389198            8 
  358000   0.69949341   -7.4928088    83.746202  0.019493995  0.019333019            7 
  359000   0.68655163   -7.4847973    84.032952  0.019506256  0.019277008           12 
  360000   0.70054907   -7.4710539    84.052108  0.019456506  0.019221252            7 
  361000   0.67731992   -7.4622289    83.965925  0.019382716  0.019165474            3 
  362000   0.68948461   -7.4634522    84.041007  0.019346457  0.019109758            8 
  363000   0.69443076   -7.4843066    83.909226  0.019262908  0.019054033           14 
  364000   0.67214396   -7.4738021    84.063097  0.019245215  0.018998304            6 
  365000   0.67978317     -7.50135    83.980534  0.019173638  0.018942823            7 
  366000   0.67858159   -7.4651099    84.020713  0.019130399   0.01888731            5 
  367000   0.68292703   -7.4910485    84.028065  0.019079942  0.018831864            4 
  368000   0.68174262   -7.4933273    83.971745  0.019015341  0.018776615            7 
  369000   0.69092979    -7.469355     83.99682  0.018969472  0.018721629           16 
  370000   0.68100735    -7.526199    84.082876  0.018937585  0.018666586            9 
  371000   0.68265422   -7.5065118    84.012665  0.018870769   0.01861144            9 
  372000   0.67896983   -7.4951266    84.072026  0.018833339  0.018556503            9 
  373000   0.67771331   -7.5130668    84.131076   0.01879604  0.018501658           14 
  374000   0.68034198   -7.5018541    83.953845  0.018706293  0.018447076            9 
  375000   0.66252852   -7.5279252    83.997963  0.018666214   0.01839249            5 
  376000   0.67428171   -7.5195833    84.195911  0.018660441  0.018338074            7 
  377000    0.6604671   -7.5355673    84.209499  0.018613948   0.01828386           10 
  378000   0.66395616   -7.5628777    84.205615  0.018563848  0.018229801           13 
  379000   0.66832772   -7.5586389    84.076615  0.018486503  0.018175581           15 
  380000    0.6788041   -7.5329103    84.242151  0.018474156  0.018121405           16 
  381000   0.66357103   -7.5278448    84.251585  0.018427731  0.018067513           22 
  382000   0.66630493   -7.5518936    84.179941  0.018363862  0.018013782           10 
  383000   0.65043093   -7.5579292    84.189164  0.018317921  0.017959779           13 
  384000    0.6579197   -7.5544308    84.323653  0.018299404  0.017906232            7 
  385000   0.65532155   -7.5621812    84.158734  0.018216176  0.017852784           22 
  386000    0.6511648   -7.5654058    84.377638  0.018216243  0.017799541           11 
  387000   0.66372013   -7.5690316    84.319307  0.018156612  0.017746345           15 
  388000    0.6538768   -7.5806209    84.150077   0.01807347  0.017693122           15 
  389000   0.65462781   -7.5815851    84.270677  0.018052844  0.017640023           12 
  390000   0.65164158   -7.5819499    84.349024  0.018023296  0.017586937           14 
  391000   0.63222602   -7.5906403    84.220111  0.017949725  0.017534067            5 
  392000   0.64076918   -7.6056477    84.193084   0.01789819  0.017481162           10 
  393000   0.61890353   -7.5829645    84.305254  0.017876432  0.017428607            6 
  394000   0.63767005   -7.5925776    84.375404  0.017845898  0.017376198            6 
  395000   0.63261262   -7.5810623    84.439017  0.017814139  0.017323877            9 
  396000   0.64513064   -7.5976788    84.228261  0.017724802  0.017271833            9 
  397000   0.63308604   -7.5906834    84.202707  0.017674792  0.017219946           13 
  398000   0.63794565   -7.5799034    84.206521  0.017631181   0.01716803           11 
  399000   0.63070884   -7.6137501    84.366358  0.017620376  0.017116207            8 
  400000   0.63329329   -7.6171709    84.170901  0.017535604  0.017064517            6 
  401000   0.61820128   -7.6189512    84.333591  0.017525684  0.017012687            7 
  402000   0.63825027   -7.6111913    84.453278  0.017506898  0.016961187            7 
  403000   0.61650433   -7.6108419    84.423288  0.017457256   0.01691013           10 
  404000   0.62376673   -7.6334325    84.200873  0.017368167  0.016859211            6 
  405000   0.62183525   -7.6237253    84.457919  0.017378173  0.016808323            9 
  406000    0.6273153   -7.6431472     84.41972  0.017327529  0.016757618            8 
  407000    0.6321051   -7.6313488    84.353923  0.017271483  0.016707143           13 
  408000   0.62173713   -7.6339908    84.347212   0.01722778  0.016656725           10 
  409000   0.60933463   -7.6455603    84.357509  0.017187756  0.016606149            4 
  410000   0.62010409   -7.6495072    84.338579  0.017141987  0.016555734           12 
  411000   0.60993093   -7.6571826    84.216013  0.017075428  0.016505185            8 
  412000   0.61804054   -7.6626266    84.153469  0.017021333  0.016454755            5 
  413000   0.60870655   -7.6591857    84.176621   0.01698479  0.016404486            5 
  414000   0.60359443    -7.677827    84.250696  0.016958675  0.016354135            7 
  415000   0.61191426   -7.6633707    84.157564  0.016899109  0.016304094           16 
  416000   0.60415318   -7.6705459     84.20795   0.01686858  0.016254093           11 
  417000   0.60507423   -7.6755259    84.315035  0.016849527  0.016204353           12 
  418000   0.58389099   -7.6740075     84.17584  0.016781467  0.016154674            9 
  419000   0.58653237   -7.6900258    84.107631   0.01672785  0.016105111           14 
  420000    0.5948413   -7.6902921     84.12252  0.016690976  0.016055676            7 
  421000   0.60612633   -7.6972659    84.139552  0.016654702  0.016006436            6 
  422000   0.58849663   -7.6911277    84.064569  0.016600428  0.015957376            9 
  423000   0.60339424   -7.6894305    84.090876  0.016566366  0.015908383            9 
  424000   0.57787125   -7.6946467    84.255349   0.01655962  0.015859502           11 
  425000   0.58500616   -7.7170266    84.082078  0.016486682  0.015810863           14 
  426000   0.59667519   -7.6893089    84.168753  0.016464936  0.015762245           12 
  427000   0.59138916   -7.6955096    84.163712  0.016425393  0.015713885            9 
  428000   0.59978505   -7.7158279    84.150048  0.016384355  0.015665544           10 
  429000   0.58135461   -7.7155755    84.185444  0.016353039  0.015617401            6 
  430000   0.58615372   -7.7216638    84.203387  0.016318486   0.01556934            8 
  431000   0.59613469   -7.7071219    84.192772  0.016278571  0.015521455            8 
  432000   0.57609611   -7.7028885    84.194017   0.01624113  0.015473798            9 
  433000   0.56168032   -7.7296414    84.182606  0.016201425  0.015426409            8 
  434000   0.57250687   -7.7153432    84.167575  0.016161209  0.015379024            6 
  435000   0.56931087   -7.7184369    84.136731  0.016118148  0.015331672           15 
  436000   0.57124496   -7.7115803     84.06303  0.016067093  0.015284601           10 
  437000   0.55545547   -7.7138055     84.00558  0.016019371  0.015237676            9 
  438000   0.58065273   -7.7459079    84.020942  0.015985719  0.015190815           10 
  439000   0.57104452   -7.7462069    84.144173  0.015972698   0.01514413           12 
  440000   0.55730374   -7.7238887    83.954086  0.015900395  0.015097525            8 
  441000   0.56042825   -7.7199827    84.119315  0.015895562  0.015051096           19 
  442000    0.5701444   -7.7443689    84.053123   0.01584712  0.015004771            9 
  443000   0.56211012   -7.7368727    83.961859   0.01579418  0.014958567           15 
  444000   0.56225065   -7.7398237    84.107845  0.015786007  0.014912495            8 
  445000   0.56272195   -7.7376079    84.029459  0.015735854  0.014866586            6 
  446000    0.5650853   -7.7443917    84.015894  0.015698037  0.014820807           10 
  447000   0.55400765   -7.7488519    83.844072  0.015630886  0.014775134           11 
  448000   0.54441047   -7.7634929    84.164533  0.015655605  0.014729705           10 
  449000   0.56234941   -7.7751698    84.042418  0.015598073  0.014684435            9 
  450000   0.54046874   -7.7482836    84.053763  0.015565512  0.014639229           10 
  451000   0.55038735   -7.7607913     84.01398  0.015523647  0.014594209           11 
  452000   0.54969222   -7.7584091    83.977347  0.015482549  0.014549199           10 
  453000    0.5460935   -7.7809964    83.946656  0.015442726  0.014504442            7 
  454000    0.5449748   -7.7851841     83.89653   0.01539951  0.014459703            8 
  455000   0.54210447   -7.7815969     83.90746  0.015367667  0.014414958            8 
  456000    0.5313705   -7.7820109    83.892316  0.015331198  0.014370428           10 
  457000   0.53288453   -7.7808831    83.844516  0.015288934  0.014325951           10 
  458000   0.52178658   -7.7802661    83.751041  0.015238545  0.014281552           11 
  459000   0.53472808   -7.7992097    83.799319   0.01521411  0.014237285           13 
  460000   0.53736552   -7.7948561    83.772913  0.015176252  0.014193168            9 
  461000   0.52512451   -7.7787178    83.872116  0.015161265  0.014149238           14 
  462000   0.51506091   -7.7871657    83.661128  0.015090391  0.014105486           18 
  463000   0.52402226   -7.8006058    83.723558  0.015069035  0.014061949           12 
  464000   0.53038829   -7.8216129    83.840313  0.015057528  0.014018559           14 
  465000   0.51831452    -7.817505    83.877302  0.015031775  0.013975326           14 
  466000   0.52257322   -7.8073102    83.768023  0.014979975  0.013932283           19 
  467000   0.50985957   -7.8266136    83.827798  0.014958565  0.013889412           20 
  468000   0.51453961   -7.8039888    83.673723  0.014899167  0.013846625           14 
  469000   0.51677595   -7.8085611    83.703614   0.01487271  0.013803944           11 
  470000   0.51547021   -7.8128833    83.925868  0.014880473  0.013761528           10 
  471000   0.51200261   -7.8320614    83.683527  0.014806003  0.013719225           22 
  472000   0.51089821   -7.8404089    83.713445  0.014779916  0.013677053           10 
  473000   0.51698018   -7.8303289    83.660201  0.014739288  0.013635074           20 
  474000   0.51085862   -7.8326194    83.639168  0.014704495  0.013593277           15 
  475000    0.5015951   -7.8328867    83.919895  0.014722789  0.013551574           14 
  476000   0.50228501   -7.8349183    83.818223  0.014674059  0.013510049           17 
  477000   0.50638388   -7.8306276    83.781226  0.014636832  0.013468653           13 
  478000   0.50008688   -7.8396368     83.78862    0.0146075  0.013427396           20 
  479000   0.50285223   -7.8422159    83.885675  0.014593889  0.013386305           19 
  480000   0.50813529   -7.8326825    83.592597  0.014512604  0.013345372           15 
  481000   0.50726325   -7.8505728     83.77924  0.014514768  0.013304481           20 
  482000   0.50414354   -7.8563681    83.672444   0.01446619  0.013263711           18 
  483000   0.49844013   -7.8418814     83.63909  0.014430485  0.013223173           17 
  484000   0.50894179   -7.8446813    83.801428   0.01442862  0.013182831           22 
  485000   0.49115909   -7.8602646    83.787186  0.014396424  0.013142609           17 
  486000   0.50245939   -7.8560514    83.731466  0.014357247  0.013102467           14 
  487000   0.48245623   -7.8668004    83.772353  0.014334763  0.013062472           25 
  488000   0.48522994   -7.8726452    83.613663  0.014278289  0.013022539           16 
  489000   0.48491488    -7.875655    83.673088  0.014259217  0.012982684           14 
  490000   0.48810937   -7.8740416    83.766726  0.014246042  0.012943038           16 
  491000   0.47822337   -7.8699845    83.524878  0.014175981  0.012903452           18 
  492000   0.48032307   -7.8816801    83.631066  0.014165153   0.01286406           24 
  493000    0.4958044   -7.8894078    83.678615  0.014144458  0.012824813           11 
  494000   0.47776196   -7.8893315    83.532726  0.014091216  0.012785738            7 
  495000   0.46572384     -7.88343    83.516763  0.014060061  0.012746736           14 
  496000   0.47166687    -7.881722    83.570484   0.01404074  0.012707941           13 
  497000   0.47546811   -7.8990814    83.614896  0.014019936  0.012669209           19 
  498000   0.47575656   -7.9032381    83.514102  0.013974917  0.012630662           23 
  499000   0.46886225    -7.904219    83.502257  0.013944933  0.012592288           17 
  500000   0.45962522   -7.8961139    83.484589  0.013914098  0.012553988           19 
  501000   0.47466144   -7.9161367    83.569548  0.013900457  0.012515827           25 
  502000    0.4625525   -7.8903607    83.393338  0.013843516  0.012477731           13 
  503000   0.46659567   -7.9115393    83.396383  0.013816498  0.012439823           17 
  504000   0.46661364   -7.9008651    83.452895  0.013798428  0.012402021           17 
  505000   0.46979182   -7.9154949    83.616376  0.013798082  0.012364364           13 
  506000   0.46208288   -7.9134647    83.505257  0.013752513   0.01232688           10 
  507000   0.45671991   -7.9093529    83.385897  0.013705769  0.012289516           16 
  508000   0.45730441   -7.9111026    83.571125  0.013709174  0.012252316           24 
  509000   0.45685101   -7.9172639    83.445473  0.013661669  0.012215203           19 
  510000   0.45556922   -7.9286222    83.468275  0.013638607   0.01217824           23 
  511000   0.45395103   -7.9121629    83.421585  0.013604303  0.012141384           19 
  512000   0.44484689   -7.9275126    83.505839  0.013591445  0.012104673           21 
Loop time of 1107.32 on 48 procs for 500000 steps with 4000 atoms

Performance: 78026.235 tau/day, 451.541 timesteps/s
99.4% CPU use with 48 MPI tasks x no OpenMP threads

MPI task timing breakdown:
Section |  min time  |  avg time  |  max time  |%varavg| %total
---------------------------------------------------------------
Pair    | 69.374     | 73.586     | 78.215     |  24.8 |  6.65
Neigh   | 6.9542     | 7.2247     | 7.6522     |   5.5 |  0.65
Comm    | 62.883     | 68.255     | 72.744     |  28.6 |  6.16
Output  | 0.79236    | 0.79292    | 0.80203    |   0.2 |  0.07
Modify  | 940.63     | 945.72     | 949.77     |   6.6 | 85.41
Other   |            | 11.74      |            |       |  1.06

Nlocal:        83.3333 ave          91 max          75 min
Histogram: 3 2 0 9 6 7 14 1 2 4
Nghost:        1850.98 ave        1873 max        1826 min
Histogram: 2 2 7 5 10 6 0 5 5 6
Neighs:        11523.5 ave       12952 max        9901 min
Histogram: 1 1 8 3 7 8 9 2 8 1
FullNghs:      23047.3 ave       25333 max       20416 min
Histogram: 4 1 0 6 11 6 9 6 1 4

Total # of neighbors = 1106272
Ave neighs/atom = 276.56800
Neighbor list builds = 26870
Dangerous builds = 1

#clear
#
#next RN
#
#jump SELF
Total wall time: 0:18:30
