
units lj                  # Use reduced LJ style units
atom_style atomic         # Uncharged point particles
atom_modify map hash      # Needed for indexing of clusters etc
                          # Used to be able to find where atoms are in relation to each other.

lattice fcc 1.0 spacing 1 1 1
Lattice spacing in x,y,z = 1.5874011 1.5874011 1.5874011
region box block 0 10 0 10 0 10 units lattice
create_box 2 box
Created orthogonal box = (0.0000000 0.0000000 0.0000000) to (15.874011 15.874011 15.874011)
  3 by 4 by 4 MPI processor grid
create_atoms 1 box
Created 4000 atoms
  using lattice units in orthogonal box = (0.0000000 0.0000000 0.0000000) to (15.874011 15.874011 15.874011)
  create_atoms CPU = 0.004 seconds
set type 1 type/fraction 2 0.5 78393
Setting atom values ...
  2004 settings made for type/fraction
mass 1 1.0
mass 2 1.0
pair_style lj/cut  3.5
pair_modify tail  yes
pair_coeff 1  1  1.0  1.0   # Intearaction between 1 and 1 set with epsilon = 1 and sigma = 1
pair_coeff 1  2  1.5  0.8
pair_coeff 2  2  0.5  0.88

write_data data.0
System init for write_data ...
Neighbor list info ...
  update every 1 steps, delay 10 steps, check yes
  max neighbors/atom: 2000, page size: 100000
  master list distance cutoff = 3.8
  ghost atom cutoff = 3.8
  binsize = 1.9, bins = 9 9 9
  1 neighbor lists, perpetual/occasional/extra = 1 0 0
  (1) pair lj/cut, perpetual
      attributes: half, newton on
      pair build: half/bin/atomonly/newton
      stencil: half/bin/3d
      bin: standard
WARNING: Not all mixed pair coeffs generated from mixing. Use write_data with 'pair ij' option to store all pair coeffs. (../write_data.cpp:312)


#############################
#   M E L T   S Y S T E M   #
#############################

velocity all create 2.4 5300450 mom yes dist gaussian # Assign velocities
                                                    # Temperature 2.4, random number seed, zero linear momentum
                                                                                # Gaussian distribution

timestep 0.002   # simulation timestep
thermo 1000       # output thermodynamic data every 1000 steps bf 100

# Define a fix  in this case with index 1 applied to all
# particles in the simulation. This fix is for simulations
# in the anisotropic NPT ensemble. Note that we use the MTK
# correction.
fix 1 all npt temp 2.4 2.4 0.1 iso 5.68 5.68 0.5 mtk yes tchain 5 pchain 5 # Use NPT ensemble
                                                                         # Set temperature and pressure and damping
                                                                         # Numbers of thermostats in chain and in barostat
run 10000          # run for 10000 steps
Per MPI rank memory allocation (min/avg/max) = 3.642 | 3.644 | 3.648 Mbytes
Step Temp E_pair E_mol TotEng Press Volume 
       0          2.4   -5.2939675            0   -1.6948675   -4.2078901         4000 
    1000    2.4063881    -4.833367            0   -1.2246873    6.0460512    3687.8334 
    2000    2.3824204    -4.828319            0   -1.2555819    5.8683915    3720.0656 
    3000     2.396464   -4.9618326            0   -1.3680352    5.8297986    3652.1417 
    4000    2.3829127   -4.9603142            0   -1.3868387    5.5904883    3671.9279 
    5000    2.4208521   -4.8943905            0   -1.2640202    5.7671745    3688.7845 
    6000    2.3805428   -4.8950831            0   -1.3251616    5.9313166    3674.9666 
    7000    2.3450917   -4.8729844            0   -1.3562263    5.4418993    3718.6261 
    8000    2.3927245    -4.813635            0   -1.2254455    5.9606045    3702.8313 
    9000    2.4034071   -4.9621706            0   -1.3579612    5.2385607    3703.5602 
   10000    2.4309696   -4.8804054            0   -1.2348627    5.8896853    3694.8058 
Loop time of 2.63179 on 48 procs for 10000 steps with 4000 atoms

Performance: 656586.326 tau/day, 3799.689 timesteps/s
99.6% CPU use with 48 MPI tasks x no OpenMP threads

MPI task timing breakdown:
Section |  min time  |  avg time  |  max time  |%varavg| %total
---------------------------------------------------------------
Pair    | 1.1714     | 1.2419     | 1.3713     |   3.5 | 47.19
Neigh   | 0.21107    | 0.22106    | 0.24125    |   1.1 |  8.40
Comm    | 0.77184    | 0.88582    | 0.96737    |   4.2 | 33.66
Output  | 0.00024187 | 0.00024826 | 0.0003181  |   0.0 |  0.01
Modify  | 0.21915    | 0.26732    | 0.32159    |   5.2 | 10.16
Other   |            | 0.01548    |            |       |  0.59

Nlocal:        83.3333 ave          94 max          74 min
Histogram: 1 5 5 5 10 7 8 4 0 3
Nghost:        1730.10 ave        1752 max        1696 min
Histogram: 1 2 3 3 7 6 10 4 5 7
Neighs:        10325.2 ave       11926 max        8747 min
Histogram: 1 2 8 4 9 11 7 3 0 3

Total # of neighbors = 495609
Ave neighs/atom = 123.90225
Neighbor list builds = 904
Dangerous builds = 215

# Equilibrate just above the melting temperature to avoid step fn in T

fix 1 all npt temp 1.25 1.25 0.1 iso 5.68 5.68 0.5 mtk yes tchain 5 pchain 5
run 2000
Per MPI rank memory allocation (min/avg/max) = 3.644 | 3.646 | 3.649 Mbytes
Step Temp E_pair E_mol TotEng Press Volume 
   10000    2.4309696   -4.8804054            0   -1.2348627    5.8896853    3694.8058 
   11000    1.2511642   -6.9851266            0   -5.1088494    5.8578268    2880.3512 
   12000    1.2344078   -7.0603685            0   -5.2092197    5.4588302    2873.6199 
Loop time of 0.636974 on 48 procs for 2000 steps with 4000 atoms

Performance: 542565.429 tau/day, 3139.846 timesteps/s
99.7% CPU use with 48 MPI tasks x no OpenMP threads

MPI task timing breakdown:
Section |  min time  |  avg time  |  max time  |%varavg| %total
---------------------------------------------------------------
Pair    | 0.2764     | 0.31131    | 0.34687    |   2.4 | 48.87
Neigh   | 0.038982   | 0.042547   | 0.046227   |   0.6 |  6.68
Comm    | 0.19815    | 0.23362    | 0.27329    |   3.1 | 36.68
Output  | 5.0604e-05 | 5.2288e-05 | 6.9535e-05 |   0.0 |  0.01
Modify  | 0.040998   | 0.044558   | 0.048092   |   0.9 |  7.00
Other   |            | 0.004885   |            |       |  0.77

Nlocal:        83.3333 ave          91 max          77 min
Histogram: 3 1 14 3 6 7 5 5 3 1
Nghost:        2054.00 ave        2074 max        2036 min
Histogram: 1 8 5 4 9 7 4 3 3 4
Neighs:        13287.6 ave       15147 max       11417 min
Histogram: 2 1 5 8 9 7 8 5 0 3

Total # of neighbors = 637803
Ave neighs/atom = 159.45075
Neighbor list builds = 142
Dangerous builds = 7

#############################
# L I N E A R  Q U E N C H  #
#############################

# Define solid atoms. This closely follows ten Wolde  Ruiz-Montero and Frenkel  Faraday Discuss  1996  104  93-110
# Compute components of the per-atom q6 vector
compute q6 all orientorder/atom degrees 1 6 components 6 nnn NULL cutoff 1.3 # compute the Q6 parameter.
                                                                             # Use all neighbours within 1.3 unit cell.

# get number of connections
compute coord_number all coord/atom orientorder q6 0.5

# An atom is solid if it has 8 or more connections (of a possible 14)
variable is_solid atom c_coord_number>=8
group solid dynamic all var is_solid    # Must be dynamic to update
dynamic group solid defined

# do clustering
compute cluster solid cluster/atom 1.3 # Create a cluster where all atoms within are solid and max 1.3 units from another member

# define chunks one chunk per cluster
compute clus_chunks solid chunk/atom c_cluster nchunk every compress yes  # Says which atoms are in which chunk

# count the size of each chunk
compute size_chunks solid property/chunk clus_chunks count


# Find the maximum entry in the vector of chunk sizes
variable max_n equal max(c_size_chunks)


# Thermo style which includes this variable
# thermo_style custom step temp pe vol v_max_n

thermo ${N}  # Print the thermo information every 100 steps
thermo 1000  

# Reset the npt fix at a lower temperature (below freezing)
fix 1  all npt temp  ${temp} ${temp}  0.1  iso  5.68  5.68  0.5  mtk yes tchain  5  pchain  5
fix 1  all npt temp  0.45 ${temp}  0.1  iso  5.68  5.68  0.5  mtk yes tchain  5  pchain  5
fix 1  all npt temp  0.45 0.45  0.1  iso  5.68  5.68  0.5  mtk yes tchain  5  pchain  5

dump dmp2 all dcd ${N} traj.dcd
dump dmp2 all dcd 1000 traj.dcd


compute msd all msd com yes
variable twopoint equal c_msd[4]/6/(step*dt+1.0e-6)
fix 9 all vector 10 c_msd[4]
variable fit equal slope(f_9)/6/(10*dt)
thermo_style custom step temp pe c_msd[4] v_twopoint v_fit v_max_n

fix 1 all npt temp 1.25 ${temp} 0.1 iso 5.68 5.68 0.5 mtk yes tchain 5 pchain 5
fix 1 all npt temp 1.25 0.45 0.1 iso 5.68 5.68 0.5 mtk yes tchain 5 pchain 5
run 5000000 # 5000000  # Run for this many steps
Neighbor list info ...
  update every 1 steps, delay 10 steps, check yes
  max neighbors/atom: 2000, page size: 100000
  master list distance cutoff = 3.8
  ghost atom cutoff = 3.8
  binsize = 1.9, bins = 8 8 8
  4 neighbor lists, perpetual/occasional/extra = 1 3 0
  (1) pair lj/cut, perpetual
      attributes: half, newton on
      pair build: half/bin/atomonly/newton
      stencil: half/bin/3d
      bin: standard
  (2) compute orientorder/atom, occasional
      attributes: full, newton on
      pair build: full/bin/atomonly
      stencil: full/bin/3d
      bin: standard
  (3) compute coord/atom, occasional
      attributes: full, newton on
      pair build: full/bin/atomonly
      stencil: full/bin/3d
      bin: standard
  (4) compute cluster/atom, occasional
      attributes: full, newton on
      pair build: full/bin/atomonly
      stencil: full/bin/3d
      bin: standard
Per MPI rank memory allocation (min/avg/max) = 9.839 | 9.843 | 9.846 Mbytes
Step Temp PotEng c_msd[4] v_twopoint v_fit v_max_n 
   12000    1.2344078   -7.0603685 1.6895428e-30 1.1732936e-32 8.3333333e+20            2 
   13000       1.2552   -7.0600469   0.47416548 0.0030395222  0.038465666            2 
   14000    1.2397006   -7.1259077   0.88124588  0.005245511  0.036257555            1 
   15000    1.2339409   -7.1424308    1.2382393 0.0068791069   0.03388533            4 
   16000    1.2672548   -7.1088868    1.6829077 0.0087651438  0.033516599            4 
   17000    1.2542195   -7.1019611      2.09319  0.010260735  0.034062363            3 
   18000    1.2560699   -7.1307578    2.4984088  0.011566707  0.034062244            2 
   19000    1.2428547   -7.1525172    2.8563273  0.012527751   0.03377303            2 
   20000    1.2377996   -7.1354661     3.217166  0.013404858  0.033353042            1 
   21000    1.2726842   -7.1259941    3.5808801  0.014209841  0.033036354            4 
   22000    1.2496759    -7.076793    3.9630038  0.015011378  0.032772309            1 
   23000    1.2820993   -7.0713269    4.3606771  0.015799554  0.032464204            4 
   24000    1.2506163   -7.1093951    4.8168905  0.016725314  0.032451783            1 
   25000     1.261375   -7.0884151     5.147488  0.017158293  0.032531936            2 
   26000    1.2498348   -7.1277983    5.6074646  0.017972642  0.032594242            3 
   27000    1.2672917   -7.1068466    5.9855847  0.018474027  0.032648792            1 
   28000    1.2159888   -7.1221664    6.3069104  0.018770566  0.032643578            2 
   29000    1.2466195   -7.1016346     6.714348  0.019294103  0.032561738            1 
   30000    1.2625886   -7.1202635    7.0444824  0.019568006  0.032479796            1 
   31000     1.228005   -7.1190482    7.3698723  0.019811484  0.032356306            1 
   32000    1.2476917   -7.1317873    7.7573156  0.020201342  0.032229434            5 
   33000    1.2733749   -7.0657939    8.2998574  0.020959236  0.032210939            2 
   34000    1.2608096   -7.1089578    8.6951144  0.021311554  0.032267479            1 
   35000    1.2515513   -7.0761338    9.0701777  0.021595661  0.032343723       -1e+20 
   36000    1.2698286   -7.1369017    9.4792022  0.021942597  0.032379889            2 
   37000    1.2092461    -7.130364     9.888751  0.022271961  0.032427172            3 
   38000    1.2648441   -7.1096439    10.159986  0.022280671  0.032451323            1 
   39000    1.2499446   -7.0481822    10.657824  0.022773128  0.032456803            2 
   40000      1.23036   -7.0919767    10.999306  0.022915221  0.032462299            2 
   41000    1.2670138    -7.080275    11.368407  0.023106517  0.032436183            2 
   42000    1.2280268   -7.1158601    11.757911  0.023329188  0.032424797            1 
   43000     1.240589   -7.1032122    12.189387  0.023622842  0.032441274            2 
   44000    1.2522414   -7.1058374    12.672743  0.024001407  0.032489908            3 
   45000    1.2631949    -7.146519    13.131028  0.024316718  0.032566282            4 
   46000    1.2493229   -7.1142546    13.633311  0.024698027   0.03266066            4 
   47000    1.2160869    -7.106907     14.08894  0.024980391  0.032770558            1 
   48000    1.2423728   -7.1212253     14.54505  0.025251822  0.032886191            2 
   49000    1.2401646   -7.1423482    15.067764  0.025625449  0.033023199            2 
   50000    1.2510984    -7.133813    15.474786   0.02579131  0.033153527            3 
   51000    1.2208245   -7.0878063    15.867734   0.02592767  0.033270452            3 
   52000    1.2387551   -7.1206847    16.247964  0.026038404  0.033359594            2 
   53000    1.2228239   -7.1129941    16.633058  0.026152607  0.033433196            3 
   54000    1.2463829   -7.1488542       16.912  0.026098765  0.033485514            1 
   55000    1.2585315   -7.1586774    17.358145  0.026300219  0.033523086            2 
   56000    1.2195492   -7.1127756    17.700381  0.026339852  0.033539489            4 
   57000    1.2490927   -7.1566704    18.099385   0.02646109  0.033549842            5 
   58000     1.249147   -7.1095458    18.524833   0.02661614  0.033554426            3 
   59000    1.2172021   -7.0913156     18.71359  0.026431624  0.033549959            3 
   60000     1.223988   -7.1063087    19.200907  0.026667926  0.033538904            2 
   61000    1.2294136   -7.1868086    19.512154  0.026655948  0.033523119            4 
   62000    1.2474908   -7.0879705     19.96697  0.026837325  0.033499794            1 
   63000    1.2589655   -7.1212012    20.350796  0.026919041  0.033484207            1 
   64000    1.2522545   -7.1409121    20.755939  0.027025962  0.033470743            2 
   65000    1.2367512   -7.1434102    21.247862  0.027240848  0.033462692            2 
   66000     1.223918   -7.1155466     21.68305  0.027377588  0.033471726            3 
   67000    1.2360231    -7.176467    22.075736  0.027457383  0.033479921            2 
   68000    1.2605332   -7.1118847    22.299238  0.027327497  0.033472446            2 
   69000    1.2766168   -7.1788833     22.75293  0.027479384  0.033454294            1 
   70000    1.2169865   -7.0539427    23.276892  0.027710585  0.033453432            1 
   71000    1.2482958   -7.1112598     23.58983  0.027687594  0.033445904            2 
   72000    1.2543891   -7.1478386    24.041255  0.027825527  0.033442434            1 
   73000    1.2279321   -7.1087159    24.592273  0.028073371  0.033454659            2 
   74000    1.2431381   -7.1489089    24.819008  0.027949333  0.033454364            3 
   75000    1.2437485   -7.0976072    25.359642   0.02817738  0.033459952            3 
   76000    1.2244799   -7.0753087    25.775786  0.028262923   0.03347217            1 
   77000    1.2542896   -7.1188052    26.159392   0.02831103  0.033484752            2 
   78000     1.232777   -7.1572477    26.667467  0.028490884  0.033506171            1 
   79000    1.2623121   -7.1286011    27.087644  0.028573464  0.033523063            1 
   80000    1.2502205   -7.1455285    27.440588  0.028583946  0.033529483            2 
   81000    1.2442528   -7.0845823     27.82644  0.028628025  0.033540331            1 
   82000    1.2471194   -7.1179891    28.178994  0.028637189  0.033545627            2 
   83000    1.2542984   -7.1267378    28.411929  0.028526033  0.033544581            1 
   84000    1.2257524   -7.1556524     28.87518  0.028646012  0.033534839            1 
   85000    1.2357707   -7.1075471    29.293478  0.028719096  0.033528748            2 
   86000    1.2268456   -7.1547837     29.56525  0.028648498  0.033524393            1 
   87000    1.2471358   -7.1300752    30.132637  0.028862679  0.033518165            1 
   88000    1.2371141   -7.1015489    30.626789  0.029002641  0.033523803            4 
   89000     1.245228    -7.090815    31.031153  0.029055387  0.033529524            1 
   90000    1.2362246   -7.1226569    31.408583  0.029082022  0.033534311            3 
   91000    1.2296193   -7.1323371    31.686469  0.029016913  0.033531713            1 
   92000    1.2419821   -7.1316768    31.979888   0.02896729  0.033522368            3 
   93000    1.2222307   -7.1413447     32.16256  0.028819498  0.033506979            3 
   94000     1.242483   -7.1409662    32.703464  0.028992432  0.033486155            2 
   95000    1.2455796   -7.1415962    33.057405  0.028997723  0.033469598            3 
   96000    1.2522528   -7.1235098    33.605322  0.029171286  0.033458995            1 
   97000    1.2268011   -7.0850757    34.150977  0.029339327  0.033452085            1 
   98000    1.2317458   -7.1704404    34.409624  0.029259884  0.033446462            2 
   99000    1.2453985   -7.1086831    34.724916  0.029229727  0.033436244            1 
  100000    1.2411985   -7.1676102    34.970912  0.029142426  0.033424122            1 
  101000    1.2307928   -7.2101596    35.370285  0.029183404  0.033412532            1 
  102000    1.2546448   -7.1317405    36.050312  0.029452869  0.033402092            4 
  103000      1.24141   -7.1382016    36.270348  0.029344942    0.0333957            3 
  104000    1.2512195   -7.1347041     36.79965  0.029486899  0.033394246            2 
  105000     1.242364   -7.1258553     37.32322  0.029621603  0.033393627            3 
  106000    1.2377312   -7.1337903    37.713179  0.029648725  0.033394597            2 
  107000    1.2176261   -7.1207448    38.175358  0.029731587  0.033396016            3 
  108000    1.2118667   -7.1999464    38.314772  0.029563867  0.033399889            2 
  109000    1.2056659   -7.2451384    38.797788  0.029661917  0.033395379            4 
  110000    1.2205232   -7.1245089    39.367514  0.029823874  0.033396963            2 
  111000     1.220473   -7.0884711    40.072444  0.030084417  0.033408539            2 
  112000    1.2366776    -7.122328    40.269354  0.029962317  0.033426816            1 
  113000    1.2362281   -7.1052799    41.028094  0.030256706  0.033443639            2 
  114000    1.2230383   -7.1568551     41.39319   0.03025818  0.033466249            1 
  115000    1.2317595   -7.1411903    41.755006   0.03025725   0.03348759            5 
  116000    1.2311487   -7.1203374    42.113286  0.030253798   0.03350557            2 
  117000     1.261444    -7.124324    42.436224  0.030225231  0.033520197            1 
  118000    1.2312322   -7.1273712    42.776459  0.030209363   0.03353115            2 
  119000     1.210567   -7.1088934    43.282447  0.030309837  0.033542078            2 
  120000    1.2389561   -7.1566253    43.467199  0.030185555  0.033546109            3 
  121000    1.2299022    -7.110283    43.963625  0.030277979  0.033552016            4 
  122000    1.2389066   -7.1516378    44.270599   0.03023948  0.033556411            2 
  123000    1.2557019   -7.1389547    44.505249  0.030152608  0.033556425            2 
  124000    1.2479247    -7.111531    45.000474  0.030242254  0.033553316            3 
  125000    1.2444866   -7.1383728     45.13856  0.030092373  0.033547731            2 
  126000    1.2285757   -7.1690348    45.618285  0.030170823    0.0335444            1 
  127000    1.2413852   -7.1324555    46.104329  0.030252184  0.033539053            4 
  128000     1.237107   -7.1440644    46.606619  0.030342851  0.033536127            2 
  129000    1.2616301   -7.1708603     46.70488  0.030171111  0.033529923            2 
  130000    1.2286334   -7.1264849    47.236233  0.030279636  0.033523779            2 
  131000    1.2294832   -7.1056276    47.789714  0.030400582  0.033519563            2 
  132000    1.2359276   -7.1511116    48.067832  0.030345854  0.033516294            3 
  133000    1.2113592   -7.1822909    48.120683  0.030150804   0.03350656            2 
  134000    1.2103057   -7.1649984    48.628004  0.030241296  0.033494878            2 
  135000    1.1940139    -7.141968    48.898541  0.030184285  0.033481414            4 
  136000    1.2221751   -7.1413436    49.387305  0.030261829  0.033466817            2 
  137000    1.2270213   -7.2108308    49.401113  0.030049339  0.033452492            2 
  138000      1.26215    -7.134906    49.929709   0.03015079  0.033430029            2 
  139000    1.2421638   -7.1672887    50.183386  0.030085963  0.033409476            1 
  140000    1.2379842   -7.1545012    50.591084   0.03011374   0.03338993            3 
  141000    1.2351591   -7.1535792    51.121244  0.030213501  0.033369834            3 
  142000    1.2258415   -7.1217116    51.381195  0.030153283  0.033350335            3 
  143000    1.2089708   -7.1571016    51.774519  0.030171631  0.033329861            1 
  144000    1.2278413   -7.1464756    52.371691  0.030307691  0.033309061            3 
  145000     1.228894   -7.1988511    52.360915   0.03009248  0.033288766            1 
  146000    1.2500153   -7.1752483    52.859187  0.030170769  0.033268288            2 
  147000    1.1975729   -7.1585164     53.56281  0.030364405  0.033251624            1 
  148000    1.2073389    -7.148843    53.870686  0.030332593  0.033237951            2 
  149000    1.2137769   -7.1836737    54.034198  0.030220469  0.033221211            1 
  150000    1.2322531   -7.1008015    54.603191  0.030335106  0.033205476            3 
  151000    1.2239371   -7.1629011    54.839893  0.030264841  0.033189965            3 
  152000    1.2494563   -7.1461123    55.388918  0.030366731  0.033180075            2 
  153000    1.2103443   -7.1399511    55.929977   0.03046295  0.033172431            3 
  154000    1.2380001   -7.1266626    56.233682  0.030429481  0.033161905            2 
  155000    1.2124132     -7.13128    56.590936  0.030425234  0.033153334            2 
  156000    1.2051205   -7.1775908    56.937911  0.030415551  0.033141438            2 
  157000    1.2272085   -7.1296576    57.781049  0.030669347  0.033136307            2 
  158000    1.2442912   -7.1679829    57.985171  0.030582896  0.033129375            1 
  159000    1.2110454   -7.1619963     58.22825  0.030517951  0.033123182            2 
  160000    1.2187009   -7.1276053    58.599801  0.030520729  0.033114306            2 
  161000    1.2180222   -7.1139711    59.079608  0.030579507  0.033103081            3 
  162000    1.1930071   -7.1484748     59.33104  0.030520082  0.033094351            1 
  163000    1.2299215   -7.2094457    59.715245  0.030529266  0.033086157            1 
  164000    1.2239495   -7.1810351    60.046749  0.030511559  0.033075997            4 
  165000    1.2290975   -7.1298705    60.462318  0.030536524  0.033065795            3 
  166000    1.2459444   -7.1328155    60.871413  0.030557938  0.033054517            4 
  167000    1.2393007   -7.1627561    61.144194  0.030511075   0.03304206            2 
  168000    1.2617282   -7.1749721    61.279481  0.030396568  0.033029802            2 
  169000    1.2221189   -7.1879521    61.436126  0.030293947  0.033016605            2 
  170000    1.2049334   -7.1519419    62.085537  0.030434087  0.033003081            1 
  171000    1.2506892   -7.1681226    62.284465  0.030353053  0.032986792            2 
  172000    1.2196409   -7.1544332    62.922478  0.030485697  0.032971605            2 
  173000    1.2124818   -7.1816195    63.059617  0.030375538  0.032956509            1 
  174000    1.2249233    -7.158912     63.61978  0.030469243  0.032943077            7 
  175000    1.2187718   -7.1927955    63.925126  0.030440536  0.032928915            7 
  176000    1.2098153   -7.1502335    64.411752  0.030497988  0.032913517            2 
  177000    1.2133737   -7.1791485    64.478414  0.030357069  0.032899391            2 
  178000    1.2292989   -7.1919408    64.815668  0.030344414  0.032883957            2 
  179000     1.206847   -7.1910322    65.353291  0.030425182  0.032870008            2 
  180000     1.224971   -7.1685793    65.828037  0.030475943  0.032857069            2 
  181000    1.2325882   -7.1892572    66.073199  0.030420442  0.032842728            4 
  182000    1.2549053   -7.1675595    66.699725  0.030540167  0.032828179            4 
  183000    1.2136666   -7.1380629    67.183463  0.030593562  0.032815872            3 
  184000    1.2275827   -7.1876672    67.407098  0.030528577  0.032803423            3 
  185000    1.2151581   -7.1542443     68.00171  0.030631401  0.032794018            2 
  186000    1.2404592   -7.1600769    67.913505  0.030427197  0.032782849            2 
  187000    1.2269791   -7.2175141    68.186353  0.030386075  0.032768252            4 
  188000    1.2357842   -7.1736153    68.584281  0.030400834   0.03275278            2 
  189000    1.2063491   -7.1544539    69.217072  0.030518991  0.032739222            2 
  190000    1.2206193   -7.2206775    69.389304  0.030433905  0.032727104            4 
  191000    1.2442253   -7.1305818    69.827988  0.030465963  0.032713919            6 
  192000    1.2324262   -7.1919711    70.003652   0.03038353  0.032700553            2 
  193000    1.2366205   -7.2057482    70.276375  0.030343858   0.03268578            2 
  194000    1.2338431   -7.1693907    71.083917  0.030534328  0.032670672            3 
  195000    1.2082748   -7.1635991    71.453737  0.030535785  0.032656919            2 
  196000    1.1806946   -7.1798926    71.590986  0.030438344  0.032643846            1 
  197000    1.2172362   -7.1573492     72.16533  0.030526789  0.032632301            3 
  198000    1.1914408   -7.1526589    72.619294  0.030563676  0.032623878            5 
  199000    1.2147455   -7.1585917    72.685641  0.030437873  0.032613845            3 
  200000    1.2203576   -7.1886218    73.473026  0.030613761  0.032604304            3 
  201000    1.2393364   -7.1821473    73.556015   0.03049586  0.032594797            2 
  202000    1.2144739    -7.163326    74.277989  0.030642735  0.032583838            1 
  203000    1.2050461   -7.2192893    74.302917  0.030502018  0.032572102            1 
  204000    1.2338224   -7.1761297    74.737055  0.030529843  0.032559619            3 
  205000    1.2089025   -7.1605738    74.686946  0.030360547  0.032545191            3 
  206000    1.2290811   -7.1581037    75.655495  0.030604974  0.032532603            2 
  207000    1.2098267   -7.1434475     75.87022  0.030543567  0.032520383            1 
  208000     1.223104   -7.1935826    75.757417  0.030351529  0.032507903            3 
  209000    1.2401483   -7.1752627    76.635771  0.030556527  0.032495457            1 
  210000     1.231586    -7.176095    76.705837  0.030438824  0.032481958            1 
  211000    1.2147788   -7.2118891    77.164669  0.030475778  0.032468448            3 
  212000    1.2038607   -7.1405346    77.986681  0.030655142  0.032457534            3 
  213000    1.2193523   -7.1793409    78.299814   0.03063373    0.0324481            2 
  214000     1.223041   -7.1604158    78.693796  0.030644002  0.032440188            3 
  215000     1.229169   -7.1958529    78.713391  0.030509066  0.032430829            1 
  216000    1.1929586   -7.2092294    78.684077  0.030356511  0.032418798            2 
  217000    1.2486626   -7.1762171    79.367074  0.030478907   0.03240616            1 
  218000    1.2323762   -7.1767667    79.907768  0.030545783  0.032394697            2 
  219000    1.2143901   -7.1308829    80.351943  0.030575321  0.032383325            1 
  220000    1.2194598   -7.1845288    80.411518  0.030458908    0.0323717            1 
  221000    1.2138528   -7.1895482    80.707308   0.03043262   0.03235707            1 
  222000    1.1953832   -7.1790085    80.986209  0.030400229  0.032342371            3 
  223000    1.2125583   -7.1867627    80.963627  0.030255466  0.032326174            3 
  224000    1.2366116   -7.1749403    81.502764  0.030320969  0.032309658            2 
  225000    1.2080956   -7.2200444    81.560691  0.030207663  0.032291418            2 
  226000    1.2126446   -7.1934494     81.83522  0.030175228  0.032270061            2 
  227000     1.218604   -7.2147157    82.193495  0.030173823  0.032251155            1 
  228000    1.2326446    -7.200657    82.739286  0.030240967  0.032231152            1 
  229000    1.2403293   -7.2074765    82.616515  0.030064234   0.03221162            4 
  230000    1.2115441   -7.1941474    83.361272  0.030203359  0.032191726            2 
  231000    1.2261981   -7.1665244     84.04986  0.030321017  0.032174493            1 
  232000    1.2219722   -7.2080542    83.875915  0.030127843  0.032156813            3 
  233000     1.232652   -7.1933598    84.649497  0.030275213  0.032137288            1 
  234000    1.2199595   -7.1577746    84.822708  0.030207517  0.032118851            3 
  235000     1.222971   -7.1980742    85.134379  0.030189496  0.032102102            2 
  236000     1.237967   -7.2639398     84.83047  0.029954262  0.032083494            1 
  237000    1.2103058   -7.2002412    85.961647  0.030225614  0.032063386            1 
  238000    1.2217803   -7.1720116    85.832443  0.030053376  0.032042929            2 
  239000    1.2294525   -7.2019944    86.019389  0.029992813  0.032020887            1 
  240000    1.2265309   -7.1932756    86.179579  0.029923465  0.032000034            3 
  241000    1.2299563    -7.182786    86.732861  0.029990616  0.031978598            2 
  242000     1.212307   -7.1928371    87.038313  0.029971871  0.031958667            3 
  243000    1.1838297   -7.2070572    87.273415  0.029929155  0.031938017            3 
  244000    1.2299942   -7.2149507    87.633155  0.029929356  0.031917007            2 
  245000    1.1879202   -7.2438064    87.517322  0.029767797  0.031893205            2 
  246000    1.2353212   -7.1850025    88.091488   0.02984129  0.031869603            3 
  247000    1.2047312   -7.1874058    88.421381  0.029831775   0.03184535            2 
  248000    1.2064727    -7.172735    89.040135    0.0299194  0.031823715            1 
  249000    1.2227698   -7.1719432    89.138144  0.029832043  0.031800858            2 
  250000    1.2305555   -7.1636096    89.776508  0.029925503  0.031778559            1 
  251000    1.1802839   -7.1873113    89.916695   0.02985282   0.03175812            1 
  252000    1.1997875    -7.151146    90.207126  0.029830399   0.03173925            2 
  253000    1.2130123   -7.1562441     90.83267  0.029918534  0.031719426            3 
  254000    1.2195758    -7.180342    91.248618  0.029937211  0.031699957            3 
  255000    1.2120981   -7.1790233     91.37037  0.029859598   0.03168066            2 
  256000    1.1984153   -7.1526179    91.995105  0.029946323  0.031661453            1 
  257000    1.1923676   -7.1830305    92.149691  0.029879926     0.031643            2 
  258000    1.2221149   -7.1796677    92.742531  0.029955598  0.031624573            3 
  259000    1.2211858   -7.1339253    93.413904  0.030055954  0.031608199            5 
  260000    1.1847342   -7.1907144     93.52894  0.029977224  0.031593083            1 
  261000    1.1915636   -7.2493687    93.470117  0.029843588  0.031578787            1 
  262000    1.1862052   -7.2111242    94.561046  0.030076669  0.031564812            3 
  263000    1.1833726   -7.2308969    94.610934  0.029978116  0.031552164            2 
  264000     1.205721   -7.1966367    95.242109  0.030063797  0.031539312            1 
  265000     1.189876   -7.1979433    95.690586  0.030091379   0.03152805            2 
  266000    1.1954731   -7.2366979    96.087825  0.030102702  0.031517161            2 
  267000    1.2018802   -7.1836715     96.63477  0.030160665  0.031506177            2 
  268000    1.2033238   -7.2109599    96.757084  0.030086158  0.031495535            2 
  269000    1.2113325   -7.1906692    97.637039  0.030246914  0.031485801            1 
  270000     1.222334   -7.2111085    97.987093   0.03024293  0.031478274            3 
  271000    1.2098865   -7.2214464    98.694036   0.03034872  0.031471423            2 
  272000    1.2070757   -7.2544146    98.624541  0.030215852  0.031464921            2 
  273000    1.2141331   -7.2001946    99.404846  0.030343359  0.031459589            1 
  274000    1.2388128    -7.234921    99.415104  0.030235737  0.031453794            6 
  275000    1.1975253   -7.1818617    100.03452   0.03031349  0.031447643            1 
  276000     1.228644   -7.1625093    100.44103  0.030326398  0.031443107            2 
  277000    1.1981513   -7.2035756    100.29189  0.030172049  0.031435608            1 
  278000    1.1924947   -7.1850352    101.03648  0.030286715  0.031428246            2 
  279000     1.205707   -7.1565046    101.31335  0.030260858  0.031421411            3 
  280000    1.2161392   -7.2102716    101.56054   0.03022635   0.03141358            2 
  281000     1.203137   -7.2259132    101.47712  0.030094045  0.031404714            3 
  282000    1.2085275   -7.1950603    101.75614   0.03006978  0.031394366            2 
  283000    1.2145002   -7.2315793    101.61679  0.029922495  0.031383109            4 
  284000    1.2192172   -7.1569064    102.31779  0.030022824  0.031370318            1 
  285000    1.2126679   -7.2028187    102.43765  0.029952528  0.031357585            3 
  286000    1.2051879   -7.1996294    103.09873  0.030040423  0.031344495            1 
  287000    1.1792309   -7.2224987    103.03887   0.02991837  0.031330898            4 
  288000    1.2264522   -7.1875251    103.42856  0.029927245  0.031317974            2 
  289000    1.2177805   -7.1873069    103.84113  0.029942657  0.031305832            1 
  290000    1.1976033   -7.2083727    104.31812   0.02997647  0.031294703            3 
  291000    1.2126457   -7.1689197    104.76249  0.030000713  0.031283915            4 
  292000    1.2116791   -7.1987882    105.22933  0.030031202  0.031273557            1 
  293000    1.1995632   -7.2208063    105.66896  0.030053743  0.031262934            3 
  294000    1.1801317   -7.2073342    105.84001  0.030000004  0.031252279            1 
  295000     1.181548   -7.2132563    105.86876  0.029906429  0.031240873            3 
  296000    1.2074886   -7.2197832    106.42645  0.029962401  0.031229587            2 
  297000    1.2192632   -7.2016636    107.11942  0.030055953   0.03121965            3 
  298000    1.2041678   -7.2000398    107.70614  0.030119167   0.03120971            2 
  299000    1.2098227   -7.2400041      107.489  0.029957914  0.031200041            1 
  300000     1.201065   -7.2436661    107.81425  0.029948403  0.031190169            6 
  301000    1.1974278   -7.2217416    108.55933  0.030055185  0.031180185            2 
  302000    1.1954378   -7.2497545    108.39484  0.029910275  0.031171101            2 
  303000    1.1951563   -7.2488828    108.81689  0.029927637  0.031161409            3 
  304000    1.2181689   -7.2065069    109.41773  0.029993896  0.031150394            2 
  305000    1.1690765   -7.1859631    109.76593  0.029990692  0.031138948            3 
  306000    1.2296183   -7.2359405    109.86941  0.029920863  0.031127825            1 
  307000    1.2058006   -7.2551873    110.08046  0.029880689  0.031117728            3 
  308000    1.1764426   -7.2449255    110.59039  0.029921643  0.031107863            3 
  309000    1.1879625   -7.2457884    111.36302  0.030033178   0.03109868            1 
  310000    1.2040711   -7.2141617    111.47069   0.02996524  0.031088817            2 
  311000    1.2062714    -7.221266     112.0048  0.030012005  0.031078849            2 
  312000    1.2144572   -7.2293318    112.11218  0.029944493   0.03106884            3 
  313000    1.2023556   -7.1835848    112.51832  0.029956955  0.031057216            2 
  314000    1.1918769   -7.2628607    112.04375  0.029735603  0.031044796            3 
  315000    1.2228975   -7.2101466    112.81907  0.029846314  0.031033277            3 
  316000    1.2111886   -7.1907742    112.97932  0.029794125  0.031021133            2 
  317000    1.1913775   -7.2092086    113.28317  0.029780014  0.031008559            3 
  318000     1.188862   -7.2202598    113.77849  0.029816167   0.03099582            2 
  319000    1.1912889   -7.1906041    114.19171  0.029830646  0.030983526            1 
  320000    1.1947297   -7.2198285    114.23083  0.029747612  0.030971201            2 
  321000    1.2012584   -7.2054717     114.3763  0.029692705  0.030958132            4 
  322000    1.2285085   -7.2218002    114.68832  0.029681241  0.030944428            3 
  323000    1.2281611   -7.2173777    114.79595  0.029617118  0.030930684            1 
  324000     1.219584   -7.1843994    115.47537  0.029700454  0.030918001            3 
  325000    1.1943321   -7.1673806    115.97238  0.029736508  0.030904489            1 
  326000    1.2057405   -7.2182024    116.05567  0.029666582  0.030891535            2 
  327000    1.1957052   -7.2766431    116.25488  0.029626625   0.03087936            1 
  328000    1.1801145    -7.193302    117.22351  0.029782396  0.030867452            2 
  329000    1.1766786   -7.2051134    117.41205  0.029739627  0.030856121            2 
  330000    1.1792621   -7.1692366    117.69259  0.029720351  0.030844649            1 
  331000    1.1919819   -7.1912896    117.84248  0.029668299  0.030832731            2 
  332000    1.2061165   -7.2062326    118.33591   0.02970279  0.030819974            2 
  333000    1.2142024   -7.2170759    118.25327  0.029592911  0.030807646            1 
  334000    1.2227626   -7.2393995    118.59527  0.029589639  0.030796071            2 
  335000    1.1952339   -7.1910536    119.37385  0.029694987  0.030784316            1 
  336000    1.1954898   -7.2489955    119.71897  0.029692206  0.030772465            2 
  337000    1.2078431     -7.25865    119.72886  0.029606544  0.030759911            3 
  338000    1.1927947   -7.2029212    120.44383  0.029695224  0.030747537            1 
  339000    1.2188166   -7.2335294    120.41813   0.02960131  0.030735268            1 
  340000    1.2333478   -7.2338513    120.58538  0.029555241  0.030722196            1 
  341000    1.2185751   -7.2441262    120.91832  0.029549932  0.030709407            2 
  342000    1.2186381   -7.2362056     121.9057  0.029704117  0.030697963            3 
  343000    1.1984175   -7.2128456    121.94738  0.029627644  0.030687305            2 
  344000    1.2056874   -7.2403074    121.75374  0.029494606  0.030676007            4 
  345000    1.2007489   -7.2406989    122.49721  0.029588698   0.03066482            1 
  346000    1.2073509   -7.2106193    122.53389  0.029512017  0.030652206            2 
  347000    1.1792637   -7.2301549    123.62795  0.029689708  0.030640628            1 
  348000    1.1994289   -7.2243637    123.18486  0.029498291  0.030629025            3 
  349000    1.1697179   -7.2899809    122.98056  0.029364986    0.0306169            2 
  350000    1.1651273   -7.2278288    123.63724  0.029437438  0.030603767            2 
  351000    1.2173477   -7.2317355    124.35068  0.029522953  0.030591568            3 
  352000    1.2199698   -7.2653235    124.06688  0.029371894  0.030578461            1 
  353000    1.1674127    -7.245063    124.41107  0.029369941  0.030565983            2 
  354000    1.1851495   -7.2780656    124.82243  0.029383812  0.030552317            3 
  355000    1.1811254    -7.240126    125.10553  0.029367495  0.030538422            3 
  356000    1.1760843   -7.2139038    125.72456  0.029429905  0.030524919            1 
  357000    1.1962998    -7.262741    125.42616  0.029277815  0.030511548            2 
  358000    1.1829372   -7.2155646    126.15142  0.029364856  0.030497038            3 
  359000    1.2076868   -7.2203548    126.52772  0.029370409  0.030482295            2 
  360000    1.1969241   -7.1967318    127.02186  0.029403207  0.030468631            4 
  361000    1.1636663    -7.235376    126.88001  0.029289015  0.030454417            4 
  362000    1.1833641   -7.1967942    127.03682  0.029244204  0.030440031            5 
  363000    1.1957216   -7.2583755    127.10644  0.029179622  0.030425108            4 
  364000     1.173135   -7.2592039    127.55826  0.029202898  0.030410705            4 
  365000    1.1765827   -7.2278605    128.37513  0.029309391  0.030396247            1 
  366000    1.1864984   -7.2469313    128.19936  0.029189289  0.030382006            2 
  367000    1.1964601   -7.2751189    128.84828  0.029257104   0.03036808            3 
  368000    1.1855942   -7.2718671    128.70111  0.029144272  0.030352919            5 
  369000    1.1761687   -7.2611181    129.14981  0.029166623  0.030338418            2 
  370000     1.184803   -7.2315454    129.71045  0.029214065  0.030324606            3 
  371000    1.2246972   -7.2232493    130.26671  0.029260268  0.030311956            1 
  372000    1.1883071   -7.2675462    130.30436  0.029190045  0.030299258            1 
  373000    1.1834126   -7.2217522    131.08087   0.02928527  0.030286757            3 
  374000    1.1724671   -7.2519352    131.45522   0.02929038  0.030273873            2 
  375000    1.1955325   -7.2568307    131.07814  0.029128475  0.030261052            1 
  376000    1.1705719    -7.301115    131.82687  0.029216947  0.030247827            1 
  377000    1.1828713   -7.2483252     132.0142  0.029180858  0.030235375            1 
  378000    1.1692779   -7.2021281     133.2637  0.029379121   0.03022263            2 
  379000     1.197864   -7.2108873     133.4013   0.02933186   0.03021137            2 
  380000     1.182864   -7.2650323    133.13401  0.029196055  0.030200461            2 
  381000    1.1968118   -7.2823393     133.6946  0.029242039  0.030189132            2 
  382000    1.1973755   -7.2517231    134.07335  0.029248113  0.030178802            1 
  383000    1.1885046   -7.2135384    134.97712  0.029368391  0.030169573            1 
  384000    1.1758011   -7.2298544    135.56895  0.029420345   0.03016059            1 
  385000    1.1765961   -7.2675895    135.56946  0.029344039  0.030151528            2 
  386000      1.16658   -7.2453653    135.44991  0.029242209  0.030141303            2 
  387000    1.1830774   -7.2675627    136.11327  0.029309491   0.03013074            2 
  388000     1.193357   -7.3036762    135.69071  0.029143194  0.030120056            4 
  389000    1.1899524   -7.2529482     136.6103  0.029265274  0.030109444            1 
  390000    1.1700469   -7.2372115    136.82242   0.02923556  0.030099472            1 
  391000    1.2006624   -7.2545238    136.83813  0.029164136  0.030088588            2 
  392000    1.2078669     -7.25086     137.1777  0.029161926  0.030077262            3 
  393000    1.2072622   -7.2422777    137.59875  0.029177004  0.030066166            1 
  394000    1.1941963   -7.2300016     138.2187  0.029234074  0.030054851            5 
  395000    1.2135815   -7.2585921    137.84769  0.029081792  0.030042691            2 
  396000    1.1818432   -7.2862065    137.53503  0.028942556  0.030030007            1 
  397000    1.1911455   -7.2363306    138.39157  0.029049448  0.030017499            3 
  398000    1.1800351   -7.2582401     138.4906  0.028997195  0.030005002            2 
  399000    1.2153905   -7.2608133    138.55241  0.028937429  0.029992376            2 
  400000    1.1849287   -7.2418694    139.35057   0.02903137  0.029979604            1 
  401000    1.1647441   -7.2685333    139.91558  0.029076389  0.029967775            1 
  402000    1.1812363   -7.3057393      139.807   0.02898155  0.029955915            1 
  403000    1.2070412   -7.2225661    140.50206  0.029053361  0.029944353            1 
  404000    1.1949078   -7.2305667    140.83836  0.029050816  0.029933028            2 
  405000    1.1904157   -7.2204104    141.70213  0.029156816  0.029922866            2 
  406000    1.1507582   -7.2810358    141.74368  0.029093531   0.02991272            5 
  407000    1.1784167   -7.2733545    142.49274  0.029175417  0.029903054            3 
  408000    1.1651625   -7.2381833    142.19063  0.029042205   0.02989277            1 
  409000    1.1824957   -7.2366968    142.58438  0.029051423  0.029883317            2 
  410000    1.1815831   -7.2723012    142.98267  0.029061519   0.02987377            2 
  411000    1.1767682   -7.2011927    143.49991  0.029095683  0.029863992            1 
  412000    1.1644475   -7.2736174    143.32071  0.028988817    0.0298538            1 
  413000    1.2003541   -7.2905057    143.63521  0.028982085   0.02984356            2 
  414000    1.1757769   -7.2281793    144.15577  0.029016863  0.029832976            2 
  415000    1.1780782    -7.274724    143.99049  0.028913752  0.029821677            5 
  416000    1.1491048   -7.2662818     144.3974  0.028925761  0.029809923            1 
  417000    1.1758558   -7.2630628    145.06811   0.02899043  0.029798513            2 
  418000    1.2013799   -7.2584175    145.43258  0.028993735   0.02978741            3 
  419000    1.1581986   -7.2446904    145.63854  0.028965501  0.029776104            3 
  420000     1.179656   -7.2684757    146.41715  0.029051021  0.029765125            1 
  421000    1.1932331     -7.27991    145.92874   0.02888534  0.029753886            1 
  422000    1.1830869   -7.2492878    147.09941  0.029048067  0.029744387            1 
  423000    1.1997799   -7.2119192      147.791  0.029115642  0.029735407            1 
  424000    1.1744158   -7.2062851    147.96192  0.029080567  0.029726078            2 
  425000    1.2095664   -7.2334517    148.41961  0.029101884  0.029717021            3 
  426000    1.1983668   -7.2451823    148.16296  0.028983365  0.029707625            2 
  427000    1.1606394   -7.2252635    148.42848  0.028967306  0.029697624            2 
  428000    1.1809883   -7.2857007    148.04454  0.028824872  0.029686921            3 
  429000    1.1773877   -7.2523212    149.01949  0.028947065  0.029676466            3 
  430000    1.1879539    -7.303301    148.56825  0.028792296  0.029666219            1 
  431000    1.1960289   -7.2557822    149.35972  0.028878523  0.029655351            2 
  432000    1.1858093   -7.3023466    149.56709  0.028851677  0.029644248            3 
  433000    1.1851021   -7.2457382    149.67016   0.02880488  0.029633845            2 
  434000    1.1596837   -7.3026075    149.94819  0.028791895  0.029622854            3 
  435000    1.1709496   -7.2594249    150.25013  0.028783549  0.029611459            1 
  436000    1.1605066     -7.28934    150.71615  0.028806603  0.029599809            3 
  437000    1.1681422   -7.2894455    150.98353  0.028791672  0.029588724            2 
  438000    1.1976435    -7.268855    151.89465  0.028899286  0.029578115            2 
  439000    1.1804995   -7.2851689    151.26168  0.028713303  0.029567885            4 
  440000    1.1710573   -7.2598433    152.09009  0.028804941  0.029557086            2 
  441000    1.1887165   -7.2119811    152.77439  0.028868933  0.029546568            4 
  442000    1.1827706   -7.3036393    152.73048  0.028795339  0.029536827            4 
  443000    1.2089015    -7.291623    153.17669  0.028814276  0.029527392            4 
  444000    1.1556435   -7.3146307    153.39603  0.028790546  0.029517438            3 
  445000    1.1803307   -7.2757355    153.94346  0.028828363  0.029507393            4 
  446000    1.1865737   -7.2747282    154.61997  0.028890129  0.029498093            3 
  447000    1.1589792   -7.2479656    154.80974  0.028860875  0.029488594            2 
  448000    1.1716597   -7.2300228    155.10713  0.028851773  0.029478872            1 
  449000    1.1933123   -7.3113859    155.24349  0.028812823  0.029468651            1 
  450000    1.1794244   -7.2842072    155.57308   0.02880983  0.029459178            2 
  451000    1.1910681   -7.2787139     156.0395  0.028832133  0.029449762            1 
  452000    1.1750779   -7.2291038    156.42877  0.028840113  0.029440727            1 
  453000    1.1557716   -7.2908062    156.08264  0.028712774  0.029431232            1 
  454000    1.1598616   -7.2756178    156.66072  0.028755638  0.029421397           10 
  455000    1.1896046   -7.3082907    156.88324  0.028733195  0.029412306            3 
  456000    1.1709153   -7.2409132    158.08934  0.028890595  0.029403017            1 
  457000    1.1681612   -7.2989493    157.96359  0.028804447  0.029393692            1 
  458000    1.1835296   -7.3238178    157.74579  0.028701927  0.029384474            3 
  459000    1.1849095    -7.279085    158.48251   0.02877315  0.029374705            2 
  460000    1.1663806   -7.2963674     158.2464  0.028667827  0.029365301            2 
  461000    1.2033532   -7.3233426    158.17654  0.028593011  0.029356031            2 
  462000     1.164146     -7.30717      159.179  0.028711942  0.029346096            5 
  463000    1.1383464   -7.2916006    159.59061  0.028724011  0.029336999            1 
  464000    1.1910245   -7.2739489    160.10125  0.028753817  0.029328455            2 
  465000    1.1649952   -7.3067991    160.53229  0.028769228  0.029320146            2 
  466000    1.1775103   -7.2871019    160.91051  0.028775127  0.029311744            1 
  467000    1.1839241   -7.2809433    161.08853  0.028745277  0.029303096            2 
  468000    1.1795123     -7.35603    160.27686  0.028539326  0.029293994            2 
  469000    1.1934412   -7.2667703    161.90558  0.028767871  0.029284692            2 
  470000     1.190787   -7.2660116    161.53932  0.028641724  0.029275268            1 
  471000    1.2047961   -7.3213288    161.30316  0.028539129  0.029265856            3 
  472000    1.1418886   -7.2797164     161.9342  0.028590078  0.029255882            3 
  473000    1.1790894    -7.325773    161.73228  0.028494059  0.029244975            4 
  474000    1.1703596    -7.318928     161.7159  0.028431065    0.0292335            1 
  475000    1.1923898   -7.2409474    163.05522  0.028606179  0.029222497            2 
  476000    1.1711307   -7.2211716    163.56352  0.028635071   0.02921174            2 
  477000      1.20106   -7.2519775    163.68254  0.028595831  0.029201488            2 
  478000    1.1642871   -7.2771162    163.70189  0.028539382  0.029190607            2 
  479000    1.1828254    -7.292863    163.40685   0.02842847  0.029179431            2 
  480000    1.2110478   -7.3121069    163.91034  0.028456657  0.029168509            4 
  481000    1.1934999   -7.2474212    164.58655  0.028514648  0.029157618            3 
  482000    1.1557925   -7.3252013    164.18267  0.028385662   0.02914672            2 
  483000    1.1562738   -7.2996871    165.06033  0.028478318  0.029135683            6 
  484000    1.1557686    -7.284996    164.86447  0.028385756  0.029124536            1 
  485000    1.1658564   -7.3378864    165.28977  0.028400303  0.029113308            2 
  486000    1.1619323   -7.3364493    165.13588   0.02831548  0.029101994            1 
  487000    1.1509531   -7.2904573    166.31479  0.028459067  0.029091205            2 
  488000    1.1899717   -7.3066573    166.54563  0.028440168  0.029081173            2 
  489000      1.18382   -7.2633993    166.80449  0.028426124  0.029070933            2 
  490000    1.1802861   -7.3140212    167.02179  0.028405066  0.029060691            3 
  491000    1.1779807   -7.3077476    167.92874  0.028501145  0.029050777            3 
  492000    1.1782654   -7.2774109     168.0127  0.028457435  0.029040631            4 
  493000    1.1641064   -7.3071182    167.37214  0.028291436  0.029030237            4 
  494000    1.1846822   -7.2407763    168.78766  0.028472952  0.029020602            1 
  495000    1.1628918   -7.3108498    168.79981  0.028417476  0.029011314            1 
  496000    1.1715727   -7.2869279    169.05568  0.028403173  0.029001839            2 
  497000    1.1731994   -7.2922236    169.39031  0.028402131  0.028991797            3 
  498000    1.1784542   -7.2687478    169.42415  0.028350762  0.028982298            4 
  499000    1.1405716   -7.2877229     170.2268  0.028427989  0.028972937            2 
  500000    1.1620822    -7.321206    169.89964  0.028316606  0.028963407            3 
  501000    1.1669125   -7.3197627    170.96635  0.028437516  0.028953637            1 
  502000    1.1795557   -7.3344614    170.68137  0.028333561  0.028944075            2 
  503000    1.1611804   -7.3271197    170.96285  0.028323864  0.028934793            4 
  504000    1.1743882   -7.2367629    172.27187  0.028484106  0.028925982            2 
  505000    1.1950754   -7.2866351    172.42618  0.028453166  0.028917447            2 
  506000    1.1842506   -7.3139808    172.45055  0.028400947  0.028909086            3 
  507000    1.1729234   -7.2547197    173.39321   0.02849987  0.028901111            2 
  508000    1.1866564   -7.2981202    172.70533  0.028330928  0.028892585            2 
  509000    1.1761498   -7.3035431    173.34618  0.028380186  0.028883709            2 
  510000    1.1578873   -7.3050729    173.44258   0.02834029   0.02887507            5 
  511000    1.1764515    -7.315529    174.05366  0.028384484  0.028866275            1 
  512000    1.1696275   -7.3054256    174.06604  0.028331061  0.028857379            1 
  513000    1.1712068   -7.3113379    174.46664  0.028340909  0.028848493            1 
  514000     1.159381    -7.286992    175.37281  0.028432687  0.028840565            1 
  515000    1.1614895   -7.2663744    175.84248  0.028453475  0.028832661            3 
  516000    1.1735319   -7.3293656    175.86242  0.028401554  0.028825027            1 
  517000    1.1735369   -7.3124515    175.78463   0.02833408  0.028817102            2 
  518000      1.16858   -7.3330257     175.9862  0.028311809  0.028808796            4 
  519000    1.1812458    -7.309132    176.30766  0.028308872  0.028800334            4 
  520000    1.1498942    -7.336315    176.49087  0.028283793  0.028791635            2 
  521000    1.1810336   -7.3542221    177.14052  0.028333416   0.02878347            3 
  522000    1.1885937   -7.3214442    176.84794   0.02823243  0.028774831            2 
  523000    1.1583445   -7.3126159    178.35934   0.02841927  0.028767262            3 
  524000    1.1567285   -7.3049551    178.88829  0.028449156  0.028760107            2 
  525000    1.1625488    -7.286548    178.82432  0.028384812  0.028753089            4 
  526000      1.16681   -7.3252475    179.04847  0.028366361  0.028745827            2 
  527000    1.1929669   -7.2527126    180.56965  0.028553076  0.028739162            4 
  528000    1.1842872   -7.2920577      180.486  0.028485795   0.02873287            2 
  529000    1.1657089   -7.2801412    180.18226  0.028384099  0.028726289            2 
  530000    1.1797166   -7.2389299    182.01831  0.028619231  0.028720391            3 
  531000    1.1646882    -7.289022     181.3473  0.028460028  0.028714758            2 
  532000    1.1609466   -7.2961269    181.62703  0.028450349  0.028709086            2 
  533000    1.1677016   -7.2865436    182.59715  0.028548648  0.028703621            1 
  534000    1.1545453   -7.2899104    183.11213  0.028575551  0.028698731            2 
  535000    1.1431705   -7.3148781    183.53141  0.028587447   0.02869372            2 
  536000    1.2149697   -7.3584497    183.58636  0.028542656  0.028688331            4 
  537000    1.1771238   -7.2703862    184.79679  0.028677341  0.028683753            4 
  538000    1.1448008   -7.2760279     184.4621  0.028572196  0.028679337            4 
  539000    1.1429996   -7.3306578    184.19735  0.028478255  0.028674743            1 
  540000    1.1556004   -7.3064018    184.56912  0.028482888  0.028669812            1 
  541000    1.1674963   -7.2975939    185.06663  0.028506874  0.028665115            5 
  542000    1.1683485   -7.2846595    185.28474  0.028487814  0.028660617            3 
  543000    1.1707539   -7.2997992    185.88639  0.028527684  0.028655253            4 
  544000    1.1768212   -7.3027755    185.85429  0.028470326  0.028650179            2 
  545000    1.1554445   -7.3105014    186.48072  0.028513871  0.028644754            2 
  546000    1.1748671   -7.3537531     185.6942  0.028341606  0.028639127            2 
  547000    1.1414276   -7.3487584    185.77664  0.028302353  0.028632932            2 
  548000    1.1627802   -7.3243706     186.0083  0.028285934  0.028626647            2 
  549000    1.1536292   -7.3216079    186.67767  0.028336015   0.02862023            9 
  550000    1.1806562   -7.3097936     187.3764  0.028390364  0.028613671            2 
  551000    1.1610689   -7.3250744    187.84986  0.028410444  0.028607525            3 
  552000     1.140114   -7.3121009    188.32596  0.028430852  0.028601552            2 
  553000    1.1580878   -7.3295565    188.21246  0.028362335  0.028595252            2 
  554000    1.1433174   -7.3281361     189.1092  0.028446029  0.028589368            2 
  555000    1.1615858   -7.3179683    188.68375  0.028330893  0.028583459            2 
  556000     1.171071   -7.2996871    189.39302  0.028386244  0.028577311            2 
  557000    1.1418969   -7.3505532    189.13194   0.02829622  0.028571144            2 
  558000    1.1911807   -7.3505986    189.65507  0.028323637  0.028565222            1 
  559000    1.1344193   -7.2916887    190.22278    0.0283576  0.028559688            3 
  560000    1.1268002   -7.3553042    190.31861  0.028321222  0.028553701            3 
  561000    1.1480685   -7.3286312    190.67991  0.028324408  0.028547683            3 
  562000    1.1557098   -7.3302944    190.31903  0.028220497  0.028541409            2 
  563000     1.166982   -7.2946073     191.7816  0.028386857  0.028535346            1 
  564000    1.1555071   -7.2729311    191.76099   0.02833348  0.028529726            2 
  565000    1.1756469   -7.3344206    191.02931  0.028175415  0.028524089            2 
  566000    1.1758972   -7.3208381    192.24406  0.028304484   0.02851827            3 
  567000    1.1744694   -7.2907638    192.40638  0.028278422  0.028512635            2 
  568000    1.1651981   -7.3057083    192.84979   0.02829369  0.028506857            2 
  569000    1.1972216   -7.3226273    193.12918  0.028284883  0.028500598            5 
  570000    1.1739032   -7.2983337    193.54764  0.028296439  0.028494739            1 
  571000    1.1481427    -7.353895    193.64004  0.028260368  0.028489381            2 
  572000    1.1543597   -7.3392831    193.59186  0.028203942  0.028483447            2 
  573000    1.1568032   -7.2934091     193.6577  0.028164295  0.028477274            3 
  574000    1.1654685   -7.3209404    194.63143  0.028256596  0.028471066            1 
  575000    1.1588996   -7.3212427    195.33369  0.028309231  0.028464918            2 
  576000     1.181139   -7.3250081    195.13801  0.028231772  0.028458605            2 
  577000    1.1545498   -7.2801028    196.16656  0.028331392  0.028452357            3 
  578000    1.1560224   -7.3457688    195.43653  0.028177124  0.028446396            2 
  579000    1.1853314   -7.3353878    196.05007  0.028216763  0.028440267            2 
  580000    1.1673514   -7.3552108    196.07988  0.028172397  0.028434448            2 
  581000     1.170914   -7.3497655    196.36596  0.028164939  0.028428079            1 
  582000    1.1716738   -7.3618096    195.79427  0.028034689  0.028421475            1 
  583000    1.1566481   -7.3458847    197.41016  0.028217576  0.028414843            2 
  584000    1.1338386    -7.319818     197.7736  0.028221119  0.028409396            3 
  585000    1.1499074   -7.3812436    197.20207  0.028091463  0.028403072            2 
  586000    1.1868138   -7.3069515    197.54312  0.028092025   0.02839633            3 
  587000    1.1488063   -7.2757757    198.55869  0.028188344  0.028389715            2 
  588000    1.1738702   -7.3460784    198.26969  0.028099446  0.028383053            2 
  589000    1.1677312   -7.3616994    198.19694  0.028041445  0.028375978            4 
  590000    1.1664205   -7.2937598    199.15724  0.028129554  0.028368975            2 
  591000    1.1321617   -7.3349396      198.726   0.02802115  0.028361971            1 
  592000    1.1698781   -7.3478634    198.43132  0.027932336  0.028354726            3 
  593000    1.1714822    -7.355545    198.45387  0.027888403  0.028347201            1 
  594000    1.1735163   -7.3167166    199.02014  0.027920895  0.028339534            2 
  595000    1.1596367   -7.3744489    198.98972  0.027869709  0.028331487            1 
  596000    1.1584188   -7.3481917    199.07863  0.027835378  0.028323193            3 
  597000    1.1649031   -7.3337042    199.78873  0.027887874  0.028315048            4 
  598000    1.1386013   -7.3449846     200.5323  0.027944858  0.028306707            1 
  599000    1.1663194    -7.296157    200.44964  0.027886705  0.028298612            2 
  600000     1.176391   -7.3552031    200.76476  0.027883994  0.028290584            2 
  601000    1.1619016   -7.2972168    200.98437  0.027868049  0.028282519            6 
  602000    1.1529985   -7.3615201    201.28936  0.027863975   0.02827452            2 
  603000    1.1578795   -7.3068229    201.79557  0.027887724  0.028266054            3 
  604000    1.1640648   -7.3258878    201.68584  0.027826412  0.028257881            2 
  605000    1.1826477   -7.3381498    201.65369   0.02777599  0.028249919            1 
  606000    1.1574578   -7.3568476      202.422  0.027835809  0.028241988            1 
  607000    1.1773509   -7.3476042    202.56883  0.027810109  0.028233594            1 
  608000    1.1566358   -7.2822528    203.43646  0.027883286  0.028225089            2 
  609000    1.1542442   -7.3670641    202.50179  0.027709604  0.028216715            1 
  610000     1.164302   -7.3010931    204.41906  0.027926101  0.028208499            3 
  611000    1.1514014   -7.3144165    203.50365  0.027755545  0.028200499            1 
  612000    1.1302707   -7.3396027    203.54188  0.027715397   0.02819208            2 
  613000    1.1525458   -7.3903755    203.90113  0.027719022  0.028183135            2 
  614000     1.124854   -7.3423904    204.25841  0.027722368  0.028174221            5 
  615000    1.1765287   -7.3494751    204.34058  0.027688425  0.028165427            4 
  616000    1.1770798   -7.3785309    204.14153   0.02761655  0.028155993            2 
  617000     1.135979   -7.3637125    204.25445   0.02758704   0.02814627            5 
  618000    1.1727211   -7.3549838     204.7246  0.027605798  0.028136974            3 
  619000    1.1368308   -7.3506752    205.34699  0.027644991  0.028127857            2 
  620000    1.1417149   -7.3591898    205.82877  0.027665158  0.028118892            3 
  621000    1.1670561    -7.340987    205.73059  0.027607433  0.028109771            1 
  622000    1.1323711   -7.3483107    206.39502  0.027652065  0.028100581            4 
  623000    1.1571158   -7.3695006    206.63487  0.027639763  0.028091405            2 
  624000     1.149841   -7.3538246    206.64143  0.027596345  0.028082578            2 
  625000    1.1406853   -7.3661347    207.36536  0.027648715  0.028073813            1 
  626000    1.1547411   -7.3593045    207.14775   0.02757558  0.028065343            1 
  627000    1.1696883   -7.3732994    207.16078   0.02753333  0.028056494            1 
  628000    1.1556054   -7.3692812    207.62516  0.027551109  0.028047349            2 
  629000    1.1447691   -7.3486405    208.41117  0.027611442  0.028038423            1 
  630000    1.1374921   -7.3452591    208.00618  0.027514045  0.028029794            2 
  631000    1.1701805   -7.3454542    209.06876  0.027610771  0.028020879            1 
  632000    1.1621121   -7.3629432    208.11289  0.027441045  0.028011771            1 
  633000    1.1347913   -7.3852271    209.37214  0.027563472  0.028002552            2 
  634000    1.1191087   -7.3220409    209.32157   0.02751335  0.027993703            3 
  635000    1.1370582   -7.3329521    209.56385  0.027501817  0.027984634            2 
  636000    1.1532209   -7.3256362    209.58952  0.027461939  0.027975598            2 
  637000    1.1384862   -7.3667845      210.112  0.027487179  0.027966694            2 
  638000    1.1551805   -7.3440847    210.19161  0.027454494  0.027957778            3 
  639000    1.1357195   -7.3562894    210.45531  0.027445919  0.027948487            2 
  640000     1.156224   -7.3836096    210.72601  0.027438283  0.027939378            3 
  641000    1.1550476   -7.3786787    210.53614  0.027370792  0.027930138            2 
  642000    1.1524773   -7.3417973    211.23065  0.027418309  0.027921394            4 
  643000    1.1666328    -7.349913    211.54136  0.027415935   0.02791215            3 
  644000    1.1438067   -7.3494582    212.04845  0.027438982  0.027902827            1 
  645000    1.1387659    -7.383021    211.73243  0.027355611  0.027893374            4 
  646000    1.1522348   -7.3873373    212.80593  0.027451746  0.027884192            4 
  647000    1.1265979   -7.3386377    212.58874  0.027381342  0.027874973            2 
  648000    1.1551262   -7.3598278    213.36494  0.027438906  0.027865712            2 
  649000    1.1355382   -7.3712018    213.25944  0.027383081  0.027856145            2 
  650000    1.1678224   -7.3784512    213.43505  0.027363467  0.027846944            2 
  651000    1.1587615   -7.3697287    214.03298  0.027397975  0.027837772            3 
  652000    1.1136914    -7.356305    214.69126   0.02744009  0.027828968            1 
  653000    1.1586555   -7.3369957    214.87668  0.027421731  0.027820061            2 
  654000    1.1353678   -7.3638467    214.75159  0.027363863  0.027811396            5 
  655000    1.1480655   -7.3908417    214.60422  0.027303336  0.027802443            2 
  656000    1.1413318    -7.365777    215.80435  0.027414171  0.027793581            5 
  657000    1.1910366   -7.3700815    215.10628  0.027283902  0.027784506            5 
  658000    1.1542612   -7.3466879    215.76422  0.027325762  0.027775539            2 
  659000    1.1688677   -7.4007164    215.97538  0.027310999  0.027766661            2 
  660000    1.1479649   -7.4141069    216.27278   0.02730717  0.027757468            2 
  661000      1.15992   -7.3680854    216.54507  0.027300186  0.027747978            2 
  662000    1.1507947   -7.3270384    216.69969   0.02727841  0.027738683            2 
  663000      1.13456   -7.3228424     217.6719  0.027359464   0.02772955            1 
  664000    1.1439052   -7.3271206    216.94092  0.027226521  0.027720617            2 
  665000    1.1329916   -7.4016015    216.40125  0.027117951  0.027711246            5 
  666000     1.129577   -7.3900414    216.96273  0.027147489  0.027701666            2 
  667000    1.1428632   -7.3842946    217.66196  0.027194148  0.027692532            3 
  668000    1.1481823   -7.3914779    217.60979   0.02714693  0.027683014            4 
  669000    1.1455875   -7.3560665    218.07506  0.027164307  0.027673615            3 
  670000     1.133791   -7.3588912    219.34365  0.027281548  0.027664417            2 
  671000    1.1394341   -7.3904743    218.38582  0.027121935  0.027655279            4 
  672000    1.1267825   -7.4077552    219.04704  0.027163571  0.027645918            4 
  673000    1.1409539   -7.3650208    219.95943  0.027236185  0.027636655            2 
  674000    1.1548757   -7.3417631    220.58709  0.027273379   0.02762807            2 
  675000    1.1309319   -7.3498146    221.08859  0.027294888  0.027619572            1 
  676000    1.1312035   -7.3716721     220.0259  0.027123508  0.027610928            6 
  677000    1.1648518   -7.3805771    220.76165   0.02717401  0.027602507            2 
  678000    1.1421504   -7.3077518    222.92022  0.027399241  0.027594346            3 
  679000     1.154317   -7.3966561    221.62666   0.02720013  0.027585712            1 
  680000    1.1120014   -7.3542763    222.48373  0.027265163  0.027577123            3 
  681000    1.1725211   -7.3788065    222.19827  0.027190194   0.02756806            2 
  682000    1.1447197   -7.3592061    222.02691  0.027129388  0.027559087            2 
  683000    1.1586602   -7.3879079     222.1791  0.027108236  0.027550077            1 
  684000    1.1401366   -7.3728749    223.00723  0.027169496  0.027541384            2 
  685000    1.1633293   -7.3979665    222.96438  0.027124621  0.027532405            2 
  686000    1.1244784   -7.3418959    223.07745  0.027098815  0.027523263            2 
  687000    1.1289971   -7.3842579    222.75181  0.027019871  0.027514439            3 
  688000    1.1439936   -7.3780903    224.29068  0.027166991  0.027505274            2 
  689000    1.1229212   -7.3830691    223.65821  0.027051066  0.027496056            3 
  690000    1.1414321   -7.3532084     224.0096    0.0270543  0.027486872            3 
  691000    1.1300546   -7.4188904    222.89551   0.02688079  0.027477678            1 
  692000    1.1430499    -7.404287    224.46129  0.027030503  0.027468401            1 
  693000    1.1392192    -7.350138    224.49043  0.026995001  0.027459334            1 
  694000    1.1424198   -7.3368996    225.43734  0.027069805  0.027450323            2 
  695000    1.1402437   -7.4337847    224.29515  0.026893903  0.027441153            1 
  696000      1.13229   -7.3883035    225.51758  0.027001626  0.027431542            2 
  697000    1.1390272    -7.355271    225.78141   0.02699443  0.027422376            4 
  698000    1.1336873   -7.3613038     226.2509  0.027011808  0.027412894            2 
  699000     1.128187   -7.3720305    225.23438  0.026851977  0.027403161            4 
  700000    1.1680033   -7.4074629    225.48732  0.026843729  0.027393497            4 
  701000    1.1520635   -7.4080651     225.0699  0.026755813   0.02738323            2 
  702000    1.1358259   -7.3853314    226.00494  0.026828697  0.027373419            3 
  703000    1.1508533   -7.3592927    227.16141  0.026927621  0.027363749            1 
  704000    1.1276269    -7.376162    226.67371  0.026831642  0.027354194            2 
  705000    1.1430953   -7.3873327    227.54165  0.026896176  0.027344695            3 
  706000    1.1299305   -7.3805058    227.81541  0.026890393  0.027335099            2 
  707000    1.1235635   -7.3689798    228.57194   0.02694153  0.027325923            2 
  708000    1.1154169   -7.3926354    228.48161  0.026892845  0.027317087            4 
  709000    1.1441487   -7.3784194     229.3642   0.02695865    0.0273083            6 
  710000    1.1229011   -7.4220194      228.368  0.026803756  0.027299373            3 
  711000    1.1281184   -7.3971576     229.5252  0.026901688  0.027290158            3 
  712000    1.1460302    -7.396825    229.85875  0.026902944  0.027280908            4 
  713000     1.141489   -7.4365904    228.56064  0.026713492  0.027271987            2 
  714000    1.1400445   -7.4030636    230.45477  0.026897149  0.027263168            4 
  715000    1.1517794   -7.3848003    230.61811  0.026878568  0.027254136            5 
  716000    1.1303837   -7.4067586    231.03497  0.026889544  0.027245345            1 
  717000       1.1336   -7.3860413    230.94248  0.026841292   0.02723637            5 
  718000    1.1261342   -7.3442265    231.22276  0.026836439  0.027227809            4 
  719000    1.1461878   -7.3798781    231.44281  0.026824619  0.027219313            1 
  720000    1.1329518   -7.3648953    232.36681  0.026894307  0.027210726            2 
  721000    1.1217602   -7.3903721    232.34454  0.026854431  0.027202325            4 
  722000    1.1328468   -7.3731463    232.72453  0.026861096    0.0271936            2 
  723000    1.1084603   -7.4049579    233.06784  0.026863513  0.027184708            2 
  724000    1.1495177   -7.3613953    232.64204  0.026777399  0.027176485            2 
  725000    1.1290749    -7.392797    233.10019  0.026793125  0.027167992            1 
  726000    1.1116627   -7.3681479    234.38941  0.026904203   0.02715928            4 
  727000      1.14721   -7.3813282    233.66877  0.026784591  0.027150317            3 
  728000    1.1279422    -7.394483    234.08646  0.026795611   0.02714147            4 
  729000    1.1299415   -7.4309849    233.15452  0.026652323  0.027132476            3 
  730000    1.1196057   -7.3997568    234.25377  0.026741298  0.027123714            1 
  731000    1.1141102   -7.4286608     234.6905  0.026754503  0.027114766            7 
  732000    1.1111811   -7.3560182    235.54437  0.026815161  0.027105887            2 
  733000     1.129613   -7.3647255    236.00879  0.026831377  0.027097265            2 
  734000    1.1393444   -7.3988817    234.93832  0.026673288  0.027088328            4 
  735000    1.1432378   -7.3886409    236.34753  0.026796772  0.027079429            3 
  736000    1.1594002   -7.3942184    235.58438  0.026673956   0.02707023            3 
  737000    1.1414607   -7.3586533    235.86537  0.026669535  0.027061362            3 
  738000    1.1482411   -7.4512417    235.37314  0.026577816  0.027052458            3 
  739000    1.0993403   -7.4074393     237.2051  0.026748433  0.027043667            5 
  740000    1.1160528   -7.3745857    237.45436  0.026740356  0.027034964            3 
  741000    1.1335424   -7.4079025    237.10616  0.026665111  0.027026269            3 
  742000    1.1284104   -7.4113959    237.50053  0.026673465  0.027017882            2 
  743000    1.1204973   -7.4062742    238.14059  0.026709353   0.02700949            3 
  744000    1.1382208   -7.4248142       238.01  0.026658826  0.027001031            4 
  745000    1.1440389   -7.3932948    238.61678  0.026690915  0.026992368            2 
  746000    1.1298177   -7.3837662    238.88815  0.026685451  0.026984064            2 
  747000     1.096934   -7.3723159     239.7769  0.026748873  0.026975892            2 
  748000    1.1132957   -7.3504564    240.21872  0.026762335  0.026967727            3 
  749000    1.1650585   -7.3854211    239.28831  0.026623087   0.02695974            2 
  750000    1.0984556   -7.3857458    241.25911  0.026806568  0.026951954            3 
  751000    1.1049213    -7.407229    240.10355  0.026642649  0.026943892            1 
  752000    1.1232126   -7.4685685    239.49984  0.026540319  0.026935749            3 
  753000    1.1351954    -7.394739    241.48864  0.026725171  0.026927529            3 
  754000    1.1198101   -7.4086594    241.62107  0.026704362  0.026919927            2 
  755000    1.1230477   -7.3959913    241.75332   0.02668359   0.02691217            3 
  756000    1.1517942   -7.3936282    241.88843  0.026663187  0.026904235            2 
  757000    1.1224568   -7.4355037    241.26583  0.026559426  0.026896351            4 
  758000    1.1044724   -7.3841639    242.81795  0.026695025  0.026888408            3 
  759000    1.1381721   -7.3863184    243.30459  0.026713284    0.0268807            1 
  760000    1.1533369   -7.3754979     243.7607  0.026728147  0.026873408            3 
  761000    1.1256818   -7.4232976    244.13979  0.026734536  0.026866014            2 
  762000    1.1246831   -7.3901282    244.48048  0.026736711  0.026858723            3 
  763000    1.0963997   -7.3216397    245.07723  0.026766845  0.026851132            7 
  764000    1.1233309   -7.4291599    244.19984  0.026636108  0.026843439            2 
  765000    1.1384915   -7.4606359    243.44762  0.026519349  0.026835487            4 
  766000    1.1006781    -7.435735    244.06128  0.026551488  0.026827511            3 
  767000     1.099644   -7.3701407    244.55833  0.026570875  0.026819523            2 
  768000    1.1021779   -7.4251654    245.01759   0.02658611  0.026811496            2 
  769000    1.1287607   -7.3862437     245.7975  0.026636054  0.026803513            2 
  770000    1.1537066   -7.3957447    245.63982  0.026584396  0.026795519            6 
  771000    1.1226959   -7.3928337    245.54302  0.026539453  0.026787671            7 
  772000    1.1140747   -7.4423482    245.30225  0.026479086  0.026779417            5 
  773000    1.1288802   -7.4280256    246.47539  0.026571301  0.026771299            6 
  774000    1.1392294    -7.449001    245.98613  0.026484295  0.026763385            2 
  775000    1.1112513   -7.4281822    246.55014  0.026510768  0.026755745            2 
  776000    1.1169099    -7.421246    246.98671  0.026523487  0.026748121            2 
  777000    1.1178677   -7.3992108    247.22755  0.026515181  0.026740439            5 
  778000    1.1067916   -7.3723187    248.96682  0.026667397  0.026732702            2 
  779000    1.1384281   -7.4281276    247.38256  0.026463689  0.026724987            4 
  780000    1.1242704   -7.4040641     248.6426   0.02656438  0.026717272            3 
  781000    1.1155426   -7.4369981    247.89407  0.026450498  0.026709603            2 
  782000    1.1088217    -7.408778    248.60235  0.026492152  0.026701887            2 
  783000    1.1498627   -7.4075504    249.71002  0.026576205  0.026694439            2 
  784000    1.1407107   -7.4116073    248.98416  0.026465153  0.026686448            1 
  785000    1.1220645   -7.3921993    250.27091  0.026568037  0.026678626            4 
  786000    1.1072209   -7.4268763    249.94732  0.026499928  0.026671113            3 
  787000    1.1201493   -7.4515214    249.03966  0.026370146  0.026663409            2 
  788000    1.1224317   -7.3832011    250.24178  0.026463809   0.02665589            3 
  789000    1.1286357   -7.4650054    249.89352  0.026393485  0.026647999            3 
  790000    1.1045191   -7.4368879    250.34008  0.026407182  0.026639993            2 
  791000    1.1147035    -7.383156    251.02707  0.026446172  0.026632445            2 
  792000    1.1167774   -7.4140243    251.23778  0.026434951  0.026624803            2 
  793000    1.1356719   -7.4151652    251.88121  0.026469232  0.026617156            6 
  794000    1.1486484   -7.4413629    252.46295  0.026496951  0.026609908            1 
  795000    1.0949898   -7.4488755    252.35256  0.026452051  0.026602505            3 
  796000    1.1139978   -7.4102447    253.19502  0.026507016  0.026595069            3 
  797000    1.0980329   -7.4023963     253.1844  0.026472648  0.026587589            1 
  798000    1.1296853   -7.4429899    253.41901  0.026463974  0.026580402            3 
  799000    1.1439917   -7.4035293    253.83591  0.026474334  0.026573235            4 
  800000    1.1125562   -7.3909793    253.59382  0.026416023  0.026565934            1 
  801000    1.1383705   -7.4194899    254.04973  0.026430475  0.026558761            2 
  802000     1.148439   -7.3924569    254.36056  0.026429817  0.026551733            3 
  803000    1.1191871   -7.4744611    253.47387  0.026304884  0.026544365            4 
  804000     1.122432   -7.4373583     253.7739  0.026303265  0.026537129            4 
  805000    1.1374483   -7.4257164    254.07317   0.02630157  0.026529646            4 
  806000    1.1323812    -7.444985    254.48232   0.02631124  0.026522057            3 
  807000    1.1137773   -7.3716513    255.48145   0.02638181  0.026514525            3 
  808000    1.1182796    -7.427662    255.17242  0.026317288  0.026506888            2 
  809000    1.1135845   -7.4498082    255.50849  0.026319375  0.026499248            2 
  810000    1.1186232   -7.4449213    255.91233  0.026328429  0.026491616            6 
  811000    1.1243303    -7.449292    255.49383  0.026252963  0.026483923           11 
  812000     1.099581   -7.4604671    255.73975  0.026245869  0.026476433            3 
  813000    1.1279138   -7.4499173     256.4578  0.026287187  0.026468933            2 
  814000    1.0926378   -7.4575337     256.6684  0.026276454  0.026461353            3 
  815000     1.101445   -7.4310857    257.56837  0.026336234  0.026454053            2 
  816000    1.1250837   -7.4769513    256.97015  0.026242867   0.02644695            2 
  817000    1.1377812   -7.4301626    258.53143  0.026369995  0.026439814            3 
  818000     1.124572   -7.4108447    259.21551  0.026407448  0.026432953            1 
  819000     1.113702   -7.4513456    259.03517  0.026356855  0.026425828            2 
  820000    1.1112536   -7.4381528      259.012  0.026322358  0.026418988            2 
  821000    1.1264137   -7.4452591    259.96773  0.026387305  0.026411974            5 
  822000    1.1423848   -7.4722446    259.25431  0.026282878  0.026405264            2 
  823000     1.126245   -7.4088481    260.34681  0.026361564  0.026398672            3 
  824000    1.1195332   -7.4398707    260.50215  0.026345282   0.02639209            2 
  825000    1.1167516   -7.4831893    260.22906  0.026285764  0.026385152            3 
  826000    1.1192101   -7.4782099    259.70687  0.026201258  0.026378217            2 
  827000     1.116277   -7.4024826    261.69552  0.026369964  0.026371553            1 
  828000    1.0976071    -7.419102    261.77191  0.026345804  0.026365228            1 
  829000    1.1083301   -7.4402712    261.44977  0.026281642  0.026359122            3 
  830000    1.1419835   -7.4039448    263.02348  0.026407979  0.026352902            1 
  831000    1.1279459   -7.4798193     261.9019  0.026263728  0.026346699            4 
  832000     1.121061   -7.4394658    263.24214  0.026366401  0.026340581            3 
  833000    1.1297382   -7.4969735    262.64178  0.026274687  0.026334421            7 
  834000     1.102573    -7.453085    263.90572  0.026369477  0.026328216            6 
  835000    1.1256313   -7.4555955    263.48011   0.02629542  0.026322048           10 
  836000    1.1218942   -7.4134561    264.44888  0.026360534  0.026315965            1 
  837000    1.1239558   -7.4210239    265.51812  0.026435496   0.02631016            2 
  838000    1.1196084   -7.4243482    265.90093  0.026442018  0.026304499            6 
  839000    1.1020676   -7.5036317    265.04625   0.02632561  0.026298797            5 
  840000    1.1069601   -7.4354343    266.26519  0.026415197  0.026293224            9 
  841000    1.1177464    -7.459368    265.42505   0.02630054  0.026287639            4 
  842000    1.1184783   -7.4733761    265.63028  0.026289616  0.026281742            2 
  843000    1.1197388   -7.4426481    266.69582  0.026363762  0.026275662            2 
  844000    1.0909473   -7.4522241    265.97746  0.026261597  0.026269648            2 
  845000    1.1204336   -7.4435916    266.44569  0.026276695  0.026263544            1 
  846000    1.1249083   -7.4253307    267.03363  0.026303549  0.026257533            1 
  847000     1.110769   -7.4314873     267.8034  0.026348229  0.026251527            1 
  848000    1.1229636   -7.4271939    267.23164   0.02626097  0.026245501            2 
  849000    1.1114568   -7.4487879    267.36017  0.026242655  0.026239319            3 
  850000    1.1170406   -7.4180376    267.98801  0.026273334  0.026233055            1 
  851000     1.134198   -7.4732074    268.15179  0.026258499  0.026227154            1 
  852000    1.1132974   -7.4287054    268.15276  0.026227774  0.026221086            1 
  853000    1.0884569   -7.4830921    268.41385  0.026222533  0.026215074            3 
  854000     1.107935   -7.4615261    269.13124  0.026261831  0.026209107            2 
  855000    1.0970173   -7.4437733    268.83212  0.026201961  0.026203188            3 
  856000     1.147233   -7.4212942     269.7156   0.02625736  0.026197397            2 
  857000    1.1234085   -7.4021919    270.15889  0.026269826   0.02619159            2 
  858000    1.1258608   -7.4648281     270.4991  0.026272251  0.026186062            4 
  859000    1.1124175   -7.4620163    269.96457  0.026189811  0.026180239            5 
  860000    1.0953764   -7.4412849     270.9052  0.026250503  0.026174318            2 
  861000    1.1305855   -7.4244957    271.67429  0.026294453  0.026168678            2 
  862000    1.1129274   -7.4831485    270.98603  0.026197412  0.026163107            1 
  863000    1.1214479   -7.4728424    270.61204  0.026130943  0.026157187            4 
  864000    1.1072678   -7.4446492    271.73024  0.026208549  0.026151558            4 
  865000    1.0851608   -7.4620433     271.7744  0.026182505  0.026145769            3 
  866000    1.1195764   -7.4343787    271.45246  0.026121291  0.026139876            3 
  867000    1.1063383   -7.4439481    272.19138  0.026162186  0.026133869            2 
  868000    1.1224707   -7.4248078    273.87224  0.026293418  0.026127999            1 
  869000    1.1099126   -7.4575582    273.71136  0.026247733  0.026122504            2 
  870000    1.1060398   -7.5078979    273.48269   0.02619566  0.026117013            2 
  871000    1.1176996   -7.4642673    274.87678  0.026298965  0.026111764            1 
  872000    1.0818044    -7.484552     273.9642  0.026181594  0.026105932            2 
  873000     1.130187   -7.4673551    274.68956  0.026220844   0.02610013            1 
  874000    1.1117007   -7.4627328    273.97056  0.026122288    0.0260942            6 
  875000    1.1049672   -7.4901027    273.68914  0.026065632  0.026088222            2 
  876000    1.1197829   -7.4930402    273.99427  0.026064904  0.026082135            2 
  877000    1.1223592    -7.437647     275.6277  0.026190394  0.026076114            3 
  878000    1.1266245   -7.4509857    273.99993  0.026006067  0.026069916            8 
  879000    1.0942735    -7.449666     275.9247  0.026158959  0.026063949            2 
  880000    1.1266561   -7.4621324    274.56803   0.02600076  0.026057734            2 
  881000    1.1104042   -7.4141225    275.59463  0.026068353  0.026051581            5 
  882000     1.113325   -7.4363734    275.81447  0.026059568  0.026045679            3 
  883000    1.1089679   -7.4607705    276.37587  0.026083038  0.026039807            2 
  884000    1.1046247   -7.4877777    276.05557  0.026023338  0.026033687            3 
  885000    1.1089455   -7.4791922    276.60655  0.026045815  0.026027502            2 
  886000    1.0782697   -7.4997195    276.66246  0.026021676  0.026021471            5 
  887000    1.1189228    -7.473518    276.40523  0.025968173  0.026015464            2 
  888000    1.1066882   -7.4668609    276.56596  0.025954012  0.026009615            2 
  889000    1.1208374   -7.4544453    277.81434   0.02604184   0.02600367            3 
  890000    1.1028964   -7.4756462    279.41122    0.0261621  0.025997931            4 
  891000    1.0927244    -7.454722    278.03835  0.026004335    0.0259921            1 
  892000     1.089923   -7.4617345    278.47398   0.02601588  0.025986102            4 
  893000    1.1074375   -7.4521896    278.41562  0.025981301  0.025980152            2 
  894000    1.1014592   -7.4308917    279.65279   0.02606756  0.025974374            2 
  895000    1.1158052   -7.4660085    278.85695  0.025964334  0.025968391            4 
  896000    1.1129333   -7.4540518    279.63124   0.02600737  0.025962275            1 
  897000    1.1221876   -7.4396557    280.07572   0.02601967  0.025956446            2 
  898000    1.1011487   -7.4718513    279.49812  0.025937093  0.025950387            4 
  899000    1.1112836    -7.478671    280.54509  0.026005292  0.025944367            1 
  900000    1.1248311   -7.4208432    281.01823  0.026020207  0.025938629            3 
  901000    1.0888422    -7.434688    281.18438  0.026006694  0.025932625            3 
  902000    1.0973642    -7.435591    280.34738  0.025900534  0.025926442            1 
  903000    1.1053438   -7.4912311    280.36582  0.025873553   0.02592019            1 
  904000     1.104674   -7.4591335    281.00076  0.025903462  0.025913831            2 
  905000    1.1123791   -7.5153237    280.49637  0.025828395  0.025907257            3 
  906000    1.1220158   -7.4854957    281.22074  0.025866514  0.025900564            3 
  907000    1.1020968   -7.5000778    280.33053  0.025756205  0.025893875            2 
  908000    1.0821335   -7.4910705    281.54489  0.025839289  0.025887303            3 
  909000    1.1046753   -7.4383055    283.21691  0.025964147  0.025881142            3 
  910000    1.1043734   -7.4490292    283.28505  0.025941855  0.025875231            3 
  911000    1.1194342   -7.4716549     283.7769   0.02595837  0.025869299            3 
  912000    1.1119899   -7.4824388    283.51166   0.02590567  0.025863448            1 
  913000    1.1023811   -7.4524572     283.4393  0.025870692  0.025857483            7 
  914000    1.1017764   -7.4704218    283.37416  0.025836448  0.025851645            5 
  915000    1.1040472   -7.4272358    284.87329  0.025944744  0.025845736            1 
  916000    1.0938322   -7.4676023    284.38771  0.025872244  0.025839938            1 
  917000      1.10487   -7.4627944    284.84256  0.025885366  0.025834222            3 
  918000    1.1134084   -7.4482239    286.41036  0.025999488   0.02582839            6 
  919000    1.1118329   -7.5046117    284.84275  0.025829049  0.025822476            4 
  920000    1.0784586   -7.4947513    284.61562  0.025780401  0.025816431            5 
  921000    1.0906032   -7.4928788    285.44017  0.025827015  0.025810194            2 
  922000    1.1093859   -7.5024797    285.74432  0.025826493   0.02580409            2 
  923000    1.1091374   -7.4700904    286.35654  0.025853787  0.025798138            1 
  924000    1.0839608    -7.444899    286.69583  0.025856406  0.025792222            3 
  925000     1.105654   -7.4600475    286.63011  0.025822532  0.025786444            1 
  926000    1.0878701   -7.4786887    286.72893  0.025803539  0.025780649            2 
  927000    1.0781098   -7.5024699    285.95059  0.025705734  0.025774683            2 
  928000    1.0819118   -7.4566138    287.20569  0.025790741  0.025768872            7 
  929000    1.0976358    -7.465939    287.88765  0.025824152  0.025762843            3 
  930000    1.1050192   -7.5494418    286.35955  0.025659458  0.025756558            2 
  931000    1.1025698   -7.4615002    288.31169  0.025806632  0.025750281            1 
  932000    1.1125208   -7.5040712    288.65805  0.025809911  0.025744331            4 
  933000    1.0924595   -7.4317211    289.94018  0.025896765  0.025738339            3 
  934000    1.1034873   -7.4462521    289.00852  0.025785914  0.025732528            2 
  935000    1.1042353    -7.478386    289.75502  0.025824868  0.025726339            5 
  936000    1.0943576   -7.4757444    288.14313  0.025653769  0.025720315            3 
  937000    1.1031992   -7.4615972    289.06713  0.025708567  0.025714172            4 
  938000    1.1186097   -7.4537188    290.21276  0.025782939  0.025707986            1 
  939000    1.1095569   -7.4952426    288.84808   0.02563437  0.025701775            2 
  940000    1.0856308   -7.4825374     290.3564  0.025740815  0.025695418            1 
  941000    1.1060111   -7.5073647    289.99405  0.025681372  0.025689154            1 
  942000    1.1050039   -7.4705906    289.30433  0.025593094  0.025682524            5 
  943000    1.1014389   -7.5138486    289.28987  0.025564676  0.025675913            1 
  944000    1.0947087   -7.5068474    289.67845  0.025571897  0.025669337            2 
  945000    1.1174629   -7.4447677    291.30354  0.025688143  0.025662932            2 
  946000    1.0970805   -7.5176456    290.60011  0.025599023  0.025656462            3 
  947000    1.0974866   -7.4756305    291.23257  0.025627646  0.025650086            3 
  948000    1.1042352   -7.4853908    291.13532  0.025592064  0.025643498            2 
  949000    1.1184285   -7.4718471    291.29249  0.025578898  0.025636766            1 
  950000    1.0815478   -7.4732516    291.02499  0.025528508  0.025629968            4 
  951000    1.1095347   -7.4707745    291.67154  0.025558319  0.025623069            2 
  952000    1.0914167   -7.5038972    290.90845  0.025464675  0.025616403            3 
  953000    1.0979938   -7.4228425    291.72464  0.025509325  0.025609588            4 
  954000    1.1094247   -7.4458677    292.10956  0.025516209  0.025602718            2 
  955000    1.0867363   -7.4630677    291.72387  0.025455835  0.025595927            1 
  956000    1.0933694   -7.4862445    291.94008  0.025448054  0.025589087            3 
  957000     1.059191   -7.5024474     292.0854  0.025434117  0.025582113            5 
  958000    1.0831884     -7.48551    292.48196  0.025442063  0.025574988            1 
  959000    1.1147854   -7.4175437    294.02012  0.025549193  0.025567982            1 
  960000    1.0968287   -7.5125302    293.20576  0.025451889   0.02556106            4 
  961000    1.1005237   -7.4784764    293.96974  0.025491653  0.025554113            2 
  962000      1.11799   -7.5127644    293.85528  0.025455239  0.025547302            1 
  963000    1.1002395    -7.508908    294.99749  0.025527647  0.025540338            4 
  964000    1.1102874   -7.4665378    294.58879  0.025465836  0.025533442            2 
  965000    1.0750689   -7.5075042    293.96566  0.025385635  0.025526604            5 
  966000    1.1001211   -7.4458327    295.24207  0.025469468  0.025519717            2 
  967000    1.0813862   -7.4921862    295.69254   0.02548195  0.025513057            1 
  968000     1.103097   -7.4886197    295.05164  0.025400451  0.025506181            2 
  969000    1.0954677   -7.5047125    295.09261  0.025377761  0.025499483            1 
  970000     1.107527    -7.469293    296.13395  0.025441061  0.025492747            2 
  971000     1.104657   -7.5049348    296.18751  0.025419457  0.025485883            5 
  972000    1.0807373   -7.4942769    296.27333  0.025400663  0.025479205            3 
  973000    1.0971283   -7.5123646    295.84535  0.025337902  0.025472576            2 
  974000    1.1125782   -7.4832409    296.43048  0.025361951  0.025465841            3 
  975000    1.0860516   -7.5051284    297.13206  0.025395903  0.025459116            5 
  976000    1.1033692   -7.5389118    296.77038  0.025339001  0.025452126            3 
  977000    1.0907788   -7.5284059    297.60907  0.025384602  0.025445253            2 
  978000    1.1222112   -7.4938803     296.9577  0.025303144   0.02543843            5 
  979000    1.1151967   -7.4494467    297.88976  0.025356636  0.025431648            2 
  980000    1.0965985   -7.5316821    298.54204  0.025386228  0.025425075            5 
  981000    1.1082353   -7.5622187    297.11271  0.025238932  0.025418208            2 
  982000    1.0943087   -7.5000946    298.33258   0.02531675  0.025411629            1 
  983000    1.0868074   -7.4714971    299.52813  0.025392347  0.025404966            3 
  984000    1.1205254   -7.5242625    299.09552  0.025329905  0.025398558            2 
  985000    1.0953425   -7.5112867    299.69791  0.025355153  0.025391872            3 
  986000    1.0852269   -7.4923312    299.75152  0.025333969  0.025385223            2 
  987000    1.0905698   -7.4942078    299.79012   0.02531156  0.025378431            5 
  988000    1.0855508   -7.4674882    301.11285  0.025397508  0.025371851            3 
  989000    1.0984398   -7.4909219    301.09348  0.025370195  0.025365279            4 
  990000    1.0855937   -7.5367496    300.38718  0.025285116  0.025358568            4 
  991000    1.0775209   -7.5155842    301.01383  0.025312297  0.025352018            4 
  992000    1.1132015   -7.5141167     302.1727  0.025384132  0.025345676            2 
  993000    1.1034802   -7.4832718    302.25462  0.025365443  0.025339204            1 
  994000      1.10978    -7.507952    302.39011  0.025351283  0.025332872            3 
  995000    1.0876013   -7.5182956    301.82057  0.025278104  0.025326667            2 
  996000     1.111624   -7.5105677    303.48702  0.025392154  0.025320536            2 
  997000    1.0864251   -7.5372469    303.02757  0.025328282  0.025314306            2 
  998000    1.0981385    -7.511743    303.11085  0.025309857  0.025308039            2 
  999000    1.1311713   -7.5276356    302.46753  0.025230858  0.025301814            6 
 1000000    1.1184226   -7.5145543    303.35039  0.025279199   0.02529539            5 
 1001000    1.1055587   -7.4912565     303.4571  0.025262829  0.025289315            2 
 1002000    1.1053967   -7.4948959    304.42106  0.025317786  0.025283006            2 
 1003000    1.0865273   -7.5174408    303.16219  0.025187952  0.025276638            2 
 1004000    1.0847045   -7.4740864    304.41118  0.025266532  0.025270509            2 
 1005000    1.1083166   -7.5248949    304.51037  0.025249616   0.02526434            4 
 1006000    1.0902523   -7.4717106    304.98273  0.025263646  0.025258089            2 
 1007000    1.0779036   -7.5290962    305.32393  0.025266793  0.025251985            4 
 1008000    1.1202985   -7.4274296    307.18056  0.025395218  0.025245763            3 
 1009000    1.0715796   -7.4964275    306.29075   0.02529656  0.025239734            3 
 1010000    1.0856443   -7.5116154    305.95163  0.025243534  0.025233462            3 
 1011000    1.0827592   -7.5334003    305.21296  0.025157679  0.025227333            3 
 1012000    1.0810728   -7.5244525    306.38966  0.025229715  0.025221104            5 
 1013000    1.0967509   -7.4924102    307.33694  0.025282736  0.025214837            2 
 1014000    1.0963237   -7.5101295    307.49383  0.025270696  0.025208556            4 
 1015000     1.062109   -7.4596211    307.49367  0.025245786  0.025202527            3 
 1016000    1.0689495   -7.5058966    308.13164  0.025273265  0.025196596            6 
 1017000    1.0875748   -7.4895519    308.98146  0.025318048  0.025190535            2 
 1018000    1.0623547   -7.5079006    309.63119  0.025346364  0.025184344            3 
 1019000    1.0755257   -7.5343937    307.08817  0.025113524  0.025178053            4 
 1020000    1.0853878   -7.5699245    307.27976  0.025104556   0.02517139            3 
 1021000    1.0699594   -7.5151787    308.04716  0.025142602  0.025164892            3 
 1022000    1.0797283   -7.5616006    308.04707  0.025117994  0.025158357            4 
 1023000    1.0889992   -7.5103767    309.36285  0.025200623  0.025151921            4 
 1024000    1.0651164   -7.5277414    308.29359  0.025088996  0.025145699            1 
 1025000     1.070279   -7.4958081    310.05892  0.025208042  0.025139424            1 
 1026000    1.0986196   -7.5286018    310.16664  0.025192223  0.025133222            3 
 1027000    1.0920366   -7.5375632    309.48591  0.025112456  0.025126966            3 
 1028000    1.0724125   -7.4789827    310.88959  0.025201815  0.025120926            2 
 1029000    1.1233027   -7.4928298    311.17773  0.025200658  0.025114991            3 
 1030000    1.0750705   -7.5367895    310.64865  0.025133386  0.025109018            4 
 1031000    1.0731178   -7.5362549    310.80321  0.025121501  0.025102915            4 
 1032000    1.0660565   -7.5261414    311.31265  0.025138295  0.025097026            3 
 1033000    1.0812234   -7.5365055    311.61085  0.025138017  0.025091064            4 
 1034000    1.0940301    -7.504821    311.22927  0.025082952  0.025084833            3 
 1035000    1.0642745    -7.549195    310.75894  0.025020849  0.025078437            4 
 1036000     1.073692   -7.5227445    311.76669  0.025077758  0.025072099            4 
 1037000     1.100013   -7.5489637    312.41444  0.025105629  0.025065791            5 
 1038000    1.0724838   -7.5172537    312.56013  0.025093139  0.025059547            2 
 1039000    1.0939483   -7.5081591    313.31937  0.025129882   0.02505326            1 
 1040000    1.0818216   -7.5187544     312.4968  0.025039807  0.025047246            6 
 1041000    1.0868917   -7.5162872    314.22282  0.025153924  0.025041346            4 
 1042000    1.0729384   -7.5658534     313.5124  0.025072969  0.025035277            2 
 1043000     1.082813   -7.5046335     314.1284  0.025098146  0.025029181            1 
 1044000    1.0732471   -7.5263524     314.9904  0.025142912  0.025023367            2 
 1045000    1.0712954   -7.5292131    314.97929  0.025117966  0.025017452            2 
 1046000    1.0928561   -7.4950329    315.64331  0.025146854  0.025011468            6 
 1047000     1.085903   -7.4875541    315.38963  0.025102645   0.02500553            3 
 1048000    1.0780294    -7.520244    315.14409  0.025059168  0.024999743            4 
 1049000    1.0996829   -7.5239821    314.80113  0.025008034   0.02499359            3 
 1050000    1.0962568    -7.543362    315.18619  0.025014777  0.024987813            6 
 1051000     1.089964   -7.5136471    315.87554  0.025045634   0.02498168            2 
 1052000    1.0637312   -7.5572988    315.47101  0.024989782  0.024975455            2 
 1053000    1.0844213   -7.5187823    315.84269  0.024995464  0.024969266            2 
 1054000    1.0948306   -7.5757591      315.615  0.024953748  0.024962853            3 
 1055000    1.0785087   -7.5400777    316.68135  0.025014325  0.024956605            6 
 1056000    1.0835744   -7.5633193    316.19935    0.0249526  0.024950421            5 
 1057000    1.1006771   -7.5679208    315.48579  0.024872736  0.024944055            2 
 1058000    1.0866407   -7.5535302    316.80227   0.02495292   0.02493784            2 
 1059000    1.0769616    -7.537464    316.85844  0.024933777  0.024931656            3 
 1060000    1.0819581   -7.5288597    317.02054  0.024922998  0.024925595            4 
 1061000    1.0690185   -7.5448991    317.60113  0.024945109  0.024919489            3 
 1062000    1.0970499   -7.5545104    316.57868  0.024841391  0.024913113            4 
 1063000    1.0808369   -7.5615279    317.25429  0.024870985  0.024906736            2 
 1064000    1.0904472    -7.521935     318.3452  0.024933051  0.024900517            5 
 1065000    1.0789402    -7.564287    318.51991   0.02492331   0.02489454            2 
 1066000    1.0785848   -7.5283143    318.00709  0.024859841  0.024888169            2 
 1067000    1.0942732   -7.5499775    318.76436  0.024895686  0.024881827            2 
 1068000    1.0667573   -7.5122376    319.31435   0.02491529  0.024875615            5 
 1069000    1.1154861   -7.5629524    318.22992  0.024807446  0.024869503            3 
 1070000    1.0880377   -7.5409958    320.22271  0.024939463  0.024863153            1 
 1071000    1.0904664   -7.5444883    319.90131   0.02489117  0.024856901            3 
 1072000    1.0886416   -7.5492703    319.30227  0.024821383  0.024850483            4 
 1073000    1.1076817   -7.5213955    320.39287  0.024882951  0.024844295            4 
 1074000    1.0817664   -7.4831622    321.12104  0.024916282  0.024838274            3 
 1075000    1.0923788   -7.5008279    320.89152  0.024875312  0.024832107            2 
 1076000    1.0748889   -7.4951525    321.75567  0.024919119  0.024826023            5 
 1077000     1.091237   -7.5723294    320.15901  0.024772439  0.024819833            3 
 1078000    1.0973697   -7.5415438    321.08267  0.024820862  0.024813572            2 
 1079000    1.0571582     -7.56426    321.48439  0.024828884  0.024807163            6 
 1080000    1.0956743   -7.5803654    321.47246  0.024804973  0.024800724            3 
 1081000    1.0830031   -7.5365973    321.72938  0.024801833  0.024794506            2 
 1082000     1.087918   -7.4952415    323.19498  0.024891788   0.02478827            2 
 1083000    1.0557994   -7.5186336    321.88408  0.024767935  0.024781984            2 
 1084000    1.0604156   -7.5082801     322.1827  0.024768043  0.024775476            6 
 1085000    1.0904031   -7.5733084    322.35086  0.024758131   0.02476892            4 
 1086000    1.0761131   -7.5538083    322.99412  0.024784693  0.024762221            2 
 1087000    1.0790518   -7.5516375    323.09805   0.02476986  0.024755638            3 
 1088000    1.0879818   -7.5448901    323.09707  0.024747018  0.024749119            2 
 1089000    1.0853276   -7.5564925     322.8679  0.024706757  0.024742615            3 
 1090000    1.0725533   -7.5577802    322.53444  0.024658596  0.024736116            3 
 1091000    1.0715561   -7.5438243    323.77673  0.024730884  0.024729564            1 
 1092000    1.0801322   -7.5590171    323.69046  0.024701653  0.024723218            7 
 1093000    1.0680227    -7.527548    324.68324  0.024754746  0.024716924            5 
 1094000    1.0744652    -7.559611    324.45533  0.024714757  0.024710797            1 
 1095000    1.0750073   -7.4963623    325.01426  0.024734723  0.024704569            5 
 1096000    1.0491237   -7.5387951    324.22076  0.024651822  0.024698309            4 
 1097000    1.0945017   -7.5853294    325.06188  0.024693246  0.024692011            1 
 1098000    1.0939909   -7.5824412     324.9267  0.024660496   0.02468574            3 
 1099000    1.0682864   -7.5530604    325.03558  0.024646314  0.024679346            2 
 1100000    1.0726631    -7.576151    325.69686  0.024674004  0.024673148            9 
 1101000    1.0744937     -7.52407    326.62405  0.024721772  0.024666861            2 
 1102000    1.0829573   -7.5600656    326.02972  0.024654395  0.024660785            3 
 1103000    1.0865164   -7.5573969    326.21719  0.024646207  0.024654682            7 
 1104000    1.0786646   -7.5262103    327.33348  0.024708143  0.024648498            6 
 1105000    1.0775917   -7.5916525    326.48581  0.024621856  0.024642241            4 
 1106000    1.0547485   -7.5474475    327.08371  0.024644644  0.024635898            7 
 1107000    1.0699477      -7.5871    326.96658  0.024613563   0.02462953            5 
 1108000    1.0487237   -7.5668253     326.7456  0.024574729  0.024623011            4 
 1109000    1.0659289   -7.5968571    327.19363  0.024586236  0.024616273            2 
 1110000    1.0798695   -7.5521326    327.09764   0.02455688  0.024609712            3 
 1111000    1.0754341   -7.5626946    327.61993  0.024573952  0.024603198            3 
 1112000    1.0889431   -7.5804537    327.77834  0.024563724   0.02459655            2 
 1113000    1.0619173   -7.5404621    328.11229  0.024566658  0.024589872            2 
 1114000    1.0698974   -7.5799985    328.22357   0.02455293  0.024583352            3 
 1115000    1.0593408   -7.6025883    327.34556  0.024465289  0.024576547            6 
 1116000    1.0507774   -7.5459618    328.22194  0.024508806  0.024569865            2 
 1117000    1.0857472   -7.5743208    329.10555  0.024552786  0.024563197            2 
 1118000    1.0679148   -7.6267328    328.03694  0.024451174  0.024556368            3 
 1119000    1.1049595   -7.5776203    328.17866  0.024439876  0.024549563           10 
 1120000     1.058379   -7.5352983    329.88569  0.024545066  0.024542987            3 
 1121000    1.0531581   -7.5634082    328.67919  0.024433481  0.024536534            2 
 1122000     1.067444   -7.5313333    330.08678  0.024516249   0.02453011            2 
 1123000    1.0554849   -7.5312365    330.48816  0.024524203  0.024523631            3 
 1124000    1.0848686   -7.5505055    330.44546  0.024499219  0.024517255            2 
 1125000    1.0960989   -7.5572003    329.60671  0.024415312  0.024510795            7 
 1126000    1.0928939   -7.5863466    329.69549  0.024400199  0.024504103            3 
 1127000    1.0571021   -7.5582121    330.00121  0.024401154  0.024497366            2 
 1128000    1.0787978   -7.5829504    330.54702  0.024419845  0.024490509            5 
 1129000     1.095875    -7.532318    330.18999  0.024371862  0.024483761            2 
 1130000     1.084211   -7.5893522    329.39579  0.024291725  0.024476844            3 
 1131000    1.0898387    -7.550004    331.24079  0.024406189  0.024469868            1 
 1132000    1.0868798   -7.5701931    330.81342  0.024353167  0.024462974            2 
 1133000    1.0623979   -7.5467471    330.87351  0.024336092  0.024456122            3 
 1134000    1.0681662    -7.553773    331.14525  0.024334601  0.024449256            5 
 1135000    1.0888737   -7.5549937    331.37042  0.024329693  0.024442404            2 
 1136000    1.0884098   -7.5582768    332.72302  0.024407499  0.024435639            4 
 1137000    1.0664986     -7.54876    331.81973  0.024319828  0.024428953            2 
 1138000    1.0879781   -7.5691291    332.14662  0.024322395  0.024422244            3 
 1139000    1.0805358   -7.5564976    332.82206  0.024350458  0.024415559            3 
 1140000    1.0706369   -7.5859044    333.48381  0.024377472  0.024408895            3 
 1141000    1.0819146   -7.5513507    333.52486  0.024359105  0.024402242            2 
 1142000    1.0786892   -7.6028943    332.85074  0.024288583  0.024395609            3 
 1143000    1.0649965    -7.570908    332.93451  0.024273441  0.024388841            2 
 1144000    1.0777817   -7.5628266    333.93626  0.024325194  0.024382031            3 
 1145000    1.0466224   -7.5786897    334.00384  0.024308868  0.024375401            3 
 1146000    1.0760896   -7.5522126     334.4911  0.024323088  0.024368923            2 
 1147000    1.0612618   -7.5849441    334.06197  0.024270704  0.024362505            2 
 1148000    1.0604794   -7.5348922    335.09276  0.024324387  0.024356128            4 
 1149000    1.0529739   -7.5779558     335.5971  0.024339796  0.024349642            5 
 1150000    1.0687974   -7.5660198    335.63908  0.024321673  0.024343266            2 
 1151000    1.0609604   -7.6137125    335.63913  0.024300545  0.024336818            6 
 1152000    1.0506753   -7.5799713    336.13873  0.024315591  0.024330479            3 
 1153000    1.0548593   -7.6261186    335.55903  0.024252604  0.024323947            3 
 1154000    1.0898673   -7.6213168    335.44042  0.024223023  0.024317442           10 
 1155000    1.0663817   -7.5709375    337.15804  0.024325977   0.02431094            2 
 1156000    1.0730519   -7.5573811    337.23843  0.024310729  0.024304577            7 
 1157000    1.0548404   -7.5401471    338.05889  0.024348811  0.024298207            2 
 1158000     1.063132   -7.5727143    337.09168   0.02425818  0.024291902           10 
 1159000     1.043906   -7.6089389    337.79498  0.024287818  0.024285454            2 
 1160000    1.0550508   -7.5786252    337.33634  0.024233933  0.024278936            3 
 1161000      1.05527   -7.6049676    337.40993  0.024218341  0.024272429            3 
 1162000    1.0664164   -7.5603091    338.25137  0.024257843  0.024265934            9 
 1163000    1.0651826   -7.5816292    337.57102  0.024188236  0.024259468           12 
 1164000    1.0557957   -7.5680986    338.93825  0.024265339  0.024253064            2 
 1165000    1.0566542   -7.6182953     337.8868  0.024169299   0.02424657            4 
 1166000    1.0573865   -7.6503285    339.06733  0.024232942  0.024240141            3 
 1167000    1.0834219   -7.5903586    339.04732  0.024210749  0.024233706            3 
 1168000    1.0749831    -7.569343    339.45213  0.024218902  0.024227367            4 
 1169000    1.0404745   -7.6187342    339.40829  0.024195059  0.024221166            3 
 1170000    1.0464855    -7.555055    340.98632  0.024286775  0.024214738            3 
 1171000    1.1033065   -7.5920446    340.44918  0.024227809  0.024208429            3 
 1172000      1.07385   -7.5990972    339.96409  0.024172646  0.024201973            4 
 1173000    1.0640134    -7.565504    340.35247   0.02417963  0.024195491            1 
 1174000     1.072411   -7.5616672     341.7104  0.024255423  0.024189336            2 
 1175000    1.0559706   -7.6346394    340.96079  0.024181616  0.024183073            9 
 1176000    1.0355028   -7.5624063    342.91087  0.024299239   0.02417673            2 
 1177000    1.0568519    -7.555838    341.29832  0.024164423  0.024170522            1 
 1178000    1.0750665   -7.6217405    341.50879  0.024158799  0.024164076            3 
 1179000    1.0670599   -7.5504538    342.64463  0.024218592  0.024157682            3 
 1180000    1.0804267   -7.5713781    342.88666  0.024215159  0.024151431            2 
 1181000    1.0786064   -7.5931241    341.72554  0.024112725  0.024145125            4 
 1182000    1.0501498   -7.5812668    342.86977  0.024172996  0.024138834            2 
 1183000    1.0578638   -7.6073193    342.27999  0.024111016  0.024132475            2 
 1184000    1.0681763   -7.5793319    343.71456  0.024191621  0.024126064            5 
 1185000    1.0475255   -7.5855754    342.24046  0.024067543  0.024119602            2 
 1186000    1.0833196    -7.585479    343.20892  0.024115298  0.024113186            4 
 1187000    1.0378174   -7.6076742    342.82034  0.024067701  0.024106692            5 
 1188000    1.0627803   -7.6128232    343.13322  0.024069389  0.024100143            2 
 1189000    1.0497006   -7.6231009    344.02202   0.02411144  0.024093745            3 
 1190000    1.0743264   -7.5760628     344.8722  0.024150714  0.024087406            4 
 1191000    1.0617649   -7.5764903    344.21767   0.02408464  0.024081074            3 
 1192000    1.0598185   -7.6021987    343.21421  0.023994282  0.024074603            2 
 1193000    1.0661249   -7.5896853    343.45728  0.023991148  0.024068141            3 
 1194000    1.0752561   -7.5862782    343.83336  0.023997303  0.024061672            2 
 1195000    1.0690841   -7.5700624     345.4722  0.024091506  0.024055327            2 
 1196000    1.0688133   -7.5873783    344.79498  0.024024176  0.024048818            3 
 1197000    1.0497358   -7.5895811    344.89271   0.02401091  0.024042163            3 
 1198000    1.0753825    -7.594902    345.32996  0.024021283  0.024035471            2 
 1199000    1.0737347   -7.5769786     345.5597  0.024017216  0.024028716            7 
 1200000    1.0717847   -7.6184531    344.73592  0.023939994  0.024022147            3 
 1201000    1.0510687   -7.5860506    346.35127  0.024032145  0.024015595            5 
 1202000    1.0435895   -7.5963725    346.26184  0.024005951  0.024009168            3 
 1203000    1.0486779   -7.6390279    345.97463    0.0239661  0.024002709            1 
 1204000    1.0547922   -7.6122946    346.62157  0.023990973  0.023996342            7 
 1205000    1.0674674   -7.5536696    348.18889  0.024079453  0.023990033            3 
 1206000    1.0630842   -7.6180898    347.41004  0.024005669  0.023983735            3 
 1207000    1.0662756   -7.5957358    348.20185  0.024040448  0.023977554            5 
 1208000    1.0500949   -7.6007609     347.5177  0.023973351  0.023971159            2 
 1209000    1.0499011   -7.5904035    347.68683   0.02396518  0.023964612            3 
 1210000    1.0594834   -7.5988732     347.0835  0.023903822  0.023958026            2 
 1211000    1.0697427   -7.6270314    347.32849  0.023900942  0.023951466            3 
 1212000    1.0445704   -7.5954627    347.25466  0.023876146  0.023944955            3 
 1213000    1.0607574    -7.574179    348.00475  0.023907993  0.023938367            2 
 1214000    1.0505592   -7.5962706    348.04548  0.023891095  0.023931903            2 
 1215000    1.0854223   -7.6455453      347.962  0.023865706  0.023925338            2 
 1216000    1.0958618    -7.578115    349.78948  0.023971319  0.023918817            2 
 1217000    1.0704352   -7.6126507    348.60338  0.023870404    0.0239124            2 
 1218000    1.0566412   -7.6330823    349.52334  0.023913748  0.023905969            4 
 1219000    1.0499502   -7.6051534    349.19666  0.023871798  0.023899425            2 
 1220000    1.0630711   -7.6331597    348.58033  0.023810132  0.023893044            2 
 1221000    1.0450361   -7.6001245    351.00437  0.023956072    0.0238866            4 
 1222000    1.0810195   -7.6108863    348.98003   0.02379842  0.023880238            4 
 1223000    1.0349926   -7.5833953    350.28832  0.023868106  0.023873849            2 
 1224000    1.0562668   -7.5893336    350.67723  0.023875084    0.0238674            4 
 1225000    1.0877273   -7.6014112    350.90518  0.023871101  0.023861078            3 
 1226000    1.0479995   -7.5677489     350.3036   0.02381074  0.023854627            4 
 1227000    1.0831247   -7.5895204    351.54444  0.023875607  0.023848145            2 
 1228000    1.0694557   -7.6217242    350.31666  0.023772846  0.023841811            4 
 1229000    1.0351937   -7.6060681    351.16006   0.02381069  0.023835384            4 
 1230000    1.0484606   -7.6355784    351.23114  0.023796148  0.023828872            4 
 1231000    1.0578256   -7.6099504    351.53444  0.023797349  0.023822386            2 
 1232000    1.0597201   -7.6199425    352.18518   0.02382205  0.023815922            3 
 1233000    1.0589609   -7.6152053    350.38561  0.023681104  0.023809406            3 
 1234000    1.0869711   -7.6004052    352.69552  0.023817904  0.023802855            4 
 1235000    1.0642831   -7.6379135    351.38897  0.023710456  0.023796259            2 
 1236000    1.0451382   -7.5767544    352.98718  0.023799028  0.023789707            3 
 1237000    1.0462701   -7.6204831    353.37889  0.023806177  0.023783151            3 
 1238000    1.0540241   -7.5968914    353.50843  0.023795667  0.023776728            5 
 1239000    1.0472879    -7.620117    353.37632  0.023767576  0.023770284            3 
 1240000    1.0547962   -7.6379956    353.26865  0.023741173  0.023763853            7 
 1241000    1.0355723    -7.634921    352.72945  0.023685835  0.023757323            4 
 1242000    1.0546464   -7.6284034    353.53643  0.023720909  0.023750849            3 
 1243000    1.0457027     -7.59044     353.5046  0.023699692  0.023744441            6 
 1244000    1.0575869   -7.6264443     354.7801  0.023766084  0.023738079            4 
 1245000     1.042753    -7.590305     354.7441  0.023744585  0.023731648            3 
 1246000    1.0474865   -7.6582172    353.72034  0.023657059  0.023725082            2 
 1247000    1.0541061   -7.6352465    353.76039  0.023640764  0.023718392            4 
 1248000    1.0328285   -7.5902806    355.27752  0.023723125  0.023711918            2 
 1249000    1.0413046   -7.5670222    355.94532  0.023748687  0.023705566            2 
 1250000    1.0740422   -7.5916573    356.02163  0.023734775    0.0236992            2 
 1251000    1.0500756   -7.5935698    356.09143  0.023720452  0.023692822            5 
 1252000    1.0309345   -7.5939806    355.85705  0.023685906   0.02368632            7 
 1253000    1.0760711   -7.6380508    355.42307   0.02363814   0.02367976            3 
 1254000    1.0647338   -7.6116601    355.29602  0.023610846  0.023673068            2 
 1255000    1.0464973   -7.5934365    356.18054  0.023650766  0.023666461            1 
 1256000    1.0721069   -7.6422676    354.94118  0.023549707  0.023659852            3 
 1257000    1.0644727   -7.6012632    356.68143  0.023646342  0.023653255            2 
 1258000     1.040686   -7.6516347    355.50201  0.023549418    0.0236468            3 
 1259000    1.0421032   -7.6446135    356.90834  0.023623798  0.023640237            4 
 1260000    1.0597752   -7.6389372    357.17616  0.023622762  0.023633779            6 
 1261000    1.0584002   -7.6045447    358.45096  0.023688274  0.023627353            1 
 1262000    1.0597119   -7.6178267    358.79852  0.023692454  0.023621091            3 
 1263000    1.0442166   -7.6252695     357.3943  0.023581044  0.023614752            3 
 1264000    1.0601804   -7.6154064    358.23153  0.023617585  0.023608222            2 
 1265000    1.0468985   -7.6600081    357.54911   0.02355396  0.023601665            1 
 1266000    1.0621457   -7.6668942    357.43373   0.02352776  0.023595139            6 
 1267000    1.0608159   -7.6847902    356.22886  0.023429943  0.023588395            6 
 1268000    1.0426964   -7.6016613    358.61306  0.023568156  0.023581767            5 
 1269000    1.0895552   -7.6339273    359.09799  0.023581428  0.023575198            6 
 1270000    1.0678329   -7.6138348    359.13418  0.023565235   0.02356866            7 
 1271000     1.059772   -7.6169971    359.34948   0.02356081  0.023562204            1 
 1272000    1.0560356   -7.6032384    360.50469  0.023617969  0.023555986            1 
 1273000    1.0278381   -7.6407312    359.59197  0.023539668  0.023549681            3 
 1274000    1.0390088    -7.581618    360.25096  0.023564296  0.023543268            3 
 1275000    1.0417199   -7.6390074    359.68931  0.023509105  0.023536879            3 
 1276000    1.0564734   -7.6312313    359.24556  0.023461701  0.023530348            1 
 1277000    1.0477318   -7.5907439    361.14552  0.023567314  0.023523956            4 
 1278000    1.0324671   -7.6112218    360.71255  0.023520641  0.023517553            1 
 1279000    1.0489096   -7.6155878    360.93473  0.023516727   0.02351108            3 
 1280000    1.0736657   -7.6219903    361.05372  0.023506101  0.023504718            3 
 1281000    1.0513122   -7.6458821    360.67158  0.023462892  0.023498375            3 
 1282000    1.0381535    -7.647451    360.10076  0.023407485  0.023491781            2 
 1283000    1.0550151   -7.6415081    360.77422  0.023432984  0.023485283            2 
 1284000    1.0322698   -7.6310963    361.88886  0.023487075  0.023478935            3 
 1285000    1.0422407   -7.6273384    362.06962   0.02348052  0.023472559            3 
 1286000    1.0238818   -7.6484846    360.80676  0.023380427  0.023466179            4 
 1287000    1.0474565   -7.6229216    362.38756  0.023464618  0.023459787            2 
 1288000    1.0505295    -7.661773    362.13863  0.023430295  0.023453471            7 
 1289000    1.0569333   -7.6457653    362.71063  0.023449097  0.023447046            2 
 1290000    1.0502226   -7.6542393    363.28739  0.023468178  0.023440677            3 
 1291000    1.0349416   -7.6409412    362.75878  0.023415878  0.023434355            2 
 1292000    1.0555202   -7.6617675    363.00679   0.02341375  0.023428064            2 
 1293000    1.0549669   -7.6238334     364.2572  0.023476231  0.023421774            2 
 1294000    1.0419716   -7.6310462    364.44604   0.02347025  0.023415605            2 
 1295000    1.0450111   -7.6578327    364.74583  0.023471417  0.023409185            3 
 1296000    1.0512412   -7.6719561    363.39852  0.023366675  0.023402833            3 
 1297000    1.0632995   -7.6705335     364.0819  0.023392566  0.023396501            5 
 1298000    1.0791032   -7.6147201    365.64075  0.023474625  0.023390143            2 
 1299000    1.0341936   -7.6145832    364.61272  0.023390603  0.023383756            5 
 1300000    1.0492203   -7.6204666    365.04651  0.023400417  0.023377299            4 
 1301000    1.0046477   -7.6723474    363.42473   0.02327855  0.023370755            7 
 1302000    1.0184211    -7.632437    364.67572   0.02334074  0.023364299            2 
 1303000    1.0575888    -7.624716    366.44247   0.02343582  0.023357945            1 
 1304000    1.0376236   -7.6365984    365.04298  0.023328411  0.023351552            1 
 1305000    1.0604974    -7.666905    365.27844  0.023325571    0.0233451            4 
 1306000    1.0417696   -7.6484661    365.57799  0.023326824  0.023338631            1 
 1307000    1.0446601   -7.6423354     366.7021  0.023380649  0.023332198            3 
 1308000    1.0560689   -7.6253757    367.03835  0.023384196  0.023325816            2 
 1309000    1.0366597   -7.6652624    366.39718  0.023325514  0.023319377            3 
 1310000    1.0375799   -7.6499442    365.94659  0.023279045   0.02331275            1 
 1311000    1.0651634   -7.6346146    366.43578  0.023292384  0.023306246            2 
 1312000    1.0369662   -7.6132787    366.64497  0.023287917  0.023299696            3 
 1313000    1.0217821   -7.6367766    365.99992  0.023229241  0.023293123            1 
 1314000    1.0320859   -7.6579576    366.36517  0.023234726  0.023286366            8 
 1315000    1.0600274   -7.6347816    366.33506  0.023215149  0.023279638            4 
 1316000     1.031273   -7.6344633    366.41516  0.023202581  0.023272976            2 
 1317000    1.0379519   -7.5987273    368.77212    0.0233341  0.023266463            5 
 1318000    1.0471942    -7.632575    367.47004  0.023234069  0.023259884            4 
 1319000    1.0286057   -7.6334604     367.3008  0.023205762  0.023253297            3 
 1320000    1.0293578   -7.6342535    367.41506  0.023195395   0.02324666            4 
 1321000    1.0358998   -7.6517545    367.37676   0.02317542  0.023239915            1 
 1322000    1.0139367   -7.6769116    367.10985  0.023141064  0.023233222            3 
 1323000    1.0361532   -7.6681188    367.09636  0.023122724  0.023226623            2 
 1324000    1.0608468   -7.6252851    369.01945    0.0232263  0.023219975            3 
 1325000    1.0326073   -7.6409152    368.48295  0.023175028  0.023213248            4 
 1326000    1.0621113   -7.6574573    367.31676  0.023084261  0.023206457            3 
 1327000    1.0585495   -7.6534015    367.55498  0.023081825  0.023199568            1 
 1328000    1.0334769   -7.6767587     368.2873  0.023110398  0.023192678            5 
 1329000    1.0455901    -7.609054    368.83131   0.02312712  0.023185813            4 
 1330000    1.0191796    -7.670528    368.60994  0.023095861  0.023178965            2 
 1331000    1.0230786   -7.6678547    369.02916  0.023104756  0.023172135            3 
 1332000    1.0550539   -7.6433983    369.02695  0.023087272  0.023165298            7 
 1333000    1.0441855   -7.6317955    370.31652   0.02315057  0.023158562            4 
 1334000     1.004682   -7.6994879    369.84669  0.023103866  0.023151665            3 
 1335000    1.0519599    -7.648079    369.46525   0.02306275  0.023144713            2 
 1336000    1.0285357   -7.6338595    370.54353  0.023112745  0.023137953            2 
 1337000    1.0214955   -7.6457418    369.84526  0.023051936  0.023131276            8 
 1338000    1.0398186   -7.6107401    369.59383  0.023019048  0.023124365            3 
 1339000    1.0173991   -7.6735397    369.84138  0.023017263  0.023117507            5 
 1340000    1.0170408   -7.6775252    370.54009  0.023043538  0.023110679            4 
 1341000    1.0326731   -7.6683397    370.76889  0.023040572  0.023103815            4 
 1342000    1.0363258   -7.7176193     369.4829  0.022943548  0.023096873            5 
 1343000    1.0336285   -7.6730638    369.84241  0.022948772  0.023089909            4 
 1344000    1.0431755   -7.6894712    369.80127  0.022929146   0.02308313            6 
 1345000    1.0410855   -7.6689238    370.97477  0.022984806  0.023076138            4 
 1346000    1.0313903   -7.6753844    369.25896  0.022861501  0.023069126            2 
 1347000    1.0589666   -7.7116048     369.5764  0.022864167  0.023062072            2 
 1348000    1.0430002    -7.627975     372.2734  0.023013934  0.023055118            3 
 1349000    1.0405477   -7.6602161    371.39715  0.022942745  0.023048173            2 
 1350000      1.02485   -7.6949063    371.07214  0.022905688  0.023041221            2 
 1351000    1.0267054   -7.6973424     371.4891  0.022914452  0.023034364            3 
 1352000    1.0304143    -7.634112    372.48997  0.022959195  0.023027532            2 
 1353000    1.0192356   -7.6396889    372.96257  0.022971333  0.023020645            2 
 1354000    1.0363889   -7.6714729    371.48209   0.02286325  0.023013705            4 
 1355000     1.031316   -7.6779764     370.8961  0.022810338  0.023006695            3 
 1356000     1.050242   -7.6276071    373.17499  0.022933566  0.022999772            6 
 1357000    1.0424163   -7.6482279    373.00057  0.022905955  0.022992794            2 
 1358000    1.0242514   -7.6914037    371.05893  0.022769939  0.022985753            2 
 1359000    1.0442342   -7.6917154    372.13024  0.022818877  0.022978528            2 
 1360000    1.0407027   -7.6602515    373.48296  0.022884985  0.022971393            5 
 1361000    1.0444632   -7.7364601    370.93817  0.022712354  0.022964166            2 
 1362000    1.0249623   -7.6978353    372.83351  0.022811644   0.02295686            2 
 1363000    1.0424147   -7.6931152    372.09003  0.022749451  0.022949624            3 
 1364000    1.0281213   -7.6863792    372.40296  0.022751891   0.02294246            3 
 1365000    1.0391289   -7.7061424    372.41526  0.022735974  0.022935112            2 
 1366000     1.035974    -7.705358     372.8153  0.022743735  0.022927812            3 
 1367000    1.0703789   -7.6746347    374.15732  0.022808908  0.022920477            2 
 1368000    1.0363482   -7.6545448    373.60843  0.022758798  0.022913281            2 
 1369000     1.031765   -7.7649425     372.0366  0.022646494  0.022905923            1 
 1370000    1.0136009   -7.7106869     373.2385  0.022703072  0.022898459            2 
 1371000     1.041615   -7.7039114    373.91944  0.022727902  0.022891145            6 
 1372000    1.0305917   -7.6621655    374.59944  0.022752639  0.022883925            7 
 1373000    1.0309969   -7.6550152    375.60049  0.022796825  0.022876655            4 
 1374000    1.0194977   -7.6386687    375.07306  0.022748245  0.022869523            4 
 1375000    1.0247566   -7.7014229    374.13206   0.02267467  0.022862312            4 
 1376000    1.0420516   -7.6244985    375.51729  0.022742084  0.022855157            3 
 1377000    1.0354103   -7.6162156    376.78946  0.022802558  0.022848202            2 
 1378000    1.0219284   -7.6807358    375.90537  0.022732546  0.022841174            6 
 1379000    1.0378518   -7.6774952    375.85637  0.022713099  0.022834061            5 
 1380000    1.0368352    -7.610769    376.00367  0.022705535  0.022827012            5 
 1381000    1.0388806   -7.6819085    375.47944  0.022657461  0.022820048           16 
 1382000    1.0229775   -7.6685648    376.92203  0.022728053  0.022812946            2 
 1383000    1.0314649   -7.7011018    375.75775  0.022641465  0.022805867            7 
 1384000    1.0490962   -7.6918102    377.08488  0.022705014  0.022798826            2 
 1385000    1.0146879   -7.6846025    376.14091  0.022631824  0.022791708            2 
 1386000    1.0472548   -7.6657233    377.21962  0.022680352  0.022784596            2 
 1387000    1.0320638   -7.6959311    376.22971  0.022604525  0.022777459            3 
 1388000    1.0195778   -7.6850268    377.55614  0.022667876  0.022770439            5 
 1389000    1.0269083   -7.6869401    376.84428  0.022608848  0.022763421            2 
 1390000     1.040822    -7.632862    377.59781  0.022637759  0.022756345            3 
 1391000    1.0090382   -7.6626629    377.74361  0.022630219  0.022749434            4 
 1392000    1.0432477    -7.654496    377.96813  0.022627402  0.022742445            6 
 1393000    1.0290628   -7.6993824    377.98163  0.022611966  0.022735342            3 
 1394000    1.0286564   -7.6526036    377.65243  0.022576066  0.022728179            3 
 1395000    1.0358242   -7.6692627     378.9551    0.0226377  0.022721137            2 
 1396000    1.0234297   -7.6695369    378.82804  0.022613899  0.022714184            2 
 1397000    1.0195368   -7.6681695    378.15548  0.022557593  0.022707094            3 
 1398000    1.0237311   -7.6946045    378.19052  0.022543546  0.022699854            5 
 1399000    1.0313807   -7.6424646    380.65138  0.022674016  0.022692762            4 
 1400000    1.0335179   -7.6908332    378.43605  0.022525955  0.022685811            3 
 1401000    1.0402485   -7.6697676    379.50228  0.022573297   0.02267881            2 
 1402000    1.0105859   -7.6912667    378.53917  0.022499951   0.02267169            5 
 1403000    1.0530926   -7.6820726    379.20249  0.022523312  0.022664623            3 
 1404000    1.0220005   -7.6458234    380.39647  0.022578138  0.022657483            2 
 1405000    1.0237874   -7.7139343    378.58194  0.022454445  0.022650354            3 
 1406000    1.0280524   -7.7026844    379.70168  0.022504841  0.022643223            4 
 1407000    1.0363466    -7.635402    381.99024  0.022624392  0.022636195            8 
 1408000    1.0244808   -7.6523966    380.88796  0.022543085  0.022629099            4 
 1409000    1.0432936   -7.7094937    379.37922  0.022437853  0.022622008            2 
 1410000     1.025438   -7.6760632    380.82342  0.022507294  0.022614934            3 
 1411000    1.0356527   -7.7089907    380.05797  0.022446136  0.022607849            2 
 1412000    1.0190866   -7.6751894    380.98779  0.022485115  0.022600648            2 
 1413000    1.0205858   -7.6728414    381.72872  0.022512899  0.022593479            4 
 1414000    1.0051946   -7.7185239    380.37441  0.022417162  0.022586274            2 
 1415000    1.0311531    -7.708837    381.54144  0.022470049  0.022579107            2 
 1416000     1.023482   -7.6784246    381.83651  0.022471546  0.022571971            4 
 1417000     1.015045   -7.7050942    381.51896  0.022437013  0.022564847            3 
 1418000    1.0313284   -7.6872748    380.60504   0.02236748  0.022557746            3 
 1419000    1.0224024   -7.6487028    383.29859  0.022509901   0.02255085            2 
 1420000    1.0368119   -7.7163013    382.61283  0.022453804  0.022543872            8 
 1421000    1.0164742   -7.7286576    381.46697  0.022370805  0.022536938            2 
 1422000    1.0308703   -7.6609584    384.43261  0.022528868  0.022529916            4 
 1423000    1.0244292    -7.676605     383.3491  0.022449584  0.022523039            3 
 1424000    1.0422691   -7.7262689    381.61507  0.022332342  0.022516068            3 
 1425000    1.0371337   -7.6772014    382.21203  0.022351581  0.022509055            7 
 1426000    1.0204895   -7.7224347    383.63118  0.022418839   0.02250211            2 
 1427000    1.0090874   -7.7042861    383.54641  0.022398179  0.022495136            5 
 1428000    1.0178977   -7.6665106    384.94532  0.022464129  0.022488268            9 
 1429000    1.0264406   -7.6908882    385.57876  0.022485349  0.022481481            3 
 1430000    1.0291724   -7.7184498    383.94652  0.022374506  0.022474634            4 
 1431000    1.0181316   -7.6718713    385.40741  0.022443944  0.022467774            3 
 1432000    1.0408045   -7.7156673    384.38556  0.022368806  0.022461029            3 
 1433000     1.032005   -7.7300447    385.03265  0.022390826  0.022454219            4 
 1434000    1.0204325   -7.7070097    385.18886   0.02238429   0.02244745            4 
 1435000    1.0232309   -7.7054523     384.7175  0.022341318  0.022440647            2 
 1436000    1.0296481   -7.6791631    385.11525  0.022348842  0.022433755            2 
 1437000    1.0370992   -7.6970659    384.87259  0.022319218  0.022426896            4 
 1438000    1.0449802   -7.6517881    386.59549   0.02240354   0.02242009            4 
 1439000    1.0378498   -7.6958716    385.06448   0.02229931  0.022413159            6 
 1440000    1.0086228   -7.7394257    385.13337  0.022287811  0.022406294            2 
 1441000    1.0151702   -7.7369196    385.50118  0.022293614  0.022399366            4 
 1442000    1.0052221   -7.6649299    386.33129  0.022326126  0.022392464            5 
 1443000   0.99574449   -7.6908189    386.27098  0.022307172  0.022385608            3 
 1444000    1.0316881   -7.7142549     386.4857  0.022304115  0.022378658            3 
 1445000    1.0404505   -7.6893693    386.93106  0.022314363  0.022371757            2 
 1446000    1.0298733   -7.6892345    386.40815  0.022268796  0.022364834            4 
 1447000    1.0254623   -7.7212195    386.65271  0.022267491  0.022357883            2 
 1448000     1.018079   -7.7310014    386.06302  0.022218176  0.022350869            3 
 1449000    1.0050084   -7.7163286    385.74577  0.022184597  0.022343877            6 
 1450000    1.0280723   -7.7199561    387.23011  0.022254604   0.02233685            3 
 1451000    1.0207005   -7.6790601    387.41286  0.022249762  0.022329844            4 
 1452000    1.0285253   -7.7281463    386.24685  0.022167519  0.022322955            2 
 1453000    1.0101892   -7.7028118    387.30073  0.022212705  0.022316034            4 
 1454000     1.014295   -7.6799366    387.82214  0.022227312  0.022309172            2 
 1455000    1.0156176   -7.7245375    387.22564  0.022177872   0.02230221            5 
 1456000    1.0324186   -7.6673943    389.19206  0.022275187  0.022295354            2 
 1457000    1.0158603   -7.7408997    387.70875   0.02217506  0.022288425            5 
 1458000    1.0280977   -7.7450581    388.01876   0.02217757  0.022281522            3 
 1459000    1.0382391   -7.7487708    387.70672  0.022144546  0.022274504            3 
 1460000    1.0109999   -7.7344349    388.31019  0.022163824  0.022267539            3 
 1461000    1.0103773   -7.7282463    388.89345  0.022181922  0.022260518            4 
 1462000    1.0322359   -7.7108953    388.42385  0.022139982  0.022253466            6 
 1463000    1.0455485   -7.7005248    388.00738  0.022101127  0.022246464            2 
 1464000    1.0218522   -7.7410617    388.48256  0.022113078  0.022239332            5 
 1465000    1.0132045   -7.6723966    388.25302  0.022084927  0.022232203            9 
 1466000    1.0112706   -7.7172566    388.49508  0.022083622   0.02222505            9 
 1467000    1.0094775    -7.700175     389.8653  0.022146404  0.022217907            8 
 1468000    1.0230038   -7.7309119    389.27588  0.022097859  0.022210821            3 
 1469000    1.0074427   -7.7313419    389.25852  0.022081831  0.022203775            2 
 1470000    1.0216742   -7.6752127    390.30203  0.022125966  0.022196746            5 
 1471000    1.0291459    -7.714201    388.77186  0.022024238  0.022189717            1 
 1472000    1.0273833   -7.7307621     389.1753  0.022032116  0.022182473            3 
 1473000   0.98559986    -7.727776    389.40725  0.022030281  0.022175367            5 
 1474000    1.0057435   -7.7047959    389.35899  0.022012607  0.022168224            3 
 1475000   0.99581722   -7.7282036    388.51879  0.021950214  0.022160896            4 
 1476000     1.008804    -7.741025    389.58998  0.021995821  0.022153509            2 
 1477000    1.0139367   -7.7056243    390.41983  0.022027749  0.022146387            4 
 1478000     1.027033   -7.7535207     389.1489  0.021941187  0.022139252            2 
 1479000    1.0287817   -7.7705647    390.31693  0.021992164  0.022132128            3 
 1480000    1.0387153   -7.7283347    391.84753  0.022063487   0.02212506            2 
 1481000    1.0021421   -7.7098464    390.94475  0.021997791  0.022117984            8 
 1482000    1.0124516   -7.7340658    392.20268  0.022053682  0.022110926            5 
 1483000    1.0175657    -7.763583    390.18404  0.021925379  0.022103745            6 
 1484000    1.0158279   -7.7019663    391.17696  0.021966361  0.022096635            2 
 1485000     1.003931   -7.7316058    391.56548  0.021973372    0.0220895            3 
 1486000    1.0197568   -7.7339571    391.44165   0.02195164  0.022082297            2 
 1487000    1.0102618   -7.7815299    389.47621  0.021826732  0.022075061            1 
 1488000    1.0006588   -7.7292829    390.87653  0.021890487  0.022067829            6 
 1489000    1.0168179   -7.7451297    390.73188   0.02186769  0.022060601            2 
 1490000   0.99930527    -7.741573    390.63242  0.021847451  0.022053358            4 
 1491000    1.0284894    -7.740781    391.10365  0.021859135  0.022046108            7 
 1492000    1.0372549   -7.7326422    392.15668    0.0219033  0.022038802            2 
 1493000    1.0151431   -7.6847473    392.22364  0.021892367  0.022031583            3 
 1494000    1.0229074   -7.7452872    392.23831  0.021878531  0.022024344            2 
 1495000     1.017479   -7.7230451    392.00512  0.021850899   0.02201713            2 
 1496000    1.0147927   -7.7242334    392.62703  0.021870935  0.022009834            3 
 1497000    1.0313985   -7.7397309     392.2481  0.021835232  0.022002611            2 
 1498000    1.0268668   -7.7629861    391.29801  0.021767802  0.021995246            5 
 1499000    1.0131054   -7.7902483    391.52083  0.021765667  0.021987938            6 
 1500000    1.0237323    -7.720278    391.74855  0.021763808  0.021980592            4 
 1501000    1.0003174   -7.7340245    392.66056  0.021799942  0.021973281            3 
 1502000    1.0021621   -7.7364105    392.90577  0.021799033    0.0219659            4 
 1503000    1.0180078    -7.724326    392.01132  0.021734937  0.021958562            3 
 1504000    1.0042718   -7.7587213    392.16794  0.021729163  0.021951151            6 
 1505000   0.99706159   -7.7764038    391.29748  0.021666527  0.021943747            6 
 1506000    1.0085484   -7.7414775    392.66318   0.02172771  0.021936383            3 
 1507000   0.99010311   -7.7237029    393.19469  0.021742684  0.021928962            4 
 1508000    1.0087653   -7.7546796    391.95888  0.021659974  0.021921517            3 
 1509000    1.0017546   -7.7335342    394.62759  0.021792997  0.021914069            2 
 1510000     1.006409    -7.687285    394.84806  0.021790732  0.021906782            5 
 1511000    1.0128913   -7.6981776    394.70451  0.021768394  0.021899571            4 
 1512000   0.99885971   -7.6704315    394.60985  0.021748779  0.021892407            3 
 1513000    1.0011299   -7.7138389    395.71792  0.021795435  0.021885296            3 
 1514000    1.0073274   -7.7249381    395.06519  0.021745112  0.021878135            6 
 1515000      1.02759   -7.7230867     395.8518  0.021774026  0.021871148            2 
 1516000    1.0314283   -7.7295359    394.65175  0.021693698  0.021864082            2 
 1517000    1.0160843   -7.7714734    395.51334  0.021726727  0.021857053            2 
 1518000    1.0030612   -7.7504957    395.14246  0.021692054  0.021849962            6 
 1519000    1.0158048   -7.7311854    395.98549  0.021724023  0.021842877            1 
 1520000    1.0162272   -7.7476592    395.98067  0.021709466  0.021835695            8 
 1521000    1.0037208   -7.7371056    396.17037  0.021705587  0.021828489            4 
 1522000    1.0135635   -7.7493987    395.38614  0.021648387  0.021821332            3 
 1523000    1.0102502   -7.7268487    395.78308  0.021655892  0.021814191            4 
 1524000    1.0089727   -7.7621666    396.67637  0.021690528  0.021807082            2 
 1525000   0.98816571   -7.7243306    397.23507  0.021706834  0.021799919            3 
 1526000    1.0097844    -7.704804    397.83105  0.021725155  0.021792902            3 
 1527000    1.0017307   -7.7326878    397.16153   0.02167439  0.021785866            6 
 1528000   0.98846375   -7.7417537    397.33126  0.021669462  0.021778821            4 
 1529000    1.0004765   -7.7207685    398.42217  0.021714746  0.021771868            2 
 1530000    1.0107276   -7.7332655    398.66418  0.021713735  0.021764965            5 
 1531000    1.0073147   -7.7366517    398.90252  0.021712525  0.021757983            3 
 1532000    1.0300118   -7.7393574    398.02666  0.021650711  0.021750921            2 
 1533000    1.0278506   -7.7490562    396.90832  0.021575795  0.021743925            4 
 1534000      1.00919   -7.7532383    397.12771  0.021573648  0.021736924            4 
 1535000    1.0233495   -7.7368761    399.20625  0.021672435  0.021729885            3 
 1536000    1.0053903   -7.6844964     400.1673  0.021710465   0.02172295            3 
 1537000   0.99689711   -7.7427195    398.36989  0.021598888  0.021715924            3 
 1538000    1.0145718   -7.7783283    397.38515  0.021531489   0.02170887            3 
 1539000    1.0155152   -7.7616044    398.26982  0.021565401  0.021701851            3 
 1540000   0.98336528   -7.7224852    399.84754  0.021636771  0.021694772            4 
 1541000    1.0284548   -7.7453763    399.19986  0.021587706  0.021687804            3 
 1542000   0.99065074   -7.7454602    398.67584  0.021545387  0.021680755            2 
 1543000   0.99827614   -7.7216718    400.46262  0.021627923  0.021673757            2 
 1544000   0.98626246   -7.7527342    399.19194  0.021545334  0.021666798            2 
 1545000      1.00954   -7.7737622     399.7347  0.021560663  0.021659798            4 
 1546000    1.0129233   -7.7592854    399.87767  0.021554424  0.021652836            2 
 1547000    1.0223366   -7.7405399    400.49253  0.021573612  0.021645949            3 
 1548000    1.0224769   -7.7118889    401.83512  0.021631951  0.021639123            3 
 1549000    1.0164369   -7.7257508    401.90346  0.021621662  0.021632373            4 
 1550000   0.99196564   -7.7453707    401.89649  0.021607338   0.02162566            2 
 1551000     1.014586   -7.7400678    402.11928  0.021605377  0.021618944            2 
 1552000    1.0069212   -7.7330638    402.70123  0.021622704  0.021612149            3 
 1553000   0.99390153   -7.7723347    400.95581  0.021515122  0.021605301            4 
 1554000   0.99773452    -7.735224    402.82632  0.021601583  0.021598405            5 
 1555000     1.023095   -7.7437893    401.32967  0.021507485  0.021591553            3 
 1556000    1.0033383   -7.7528086    402.27187  0.021544124  0.021584673            4 
 1557000    1.0127637   -7.7636901    402.38149  0.021536154  0.021577722            5 
 1558000   0.97814337   -7.7656045    401.70291  0.021486035  0.021570902            2 
 1559000    1.0276573    -7.763202    401.91088   0.02148337  0.021564074            2 
 1560000   0.97825412    -7.798115    401.34934  0.021439601  0.021557102            4 
 1561000    1.0052963   -7.7764834    401.38775  0.021427917  0.021550091            4 
 1562000    1.0168714   -7.7392869    403.87955  0.021547138  0.021543272            6 
 1563000   0.98981452   -7.7146125    403.65515  0.021521388  0.021536471            2 
 1564000    1.0118499   -7.7732498    403.09876  0.021477981  0.021529658            3 
 1565000    1.0233975   -7.7543095    403.14272  0.021466599  0.021522735            4 
 1566000    1.0010882   -7.7823947    402.73297  0.021431086   0.02151587            3 
 1567000    1.0233502    -7.741946    405.17537  0.021547297   0.02150909            3 
 1568000    1.0194192   -7.7319917    404.73881  0.021510353  0.021502337            2 
 1569000   0.99361424     -7.76677    404.51181  0.021484587  0.021495534            2 
 1570000    1.0333748   -7.7719109    404.29734  0.021459519  0.021488769            4 
 1571000   0.99817164   -7.7308687    404.51283   0.02145729   0.02148211            3 
 1572000   0.97773722    -7.740568    404.78312  0.021457969  0.021475399            3 
 1573000    1.0138291   -7.7552845    404.27499  0.021417408  0.021468663            3 
 1574000   0.99972976   -7.7346364    405.52225  0.021469835  0.021462055            4 
 1575000   0.98542218   -7.7401447    405.39316  0.021449373    0.0214554            3 
 1576000    0.9920123   -7.7511597    405.65357  0.021449533  0.021448778           14 
 1577000    1.0013848   -7.7466381    405.93675  0.021450895  0.021442107            7 
 1578000   0.99771026   -7.7329675    407.64376  0.021527448  0.021435344            4 
 1579000    1.0058485   -7.7763084    405.25023  0.021387494  0.021428658            2 
 1580000   0.99850714   -7.8010275     405.2547  0.021374193  0.021421864            4 
 1581000   0.98595145   -7.7308838    406.01631  0.021400817  0.021415198            3 
 1582000    1.0110207   -7.7511087    406.42874  0.021409015  0.021408555            6 
 1583000   0.99170865   -7.7658529    406.49585  0.021399023  0.021401941            4 
 1584000    1.0317159   -7.7699567    407.20778  0.021422968  0.021395327            3 
 1585000      1.03205   -7.8155525    406.00544  0.021346237  0.021388661            4 
 1586000    1.0065217   -7.7514781     407.8169  0.021427958  0.021382021            3 
 1587000   0.99816037   -7.7483222    407.23662  0.021383986  0.021375432            5 
 1588000    1.0004309   -7.7552526    408.12697  0.021417242  0.021368925            2 
 1589000     1.001225   -7.7542049    407.43674  0.021367566  0.021362379            3 
 1590000   0.98099659   -7.7237829    408.32919  0.021400901  0.021355774            6 
 1591000    0.9919867   -7.7499918    408.49872  0.021396329  0.021349107            4 
 1592000   0.99033331   -7.7711158    406.78089   0.02129297  0.021342516            4 
 1593000    1.0246335   -7.7433461    408.80401  0.021385437  0.021335925            3 
 1594000    1.0050003   -7.7686082    408.41775  0.021351827  0.021329379            4 
 1595000   0.98358266   -7.7945973    409.39783  0.021389646  0.021322748            6 
 1596000   0.98648496   -7.7821113    408.22106  0.021314801  0.021316124            2 
 1597000   0.98934854   -7.7479521    409.61331  0.021374103   0.02130945            5 
 1598000   0.98562463    -7.760717     408.6856  0.021312349  0.021302875            5 
 1599000    1.0250036   -7.7842602     409.2197  0.021326855  0.021296206            5 
 1600000   0.99857885    -7.780633    408.52553  0.021277372  0.021289644            3 
 1601000   0.97579602   -7.7472697    409.48298  0.021313917  0.021283162            3 
 1602000   0.99034554   -7.7547027    409.66236  0.021309944  0.021276734            3 
 1603000    0.9877062    -7.748124     409.0948  0.021267145  0.021270318            3 
 1604000   0.97966034   -7.7734196    410.94943  0.021350241  0.021263876            3 
 1605000    1.0172161   -7.7782831    409.89538  0.021282211  0.021257434            7 
 1606000    1.0022276   -7.7417797    410.28369  0.021289108  0.021251036            3 
 1607000   0.99459423   -7.7733873    410.02954  0.021262681  0.021244639            3 
 1608000   0.99710417    -7.776526    410.60691   0.02127938  0.021238225            3 
 1609000   0.97085665   -7.7713415    411.14771  0.021294164  0.021231658            3 
 1610000    1.0015692   -7.8045217    409.89717   0.02121621  0.021225118            3 
 1611000   0.99622182   -7.7731733    410.89611  0.021254713  0.021218635            6 
 1612000    1.0128943    -7.744598    411.88243  0.021292516  0.021212209            6 
 1613000   0.98060589   -7.7485701    411.92874  0.021281708   0.02120575            2 
 1614000    1.0129179   -7.7583141    412.21378  0.021283239  0.021199344            4 
 1615000   0.97489824   -7.7821981    410.87494  0.021200977   0.02119288            6 
 1616000    0.9630708   -7.8071542    412.59466   0.02127654   0.02118639            3 
 1617000   0.98439531   -7.7964143    411.53174  0.021208603  0.021179872            4 
 1618000    0.9983568   -7.8091242    413.53629  0.021298738  0.021173394            6 
 1619000    1.0047167   -7.7895254    413.11914   0.02126411  0.021166903            6 
 1620000    1.0150103   -7.8008516    412.06992  0.021197012  0.021160377            4 
 1621000    1.0096657   -7.8179412    412.40592  0.021201209  0.021153796            3 
 1622000   0.99795286   -7.8102687    412.61985  0.021199129   0.02114724            3 
 1623000     1.006931   -7.7943365     413.5478  0.021233713  0.021140756            5 
 1624000    0.9920364   -7.7679396     413.5562  0.021221069  0.021134303            3 
 1625000   0.99366662   -7.7850083    414.13546  0.021237716  0.021127815            2 
 1626000   0.98509359   -7.7941497    414.60895  0.021248921  0.021121472            7 
 1627000    1.0017878   -7.7877468     413.8954  0.021199314  0.021115184            4 
 1628000    1.0253653   -7.7840854    414.04172  0.021193782  0.021108858            2 
 1629000    0.9934469   -7.8028925    413.35671  0.021145729  0.021102574            4 
 1630000   0.98236891   -7.7941379    414.97213  0.021215344   0.02109623            5 
 1631000   0.99646178    -7.765284    414.78008  0.021192524  0.021089922            2 
 1632000   0.99063359   -7.7718604    414.88923  0.021185112  0.021083697            2 
 1633000    1.0010887   -7.7770248    415.63591  0.021210242  0.021077387            2 
 1634000   0.98330073   -7.8045252    414.69214   0.02114913   0.02107105            5 
 1635000   0.96353534   -7.7798432    415.49378  0.021177053  0.021064763            5 
 1636000   0.97689004   -7.7845758    415.91493  0.021185561  0.021058582            4 
 1637000   0.95850381   -7.7880784    415.69633  0.021161491  0.021052354            4 
 1638000   0.98851742   -7.8194578    415.82167  0.021154949  0.021046149            2 
 1639000   0.98943683   -7.8277086    416.29289     0.021166  0.021039919            3 
 1640000   0.97542933   -7.7667142    417.28163  0.021203335  0.021033732            1 
 1641000   0.98946694   -7.7990209     416.6552  0.021158602  0.021027493            2 
 1642000     1.004602   -7.7890263    416.71435  0.021148719  0.021021247            2 
 1643000   0.96232775    -7.782521    417.42626  0.021171955  0.021015043            2 
 1644000   0.97838332   -7.7736088    417.07526  0.021141285  0.021008769            5 
 1645000   0.99145648   -7.7719895    416.93447    0.0211213  0.021002594            6 
 1646000   0.99677568    -7.796599    416.95619  0.021109568  0.020996323            3 
 1647000   0.99016237   -7.7895672     418.1679   0.02115806  0.020990026            3 
 1648000    1.0057191   -7.7948847    415.84066  0.021027542  0.020983777            9 
 1649000   0.98791457   -7.7781112    417.72816  0.021110176  0.020977527            2 
 1650000   0.99468389   -7.7642617     418.2987  0.021126197  0.020971276            4 
 1651000   0.99110275   -7.7999491     417.4364  0.021069877  0.020965014            4 
 1652000   0.97514134   -7.8219738     416.9808   0.02103414  0.020958766            5 
 1653000    1.0034445   -7.7724554    419.26698   0.02113667  0.020952528            3 
 1654000   0.99007002   -7.7579913    418.43946  0.021082198  0.020946242            6 
 1655000   0.96982712   -7.8129388    417.59257  0.021026816  0.020939962            2 
 1656000   0.99402757   -7.8225727    417.29988   0.02099939  0.020933579            5 
 1657000   0.98187588   -7.7995201    418.34292  0.021039173  0.020927205            3 
 1658000   0.98015386   -7.7743839    417.19457  0.020968766  0.020920858            1 
 1659000   0.98836588    -7.795276    417.57771  0.020975372   0.02091446            8 
 1660000   0.98430935   -7.7810795    418.92421  0.021030332   0.02090805           11 
 1661000   0.98501261    -7.785222    418.48279  0.020995524  0.020901782            4 
 1662000   0.99041346   -7.7748029    419.61849  0.021039836  0.020895449            4 
 1663000   0.98144874   -7.7381814    419.84382  0.021038476  0.020889187            2 
 1664000    1.0170217   -7.7555839    418.96922  0.020982032     0.020883            3 
 1665000   0.97880975   -7.7802236     418.4334  0.020942612  0.020876761            2 
 1666000    0.9876445   -7.8124345     418.3374   0.02092524   0.02087047            2 
 1667000   0.99456869    -7.823347     418.3355  0.020912593  0.020864117            3 
 1668000   0.98545586    -7.795238    419.20003  0.020943247  0.020857748            4 
 1669000   0.98335183   -7.8258671    419.63813  0.020952573  0.020851405            2 
 1670000   0.99343899   -7.8153143    418.68878  0.020892654  0.020845129            2 
 1671000   0.95247365   -7.8308552    420.35458  0.020963224  0.020838844            7 
 1672000   0.98336424    -7.813961    419.39939   0.02090308    0.0208326            5 
 1673000   0.97601843   -7.8337504    419.70777  0.020905946  0.020826337            9 
 1674000    0.9853625   -7.8021118    420.75611  0.020945645   0.02082011            3 
 1675000   0.99770341   -7.8322744    421.52214  0.020971251  0.020813895            5 
 1676000   0.98056452   -7.8188167    420.08947  0.020887503   0.02080774            7 
 1677000   0.96512696   -7.8160145    420.42815  0.020891878  0.020801472            6 
 1678000    0.9945236   -7.8268826    420.67632  0.020891752  0.020795184            6 
 1679000   0.99758125   -7.8158528    421.61173  0.020925736  0.020788872            3 
 1680000   0.98541482   -7.8135983    420.18053  0.020842288  0.020782483            4 
 1681000    1.0002195   -7.8026323    421.02501  0.020871753  0.020776118            3 
 1682000   0.98201424   -7.8174224    421.56023  0.020885861  0.020769809            4 
 1683000   0.97520341   -7.8146594    421.27979  0.020859566  0.020763519            6 
 1684000   0.99003562   -7.8188285    420.86444  0.020826625  0.020757173            3 
 1685000   0.97862332   -7.8169149    421.24714  0.020833192  0.020750872            3 
 1686000   0.98725578   -7.8561184    421.55552  0.020836078  0.020744568            7 
 1687000   0.95909833   -7.8225513    420.63956  0.020778481   0.02073826            2 
 1688000   0.97694538   -7.7900985    421.90406  0.020828597  0.020731945            3 
 1689000   0.97050704   -7.7824526     422.6812  0.020854608  0.020725713            5 
 1690000   0.98963358   -7.8031789    421.67762  0.020792782  0.020719531            5 
 1691000   0.99367291   -7.8231107    422.11009  0.020801798  0.020713271            4 
 1692000    1.0037641   -7.8052506    422.47498  0.020807475  0.020707017            7 
 1693000   0.96196789   -7.7950699    422.97841  0.020819965  0.020700688            3 
 1694000   0.98368198   -7.8154912    423.27799  0.020822412  0.020694492            4 
 1695000   0.96045465   -7.8124202    424.01755  0.020846487  0.020688334            2 
 1696000   0.96576946   -7.8288604    422.44012  0.020756688  0.020682115            3 
 1697000   0.98707471   -7.8149399    423.31575  0.020787456   0.02067596            3 
 1698000   0.97612917   -7.8020883    423.63797  0.020791027  0.020669737            4 
 1699000   0.95011399    -7.801358    424.19498  0.020806111  0.020663462            3 
 1700000    0.9780445   -7.8174643    423.31618  0.020750793  0.020657216            4 
 1701000   0.99441512   -7.8698002    422.74882  0.020710799  0.020650848            4 
 1702000    0.9783322   -7.8188107    424.76837  0.020797511  0.020644474            5 
 1703000   0.98397606   -7.7913517    425.46609  0.020819441  0.020638256            4 
 1704000   0.97422734   -7.8374076     423.1687   0.02069487  0.020632033            3 
 1705000   0.98090354   -7.8249138    424.46228  0.020745957  0.020625776            2 
 1706000   0.98078815   -7.8469589    424.76104   0.02074839   0.02061957            3 
 1707000   0.94767785   -7.8106234    424.63556  0.020730109  0.020613377            3 
 1708000   0.97500407   -7.8173109    424.96503  0.020734047  0.020607199            4 
 1709000    0.9626566   -7.8249746    425.14467  0.020730674  0.020601068            3 
 1710000   0.99944256   -7.8358786    425.93193  0.020756916  0.020594883            3 
 1711000   0.97735923   -7.8004165    425.64074  0.020730603  0.020588726            5 
 1712000   0.97692941   -7.8318563    425.68369  0.020720584  0.020582566            2 
 1713000   0.97940942   -7.8254234     425.2243   0.02068614  0.020576303            3 
 1714000   0.97623627   -7.8242954    424.95383  0.020660921  0.020569988            2 
 1715000   0.96643909   -7.8518335    425.26509  0.020663998  0.020563716            5 
 1716000   0.96128274   -7.8475038    425.03644  0.020640853   0.02055743            3 
 1717000   0.95028896     -7.87988    424.51316  0.020603434  0.020551136            4 
 1718000   0.97283638   -7.8258632    426.55618   0.02069054  0.020544894            4 
 1719000   0.96805018   -7.8417087    426.43805  0.020672777  0.020538694            5 
 1720000   0.97066694   -7.8247881    426.03429  0.020641196  0.020532441            3 
 1721000   0.96968523   -7.8068818    426.77965  0.020665294  0.020526261            6 
 1722000    0.9929131   -7.8021106    426.46224  0.020637932  0.020520018            4 
 1723000   0.97621825   -7.8612073      425.692  0.020588702  0.020513745            4 
 1724000   0.97690579   -7.8616505     426.5835  0.020619852  0.020507413            2 
 1725000   0.97400064     -7.82487    425.60942  0.020560841  0.020501038            4 
 1726000   0.98854954    -7.830459    425.48571  0.020542956  0.020494686            2 
 1727000   0.97000403   -7.8394429    426.36327  0.020573406   0.02048837            3 
 1728000   0.97811422   -7.8387275    426.22146  0.020554662  0.020482064            5 
 1729000   0.98507718   -7.8106145    426.75391  0.020568436  0.020475639            5 
 1730000   0.96779505   -7.8420341    427.14491  0.020575381  0.020469304            4 
 1731000   0.98833505   -7.8622118     426.6621  0.020540251  0.020462916            3 
 1732000   0.96967631   -7.8593517    426.51167  0.020521154  0.020456577            3 
 1733000   0.96518319   -7.8131104    428.24446  0.020592636  0.020450262            2 
 1734000    0.9487708   -7.8383592    427.14156  0.020527757  0.020443888            3 
 1735000   0.97264576   -7.8440761    426.14958   0.02046828  0.020437579            3 
 1736000   0.95937301   -7.8000274    428.05689  0.020548046  0.020431223            3 
 1737000   0.96830382   -7.7937824    428.53641  0.020559221  0.020424824            3 
 1738000   0.99628055   -7.8194111     426.7608  0.020462255  0.020418409            3 
 1739000   0.98609039    -7.857446    426.14941  0.020421191  0.020411995            3 
 1740000   0.97443519   -7.8588344    426.43082  0.020422932  0.020405652            5 
 1741000   0.97360508   -7.8533151     426.9634  0.020436693  0.020399234            6 
 1742000   0.97944179   -7.8435803    427.50765  0.020450997  0.020392768            5 
 1743000   0.98482905   -7.8139882    427.70418   0.02044866  0.020386379            3 
 1744000   0.96162998   -7.8413987    426.25739  0.020367803  0.020379958            4 
 1745000   0.96034609   -7.8570417    427.54005  0.020417386  0.020373484            4 
 1746000   0.93878936   -7.8558691    427.16424  0.020387755  0.020366943            4 
 1747000   0.98083658   -7.8165088     429.9152  0.020507308  0.020360539            1 
 1748000   0.96803041   -7.8325277    428.27082  0.020417182  0.020354219            2 
 1749000    0.9874311    -7.838185     429.2755  0.020453378  0.020347852            4 
 1750000    1.0093867   -7.8437512    427.81131  0.020371967  0.020341508            4 
 1751000   0.95406276   -7.8243194    428.08891  0.020373544  0.020335139            2 
 1752000   0.97181087   -7.8656719    427.62098  0.020339658  0.020328734            4 
 1753000   0.95902102   -7.8170097    428.60014  0.020374603  0.020322417            8 
 1754000   0.97745834   -7.8178562    428.73843  0.020369557  0.020316149            2 
 1755000   0.97291284    -7.867022    429.88059  0.020412184  0.020309865            4 
 1756000   0.96779853   -7.8460142    430.74708   0.02044168  0.020303634            4 
 1757000     1.001974    -7.810513    430.19144  0.020403692  0.020297438            4 
 1758000   0.97626018   -7.8434623    431.09427  0.020434882   0.02029124            2 
 1759000   0.94702746   -7.8407646    429.35999  0.020341102     0.020285            7 
 1760000   0.96006243   -7.8515455    429.84269    0.0203524  0.020278711            4 
 1761000   0.94936214   -7.8567492    430.97727  0.020394533   0.02027249            2 
 1762000   0.98884095   -7.8571732     429.9996   0.02033672  0.020266157            2 
 1763000   0.94908334   -7.8624395    429.76067  0.020313891  0.020259821            5 
 1764000   0.94603402    -7.826456    431.53151  0.020386031  0.020253513            2 
 1765000   0.97893694   -7.8674676    430.05773  0.020304897  0.020247231            3 
 1766000   0.98426637   -7.8213298    431.87829  0.020379308  0.020240875            3 
 1767000   0.96587764    -7.853122     430.9206  0.020322609  0.020234534            3 
 1768000   0.96744198   -7.8561204    430.14347  0.020274485  0.020228205            2 
 1769000   0.96638681   -7.8571118    431.37269  0.020320929  0.020221933            3 
 1770000   0.96025842   -7.8370614     431.2121  0.020301888  0.020215673            3 
 1771000   0.97360914   -7.8582561    430.98549  0.020279761   0.02020936            3 
 1772000   0.96011746   -7.8419823    431.59775   0.02029711  0.020203122            3 
 1773000   0.97544681   -7.8695208    430.57615  0.020237646  0.020196845            4 
 1774000   0.96785125   -7.8450643     431.4181  0.020265788  0.020190551            4 
 1775000   0.96141053   -7.8243989    433.09279  0.020332995  0.020184356            3 
 1776000    0.9656526   -7.8285311    432.93747  0.020314258  0.020178111            6 
 1777000   0.95558362   -7.8462301    432.61645  0.020287772  0.020171913            2 
 1778000   0.97858689   -7.8788525    432.42034   0.02026717  0.020165634            2 
 1779000   0.97285718   -7.8707932    433.14823  0.020289874  0.020159365            2 
 1780000   0.98715739   -7.8344873    432.90458  0.020267068  0.020153145            4 
 1781000   0.97223007   -7.8381683     432.8712  0.020254127   0.02014693            4 
 1782000   0.95719168   -7.8266812    433.17234  0.020256844  0.020140747            3 
 1783000   0.96219906   -7.8344807    434.12069  0.020289806   0.02013453            4 
 1784000   0.94832212   -7.8518733    433.18581  0.020234763  0.020128328            2 
 1785000    0.9608683   -7.8591025    434.45021  0.020282456  0.020122206            3 
 1786000   0.96845604   -7.8598891    434.12793  0.020256063  0.020116024            1 
 1787000   0.96235647   -7.8745068     434.2864  0.020252117  0.020109811            7 
 1788000   0.96615753   -7.8631428     433.4174  0.020200289  0.020103589           11 
 1789000   0.96587391   -7.8684555    433.44815   0.02019043  0.020097392            8 
 1790000   0.98442634    -7.833414    434.32766  0.020220096  0.020091211            2 
 1791000   0.96049888   -7.8877952    433.43374  0.020167213  0.020085055            2 
 1792000   0.95485588    -7.814928    434.33893  0.020198053  0.020078851            6 
 1793000   0.95608744   -7.8379293    433.83208  0.020163231  0.020072568            5 
 1794000   0.96986743   -7.8530749     434.9941  0.020205969   0.02006627            6 
 1795000   0.98322181   -7.8795823    433.83878  0.020141076   0.02005998           19 
 1796000   0.97060465   -7.9108375    433.48117  0.020113269  0.020053704            6 
 1797000   0.95504319   -7.8715123    434.16719  0.020133889  0.020047471            3 
 1798000    0.9220201   -7.8997445    434.10329   0.02011973  0.020041161            4 
 1799000   0.96928258   -7.9024478    433.85514  0.020097051   0.02003485            4 
 1800000   0.96652807    -7.863813    435.88663  0.020179936  0.020028515            2 
 1801000   0.97868996   -7.8626412    435.07651  0.020131247  0.020022166            3 
 1802000   0.96936786    -7.873578    435.57639  0.020143192  0.020015799            8 
 1803000   0.95717367   -7.8836658    433.66335  0.020043601  0.020009508            5 
 1804000   0.93540595   -7.8439405    434.62887  0.020077091  0.020003082            2 
 1805000   0.95031583   -7.8736108    433.74904  0.020025348   0.01999669            7 
 1806000   0.96588316    -7.867724    435.33229  0.020087315  0.019990329            4 
 1807000   0.98037087   -7.8645562    435.31775  0.020075528  0.019984019            7 
 1808000   0.96878368   -7.8554264    435.38269  0.020067417  0.019977724            4 
 1809000   0.94892668   -7.8413947    436.77909  0.020120651   0.01997145            2 
 1810000   0.94280174   -7.8727701    436.15194   0.02008066  0.019965209            2 
 1811000   0.94353897   -7.8832952    435.15099  0.020023513  0.019958884            4 
 1812000   0.96175276   -7.8812068     435.5442  0.020030547  0.019952558            4 
 1813000   0.96336914   -7.8669523    435.94088  0.020037731  0.019946262            4 
 1814000     0.964797   -7.8882375    435.33318  0.019998768  0.019939965            5 
 1815000   0.96337431   -7.8785999    434.74715  0.019960843  0.019933566            2 
 1816000   0.96135188   -7.8821291    435.35022  0.019977525  0.019927168            3 
 1817000   0.95805723   -7.8593414    437.20956  0.020051805  0.019920832            6 
 1818000   0.95398998   -7.8660206    436.13757  0.019991638   0.01991454            4 
 1819000   0.96034153   -7.8577175    436.53331  0.019998777  0.019908287            3 
 1820000   0.96563228   -7.8849151    438.50113  0.020077891  0.019901931            5 
 1821000   0.96574476   -7.8455129    437.28413  0.020011172  0.019895674            2 
 1822000     0.977568   -7.8208056    438.28291  0.020045871  0.019889392            5 
 1823000   0.94871298   -7.8588235    436.41769  0.019949611  0.019883169            3 
 1824000   0.96107838   -7.8121184    437.86958  0.020005006  0.019876883            3 
 1825000   0.96893922   -7.8620882    436.98456  0.019953633  0.019870665            1 
 1826000   0.94125323    -7.874935    436.44969  0.019918296  0.019864304            9 
 1827000    0.9609012   -7.8666564    436.99875  0.019932437  0.019857896            2 
 1828000   0.96479135   -7.9085113    436.53221  0.019900265  0.019851498            6 
 1829000   0.96413131    -7.850302    438.48044   0.01997815  0.019845186            5 
 1830000   0.96961127   -7.9490841    435.65018  0.019838351  0.019838858            2 
 1831000   0.95685994   -7.8755222     438.4149  0.019953345   0.01983248            7 
 1832000   0.96601906    -7.909936    436.63026  0.019861275  0.019826199            4 
 1833000   0.94980898    -7.914844    438.34521  0.019928406  0.019819801            4 
 1834000   0.97008023   -7.9125728    437.78241  0.019891967   0.01981339            7 
 1835000   0.95093611   -7.8391477    437.68883  0.019876877  0.019806976            5 
 1836000   0.96894381   -7.8640809    438.78805  0.019915943  0.019800665            5 
 1837000    0.9353531   -7.8756111    436.78254  0.019814124   0.01979436            4 
 1838000   0.95824021    -7.866966    438.42293  0.019877717  0.019788007            3 
 1839000   0.96492247   -7.8514323    440.06549   0.01994134  0.019781737            3 
 1840000   0.93688601   -7.8833053    437.29617   0.01980508  0.019775363            3 
 1841000   0.98034849   -7.8577998    437.83225  0.019818588  0.019768978           15 
 1842000   0.97504936   -7.8396105      438.602  0.019842653  0.019762657            3 
 1843000   0.96790982   -7.8691499    439.76728  0.019884576  0.019756281            4 
 1844000   0.96902986   -7.8706945    438.19233  0.019802618  0.019749872            4 
 1845000   0.95063754   -7.9180458    438.18947  0.019791756  0.019743452            4 
 1846000   0.95290783   -7.9098492    438.19715  0.019781381  0.019736997            6 
 1847000   0.95411979   -7.8875061    438.41226  0.019780376   0.01973064            5 
 1848000   0.97022911   -7.8515325    438.84398   0.01978914    0.0197243            3 
 1849000   0.95551122   -7.9153251    439.01331   0.01978607  0.019717974            3 
 1850000   0.95887128   -7.8764729    440.42562  0.019838992  0.019711602            3 
 1851000   0.96687037   -7.8874433    439.49649  0.019786444  0.019705262            3 
 1852000   0.96166708   -7.8812244    440.68676  0.019829318  0.019698991            7 
 1853000   0.94797331   -7.8545886    440.62306  0.019815752  0.019692691            9 
 1854000    0.9552729    -7.871814    440.29527   0.01979033  0.019686347            4 
 1855000   0.96413492   -7.8797224    440.42525  0.019785501  0.019680102            3 
 1856000   0.95395688   -7.8650788    440.57864  0.019781728  0.019673867            8 
 1857000   0.96359587   -7.8708924     440.7228  0.019777544  0.019667595            2 
 1858000   0.96048479   -7.9497872    439.63136  0.019717948  0.019661301            4 
 1859000    0.9507608   -7.8783565     441.2019  0.019777743  0.019655039            3 
 1860000   0.96398139   -7.8791025    442.18366  0.019811096  0.019648872            8 
 1861000   0.93554893   -7.8806959    441.10217  0.019752023  0.019642649            5 
 1862000   0.94092792   -7.9426514    440.14042  0.019698372  0.019636327            2 
 1863000   0.93313695   -7.8944083    440.90258   0.01972189  0.019630018            3 
 1864000   0.96098564   -7.8809896    441.31551  0.019729771  0.019623768            3 
 1865000   0.97344093   -7.9411007    440.58897  0.019686728  0.019617419            5 
 1866000   0.95895674   -7.8997062    441.79347  0.019729969  0.019611162            2 
 1867000   0.95609795   -7.8722764    441.59364  0.019710482  0.019604916            4 
 1868000   0.94304494    -7.893584    441.92936  0.019714907   0.01959863            5 
 1869000   0.93460466   -7.8692138    442.94404  0.019749601  0.019592416            3 
 1870000   0.95580244   -7.8594857    444.11685  0.019791303  0.019586246            3 
 1871000   0.95170245   -7.8976945    442.50819  0.019709076  0.019580116            3 
 1872000   0.96224531   -7.9201391    441.60513  0.019658348  0.019573861            2 
 1873000   0.94690878   -7.9095748    440.72489  0.019608689   0.01956758            3 
 1874000   0.94789266   -7.8779768    443.57345  0.019724896   0.01956131            6 
 1875000   0.95879206   -7.8774455    441.90878   0.01964039   0.01955508           12 
 1876000   0.95937866   -7.8962331    442.25019  0.019645087  0.019548853            2 
 1877000   0.93608232   -7.8910514    442.56679  0.019648677  0.019542623            2 
 1878000    0.9456644   -7.9172386    442.26114  0.019624651  0.019536426            3 
 1879000   0.96581702   -7.9348775    442.12217  0.019608044  0.019530199            7 
 1880000    0.9548176    -7.940607    441.23101  0.019558112   0.01952394           11 
 1881000   0.94364452   -7.9106318    443.10943  0.019630933  0.019517636            5 
 1882000   0.95115759   -7.8900017    443.81369  0.019651687  0.019511378            6 
 1883000   0.94919059   -7.8974755    443.01876   0.01960607  0.019505188            2 
 1884000   0.93575734   -7.9143489    443.06782  0.019597834  0.019498949            5 
 1885000   0.96147535    -7.858269    443.88983  0.019623777  0.019492753            2 
 1886000   0.94044868   -7.8537876    442.53512  0.019553514  0.019486525            7 
 1887000   0.93566291   -7.9065949    444.15841  0.019614839  0.019480301            5 
 1888000    0.9737624   -7.9626775    442.69031   0.01953965   0.01947402            4 
 1889000     0.953861   -7.9422577    443.47072  0.019563734  0.019467751            3 
 1890000   0.94491608   -7.8883201    443.91573  0.019573004  0.019461528            6 
 1891000   0.96778647   -7.9224371    443.09856  0.019526642  0.019455323            5 
 1892000   0.94539953   -7.8823275    444.75051  0.019589082  0.019449127            3 
 1893000   0.94213157   -7.9052791    444.60366  0.019572269  0.019442971            3 
 1894000   0.95142759   -7.9252482     444.5608  0.019560049  0.019436752            3 
 1895000   0.94050047   -7.9482548    444.47764   0.01954607  0.019430469            5 
 1896000   0.96846142   -7.9033626    445.62013  0.019585976  0.019424294            6 
 1897000   0.93049208   -7.9497421    444.94619  0.019546046  0.019418085            8 
 1898000   0.94191566   -7.9721316    444.62337  0.019521574  0.019411843            5 
 1899000   0.94989525   -7.9286228    444.88232  0.019522657  0.019405564            6 
 1900000    0.9323374   -7.9445763    445.23286  0.019527757  0.019399301            4 
 1901000   0.96327485   -7.8873897    445.49438  0.019528949  0.019393156            7 
 1902000    0.9477513   -7.9130485    445.16157    0.0195041  0.019386996            3 
 1903000   0.97357672   -7.9383577    444.75643  0.019476109  0.019380777            4 
 1904000   0.93002592   -7.8987975    446.13271  0.019526117  0.019374511            4 
 1905000    0.9565512   -7.9273934    445.19844  0.019474998   0.01936826            3 
 1906000   0.95674065   -7.8836795    445.01053  0.019456564  0.019362011            3 
 1907000   0.96139891   -7.8987495    445.00962  0.019446322  0.019355803            4 
 1908000    0.9433578   -7.9165019    446.46356  0.019499632  0.019349621            2 
 1909000   0.94260296   -7.8930772    445.81696  0.019461191  0.019343451            5 
 1910000   0.96200047   -7.9390441    444.81122  0.019407121  0.019337251            4 
 1911000   0.94776523   -7.9050749    446.64748   0.01947704  0.019331089            4 
 1912000   0.95573172   -7.8706415    447.53704  0.019505624  0.019324969            9 
 1913000   0.95531212    -7.905959    445.78241  0.019418993  0.019318807            3 
 1914000   0.93645695   -7.9142018    447.26024  0.019473191  0.019312664            5 
 1915000   0.93432826   -7.9183321     446.8848  0.019446684  0.019306536            7 
 1916000   0.92428209   -7.9050341    448.01196  0.019485559  0.019300496            6 
 1917000   0.93784729   -7.9442726    446.80667  0.019422999  0.019294398           10 
 1918000    0.9370452   -7.9351468     446.0865  0.019381582  0.019288231            2 
 1919000   0.95771575   -7.9159841    447.39057  0.019428112  0.019282085            1 
 1920000   0.93064763   -7.9343834    447.71357  0.019432012  0.019275923            4 
 1921000   0.96242474   -7.9328064    446.84016  0.019384008  0.019269809            2 
 1922000   0.94196199   -7.9098322     448.2069  0.019433182  0.019263647            4 
 1923000   0.96477107   -7.8947199    447.69824  0.019401033  0.019257498            5 
 1924000   0.93946858   -7.9081521    449.04083  0.019449101  0.019251391            4 
 1925000   0.94817904   -7.9435893    447.52402  0.019373334   0.01924532            6 
 1926000   0.92019399   -7.9419944    448.12447  0.019389255  0.019239195            4 
 1927000   0.95904361   -7.9451725    446.73168  0.019318962  0.019233108            3 
 1928000   0.95464288   -7.9231631    448.78407  0.019397652  0.019226955            4 
 1929000    0.9598326     -7.90812    448.99508  0.019396712  0.019220928            7 
 1930000   0.94423286   -7.9267898    448.86425  0.019381012  0.019214842            6 
 1931000   0.94983333   -7.8697567    450.09686   0.01942417  0.019208763            9 
 1932000   0.94218405    -7.928492    449.93023  0.019406929  0.019202717            4 
 1933000   0.95693539   -7.9238237    448.59547  0.019339346  0.019196626            8 
 1934000   0.96210608   -7.9316976    448.89603  0.019342297  0.019190461            6 
 1935000    0.9478658   -7.9490897    449.08422  0.019340406  0.019184284            9 
 1936000   0.95826613    -7.902881      449.699  0.019356878  0.019178135           12 
 1937000   0.95820228   -7.9610169    448.31486  0.019287337  0.019171983            4 
 1938000   0.96087392   -7.9447965    449.30465  0.019319945  0.019165824            8 
 1939000   0.93151156   -7.9744336    448.28506  0.019266162  0.019159605           11 
 1940000   0.95091387   -7.9468825    448.12118  0.019249192  0.019153436            6 
 1941000   0.93978559    -7.937883    449.08995  0.019280867  0.019147242            4 
 1942000   0.92838437   -7.9605599    448.66598  0.019252746   0.01914106            8 
 1943000   0.95112936   -7.9283488    450.61431  0.019326399  0.019134872            4 
 1944000   0.92347819   -7.9504063    448.68354  0.019233691  0.019128698            8 
 1945000   0.91529848   -7.9442538     448.7292  0.019225758   0.01912246            3 
 1946000   0.93118376   -7.9694806     447.4445  0.019160864   0.01911619            6 
 1947000    0.9462617   -7.9413582    449.02749  0.019218776  0.019109962           16 
 1948000   0.94373535   -7.9428771    449.51954   0.01922996  0.019103747            4 
 1949000   0.93102155    -7.935843    449.43352  0.019216415  0.019097577           20 
 1950000    0.9228079   -7.9344379    449.11941  0.019193137  0.019091369            4 
 1951000   0.95159041   -7.9677317    448.42364  0.019153581   0.01908511            5 
 1952000   0.94149499   -7.9736382    448.89826  0.019164031  0.019078877            3 
 1953000   0.95065658   -7.9562795    449.56531  0.019182681  0.019072605            4 
 1954000    0.9475818   -7.9193171    449.68484  0.019177962   0.01906639            7 
 1955000   0.93473996   -7.9476467    450.41046  0.019199082   0.01906017            4 
 1956000   0.93449824   -7.9405769    450.07573  0.019175006   0.01905397            3 
 1957000   0.90931504     -7.99502    447.91752  0.019073306  0.019047732            3 
 1958000   0.94561797   -7.9411313    448.83033  0.019102414  0.019041442           13 
 1959000   0.92558123   -7.9362465    448.87256   0.01909446  0.019035185            6 
 1960000   0.93552505   -7.9272728     449.5147  0.019112019  0.019028946            5 
 1961000   0.92665216   -7.9256309    450.51147  0.019144632  0.019022776            4 
 1962000   0.91053962   -7.8916388    452.03111  0.019199418  0.019016632            1 
 1963000   0.94028871   -7.9248421    450.31827  0.019116924  0.019010498            2 
 1964000   0.94243263   -7.9360621    450.43393  0.019112098   0.01900434            3 
 1965000   0.92519683   -7.9116365    451.24715   0.01913686  0.018998175            6 
 1966000   0.92666911   -7.9459683    451.56849  0.019140746   0.01899196            3 
 1967000   0.91761383   -7.9045216     450.4494  0.019083604  0.018985773            6 
 1968000   0.92822684   -7.9086415    451.93751   0.01913692  0.018979595            7 
 1969000   0.96606292   -7.9346943    451.73918  0.019118807  0.018973465            8 
 1970000   0.93300595   -7.9289595    451.20754  0.019086613  0.018967306            4 
 1971000   0.93932252   -7.9514494    451.27509  0.019079786  0.018961109            4 
 1972000    0.9417928    -7.962008    450.87306  0.019053121  0.018954872            5 
 1973000   0.91304724    -7.927843    452.78772  0.019124334  0.018948709           10 
 1974000   0.94363867   -7.9838219    451.21888  0.019048416  0.018942479            4 
 1975000   0.93716906    -7.929248    452.66982  0.019099992  0.018936258            3 
 1976000   0.94120036    -7.957224    451.52299  0.019041962  0.018930022            5 
 1977000   0.94099984   -7.9464284    452.77335  0.019085034  0.018923789            2 
 1978000   0.95622445   -7.9808761    450.84375  0.018994091  0.018917602            2 
 1979000   0.94613157   -7.9590111    453.06537  0.019078043  0.018911419            6 
 1980000   0.94558171   -7.9639799    452.81108  0.019057706  0.018905283           13 
 1981000   0.92703626   -7.9463442    452.97307  0.019054899  0.018899133            3 
 1982000   0.91797269   -7.9294435     454.4095   0.01910568  0.018893011            6 
 1983000   0.95093184   -7.9450854    452.90887  0.019032983  0.018886929            3 
 1984000   0.93744187   -7.9632123    452.82375  0.019019815   0.01888081            3 
 1985000   0.92374216   -7.9714598     452.1372  0.018981411  0.018874634            5 
 1986000   0.93549236   -7.9778542    451.86679  0.018960506  0.018868477            4 
 1987000   0.91415871   -7.9499001    453.52774  0.019020623  0.018862343            2 
 1988000   0.92879523   -7.9759579    453.38846  0.019005217  0.018856244            2 
 1989000   0.93967896   -7.9626272    452.52438   0.01895946  0.018850128           10 
 1990000   0.92647697   -7.9579503    454.00421  0.019011902  0.018844017            4 
 1991000   0.93345979   -7.9785559    454.42768  0.019020077  0.018837925            6 
 1992000   0.94408323   -7.9657086    452.44226  0.018927471  0.018831808            5 
 1993000   0.92930612   -7.9658588    453.92047  0.018979782  0.018825649            6 
 1994000   0.92680674   -7.9307994    453.51837  0.018953459  0.018819527            3 
 1995000   0.93350783   -7.9810894    452.61048  0.018906035  0.018813375            7 
 1996000   0.91181923   -7.9563492    454.37234  0.018970121  0.018807223           13 
 1997000   0.92936541   -7.9979673    453.84651  0.018938679  0.018801097            6 
 1998000   0.94824626   -7.9361624    453.30322  0.018906541  0.018794956            5 
 1999000    0.9202168   -7.9631798    454.15824  0.018932726  0.018788767            3 
 2000000   0.93226616   -7.9958879    452.64934  0.018860389  0.018782621            5 
 2001000   0.93415029   -7.9173811     455.4861  0.018969103   0.01877653            2 
 2002000   0.92956698   -8.0048011    453.25445  0.018866736  0.018770451            5 
 2003000   0.94441028   -7.9189923    454.80231  0.018921714  0.018764385            4 
 2004000    0.9331174   -7.9209597    455.17654  0.018927834  0.018758286            5 
 2005000   0.92999501   -7.9256929    455.11198   0.01891571  0.018752222           13 
 2006000   0.92164168   -7.9078791    454.84119  0.018895031  0.018746223           12 
 2007000   0.92150315   -7.9674112    455.76361  0.018923917  0.018740202            3 
 2008000   0.93827159   -7.9660436    454.64119  0.018867911  0.018734104            3 
 2009000   0.94834476   -7.9733004     454.6437  0.018858624  0.018727972            3 
 2010000   0.94365712   -7.9518822    454.20212  0.018830934  0.018721834            7 
 2011000   0.93115249   -7.9594321    455.40544  0.018871434  0.018715739            4 
 2012000   0.94478723   -8.0125667    454.61664  0.018829384  0.018709604            4 
 2013000   0.93929481   -7.9759577    456.02654  0.018878396  0.018703489            4 
 2014000   0.92231312   -7.9677671    455.72321  0.018856472  0.018697396            6 
 2015000   0.91168198   -7.9678438    455.57122  0.018840828  0.018691313            3 
 2016000   0.93142505   -7.9331773    455.67384  0.018835724  0.018685221            2 
 2017000   0.91467006   -7.9609225    455.71801   0.01882821  0.018679157            7 
 2018000    0.9205307   -7.9849572    455.39052  0.018805357  0.018673045            3 
 2019000   0.93371955    -7.960972    455.90966   0.01881747  0.018666929            4 
 2020000   0.92421597   -7.9338986     457.4648   0.01887231  0.018660872            3 
 2021000   0.91251858   -7.9545052    457.58127  0.018867775  0.018654805            5 
 2022000   0.91730704   -8.0017935    455.13143  0.018757477  0.018648713            2 
 2023000   0.89881404   -8.0036552    455.46811  0.018762074  0.018642594            1 
 2024000   0.93565544    -7.973129    455.56798  0.018756916  0.018636494            2 
 2025000   0.91534283     -7.98554     456.2283  0.018774827  0.018630408            4 
 2026000   0.91521856   -7.9645127    456.58683  0.018780307  0.018624361            6 
 2027000   0.92536751   -8.0130243     457.1001  0.018792143  0.018618322            8 
 2028000   0.90865595   -7.9649875    456.62224  0.018763241  0.018612254            4 
 2029000   0.94453235   -7.9831198    456.54718  0.018750911   0.01860615            5 
 2030000    0.9319259   -7.9565944    457.25625  0.018770782  0.018600065           13 
 2031000   0.93407896   -7.9622248    457.71822  0.018780495  0.018594009           11 
 2032000   0.92052503   -7.9825946    458.24448  0.018792835  0.018587946           13 
 2033000   0.91914605    -7.975839    458.40774  0.018790283  0.018581914           11 
 2034000   0.91989917   -8.0100859     456.1373  0.018688024  0.018575849           13 
 2035000   0.91709992   -7.9758816    456.83424  0.018707381  0.018569812            5 
 2036000   0.95506686   -7.9691377    456.93801   0.01870244   0.01856373            4 
 2037000   0.92263232     -8.00143    456.46268  0.018673813  0.018557659            5 
 2038000   0.92340445   -7.9878098    457.80633  0.018719592   0.01855161            3 
 2039000   0.92445743   -7.9662161    459.33109  0.018772727  0.018545621            3 
 2040000   0.92335841   -7.9815863    457.70852  0.018697244  0.018539616            6 
 2041000   0.92448156   -7.9790191    459.40877  0.018757503  0.018533592            3 
 2042000   0.93873231   -7.9243943    459.43317  0.018749313  0.018527644            8 
 2043000   0.93072669   -7.9571832    458.88158  0.018717637  0.018521682            4 
 2044000   0.94368603   -7.9641529    458.03235  0.018673856  0.018515627            8 
 2045000    0.9289153   -8.0227008    457.33815  0.018636436  0.018509563           10 
 2046000   0.91636213   -7.9930374     459.2177  0.018703882  0.018503434           12 
 2047000   0.91066191   -7.9604599    458.53233  0.018666843  0.018497389            2 
 2048000   0.92641764   -7.9525867    457.64001   0.01862142  0.018491314            2 
 2049000   0.92854934   -7.9772388    458.49952  0.018647288  0.018485243            6 
 2050000   0.91732968   -7.9612758    460.02012  0.018700005  0.018479159            3 
 2051000   0.92713356    -7.991827     458.8247  0.018642317  0.018473139            2 
 2052000   0.91388857   -7.9827586     459.3233   0.01865348   0.01846711            7 
 2053000   0.93549966   -7.9749287    458.97405  0.018630218  0.018461044            4 
 2054000    0.9137709   -7.9974039    458.20962  0.018590134  0.018454999           12 
 2055000   0.91230118   -7.9950842     457.6062  0.018556618  0.018448923            5 
 2056000   0.93534064   -8.0185296    458.34221  0.018577424  0.018442786            7 
 2057000   0.93282922   -8.0610596    457.66988  0.018541155  0.018436566            4 
 2058000   0.89459466   -8.0231088    458.38324  0.018561032  0.018430383            5 
 2059000   0.91778689   -7.9956668    458.46034  0.018555138  0.018424197            3 
 2060000   0.93056089   -7.9942864     458.4026  0.018543794  0.018417995            3 
 2061000   0.94265851   -7.9969335    458.73572  0.018548266  0.018411886            6 
 2062000   0.91790324   -7.9826966    460.09239  0.018594099  0.018405754            3 
 2063000   0.91217869   -7.9940669    458.75287  0.018530977  0.018399662            5 
 2064000   0.88612462   -7.9559144    460.38621  0.018587945  0.018393576            6 
 2065000   0.92719571   -7.9778799     460.1146  0.018567982  0.018387494           14 
 2066000   0.93843076   -7.9914719     459.1779  0.018521213  0.018381377            5 
 2067000   0.90046345   -8.0197388    459.60358  0.018529414  0.018375248            3 
 2068000   0.92526401    -7.998332    459.47358  0.018515215  0.018369135            5 
 2069000   0.91455101    -8.003186     459.1272  0.018492315  0.018363007            5 
 2070000   0.90506554   -8.0147257    458.72274  0.018467099  0.018356868            3 
 2071000   0.90949533    -7.961866    459.73941  0.018499091  0.018350746            3 
 2072000   0.90829959   -7.9725077    459.55313  0.018482671  0.018344588            7 
 2073000     0.914447   -7.9621753    459.02967  0.018452712  0.018338491            3 
 2074000   0.93387236   -7.9560897    460.02027  0.018483617  0.018332418            4 
 2075000   0.92622632   -7.9853942    459.49981  0.018453807  0.018326294           12 
 2076000   0.92425021   -7.9739038    460.99301  0.018504857  0.018320195           10 
 2077000   0.91863265   -7.9753756    461.05328  0.018498366  0.018314088            2 
 2078000   0.92941135   -8.0037613    459.84096  0.018440847  0.018307954            6 
 2079000   0.89598209   -8.0162452    458.92787  0.018395377  0.018301794            4 
 2080000   0.90931663   -7.9918803    459.52544  0.018410474  0.018295649            9 
 2081000   0.93188734   -7.9825829    459.84817  0.018414551   0.01828947            3 
 2082000   0.92718533   -7.9707125    461.39265  0.018467525  0.018283378            2 
 2083000   0.90698632   -8.0041946    459.88633  0.018398397  0.018277292            4 
 2084000    0.9126235   -8.0132812     460.0927  0.018397821  0.018271141            5 
 2085000   0.92179346    -7.992823    460.98818  0.018424787  0.018265015            5 
 2086000   0.91928999   -7.9788504    460.51688  0.018397127  0.018258893            3 
 2087000   0.91530685   -8.0111986    460.40257  0.018383747  0.018252756            4 
 2088000   0.92539176   -8.0125268    460.43722  0.018376326  0.018246588            5 
 2089000   0.92367685   -8.0135611    460.98235  0.018389275  0.018240403            5 
 2090000   0.92407525   -8.0340275    459.37141  0.018316244  0.018234216            7 
 2091000   0.92784592   -8.0001449    460.34487  0.018346281  0.018228047            7 
 2092000   0.91021343   -7.9865299    461.94137  0.018401106   0.01822192            4 
 2093000   0.95303258   -7.9895415    461.94907  0.018392621  0.018215877            5 
 2094000   0.88522289   -8.0166513     462.1764  0.018392884  0.018209851            3 
 2095000   0.91427048   -7.9887345    461.82521  0.018370136  0.018203741            4 
 2096000   0.93738038   -8.0037454    462.19141  0.018375931  0.018197603            5 
 2097000   0.89548696   -8.0082512    460.86466  0.018314443  0.018191492            6 
 2098000   0.90037621   -7.9809503    461.53219  0.018332229   0.01818541            5 
 2099000   0.90620325   -8.0285334    461.98215  0.018341359  0.018179376            5 
 2100000   0.91425937   -8.0120427     461.3669   0.01830821  0.018173385            6 
 2101000   0.92612169    -7.996909    463.40314  0.018380261  0.018167378            7 
 2102000   0.89516173   -7.9916127     462.2792  0.018326958  0.018161417           12 
 2103000   0.91132592   -7.9559456    463.11314  0.018351289  0.018155483            6 
 2104000   0.92336722   -8.0074202     463.3267  0.018351026  0.018149532            5 
 2105000   0.92468103   -8.0264313    462.39186  0.018305299  0.018143573            6 
 2106000   0.91030475   -7.9901532    463.61222  0.018344896  0.018137584            2 
 2107000   0.91120773   -7.9868972    464.05125  0.018353554   0.01813162            2 
 2108000   0.90481649   -8.0396727    463.60708  0.018327288  0.018125649            8 
 2109000   0.91438789   -8.0211969    462.54894  0.018276788   0.01811966            8 
 2110000   0.92389717   -8.0068548      463.714  0.018314139  0.018113678           10 
 2111000   0.90697012   -8.0291853    464.11552  0.018321314  0.018107651            7 
 2112000   0.93029102   -7.9882674    464.92239  0.018344476  0.018101715            7 
 2113000    0.9321722   -7.9792274    465.53681  0.018360026  0.018095857            7 
 2114000   0.90131034   -8.0222021    463.81981  0.018283657  0.018089959            5 
 2115000   0.91175963   -8.0068996    464.17841  0.018289142  0.018084012            4 
 2116000   0.90955792   -7.9778282    464.41871  0.018289962  0.018078098            6 
 2117000   0.91943785   -8.0128815    465.05713  0.018306453  0.018072138            5 
 2118000   0.91271911    -8.013393    464.48854  0.018275438  0.018066158            4 
 2119000   0.91810759    -8.028464    462.99535  0.018208091   0.01806018            5 
 2120000   0.90466303   -7.9936443    463.91807  0.018235773  0.018054226            4 
 2121000   0.89742626   -8.0640345    463.26457    0.0182015   0.01804823            6 
 2122000   0.91577877   -8.0036227      465.739  0.018290096  0.018042252            2 
 2123000   0.89348126   -8.0197528    465.42571  0.018269183  0.018036346            5 
 2124000   0.91880248   -8.0133706    466.12909  0.018288179  0.018030433           12 
 2125000   0.90108352   -7.9949267    464.88927  0.018230952  0.018024521            4 
 2126000   0.88481413   -7.9941569    464.99522  0.018226529  0.018018566            6 
 2127000   0.90543844   -8.0365945    463.62489  0.018164272  0.018012594            6 
 2128000   0.91062042    -8.020403    465.40399  0.018225407  0.018006605            2 
 2129000   0.90527856    -7.995226    465.35048  0.018214752  0.018000641            5 
 2130000   0.89740308   -7.9951321    465.89729  0.018227594  0.017994653            4 
 2131000   0.89990555   -7.9769639    466.34634    0.0182366  0.017988714            2 
 2132000   0.90970099   -8.0073058    464.79013  0.018167219  0.017982788            2 
 2133000   0.93076842   -8.0100072    465.18214  0.018174017  0.017976881            4 
 2134000   0.91708198   -8.0036764    465.05507  0.018160539  0.017970997            2 
 2135000   0.90362062    -8.005558    464.76665  0.018140775  0.017965087            3 
 2136000   0.89672194    -8.041066    463.56117  0.018085252   0.01795911            7 
 2137000   0.90422231   -8.0042892    465.75715  0.018162422  0.017953095            3 
 2138000   0.91332828   -7.9830841    466.31807   0.01817579   0.01794708            4 
 2139000   0.90772716   -8.0168108    466.19164  0.018162367  0.017941152            8 
 2140000   0.90345853   -8.0440198     464.5542  0.018090117  0.017935194            6 
 2141000   0.89777071   -7.9996972    466.75708  0.018167409  0.017929208            3 
 2142000   0.90707521   -8.0069795     466.5086  0.018149261  0.017923295           15 
 2143000   0.92434982    -8.011385    467.69682  0.018186997   0.01791745            6 
 2144000    0.9351495   -7.9911373    466.69161  0.018139444   0.01791156            4 
 2145000   0.93888367   -8.0194645    466.87466  0.018138099  0.017905704            5 
 2146000   0.90886948   -8.0282696    466.43178  0.018112449  0.017899831            5 
 2147000   0.91291295   -8.0220749    467.29527  0.018137528  0.017893959            7 
 2148000   0.92123401   -8.0403919     466.9524  0.018115782    0.0178881            5 
 2149000   0.90685678   -8.0070273    467.32681  0.018121871  0.017882204            7 
 2150000   0.90819864    -8.005064    467.23756  0.018109983  0.017876295            3 
 2151000   0.90075231   -7.9813672    467.33296   0.01810526  0.017870399            4 
 2152000   0.93227934   -7.9944086    467.96096  0.018121165  0.017864528            9 
 2153000   0.91805775   -8.0352464    467.15162  0.018081422  0.017858671           10 
 2154000   0.90937437   -7.9998197    467.40322  0.018082761  0.017852823            4 
 2155000   0.91164257    -8.022064    468.37525  0.018111959  0.017846997           10 
 2156000   0.88470971   -7.9893845    467.77607  0.018080398  0.017841179            3 
 2157000   0.90652956   -8.0071318    468.22824  0.018089485  0.017835352            6 
 2158000   0.91726929   -8.0190541     467.8503  0.018066508  0.017829511            3 
 2159000   0.90885071   -8.0786278    467.66925  0.018051152  0.017823653            3 
 2160000   0.89699375   -8.0490859    467.67985  0.018043204  0.017817794            4 
 2161000   0.88732139   -8.0435169    468.11518  0.018051642  0.017811923            6 
 2162000   0.92299006    -8.027964    467.84913  0.018033038  0.017806107            8 
 2163000   0.90963707   -7.9841356    469.23714  0.018078176  0.017800309            6 
 2164000   0.90627868   -7.9850078    469.41193  0.018076553  0.017794568           11 
 2165000   0.88824588    -7.998708    469.23355  0.018061338  0.017788809            3 
 2166000   0.89990687   -8.0435106    468.77298  0.018035279  0.017783064            3 
 2167000   0.90824658   -8.0751675     467.5846  0.017981257  0.017777233            6 
 2168000   0.91668504   -8.0508086    467.96001  0.017987393  0.017771387            3 
 2169000   0.92452948   -8.0628326    468.25134  0.017990293  0.017765552            4 
 2170000   0.88579619   -8.0389074    468.99991  0.018010749  0.017759714            5 
 2171000   0.90659777   -8.0414081    469.31873  0.018014691  0.017753939            7 
 2172000   0.89297357   -8.0084897    468.14796  0.017961478  0.017748127           14 
 2173000   0.89661451   -8.0002111     469.4944  0.018004847  0.017742359            5 
 2174000    0.8981927   -8.0095195    469.76718  0.018007022  0.017736666            8 
 2175000   0.89938762   -8.0335014    469.48286  0.017987849  0.017730959            5 
 2176000   0.90197775   -8.0227698    470.38171  0.018014005  0.017725238            4 
 2177000    0.8864594   -8.0226269    469.94605  0.017989054  0.017719496            4 
 2178000   0.89121921   -7.9981402    471.01984  0.018021879  0.017713785            4 
 2179000   0.91370486   -8.0278456    471.50525  0.018032173  0.017708112           11 
 2180000   0.89392263    -8.007432    470.20928  0.017974361  0.017702422            6 
 2181000   0.90744513   -8.0514102    470.30044  0.017969603  0.017696737            2 
 2182000   0.91033169   -8.0320173    472.08248  0.018029426  0.017691056            3 
 2183000   0.90121379   -8.0161817    470.64023   0.01796611  0.017685401            2 
 2184000   0.91197415   -8.0009733    472.91618  0.018044726  0.017679787            6 
 2185000   0.90121701   -8.0420917    470.73001   0.01795309  0.017674155            4 
 2186000   0.90862796   -8.0372128    470.20429  0.017924836  0.017668476            3 
 2187000   0.89188806   -8.0407793    470.82387  0.017940248  0.017662796            4 
 2188000   0.88844454    -8.075175    470.30526  0.017912297  0.017657118            9 
 2189000   0.88268739   -8.0588078    472.07625  0.017971534  0.017651424            5 
 2190000   0.89034885   -8.0510218    471.86506  0.017955292  0.017645732            9 
 2191000   0.91357247   -8.0697216    471.11803  0.017918684  0.017640023            3 
 2192000   0.89601766    -8.047281     471.9764  0.017943142  0.017634335            9 
 2193000    0.9288274    -8.069373    470.95806  0.017896263  0.017628629           16 
 2194000   0.89616484   -8.0679995    472.23897  0.017936758  0.017622904            4 
 2195000   0.90168074   -8.0772171    470.01758  0.017844251   0.01761715            7 
 2196000   0.88390939    -8.046246    472.07555  0.017914221  0.017611372            6 
 2197000   0.88537313   -8.0561323    471.61769    0.0178887  0.017605629            4 
 2198000    0.9106281   -8.0335866    470.62063   0.01784276  0.017599868           11 
 2199000   0.88956537   -8.0726418    471.09938  0.017852789  0.017594122           13 
 2200000   0.90643437   -8.0587163    470.85691  0.017835489  0.017588349            9 
 2201000   0.92050112   -8.0558525    470.35557  0.017808404  0.017582571            6 
 2202000   0.90424732    -8.056014    471.28433  0.017835465   0.01757683            7 
 2203000   0.88734518    -8.099306    470.04872  0.017780629  0.017571059            8 
 2204000   0.90704106   -8.0902276    470.61745  0.017794066  0.017565299            8 
 2205000   0.90410122   -8.0843942     470.9127  0.017797154  0.017559518            4 
 2206000    0.8790486   -8.0807316    471.02034  0.017793153  0.017553742            4 
 2207000   0.87393153   -8.0419581     473.2144  0.017867935  0.017547967            3 
 2208000   0.90061788   -8.0558248    472.51898  0.017833597  0.017542239            7 
 2209000   0.89699861   -8.0725186    471.36261    0.0177819  0.017536547            6 
 2210000    0.9021106   -8.0638054    472.51236  0.017817208  0.017530795            6 
 2211000   0.89663765   -8.0904199    472.42271  0.017805771  0.017525076            4 
 2212000   0.90394972   -8.0387506    471.97838  0.017780982  0.017519346           12 
 2213000   0.91462943   -8.0630134    471.90214  0.017770076  0.017513714            3 
 2214000   0.91029517   -8.0007037    473.26114  0.017813202  0.017508049            4 
 2215000   0.90952026   -8.0678585    473.22636  0.017803851  0.017502393            4 
 2216000   0.89969415   -8.0539954       472.95  0.017785424  0.017496741           10 
 2217000   0.89003326   -8.0624736    472.58068   0.01776352  0.017491086            4 
 2218000   0.89135231   -8.0498196    473.15421  0.017777059  0.017485414            4 
 2219000   0.89478837   -8.0684535    473.57049  0.017784681  0.017479742            5 
 2220000    0.8865211   -8.0422388    473.09049  0.017758652   0.01747406            5 
 2221000   0.89539883   -8.0589708    473.30988  0.017758888  0.017468326            8 
 2222000   0.89525299   -8.0248223     474.3526  0.017790002  0.017462631            9 
 2223000   0.88869943    -8.042472    473.50319  0.017750157  0.017456928            8 
 2224000   0.89923115   -8.0441799     474.0364  0.017762155  0.017451218           17 
 2225000   0.88679352   -8.0830219    472.61518  0.017700943  0.017445491           10 
 2226000   0.91629416   -8.0681907    473.30305  0.017718742  0.017439766            6 
 2227000    0.8778406   -8.0983621    472.76972  0.017690829  0.017434019            6 
 2228000   0.89552336   -8.0935994    473.31227  0.017703182  0.017428262            5 
 2229000   0.88931739   -8.1034416    472.13734  0.017651314  0.017422527            6 
 2230000   0.89992146   -8.1282392    472.58857   0.01766026  0.017416789            4 
 2231000   0.90398991   -8.0852749      471.701  0.017619192  0.017411018            5 
 2232000    0.8887468   -8.0682499    473.52479   0.01767939  0.017405296            7 
 2233000   0.88727244   -8.0747755    473.63997  0.017675771  0.017399573            4 
 2234000   0.88930207   -8.0771754    474.12605  0.017685991  0.017393855           10 
 2235000   0.89899498   -8.0774654    473.59434  0.017658253  0.017388123            7 
 2236000   0.89597209   -8.0700146    473.80389  0.017658165  0.017382426            3 
 2237000   0.91212095    -8.083143    473.51986  0.017639691  0.017376719            2 
 2238000   0.89019836   -8.0626294    473.19021  0.017619534  0.017371013            4 
 2239000   0.89375065   -8.0766068     474.2822  0.017652307  0.017365325            6 
 2240000   0.87864149   -8.0868861    473.58438  0.017618467   0.01735958            8 
 2241000   0.88992141   -8.1003898    473.03244   0.01759008  0.017353831            5 
 2242000   0.90007499   -8.0720764    474.06765  0.017620713  0.017348094            4 
 2243000   0.89985507   -8.0713978     472.1497    0.0175416  0.017342326            6 
 2244000   0.88995751   -8.0914726    473.48321  0.017583304  0.017336567            4 
 2245000   0.86998403   -8.0315347    474.77223  0.017623319  0.017330825            8 
 2246000   0.88422205   -8.0599886    473.32744  0.017561867  0.017325093           19 
 2247000   0.89479196   -8.0981215    473.42647  0.017557724  0.017319382           23 
 2248000   0.92268114   -8.1204661    473.68149  0.017559367  0.017313654           19 
 2249000   0.87482681      -8.0702    473.84241  0.017557522  0.017307937           13 
 2250000   0.90369647   -8.0753828    475.44493  0.017609071  0.017302237           15 
 2251000   0.89309264   -8.0984067    475.59726  0.017606888  0.017296559           16 
 2252000    0.9048951   -8.0597787     475.2992   0.01758804  0.017290885            2 
 2253000   0.89240225   -8.0618894    474.73465  0.017559352  0.017285186            8 
 2254000   0.90837087   -8.0874321     475.7072  0.017587519  0.017279526            5 
 2255000   0.89577744   -8.0804088    474.50942  0.017535455  0.017273854            5 
 2256000    0.9110413   -8.0734443    474.07878  0.017511775  0.017268187           10 
 2257000   0.88564152   -8.0604997     474.6737  0.017525982  0.017262562            9 
 2258000   0.88618516   -8.0922185    476.18649  0.017574051  0.017256857            7 
 2259000   0.89134712    -8.070345    475.33683  0.017534928   0.01725118            5 
 2260000   0.89643581   -8.0785117    475.68712  0.017540085  0.017245503            8 
 2261000   0.91130873   -8.0648511     475.3093  0.017518403  0.017239821           26 
 2262000   0.88199305   -8.0808213    475.47093  0.017516612  0.017234067           15 
 2263000   0.87915456   -8.1098648     474.6662  0.017479238  0.017228365           16 
 2264000   0.89368191   -8.0905047     474.4892  0.017465003  0.017222644            7 
 2265000   0.88706245   -8.0658317    476.37843    0.0175268  0.017216991            3 
 2266000     0.886149   -8.1042677    475.49373   0.01748653  0.017211317           11 
 2267000   0.88116605   -8.1343471    474.73211   0.01745082  0.017205603           17 
 2268000   0.88746028   -8.0944287    476.26926  0.017499606  0.017199893           12 
 2269000   0.90329098   -8.1124983    474.90272  0.017441704  0.017194157            4 
 2270000   0.86092774   -8.0925004    476.04133   0.01747582  0.017188412            9 
 2271000   0.89157308   -8.1311165    474.31084  0.017404625  0.017182733            3 
 2272000   0.90643239   -8.1340933    474.76715  0.017413701  0.017177027            8 
 2273000   0.88550528    -8.101557    475.21796  0.017422568  0.017171331           10 
 2274000   0.90000652     -8.11431    475.45296  0.017423518   0.01716562            3 
 2275000   0.86624137   -8.1244735    475.53887  0.017419006  0.017159918           11 
 2276000   0.86260342   -8.0910746     477.4125  0.017479954  0.017154174            5 
 2277000   0.88236567   -8.1324829    475.10466  0.017387815  0.017148499           14 
 2278000   0.88287693   -8.0833338    476.00125  0.017412981  0.017142775           12 
 2279000   0.88442257   -8.1047874    476.52542  0.017424507  0.017137076            3 
 2280000   0.89335696   -8.0943689    476.82529  0.017427825  0.017131381            4 
 2281000   0.87894131   -8.0904462    476.03033  0.017391142  0.017125684            3 
 2282000   0.88970518   -8.0990239    476.12382  0.017386935  0.017119993            4 
 2283000    0.8907675    -8.129482    475.51362  0.017357045  0.017114254            4 
 2284000   0.88800299   -8.1302504    475.15887  0.017336503  0.017108501           13 
 2285000    0.8952688   -8.1010649    474.85776  0.017317934  0.017102748            5 
 2286000   0.89487796   -8.0558091    476.55415  0.017372199  0.017097051            4 
 2287000   0.88420949   -8.0814763     476.1822  0.017351049  0.017091341            6 
 2288000   0.88773275   -8.1317621    476.51484  0.017355581  0.017085649            5 
 2289000   0.90682857   -8.1224869    475.64488  0.017316327  0.017079962            8 
 2290000   0.88523508    -8.100684     476.8825  0.017353803  0.017074264           10 
 2291000   0.87697658   -8.0755571    478.16533   0.01739289  0.017068582            5 
 2292000   0.90371063   -8.0855757    477.65836  0.017366869  0.017062959            4 
 2293000   0.90810523   -8.0843884    477.72401  0.017361681  0.017057339            8 
 2294000   0.86970657   -8.0773743    478.30802  0.017375328  0.017051707            9 
 2295000   0.88158845   -8.0760697     477.9918  0.017356274  0.017046081            9 
 2296000   0.87949839   -8.1680722    476.41797  0.017291593  0.017040388            4 
 2297000   0.89362829   -8.0957572    477.65403  0.017328908  0.017034691            7 
 2298000   0.88365019   -8.0865818    477.29828  0.017308467  0.017029012            7 
 2299000   0.88945872   -8.0842481    477.08296  0.017293133   0.01702334            8 
 2300000    0.8892281   -8.0841193    477.29128  0.017293162   0.01701769            6 
 2301000   0.88248549   -8.0721554    477.95388  0.017309644  0.017012092            4 
 2302000   0.87494354   -8.0860231    478.86811   0.01733522  0.017006472            4 
 2303000   0.91802361   -8.0877284    479.51625  0.017351145  0.017000878            4 
 2304000    0.8778708   -8.0845145    479.44704  0.017341111  0.016995265           10 
 2305000   0.86388668   -8.1105533     477.3721  0.017258572  0.016989609            8 
 2306000   0.89742273    -8.103142    478.05861  0.017275896  0.016983959            7 
 2307000   0.88072763   -8.1117228    478.36607  0.017279514  0.016978311            6 
 2308000   0.88348613   -8.1283153    477.22858  0.017230957  0.016972609            5 
 2309000   0.88795812    -8.138676    478.40277  0.017265871  0.016966932            5 
 2310000   0.88180822   -8.1371807    476.74895  0.017198735  0.016961249            3 
 2311000   0.87777165   -8.0546492    479.38796  0.017286455  0.016955592            3 
 2312000   0.89978644   -8.1204341    478.49653  0.017246847  0.016949966            9 
 2313000   0.86388776   -8.0896242    480.23722  0.017302105  0.016944373            4 
 2314000   0.87793647   -8.1050374    478.81919  0.017243561  0.016938738            5 
 2315000   0.88192861    -8.088756     478.4299  0.017222099  0.016933168            6 
 2316000   0.91283268   -8.0797536    479.68677  0.017259887  0.016927548            6 
 2317000   0.88297914   -8.1222338    479.10202  0.017231406  0.016921942            3 
 2318000   0.90610531   -8.0803927    480.32619  0.017267982  0.016916358            6 
 2319000   0.86228872   -8.0904238     479.0074  0.017213145  0.016910749            4 
 2320000     0.886053   -8.0913106    479.22689   0.01721361  0.016905134            3 
 2321000   0.89788556   -8.1264274    479.28141   0.01720815  0.016899547           11 
 2322000   0.89637054   -8.1114174    479.90548  0.017223137  0.016893968            3 
 2323000    0.8994918    -8.105623    479.38088  0.017196903  0.016888372            4 
 2324000   0.88766637   -8.0737772    479.72148  0.017201717  0.016882744            9 
 2325000   0.87891422   -8.1078426     478.3479  0.017145086  0.016877085            5 
 2326000   0.88634639      -8.0974    479.38723  0.017174951  0.016871436            5 
 2327000   0.88686029   -8.0701029    479.41859  0.017168693  0.016865834            4 
 2328000   0.88034262    -8.077333    479.69828   0.01717133  0.016860227            5 
 2329000   0.89824628   -8.0502213    481.09622  0.017213977   0.01685464            1 
 2330000   0.87459617   -8.1237328     478.6218   0.01711809  0.016849004            5 
 2331000   0.88661407   -8.1168969    479.29937   0.01713497  0.016843357            5 
 2332000   0.87554259   -8.0863726      481.163  0.017194218  0.016837753            3 
 2333000   0.87625684   -8.1678103    477.97036  0.017072809  0.016832163            3 
 2334000   0.88428238   -8.1081982    479.38801   0.01711611  0.016826576            3 
 2335000   0.86330874   -8.0773583    481.10934  0.017170212  0.016821027            4 
 2336000   0.88410111    -8.102661    481.00491  0.017159136   0.01681549            4 
 2337000    0.8942645    -8.096391    480.73503  0.017142171  0.016809961            4 
 2338000   0.87997028    -8.093459    479.83708  0.017102833  0.016804457            8 
 2339000    0.8817093   -8.0851231    481.70615  0.017162112  0.016798935            6 
 2340000   0.89672629   -8.1183255    480.50541  0.017112016  0.016793386            7 
 2341000   0.88431528   -8.1236375     479.5161   0.01706949  0.016787837            9 
 2342000   0.87631172    -8.123167    480.68565  0.017103816    0.0167823            4 
 2343000   0.87946858   -8.1135346    481.36146  0.017120553  0.016776755           14 
 2344000   0.88038619   -8.1322424    481.20534  0.017107698  0.016771179            8 
 2345000   0.88240629   -8.1661118    479.16041  0.017027733  0.016765589           13 
 2346000   0.89072541   -8.1549775    480.39347  0.017064275      0.01676            6 
 2347000   0.86221535   -8.1530429    480.35179  0.017055525  0.016754413            7 
 2348000   0.87411862   -8.1279282    480.95838  0.017069789  0.016748865            4 
 2349000   0.87230949   -8.1707587    480.49834  0.017046202   0.01674329            4 
 2350000   0.87953432   -8.1621312    480.87605  0.017052342  0.016737652            9 
 2351000   0.89505581   -8.1871339    479.15023  0.016983916  0.016732026           11 
 2352000   0.87445695   -8.1495882     480.7145  0.017032118  0.016726424            6 
 2353000   0.86417861   -8.1666523    480.60794  0.017021106   0.01672083            8 
 2354000   0.88196422   -8.1647996     480.4149  0.017007041  0.016715269           15 
 2355000   0.86132271    -8.152297    480.86778  0.017015845  0.016709736            5 
 2356000   0.87174216   -8.1279671    481.78594  0.017041099  0.016704234            8 
 2357000   0.86995232   -8.1317419    482.44612   0.01705721  0.016698718            8 
 2358000   0.89009134   -8.1326557    482.49656  0.017051758  0.016693202            7 
 2359000   0.88609353   -8.1090195    482.56624  0.017046992  0.016687667            6 
 2360000   0.85464239   -8.0731412    483.86463  0.017085616  0.016682199            4 
 2361000   0.87669027   -8.1212918    482.63523  0.017034986  0.016676729            7 
 2362000   0.85955408   -8.1449067    482.30838  0.017016242  0.016671223            4 
 2363000    0.8648979   -8.2085406    481.22618  0.016970877  0.016665683            5 
 2364000   0.88141964     -8.16467    482.10162  0.016994558   0.01666014            3 
 2365000   0.88216409   -8.1387794    482.42867  0.016998896  0.016654649           10 
 2366000   0.88873432   -8.1282886    481.32003  0.016952664  0.016649103            6 
 2367000   0.87461131   -8.1728164    481.73295  0.016960039   0.01664353            9 
 2368000   0.87982321   -8.1816926    481.68324  0.016951127  0.016637927            7 
 2369000   0.85491527   -8.1428381    482.43702  0.016970488  0.016632369            7 
 2370000   0.86594252   -8.1362098    483.00383  0.016983257  0.016626862            7 
 2371000   0.87888892   -8.1541394    481.82233  0.016934568  0.016621318           14 
 2372000    0.8873108   -8.1272618    482.84726  0.016963437  0.016615802           10 
 2373000   0.86070204   -8.1254591    484.02407  0.016997615  0.016610315            3 
 2374000   0.85283261   -8.1313354    482.98312  0.016953914  0.016604773            7 
 2375000   0.87869058   -8.1714398    481.06502  0.016879474  0.016599218           11 
 2376000   0.86389565   -8.1469096    482.35289   0.01691754  0.016593648            9 
 2377000   0.86952089    -8.131983    482.64079  0.016920516  0.016588128            5 
 2378000   0.86002846   -8.1315471    482.78348  0.016918401  0.016582594            2 
 2379000   0.86160929   -8.1474339    483.61035  0.016940253  0.016577069            3 
 2380000   0.88389692   -8.1417414    482.02444  0.016877607  0.016571539            5 
 2381000   0.87511179   -8.1329241    483.10917  0.016908483  0.016565968            5 
 2382000    0.8678189   -8.1339638    482.11982  0.016866772  0.016560405            4 
 2383000   0.85076146   -8.1294043    482.34485  0.016867564   0.01655485            6 
 2384000   0.88912564   -8.1543845    482.26474  0.016857688  0.016549285            3 
 2385000    0.8653899    -8.175488    482.01234  0.016841801    0.0165437            4 
 2386000   0.86463377   -8.1572842    482.30907  0.016845106  0.016538112            7 
 2387000   0.87648945   -8.1272409    482.76393  0.016853929  0.016532538            5 
 2388000    0.8833778    -8.134287    482.25281  0.016829034  0.016526979            7 
 2389000   0.86599428   -8.1330107    483.11797  0.016852169  0.016521422            5 
 2390000   0.86399081   -8.1411175    483.30038  0.016851478  0.016515876            7 
 2391000   0.86559257   -8.1753879     481.8415  0.016793583  0.016510293           14 
 2392000    0.8514806   -8.1539446    482.43234  0.016807147   0.01650473           19 
 2393000   0.85797006   -8.1438079    482.09176  0.016788263  0.016499135            6 
 2394000   0.87051039   -8.1480657    482.93411  0.016810572  0.016493554           21 
 2395000   0.86973831   -8.1297761    482.90068   0.01680239  0.016487987           13 
 2396000   0.86451392    -8.128462    482.54532  0.016783017   0.01648241           10 
 2397000    0.8744355   -8.1428298    482.72289  0.016782189  0.016476847            9 
 2398000   0.86501349   -8.1266748    482.84729  0.016779514  0.016471335           10 
 2399000   0.88404071   -8.1196102    483.52353   0.01679601  0.016465819            8 
 2400000   0.85669148   -8.1111958    482.74414  0.016761949  0.016460282            9 
 2401000   0.85677511   -8.1474958    483.86109  0.016793735   0.01645474           31 
 2402000   0.85615958   -8.1908477    482.76062  0.016748565  0.016449179            5 
 2403000   0.85934337   -8.1537211    484.99573  0.016819106  0.016443636           36 
 2404000    0.8702755   -8.1552583    484.01608   0.01677815  0.016438054           62 
 2405000   0.87542425   -8.1904159    483.19981   0.01674289  0.016432476           71 
 2406000   0.88417621   -8.1825169    482.26814  0.016703663  0.016426873           67 
 2407000   0.88087067   -8.1925314    483.49212  0.016739099  0.016421253           76 
 2408000   0.84075979     -8.17326    483.03471  0.016716317  0.016415613           95 
 2409000   0.89489866   -8.1801004    481.94951  0.016671839  0.016409987          117 
 2410000   0.88176215   -8.1581086    481.72235  0.016657066  0.016404378          105 
 2411000   0.85739885   -8.1653877    483.60772  0.016715323  0.016398777           86 
 2412000   0.86292916   -8.1776001    484.27953  0.016731604  0.016393164           92 
 2413000   0.86872284   -8.1641523    484.41522  0.016729356  0.016387586          101 
 2414000   0.86119132      -8.2072    482.29497  0.016649233  0.016381985          134 
 2415000   0.84203521   -8.1716292    483.50726   0.01668417   0.01637635          136 
 2416000   0.86655737   -8.1984251    482.62786  0.016646932  0.016370678          146 
 2417000   0.86869952   -8.1872462     482.6193   0.01663975  0.016364989          138 
 2418000   0.87840999   -8.1966554    481.40243   0.01659093  0.016359342          163 
 2419000   0.86723456    -8.157428    483.34098  0.016650854  0.016353693          161 
 2420000   0.89620183   -8.1905846    483.04511  0.016633785  0.016348069          178 
 2421000   0.84515004   -8.2154033    482.08905  0.016594006  0.016342401          175 
 2422000   0.86509308   -8.1792488    482.19898  0.016590937  0.016336713          190 
 2423000   0.88512934    -8.196393    483.71326  0.016636169  0.016331041          205 
 2424000   0.83881264   -8.2306304    482.01025  0.016570759   0.01632536          229 
 2425000   0.85852437   -8.1855192    483.73651  0.016623248  0.016319698          239 
 2426000   0.84456307   -8.2537465    481.35714  0.016534664  0.016314041          301 
 2427000   0.88846274   -8.2324815    483.34227  0.016596012  0.016308388          284 
 2428000   0.84652988   -8.1971286    484.03066  0.016612804  0.016302759          294 
 2429000   0.87168186   -8.2555139    482.46668  0.016552308   0.01629708          324 
 2430000    0.8766607   -8.2604706    481.70567  0.016519399  0.016291388          355 
 2431000   0.86596698    -8.267338    481.10241  0.016491924  0.016285676          342 
 2432000   0.85668325   -8.2839096    481.29991   0.01649191  0.016279946          364 
 2433000     0.864185   -8.2828533    481.64658  0.016497006  0.016274196          363 
 2434000   0.85633792   -8.2456951    481.18776  0.016474519  0.016268453          386 
 2435000   0.87887396    -8.246287    482.08041  0.016498303  0.016262715          383 
 2436000    0.8654582   -8.2118241    482.92354  0.016520373  0.016256999          435 
 2437000   0.86471535   -8.2493373    482.32585  0.016493156  0.016251275          484 
 2438000   0.87031635   -8.2818225    482.44615  0.016490503  0.016245514          507 
 2439000   0.88947609   -8.2899536    481.51567   0.01645195   0.01623974          537 
 2440000   0.87195828   -8.2594363    482.94291  0.016493952  0.016233968          535 
 2441000   0.87809912   -8.2800691    481.02814  0.016421826  0.016228162          542 
 2442000   0.86807874   -8.2690785    482.13501  0.016452874  0.016222348          599 
 2443000    0.8684873   -8.2866338    481.66986  0.016430272  0.016216525          575 
 2444000   0.85166194   -8.3167416    481.17705  0.016406746  0.016210713          635 
 2445000   0.86886015   -8.3186355    481.47683  0.016410253   0.01620486          659 
 2446000   0.84616274   -8.3064479    480.81383  0.016380956     0.016199          645 
 2447000   0.87078286   -8.3638251    480.62421  0.016367804  0.016193128          639 
 2448000   0.84928901   -8.3310735    480.31682  0.016350654  0.016187238          708 
 2449000   0.87307633   -8.3098642    480.21482  0.016340507  0.016181334          729 
 2450000   0.84911645   -8.3229973    480.63589  0.016348159  0.016175433          744 
 2451000   0.85019287   -8.3631441     478.7147   0.01627617  0.016169522          789 
 2452000   0.87728807   -8.3703997    478.93589  0.016277049  0.016163579          799 
 2453000   0.88488572   -8.3568564    480.94518  0.016338673  0.016157656          822 
 2454000   0.85207994   -8.3352974    480.16982  0.016305685   0.01615172          808 
 2455000    0.8710707   -8.3470708    479.46725  0.016275195  0.016145777          906 
 2456000   0.85976393   -8.3473236    479.98685  0.016286199  0.016139805          958 
 2457000   0.85276606   -8.3541089    479.27308  0.016255362  0.016133809          903 
 2458000   0.86233494   -8.3729705    479.79415  0.016266414  0.016127795         1010 
 2459000   0.85778265   -8.4080937     477.6221   0.01618619  0.016121759         1109 
 2460000   0.84877171   -8.4241335    478.26573  0.016201414  0.016115678         1169 
 2461000   0.86958599   -8.4150858    479.27192  0.016228902  0.016109593         1210 
 2462000   0.84438334   -8.4434963    477.14402  0.016150285  0.016103475         1193 
 2463000   0.86524564   -8.4661624    476.94275  0.016136918  0.016097322         1405 
 2464000    0.8482025   -8.4698202    477.96841  0.016165057  0.016091122         1462 
 2465000   0.84826475   -8.4951902    476.84235  0.016120431  0.016084901         1505 
 2466000   0.83446285   -8.5022643    477.08478  0.016122086  0.016078653         1483 
 2467000    0.8633572   -8.4954164    475.68438  0.016068247   0.01607237         1504 
 2468000   0.84671815   -8.5318071     475.3861  0.016051664   0.01606604         1597 
 2469000   0.85021036    -8.526073    475.46898  0.016047961  0.016059735         1579 
 2470000   0.86164966    -8.512541    477.06162  0.016095196  0.016053432         1634 
 2471000   0.84606875   -8.5168486    475.91371   0.01604997  0.016047122         1676 
 2472000   0.84890715   -8.5714071    474.20771  0.015985967  0.016040777         1806 
 2473000   0.85428565    -8.567421    476.68889  0.016063111  0.016034394         1758 
 2474000    0.8797428   -8.5654745     475.1792  0.016005767  0.016028024         1865 
 2475000   0.86615333   -8.5678869    475.33393  0.016004509  0.016021638         1880 
 2476000   0.87642494   -8.5969022    475.95848  0.016019066  0.016015229         1941 
 2477000   0.84105752   -8.6020174    474.98448   0.01597983  0.016008796         2031 
 2478000   0.85248642   -8.6365319    474.67042   0.01596282  0.016002359         2061 
 2479000   0.84793892   -8.6779755    473.16325  0.015905716  0.015995869         2094 
 2480000   0.85860074   -8.6630806     472.9458  0.015891996  0.015989338         2171 
 2481000   0.87592268   -8.6618044    472.97558  0.015886591  0.015982803         2139 
 2482000   0.83091346   -8.6798885    473.67215  0.015903577  0.015976264         2217 
 2483000   0.83623655   -8.6724908    473.75007  0.015899788  0.015969729         2235 
 2484000   0.85668241   -8.7163593    472.39373  0.015847884  0.015963172         2323 
 2485000   0.86905379    -8.728931    472.90261  0.015858572  0.015956584         2362 
 2486000   0.85180366   -8.7379978    472.19068  0.015828328  0.015949965         2454 
 2487000   0.86536645   -8.7578402    471.06253  0.015784162  0.015943285         2564 
 2488000     0.847821   -8.8099676    470.33125  0.015753324  0.015936558         2696 
 2489000    0.8665212    -8.795924     471.2114  0.015776463  0.015929813         2719 
 2490000    0.8516103   -8.8408287    469.35439  0.015707978  0.015923036         2767 
 2491000   0.85303108   -8.8181166    471.67733  0.015779383  0.015916253         2846 
 2492000   0.83355343   -8.8659051    469.61868   0.01570421  0.015909438         2970 
 2493000   0.85316279   -8.8605573    469.70852  0.015700913   0.01590259         3025 
 2494000    0.8758957   -8.8733112    469.46451  0.015686464  0.015895724         3014 
 2495000    0.8358896   -8.8930851    469.16872  0.015670298  0.015888878         3007 
 2496000   0.84294707    -8.883401      468.928  0.015655983  0.015882004         3103 
 2497000   0.83021386   -8.9332519    468.65595  0.015640634  0.015875101         3111 
 2498000   0.84735322   -8.9374961    468.72377  0.015636635  0.015868194         3147 
 2499000   0.84509885   -8.9365391    467.79405  0.015599375   0.01586127         3180 
 2500000   0.86295495   -8.9179829    468.46433  0.015615478  0.015854336         3185 
 2501000    0.8697077   -8.9354723    468.99801  0.015627016  0.015847392         3208 
 2502000   0.85171085   -8.9405482    467.55296   0.01557264  0.015840446         3198 
 2503000   0.84305852   -8.9381763    468.11377   0.01558509  0.015833492         3192 
 2504000   0.83296367   -8.9750894    467.20923  0.015548763  0.015826494         3288 
 2505000   0.83483984   -8.9601757    468.50375   0.01558562  0.015819521         3231 
 2506000   0.83977046   -9.0025268    467.15709   0.01553462  0.015812548         3289 
 2507000   0.87281162   -8.9689438    467.45188  0.015538222  0.015805586         3285 
 2508000   0.85431767   -8.9646009    467.21112  0.015524027   0.01579862         3345 
 2509000   0.86546741   -9.0019662      467.106  0.015514349   0.01579163         3303 
 2510000   0.85910362   -8.9597611    467.88573  0.015534055  0.015784657         3352 
 2511000    0.8318862   -8.9838698    466.91859  0.015495772  0.015777648         3342 
 2512000   0.84403602   -8.9565617    469.05277  0.015560402  0.015770643         3353 
 2513000   0.85972283   -8.9809726    467.04695  0.015487696   0.01576363         3316 
 2514000   0.86686624    -8.990634    467.14216  0.015484691  0.015756618         3327 
 2515000   0.84036365   -9.0385326    465.74304  0.015432175  0.015749618         3358 
 2516000   0.86027047   -8.9926823    466.41742  0.015448378  0.015742599         3361 
 2517000   0.84066115   -8.9946241    467.75438  0.015486504  0.015735586         3389 
 2518000   0.85617328    -8.999476    467.13908  0.015459991  0.015728573         3398 
 2519000   0.85583744    -9.005782    467.25689  0.015457751   0.01572156         3368 
 2520000    0.8433219   -9.0117809    468.03557  0.015477367  0.015714526         3382 
 2521000   0.84366041   -9.0163051    467.10098  0.015440334  0.015707506         3425 
 2522000   0.86041717   -9.0608281    466.10314   0.01540124  0.015700469         3459 
 2523000   0.85695031   -8.9945527    465.70895  0.015382116  0.015693435         3466 
 2524000   0.85773023   -9.0370897    466.83998  0.015413365   0.01568637         3542 
 2525000   0.84884394   -9.0446914    466.02471  0.015380353  0.015679296         3532 
 2526000   0.85977538   -9.0442137    466.63707  0.015394467  0.015672219         3469 
 2527000   0.83584722   -9.0702242    465.34341  0.015345713  0.015665137         3522 
 2528000   0.85074195   -9.0686854    465.83116  0.015355721  0.015658044         3542 
 2529000   0.86177163   -9.0261388    466.25436  0.015363594  0.015650941         3544 
 2530000    0.8551533    -9.070529     466.1547  0.015354239  0.015643834         3613 
 2531000   0.83687164     -9.07063    466.52479  0.015360358  0.015636716         3611 
 2532000   0.83190418   -9.0816121    465.04109   0.01530546  0.015629591         3544 
 2533000   0.85577474   -9.0707247    464.64733  0.015286463  0.015622485         3591 
 2534000   0.83675073   -9.0846506    464.82885    0.0152864  0.015615345         3604 
 2535000   0.83821309   -9.0855174     465.4489  0.015300753  0.015608223         3680 
 2536000    0.8617934   -9.0780654    463.94987  0.015245461  0.015601076         3649 
 2537000   0.86076767   -9.1016613    465.55818   0.01529228  0.015593922         3656 
 2538000   0.83990679   -9.0901398     464.8617  0.015263386  0.015586759         3666 
 2539000   0.83183952   -9.1151776    463.96176  0.015227838  0.015579591         3666 
 2540000   0.83479758   -9.0904035    464.86545  0.015251491  0.015572436         3756 
 2541000   0.85780415   -9.1112202    463.83202  0.015211597   0.01556527         3719 
 2542000   0.84580635   -9.0971942    464.88686  0.015240194  0.015558098         3735 
 2543000   0.85797966   -9.1262973    463.59269  0.015191791  0.015550929         3784 
 2544000   0.82973394   -9.1539224    463.34309  0.015177643  0.015543733         3783 
 2545000   0.87392265   -9.1320821    463.21017  0.015167327  0.015536535         3795 
 2546000   0.85159507   -9.0954853     463.2188  0.015161652  0.015529319         3755 
 2547000   0.85351175   -9.1627477    462.90951   0.01514558  0.015522092         3780 
 2548000   0.83944333    -9.125326    464.08576  0.015178106  0.015514883         3811 
 2549000   0.84289354   -9.1317817     463.8765   0.01516531  0.015507656         3784 
 2550000    0.8369129   -9.1468191     463.0764  0.015133216  0.015500444         3784 
 2551000   0.84821384    -9.158591    462.59238  0.015111472  0.015493232         3801 
 2552000   0.86539948   -9.1632589    463.41515  0.015132418  0.015486027         3767 
 2553000   0.82440897   -9.1670157     463.9571   0.01514418  0.015478819         3808 
 2554000   0.83173983   -9.1172598    463.55369  0.015125088  0.015471618         3803 
 2555000   0.83904783    -9.146479    463.28291  0.015110336  0.015464417         3828 
 2556000   0.85580809   -9.1421736    463.24158  0.015103077  0.015457207         3814 
 2557000   0.84352236   -9.1528609    462.19116  0.015062937  0.015450002         3836 
 2558000    0.8526309   -9.1224804    463.08662  0.015086221  0.015442804         3767 
 2559000   0.83469594    -9.152148    462.38464  0.015057465  0.015435608         3793 
 2560000   0.84489933   -9.1680158    462.75591  0.015063669  0.015428408         3793 
 2561000   0.83716613   -9.1401433    463.45762   0.01508062  0.015421214         3782 
 2562000   0.83408678   -9.1512257    462.66338    0.0150489  0.015414013         3790 
 2563000   0.84690592   -9.1878897    462.97558  0.015053179  0.015406818         3821 
 2564000    0.8601938    -9.157838     463.3537  0.015059598  0.015399613         3830 
 2565000   0.84500863   -9.1310202    462.86962  0.015037999  0.015392408         3811 
 2566000   0.86148402   -9.1531145    463.53366  0.015053704  0.015385216         3843 
 2567000   0.84309311   -9.1526497    463.36575  0.015042389  0.015378011         3836 
 2568000   0.84818781   -9.1955503    461.70532  0.014982649  0.015370803         3862 
 2569000   0.83148633   -9.1395131    463.33033  0.015029529  0.015363597         3837 
 2570000   0.85689965   -9.1569323    462.82278  0.015007224    0.0153564         3890 
 2571000   0.82890694   -9.1873603    463.65084  0.015028226  0.015349198         3842 
 2572000   0.85388636   -9.1970204    462.51201  0.014985485  0.015342002         3838 
 2573000   0.82245915   -9.1758893    462.43816  0.014977269  0.015334791         3874 
 2574000   0.82755092   -9.1837896    463.11542  0.014993377   0.01532759         3861 
 2575000     0.841768   -9.1774101    463.21299  0.014990712  0.015320395         3867 
 2576000   0.83911144   -9.1695477    462.65675  0.014966898  0.015313205         3838 
 2577000   0.83070755   -9.1877392    463.27298  0.014981017  0.015306019         3883 
 2578000    0.8358208   -9.1645294    463.19279  0.014972614  0.015298817         3866 
 2579000   0.83711705   -9.1713356    462.45073  0.014942831  0.015291627         3846 
 2580000   0.82300311   -9.2086053    461.72687  0.014913658  0.015284422         3850 
 2581000   0.85759649   -9.2134728    461.91886  0.014914079  0.015277236         3855 
 2582000   0.84717867   -9.2052571    461.96306  0.014909729   0.01527003         3860 
 2583000   0.84132202   -9.1786487    463.04251  0.014938783  0.015262835         3888 
 2584000   0.84101198   -9.1970655    461.98274  0.014898824  0.015255624         3851 
 2585000   0.83190432   -9.2372251    460.69642  0.014851593   0.01524839         3921 
 2586000   0.84239609    -9.193834    461.32532  0.014866116  0.015241133         3902 
 2587000   0.82917559   -9.2447414    460.94012  0.014847962   0.01523388         3916 
 2588000   0.82673653   -9.2211881    461.29389  0.014853616  0.015226615         3931 
 2589000   0.86238705   -9.2534616    459.71372  0.014797017  0.015219352         3923 
 2590000   0.83121072   -9.2491338    461.45663  0.014847382   0.01521209         3918 
 2591000   0.83112685   -9.2429566    461.69048  0.014849173  0.015204823         3930 
 2592000   0.81713115   -9.2218529    461.16795  0.014826644  0.015197568         3921 
 2593000   0.83651711   -9.2270007    460.86992  0.014811349    0.0151903         3920 
 2594000   0.82281179   -9.2427183    460.46548  0.014792646  0.015183029         3935 
 2595000   0.82761248   -9.2337957    462.16573  0.014841546  0.015175746         3942 
 2596000   0.83475183   -9.2166338    461.42051  0.014811907  0.015168456         3915 
 2597000   0.83541624   -9.2632425    460.81265  0.014786698  0.015161176         3931 
 2598000   0.83188456   -9.2649877    461.53536  0.014804188  0.015153878         3943 
 2599000   0.84683482   -9.2721091    460.88808  0.014777738  0.015146598         3920 
 2600000   0.81256259   -9.2676933    460.10103  0.014746828  0.015139295         3928 
 2601000   0.85032293    -9.230039    460.76064  0.014762292  0.015132003         3930 
 2602000   0.83278155   -9.2764871    459.64926  0.014721024  0.015124718         3927 
 2603000   0.84158216   -9.2882577    459.23609  0.014702141  0.015117428         3948 
 2604000   0.83354592   -9.2655985    460.84603  0.014748017  0.015110139         3923 
 2605000   0.83497508   -9.2589507    461.15961  0.014752387   0.01510286         3950 
 2606000   0.83151028    -9.251294    459.87448  0.014705631  0.015095565         3951 
 2607000   0.84512298   -9.2567757    459.53756   0.01468922  0.015088294         3950 
 2608000   0.81858763   -9.2553733    460.47497  0.014713541  0.015081017         3939 
 2609000   0.81823287   -9.2769179    459.65554  0.014681728  0.015073741         3922 
 2610000   0.83957248   -9.2815044    461.24095  0.014726723  0.015066469         3941 
 2611000   0.82311149   -9.2792419    460.15178   0.01468632  0.015059208         3934 
 2612000   0.84784149   -9.2426492    460.44697  0.014690115   0.01505196         3939 
 2613000   0.84268136   -9.2620331    460.54967  0.014687768  0.015044691         3945 
 2614000   0.83392849    -9.276751    460.17108   0.01467008  0.015037416         3954 
 2615000   0.84139703    -9.285221    460.33511  0.014669697  0.015030148         3935 
 2616000   0.84073438   -9.2929763    460.40995  0.014666474  0.015022872         3948 
 2617000   0.82416237   -9.2934859     459.8496  0.014643026  0.015015594         3944 
 2618000   0.82806578   -9.3151461     458.8448   0.01460545  0.015008303         3946 
 2619000   0.81419455   -9.2746607    459.11469   0.01460846   0.01500102         3939 
 2620000   0.83209578   -9.2659725    460.47572  0.014646174  0.014993736         3951 
 2621000   0.84190785   -9.2924927    460.13149  0.014629642  0.014986464         3945 
 2622000   0.84020839   -9.2763833    459.42307  0.014601547  0.014979197         3948 
 2623000   0.80894212   -9.3066158     459.5231  0.014599158  0.014971922         3944 
 2624000   0.83640776   -9.2813188    458.69964  0.014567443  0.014964657         3948 
 2625000   0.83704238   -9.2791231    459.72921  0.014594578  0.014957391         3953 
 2626000   0.83320448   -9.3089385    459.07465  0.014568249  0.014950141         3962 
 2627000   0.83486633    -9.302811    458.92335  0.014557903  0.014942876         3950 
 2628000    0.8463194   -9.2920745     459.9056  0.014583511  0.014935622         3946 
 2629000   0.83004677   -9.2960431     459.0674  0.014551395  0.014928364         3951 
 2630000   0.81226336   -9.3036275    459.78891  0.014568724  0.014921118         3949 
 2631000   0.83271713   -9.2972157    460.30834  0.014579638  0.014913869         3945 
 2632000   0.84097461   -9.2939258    459.92754  0.014562042  0.014906624         3962 
 2633000   0.83063548   -9.3175938    459.79829  0.014552421  0.014899396         3950 
 2634000   0.82952959   -9.2946937      460.502   0.01456916  0.014892165         3946 
 2635000   0.83419271   -9.2929372    459.07729  0.014518573  0.014884924         3954 
 2636000   0.83495693   -9.2865074    459.02461    0.0145114  0.014877695         3944 
 2637000    0.8423732   -9.2850656    460.64056  0.014556964  0.014870472         3947 
 2638000   0.80329278   -9.3022334    459.31756  0.014509653   0.01486325         3949 
 2639000     0.824542   -9.3147404    459.86414  0.014521414  0.014856016         3960 
 2640000    0.7960633    -9.318485    459.48407  0.014503916  0.014848787         3961 
 2641000    0.8232154   -9.2882842    459.92631  0.014512379  0.014841561         3961 
 2642000   0.84056771   -9.3090432    459.42534  0.014491085  0.014834325         3946 
 2643000   0.85363959   -9.3152011    460.00718  0.014503947  0.014827103         3944 
 2644000    0.8192482   -9.2965636    459.54647  0.014483941  0.014819888         3950 
 2645000   0.83011385   -9.2862845    459.16423  0.014466422  0.014812682         3963 
 2646000   0.83164746   -9.3156622    459.87701  0.014483403   0.01480547         3951 
 2647000   0.82132389     -9.29882    459.97733   0.01448109  0.014798264         3951 
 2648000   0.83230134   -9.2879767    459.73412  0.014467967  0.014791054         3959 
 2649000   0.83133206    -9.294837    459.93409  0.014468796   0.01478385         3963 
 2650000   0.83881477   -9.3121647    459.15534  0.014438847  0.014776636         3962 
 2651000   0.83020858   -9.3195166     459.6604  0.014449277  0.014769451         3963 
 2652000   0.83147952   -9.2928347    459.64275  0.014443274  0.014762251         3969 
 2653000   0.80930971   -9.3027558    459.67024  0.014438693   0.01475506         3957 
 2654000   0.82938107   -9.2916453    459.62987  0.014431985  0.014747872         3962 
 2655000   0.80640341   -9.2997162    459.95144  0.014436643  0.014740696         3950 
 2656000   0.83196595   -9.3129795    459.32628  0.014411593  0.014733513         3944 
 2657000   0.82088736   -9.3180766    458.61008  0.014383706  0.014726339         3953 
 2658000   0.82739857    -9.306105    459.11869   0.01439424  0.014719166         3974 
 2659000    0.8062274   -9.2953636     458.5017  0.014369491  0.014711988         3967 
 2660000   0.83376279   -9.3024779    459.97213  0.014410154  0.014704818         3950 
 2661000   0.83042369   -9.3261907     459.4638   0.01438882  0.014697651         3949 
 2662000   0.81722108   -9.3160683    459.40984  0.014381725  0.014690484         3956 
 2663000    0.8259148   -9.2881349    460.09776  0.014397852  0.014683328         3959 
 2664000   0.82626552    -9.341029    458.70229  0.014348795  0.014676167         3960 
 2665000   0.80279103   -9.3121206    459.48932  0.014368021  0.014669004         3951 
 2666000   0.82928985   -9.3199698    459.64262  0.014367424  0.014661844         3962 
 2667000   0.82748257   -9.3256859    459.84204  0.014368268   0.01465468         3955 
 2668000   0.81577386   -9.3332179    459.44109  0.014350359  0.014647522         3960 
 2669000   0.82661845   -9.3182078    459.10915  0.014334618  0.014640361         3944 
 2670000   0.82877992   -9.3203244    459.89665  0.014353828  0.014633218         3957 
 2671000   0.79790724   -9.3161412    459.21467  0.014327177  0.014626076         3945 
 2672000   0.83293784   -9.2881775    459.90481  0.014343339  0.014618931         3950 
 2673000   0.81764185   -9.3438616     458.8349  0.014304617  0.014611793         3944 
 2674000   0.81999104   -9.3320655    458.57585  0.014291194  0.014604657         3958 
 2675000   0.82081964   -9.3318022    457.81377  0.014262111  0.014597522         3961 
 2676000   0.80396553   -9.3297938    459.47155  0.014308406  0.014590387         3963 
 2677000   0.80198202   -9.3204549    458.78442  0.014281672  0.014583246         3957 
 2678000    0.8134733   -9.3227759    458.97391  0.014282235  0.014576114         3976 
 2679000   0.82553505   -9.3309143    459.58294  0.014295849  0.014568985         3971 
 2680000   0.81198423   -9.3396862    459.26792  0.014280719  0.014561862         3957 
 2681000   0.80726128   -9.3241479    459.81016  0.014292247  0.014554743         3966 
 2682000   0.80593968   -9.3386186    458.05351  0.014232336  0.014547624         3964 
 2683000   0.82732532   -9.3224815     458.8606    0.0142521  0.014540512         3965 
 2684000   0.82323161    -9.329323    458.29503   0.01422923  0.014533393         3960 
 2685000   0.81307179   -9.3089284    460.13546  0.014281051  0.014526291         3968 
 2686000   0.81633732   -9.3444589    459.09476  0.014243446  0.014519176         3965 
 2687000   0.79935527   -9.3227853    458.28567  0.014213053  0.014512072         3966 
 2688000    0.8191798   -9.3370955    458.74192   0.01422191  0.014504977         3970 
 2689000   0.80886457   -9.3477637    459.06277  0.014226564  0.014497879         3976 
 2690000   0.81222288   -9.3433868      458.648  0.014208426   0.01449079         3965 
 2691000   0.82303328   -9.3547389    459.17264  0.014219393  0.014483708         3963 
 2692000    0.8336648   -9.3283642    459.17715  0.014214251  0.014476623         3967 
 2693000    0.8295192   -9.3271991    459.22282  0.014210386  0.014469546         3962 
 2694000   0.81709221   -9.3304711    458.08324   0.01416986  0.014462465         3959 
 2695000   0.81287945    -9.356532    458.07357  0.014164303  0.014455383         3952 
 2696000   0.82477374   -9.3521399    458.25801   0.01416475  0.014448305         3966 
 2697000   0.82688549   -9.3265802    458.98189  0.014181865  0.014441227         3955 
 2698000   0.81829028   -9.3275059    458.02573  0.014147076  0.014434156         3964 
 2699000   0.83137854   -9.3686245    458.51928  0.014157073   0.01442709         3953 
 2700000   0.80812576   -9.3277201    458.34839  0.014146555  0.014420029         3960 
 2701000   0.83121783   -9.3524002    458.10008  0.014133657  0.014412969         3955 
 2702000   0.81213759   -9.3367463    459.39183  0.014168265  0.014405912         3959 
 2703000   0.80277949   -9.3421404    457.82051   0.01411458  0.014398855         3969 
 2704000   0.82257227   -9.3266081    458.39305  0.014127005  0.014391798         3970 
 2705000   0.82298693   -9.3240418    458.85065   0.01413588  0.014384755         3957 
 2706000   0.82046216   -9.3161875    459.58915  0.014153398  0.014377711         3965 
 2707000   0.81874279   -9.3359351    458.99619  0.014129916  0.014370677         3952 
 2708000   0.81330454   -9.3506724    458.20425  0.014100328  0.014363636         3956 
 2709000   0.81231629   -9.3371474    459.45268  0.014133526  0.014356611         3970 
 2710000   0.82698584   -9.3304177    458.15724  0.014088476  0.014349583         3960 
 2711000   0.85669116   -9.3504285    458.96266  0.014108037  0.014342557         3960 
 2712000   0.83250648   -9.3292563    459.07416  0.014106261  0.014335533         3964 
 2713000   0.82080012   -9.3543724    457.82643  0.014062736  0.014328515         3961 
 2714000   0.80981355   -9.3343309    459.51854  0.014109511    0.0143215         3958 
 2715000    0.8259078   -9.3335577    458.82458  0.014083013  0.014314487         3960 
 2716000   0.80819994   -9.3140344    459.15365  0.014087925  0.014307481         3956 
 2717000    0.8197793   -9.3525775    458.27586  0.014055817  0.014300482         3965 
 2718000   0.82199434   -9.3159761    458.28418  0.014050901  0.014293476         3959 
 2719000   0.82803261   -9.3594282    458.56417  0.014054315  0.014286475         3956 
 2720000   0.78741086   -9.3128142    459.87881  0.014089424   0.01427948         3965 
 2721000   0.81958926   -9.3342251    458.25016  0.014034367  0.014272488         3963 
 2722000   0.81097917   -9.3587321    458.68455   0.01404251  0.014265499         3961 
 2723000   0.81321565    -9.380491    457.19391  0.013991734  0.014258508         3956 
 2724000   0.81556632   -9.3306452    458.86465  0.014037709  0.014251525         3955 
 2725000   0.82478501   -9.3517496     458.6634  0.014026404   0.01424454         3947 
 2726000    0.8268424   -9.3444592    457.99566  0.014000846  0.014237569         3969 
 2727000   0.81847037   -9.3031038    459.28725  0.014035181  0.014230602         3957 
 2728000   0.83220133    -9.332515    458.78806  0.014014787  0.014223639         3959 
 2729000   0.81053357   -9.3473718    459.45451  0.014030002  0.014216679         3966 
 2730000   0.79994696   -9.3583243    459.40275  0.014023283  0.014209716         3963 
 2731000   0.81955828   -9.3404678    458.62312  0.013994359  0.014202755         3936 
 2732000   0.82610549   -9.3661889    457.25626  0.013947543  0.014195791         3960 
 2733000   0.84178444   -9.3488471    459.01071  0.013995936   0.01418884         3953 
 2734000   0.78880114   -9.3314128    459.14881  0.013995026  0.014181895         3966 
 2735000   0.81237531    -9.309921    459.00433  0.013985507  0.014174946         3958 
 2736000   0.82065933   -9.3484277    458.33426  0.013959986  0.014168005         3955 
 2737000   0.79021087   -9.3410502    458.58729   0.01396259  0.014161063         3957 
 2738000   0.81781113    -9.351848    458.44081  0.013953032  0.014154119         3962 
 2739000   0.82125588   -9.3459068    458.38986  0.013946387  0.014147176         3955 
 2740000   0.80801306   -9.3556031    458.53982  0.013945858  0.014140244         3964 
 2741000    0.8049584    -9.359854    458.31876   0.01393405   0.01413332         3965 
 2742000   0.80447946   -9.3383518    459.42318  0.013962533    0.0141264         3953 
 2743000   0.82016398   -9.3733726    457.81876    0.0139087  0.014119474         3968 
 2744000   0.80032339    -9.353983    457.50916  0.013894229  0.014112556         3963 
 2745000   0.82027778    -9.350396    458.64522  0.013923656  0.014105642         3963 
 2746000   0.82444973   -9.3683243    458.73242  0.013921232  0.014098718         3976 
 2747000   0.81020578    -9.348791    458.97511  0.013923526  0.014091807         3960 
 2748000   0.81626115   -9.3591331    457.31691  0.013868174  0.014084908         3958 
 2749000   0.78729081   -9.3520149    458.72609  0.013905847  0.014078003         3960 
 2750000   0.81991135   -9.3761649     458.6986  0.013899958  0.014071103         3959 
 2751000   0.82647495   -9.3631413    458.73433  0.013895987  0.014064199         3973 
 2752000   0.84155447   -9.3747604    457.37506  0.013849778  0.014057311         3966 
 2753000   0.80531046   -9.3776891    457.92053  0.013861258  0.014050427         3966 
 2754000   0.80559567   -9.3685925    458.56092  0.013875603  0.014043542         3966 
 2755000   0.81925564   -9.3561999    458.54588  0.013870111  0.014036647         3973 
 2756000   0.82492144   -9.3778304    457.88238  0.013845016  0.014029759         3970 
 2757000   0.80852357   -9.3625848    458.40907  0.013855914   0.01402287         3968 
 2758000   0.82040766    -9.369109    457.22228  0.013815031  0.014015991         3962 
 2759000   0.82613161   -9.3807327    458.77843  0.013857026  0.014009115         3971 
 2760000   0.80765382   -9.3811778    458.48168  0.013843046  0.014002237         3956 
 2761000   0.81500337   -9.3860839    457.92999  0.013821381  0.013995368         3963 
 2762000   0.82174636      -9.3413    458.51138  0.013833918  0.013988508         3957 
 2763000   0.81183632   -9.3595518    456.82611  0.013778083  0.013981647         3965 
 2764000   0.81310079   -9.3701383    457.63748   0.01379756  0.013974789         3970 
 2765000   0.79753831   -9.3920525    456.77806  0.013766668  0.013967924         3961 
 2766000   0.80769211   -9.3648697    457.65846  0.013788216  0.013961075         3961 
 2767000   0.82078439   -9.3686958    458.05836  0.013795276  0.013954221         3963 
 2768000   0.84314703   -9.3607545    458.41251  0.013800955  0.013947377         3962 
 2769000   0.81134899   -9.3747649    458.26247  0.013791455  0.013940531         3963 
 2770000   0.80326438     -9.38299    457.82436  0.013773296  0.013933695         3954 
 2771000   0.79899122   -9.3512159    458.43667   0.01378674  0.013926862         3968 
 2772000   0.80218308   -9.3628913     457.4731  0.013752799  0.013920035         3968 
 2773000   0.81282249   -9.3844574    457.93601  0.013761751  0.013913206         3963 
 2774000   0.80049792   -9.3737435    457.48112  0.013743124  0.013906384         3963 
 2775000    0.8075141   -9.3773092    457.55162  0.013740289  0.013899568         3968 
 2776000    0.8048442    -9.376843    458.41231  0.013761176  0.013892753         3961 
 2777000   0.79539813   -9.3752178    458.49689  0.013758759  0.013885944         3966 
 2778000   0.79501745   -9.4013783    457.83453  0.013733937  0.013879123         3963 
 2779000    0.8244697    -9.379999    458.03958  0.013735144  0.013872309         3972 
 2780000   0.80160827   -9.3865297    457.97424  0.013728245  0.013865499         3972 
 2781000   0.80661119   -9.3853809    458.16037  0.013728886    0.0138587         3968 
 2782000   0.80506451   -9.3964018    458.41045  0.013731442  0.013851906         3966 
 2783000    0.8133283   -9.3792139    457.02239  0.013684944  0.013845112         3961 
 2784000   0.80028199   -9.3857467    457.62202  0.013697977   0.01383832         3968 
 2785000   0.80985687   -9.3899021    458.36473  0.013715282  0.013831521         3964 
 2786000   0.81968901   -9.3737427    458.09002  0.013702142  0.013824733         3973 
 2787000   0.80980567   -9.3922699    457.23844  0.013671763  0.013817951         3968 
 2788000   0.78958603   -9.3685861    457.64238  0.013678933  0.013811179         3965 
 2789000    0.7988877   -9.3777234    457.04486  0.013656175  0.013804404         3960 
 2790000    0.8200601   -9.3640934    457.70098  0.013670877  0.013797638         3966 
 2791000    0.8050427   -9.3754068    457.89654  0.013671818  0.013790868         3979 
 2792000   0.81076486   -9.3947264     458.5603  0.013686733  0.013784094         3972 
 2793000   0.79800413   -9.3850328    458.91034  0.013692277  0.013777325         3964 
 2794000   0.80924966   -9.3738241    458.64645  0.013679505   0.01377056         3963 
 2795000   0.79853956   -9.3776374    458.93234  0.013683135  0.013763798         3964 
 2796000   0.80652659    -9.378195    458.91903  0.013677844  0.013757048         3964 
 2797000   0.79897874   -9.3968105    457.11681  0.013619259  0.013750306         3975 
 2798000    0.8032668   -9.3448685    458.55346   0.01365718  0.013743573         3963 
 2799000   0.78504766   -9.3683137    458.24082  0.013642992  0.013736825         3965 
 2800000   0.79707204   -9.3812913    458.47358  0.013645047   0.01373009         3964 
 2801000   0.81663337   -9.3999534    456.76176  0.013589247   0.01372336         3969 
 2802000   0.81761858   -9.4020685     457.2198  0.013598019  0.013716627         3969 
 2803000   0.81773848   -9.3627092    457.62428  0.013605193  0.013709899         3957 
 2804000   0.81060616   -9.4004851    456.65208  0.013571448  0.013703178         3964 
 2805000   0.80346204   -9.3948528    457.08344  0.013579425   0.01369646         3970 
 2806000   0.81200631   -9.3867443    457.54157  0.013588191   0.01368974         3962 
 2807000   0.82668597   -9.3932921    457.98703  0.013596575  0.013683021         3977 
 2808000   0.80692126   -9.3798731    459.16929  0.013626819  0.013676308         3970 
 2809000   0.80830632   -9.3788868     456.6773  0.013548039  0.013669601         3971 
 2810000   0.80543253   -9.3719693    457.42682  0.013565445    0.0136629         3969 
 2811000   0.81938447    -9.365053    457.43883  0.013560976  0.013656201         3964 
 2812000   0.78919024   -9.4197503    457.07582  0.013545395  0.013649503         3965 
 2813000   0.79798315   -9.3933043    457.37243  0.013549367  0.013642799         3977 
 2814000    0.8000898   -9.4054749    457.90086  0.013560201  0.013636108         3970 
 2815000   0.78882532   -9.3803477    457.81584  0.013552867  0.013629426         3968 
 2816000   0.80089891    -9.410469    457.08656  0.013526473  0.013622746         3969 
 2817000   0.81755702   -9.3808174    457.67291  0.013539016  0.013616074         3962 
 2818000   0.80313178   -9.3841959    457.37852  0.013525506  0.013609401         3975 
 2819000   0.80813633   -9.4114055    457.91566  0.013536587  0.013602729         3954 
 2820000   0.81392371   -9.3989417    456.89217  0.013501542  0.013596065         3964 
 2821000    0.7900184   -9.3914382    457.26002  0.013507622  0.013589407         3953 
 2822000   0.80957911   -9.3507963    458.52168  0.013540092  0.013582746         3948 
 2823000   0.81304932   -9.4097517    456.74855  0.013482954   0.01357609         3957 
 2824000   0.78705639   -9.4022757    457.76699  0.013508233   0.01356943         3965 
 2825000   0.80202604    -9.389888    458.34626  0.013520539  0.013562784         3960 
 2826000   0.79490393   -9.3933832    457.24785  0.013483364  0.013556129         3959 
 2827000   0.81366769   -9.3951902    457.75972  0.013493684  0.013549487         3956 
 2828000    0.7891295   -9.3946833    457.53499   0.01348229   0.01354285         3964 
 2829000   0.78328755   -9.3999671    456.76754  0.013454917  0.013536209         3966 
 2830000   0.79850642   -9.3871064    457.27994  0.013465251  0.013529575         3963 
 2831000   0.81433665   -9.3919632    457.53288  0.013467941  0.013522947         3967 
 2832000   0.79546574   -9.3732976    457.94495  0.013475311  0.013516325         3967 
 2833000   0.80165071   -9.4140301    458.06752  0.013474159  0.013509698         3963 
 2834000   0.81577882   -9.4012759    456.53006  0.013424196   0.01350308         3971 
 2835000   0.81969967   -9.4152932    457.57331  0.013450127  0.013496464         3966 
 2836000   0.81492474   -9.3982247    457.20747  0.013434634  0.013489852         3961 
 2837000   0.80444905   -9.3985794    458.26417  0.013460938  0.013483238         3975 
 2838000   0.78682051   -9.3891862    458.23029    0.0134552  0.013476634         3971 
 2839000   0.81207021   -9.3866546     457.3807  0.013425522   0.01347003         3966 
 2840000   0.79101569   -9.3860069    457.67749  0.013429504   0.01346343         3974 
 2841000   0.80480821   -9.3650684    458.25009  0.013441573  0.013456833         3963 
 2842000   0.80949139   -9.3912491    456.99176  0.013399946  0.013450246         3970 
 2843000   0.80302591   -9.3981173     457.7296   0.01341686  0.013443666         3963 
 2844000   0.80362028    -9.407823    456.88108   0.01338728   0.01343709         3975 
 2845000   0.80465206   -9.3928803     456.8396  0.013381359  0.013430507         3974 
 2846000   0.79128127   -9.4010623    457.22663   0.01338799  0.013423937         3976 
 2847000   0.77855154   -9.4072543    457.19972    0.0133825  0.013417362         3964 
 2848000   0.79711881   -9.3853819    458.23117  0.013407981  0.013410796         3965 
 2849000   0.80498612   -9.3796824    458.60155  0.013414109  0.013404235         3972 
 2850000   0.78588491   -9.3865901    457.63331  0.013381091  0.013397675         3966 
 2851000    0.7970778   -9.3850933     457.0636  0.013359745  0.013391115         3965 
 2852000   0.80108101    -9.418864    456.98139  0.013352659  0.013384557         3979 
 2853000   0.78190565   -9.4102641    456.47039  0.013333053  0.013378002         3978 
 2854000   0.79239649   -9.4094099    457.10522  0.013346917   0.01337145         3965 
 2855000    0.8089587   -9.3946664    456.75823  0.013332114  0.013364902         3973 
 2856000   0.78336177   -9.4237676    457.00777  0.013334727   0.01335835         3971 
 2857000   0.79662219    -9.378243    458.23735  0.013365924  0.013351808         3969 
 2858000   0.79047731   -9.3989395    457.95993  0.013353159  0.013345264         3970 
 2859000   0.78518021   -9.3904333    458.57286  0.013366354  0.013338732         3963 
 2860000   0.77253456   -9.3982707    458.15254  0.013349433  0.013332201         3972 
 2861000    0.8071253   -9.3866773    457.72352  0.013332271  0.013325671         3964 
 2862000   0.77542528   -9.4010026    457.73232  0.013327869  0.013319146         3970 
 2863000   0.79922847   -9.3919265    457.21564  0.013308174  0.013312622         3958 
 2864000   0.78905106   -9.3856724    457.78842  0.013320194  0.013306107         3969 
 2865000   0.79038823   -9.3961034    456.61842  0.013281513  0.013299583         3970 
 2866000   0.80715726   -9.4020095    457.21568  0.013294245  0.013293069         3972 
 2867000   0.78938799   -9.4166458    457.54331  0.013299131  0.013286558         3973 
 2868000   0.78139886   -9.4054555    457.68817  0.013298703  0.013280049         3974 
 2869000   0.78686011   -9.3709796    457.88847  0.013299886  0.013273552         3972 
 2870000    0.7869929   -9.4056251    456.75991  0.013262483  0.013267055         3968 
 2871000   0.76717129    -9.400364    457.91097  0.013291274  0.013260559         3961 
 2872000   0.80013883   -9.4171164    456.49687  0.013245615   0.01325407         3970 
 2873000   0.79643176   -9.3968431    457.53606  0.013271147  0.013247581         3970 
 2874000   0.79887522   -9.4190992    457.47555  0.013264775  0.013241112         3965 
 2875000   0.78143775   -9.3833646    457.79659  0.013269466  0.013234622         3960 
 2876000   0.78971247   -9.3993211    457.27976  0.013249877  0.013228145         3966 
 2877000   0.78135628   -9.4173964    456.80398   0.01323149   0.01322167         3965 
 2878000   0.78462352   -9.4238858    457.41085  0.013244465    0.0132152         3973 
 2879000   0.78308844   -9.4356869    457.70914  0.013248499  0.013208729         3961 
 2880000    0.8008644   -9.4059878    457.95396  0.013250983  0.013202267         3961 
 2881000   0.81555412   -9.4256436    456.88327  0.013215413  0.013195808         3954 
 2882000   0.78168962   -9.4037546    457.01279  0.013214573  0.013189356         3967 
 2883000   0.79303129   -9.4299678    456.65212  0.013199564  0.013182896         3962 
 2884000   0.79057636   -9.4302133    456.55693  0.013192237  0.013176445         3960 
 2885000   0.77835623   -9.4137421    456.52021  0.013186603  0.013169998         3960 
 2886000   0.80163109   -9.4161617    457.95678  0.013223515  0.013163547         3973 
 2887000   0.77549126   -9.4187912    457.39254  0.013202648    0.0131571         3975 
 2888000   0.77744369   -9.4218364    456.43411  0.013170421  0.013150659         3972 
 2889000   0.79187332   -9.4322357    456.46176   0.01316666  0.013144224         3970 
 2890000   0.78538834   -9.4226511    457.35792  0.013187945  0.013137796         3963 
 2891000   0.79200688   -9.4253145    457.29587  0.013181594  0.013131356         3968 
 2892000   0.77131292   -9.4235185    455.80076  0.013133955  0.013124933         3967 
 2893000   0.78459962   -9.4322845    457.23799  0.013170814  0.013118513         3968 
 2894000   0.79601379   -9.4251921      456.962  0.013158316  0.013112098         3976 
 2895000   0.78177025    -9.400345    457.35824  0.013165177  0.013105678         3969 
 2896000   0.77525277    -9.438318    457.17773  0.013155436  0.013099261         3960 
 2897000   0.80785808   -9.3941117    456.68274  0.013136657  0.013092849         3954 
 2898000   0.78573429   -9.4420487    457.26727  0.013148932  0.013086435         3967 
 2899000   0.81597211   -9.4500999    456.43112  0.013120361  0.013080023         3977 
 2900000   0.78641189    -9.421411    456.96495  0.013131177  0.013073621         3976 
 2901000   0.79893757   -9.3914398    457.49052  0.013141748  0.013067222         3956 
 2902000   0.79048718   -9.4086989    457.09856  0.013125964  0.013060834         3961 
 2903000   0.76841233   -9.4182533    457.08295  0.013120994  0.013054438         3968 
 2904000   0.77955675   -9.4212274    456.36616  0.013095907  0.013048054         3966 
 2905000   0.77644297   -9.4603526    456.72805   0.01310178  0.013041668         3974 
 2906000   0.79501868    -9.428555    457.26889  0.013112781  0.013035286         3960 
 2907000   0.78331885   -9.4194135     456.7777  0.013094189  0.013028907         3965 
 2908000   0.78604535   -9.4541607    456.79409  0.013090156  0.013022529         3965 
 2909000   0.78874449   -9.3961391    457.63715  0.013109807   0.01301616         3966 
 2910000   0.75808858   -9.4422164    456.19476  0.013063997  0.013009793         3972 
 2911000   0.77968143   -9.4411392    457.24763  0.013089649  0.013003428         3969 
 2912000   0.78681403   -9.4466065    456.41522  0.013061333  0.012997072         3965 
 2913000   0.76829954   -9.4191162    457.21289  0.013079668  0.012990717         3966 
 2914000   0.80087697   -9.4237731    457.13546  0.013072965  0.012984361         3971 
 2915000   0.79609235   -9.4419523    456.78448  0.013058447  0.012978006         3967 
 2916000   0.81243985   -9.4109871    456.93639   0.01305831  0.012971664         3961 
 2917000   0.79779956   -9.4194351    456.97036  0.013054804  0.012965324         3962 
 2918000   0.78078297   -9.4303493    457.56614  0.013067345  0.012958986         3972 
 2919000   0.76926077   -9.4123555    456.85756  0.013042639   0.01295265         3972 
 2920000   0.77834953   -9.4273426    456.34322  0.013023494   0.01294632         3972 
 2921000   0.76854496   -9.4070997    457.53531  0.013053044  0.012939981         3966 
 2922000   0.76654241   -9.4596924    457.55592  0.013049165  0.012933656         3965 
 2923000   0.78987366   -9.4082446    457.11811  0.013032219   0.01292733         3971 
 2924000    0.7974864   -9.4281338    457.54181  0.013039837  0.012921011         3976 
 2925000   0.78035249   -9.4268786    457.09183  0.013022559  0.012914695         3975 
 2926000   0.77334408   -9.4551145     456.4331  0.012999348  0.012908384         3977 
 2927000    0.7751555   -9.4306421    456.22327  0.012988933  0.012902077         3967 
 2928000   0.79223294   -9.4335395    456.49439  0.012992213  0.012895772         3965 
 2929000   0.77917601    -9.460868    455.21389  0.012951345  0.012889469         3972 
 2930000   0.77379877   -9.4236208    456.79101  0.012991781   0.01288317         3968 
 2931000   0.79107691   -9.4162295    457.57877  0.013009746  0.012876862         3965 
 2932000   0.78294721   -9.4384714    456.47402  0.012973909  0.012870577         3972 
 2933000   0.77328545   -9.4173309     456.5351  0.012971221  0.012864286         3966 
 2934000   0.80672398   -9.4460661    456.81106  0.012974638  0.012857999         3977 
 2935000    0.7904095   -9.4279568    456.62099  0.012964821  0.012851722         3977 
 2936000   0.79811085   -9.4393186    455.64438  0.012932686  0.012845436         3977 
 2937000   0.79124514   -9.4120926    457.27335  0.012974502  0.012839159         3974 
 2938000   0.79674487   -9.4348287    456.76024  0.012955532  0.012832884         3959 
 2939000   0.75918728   -9.4416662    456.62951  0.012947417  0.012826615         3969 
 2940000   0.77779973   -9.4260407    456.60377  0.012942284  0.012820344         3975 
 2941000   0.78539977    -9.434978    457.58979  0.012965822  0.012814086         3974 
 2942000   0.78887912   -9.4241672      457.351  0.012954651  0.012807826         3974 
 2943000   0.76828359   -9.4432642    456.24826  0.012919024  0.012801576         3976 
 2944000   0.78650745   -9.4297987    456.63827  0.012925676  0.012795328         3979 
 2945000   0.79091779   -9.4082672     456.6776  0.012922399  0.012789088         3968 
 2946000   0.77402525   -9.4303339    456.12835  0.012902477  0.012782841         3973 
 2947000   0.79720505   -9.4356285    456.41805   0.01290629  0.012776601         3973 
 2948000   0.78909757   -9.4250729    456.85255  0.012914195  0.012770361         3969 
 2949000   0.79606005   -9.4392013    458.27891  0.012950122  0.012764126         3966 
 2950000   0.78786591   -9.4301946    456.44829  0.012894019    0.0127579         3968 
 2951000   0.78361854   -9.4388691    456.58657  0.012893555  0.012751671         3975 
 2952000   0.77114018   -9.4322569    456.92312  0.012898688  0.012745447         3972 
 2953000   0.79292123   -9.4260145    456.39203  0.012879333  0.012739225         3973 
 2954000   0.77753732   -9.4339574    454.93992  0.012834008  0.012733001         3976 
 2955000   0.76616943   -9.4598542    456.84036  0.012883259  0.012726788         3971 
 2956000   0.78365258   -9.4322015     456.5418  0.012870484  0.012720575         3980 
 2957000   0.78222721   -9.4389412    456.49793  0.012864895  0.012714373         3974 
 2958000   0.76646011    -9.445347    456.82757  0.012869832  0.012708171         3976 
 2959000   0.77657407   -9.4352511     456.4688  0.012855379  0.012701974         3972 
 2960000   0.77921929     -9.46798    455.88394   0.01283457  0.012695771         3969 
 2961000   0.77541508   -9.4479786    455.69723  0.012824981  0.012689574         3968 
 2962000   0.78669533   -9.4519111    455.47545  0.012814412   0.01268339         3966 
 2963000   0.77471806   -9.4679291     456.9563  0.012851735  0.012677202         3978 
 2964000   0.77285456   -9.4542693    455.67241  0.012811303  0.012671016         3977 
 2965000   0.77999442   -9.4465867    456.02382  0.012816858  0.012664828         3978 
 2966000   0.77419089   -9.4199969    455.69362   0.01280326  0.012658647         3975 
 2967000   0.76402449   -9.4477931    457.16764  0.012840345  0.012652473         3971 
 2968000   0.77581525   -9.4610747    455.30137  0.012783619  0.012646296         3977 
 2969000   0.77680778    -9.439552     455.6107  0.012787995  0.012640129         3976 
 2970000   0.79090117   -9.4376397    456.44852  0.012807198  0.012633958         3977 
 2971000   0.76998169    -9.451167    456.40854  0.012801765  0.012627797         3955 
 2972000   0.76077877   -9.4514221    456.43614  0.012798232  0.012621621         3968 
 2973000   0.77307221    -9.455437    456.01401  0.012782095  0.012615456         3972 
 2974000   0.77369497   -9.4775285    456.47359  0.012790674  0.012609294         3981 
 2975000   0.77557136   -9.4739223    456.91118  0.012798632  0.012603136         3975 
 2976000   0.76244597    -9.473398    456.12151   0.01277222  0.012596977         3971 
 2977000   0.77204008   -9.4397748    455.82474  0.012759622  0.012590824         3975 
 2978000   0.77090658   -9.4313419    456.54246  0.012775422   0.01258468         3981 
 2979000   0.78276425   -9.4546094     456.3106  0.012764647   0.01257853         3976 
 2980000   0.78124292   -9.4349441    456.72147  0.012771853  0.012572387         3969 
 2981000   0.76824592   -9.4560447    455.63431  0.012737177  0.012566252         3976 
 2982000   0.78274412   -9.4468283    456.06792  0.012745023  0.012560121         3983 
 2983000   0.76330994   -9.4541608    456.22237  0.012745066  0.012553994         3982 
 2984000   0.76483781   -9.4775407    456.89965  0.012759709  0.012547862         3973 
 2985000   0.77959781   -9.4881683     456.6176   0.01274756  0.012541741         3981 
 2986000   0.76513744   -9.4944317    455.83786   0.01272153  0.012535624         3971 
 2987000   0.78173996   -9.4478101     456.3337  0.012731104  0.012529506         3971 
 2988000   0.77295932    -9.468602     455.3971  0.012700722  0.012523397         3982 
 2989000    0.7620389   -9.4883062     455.5183  0.012699852   0.01251729         3978 
 2990000   0.75295636   -9.4686253    456.35867  0.012719027  0.012511182         3975 
 2991000   0.79217349   -9.4771789    457.02053  0.012733214  0.012505078         3971 
 2992000   0.78558951    -9.472994    455.31367  0.012681419  0.012498985         3973 
 2993000   0.77467479   -9.4758672    455.37309  0.012678837  0.012492887         3978 
 2994000    0.7814233   -9.4365808    456.21873  0.012698139    0.0124868         3966 
 2995000   0.78398049   -9.4449828    456.26047   0.01269506  0.012480711         3982 
 2996000   0.76736224   -9.4705965    455.35198  0.012665553  0.012474627         3977 
 2997000   0.77388682    -9.476709     455.6856  0.012670604  0.012468546         3980 
 2998000   0.76936048   -9.4436189    456.51293  0.012689374  0.012462466         3974 
 2999000   0.76174409   -9.4753473    456.51757  0.012685272  0.012456391         3987 
 3000000   0.76141952   -9.4693137    456.20471  0.012672353   0.01245032         3976 
 3001000   0.78945922   -9.4520056    455.92056   0.01266024  0.012444257         3982 
 3002000   0.78154307   -9.4702485    456.83558  0.012681423  0.012438191         3982 
 3003000   0.77248793   -9.4521968    456.21945  0.012660102  0.012432128         3975 
 3004000   0.77440755   -9.5040316    456.00876  0.012650043  0.012426068         3974 
 3005000   0.79081438   -9.4628879    455.10521  0.012620777   0.01242001         3975 
 3006000   0.77064192   -9.4727615    455.60716  0.012630493  0.012413961         3979 
 3007000    0.7493987   -9.4537367    455.39378   0.01262038   0.01240791         3982 
 3008000   0.76340128   -9.4688503    456.53426   0.01264778  0.012401873         3971 
 3009000   0.76669934   -9.5088894     455.5888  0.012617392  0.012395827         3981 
 3010000   0.75103286   -9.4680213    455.70862  0.012616518  0.012389791         3981 
 3011000   0.74601158   -9.4748852    456.41331  0.012631831  0.012383751         3977 
 3012000   0.77135848   -9.4958723    456.05975  0.012617855  0.012377718         3983 
 3013000   0.76604037   -9.4522396    455.74769  0.012605036  0.012371687         3967 
 3014000   0.78038709   -9.4834404    456.71889  0.012627707  0.012365669         3981 
 3015000   0.76223355   -9.4721232     456.0509  0.012605055  0.012359644         3974 
 3016000   0.77263337   -9.4704103     455.5326  0.012586555  0.012353626         3979 
 3017000   0.78304653   -9.4663301    455.60546  0.012584396  0.012347608         3977 
 3018000   0.75832686   -9.5013949    455.07158  0.012565484  0.012341595         3973 
 3019000     0.762131   -9.4598758    456.00435  0.012587069  0.012335583         3980 
 3020000   0.77115745   -9.4652737    456.52611  0.012597299  0.012329583         3981 
 3021000   0.77356121   -9.4520136    457.74029  0.012626622  0.012323582         3980 
 3022000   0.75849763   -9.4453347    456.67221  0.012592991  0.012317594         3982 
 3023000   0.74367231   -9.4502734     455.6733  0.012561289  0.012311601         3973 
 3024000    0.7725934   -9.4609466    455.86198  0.012562334  0.012305607         3977 
 3025000   0.78642127   -9.4723459     455.9946  0.012561835  0.012299623         3978 
 3026000   0.76856771    -9.459008    455.60411   0.01254693   0.01229364         3979 
 3027000   0.76788801    -9.493282    455.82492  0.012548864  0.012287652         3975 
 3028000   0.77484562    -9.468837    456.52349  0.012563945  0.012281682         3971 
 3029000   0.78098388   -9.4577763    456.55937  0.012560784  0.012275713         3980 
 3030000   0.77542827   -9.4894539    455.42312  0.012525388  0.012269744         3978 
 3031000   0.74762753   -9.4736701    456.65746  0.012555192  0.012263785         3972 
 3032000   0.76635946   -9.4742615    455.67493  0.012524047  0.012257827         3981 
 3033000   0.76238826   -9.4657826    455.59781  0.012517799  0.012251865         3977 
 3034000   0.75413332   -9.4663815    455.49104  0.012510741   0.01224591         3980 
 3035000    0.7638105   -9.4653048    456.39442  0.012531423  0.012239954         3986 
 3036000   0.77929974   -9.4738523    455.37571  0.012499333  0.012234006         3979 
 3037000    0.7759752   -9.4816835    455.86802  0.012508726  0.012228065         3978 
 3038000   0.75327127   -9.4718528    455.99465  0.012508082  0.012222127         3981 
 3039000    0.7584242   -9.4785832    456.05443  0.012505606  0.012216194         3978 
 3040000   0.75954911   -9.4762903    455.80058  0.012494533  0.012210261         3972 
 3041000     0.765123   -9.4547082    455.67175  0.012486895  0.012204328         3976 
 3042000   0.74809183   -9.4719453    456.29375  0.012499829  0.012198402         3982 
 3043000    0.7509889   -9.4751757    455.65621  0.012478262  0.012192476         3980 
 3044000    0.7695324   -9.4688818    455.55898  0.012471501  0.012186556         3975 
 3045000   0.78082467   -9.4649099    455.12638  0.012455566  0.012180642         3978 
 3046000   0.76580316    -9.492002    455.71422  0.012467559  0.012174729         3987 
 3047000   0.74139799   -9.4929873    455.22637  0.012450125   0.01216882         3985 
 3048000   0.77576065   -9.4869992    456.06767  0.012469042  0.012162908         3983 
 3049000   0.77873654   -9.4885184     455.1489  0.012439841  0.012157003         3980 
 3050000   0.75892997   -9.4924762    454.93752  0.012429987  0.012151105         3981 
 3051000   0.76878218   -9.4827552    454.83929   0.01242323  0.012145213         3978 
 3052000   0.74633599   -9.4755093    455.13032  0.012427106  0.012139323         3976 
 3053000   0.78116515    -9.462188    454.97403  0.012418769   0.01213344         3979 
 3054000   0.76205045   -9.4830051    455.34813  0.012424911  0.012127556         3974 
 3055000   0.76957388   -9.4933672    455.87744  0.012435282  0.012121675         3979 
 3056000   0.74747228   -9.5005736    456.01698  0.012435018  0.012115799         3980 
 3057000   0.75853021   -9.4687309    456.03305  0.012431388  0.012109923         3982 
 3058000   0.75485142   -9.4698374     455.5866  0.012415157   0.01210405         3979 
 3059000   0.76036132   -9.4943514    455.91479  0.012420039  0.012098185         3984 
 3060000   0.77880149   -9.4920791    455.52823  0.012405453  0.012092323         3980 
 3061000   0.75380583     -9.48099    455.15129  0.012391138  0.012086459         3972 
 3062000   0.77105009   -9.4697161    455.56083  0.012398237  0.012080596         3977 
 3063000   0.76607041   -9.4999972    454.54395  0.012366524  0.012074742         3980 
 3064000   0.76748593   -9.4672273    456.36252  0.012411948  0.012068892         3983 
 3065000   0.74483322   -9.4715653    456.13474  0.012401706   0.01206304         3976 
 3066000   0.75635143   -9.4939029    456.74937  0.012414367  0.012057196         3983 
 3067000    0.7737532   -9.4739994    456.04658  0.012391223  0.012051361         3984 
 3068000   0.76782642   -9.4933488    455.45054  0.012370995  0.012045527         3983 
 3069000   0.76576159   -9.4931907    456.11103  0.012384898   0.01203969         3978 
 3070000   0.75780975   -9.4987273    455.23397  0.012357057   0.01203386         3983 
 3071000   0.76714065   -9.4695359    456.28976  0.012381682  0.012028032         3979 
 3072000   0.75104939   -9.4806659    456.35756  0.012379491  0.012022208         3984 
 3073000   0.75647714   -9.4770531    455.92584  0.012363755  0.012016381         3976 
 3074000   0.75386658   -9.4903668    455.47617  0.012347543  0.012010568         3975 
 3075000   0.76433967   -9.4750727    455.38741  0.012341122  0.012004754         3983 
 3076000   0.76320913   -9.4914707    455.81482  0.012348689  0.011998936         3980 
 3077000   0.77726649   -9.5079574    455.46644  0.012335241  0.011993122         3968 
 3078000   0.75627766   -9.4898771    455.37321  0.012328709  0.011987322         3979 
 3079000   0.75812501   -9.5132491    455.66082   0.01233249   0.01198152         3973 
 3080000   0.77899321   -9.4968361    455.84305  0.012333416  0.011975728         3976 
 3081000   0.75421635   -9.4975463    456.11711  0.012336825  0.011969937         3976 
 3082000   0.76962637   -9.4615679    456.38316  0.012340016  0.011964144         3980 
 3083000   0.76768504   -9.4796198    455.93636  0.012323937  0.011958366         3976 
 3084000   0.77162764   -9.4561541    455.51648  0.012308595  0.011952587         3972 
 3085000   0.76895872   -9.4813949    455.96314   0.01231667  0.011946814         3982 
 3086000    0.7487117    -9.498818    456.12321  0.012317002  0.011941034         3967 
 3087000   0.75809853    -9.509412    455.78453  0.012303869  0.011935262         3983 
 3088000   0.74561183   -9.4899171    455.43109  0.012290347  0.011929499         3976 
 3089000   0.76224494   -9.4816307     455.2902  0.012282567  0.011923735         3980 
 3090000   0.75330889   -9.5175781    455.00888  0.012271005  0.011917973         3976 
 3091000   0.75597057   -9.4856162    456.30606  0.012302008  0.011912213         3979 
 3092000   0.75637037    -9.481725    455.98782  0.012289452  0.011906459         3979 
 3093000   0.75451304   -9.4974396    454.53345  0.012246294  0.011900703         3975 
 3094000   0.75364772    -9.458496    455.49173  0.012268146  0.011894953         3977 
 3095000   0.75649996   -9.4933719     455.2874  0.012258681  0.011889207         3983 
 3096000   0.75496458   -9.4807878    455.53693  0.012261438  0.011883466         3978 
 3097000   0.76694711    -9.494724    455.63078  0.012260004  0.011877728         3981 
 3098000   0.75394074   -9.5033353     456.1999  0.012271355  0.011872002         3972 
 3099000   0.74813334   -9.4665028    455.68439  0.012253533   0.01186627         3974 
 3100000   0.75240298   -9.5242373    455.02862  0.012231952   0.01186054         3979 
 3101000   0.75439615   -9.4864703    456.26592  0.012261258  0.011854812         3977 
 3102000   0.73878046    -9.491587     454.9548  0.012222082  0.011849086         3982 
 3103000    0.7452416   -9.5311128    454.51473  0.012206325  0.011843369         3984 
 3104000   0.75048135   -9.4753615    456.34452  0.012251517   0.01183765         3975 
 3105000   0.75386942   -9.4813059    455.46362   0.01222393  0.011831938         3980 
 3106000   0.74065026   -9.4828747    455.80976  0.012229281   0.01182623         3972 
 3107000   0.76469902    -9.525455    454.78608  0.012197889  0.011820517         3971 
 3108000   0.76028788   -9.5085541    455.39046  0.012210169  0.011814817         3979 
 3109000   0.75125189   -9.4675672    456.59981  0.012238657  0.011809129         3973 
 3110000   0.75810237    -9.498739    455.25447  0.012198673  0.011803434         3984 
 3111000   0.75231387   -9.4932895    454.97163  0.012187175   0.01179774         3974 
 3112000   0.77404163    -9.498943    454.66585  0.012175071  0.011792048         3975 
 3113000   0.74663885   -9.4950801    455.23546  0.012186408  0.011786365         3981 
 3114000   0.73916027   -9.5116851    455.83072  0.012198424  0.011780685         3976 
 3115000   0.74301812   -9.4957787    456.05586  0.012200531  0.011775006         3974 
 3116000   0.75212533   -9.4937244    454.82051  0.012163578  0.011769329         3981 
 3117000   0.73931052   -9.4967106    455.71136  0.012183493   0.01176366         3977 
 3118000   0.74793438    -9.487559     455.3231  0.012169208  0.011757993         3975 
 3119000   0.76582321   -9.5007227     454.7858  0.012150951   0.01175233         3980 
 3120000   0.74475177    -9.467794    456.30906  0.012187742   0.01174667         3981 
 3121000   0.74590848   -9.5074493    454.33875  0.012131228  0.011741011         3976 
 3122000   0.76493468   -9.5215916    454.67529  0.012136325  0.011735359         3969 
 3123000   0.74733165   -9.4576628    456.61672  0.012184244  0.011729709         3982 
 3124000   0.75262136   -9.5102024    455.00257  0.012137286  0.011724066         3980 
 3125000   0.74326307   -9.4678891     456.0679  0.012161811  0.011718421         3984 
 3126000    0.7437353   -9.5088012    455.49417  0.012142625  0.011712782         3980 
 3127000   0.74836641   -9.4947349    455.26351  0.012132595  0.011707136         3973 
 3128000   0.76911859   -9.4959776    454.95902  0.012120605  0.011701502         3983 
 3129000   0.75708942   -9.4935039    454.75931  0.012111412   0.01169587         3978 
 3130000   0.76649799   -9.5135972    455.30193   0.01212199  0.011690234         3969 
 3131000   0.74105511   -9.5007893    455.13106   0.01211357   0.01168461         3976 
 3132000    0.7551369   -9.5092009    454.91667  0.012103998  0.011678987         3982 
 3133000   0.75588028   -9.5026844    455.27499  0.012109666  0.011673369         3975 
 3134000   0.74577293   -9.4850884    455.83481  0.012120687  0.011667761         3975 
 3135000   0.74417818   -9.5295356    454.68803  0.012086338  0.011662149         3983 
 3136000   0.74134295   -9.4785738    455.58537  0.012106329  0.011656539         3977 
 3137000   0.75056413   -9.5138577    455.50444   0.01210032   0.01165094         3982 
 3138000   0.75723515   -9.4820695    455.18186  0.012087897  0.011645344         3974 
 3139000   0.73954539    -9.508928    454.67636  0.012070627  0.011639744         3972 
 3140000   0.74591379   -9.5055442    454.80687  0.012070246  0.011634151         3978 
 3141000   0.73931178   -9.4970967    455.66434  0.012089153  0.011628564         3977 
 3142000   0.76860963   -9.4973627    455.25215  0.012074373  0.011622982         3973 
 3143000   0.75628404   -9.5084268    455.35979  0.012073385  0.011617399         3981 
 3144000   0.76623195   -9.5131681    455.16161  0.012064292  0.011611815         3977 
 3145000   0.75598218   -9.5166972    455.49151  0.012069197  0.011606246         3979 
 3146000    0.7444016   -9.4986168    454.68187  0.012043915  0.011600669         3982 
 3147000   0.73108372   -9.5018922    455.40634  0.012059272  0.011595099         3973 
 3148000   0.74054848   -9.5072823    455.03047  0.012045491  0.011589534         3976 
 3149000   0.73856007   -9.5111651    455.89983  0.012064672   0.01158397         3978 
 3150000   0.75582037   -9.5046134    455.19779  0.012042269  0.011578411         3980 
 3151000   0.75953162    -9.483603    454.84894  0.012029222  0.011572857         3980 
 3152000   0.75611604    -9.518093    454.85275  0.012025506  0.011567303         3981 
 3153000   0.73620291   -9.4738709    454.87504  0.012022282   0.01156176         3973 
 3154000   0.74233815   -9.4932809    454.39192  0.012005705  0.011556212         3974 
 3155000   0.75110621   -9.5151053    455.10048  0.012020615  0.011550669         3982 
 3156000   0.75400072   -9.4926648    455.84731  0.012036526  0.011545136         3964 
 3157000   0.73615505   -9.5048146    455.23666  0.012016594    0.0115396         3975 
 3158000   0.74184332   -9.5092534    455.14845  0.012010462  0.011534067         3975 
 3159000   0.73366335   -9.5147509    455.22025  0.012008553  0.011528543         3975 
 3160000    0.7262993     -9.51666    454.80018  0.011993676   0.01152302         3986 
 3161000   0.73697796   -9.4992276    455.76573  0.012015336  0.011517492         3976 
 3162000   0.74822726   -9.4914193    454.76194  0.011985082  0.011511972         3967 
 3163000   0.73800328   -9.5099531    455.03483  0.011988482  0.011506454         3977 
 3164000   0.75307933   -9.4982565    454.92755  0.011981868  0.011500948         3982 
 3165000   0.71895235   -9.5009395    454.57166  0.011968712  0.011495434         3987 
 3166000     0.752084   -9.5062797    455.40951  0.011986984  0.011489923         3965 
 3167000   0.74120008   -9.5166574    455.64246  0.011989329  0.011484418         3964 
 3168000   0.75810861    -9.521283    454.95912  0.011967569  0.011478917         3977 
 3169000    0.7428977   -9.5141251    454.64232  0.011955462   0.01147342         3980 
 3170000   0.75443914   -9.4807073    455.54582  0.011975442  0.011467926         3965 
 3171000   0.75740821   -9.5176567    454.05876  0.011932586  0.011462439         3969 
 3172000    0.7510738   -9.4967619    454.80913  0.011948538  0.011456946         3972 
 3173000    0.7447354   -9.4936249    454.25253  0.011930154  0.011451459         3968 
 3174000   0.75535165   -9.5045261    455.06579  0.011947747  0.011445979         3982 
 3175000    0.7532475   -9.5120216    454.83601  0.011937953  0.011440499         3980 
 3176000    0.7399045   -9.5473302    454.76459   0.01193232  0.011435027         3976 
 3177000   0.74104301   -9.5177626    455.53159  0.011948683  0.011429554         3981 
 3178000   0.74278066   -9.5052558    455.23188  0.011937064  0.011424081         3978 
 3179000   0.75134932   -9.5065746    454.63133  0.011917566   0.01141862         3963 
 3180000   0.75060287   -9.5153292    454.31744  0.011905593  0.011413162         3971 
 3181000   0.75935819   -9.5164569    454.74313  0.011913003  0.011407706         3980 
 3182000   0.73358366   -9.5196192    454.64289  0.011906633  0.011402249         3983 
 3183000    0.7468194   -9.5296529    454.61977  0.011902287  0.011396795         3981 
 3184000   0.74257507   -9.5275178    455.50401  0.011921692   0.01139135         3975 
 3185000   0.74536976   -9.5393221    454.75328  0.011898307  0.011385904         3975 
 3186000   0.73541337   -9.5372279     455.2333  0.011907128  0.011380466         3974 
 3187000   0.74402366     -9.51367    455.04679  0.011898515  0.011375026         3984 
 3188000   0.74832761   -9.4995369    454.65763   0.01188461  0.011369586         3967 
 3189000   0.73440674   -9.5332344    454.98005  0.011889308  0.011364156         3983 
 3190000   0.74993773   -9.5430611    454.90321  0.011883574   0.01135872         3980 
 3191000   0.74338576   -9.5284149    455.56615  0.011897163  0.011353288         3972 
 3192000   0.74547705   -9.5325623    453.96292   0.01185158   0.01134786         3980 
 3193000   0.74947962   -9.5331261    454.38729  0.011858944  0.011342439         3981 
 3194000   0.73650962   -9.5126898    454.68417  0.011862977  0.011337016         3977 
 3195000   0.73956123   -9.5334857    455.00175  0.011867547  0.011331593         3976 
 3196000   0.74268893   -9.4989883     455.1686  0.011868184  0.011326182         3969 
 3197000   0.73611017   -9.5181046    454.63343  0.011850522  0.011320772         3979 
 3198000   0.75537807   -9.5224638    454.79481  0.011851022  0.011315367         3983 
 3199000   0.72522852   -9.4996363    454.66596  0.011843961  0.011309955         3970 
 3200000   0.73847994   -9.5168534    454.53098  0.011836744  0.011304547         3964 
 3201000   0.74387574   -9.5081662    455.47579  0.011857643  0.011299148         3976 
 3202000   0.75405522    -9.528324    454.43652  0.011826893  0.011293747         3976 
 3203000   0.73834775   -9.5171675    455.13425  0.011841353  0.011288355         3981 
 3204000   0.72671412     -9.54227    454.65204  0.011825115  0.011282962         3974 
 3205000   0.73468234   -9.5345198    453.93968  0.011802904  0.011277573         3976 
 3206000   0.72605963   -9.5137968    454.92211  0.011824759  0.011272185         3967 
 3207000   0.74221305   -9.5459231    455.62591   0.01183936  0.011266807         3975 
 3208000    0.7337402   -9.5342962    454.63608  0.011809956  0.011261429         3977 
 3209000   0.73448523   -9.5047462    455.01201  0.011816038  0.011256054         3976 
 3210000   0.74519296    -9.504665     455.5264  0.011825711  0.011250688         3977 
 3211000   0.74345417   -9.5143433    454.27178  0.011789468  0.011245328         3971 
 3212000   0.72827806   -9.5305739    455.46554  0.011816769  0.011239964         3974 
 3213000   0.73373141   -9.5328931    454.96398  0.011800083  0.011234605         3974 
 3214000   0.74305697   -9.5438107    454.68927  0.011789288  0.011229249         3975 
 3215000   0.74116885   -9.5678657    454.64912  0.011784581  0.011223888         3975 
 3216000   0.71574224   -9.5467077    454.50565  0.011777199  0.011218532         3981 
 3217000   0.73125085   -9.5144034     454.5264  0.011774075  0.011213178         3967 
 3218000   0.74070179   -9.5339563    454.74772  0.011776148  0.011207831         3977 
 3219000   0.73785238   -9.5110182    455.19888  0.011784169  0.011202486         3980 
 3220000   0.74286787   -9.5248461    454.25904  0.011756186  0.011197145         3973 
 3221000   0.73761359   -9.5445205    454.78501  0.011766144  0.011191803         3972 
 3222000     0.748967   -9.5354633     454.9929  0.011767869  0.011186475         3979 
 3223000   0.75372263   -9.5465474    453.61281  0.011728535   0.01118114         3967 
 3224000   0.72700043   -9.5245116    454.83459  0.011756477  0.011175813         3976 
 3225000   0.73327511   -9.5265919    453.40286  0.011715836  0.011170488         3967 
 3226000   0.72989625   -9.5460576    454.40883   0.01173819  0.011165173         3978 
 3227000   0.73324873   -9.5131254    454.94305  0.011748349  0.011159859         3977 
 3228000   0.72763473   -9.5339298    454.18376  0.011725107  0.011154544         3964 
 3229000    0.7503514   -9.5080525    455.28482  0.011749892  0.011149239         3965 
 3230000   0.74663239   -9.5167842    454.57073  0.011727831  0.011143936         3978 
 3231000   0.73241171   -9.5268406    454.75613  0.011728983  0.011138637         3974 
 3232000   0.71998597   -9.5187333    455.32233  0.011739953  0.011133338         3978 
 3233000   0.73009496   -9.5319132    455.34709   0.01173696  0.011128039         3978 
 3234000   0.74185035   -9.5520111     454.0166  0.011699047  0.011122743         3977 
 3235000   0.72718559   -9.5207535    454.34227  0.011703819  0.011117454         3975 
 3236000   0.72954768   -9.5357743    454.62705  0.011707536  0.011112163         3969 
 3237000   0.73031497   -9.5124077    454.70292  0.011705873  0.011106879         3972 
 3238000    0.7451734   -9.5166508    454.79196  0.011704549  0.011101599         3973 
 3239000   0.75218939   -9.5271143    454.13645   0.01168407  0.011096321         3975 
 3240000   0.71757506   -9.5281854    455.08813  0.011704942  0.011091047         3982 
 3241000   0.73887513   -9.5289139    454.60083  0.011688801  0.011085775         3977 
 3242000    0.7434872   -9.5333822    454.62089  0.011685711  0.011080501         3972 
 3243000    0.7374076    -9.523447    456.15861  0.011721621  0.011075236         3979 
 3244000   0.72375502   -9.5355436    455.49393  0.011700933  0.011069974         3981 
 3245000   0.72886611   -9.5451401    454.95465  0.011683478  0.011064716         3973 
 3246000   0.73853373   -9.5475495    455.09244  0.011683416  0.011059462         3976 
 3247000   0.73715244   -9.5191817    454.33792  0.011660454  0.011054209         3979 
 3248000   0.73577663   -9.5351288    454.24509  0.011654482  0.011048956         3979 
 3249000   0.73765483   -9.5593954    454.52315  0.011658027  0.011043714         3969 
 3250000   0.72258764   -9.5539631    453.70173  0.011633378  0.011038473         3980 
 3251000   0.72532497   -9.5452491     454.4482  0.011648934  0.011033233         3976 
 3252000   0.71276868   -9.5536036    454.46373   0.01164575  0.011027997         3968 
 3253000   0.72691762   -9.5088946    454.89985  0.011653342  0.011022765         3970 
 3254000   0.74077345   -9.5534828    454.11552  0.011629674  0.011017537         3973 
 3255000     0.723976   -9.5491928    454.96267   0.01164779  0.011012314         3982 
 3256000   0.73245506   -9.5533114     454.6239  0.011635542   0.01100709         3977 
 3257000   0.71704569   -9.5319035    453.44684  0.011601853  0.011001871         3973 
 3258000   0.72020381    -9.556431    454.15884  0.011616504  0.010996654         3978 
 3259000   0.72419922   -9.5429813    454.34955  0.011617816  0.010991445         3971 
 3260000   0.73548872   -9.5696799    455.07042  0.011632679  0.010986231         3971 
 3261000   0.72856389   -9.5158461    454.21645   0.01160729  0.010981019         3971 
 3262000   0.74174306   -9.5532776    454.73032  0.011616859   0.01097582         3973 
 3263000   0.72696674   -9.5317789    453.89225  0.011591895  0.010970616         3973 
 3264000   0.73969813    -9.520011    453.70423  0.011583543  0.010965413         3973 
 3265000   0.73424234   -9.5437443    454.09025  0.011589848  0.010960216         3967 
 3266000   0.72680733   -9.5382998    454.73142  0.011602659  0.010955019         3970 
 3267000   0.72329539   -9.5403054    454.25965  0.011587074  0.010949828         3972 
 3268000   0.71714967   -9.5630938    454.82976  0.011598066   0.01094464         3966 
 3269000   0.71623763   -9.5734627    455.25063  0.011605247  0.010939456         3971 
 3270000   0.71408346   -9.5284345    455.05889  0.011596812  0.010934273         3973 
 3271000   0.71562984   -9.5621778    453.83319   0.01156204  0.010929097         3971 
 3272000   0.73952486   -9.5430757    454.59277  0.011577852   0.01092392         3968 
 3273000   0.73399469    -9.527814    454.78299  0.011579158  0.010918749         3977 
 3274000   0.71967873   -9.5478668    454.62119  0.011571502  0.010913579         3978 
 3275000   0.71606767   -9.5454629    454.44777  0.011563556  0.010908415         3976 
 3276000   0.72993782   -9.5551078    454.35051  0.011557553  0.010903256         3976 
 3277000   0.73406716    -9.565388    454.27533  0.011552114  0.010898098         3970 
 3278000   0.73092771   -9.5509273    454.17098  0.011545937  0.010892939         3976 
 3279000   0.72064043    -9.530525    454.18287  0.011542718  0.010887785         3984 
 3280000   0.75268819   -9.5410145    454.82386  0.011555484  0.010882639         3972 
 3281000   0.73684006   -9.5502233    453.70118  0.011523448  0.010877494         3970 
 3282000   0.72117806   -9.5467682    454.50908   0.01154045  0.010872355         3979 
 3283000   0.73267503   -9.5627052    453.86414  0.011520564  0.010867212         3973 
 3284000   0.71899104   -9.5656339     453.9072  0.011518149  0.010862076         3978 
 3285000   0.73702798   -9.5524396    454.88071  0.011539338  0.010856941         3971 
 3286000   0.70972171   -9.5343039    454.08136  0.011515555   0.01085181         3976 
 3287000   0.73323293   -9.5433276    454.98069  0.011534852  0.010846688         3964 
 3288000   0.71880498   -9.5370985    453.21856  0.011486683  0.010841556         3976 
 3289000   0.72357264   -9.5376301    454.15596  0.011506941  0.010836438         3974 
 3290000   0.71379929   -9.5368199    453.49788  0.011486775  0.010831315         3977 
 3291000   0.74180922   -9.5395015    454.93543  0.011519686  0.010826201         3979 
 3292000   0.73489092   -9.5462621    455.13265  0.011521179  0.010821091         3985 
 3293000   0.72013556   -9.5342625    455.54457  0.011528104  0.010815984         3980 
 3294000    0.7401524   -9.5452291     454.2694  0.011492345  0.010810875         3972 
 3295000   0.73331309    -9.528799    454.68661  0.011499408  0.010805772         3974 
 3296000   0.73702987   -9.5593823    454.31327   0.01148648  0.010800669         3982 
 3297000   0.72649745   -9.5508866    453.66599  0.011466636  0.010795574         3978 
 3298000    0.7328206   -9.5583018    453.74672  0.011465199  0.010790482         3966 
 3299000   0.72777682   -9.5476791    453.90318  0.011465676  0.010785391         3978 
 3300000   0.72560903   -9.5736298    454.92707  0.011488057  0.010780302         3973 
 3301000   0.71939879   -9.5439519    454.00782  0.011461371  0.010775218         3974 
 3302000   0.73686685   -9.5397061    454.53829  0.011471287  0.010770137         3981 
 3303000   0.71011183   -9.5433504    453.84076  0.011450216  0.010765058         3974 
 3304000   0.71851188   -9.5612244    453.86701  0.011447412  0.010759985         3973 
 3305000    0.7324676   -9.5532065    454.31496  0.011455244  0.010754906         3968 
 3306000   0.73856236   -9.5488541    454.80546  0.011464142  0.010749837         3975 
 3307000   0.72276345   -9.5815751    454.74163  0.011459067  0.010744768         3974 
 3308000   0.72699429   -9.5912309    453.92499  0.011435031  0.010739702         3977 
 3309000   0.70268453   -9.5713743    454.55076  0.011447335  0.010734637         3974 
 3310000    0.7257977   -9.5559069    453.95517  0.011428881   0.01072958         3970 
 3311000   0.72950026   -9.5740513     454.1089  0.011429299  0.010724525         3968 
 3312000   0.72407793   -9.5476683    453.99636  0.011423016  0.010719471         3977 
 3313000   0.71092171   -9.5750594    453.79618  0.011414533  0.010714418         3975 
 3314000   0.70763305   -9.5505171    454.08021  0.011418231  0.010709365         3976 
 3315000   0.71317896   -9.5288858    455.12447  0.011441038   0.01070432         3977 
 3316000   0.71574728   -9.5703099     454.3402  0.011417878  0.010699276         3977 
 3317000   0.71954499   -9.5504309    454.39754  0.011415876   0.01069424         3973 
 3318000   0.73148391   -9.5602999    453.17552  0.011381744  0.010689212         3973 
 3319000   0.70766135   -9.5486083    453.88394  0.011396102   0.01068418         3973 
 3320000   0.71375196   -9.5603241    454.16739  0.011399784   0.01067915         3975 
 3321000   0.72253622   -9.5637169    454.21745  0.011397607  0.010674123         3973 
 3322000   0.71673143   -9.5498019    454.27923  0.011395726  0.010669098         3971 
 3323000   0.72179352   -9.5576438    455.13974  0.011413877  0.010664077         3964 
 3324000   0.71795892   -9.5523149    453.82268  0.011377424   0.01065906         3972 
 3325000   0.71571585   -9.5463931    454.04776  0.011379643  0.010654043         3972 
 3326000   0.72341998    -9.581283    453.44425  0.011361101  0.010649031         3975 
 3327000   0.71876545   -9.5387138    454.35116  0.011380402  0.010644026         3975 
 3328000   0.72348241   -9.5627021     454.2033   0.01137328  0.010639022         3969 
 3329000   0.71467935   -9.5549309     454.9633  0.011388888   0.01063402         3970 
 3330000   0.72387141   -9.5410755     454.6351  0.011377255   0.01062902         3977 
 3331000   0.71413134   -9.5470903    454.58032  0.011372469  0.010624026         3977 
 3332000   0.72706796   -9.5393321    453.82004  0.011350041  0.010619033         3968 
 3333000   0.71498927   -9.5536719    454.18369  0.011355728  0.010614037         3972 
 3334000   0.71356922   -9.5316464    454.96671  0.011371893  0.010609055         3979 
 3335000     0.696459   -9.5735616    453.95024  0.011343084  0.010604076         3968 
 3336000   0.71520953   -9.5845403    454.18181  0.011345469  0.010599099         3974 
 3337000   0.72541115    -9.540301    453.28198  0.011319598  0.010594115         3975 
 3338000   0.71984826   -9.5643269     453.4827  0.011321218   0.01058914         3976 
 3339000   0.71649227   -9.5591714    453.17806  0.011310224  0.010584166         3977 
 3340000   0.71638563   -9.5773863    453.26017  0.011308887    0.0105792         3977 
 3341000   0.71246436     -9.58395    453.31085  0.011306766  0.010574233         3973 
 3342000    0.7267808   -9.5786636    453.59899  0.011310567  0.010569268         3978 
 3343000   0.71248391   -9.5552339    454.37007  0.011326405  0.010564308         3976 
 3344000   0.73105572   -9.5574027    454.12318  0.011316866  0.010559353         3975 
 3345000   0.73557145   -9.5632234    453.62625  0.011301102  0.010554395         3978 
 3346000   0.70917751   -9.5495792    454.01854  0.011307495  0.010549443         3976 
 3347000   0.72347179    -9.565606      454.439  0.011314585  0.010544493         3973 
 3348000    0.7177346    -9.577195    453.53525  0.011288711  0.010539545         3974 
 3349000     0.728667   -9.5594566    453.92481  0.011295034    0.0105346         3976 
 3350000   0.70950057   -9.5610061    453.58469  0.011283201  0.010529664         3974 
 3351000   0.71922632   -9.5563624    453.66687  0.011281878  0.010524728         3971 
 3352000   0.71527835   -9.5719468    454.05477  0.011288156  0.010519785         3972 
 3353000   0.70025858   -9.5585032    454.20902  0.011288623  0.010514851         3978 
 3354000   0.72059492   -9.5525106    453.89684  0.011277501   0.01050992         3977 
 3355000   0.70719304    -9.558232    453.34401  0.011260408  0.010504998         3965 
 3356000   0.70302454    -9.569294    453.28359  0.011255552  0.010500077         3976 
 3357000   0.71583993   -9.5879932    454.09324  0.011272298  0.010495158         3966 
 3358000   0.71282567   -9.5588262    454.25343  0.011272916  0.010490233         3977 
 3359000   0.71795834   -9.5694308    454.00638  0.011263431   0.01048532         3972 
 3360000   0.72266833   -9.5683341    453.71441  0.011252838  0.010480407         3978 
 3361000    0.7012329   -9.5712057    453.39455  0.011241559  0.010475497         3971 
 3362000   0.72583073   -9.5600466    454.86415  0.011274642  0.010470596         3973 
 3363000   0.71535843   -9.5747222    453.71878  0.011242908  0.010465696         3972 
 3364000   0.70753319   -9.5691044    453.72983  0.011239839  0.010460799         3977 
 3365000   0.70147151   -9.5810521    453.87023  0.011239976  0.010455905         3968 
 3366000   0.72423226   -9.5818424     453.4399  0.011225983  0.010451015         3972 
 3367000   0.70860509   -9.5666228     453.3254  0.011219815  0.010446131         3980 
 3368000   0.71135377   -9.5744943    453.25142  0.011214653  0.010441247         3971 
 3369000   0.69761249   -9.5845856    453.93193  0.011228157   0.01043636         3971 
 3370000   0.71870385   -9.5840944     453.8672  0.011223224  0.010431475         3981 
 3371000   0.70779115    -9.581602    453.35407   0.01120721  0.010426598         3981 
 3372000   0.70954759   -9.5642496    453.54678  0.011208649   0.01042172         3980 
 3373000    0.7313507   -9.5501113    453.63372  0.011207474   0.01041685         3980 
 3374000   0.70895189   -9.5660406    453.86129  0.011209773  0.010411978         3977 
 3375000   0.70311721   -9.5713632    453.17874  0.011189598  0.010407113         3975 
 3376000   0.70783508   -9.5604675    453.35234  0.011190569  0.010402251         3976 
 3377000   0.71022146   -9.5876846    454.21741  0.011208603   0.01039739         3976 
 3378000   0.70951321   -9.5642139     453.7565  0.011193914  0.010392528         3971 
 3379000      0.69611   -9.5627909    453.69235  0.011189019  0.010387674         3978 
 3380000   0.69691568   -9.5875781    453.26201  0.011175099   0.01038282         3975 
 3381000   0.71674502   -9.5798321    453.30071  0.011172747  0.010377969         3974 
 3382000   0.70791352   -9.5776032    453.48434  0.011173969  0.010373127         3981 
 3383000   0.69485777    -9.590869    453.22288  0.011164225   0.01036828         3966 
 3384000   0.70298499   -9.5646245    454.53477  0.011193232  0.010363437         3980 
 3385000   0.69956822   -9.5885787    453.44749  0.011163158  0.010358597         3984 
 3386000   0.70969525   -9.5733941    452.97534  0.011148241  0.010353757         3966 
 3387000   0.71507609   -9.5803003    454.04712   0.01117132   0.01034892         3979 
 3388000   0.71559096   -9.5945404    454.05871  0.011168308  0.010344084         3974 
 3389000    0.6974898   -9.5864798    453.62495  0.011154346  0.010339257         3970 
 3390000   0.69998709   -9.5589023    454.10254  0.011162796  0.010334432         3971 
 3391000   0.70292831   -9.5663398    453.22953   0.01113805   0.01032961         3974 
 3392000   0.71400327   -9.5550953    454.25975  0.011160076  0.010324791         3971 
 3393000   0.72162313   -9.5699294    453.65129  0.011141843  0.010319977         3977 
 3394000   0.70896151   -9.5750716    453.70655  0.011139917  0.010315163         3975 
 3395000   0.71219213   -9.5717588    453.82219  0.011139475  0.010310352         3972 
 3396000   0.71622005     -9.56575    453.79204  0.011135454  0.010305542         3977 
 3397000   0.72822279   -9.5601549    453.51123  0.011125288   0.01030074         3977 
 3398000   0.70644109   -9.5876731     453.6097  0.011124429   0.01029594         3981 
 3399000   0.71417154   -9.5722595    453.09977  0.011108654  0.010291143         3979 
 3400000   0.70125765   -9.5561072    453.90893  0.011125219  0.010286345         3981 
 3401000   0.69638326   -9.5760385    454.79122  0.011143566   0.01028155         3979 
 3402000   0.71398577   -9.5879271    454.01664  0.011121317  0.010276767         3975 
 3403000   0.71085715   -9.5624237    454.11131  0.011120367  0.010271978         3968 
 3404000   0.71733273    -9.583339    453.51041  0.011102389  0.010267195         3978 
 3405000   0.69065922   -9.5801197    454.72481   0.01112885  0.010262411         3975 
 3406000   0.69872851   -9.5607358    453.79887  0.011102928  0.010257629         3973 
 3407000   0.71798292   -9.5682728    453.92601  0.011102779  0.010252855         3978 
 3408000   0.71043493   -9.5665392    454.27025  0.011107938  0.010248086         3984 
 3409000   0.71399927   -9.5758632    454.29561    0.0111053  0.010243322         3976 
 3410000   0.70535163    -9.548151    454.19198  0.011099511  0.010238557         3982 
 3411000   0.71123106   -9.5787995    454.25711  0.011097848  0.010233795         3977 
 3412000    0.7116311   -9.5918695    453.79435  0.011083293  0.010229031         3972 
 3413000   0.71303063    -9.580229    453.65369  0.011076611  0.010224273         3972 
 3414000   0.69933311   -9.5792876     453.9888  0.011081546  0.010219522         3976 
 3415000   0.72379089   -9.5856199    453.00453  0.011054283  0.010214769         3980 
 3416000   0.71510316   -9.5513276    454.17274  0.011079546   0.01021002         3977 
 3417000   0.71146091   -9.5677616    453.73583  0.011065648  0.010205274         3984 
 3418000   0.71645427   -9.5797523    454.15355  0.011072595  0.010200529         3982 
 3419000   0.71600217   -9.5871212    453.56667  0.011055052  0.010195787         3977 
 3420000   0.68912992   -9.5787644    453.42978  0.011048484  0.010191046         3974 
 3421000   0.70973726   -9.5650962    453.21536  0.011040031  0.010186307         3971 
 3422000   0.71010705   -9.6063815    452.66797  0.011023475  0.010181577         3981 
 3423000   0.71941657    -9.581498    453.45038  0.011039302  0.010176849         3980 
 3424000   0.71523429   -9.5926631    453.59375  0.011039568  0.010172121         3981 
 3425000   0.70620647   -9.5850098    453.62554  0.011037118  0.010167396         3977 
 3426000   0.69874162   -9.5784193    454.10815  0.011045635  0.010162675         3974 
 3427000    0.7026791   -9.5604021    454.36153  0.011048573  0.010157962         3976 
 3428000   0.69613226    -9.579637    453.82069  0.011032203  0.010153244         3969 
 3429000   0.70863558   -9.5854558    453.10789  0.011011663  0.010148535         3979 
 3430000   0.69611104   -9.5795694    452.87431  0.011002777  0.010143824         3981 
 3431000   0.69092332   -9.6044374    453.59659  0.011017113  0.010139114         3979 
 3432000   0.71246808   -9.5889811    453.89992  0.011021268  0.010134407         3981 
 3433000   0.70998883   -9.5977371    452.67049  0.010988215  0.010129703         3979 
 3434000   0.70717111   -9.5858279     453.7069  0.011010166  0.010125003         3971 
 3435000   0.70956261    -9.594489    453.01475  0.010990169   0.01012031         3978 
 3436000    0.7159989    -9.581786    452.82589   0.01098239  0.010115617         3979 
 3437000   0.71423037   -9.5993404    453.90243  0.011005296  0.010110923         3981 
 3438000   0.69139258   -9.5890831    452.71343  0.010973275  0.010106236         3980 
 3439000   0.70420896   -9.6052422    452.56475  0.010966481  0.010101553         3979 
 3440000   0.69944528   -9.6013192     453.0549  0.010975167   0.01009687         3980 
 3441000   0.70525363   -9.5940647    453.05776  0.010972047   0.01009219         3971 
 3442000   0.69930929   -9.5836213    453.76504  0.010985983  0.010087516         3982 
 3443000   0.69372395   -9.5721892    454.45875  0.010999582  0.010082837         3979 
 3444000   0.69942799   -9.5705166    452.80039  0.010956262  0.010078169         3981 
 3445000   0.71277235   -9.5967318     453.6999   0.01097484  0.010073503         3982 
 3446000   0.70283715   -9.6023512    453.05263  0.010956003  0.010068842         3979 
 3447000   0.71275586   -9.6056885    453.11826  0.010954411  0.010064181         3984 
 3448000   0.70872935   -9.5885813    452.88236  0.010945533  0.010059522         3977 
 3449000   0.69425764   -9.5903825    453.09458  0.010947487  0.010054866         3976 
 3450000   0.69980802   -9.5821693    452.65138  0.010933608  0.010050211         3973 
 3451000    0.7067746    -9.588763    453.26142  0.010945171  0.010045564         3969 
 3452000   0.70654654   -9.5782898    453.67439   0.01095197  0.010040916         3977 
 3453000   0.70092287   -9.5856315    453.61113  0.010947271  0.010036272         3978 
 3454000   0.68747097   -9.5698104    453.68458  0.010945874   0.01003163         3979 
 3455000   0.69630211   -9.6046007    453.60068  0.010940682  0.010026991         3982 
 3456000   0.69423201    -9.594554    453.24903  0.010929037  0.010022353         3980 
 3457000   0.71284342   -9.5863076    453.01801  0.010920307  0.010017723         3972 
 3458000   0.70025859   -9.5856846    453.00544  0.010916846  0.010013092         3972 
 3459000   0.69833422   -9.5959862    453.12286  0.010916519  0.010008466         3983 
 3460000   0.70352495   -9.5916294     452.4039  0.010896048   0.01000384         3975 
 3461000   0.70032781   -9.6097739    453.50318  0.010919368 0.0099992177         3982 
 3462000   0.69648686    -9.586611    454.08827  0.010930297 0.0099946025         3983 
 3463000   0.70377513   -9.5863847    452.85496  0.010897463 0.0099899844         3979 
 3464000   0.68366024   -9.5903618    454.33935  0.010930027 0.0099853707         3982 
 3465000   0.70704333   -9.5981361    453.70226   0.01091155   0.00998076         3980 
 3466000   0.69368941   -9.5971759    453.11146  0.010894197 0.0099761501         3972 
 3467000    0.6889865   -9.5840489    453.97806  0.010911885 0.0099715451         3976 
 3468000   0.70482366   -9.6185064    452.98036  0.010884764  0.009966945         3980 
 3469000   0.68974945   -9.5852135    453.00071  0.010882116 0.0099623487         3979 
 3470000   0.70293323   -9.5803358    453.21762  0.010884189 0.0099577555         3971 
 3471000   0.69155265   -9.5821682    453.11878   0.01087868  0.009953161         3979 
 3472000   0.69927934   -9.6020265    453.07405  0.010874473 0.0099485691         3981 
 3473000   0.71032381   -9.5713263      452.942  0.010868174 0.0099439828         3975 
 3474000   0.69368743   -9.6048082    453.21352  0.010871558 0.0099394008         3974 
 3475000    0.6937955   -9.5788083    453.22916  0.010868805 0.0099348182         3976 
 3476000   0.69645295   -9.6046887    453.24268  0.010866002 0.0099302356         3976 
 3477000   0.68533788    -9.600703    453.66558  0.010873013 0.0099256596         3978 
 3478000   0.67732574    -9.595512     453.3813  0.010863075 0.0099210834         3978 
 3479000    0.7073113   -9.5742083    453.12027    0.0108537 0.0099165104         3971 
 3480000   0.69109899   -9.5999987    453.45461  0.010858587 0.0099119393         3974 
 3481000    0.6982845   -9.6096836    453.15794  0.010848366  0.009907374         3975 
 3482000   0.68924503   -9.6054476    453.25955  0.010847682 0.0099028071         3977 
 3483000   0.69268578   -9.6104316    452.23001  0.010819935 0.0098982414         3979 
 3484000   0.68153707   -9.5933297    452.99207  0.010835057 0.0098936864         3979 
 3485000   0.70453182    -9.611041    453.30032  0.010839319 0.0098891334         3979 
 3486000   0.69328954   -9.5965186    453.58939   0.01084312 0.0098845801         3978 
 3487000   0.69248995   -9.6065365     453.1151  0.010828675 0.0098800255         3973 
 3488000    0.6847145   -9.6053754    453.03755  0.010823718 0.0098754797         3977 
 3489000   0.68922005   -9.5878381    452.78629  0.010814615 0.0098709356         3975 
 3490000   0.70926329   -9.6071047    453.21487  0.010821749 0.0098663916         3974 
 3491000   0.70194553   -9.5985696    452.97535  0.010812932 0.0098618532         3978 
 3492000   0.69010096   -9.6028319    453.24234  0.010816207 0.0098573142         3980 
 3493000   0.69883666   -9.6278552    453.62563  0.010822255 0.0098527777         3981 
 3494000   0.68939408   -9.6150403    453.10892  0.010806834 0.0098482491         3976 
 3495000   0.69359863   -9.5920337    453.51526   0.01081343 0.0098437192         3970 
 3496000   0.68552404    -9.607966    453.07543  0.010799853  0.009839191         3981 
 3497000   0.68648957   -9.5904019    453.78936  0.010813778 0.0098346625         3971 
 3498000   0.69851178   -9.5912353    453.50328  0.010803871 0.0098301412         3979 
 3499000   0.68408398   -9.5873971    452.75075   0.01078286 0.0098256259         3960 
 3500000   0.70507006   -9.6247016    453.07577  0.010787518 0.0098211084         3972 
 3501000   0.70402835   -9.6068632    453.48597  0.010794201 0.0098165882         3976 
 3502000   0.67852532   -9.6022578    452.40821  0.010765472 0.0098120728         3973 
 3503000   0.68799372   -9.6085407    452.88665  0.010773781 0.0098075651         3976 
 3504000    0.6627361   -9.6077803    453.08537  0.010775432 0.0098030562         3973 
 3505000   0.71144762    -9.600792    453.58357  0.010784203 0.0097985515         3970 
 3506000   0.68079755   -9.5990033    452.52532  0.010755973 0.0097940521         3972 
 3507000   0.68466203   -9.6181199    453.37456  0.010773086 0.0097895533         3978 
 3508000   0.69421055   -9.6032038    453.09681  0.010763417 0.0097850635         3975 
 3509000   0.68682782   -9.5918849    452.68489  0.010750567 0.0097805682         3974 
 3510000   0.68717278   -9.6034262    452.73446  0.010748681 0.0097760804         3966 
 3511000   0.69006704   -9.5955924    453.96361  0.010774794 0.0097715992         3975 
 3512000   0.69127051   -9.5921095    452.90309  0.010746562 0.0097671155         3976 
 3513000   0.70004836   -9.5851375    453.14236  0.010749178 0.0097626312         3966 
 3514000   0.68416334   -9.6029049     453.5741  0.010756358 0.0097581552         3973 
 3515000   0.68336548    -9.601561    453.85111  0.010759865 0.0097536751         3973 
 3516000   0.69376412   -9.6006193    453.10999  0.010739239 0.0097492028         3978 
 3517000    0.6934294   -9.5956275    453.06707  0.010735169 0.0097447277         3976 
 3518000   0.68745986   -9.6000805    452.34652  0.010715049 0.0097402629         3975 
 3519000   0.68957442   -9.6140936    452.78661  0.010722426 0.0097357992         3971 
 3520000   0.70324923   -9.6040015    452.86735  0.010721291  0.009731338         3973 
 3521000   0.69898171   -9.5925847    452.67009  0.010713578 0.0097268783         3974 
 3522000   0.68094753   -9.6092094    452.68577  0.010710907 0.0097224183         3977 
 3523000    0.6873174   -9.6309023    452.84287  0.010711583 0.0097179654         3978 
 3524000    0.6785911   -9.6186323    453.22159  0.010717499 0.0097135104         3973 
 3525000   0.68328171   -9.6199286    452.45367  0.010696304 0.0097090603         3976 
 3526000   0.69716181   -9.6109797    453.30087  0.010713293 0.0097046102         3979 
 3527000   0.68799051   -9.6002108    453.45378  0.010713869 0.0097001659         3976 
 3528000   0.71114698   -9.6190609    452.93227  0.010698514 0.0096957212         3973 
 3529000   0.68083499    -9.611173    452.82537  0.010692958  0.009691277         3966 
 3530000   0.68110741   -9.5929951    453.16565  0.010697962 0.0096868434         3969 
 3531000   0.68836101   -9.5984253    452.78262  0.010685892  0.009682408         3973 
 3532000   0.68068551    -9.613896    453.19255  0.010692539 0.0096779806         3973 
 3533000   0.69400302   -9.6215799     452.1083  0.010663938 0.0096735486         3974 
 3534000   0.67892827   -9.6065479    453.01943  0.010682405 0.0096691259         3968 
 3535000   0.69865102   -9.6177652    452.78928  0.010673957 0.0096647048         3976 
 3536000   0.68933618   -9.6207449    452.65743  0.010667832 0.0096602857         3977 
 3537000   0.68210537   -9.5877536    453.12113  0.010675741 0.0096558689         3980 
 3538000   0.69800006    -9.594789    453.56326  0.010683137  0.009651456         3978 
 3539000   0.68867638   -9.6082649    452.83488  0.010662967 0.0096470471         3974 
 3540000   0.68824828   -9.6065891    452.38764  0.010649427 0.0096426339         3969 
 3541000   0.68271607   -9.6152966    453.17412  0.010664928 0.0096382223         3978 
 3542000   0.68254054   -9.6108091    452.87843   0.01065496  0.009633816         3974 
 3543000   0.67402415   -9.6062844    452.35544  0.010639652 0.0096294159         3975 
 3544000   0.68150474   -9.6259132    452.39175  0.010637504  0.009625015         3978 
 3545000   0.69358969   -9.6064958    452.29334  0.010632189 0.0096206175         3976 
 3546000   0.69005056   -9.6036642    452.92085  0.010643938 0.0096162206         3973 
 3547000   0.68688056   -9.6145475    453.09736  0.010645084 0.0096118308         3975 
 3548000   0.67506928   -9.6098069    452.34744   0.01062447 0.0096074414         3974 
 3549000   0.68199878   -9.5995888     453.9316  0.010658674 0.0096030559         3975 
 3550000   0.69439314   -9.6209052    452.17129   0.01061435 0.0095986724         3973 
 3551000   0.69173975    -9.590729    452.69543  0.010623661 0.0095942943         3969 
 3552000   0.67247942   -9.6159777    452.51725  0.010616489 0.0095899196         3966 
 3553000   0.67039721   -9.6315104    452.98985  0.010624586 0.0095855395         3977 
 3554000    0.6732011   -9.6122639     453.1761  0.010625964  0.009581165         3975 
 3555000   0.68392944   -9.6133394    453.18094  0.010623088 0.0095767925         3974 
 3556000   0.69563189   -9.6226529    452.75946  0.010610224  0.009572425         3975 
 3557000   0.67683589   -9.6406866    452.71034   0.01060609 0.0095680608         3978 
 3558000   0.67559737    -9.613942    453.09743  0.010612175 0.0095636989         3980 
 3559000    0.6787234    -9.617776    452.99049  0.010606689 0.0095593386         3981 
 3560000    0.6768499   -9.6035323    452.49161  0.010592032 0.0095549829         3976 
 3561000   0.68664846   -9.6002281    452.92725  0.010599252 0.0095506286         3974 
 3562000   0.68105163   -9.6031449    452.97644  0.010597428 0.0095462754         3974 
 3563000    0.6838962   -9.6312704    452.92286    0.0105932 0.0095419265         3985 
 3564000   0.67422277   -9.6120159    452.31518  0.010576019 0.0095375843         3976 
 3565000    0.6881478   -9.6157145     452.5805  0.010579254 0.0095332415         3978 
 3566000   0.69235611    -9.617758    452.23475  0.010568208 0.0095289003         3977 
 3567000   0.67963613   -9.6500008    451.80258  0.010555149 0.0095245634         3976 
 3568000   0.69085912   -9.6256064    452.94878  0.010578961 0.0095202268         3978 
 3569000   0.68355976   -9.6039308    453.24609  0.010582938 0.0095158988         3973 
 3570000   0.67945123   -9.6173146    452.63589   0.01056573 0.0095115696         3978 
 3571000   0.67323937    -9.632978    452.10913  0.010550479  0.009507241         3979 
 3572000   0.68694875   -9.6023697    452.56656  0.010558197 0.0095029181         3975 
 3573000   0.67441738    -9.619219    452.47634  0.010553138 0.0094985964         3981 
 3574000   0.67670495   -9.6180605    452.65422  0.010554333 0.0094942765         3979 
 3575000   0.67299391   -9.6156858    453.24994  0.010565267 0.0094899602         3971 
 3576000   0.67295766   -9.6174362    452.69577  0.010549398 0.0094856493         3975 
 3577000   0.68856054   -9.6308216    452.94475  0.010552249 0.0094813385         3974 
 3578000   0.67747562   -9.6280842    453.42044  0.010560379 0.0094770262         3977 
 3579000   0.68092396   -9.6055875    453.24266  0.010553289  0.009472719         3980 
 3580000   0.66985588   -9.6290053    452.79523  0.010539926 0.0094684161         3975 
 3581000   0.67405506   -9.6332178    452.16171   0.01052224 0.0094641106         3980 
 3582000   0.67493186   -9.6231152    451.77482  0.010510302 0.0094598086         3980 
 3583000   0.68363796   -9.6217751    452.31492   0.01051993 0.0094555087         3977 
 3584000   0.66029981   -9.5973511    452.57951  0.010523147 0.0094512133         3979 
 3585000   0.67111292   -9.5976915    453.18915  0.010534383 0.0094469175         3972 
 3586000   0.68116829   -9.6004279    452.56064   0.01051684 0.0094426294         3980 
 3587000   0.66744039   -9.6089943    452.59014  0.010514593 0.0094383395         3979 
 3588000   0.67869863   -9.6212686    452.96664  0.010520407 0.0094340509         3978 
 3589000   0.66630253   -9.6100701    453.15806   0.01052192 0.0094297688         3977 
 3590000    0.6708723   -9.6358007    452.85579  0.010511973 0.0094254884         3975 
 3591000    0.6863161   -9.6422389    452.45107  0.010499654 0.0094212111         3977 
 3592000    0.6763619   -9.6185177    452.16053   0.01048999 0.0094169396         3972 
 3593000   0.66053483   -9.6080214    452.98798  0.010506262 0.0094126619         3980 
 3594000   0.66798658   -9.6118279    452.85382  0.010500228 0.0094083895         3975 
 3595000   0.66810927   -9.6370907    452.76135  0.010495163 0.0094041238         3980 
 3596000    0.6623069   -9.6203319    451.78979   0.01046973 0.0093998613         3978 
 3597000    0.6781304   -9.6238935    452.99573  0.010494758 0.0093955973         3972 
 3598000   0.67412438    -9.618155    452.43318  0.010478812 0.0093913381         3981 
 3599000     0.657855    -9.630161    453.14674  0.010492422 0.0093870814         3973 
 3600000   0.67123158   -9.6321593    452.89549  0.010483692 0.0093828283         3971 
 3601000   0.67292773   -9.6402869    452.08135   0.01046194  0.009378572         3973 
 3602000   0.68141854   -9.6116028     453.5388  0.010492754 0.0093743194         3980 
 3603000   0.67652431   -9.6441376    452.27053  0.010460508 0.0093700735         3982 
 3604000   0.68311283   -9.6329757     453.0055    0.0104746 0.0093658271         3974 
 3605000     0.675236   -9.6403478    452.64855  0.010463443 0.0093615844         3979 
 3606000   0.66661964   -9.6151136    452.53576  0.010457935  0.009357342         3975 
 3607000   0.67707916   -9.6073801    452.99985  0.010465758 0.0093531041         3975 
 3608000   0.67362247   -9.6339511    452.44872  0.010450127 0.0093488713         3971 
 3609000   0.67325212   -9.6417924    453.24536  0.010465627 0.0093446394         3975 
 3610000    0.6642717   -9.6459457    452.63278  0.010448587 0.0093404065         3973 
 3611000    0.6771132   -9.6530272    451.88767  0.010428498 0.0093361756         3982 
 3612000    0.6806601   -9.6339737    451.68279  0.010420884 0.0093319436         3981 
 3613000   0.67411742   -9.6496189    452.28213  0.010431823 0.0093277175         3979 
 3614000   0.67285911   -9.6445061    452.65424  0.010437517 0.0093234927         3982 
 3615000   0.66069574   -9.6583276    453.01132  0.010442861 0.0093192705         3979 
 3616000   0.67719471   -9.6626074    452.34215  0.010424552   0.00931505         3980 
 3617000   0.68020011   -9.6386894    452.32045   0.01042117 0.0093108289         3975 
 3618000   0.66700804   -9.6314355    452.46337  0.010421581 0.0093066144         3966 
 3619000     0.683486   -9.6160555     453.0405  0.010431991 0.0093024028         3978 
 3620000   0.69847266   -9.6297516    452.75835  0.010422614 0.0092981965         3977 
 3621000   0.67328122   -9.6694287    452.14419  0.010405601 0.0092939859         3971 
 3622000   0.67705447   -9.6254151    452.59925  0.010413198   0.00928978         3978 
 3623000   0.66689942   -9.6412724    452.19288  0.010400977 0.0092855822         3974 
 3624000   0.67110914   -9.6457236    452.91503  0.010414713 0.0092813853         3972 
 3625000   0.68066329   -9.6436339    452.70798   0.01040708 0.0092771882         3971 
 3626000   0.66636077   -9.6391936    452.79801  0.010406279 0.0092729935         3971 
 3627000   0.66993109   -9.6434064    453.03346  0.010408819 0.0092688012         3977 
 3628000   0.66583403   -9.6378803    452.23143  0.010387528 0.0092646136         3979 
 3629000   0.67094131    -9.644742    452.35751  0.010387561 0.0092604268         3978 
 3630000    0.6662957   -9.6487519    452.36773  0.010384934 0.0092562429         3983 
 3631000   0.65704371   -9.6400153    452.63565  0.010388223 0.0092520618         3980 
 3632000    0.6588763   -9.6394677    451.70073  0.010363912  0.009247884         3976 
 3633000   0.68147601   -9.6582492    452.03803  0.010368796 0.0092437056         3983 
 3634000   0.66601174   -9.6261463    452.08161  0.010366942 0.0092395351         3980 
 3635000   0.66943491   -9.6304728    452.40289  0.010371456 0.0092353648         3982 
 3636000   0.67606961   -9.6520529     452.0217  0.010359867 0.0092311934         3980 
 3637000   0.68321676   -9.6299334    450.79358  0.010328879 0.0092270292         3978 
 3638000   0.67049232   -9.6402421    451.76784  0.010348356  0.009222868         3982 
 3639000    0.6714297   -9.6332383    452.30594  0.010357835 0.0092187064         3982 
 3640000   0.67536739   -9.6444602    451.81312  0.010343707 0.0092145475         3978 
 3641000   0.66669564   -9.6220053    452.34443  0.010353026 0.0092103899         3979 
 3642000   0.66375088   -9.6413706     452.1714  0.010346225 0.0092062356         3981 
 3643000   0.67418255   -9.6451757    451.95409  0.010338414 0.0092020862         3979 
 3644000    0.6722435   -9.6076386    452.95778   0.01035853 0.0091979406         3979 
 3645000   0.65434706   -9.6432776    452.31526  0.010340998 0.0091937957         3970 
 3646000    0.6561876   -9.6450748    452.66555  0.010346168 0.0091896518         3977 
 3647000   0.69854156    -9.659509    451.71944  0.010321713 0.0091855099         3978 
 3648000   0.67098926    -9.674095    452.50855  0.010336909  0.009181369         3977 
 3649000   0.67046694   -9.6445166    453.37146  0.010353783 0.0091772316         3977 
 3650000   0.66939963   -9.6427116    452.47082  0.010330384  0.009173096         3976 
 3651000   0.66712951   -9.6527765    451.95947  0.010315883 0.0091689593         3967 
 3652000      0.67476   -9.6390255    453.17744  0.010340851 0.0091648322         3979 
 3653000   0.66114093    -9.649402    452.29892  0.010317979 0.0091607098         3973 
 3654000    0.6723088    -9.659872    452.60059  0.010322035 0.0091565894         3979 
 3655000   0.67021285   -9.6549479    452.12964  0.010308473 0.0091524681         3978 
 3656000   0.66522062   -9.6216986    452.46278  0.010313247 0.0091483463         3974 
 3657000    0.6634285   -9.6237862    451.81647  0.010295699 0.0091442319         3975 
 3658000   0.66857985   -9.6301664    452.33887  0.010304786 0.0091401196         3974 
 3659000   0.65851587   -9.6580724    451.69315  0.010287263 0.0091360095         3980 
 3660000     0.667209   -9.6509057     451.7984  0.010286849  0.009131902         3976 
 3661000   0.66057972   -9.6377438    452.88494  0.010308771 0.0091277949         3977 
 3662000   0.68425044   -9.6397219    452.11135  0.010288352 0.0091236946         3973 
 3663000   0.65939374   -9.6443154    452.24044   0.01028848 0.0091195965         3979 
 3664000   0.66898681   -9.6682793    452.06049  0.010281579 0.0091154993         3980 
 3665000   0.66565055   -9.6388531     452.9691  0.010299434 0.0091114075         3976 
 3666000   0.67357381   -9.6413207    451.52877  0.010263884 0.0091073149         3974 
 3667000   0.67337947   -9.6379344    451.91122  0.010269776 0.0091032245         3983 
 3668000   0.67215034    -9.642284    451.73598  0.010262995 0.0090991325         3975 
 3669000   0.67389571   -9.6489313    452.37658  0.010274747 0.0090950449         3972 
 3670000   0.67544193   -9.6499189     452.0244  0.010263951 0.0090909603         3979 
 3671000   0.66951676   -9.6505678    451.80121  0.010256089 0.0090868777         3983 
 3672000   0.67235235   -9.6443809    451.47526  0.010245898 0.0090827989         3979 
 3673000   0.67714189   -9.6407308    452.36631  0.010263325 0.0090787208         3984 
 3674000   0.66681428   -9.6520297    451.73783  0.010246276 0.0090746512         3970 
 3675000   0.67119793   -9.6421672    452.23425  0.010254745 0.0090705807         3977 
 3676000   0.65916294    -9.667978    451.61238  0.010237858  0.009066512         3979 
 3677000    0.6736457   -9.6541402    451.85243  0.010240514 0.0090624472         3980 
 3678000   0.67177845   -9.6623253    452.37687  0.010249612 0.0090583813         3977 
 3679000    0.6628703   -9.6315503    452.99481  0.010260823 0.0090543205         3976 
 3680000   0.65815254   -9.6872741    451.81874  0.010231403 0.0090502608         3975 
 3681000   0.66585151   -9.6507537    452.66647  0.010247815 0.0090462051         3982 
 3682000    0.6683373    -9.651933    452.35594  0.010238003  0.009042149         3973 
 3683000   0.66248742   -9.6566077    452.49313  0.010238328 0.0090380961         3977 
 3684000   0.66303251   -9.6517424    451.79396  0.010219733  0.009034047         3975 
 3685000   0.64136546   -9.6585659    452.39414  0.010230532 0.0090299972         3979 
 3686000   0.66614937   -9.6535701    451.75849  0.010213386 0.0090259545         3976 
 3687000   0.66045481   -9.6609291    451.95424   0.01021504 0.0090219094         3977 
 3688000    0.6622412   -9.6561859    452.57156  0.010226219 0.0090178695         3980 
 3689000   0.66143743   -9.6423922    452.61242   0.01022437 0.0090138344         3981 
 3690000   0.66596095   -9.6425813    452.03355  0.010208527 0.0090097972         3970 
 3691000   0.65752829   -9.6495953    451.37244  0.010190834 0.0090057665         3974 
 3692000   0.66040356   -9.6451575      452.348  0.010210094 0.0090017353         3976 
 3693000   0.66372561   -9.6587033    451.40911  0.010186143 0.0089977058         3975 
 3694000   0.65453629   -9.6750104    450.91232  0.010172178 0.0089936757         3970 
 3695000   0.64754669   -9.6574079    451.65931  0.010186272 0.0089896499         3975 
 3696000    0.6538672    -9.652561    452.04256  0.010192157 0.0089856282         3977 
 3697000   0.65342184   -9.6678565      452.675  0.010203656 0.0089816101         3983 
 3698000   0.65214943   -9.6216418    451.98389  0.010185323 0.0089775886         3978 
 3699000    0.6609088   -9.6708486    451.44904   0.01017052 0.0089735777         3984 
 3700000   0.67394174   -9.6665168    451.40786  0.010166844 0.0089695654         3969 
 3701000   0.65451425   -9.6718012    451.54501  0.010167185 0.0089655567         3978 
 3702000   0.65672019   -9.6508773    452.64912  0.010189292 0.0089615467         3974 
 3703000   0.64523362   -9.6389019    451.96468  0.010171138 0.0089575414         3982 
 3704000   0.67463403   -9.6748638    451.04273   0.01014765 0.0089535391         3976 
 3705000   0.64695492   -9.6660816    451.63507  0.010158234 0.0089495376         3977 
 3706000   0.65470818    -9.667305     450.9675  0.010140482  0.008945541         3980 
 3707000   0.66762963    -9.667234    451.65658  0.010153237 0.0089415418         3986 
 3708000   0.65019445   -9.6469442    451.29978   0.01014248  0.008937549         3976 
 3709000   0.65723232    -9.658556    453.17069  0.010181781 0.0089335565         3977 
 3710000    0.6629213   -9.6626851    452.09691  0.010154917 0.0089295647         3981 
 3711000   0.66317576   -9.6560098    451.76649  0.010144761 0.0089255775         3979 
 3712000   0.64171951   -9.6865749    451.51942  0.010136481 0.0089215904         3976 
 3713000   0.65974284   -9.6271798    452.42019  0.010153968 0.0089176091         3978 
 3714000   0.66115315   -9.6477092    451.83355  0.010138071  0.008913631         3972 
 3715000   0.67220322   -9.6742677    451.79843  0.010134554 0.0089096537         3977 
 3716000   0.67045562   -9.6731339    451.71676  0.010129996 0.0089056752         3980 
 3717000   0.65296308   -9.6555241    452.10122   0.01013589 0.0089017026         3979 
 3718000   0.65534309   -9.6620134    452.62371  0.010144874 0.0088977344         3977 
 3719000   0.66373798   -9.6563454    451.02269  0.010106272  0.008893768         3972 
 3720000   0.65433851   -9.6592879    451.81047  0.010121202 0.0088898019         3972 
 3721000   0.66130158      -9.6712    452.01687  0.010123105 0.0088858374         3978 
 3722000   0.66464534   -9.6882657    451.37027  0.010105908 0.0088818789         3982 
 3723000   0.65345244   -9.6437989    451.84534  0.010113827 0.0088779199         3981 
 3724000   0.65458749   -9.6492274    451.81368  0.010110403 0.0088739648         3978 
 3725000   0.64866267   -9.6679248    452.05088  0.010112995 0.0088700114         3976 
 3726000    0.6534821    -9.666212    451.07546  0.010088465 0.0088660594         3977 
 3727000   0.66057916   -9.6729559    452.66123  0.010121215 0.0088621077         3974 
 3728000   0.64310173   -9.6547807    451.87599  0.010100948 0.0088581601         3971 
 3729000   0.66359882    -9.653323    451.99484  0.010100895 0.0088542181         3976 
 3730000   0.64666901   -9.6519742    451.80581  0.010093964  0.008850276         3978 
 3731000   0.64988236   -9.6718492    451.75103  0.010090035 0.0088463399         3979 
 3732000   0.65466643   -9.6758241    451.54974  0.010082836  0.008842405         3984 
 3733000   0.64114851   -9.6521391    451.36967  0.010076115 0.0088384659         3979 
 3734000   0.65842586   -9.6696954     451.3521  0.010073025 0.0088345322         3977 
 3735000   0.65740262   -9.6576555    452.05379  0.010085984 0.0088306017         3978 
 3736000   0.64105884   -9.6741343    451.57377  0.010072577   0.00882667         3980 
 3737000   0.65907008   -9.6470411    451.41328  0.010066303 0.0088227464         3978 
 3738000   0.65408974   -9.6482958    451.71444  0.010070324 0.0088188213         3976 
 3739000   0.65553103   -9.6690455    450.88079   0.01004905    0.0088149         3974 
 3740000   0.65210572   -9.6546952    451.14812   0.01005232 0.0088109822         3975 
 3741000   0.65361185   -9.6715607    451.75716    0.0100632 0.0088070651         3974 
 3742000   0.64561871    -9.661031    451.56753  0.010056287 0.0088031526         3979 
 3743000   0.65879924   -9.6587489    451.32362   0.01004817 0.0087992403         3981 
 3744000   0.65107264   -9.6437248    451.97504  0.010059986 0.0087953306         3972 
 3745000   0.64301636   -9.6795668    451.74479  0.010052176 0.0087914203         3983 
 3746000   0.65632172   -9.6565787    451.47956  0.010043592  0.008787515         3976 
 3747000   0.67524321   -9.6670441    451.93696  0.010051084 0.0087836129         3978 
 3748000   0.66563323   -9.6571259    451.85998  0.010046691 0.0087797153         3982 
 3749000   0.64104741   -9.6864843    451.54975  0.010037115 0.0087758173         3977 
 3750000    0.6535101   -9.6594242    451.25746  0.010027944 0.0087719231         3980 
 3751000   0.64976506   -9.6667796    452.03907  0.010042635 0.0087680299         3979 
 3752000   0.65507915   -9.6707769    452.03588  0.010039887 0.0087641359         3977 
 3753000   0.65808827     -9.66649    451.60271  0.010027594 0.0087602462         3978 
 3754000   0.64032298   -9.6508519    451.98894  0.010033496 0.0087563603         3977 
 3755000   0.65861426   -9.6544421    452.24469    0.0100365  0.008752481         3973 
 3756000    0.6579686   -9.6746361    451.77802  0.010023474 0.0087485978         3977 
 3757000   0.65932693   -9.6542544    451.51156  0.010014896  0.008744719         3971 
 3758000   0.64661096   -9.6916192    452.02682  0.010023657 0.0087408459         3986 
 3759000   0.64066864   -9.6715278    452.10397    0.0100227 0.0087369682         3979 
 3760000   0.64586746   -9.6607877    451.82012  0.010013744 0.0087330973         3973 
 3761000   0.65542487   -9.6819372    451.27014 0.0099988952  0.008729226         3980 
 3762000   0.66454325   -9.7007911    451.01463 0.0099905776 0.0087253571         3985 
 3763000   0.65793383   -9.6763895    452.35139  0.010017526 0.0087214869         3976 
 3764000   0.65619002   -9.6644579    451.88319  0.010004499  0.008717628         3972 
 3765000   0.64436165   -9.6831806    451.67855 0.0099973119 0.0087137638         3975 
 3766000    0.6549329   -9.6870133    451.41389 0.0099888008 0.0087099055         3981 
 3767000   0.64811233   -9.6837296    450.69757 0.0099703028 0.0087060503         3975 
 3768000   0.64462562   -9.6818698    451.11028 0.0099767844 0.0087021966         3977 
 3769000   0.65199649   -9.6828933    451.38532 0.0099802185 0.0086983455         3982 
 3770000   0.64991442   -9.6880161    451.36658 0.0099771568 0.0086944979         3982 
 3771000   0.63748681    -9.670149    451.62185 0.0099801523 0.0086906509         3979 
 3772000   0.64089887   -9.6850076     451.4447 0.0099735926 0.0086868051         3979 
 3773000   0.64600938   -9.6893662    451.73475 0.0099773554 0.0086829561         3974 
 3774000   0.62694846   -9.6717234    451.78085 0.0099757298 0.0086791151         3982 
 3775000   0.64349308   -9.6749604    452.21082 0.0099825789 0.0086752718         3983 
 3776000   0.65702229   -9.6680073    451.95357 0.0099742578 0.0086714343         3980 
 3777000    0.6533673   -9.6855019    451.57951  0.009963364 0.0086676001         3972 
 3778000   0.64660692   -9.6833986    450.69462 0.0099412083 0.0086637686         3977 
 3779000   0.65013952   -9.6764538     451.8336 0.0099636941  0.008659935         3978 
 3780000   0.63672409   -9.7040582    451.13661 0.0099456925 0.0086561035         3979 
 3781000   0.64517238   -9.6614528    451.54076 0.0099519695  0.008652275         3981 
 3782000   0.64072872   -9.6670276    452.05471 0.0099606626 0.0086484493         3974 
 3783000   0.65919725   -9.6761678    452.16752 0.0099605146 0.0086446297         3974 
 3784000   0.65471798   -9.6802219    451.85183 0.0099509301 0.0086408096         3977 
 3785000    0.6423762   -9.6884446    451.35286 0.0099373152 0.0086369958         3982 
 3786000    0.6593615   -9.6977231    451.14429 0.0099300997 0.0086331828         3981 
 3787000   0.64794901   -9.6869623     451.6994 0.0099396927 0.0086293695         3981 
 3788000   0.63628451   -9.6661745    452.08273 0.0099455017 0.0086255603         3974 
 3789000   0.63794046   -9.6916552    451.67348 0.0099338761 0.0086217503         3983 
 3790000   0.64971961   -9.6923041    451.13618  0.009919441 0.0086179457         3974 
 3791000   0.63151462   -9.6830357      451.663  0.009928405 0.0086141399         3972 
 3792000   0.63659008   -9.6869823    452.10197 0.0099354335 0.0086103398         3980 
 3793000   0.63717769   -9.6888467    450.73829 0.0099028537   0.00860654         3975 
 3794000   0.64242259   -9.7033474    451.84956 0.0099246521  0.008602746         3980 
 3795000   0.63901317   -9.6812567     452.1233 0.0099280479 0.0085989495         3981 
 3796000   0.65257358   -9.6875005    452.01782 0.0099231168 0.0085951555         3976 
 3797000   0.64684022   -9.6995044    451.39403  0.009906813 0.0085913648         3983 
 3798000   0.64506717   -9.6633867    451.68896 0.0099106758 0.0085875747         3981 
 3799000   0.64797502   -9.6758442    450.92857 0.0098913875 0.0085837896         3977 
 3800000    0.6504305   -9.7032725    451.33072 0.0098976034 0.0085800108         3984 
 3801000   0.64083981   -9.6925137    451.22726 0.0098927313 0.0085762287         3977 
 3802000   0.62948136   -9.6888369    451.63388 0.0098990418 0.0085724482         3974 
 3803000    0.6394695   -9.6727339    450.99737 0.0098824912 0.0085686708         3977 
 3804000   0.65097406   -9.6682671    451.46426 0.0098901215 0.0085648963         3979 
 3805000   0.65247042   -9.6757578    451.36815 0.0098854173 0.0085611255         3983 
 3806000   0.64177565   -9.7002089    450.37366 0.0098610453 0.0085573573         3981 
 3807000   0.64179935   -9.6694587    451.04643 0.0098731816 0.0085535872         3976 
 3808000   0.64551774   -9.6728254    451.15394 0.0098729417 0.0085498229         3984 
 3809000   0.64794747   -9.6788126    451.62391 0.0098806317  0.008546059         3980 
 3810000   0.64332767   -9.6906371    450.64903 0.0098567153 0.0085422948         3981 
 3811000   0.64458631   -9.6762735    450.83265 0.0098581442 0.0085385363         3975 
 3812000   0.63675387   -9.6889903     451.8604 0.0098780255 0.0085347803         3976 
 3813000    0.6358152   -9.6859423    451.51671 0.0098679236 0.0085310255         3977 
 3814000   0.65005505   -9.6962023    451.15571 0.0098574487 0.0085272709         3984 
 3815000   0.64273602     -9.69942    450.89037 0.0098490687 0.0085235227         3981 
 3816000   0.63886124   -9.6877368    451.20563 0.0098533725 0.0085197768         3978 
 3817000   0.63679773   -9.6992311    451.18255  0.009850287 0.0085160338         3975 
 3818000   0.65062926    -9.686604    450.79571 0.0098392638 0.0085122936         3980 
 3819000   0.65201629   -9.6783555    451.20329  0.009845581 0.0085085534         3980 
 3820000   0.63575214   -9.7010689    452.05279 0.0098615356 0.0085048165         3982 
 3821000     0.650387   -9.6821949    451.20398 0.0098404427  0.008501079         3983 
 3822000   0.65152669   -9.6940876    451.03242 0.0098341275 0.0084973441         3980 
 3823000   0.63272594   -9.6785557    451.37403 0.0098390014 0.0084936087         3977 
 3824000   0.63801972   -9.7101903    450.56725  0.009818847 0.0084898807         3976 
 3825000   0.64377344   -9.6909128    452.09839 0.0098496381 0.0084861526         3977 
 3826000   0.63522728    -9.697109     451.1351 0.0098260824 0.0084824282         3977 
 3827000   0.63200098   -9.6950104    451.04993 0.0098216604 0.0084787044         3981 
 3828000   0.63856692   -9.6932899    451.08938 0.0098199535   0.00847498         3978 
 3829000   0.63204768   -9.7133494    451.11908 0.0098180352 0.0084712617         3981 
 3830000   0.64649008   -9.7039886    451.29903 0.0098193871 0.0084675436         3978 
 3831000   0.63867037   -9.6956219    451.54752 0.0098222291   0.00846383         3974 
 3832000   0.63450399   -9.6966781    451.64423 0.0098217692 0.0084601189         3978 
 3833000   0.64545423   -9.6919922     451.2329  0.009810264 0.0084564076         3976 
 3834000   0.62955359    -9.695532    452.22899 0.0098293556 0.0084527005         3978 
 3835000   0.62668077   -9.6803623    451.29369 0.0098064687 0.0084489943         3979 
 3836000   0.63943917    -9.705911    450.41895 0.0097849093 0.0084452893         3982 
 3837000   0.63760627   -9.7021797    451.49814 0.0098057975 0.0084415878         3980 
 3838000   0.64847746    -9.696042     450.2982 0.0097771886 0.0084378907         3988 
 3839000    0.6345953   -9.6701123     451.8549 0.0098084332 0.0084341941         3978 
 3840000   0.65395684   -9.6845986    451.09171 0.0097893166 0.0084305006         3975 
 3841000    0.6362038   -9.7054153     450.4305 0.0097724226  0.008426809         3982 
 3842000   0.63188355   -9.7211644    450.64764 0.0097745888 0.0084231174         3985 
 3843000   0.65594962   -9.6853384    451.59944 0.0097926845 0.0084194287         3978 
 3844000   0.63686421   -9.7016353    451.10163 0.0097793451 0.0084157435         3977 
 3845000   0.62730743   -9.7085305    451.65293 0.0097887501 0.0084120588         3980 
 3846000    0.6407328   -9.7064168    451.61361 0.0097853531 0.0084083737         3982 
 3847000   0.64238744   -9.6976587    450.90555 0.0097674713 0.0084046919         3976 
 3848000   0.63753944   -9.6705465     451.6052  0.009780085 0.0084010133         3977 
 3849000   0.64183556     -9.68705    450.97608 0.0097639231 0.0083973373         3975 
 3850000   0.64657968   -9.7005868    450.99996 0.0097619039 0.0083936615         3975 
 3851000   0.65308502   -9.7015792    450.13998 0.0097407595 0.0083899925         3976 
 3852000   0.62818266    -9.695181      450.561  0.009747339 0.0083863233         3976 
 3853000   0.63647419   -9.7130299    450.04206 0.0097335855 0.0083826555         3982 
 3854000   0.64618855   -9.6909011    451.48283 0.0097622131   0.00837899         3980 
 3855000   0.62890856   -9.7157544    451.00964 0.0097494517 0.0083753282         3981 
 3856000   0.64565262   -9.6780395    451.13335  0.009749597 0.0083716699         3976 
 3857000   0.65428715   -9.7042007    451.75773 0.0097605593 0.0083680123         3978 
 3858000   0.63566021   -9.7042453    451.14114  0.009744711 0.0083643605         3981 
 3859000   0.63469387   -9.7036597    450.75795  0.009733911 0.0083607096         3979 
 3860000   0.62414993   -9.7094795    451.02102 0.0097370687 0.0083570594         3977 
 3861000   0.62979229   -9.7095632    450.24455 0.0097177878 0.0083534121         3980 
 3862000   0.63513807   -9.7047843    451.10698 0.0097338809 0.0083497652         3981 
 3863000   0.63429794   -9.6931088    452.08076 0.0097523677   0.00834612         3983 
 3864000   0.62938851   -9.6998918    451.36222 0.0097343473  0.008342477         3984 
 3865000   0.63682566   -9.6833961     451.1601 0.0097274709 0.0083388382         3981 
 3866000   0.62032664   -9.6911416    451.20195 0.0097258567 0.0083351988         3979 
 3867000   0.64151129   -9.7018908    451.08854 0.0097208977 0.0083315627         3974 
 3868000   0.62980723   -9.6902061    451.16542  0.009720041 0.0083279279         3984 
 3869000   0.63570178   -9.6900284    451.34765 0.0097214536 0.0083242929         3983 
 3870000   0.64107038   -9.7144454    450.79723 0.0097070893 0.0083206647         3978 
 3871000   0.62647552   -9.7110461    450.94575 0.0097077791 0.0083170365         3985 
 3872000   0.61795711   -9.6930569    451.40256 0.0097151034 0.0083134132         3979 
 3873000    0.6131454   -9.7024041    451.18065 0.0097078202 0.0083097915         3977 
 3874000   0.64811041   -9.6966776    450.61041 0.0096930479 0.0083061668         3979 
 3875000   0.64454074    -9.707464    450.90583 0.0096968995 0.0083025506         3979 
 3876000    0.6319958    -9.692179    451.31811 0.0097032617 0.0082989341         3984 
 3877000   0.64487179   -9.6936383    450.93767 0.0096925816 0.0082953195         3979 
 3878000   0.61633157   -9.6894158    450.84134 0.0096880123 0.0082917075         3984 
 3879000   0.62346005   -9.6823939    450.37285   0.00967545 0.0082880968         3978 
 3880000   0.62484413   -9.7085958    450.56686 0.0096771234 0.0082844902         3975 
 3881000   0.62951903   -9.6846542    451.01126  0.009684172 0.0082808845         3979 
 3882000   0.64156703   -9.7099351    451.19661 0.0096856562 0.0082772781         3969 
 3883000   0.63161995   -9.6986917    450.49509 0.0096681065 0.0082736754         3982 
 3884000   0.63596298   -9.7099389    451.03696 0.0096772433 0.0082700738         3977 
 3885000   0.61804311   -9.7212719    450.58756 0.0096651128 0.0082664763         3980 
 3886000   0.63118221   -9.7206007    451.18597 0.0096754583 0.0082628781         3975 
 3887000   0.62770898   -9.7097528    451.21078  0.009673501 0.0082592826         3977 
 3888000   0.61933542   -9.6834221    450.58412 0.0096575815 0.0082556936         3976 
 3889000   0.61056222   -9.6808693    450.22565 0.0096474168 0.0082521039         3973 
 3890000    0.6282756   -9.7108572    451.29259 0.0096677934 0.0082485156         3980 
 3891000   0.62673031   -9.6915351    451.19499 0.0096632183 0.0082449301         3980 
 3892000   0.62921607   -9.6886079    451.51985 0.0096676912 0.0082413477         3982 
 3893000   0.62424871    -9.699012    450.76166  0.009648978 0.0082377663         3978 
 3894000   0.63423996   -9.7124343    451.80957 0.0096689258 0.0082341856         3981 
 3895000   0.62106542   -9.7242726    451.13489 0.0096520088 0.0082306049         3977 
 3896000   0.62600583   -9.7121373    450.68768 0.0096399658 0.0082270249         3979 
 3897000   0.63331104   -9.6950092    451.35483 0.0096517585 0.0082234517         3984 
 3898000   0.62213579   -9.6948714    450.91632 0.0096399077 0.0082198765         3981 
 3899000   0.63302399   -9.7051448    450.83688 0.0096357373  0.008216305         3965 
 3900000   0.62452147   -9.7001685    451.35555 0.0096443493 0.0082127383         3981 
 3901000   0.63623416   -9.7057436    451.13337 0.0096371308 0.0082091734         3982 
 3902000   0.62157822   -9.7024378    451.22234 0.0096365611  0.008205607         3977 
 3903000   0.62904307   -9.6870841    451.33295 0.0096364538 0.0082020453         3978 
 3904000   0.63079236   -9.7274535    450.79777 0.0096225616 0.0081984859         3982 
 3905000   0.61823909   -9.7030648    451.57883 0.0096367655 0.0081949301         3976 
 3906000   0.62037161   -9.6943324    451.65207 0.0096358608 0.0081913759         3973 
 3907000   0.62165373   -9.6910035     450.6765 0.0096125863 0.0081878208         3975 
 3908000   0.62412263    -9.692564    451.30669 0.0096235646 0.0081842703         3975 
 3909000   0.62594337   -9.7200271    450.64348 0.0096069643 0.0081807208         3979 
 3910000   0.61720359    -9.723206     450.9688 0.0096114407 0.0081771741         3975 
 3911000   0.61667401   -9.6946051    450.77567 0.0096048681 0.0081736311         3986 
 3912000   0.63311425   -9.7050769    450.24143 0.0095910325 0.0081700876         3977 
 3913000   0.62200437   -9.6953048    450.34224 0.0095907283 0.0081665457         3975 
 3914000   0.63450385   -9.7183006    451.18652 0.0096062535 0.0081630073         3986 
 3915000   0.61768567   -9.6984554    451.66607 0.0096140074 0.0081594693         3979 
 3916000    0.6312155   -9.7112209    450.20349 0.0095804285 0.0081559339         3981 
 3917000   0.61677674   -9.6899587    451.49487 0.0096054564  0.008152402         3983 
 3918000   0.62244091   -9.7077596    451.07191 0.0095940085 0.0081488699         3982 
 3919000   0.61083626    -9.725505    450.62023 0.0095819561 0.0081453418         3977 
 3920000   0.62698816   -9.7063384    450.58502 0.0095787633 0.0081418127         3977 
 3921000   0.61822903   -9.7177085    450.43543  0.009573141 0.0081382852         3977 
 3922000   0.61544109   -9.7024173    450.99859  0.009582666 0.0081347627         3979 
 3923000   0.63437663    -9.733047    450.82667 0.0095765714 0.0081312411         3980 
 3924000   0.62623887    -9.724325     450.6219 0.0095697822 0.0081277218         3980 
 3925000   0.63108837    -9.701224    450.45654 0.0095638332 0.0081242089         3972 
 3926000   0.61966829   -9.7159558    451.07275 0.0095744768 0.0081206936         3982 
 3927000   0.62519061    -9.695619    451.15661 0.0095738183 0.0081171815         3977 
 3928000   0.61991481   -9.7262677    450.17428 0.0095505405 0.0081136711         3978 
 3929000   0.61303847   -9.6996803    450.42905 0.0095535134 0.0081101606         3978 
 3930000   0.61794828   -9.7112053    451.19123 0.0095672441 0.0081066556         3978 
 3931000   0.60180374   -9.7109491    450.73745 0.0095551906 0.0081031529         3982 
 3932000   0.61820004   -9.7028787    451.36155 0.0095659874 0.0080996513         3981 
 3933000   0.61038418   -9.7154608    450.89851 0.0095537442 0.0080961513         3978 
 3934000   0.62288284   -9.7397376     450.7876 0.0095489663  0.008092655         3982 
 3935000   0.62929163   -9.7079288    450.45212  0.009539435 0.0080891586         3976 
 3936000   0.62911444   -9.6892175    450.80593 0.0095445023 0.0080856645         3978 
 3937000   0.61521545   -9.7195958    450.01984  0.009525439 0.0080821732         3975 
 3938000   0.61262105   -9.7249814     451.2881 0.0095498582 0.0080786818         3984 
 3939000   0.62324567   -9.7209221    450.98755 0.0095410753 0.0080751948         3975 
 3940000   0.60931515   -9.7171891    450.70387 0.0095326538 0.0080717094         3981 
 3941000   0.61291607   -9.7111765    451.03958 0.0095373335 0.0080682252         3985 
 3942000   0.61845114   -9.7231525    450.98122 0.0095336805 0.0080647415         3978 
 3943000   0.60770869   -9.7177415    450.90866  0.009529729 0.0080612618         3979 
 3944000   0.63166775   -9.7057414    450.42713 0.0095171384 0.0080577837         3987 
 3945000   0.61501118   -9.7247792    450.67372  0.009519935 0.0080543072         3980 
 3946000   0.61358005   -9.7418624    450.11653 0.0095057555 0.0080508337         3983 
 3947000   0.61882709   -9.7203869    450.44377  0.009510256 0.0080473594         3980 
 3948000   0.62363408   -9.7236623    450.55729 0.0095102434 0.0080438894         3980 
 3949000   0.61633865   -9.7006002    451.12255 0.0095197635 0.0080404217         3974 
 3950000   0.61646389   -9.7064005    450.24506 0.0094988409  0.008036953         3980 
 3951000     0.597625   -9.7146717     450.2744 0.0094970557 0.0080334915         3978 
 3952000   0.61296627   -9.7156539    450.89797 0.0095078014 0.0080300308         3977 
 3953000   0.62014023   -9.7245028    450.03956 0.0094872999 0.0080265737         3977 
 3954000    0.6105677   -9.7253292    450.79409 0.0095008028 0.0080231149         3977 
 3955000    0.6083438   -9.7199354    450.20192 0.0094859232 0.0080196585         3978 
 3956000   0.61906319   -9.7118682    451.13617 0.0095032054 0.0080162042         3985 
 3957000    0.6078109   -9.7308557     449.5407 0.0094672036 0.0080127486         3976 
 3958000   0.60423049   -9.7144163    450.88706 0.0094931585 0.0080092979         3983 
 3959000   0.61390471   -9.7463998    451.13656 0.0094960125 0.0080058489         3978 
 3960000   0.63501017   -9.7132231     450.5611 0.0094815047 0.0080024021         3980 
 3961000   0.61523688   -9.7249758    450.92732 0.0094868156 0.0079989592         3982 
 3962000   0.61303235   -9.7308232    450.07294 0.0094664509 0.0079955181         3987 
 3963000    0.6145799   -9.7436628    450.96043 0.0094827242 0.0079920764         3983 
 3964000   0.61533943   -9.7254311    450.33936 0.0094672755 0.0079886376         3972 
 3965000   0.61963573   -9.7247193    450.20281 0.0094620178 0.0079852029         3976 
 3966000   0.62021531   -9.7016474    451.32003 0.0094831069  0.007981771         3976 
 3967000   0.60461309   -9.7120795    451.06141 0.0094752838 0.0079783407         3980 
 3968000   0.61578642   -9.7145637    450.67217 0.0094647213 0.0079749077         3981 
 3969000   0.61005343    -9.720919    450.73118 0.0094635756 0.0079714771         3983 
 3970000   0.62948028   -9.7414544    450.38498 0.0094539248 0.0079680491         3980 
 3971000   0.61385924   -9.7219668    450.73697 0.0094589307 0.0079646244         3982 
 3972000   0.60862568     -9.72416    449.78092 0.0094364912 0.0079612002         3978 
 3973000   0.61219068    -9.730627    449.83145  0.009435176 0.0079577767         3979 
 3974000   0.61317778   -9.7316054    450.50469 0.0094469194 0.0079543561         3980 
 3975000   0.60354594   -9.7247609    450.61352 0.0094468243 0.0079509383         3979 
 3976000   0.61043158   -9.7198179    450.32306 0.0094383606 0.0079475253         3976 
 3977000   0.60914521   -9.7222077    450.35614 0.0094366804 0.0079441116         3980 
 3978000   0.62364135   -9.7167014    450.76255  0.009442822 0.0079407007         3981 
 3979000   0.63288141   -9.7283268      451.133 0.0094482073 0.0079372911         3980 
 3980000     0.615893   -9.7371004     450.9055 0.0094410699 0.0079338862         3982 
 3981000   0.61531961   -9.7229095     451.0543 0.0094418132   0.00793048         3982 
 3982000   0.61027733   -9.7299459    450.02144 0.0094178268 0.0079270765         3984 
 3983000   0.62142313   -9.7385758    449.96514 0.0094142845 0.0079236749         3982 
 3984000   0.61945368    -9.748238    450.06052 0.0094139165 0.0079202745         3974 
 3985000    0.6126005    -9.725609    450.13107 0.0094130295 0.0079168755         3975 
 3986000   0.62581983   -9.7280084    450.31392 0.0094144908 0.0079134805         3975 
 3987000   0.61439784   -9.7333462    450.65481 0.0094192544 0.0079100841         3979 
 3988000   0.61402064   -9.7163777    450.07016 0.0094046757 0.0079066907         3975 
 3989000    0.6152665   -9.7426049    450.66074 0.0094146558 0.0079033006         3981 
 3990000   0.61933889   -9.7365221    451.09229 0.0094213093 0.0078999144         3977 
 3991000   0.61228707   -9.7112124    449.92247 0.0093945225 0.0078965271         3975 
 3992000   0.61747987   -9.7286026    450.74533 0.0094093464 0.0078931404         3975 
 3993000   0.60674809   -9.7336068    450.13699  0.009394294 0.0078897562         3976 
 3994000   0.61746895    -9.736062    450.88904 0.0094076331 0.0078863757         3985 
 3995000   0.61836211   -9.7355253    449.92132 0.0093850923 0.0078829978         3983 
 3996000   0.61614855   -9.7500556    449.52118 0.0093743989  0.007879621         3986 
 3997000   0.60961151   -9.7416624    450.49319  0.009392319 0.0078762458         3982 
 3998000   0.61462287   -9.7473462    449.62453 0.0093718636 0.0078728718         3980 
 3999000   0.61394067    -9.746591    449.98193 0.0093769678 0.0078695005         3976 
 4000000   0.61673118   -9.7140502    450.97078 0.0093952245 0.0078661327         3981 
 4001000   0.59719029   -9.7509151     450.0381 0.0093734503  0.007862764         3978 
 4002000   0.61520986    -9.748213    450.05886 0.0093715404 0.0078593968         3986 
 4003000   0.62059815    -9.708133    449.80016 0.0093638139 0.0078560333         3980 
 4004000    0.6185405    -9.718328    449.49561 0.0093551367 0.0078526718         3982 
 4005000   0.61250709   -9.7255119    449.50053 0.0093529032 0.0078493088         3980 
 4006000   0.59808928   -9.7439549    449.99021 0.0093607549 0.0078459489         3976 
 4007000   0.60398228    -9.733402    450.66828 0.0093725206 0.0078425916         3981 
 4008000   0.60657237   -9.7207584    450.17221  0.009359868 0.0078392348         3981 
 4009000   0.62740678   -9.7348602    449.55823 0.0093447708 0.0078358796         3978 
 4010000   0.60281715   -9.7381307     450.2426 0.0093566625 0.0078325272         3978 
 4011000   0.61510501   -9.7310309    450.92319 0.0093684698 0.0078291823         3979 
 4012000   0.62419971   -9.7353687    450.57315  0.009358864 0.0078258347         3973 
 4013000   0.60794531   -9.7286194    449.44658 0.0093331376 0.0078224887         3979 
 4014000   0.61613499   -9.7509515    450.57891 0.0093543206  0.007819148         3981 
 4015000   0.60439367   -9.7436971    449.76677 0.0093351344 0.0078158091         3980 
 4016000   0.61263048   -9.7320752    451.11553  0.009360797 0.0078124717         3980 
 4017000   0.61097799   -9.7384402    449.83913 0.0093319876 0.0078091331         3983 
 4018000   0.61198569   -9.7316627    450.56086 0.0093446338 0.0078057968         3983 
 4019000   0.61303752   -9.7354456    449.74642 0.0093254214 0.0078024617         3981 
 4020000   0.59794509   -9.7233606    450.36677 0.0093359611 0.0077991293         3983 
 4021000   0.60973021    -9.741862    450.15462 0.0093292427 0.0077957999         3979 
 4022000   0.61406105   -9.7519468    450.43624 0.0093327581 0.0077924718         3985 
 4023000   0.59804576   -9.7343032    450.19064  0.009325351 0.0077891487         3984 
 4024000   0.59906392   -9.7265187    450.20159 0.0093232602 0.0077858252         3976 
 4025000   0.62013154   -9.7170327    449.82611 0.0093131699 0.0077825044         3977 
 4026000   0.61026796   -9.7339786    449.82116 0.0093107543 0.0077791861         3981 
 4027000   0.60717296   -9.7369115    449.82072 0.0093084332 0.0077758672         3977 
 4028000   0.60949569   -9.7379458     450.0939 0.0093117738 0.0077725516         3983 
 4029000   0.60544055   -9.7175634    449.55659 0.0092983492 0.0077692356         3983 
 4030000   0.61608138    -9.744408     450.3823 0.0093131162 0.0077659211         3982 
 4031000   0.61515676   -9.7326427    450.16917 0.0093063997 0.0077626102         3982 
 4032000    0.6031314    -9.733677    449.97248 0.0093000265 0.0077593016         3976 
 4033000   0.58878085   -9.7382815    449.70172 0.0092921258 0.0077559919         3976 
 4034000   0.60446996   -9.7237752    449.89641 0.0092938442  0.007752689         3985 
 4035000   0.59415988   -9.7244118    450.43702  0.009302706 0.0077493858         3981 
 4036000     0.608901   -9.7335131    450.01952 0.0092917807 0.0077460853         3982 
 4037000   0.59275138   -9.7454687    449.92023 0.0092874295 0.0077427837         3975 
 4038000   0.61718592   -9.7509013      449.851 0.0092837006 0.0077394865         3983 
 4039000   0.58753645   -9.7545868    450.67966 0.0092984992  0.007736192         3972 
 4040000   0.58132741   -9.7361615    450.23826 0.0092870929 0.0077328989         3978 
 4041000   0.60916756   -9.7226797    450.07887 0.0092815076 0.0077296067         3978 
 4042000   0.60650481    -9.735182    449.99822 0.0092775486  0.007726316         3977 
 4043000   0.59396822   -9.7182443    450.25459 0.0092805382 0.0077230271         3976 
 4044000    0.5998973   -9.7273601    450.71752 0.0092877828 0.0077197395         3983 
 4045000   0.63175906   -9.7469895    450.33611  0.009277629 0.0077164583         3978 
 4046000   0.61542361   -9.7500255    449.80499 0.0092643967 0.0077131773         3970 
 4047000   0.62421792   -9.7480933    450.25869 0.0092714498 0.0077098995         3978 
 4048000   0.60093154   -9.7432178    449.73672  0.009258414 0.0077066201         3976 
 4049000   0.59104259    -9.744402    450.28175 0.0092673448 0.0077033436         3981 
 4050000   0.62320059   -9.7549838    449.49507 0.0092488698  0.007700071         3979 
 4051000   0.61000871   -9.7426485    450.35632 0.0092643035 0.0076967979         3971 
 4052000   0.61151802   -9.7401699    449.65949  0.009247686 0.0076935278         3976 
 4053000   0.61152592   -9.7355173    449.95293 0.0092514378 0.0076902582         3977 
 4054000    0.6091366   -9.7349459    450.08241 0.0092518173 0.0076869913         3984 
 4055000     0.607069   -9.7662957     450.3117 0.0092542478 0.0076837274         3987 
 4056000    0.6021881   -9.7389917    450.41915 0.0092541739 0.0076804645         3975 
 4057000   0.58952365   -9.7630874    450.07316 0.0092447859 0.0076772008         3984 
 4058000   0.59645646   -9.7570077     450.1737 0.0092445725  0.007673939         3978 
 4059000    0.6079473   -9.7289523    450.02341 0.0092392093 0.0076706812         3981 
 4060000   0.60233015   -9.7467316    450.21046 0.0092407729 0.0076674255         3974 
 4061000    0.5962288   -9.7403284    450.41444 0.0092426833 0.0076641737         3983 
 4062000   0.60270277   -9.7375982    450.05462  0.009233026  0.007660922         3984 
 4063000   0.60078795   -9.7411262     450.6398 0.0092427557 0.0076576733         3978 
 4064000   0.60515342   -9.7416862    449.82476 0.0092237688 0.0076544239         3978 
 4065000   0.61290136   -9.7434718    449.89997 0.0092230416 0.0076511778         3978 
 4066000   0.58374992   -9.7401678    450.68049 0.0092367701 0.0076479353         3978 
 4067000   0.60283403   -9.7428297    449.89797 0.0092184651 0.0076446905         3983 
 4068000   0.59702598    -9.737004    449.66283  0.009211382 0.0076414491         3979 
 4069000   0.59716418   -9.7556903    449.27039 0.0092010812 0.0076382121         3977 
 4070000   0.59332854   -9.7492873    450.29031 0.0092197033 0.0076349752         3979 
 4071000   0.60809361   -9.7591311    449.82613 0.0092079369 0.0076317408         3980 
 4072000   0.59048063   -9.7266865     449.1012 0.0091908399 0.0076285084         3978 
 4073000   0.59812535   -9.7563993    449.64617 0.0091997334 0.0076252778         3982 
 4074000   0.59880282   -9.7521051    450.04984 0.0092057322 0.0076220475         3978 
 4075000   0.61498938    -9.745715    449.97393 0.0092019209 0.0076188209         3977 
 4076000   0.60736994   -9.7456307    449.54922 0.0091909801 0.0076155947         3969 
 4077000   0.60006596   -9.7653882     449.9891 0.0091977168 0.0076123703         3982 
 4078000    0.5870092   -9.7552939    449.44382 0.0091843187  0.007609148         3976 
 4079000   0.59402878   -9.7442474    449.78059 0.0091889472  0.007605924         3978 
 4080000   0.60618584   -9.7378864    450.10999  0.009193423 0.0076027046         3980 
 4081000   0.58910847   -9.7577173    449.77714 0.0091843736 0.0075994871         3979 
 4082000   0.58828187   -9.7550597    449.44841 0.0091754126 0.0075962718         3978 
 4083000   0.60679781   -9.7224154    449.98597 0.0091841369 0.0075930605         3976 
 4084000   0.59603318   -9.7626957    449.88232 0.0091797731 0.0075898496         3981 
 4085000   0.60238702    -9.740132    449.87104 0.0091772957 0.0075866426         3980 
 4086000   0.59115239   -9.7471911    449.88658 0.0091753666 0.0075834349         3977 
 4087000   0.59678516    -9.747841     450.0037 0.0091755097 0.0075802283         3977 
 4088000   0.60290507   -9.7700935    449.24554 0.0091578103 0.0075770231         3977 
 4089000   0.59206272   -9.7597817     449.8135 0.0091671456 0.0075738194         3986 
 4090000   0.60850217   -9.7656903     449.5717 0.0091599777 0.0075706195         3981 
 4091000   0.59138981    -9.734158    449.73511 0.0091610672 0.0075674196         3985 
 4092000   0.59871038   -9.7526902    450.12728 0.0091668149 0.0075642223         3976 
 4093000   0.59237192   -9.7642864    449.78691 0.0091576454 0.0075610252         3981 
 4094000   0.60061948   -9.7600616    450.17559 0.0091633201 0.0075578305         3976 
 4095000   0.59939412   -9.7380908    450.37338 0.0091651074 0.0075546377         3974 
 4096000   0.58657907   -9.7617988    449.48348 0.0091447648 0.0075514473         3969 
 4097000   0.58967016   -9.7680422    449.23246  0.009137427 0.0075482596         3976 
 4098000   0.59775617   -9.7592147    449.24189  0.009135389 0.0075450741         3974 
 4099000   0.60763755   -9.7471317    449.11974  0.009130677 0.0075418932         3980 
 4100000   0.58778962   -9.7596275    449.55386 0.0091372736 0.0075387089         3978 
 4101000   0.59171168   -9.7637594    449.49334 0.0091338158 0.0075355274         3975 
 4102000   0.59342299    -9.733846    450.11497 0.0091442177 0.0075323464         3978 
 4103000   0.60864447   -9.7551144    450.04692 0.0091406069 0.0075291695         3984 
 4104000   0.59964435   -9.7633306    450.13742 0.0091402173 0.0075259967         3976 
 4105000   0.59337712    -9.761765    450.00237  0.009135249 0.0075228227         3976 
 4106000   0.61000822   -9.7617807    449.31162 0.0091190051 0.0075196515         3981 
 4107000   0.60621025   -9.7578271    449.33098 0.0091171776 0.0075164808         3978 
 4108000   0.59411592   -9.7642678    449.12986 0.0091108783  0.007513313         3980 
 4109000   0.59775994   -9.7556119    449.90129 0.0091243062 0.0075101458         3973 
 4110000   0.58679381   -9.7490029    449.99271 0.0091239397  0.007506982         3982 
 4111000    0.5908628   -9.7397059    450.00801 0.0091220306 0.0075038175         3978 
 4112000   0.58718467   -9.7581927    449.65937 0.0091127466 0.0075006592         3977 
 4113000   0.59235944   -9.7676552    449.96826 0.0091167894 0.0074975011         3980 
 4114000    0.5916981   -9.7642288    449.93952 0.0091139912 0.0074943447         3981 
 4115000   0.59867344   -9.7666674    449.35599 0.0090999593 0.0074911882         3982 
 4116000    0.6073263   -9.7763325    449.83122   0.00910737 0.0074880364         3983 
 4117000   0.57673983   -9.7357384    449.24372 0.0090932661 0.0074848837         3983 
 4118000   0.59767667   -9.7669578    449.56106 0.0090974797 0.0074817362         3982 
 4119000   0.59666816   -9.7576986    450.02669 0.0091046914 0.0074785857         3979 
 4120000   0.59537824   -9.7470164    450.50839 0.0091122247 0.0074754396         3974 
 4121000   0.59558133    -9.755055    449.59385 0.0090915201 0.0074722956         3975 
 4122000   0.59151273   -9.7685222    449.42437 0.0090858882 0.0074691535         3982 
 4123000   0.57552321   -9.7729725    449.88159 0.0090929257 0.0074660127         3979 
 4124000   0.58122592   -9.7684295     449.0842 0.0090746079 0.0074628718         3984 
 4125000   0.59331276   -9.7731673    449.02547 0.0090712217 0.0074597356         3982 
 4126000   0.57412634   -9.7670654    449.99251 0.0090885544 0.0074565985         3978 
 4127000   0.59920602   -9.7841935    449.45892 0.0090755779 0.0074534634         3979 
 4128000   0.59992373   -9.7478206    449.79503 0.0090801646 0.0074503327         3982 
 4129000   0.58728264   -9.7601935    449.66334 0.0090753075 0.0074472046         3982 
 4130000   0.59551979   -9.7680993    450.04497 0.0090808104 0.0074440801         3979 
 4131000   0.59016942   -9.7803198      449.706 0.0090717743 0.0074409545         3981 
 4132000   0.59324981   -9.7558058    450.08628 0.0090772483 0.0074378276         3969 
 4133000   0.57758823   -9.7753165    449.71504 0.0090675668 0.0074347057         3979 
 4134000   0.59571048   -9.7654487     449.0394 0.0090517538 0.0074315852         3982 
 4135000   0.60415758   -9.7687305    450.28388 0.0090746448 0.0074284661         3980 
 4136000   0.59207531   -9.7658018    449.08741  0.009048344 0.0074253509         3980 
 4137000   0.61434844   -9.7675504    450.06086 0.0090657654 0.0074222369         3980 
 4138000   0.58533831   -9.7786033    449.71999   0.00905671 0.0074191211         3985 
 4139000   0.59304464   -9.7534932    450.16001 0.0090633811 0.0074160116         3979 
 4140000   0.59276507   -9.7478713     449.8049 0.0090540439 0.0074129037         3980 
 4141000   0.59927984   -9.7603474    449.56411 0.0090470118  0.007409794         3975 
 4142000   0.60173436   -9.7511462    449.01004 0.0090336803 0.0074066867         3976 
 4143000   0.59163484   -9.7757573    449.67028   0.00904478  0.007403582         3977 
 4144000   0.58748629   -9.7944752    448.58912 0.0090208559 0.0074004787         3977 
 4145000   0.58400907   -9.7641415    448.95816 0.0090260989 0.0073973759         3979 
 4146000   0.59298619    -9.781156    449.23915 0.0090295697 0.0073942772         3976 
 4147000   0.58107069    -9.762927    449.89755 0.0090406227 0.0073911811         3981 
 4148000   0.59683017   -9.7825491    449.29323 0.0090263025 0.0073880862         3983 
 4149000   0.59441448   -9.7780344    449.65065 0.0090313058 0.0073849948         3981 
 4150000   0.60008978    -9.752883    449.67632 0.0090296449 0.0073819038         3981 
 4151000    0.6013792    -9.775153    449.14838  0.009016871  0.007378814         3978 
 4152000   0.58624688    -9.764295    449.45301 0.0090208135  0.007375727         3974 
 4153000   0.59381801   -9.7694472    448.70624 0.0090036568 0.0073726402         3982 
 4154000   0.57984665   -9.7604152     449.9282  0.009026003 0.0073695562         3972 
 4155000   0.57385676   -9.7757789     449.3695 0.0090126254  0.007366472         3981 
 4156000   0.58552294   -9.7772307    449.64883 0.0090160576 0.0073633881         3981 
 4157000   0.58924278   -9.7748111     449.2978 0.0090068518 0.0073603094         3980 
 4158000   0.57754684   -9.7581885    448.96261 0.0089979679 0.0073572304         3978 
 4159000   0.59552269   -9.7586972    449.36632 0.0090038936 0.0073541523         3976 
 4160000   0.57187523    -9.783246     449.9473 0.0090133674 0.0073510761         3982 
 4161000   0.58606065    -9.774327    449.28986 0.0089980344 0.0073480028         3982 
 4162000    0.5950052   -9.7726188    449.34461 0.0089969689 0.0073449298         3983 
 4163000   0.60538318   -9.7715916    448.56533 0.0089792082 0.0073418571         3977 
 4164000   0.58895966   -9.7844107    449.13886 0.0089885299 0.0073387876         3987 
 4165000   0.57402394   -9.7784736    449.56327 0.0089948633 0.0073357193         3975 
 4166000   0.60628069   -9.7593333    448.79131 0.0089772625 0.0073326504         3976 
 4167000   0.58278982   -9.7834469    449.55534 0.0089903875 0.0073295871         3981 
 4168000   0.58403442   -9.7899479    449.15446 0.0089802155  0.007326526         3982 
 4169000   0.57003217   -9.7718459    449.00151 0.0089750042 0.0073234658         3986 
 4170000   0.58157449   -9.7865401    448.99405 0.0089727029 0.0073204068         3980 
 4171000   0.58352581   -9.7803831    449.26599 0.0089759849 0.0073173509         3978 
 4172000   0.57152938   -9.7716433    448.85963 0.0089657166 0.0073142979         3976 
 4173000   0.58146454   -9.7692732    449.62687 0.0089788895 0.0073112452         3978 
 4174000   0.58330417   -9.7783108    449.97539 0.0089836965 0.0073081953         3983 
 4175000   0.58580684   -9.7917056    449.20454 0.0089661586 0.0073051479         3980 
 4176000   0.58007077   -9.7687656    449.38795 0.0089676714 0.0073021005         3979 
 4177000   0.58802351   -9.7714311    448.79755 0.0089537457 0.0072990532         3978 
 4178000   0.58437661    -9.765826    449.33846 0.0089623915 0.0072960098         3977 
 4179000   0.58785034   -9.7804857    449.50693 0.0089636064 0.0072929674         3981 
 4180000   0.58134815   -9.7680139    449.99805 0.0089712529 0.0072899256         3981 
 4181000   0.58560369   -9.7675376    449.88381 0.0089668304 0.0072868875         3980 
 4182000   0.56481492   -9.7680142    450.11577 0.0089693084 0.0072838505         3978 
 4183000   0.58015866   -9.7733436    449.47823 0.0089544631 0.0072808158         3979 
 4184000    0.5836974    -9.777942    449.39015 0.0089505686 0.0072777814         3976 
 4185000   0.57876353   -9.7730806    449.38597 0.0089483467 0.0072747491         3980 
 4186000   0.59455742   -9.7730704    449.06594  0.008939838 0.0072717183         3974 
 4187000   0.57883367   -9.7787323     449.9048 0.0089543985 0.0072686883         3978 
 4188000    0.5798039   -9.7978533     449.4287 0.0089427869 0.0072656607         3979 
 4189000   0.57678056   -9.7926565    449.70901 0.0089462284 0.0072626343         3982 
 4190000   0.58035371   -9.7576924    449.47791 0.0089394971 0.0072596099         3980 
 4191000   0.58876027   -9.7848758    449.24383 0.0089327097 0.0072565879         3979 
 4192000   0.58449361   -9.7752019    449.38369 0.0089333589  0.007253568         3980 
 4193000    0.5690541   -9.7874801    449.65129 0.0089365468 0.0072505502         3982 
 4194000     0.583052    -9.800785    449.15458 0.0089245467 0.0072475329         3976 
 4195000   0.57540274    -9.782517    449.59539 0.0089311758 0.0072445162         3977 
 4196000   0.59420103   -9.7746672    448.41177 0.0089055405 0.0072415041         3980 
 4197000   0.57002845   -9.7888911     448.5769 0.0089066972 0.0072384914         3978 
 4198000   0.56599646   -9.7761209    449.81405 0.0089291339 0.0072354805         3982 
 4199000   0.57727891   -9.7874698    449.43904 0.0089195651 0.0072324693         3979 
 4200000   0.57945608   -9.7783107    449.62587 0.0089211483 0.0072294615         3976 
 4201000   0.57125346   -9.7818135    449.83815 0.0089232356  0.007226454         3975 
 4202000   0.58341746   -9.7782226     449.5435 0.0089152685 0.0072234503         3984 
 4203000   0.57614779   -9.7820983     449.2024 0.0089063844 0.0072204493         3983 
 4204000   0.57742462   -9.7812896    449.82435 0.0089165942 0.0072174506         3982 
 4205000    0.5744348   -9.7776623    449.59226 0.0089098743 0.0072144529         3978 
 4206000   0.58132985   -9.7823169    449.33942 0.0089027464  0.007211457         3978 
 4207000    0.5814292   -9.7938429    449.54277 0.0089046582 0.0072084636         3980 
 4208000   0.58554342   -9.8119377    449.11002 0.0088939721 0.0072054686         3981 
 4209000   0.57731101   -9.7811541    448.88653 0.0088874344 0.0072024787         3975 
 4210000   0.57631419   -9.7840028    449.40821 0.0088956495 0.0071994898         3979 
 4211000   0.57602691   -9.7813051    449.68882 0.0088990901 0.0071965005         3985 
 4212000    0.5776555    -9.775788    448.84358 0.0088802543 0.0071935134         3981 
 4213000    0.5820417   -9.7804738    449.16434 0.0088844912 0.0071905286         3982 
 4214000   0.58283842   -9.7870442    449.11491 0.0088814054 0.0071875468         3982 
 4215000   0.57642213   -9.7767045    448.87683 0.0088745912 0.0071845644         3972 
 4216000   0.57802068   -9.7866629    448.89283 0.0088728026 0.0071815876         3978 
 4217000   0.56601723   -9.7591974    449.33573 0.0088794509  0.007178609         3975 
 4218000   0.57126022   -9.7828474     449.3982 0.0088785799 0.0071756349         3987 
 4219000   0.58413149   -9.7900775    448.10333 0.0088508992 0.0071726591         3978 
 4220000   0.57686435   -9.7794998    449.15713 0.0088696115 0.0071696842         3976 
 4221000   0.57651683   -9.7852082    449.56085 0.0088754807 0.0071667114         3985 
 4222000   0.58545402   -9.7758089    448.78178 0.0088580014 0.0071637434         3980 
 4223000   0.57869319   -9.7939131    449.22355 0.0088646214 0.0071607756         3988 
 4224000   0.57021834    -9.792326    448.37795 0.0088458402 0.0071578089         3976 
 4225000   0.58300477   -9.7898226    448.83835 0.0088528274 0.0071548429         3981 
 4226000   0.58179968   -9.7993545    449.22188 0.0088582955 0.0071518817         3980 
 4227000   0.58267419   -9.8002761    449.33482 0.0088584264 0.0071489212         3982 
 4228000   0.58045916   -9.7849009    449.41191 0.0088578507  0.007145962         3979 
 4229000   0.56965298    -9.783689    449.05296 0.0088486829  0.007143004         3981 
 4230000   0.56855215   -9.7902833    449.59113 0.0088571932 0.0071400477         3975 
 4231000   0.55191269   -9.7643526    448.79024 0.0088393256 0.0071370931         3971 
 4232000   0.57574304   -9.7757591    449.55726 0.0088523405 0.0071341396         3984 
 4233000    0.5772821   -9.7756401    449.16309 0.0088424893 0.0071311871         3976 
 4234000   0.56538652   -9.8185917    448.74981 0.0088322667 0.0071282381         3980 
 4235000   0.56843038   -9.7758252    448.85403 0.0088322321 0.0071252876         3986 
 4236000   0.57948648   -9.7741189    449.52464 0.0088433396 0.0071223391         3982 
 4237000   0.58236132   -9.7874685    448.81972 0.0088273882 0.0071193949         3980 
 4238000    0.5699843   -9.7996503    450.01252 0.0088487596 0.0071164487         3986 
 4239000   0.57002503   -9.8062523    449.00218 0.0088268102 0.0071135067         3980 
 4240000   0.57390155   -9.7962913    448.96902 0.0088240767 0.0071105653         3981 
 4241000   0.57749056   -9.8057547     449.2496 0.0088275093 0.0071076257         3975 
 4242000   0.56910622   -9.7847256    449.18389 0.0088241373 0.0071046877         3976 
 4243000   0.56153176   -9.7856256     449.4289 0.0088268697 0.0071017522         3981 
 4244000   0.56872413   -9.7912429    448.52596 0.0088070602 0.0070988179         3978 
 4245000   0.57697642   -9.7979809    448.42323 0.0088029687 0.0070958843         3974 
 4246000    0.5790243   -9.7891106    449.66215 0.0088252109  0.007092955         3982 
 4247000   0.57539831   -9.7952373    449.20574 0.0088141774  0.007090027         3982 
 4248000   0.56924666   -9.7924132    448.59492 0.0088001202 0.0070870988         3981 
 4249000     0.569042   -9.7961409    449.28583 0.0088115994 0.0070841746         3977 
 4250000   0.56577427   -9.7918666    449.71188   0.00881788 0.0070812506         3984 
 4251000   0.57305667   -9.7885057    449.24001 0.0088065555 0.0070783293         3979 
 4252000   0.56721972   -9.7871974     448.8635 0.0087971052 0.0070754085         3986 
 4253000   0.58571727   -9.7818415    449.00523 0.0087978139 0.0070724908         3983 
 4254000    0.5831973   -9.7859136    449.28627 0.0088012511 0.0070695755         3987 
 4255000    0.5748158   -9.7858409    449.01086 0.0087937888 0.0070666601         3978 
 4256000   0.55652156   -9.7996356     448.9051 0.0087896518 0.0070637467         3981 
 4257000   0.56186716   -9.7842141    449.32514 0.0087958096 0.0070608353         3985 
 4258000   0.57098324   -9.7792156    448.93514 0.0087861113 0.0070579245         3981 
 4259000   0.57714139   -9.7854337    449.14134 0.0087880829 0.0070550152         3982 
 4260000   0.56215963   -9.8113319    449.25484 0.0087882401 0.0070521066         3974 
 4261000   0.57665264   -9.7845464    448.67332 0.0087748048 0.0070491992         3981 
 4262000   0.58409516   -9.7922184    449.34132 0.0087858071 0.0070462939         3980 
 4263000   0.57119616   -9.7761486    449.07769 0.0087785926 0.0070433913         3983 
 4264000   0.57475064   -9.7959453    449.13761 0.0087777051 0.0070404897         3982 
 4265000   0.57520823   -9.7961335    448.35906  0.008760435 0.0070375937         3983 
 4266000   0.57041411   -9.7933412     448.6984 0.0087650102 0.0070346949         3976 
 4267000    0.5699538    -9.800477    448.37012 0.0087565449  0.007031797         3984 
 4268000   0.58311853   -9.7848875    448.44606 0.0087559759 0.0070289052         3981 
 4269000   0.56592798   -9.8068085    448.78232 0.0087604888 0.0070260125         3986 
 4270000   0.57173527   -9.7824242     448.8809 0.0087603611 0.0070231207         3977 
 4271000   0.56513656   -9.7963979    448.51559 0.0087511822 0.0070202302         3974 
 4272000   0.57285369   -9.8030515    449.18782 0.0087622469 0.0070173412         3972 
 4273000   0.56322722   -9.7934256    449.16081 0.0087596694 0.0070144541         3976 
 4274000   0.58069125   -9.8033575    449.15028 0.0087574147 0.0070115688         3981 
 4275000   0.57084884   -9.8002523    449.48518 0.0087618943 0.0070086851         3983 
 4276000   0.57491837   -9.7885322    448.77526 0.0087460099 0.0070058021         3986 
 4277000   0.57393614   -9.8073042    448.40626 0.0087367754 0.0070029209         3981 
 4278000   0.57039857   -9.7930447    448.61807 0.0087388592 0.0070000438         3974 
 4279000   0.55378237   -9.7991062    447.94863 0.0087237796  0.006997168         3978 
 4280000   0.56963077   -9.8177689    448.64984 0.0087353941 0.0069942931         3987 
 4281000   0.55544649   -9.7909463    449.88931  0.008757481 0.0069914185         3977 
 4282000   0.56481393    -9.777799    449.53265 0.0087484947 0.0069885473         3983 
 4283000   0.55639353   -9.8069271    448.69376   0.00873013 0.0069856774         3985 
 4284000   0.57530039   -9.8021636     449.5065 0.0087439017 0.0069828079         3977 
 4285000   0.56094197   -9.8062527    448.92455 0.0087305436 0.0069799384         3981 
 4286000   0.56633261   -9.7995344    448.90297 0.0087280871 0.0069770727         3982 
 4287000   0.56942347   -9.7948379    448.81968 0.0087244319 0.0069742059         3976 
 4288000   0.56153789   -9.7940631    449.09321 0.0087277132 0.0069713417         3979 
 4289000   0.56768994   -9.7913282    448.88678 0.0087216675 0.0069684796         3981 
 4290000    0.5771988   -9.7934704    448.54432 0.0087129822 0.0069656184         3980 
 4291000   0.55763664   -9.8066387    448.49248 0.0087099448 0.0069627605         3981 
 4292000    0.5660305   -9.7997645    448.66652 0.0087112947 0.0069599053         3981 
 4293000   0.57456685   -9.8103911    449.61397 0.0087276569 0.0069570519         3982 
 4294000    0.5813282   -9.8049199    449.04626 0.0087146067 0.0069541985         3978 
 4295000   0.56053314   -9.7811974    449.81896   0.00872757 0.0069513493         3974 
 4296000   0.56770339   -9.8066463    448.56741  0.008701261 0.0069485003         3981 
 4297000   0.56921858   -9.7924701    448.67222 0.0087012688 0.0069456529         3979 
 4298000   0.56112138   -9.8076288    449.21144 0.0087096992 0.0069428057         3978 
 4299000   0.56291228   -9.8057845    448.75664 0.0086988571  0.006939964         3979 
 4300000   0.58340922   -9.8008064    448.37006 0.0086893423 0.0069371196         3984 
 4301000   0.55166725   -9.8081499    449.01176 0.0086997551  0.006934278         3975 
 4302000     0.562187   -9.7953805    448.49391 0.0086877016 0.0069314369         3982 
 4303000   0.56870097   -9.7999365    449.17439  0.008698861 0.0069285981         3986 
 4304000   0.56752721   -9.7950514    449.39348  0.008701082 0.0069257631         3974 
 4305000    0.5620442   -9.7971013    448.96211 0.0086907105 0.0069229275         3981 
 4306000    0.5683873   -9.7904135     448.6261 0.0086821895 0.0069200922         3983 
 4307000     0.573428   -9.7937665     448.6723 0.0086810677   0.00691726         3975 
 4308000   0.56120421   -9.7984286    449.29976 0.0086911901 0.0069144279         3975 
 4309000   0.56054087   -9.7935789    448.91495 0.0086817312 0.0069115985         3978 
 4310000   0.57070347   -9.8128598    449.21093 0.0086854395 0.0069087723         3978 
 4311000    0.5529754   -9.8104283    448.41731 0.0086680837 0.0069059467         3977 
 4312000   0.54850355   -9.7986915    448.74386 0.0086723844 0.0069031226         3982 
 4313000   0.55944299   -9.8154479    448.65004  0.008668561 0.0069003015         3982 
 4314000   0.56441756   -9.7952551    448.46594 0.0086629953 0.0068974796         3980 
 4315000   0.55974234   -9.8033083    448.65625  0.008664663 0.0068946595         3978 
 4316000   0.54765814   -9.8143162    448.62909 0.0086621311 0.0068918403         3979 
 4317000   0.54869073   -9.8078435    448.41037 0.0086559024 0.0068890216         3977 
 4318000   0.55923907   -9.7992299    448.58437 0.0086572558 0.0068862073         3977 
 4319000   0.55894224   -9.8153644    449.04887 0.0086642137 0.0068833941         3975 
 4320000     0.562189   -9.8033987    448.81574 0.0086577111 0.0068805849         3978 
 4321000   0.55836351   -9.8277082    448.07378 0.0086413982 0.0068777739         3977 
 4322000   0.55453487   -9.8031255    448.34067 0.0086445448 0.0068749645         3981 
 4323000   0.54755622   -9.8162719     448.2886 0.0086415414 0.0068721574         3980 
 4324000   0.55864005   -9.8073129    449.18926 0.0086569005  0.006869351         3978 
 4325000   0.55876026   -9.8042968    448.76369 0.0086466993 0.0068665476         3978 
 4326000   0.54202163   -9.7999375    449.34176  0.008655836 0.0068637457         3978 
 4327000   0.56256349   -9.8105344    448.03606 0.0086286893 0.0068609438         3981 
 4328000   0.57722871    -9.827209    448.62225 0.0086379822 0.0068581428         3977 
 4329000   0.56225534   -9.8110292    449.11005 0.0086453772 0.0068553441         3978 
 4330000   0.56565319   -9.8077981    448.70337 0.0086355536 0.0068525467         3973 
 4331000   0.55393675   -9.8171366    449.16081 0.0086423614 0.0068497507         3975 
 4332000   0.56823713   -9.8249065    448.53096 0.0086282502 0.0068469563         3980 
 4333000   0.55606239   -9.8017076     448.9331 0.0086339929 0.0068441629         3973 
 4334000   0.55150871   -9.8085371    448.74311 0.0086283478 0.0068413751         3975 
 4335000   0.56241146   -9.8064579     448.8349 0.0086281219 0.0068385872         3980 
 4336000   0.55781462   -9.8002766    448.76032 0.0086246987 0.0068358001         3976 
 4337000   0.55222115   -9.8023813     448.9215  0.008625807 0.0068330154         3980 
 4338000   0.55275623   -9.8072047    448.53701 0.0086164326 0.0068302327         3976 
 4339000   0.56425827   -9.8199265    448.63501 0.0086163287 0.0068274511         3981 
 4340000   0.56747934   -9.8122123    447.66153 0.0085956516 0.0068246712         3975 
 4341000   0.54763505   -9.8241846    449.01804 0.0086197121 0.0068218942         3980 
 4342000   0.55393522   -9.8166602     448.0656 0.0085994472 0.0068191176         3970 
 4343000    0.5533169   -9.8138773    448.10846 0.0085982895  0.006816343         3977 
 4344000   0.55211348    -9.826717     449.4446 0.0086219421 0.0068135686         3982 
 4345000   0.55379873   -9.8091918    448.27692 0.0085975626 0.0068107963         3975 
 4346000   0.55838729   -9.7962404    447.65574 0.0085836735 0.0068080231         3970 
 4347000    0.5481323   -9.8127566    448.42418 0.0085964301 0.0068052533         3977 
 4348000   0.54405719   -9.8324767    448.50817 0.0085960628 0.0068024826         3975 
 4349000   0.56624599    -9.799908    448.92084 0.0086019935 0.0067997164         3975 
 4350000   0.55816536   -9.8176809    448.74873  0.008596719 0.0067969528         3980 
 4351000   0.54949705   -9.8288257    448.74835 0.0085947358 0.0067941891         3980 
 4352000   0.55274036   -9.8252123    447.45649 0.0085680241 0.0067914258         3980 
 4353000   0.54964684   -9.8136172    448.45199 0.0085851134 0.0067886628         3979 
 4354000   0.54758362   -9.8125767      448.681 0.0085875248 0.0067859031         3984 
 4355000   0.54271293   -9.8206361    448.85937 0.0085889662 0.0067831438         3978 
 4356000   0.54852513   -9.8174928    448.07401 0.0085719699 0.0067803889         3986 
 4357000   0.56273454   -9.8322083    448.57186 0.0085795246 0.0067776358         3981 
 4358000   0.56914411   -9.8220679    448.24726 0.0085713489  0.006774885         3983 
 4359000   0.55251531   -9.8135419    449.08774 0.0085854504 0.0067721336         3974 
 4360000   0.54754608   -9.8101383    448.14254 0.0085654154 0.0067693844         3971 
 4361000   0.55082933   -9.8288058     448.1964 0.0085644807 0.0067666353         3977 
 4362000   0.54785975    -9.811968     448.8542  0.008575084 0.0067638887         3979 
 4363000    0.5624028   -9.8198769    448.14661 0.0085596038 0.0067611442         3979 
 4364000   0.55370961   -9.7971662    448.80819 0.0085702756 0.0067584021         3982 
 4365000   0.55530906   -9.8293936    448.29814 0.0085585747 0.0067556587         3976 
 4366000   0.54642972   -9.7957646    448.13102 0.0085534245 0.0067529163         3977 
 4367000    0.5440742   -9.8126345    448.80188 0.0085642676 0.0067501746         3986 
 4368000   0.55942949   -9.8027631    447.68556 0.0085410095 0.0067474369         3980 
 4369000   0.56979651   -9.8135244    448.42059 0.0085530744 0.0067447032         3980 
 4370000     0.554514   -9.8263722    449.26395 0.0085671997 0.0067419703         3978 
 4371000   0.56466782   -9.8067736    448.68492 0.0085542005 0.0067392381         3972 
 4372000   0.54831158   -9.8164589     448.8829 0.0085560174 0.0067365081         3974 
 4373000   0.54718607    -9.832773    448.87398 0.0085538909  0.006733778         3978 
 4374000    0.5448679   -9.8297323    448.38225 0.0085425669 0.0067310505         3982 
 4375000   0.56500046    -9.838474    448.77822 0.0085481565 0.0067283231         3978 
 4376000   0.56060075   -9.8267581    448.87131 0.0085479758 0.0067255973         3976 
 4377000   0.55238572   -9.8230843    447.91001 0.0085277208 0.0067228754         3976 
 4378000   0.54780863   -9.7991228     448.9956 0.0085464366  0.006720154         3978 
 4379000   0.54950106   -9.8085676    449.11682  0.008546792 0.0067174338         3972 
 4380000   0.55048127   -9.8200491    448.60938  0.008535186  0.006714715         3973 
 4381000   0.54670108   -9.8014534    448.92221 0.0085391884 0.0067119997         3976 
 4382000   0.56103687   -9.8157023     448.2729 0.0085248915 0.0067092834         3982 
 4383000   0.53968079   -9.8035807    448.94106 0.0085356501   0.00670657         3978 
 4384000   0.55708616    -9.819079    448.20512 0.0085197141 0.0067038563         3980 
 4385000   0.55541507   -9.8010066    448.40802  0.008521627  0.006701144         3974 
 4386000    0.5576793   -9.8242847    448.33144 0.0085182293 0.0066984338         3976 
 4387000   0.55333514   -9.8325797    447.86056  0.008507343 0.0066957266         3974 
 4388000   0.54889649   -9.8202236    448.35639 0.0085148206  0.006693019         3975 
 4389000   0.55140872   -9.8181268    448.30725 0.0085119475 0.0066903113         3977 
 4390000   0.55268441   -9.8175115    448.37874 0.0085113656  0.006687606         3974 
 4391000   0.54825524   -9.8102619    447.97283 0.0085017239 0.0066849015         3975 
 4392000   0.54563917   -9.8295378    448.78587 0.0085152146 0.0066822002         3975 
 4393000   0.54548958    -9.814202    448.49457 0.0085077503 0.0066795013         3980 
 4394000   0.54588923   -9.8178818    448.70508 0.0085098065  0.006676802         3974 
 4395000   0.55006221   -9.8169217    447.57515 0.0084864458 0.0066741041         3982 
 4396000   0.54608098   -9.8275148    448.16439 0.0084956853 0.0066714077         3977 
 4397000   0.54643626   -9.8105835    449.22332 0.0085138223 0.0066687161         3978 
 4398000   0.54685602   -9.8277941    448.66792 0.0085013627 0.0066660229         3975 
 4399000   0.54517569   -9.8449922    448.45486  0.008495394 0.0066633313         3982 
 4400000   0.54534092   -9.8245306    447.94644 0.0084838341 0.0066606401         3977 
 4401000    0.5380274   -9.8275657    449.11892 0.0085041075 0.0066579521         3980 
 4402000   0.54822754   -9.8244964    448.17706 0.0084843454 0.0066552624         3981 
 4403000   0.53935437   -9.8290502    447.97672 0.0084786268 0.0066525785         3980 
 4404000   0.56866374   -9.8169375    449.04366 0.0084968904 0.0066498959         3975 
 4405000   0.54474902   -9.8234113    448.24836  0.008479916 0.0066472159         3979 
 4406000   0.54726929    -9.830416    448.74578 0.0084873994 0.0066445362         3982 
 4407000   0.54210843   -9.8294118    448.59229 0.0084825711 0.0066418549         3972 
 4408000    0.5578368   -9.8142693    448.26627 0.0084744834 0.0066391758         3976 
 4409000   0.54876935   -9.8217814    448.57074 0.0084783159 0.0066365013         3975 
 4410000   0.54336041   -9.8353697    447.82619 0.0084623241 0.0066338291         3977 
 4411000   0.54760089   -9.8318515    448.14302 0.0084663913 0.0066311555         3975 
 4412000   0.54611886   -9.8413766    447.85867 0.0084591015 0.0066284828         3978 
 4413000   0.53873913   -9.8207077    448.31145 0.0084657348 0.0066258121         3973 
 4414000   0.53423636   -9.8261365    448.06192 0.0084591059 0.0066231417         3972 
 4415000   0.54408389   -9.8215834    448.53733 0.0084661632 0.0066204721         3980 
 4416000   0.54474327   -9.8299513    448.95891 0.0084722017 0.0066178055         3971 
 4417000   0.53352917   -9.8466345     448.2427 0.0084567711 0.0066151401         3977 
 4418000   0.54613149   -9.8332607    448.17291 0.0084535406 0.0066124759         3980 
 4419000   0.54632288   -9.8121045    448.30983 0.0084542096  0.006609814         3976 
 4420000   0.53574157   -9.8245057    449.17047 0.0084685232 0.0066071525         3974 
 4421000   0.54570218   -9.8472683    448.25423  0.008449337 0.0066044936         3976 
 4422000   0.54914007   -9.8394035    448.28559 0.0084480173 0.0066018376         3983 
 4423000   0.53999707   -9.8358303    447.42981 0.0084299837 0.0065991809         3980 
 4424000   0.55081034   -9.8281644    449.24649 0.0084622983 0.0065965253         3982 
 4425000   0.54856193    -9.840213      448.673 0.0084495857 0.0065938719         3979 
 4426000   0.53531528   -9.8346909    448.55618  0.008445477 0.0065912208         3977 
 4427000   0.53960259   -9.8334031    448.32287 0.0084391776 0.0065885714         3980 
 4428000   0.54208628    -9.822484    448.04973 0.0084321314 0.0065859242         3976 
 4429000   0.54622771   -9.8311224    448.30776 0.0084350824 0.0065832752         3977 
 4430000   0.54917356   -9.8307781    447.68926 0.0084215437 0.0065806275         3978 
 4431000   0.53955061   -9.8213116    448.19811  0.008429213 0.0065779832         3978 
 4432000   0.53591364   -9.8322517     447.8206 0.0084202128 0.0065753373         3972 
 4433000   0.54716091   -9.8197844    448.17376 0.0084249523 0.0065726944         3973 
 4434000   0.53743047   -9.8274295     448.1108 0.0084218688 0.0065700536         3975 
 4435000   0.55095718   -9.8330748    448.59113 0.0084289953 0.0065674136         3975 
 4436000   0.53998561   -9.8504123    448.13033 0.0084184387 0.0065647767         3973 
 4437000   0.54595554   -9.8455452    448.35544 0.0084207693 0.0065621389         3979 
 4438000    0.5483586   -9.8310563    449.24189 0.0084355169 0.0065595041         3978 
 4439000   0.55454116   -9.8307548    448.04953 0.0084112325 0.0065568707         3976 
 4440000   0.53536157   -9.8374601    448.09431 0.0084101786 0.0065542378         3976 
 4441000   0.54440873   -9.8278238     448.1795 0.0084098832 0.0065516078         3977 
 4442000   0.53613398   -9.8405732    448.60899 0.0084160474 0.0065489786         3974 
 4443000   0.54251227   -9.8495708    447.34014 0.0083903545   0.00654635         3978 
 4444000    0.5385014    -9.836531    447.95135 0.0083999278 0.0065437223         3969 
 4445000   0.55287545    -9.832855    448.05048 0.0083998965 0.0065410989         3971 
 4446000    0.5371539   -9.8273601    448.00663 0.0083971853 0.0065384752         3977 
 4447000   0.54975681   -9.8335675    447.94671 0.0083941741 0.0065358521         3976 
 4448000   0.54195407   -9.8289257    447.54915 0.0083848387  0.006533232         3979 
 4449000   0.53573875   -9.8436303    448.65377 0.0084036444 0.0065306121         3984 
 4450000   0.54328451   -9.8310074      448.725 0.0084030899 0.0065279947         3979 
 4451000   0.52805806   -9.8405857    448.17187 0.0083908461 0.0065253765         3977 
 4452000   0.53270129   -9.8443364    448.18091 0.0083891305 0.0065227619         3977 
 4453000   0.52995207   -9.8424101    448.61952 0.0083954548 0.0065201482         3979 
 4454000   0.54562761   -9.8360507    448.04994 0.0083829131 0.0065175365         3986 
 4455000   0.54854732   -9.8335062    447.70603 0.0083745985 0.0065149237         3984 
 4456000   0.54362342   -9.8492797    447.89321 0.0083762194 0.0065123141         3977 
 4457000   0.52173614   -9.8227627    447.92515 0.0083749373  0.006509707         3980 
 4458000   0.54521694    -9.829541    448.08316 0.0083760124 0.0065071013         3977 
 4459000   0.53650066   -9.8478671    448.41109 0.0083802625 0.0065044974         3978 
 4460000   0.53815951   -9.8405668    448.13941 0.0083733073 0.0065018954         3980 
 4461000   0.54379833   -9.8279518    448.50555   0.00837827  0.006499295         3976 
 4462000   0.52866418   -9.8341512    448.26507 0.0083719011 0.0064966956         3981 
 4463000   0.54227847   -9.8610982    448.18961 0.0083686162  0.006494097         3975 
 4464000   0.53090149   -9.8315082    447.45645  0.008353055 0.0064915004         3974 
 4465000   0.53966538   -9.8530098     448.8379 0.0083769671 0.0064889033         3980 
 4466000   0.53557568   -9.8399736    448.64125 0.0083714221  0.006486307         3979 
 4467000    0.5410216   -9.8580907    447.31745 0.0083448521 0.0064837129         3978 
 4468000   0.53369077   -9.8329909    448.07207 0.0083570589 0.0064811203         3977 
 4469000   0.53519968   -9.8589574    448.07581 0.0083552587  0.006478529         3978 
 4470000   0.53669409   -9.8585997    448.48927 0.0083610975 0.0064759391         3978 
 4471000   0.53812519   -9.8305039    447.81423 0.0083466456  0.006473349         3974 
 4472000    0.5436053   -9.8346062    447.91055  0.008346574 0.0064707619         3976 
 4473000    0.5381969   -9.8606444    447.54781 0.0083379501 0.0064681764         3978 
 4474000   0.53719976   -9.8406626    447.90361 0.0083427137 0.0064655915         3978 
 4475000   0.53332948   -9.8283756    448.37594 0.0083496451   0.00646301         3981 
 4476000   0.54688556   -9.8340853    447.96161 0.0083400657 0.0064604291         3986 
 4477000   0.54098495   -9.8489056     448.0233 0.0083393511 0.0064578496         3975 
 4478000   0.53657069   -9.8369695     448.4836 0.0083460548 0.0064552713         3977 
 4479000   0.52958933   -9.8587778    447.58244 0.0083274249 0.0064526927         3970 
 4480000   0.53654465   -9.8575975    447.85397  0.008330617 0.0064501161         3978 
 4481000   0.54018859   -9.8324985    448.42759 0.0083394255  0.006447543         3976 
 4482000   0.53787348   -9.8601251    447.32212  0.008317011 0.0064449699         3980 
 4483000    0.5288802   -9.8456045    447.83896 0.0083247633 0.0064423975         3978 
 4484000   0.54271848   -9.8368899    448.07598 0.0083273115 0.0064398285         3976 
 4485000   0.52268006   -9.8586617    447.71934 0.0083188284 0.0064372596         3980 
 4486000   0.52840834   -9.8574378    448.09293 0.0083239139 0.0064346918         3976 
 4487000   0.53342905   -9.8446608    447.18612 0.0083052173  0.006432123         3979 
 4488000   0.53451257   -9.8681648    447.93207 0.0083172175 0.0064295593         3981 
 4489000   0.52628964   -9.8472627    448.52649 0.0083263994 0.0064269947         3981 
 4490000   0.53472155   -9.8403843    447.73859 0.0083099219 0.0064244311         3980 
 4491000   0.53160229   -9.8454686     447.6967 0.0083072942 0.0064218706         3978 
 4492000   0.53833292   -9.8484939    447.89429 0.0083091104 0.0064193097         3981 
 4493000   0.53886165    -9.841463    447.76464 0.0083048564 0.0064167526         3975 
 4494000   0.54227722   -9.8337691    448.70336 0.0083204153 0.0064141962         3978 
 4495000   0.53218232   -9.8467838    448.09471 0.0083072805 0.0064116437         3980 
 4496000   0.53264106   -9.8508891    447.23566 0.0082895103 0.0064090923         3980 
 4497000   0.53397354   -9.8606578    447.18553 0.0082867381 0.0064065412         3975 
 4498000   0.53945249   -9.8562365    447.90026 0.0082981373  0.006403989         3976 
 4499000   0.52725661   -9.8498993    448.03754 0.0082988357  0.006401439         3978 
 4500000   0.53533583   -9.8536966    447.82663 0.0082930858  0.006398892         3979 
 4501000    0.5255425   -9.8560222    446.75584 0.0082714183 0.0063963434         3978 
 4502000   0.53048792   -9.8468972    448.02088 0.0082929972 0.0063937962         3975 
 4503000   0.52688332   -9.8585376    447.74746 0.0082860955 0.0063912537         3977 
 4504000   0.53358534   -9.8380692    447.33336 0.0082765941 0.0063887096         3982 
 4505000   0.53368709   -9.8363188    448.54328  0.008297138 0.0063861698         3973 
 4506000   0.53805998   -9.8493305    447.69239 0.0082795603 0.0063836295         3980 
 4507000   0.52510167   -9.8507046    448.15276 0.0082862354 0.0063810918         3979 
 4508000    0.5410627   -9.8444405    447.56194 0.0082734757 0.0063785557         3976 
 4509000   0.54028633   -9.8531704    448.70464 0.0082927596 0.0063760213         3974 
 4510000    0.5404273     -9.83474     447.0014 0.0082594493 0.0063734866         3972 
 4511000   0.52325962   -9.8318147    446.93693 0.0082564274 0.0063709535         3980 
 4512000   0.52933428   -9.8552488    448.02277 0.0082746522 0.0063684222         3983 
 4513000   0.51554943   -9.8495302    447.82919 0.0082692442 0.0063658931         3981 
 4514000   0.52407418    -9.848658    448.14578 0.0082732569  0.006363365         3983 
 4515000   0.53097041   -9.8523262    447.09608 0.0082520501 0.0063608377         3980 
 4516000    0.5224951   -9.8666117    448.02902 0.0082674384 0.0063583129         3979 
 4517000   0.53120333    -9.861436    447.90452 0.0082633113 0.0063557889         3982 
 4518000   0.51751122   -9.8576524    447.50207 0.0082540591 0.0063532641         3976 
 4519000   0.53062729    -9.859387    447.31636  0.008248808 0.0063507429         3981 
 4520000    0.5414785    -9.852078    448.35297 0.0082660946 0.0063482229         3976 
 4521000   0.54500453   -9.8550412    447.74934 0.0082531397  0.006345703         3977 
 4522000    0.5370304   -9.8510426    447.47025 0.0082461714  0.006343185         3976 
 4523000   0.52998128   -9.8687412    447.42324 0.0082434823 0.0063406692         3979 
 4524000   0.53158336   -9.8487361    447.42328 0.0082416607 0.0063381541         3976 
 4525000   0.52607264    -9.857657      447.063 0.0082332044  0.006335641         3979 
 4526000   0.53136131   -9.8689056    447.70144 0.0082431404  0.006333128         3982 
 4527000   0.53171971   -9.8474598    447.25942 0.0082331827 0.0063306188         3974 
 4528000   0.52422346   -9.8438189    447.71321 0.0082397161 0.0063281092         3978 
 4529000   0.52216464   -9.8656878     448.0679  0.008244423 0.0063255997         3980 
 4530000   0.52125543   -9.8459828    447.83173 0.0082382585 0.0063230927         3981 
 4531000   0.51844975   -9.8655982    447.81363 0.0082361073 0.0063205869         3986 
 4532000   0.52442175   -9.8689688    447.71965 0.0082325619 0.0063180825         3983 
 4533000   0.53382338   -9.8767606    447.57062  0.008228006 0.0063155801         3981 
 4534000   0.52492815   -9.8729309    447.62907 0.0082272657 0.0063130778         3982 
 4535000   0.52164357    -9.863328     448.1717 0.0082354227 0.0063105786         3978 
 4536000   0.53711553   -9.8593192    447.67319 0.0082244487 0.0063080797         3978 
 4537000   0.51868844   -9.8386974    447.74765 0.0082240035 0.0063055814         3980 
 4538000   0.52844614     -9.86542    447.41963 0.0082161677 0.0063030854         3979 
 4539000   0.52803711    -9.854348    447.40964 0.0082141742 0.0063005906         3979 
 4540000   0.53681956   -9.8584994     447.6601 0.0082169622 0.0062980969         3980 
 4541000   0.53082773   -9.8503618     447.3967 0.0082103189 0.0062956049         3975 
 4542000    0.5287685    -9.849239     447.4084 0.0082087259 0.0062931144         3976 
 4543000   0.53549711   -9.8639333    447.93408 0.0082165617 0.0062906268         3982 
 4544000     0.511346    -9.876077    447.92667 0.0082146176 0.0062881377         3981 
 4545000   0.52093434   -9.8656228    447.32098 0.0082017048 0.0062856502         3978 
 4546000   0.54005107   -9.8471938    447.34455 0.0082003327 0.0062831643         3978 
 4547000   0.52399471   -9.8502354    448.06234 0.0082116843 0.0062806802         3979 
 4548000   0.51914774   -9.8649771    447.52972 0.0082001194  0.006278195         3984 
 4549000   0.51906268   -9.8603725    447.57951 0.0081992289 0.0062757154         3982 
 4550000   0.53819895   -9.8785528    447.04587 0.0081876534 0.0062732345         3979 
 4551000   0.52655844   -9.8720243    447.59713 0.0081959484 0.0062707551         3979 
 4552000    0.5224881   -9.8390949    447.55621 0.0081933986 0.0062682771         3978 
 4553000   0.50959029   -9.8608818    447.54679 0.0081914267  0.006265801         3978 
 4554000   0.51846842   -9.8770078    447.72436 0.0081928773  0.006263328         3980 
 4555000   0.52432473    -9.858657    447.47878 0.0081865858 0.0062608545         3984 
 4556000   0.52488512   -9.8721622    447.28966 0.0081813298 0.0062583821         3984 
 4557000   0.51493495   -9.8614026    447.50702 0.0081835093 0.0062559103         3981 
 4558000   0.51650024   -9.8678256    447.08906 0.0081740723 0.0062534412         3978 
 4559000   0.53902097   -9.8689916    447.83103 0.0081858417 0.0062509729         3980 
 4560000   0.53402642   -9.8520209    447.58125  0.008179482  0.006248506         3982 
 4561000   0.51315822   -9.8657108    447.60564 0.0081781342 0.0062460401         3982 
 4562000   0.52474256   -9.8673832    446.96963 0.0081647235 0.0062435775         3976 
 4563000   0.50824116   -9.8628697    447.52489 0.0081730749 0.0062411149         3976 
 4564000    0.5175031   -9.8622046    447.17514 0.0081648982 0.0062386531         3979 
 4565000   0.52110401   -9.8775461    447.43237 0.0081678052 0.0062361919         3978 
 4566000    0.5116839   -9.8730061    447.84491 0.0081735456  0.006233734         3980 
 4567000   0.51066225   -9.8600363    447.24036 0.0081607247 0.0062312767         3985 
 4568000   0.51749662   -9.8662767    447.64135 0.0081662535 0.0062288212         3980 
 4569000   0.52267376   -9.8650645    447.64628 0.0081645561 0.0062263659         3981 
 4570000   0.52454372   -9.8681888    447.69821 0.0081637164 0.0062239119         3975 
 4571000   0.51282599   -9.8595777    447.09044 0.0081508503 0.0062214599         3981 
 4572000   0.52027797   -9.8532609    447.79957 0.0081619927 0.0062190103         3976 
 4573000   0.52228184   -9.8691918    447.86565 0.0081614121 0.0062165604         3982 
 4574000   0.53117462   -9.8594078    447.23548 0.0081481468  0.006214112         3979 
 4575000   0.51834493   -9.8519359    447.66385 0.0081541686 0.0062116655         3982 
 4576000   0.52562121   -9.8666443    447.26854 0.0081451876 0.0062092192         3976 
 4577000   0.50705969   -9.8495923    447.28347 0.0081436797 0.0062067741         3977 
 4578000   0.52195768   -9.8751993    447.09431 0.0081384577 0.0062043293         3977 
 4579000   0.51669776   -9.8661705    447.58608 0.0081456301 0.0062018875         3982 
 4580000   0.51949919   -9.8762697    447.81262 0.0081479735 0.0061994456         3978 
 4581000    0.5273194   -9.8611813    447.31855 0.0081372072  0.006197006         3979 
 4582000   0.51606338   -9.8748579    447.22846 0.0081337927 0.0061945687         3981 
 4583000   0.51703623   -9.8726442    446.97727 0.0081274505 0.0061921324         3977 
 4584000   0.51457611    -9.860904    446.42155 0.0081155749 0.0061896959         3983 
 4585000   0.51543684    -9.870972    447.64235 0.0081359932 0.0061872628         3976 
 4586000   0.52284073   -9.8887816    446.98268 0.0081222322 0.0061848302         3980 
 4587000   0.50951026   -9.8564429    446.70071 0.0081153388 0.0061823982         3981 
 4588000   0.51548543   -9.8861537    447.28538 0.0081241896 0.0061799685         3978 
 4589000   0.51294412   -9.8887678    447.18754 0.0081206425 0.0061775369         3980 
 4590000   0.51386875   -9.8764653    447.36976 0.0081221816 0.0061751084         3983 
 4591000    0.5170498   -9.8631746    447.79238 0.0081280836 0.0061726826         3978 
 4592000   0.51032833    -9.874192    447.56774 0.0081222369  0.006170259         3976 
 4593000   0.51270383     -9.86993    447.37015 0.0081168834  0.006167837         3980 
 4594000   0.51790124   -9.8785181    447.11825 0.0081105473 0.0061654142         3979 
 4595000   0.51729488   -9.8680816     447.4156 0.0081141748  0.006162992         3975 
 4596000   0.51662964   -9.8742111    447.21449 0.0081087629 0.0061605721         3982 
 4597000   0.51760449   -9.8838996    447.44886 0.0081112475 0.0061581526         3982 
 4598000   0.52595981   -9.8884237    446.87581 0.0080990976 0.0061557353         3982 
 4599000   0.51719161   -9.8867243    447.69203 0.0081121264 0.0061533188         3989 
 4600000   0.50932902   -9.8689593    446.96951 0.0080972738 0.0061509052         3983 
 4601000   0.51300657   -9.8703528    447.77218 0.0081100518 0.0061484927         3980 
 4602000   0.51479771   -9.8649625     447.7488 0.0081078662 0.0061460822         3975 
 4603000    0.5119089   -9.8742823    447.45448 0.0081007764 0.0061436721         3979 
 4604000   0.51666184   -9.8661024    447.07359 0.0080921226 0.0061412628         3978 
 4605000    0.5077432   -9.8759427    447.98005 0.0081067689 0.0061388551         3974 
 4606000   0.52651275   -9.8707803    448.14382 0.0081079718 0.0061364471         3976 
 4607000   0.52227833   -9.8734167    447.17283 0.0080886482 0.0061340411         3978 
 4608000   0.51683385   -9.8650898    447.06945 0.0080850234 0.0061316364         3976 
 4609000   0.52231851   -9.8883141    447.18785 0.0080854099 0.0061292336         3976 
 4610000   0.51105122   -9.8664857    447.39576 0.0080874143 0.0061268286         3978 
 4611000   0.51863444   -9.8878032    447.17377 0.0080816483 0.0061244278         3982 
 4612000   0.50282453   -9.8699334    448.27393 0.0080997747 0.0061220266         3978 
 4613000   0.52381555   -9.8836381    447.07436 0.0080763487 0.0061196289         3982 
 4614000   0.50383868   -9.8763175    447.10281 0.0080751122 0.0061172308         3979 
 4615000   0.50534213    -9.901432    447.47474 0.0080800783 0.0061148344         3979 
 4616000   0.51098188   -9.8842779    447.45734 0.0080780139  0.006112441         3985 
 4617000   0.51214372   -9.8748036    447.58944 0.0080786484 0.0061100488         3980 
 4618000   0.51223997   -9.8660764    447.40004 0.0080734812 0.0061076589         3977 
 4619000   0.50909767   -9.8757905    447.78846 0.0080787411 0.0061052687         3978 
 4620000     0.523857   -9.8676986    446.99603  0.008062699 0.0061028792         3977 
 4621000   0.50690961   -9.8896166    447.28625 0.0080661878 0.0061004916         3980 
 4622000   0.51854996   -9.8883882    447.16011 0.0080621684  0.006098105         3975 
 4623000   0.51674406   -9.8856767    446.25264 0.0080440666 0.0060957192         3980 
 4624000   0.50659464   -9.8864199    447.10606 0.0080577073 0.0060933338         3979 
 4625000   0.50534967   -9.8835559    447.30694 0.0080595846 0.0060909512         3981 
 4626000   0.51201377   -9.8820437    446.59767 0.0080450655 0.0060885695         3982 
 4627000   0.50457174   -9.8811082    447.14274 0.0080531435 0.0060861901         3975 
 4628000   0.50539613   -9.8977028    447.80861 0.0080633932  0.006083812         3977 
 4629000   0.49860339   -9.8732787    447.86251 0.0080626217 0.0060814348         3979 
 4630000   0.50634202   -9.8834138    447.22043 0.0080493237 0.0060790584         3975 
 4631000   0.51944513   -9.8669052    447.24747 0.0080480723 0.0060766825         3974 
 4632000   0.51290576   -9.8761113    447.23053   0.00804603  0.006074308         3981 
 4633000   0.50042744   -9.8841177    447.30116 0.0080455637 0.0060719358         3984 
 4634000   0.50525004   -9.8926384    446.82605 0.0080352835 0.0060695632         3983 
 4635000   0.51518583   -9.8740593    447.38762 0.0080436466 0.0060671936         3979 
 4636000   0.52461176   -9.8707626    447.41281 0.0080423643 0.0060648248         3976 
 4637000   0.51157076   -9.8672923    447.60334 0.0080440541  0.006062458         3985 
 4638000     0.507298   -9.8769526    447.51981 0.0080408188 0.0060600921         3980 
 4639000   0.51397852   -9.8740649    447.28838 0.0080349281 0.0060577262         3976 
 4640000   0.49402442   -9.8827824    447.31017 0.0080335878 0.0060553639         3978 
 4641000   0.50343639   -9.8882673    446.88795 0.0080242754  0.006053002         3986 
 4642000   0.50420837   -9.8830061    447.83543  0.008039556 0.0060506415         3987 
 4643000   0.50361547   -9.8659941    446.94202 0.0080217894 0.0060482806         3984 
 4644000   0.50864021   -9.8861521    447.02435 0.0080215395 0.0060459227         3972 
 4645000   0.51783383   -9.8979638    447.21203 0.0080231796 0.0060435648         3981 
 4646000   0.50477348   -9.8942457    447.00277 0.0080176993 0.0060412089         3983 
 4647000   0.49719147   -9.8930503    447.10186 0.0080177509 0.0060388542         3982 
 4648000    0.5114291   -9.8994429    447.12134 0.0080163751 0.0060364999         3977 
 4649000   0.50818264    -9.886765    446.87312 0.0080102015 0.0060341467         3979 
 4650000   0.49754973   -9.8812773    447.26649 0.0080155285 0.0060317969         3985 
 4651000   0.50887911   -9.8934209     447.0992 0.0080108078 0.0060294463         3980 
 4652000   0.50690324    -9.886633    446.77074 0.0080032019 0.0060270974         3981 
 4653000   0.50025672   -9.8917013    447.14713 0.0080082229 0.0060247505         3977 
 4654000   0.50997376   -9.8778048    447.58507 0.0080143438 0.0060224032         3978 
 4655000    0.5097449   -9.8893964    446.83733 0.0079992361 0.0060200605         3981 
 4656000   0.50689561   -9.8881756    446.45456 0.0079906673 0.0060177171         3978 
 4657000   0.51765685   -9.8912831    447.19736 0.0080022433 0.0060153749         3981 
 4658000   0.49636507   -9.8963587    446.92311 0.0079956188 0.0060130329         3982 
 4659000   0.50267278    -9.902973    446.98607 0.0079950288 0.0060106934         3979 
 4660000    0.5137633   -9.8915602    446.85311 0.0079909354 0.0060083542         3976 
 4661000   0.51729766   -9.8953504    446.60226 0.0079847362 0.0060060147         3982 
 4662000   0.50076582   -9.8971121    447.20519 0.0079938008  0.006003679         3980 
 4663000    0.5079691   -9.9132017    446.84767 0.0079856972  0.006001343         3981 
 4664000     0.505625   -9.8867328    446.72436 0.0079817818 0.0059990076         3973 
 4665000     0.499931   -9.8917029    447.03586 0.0079856352 0.0059966758         3978 
 4666000   0.50965637   -9.8761731    447.02661 0.0079837586  0.005994344         3982 
 4667000   0.51271538   -9.8833037    446.96802 0.0079810017  0.005992015         3977 
 4668000    0.4888366   -9.8831151    446.55505 0.0079719197 0.0059896857         3979 
 4669000   0.50182515   -9.9040308    447.45641 0.0079862999 0.0059873578         3982 
 4670000    0.5006857   -9.8774221    446.54896 0.0079683969 0.0059850316         3980 
 4671000   0.51694008   -9.8930736    447.36072 0.0079811733 0.0059827076         3983 
 4672000   0.51242355    -9.902392    446.93713 0.0079719094 0.0059803855         3980 
 4673000   0.50116643   -9.8859336    447.74744 0.0079846538 0.0059780633         3982 
 4674000   0.50374635   -9.8880419    447.27928 0.0079745984 0.0059757423         3975 
 4675000   0.50349522   -9.8875938    447.30514 0.0079733536 0.0059734213         3982 
 4676000   0.51481389   -9.8870133    446.92391 0.0079648545 0.0059711003         3982 
 4677000   0.50141866   -9.8823575    447.17112 0.0079675562 0.0059687823         3982 
 4678000   0.51191838   -9.8881391    447.30926 0.0079683138 0.0059664653         3985 
 4679000   0.50421746   -9.9000637    447.45864 0.0079692712 0.0059641506         3981 
 4680000   0.50773658   -9.8843063    447.32476 0.0079651844 0.0059618363         3979 
 4681000   0.51374995   -9.8905567    447.21968 0.0079616122  0.005959524         3978 
 4682000   0.50043084   -9.9132154    446.50841 0.0079472521 0.0059572112         3974 
 4683000   0.50472144   -9.8845833    447.00424 0.0079543782 0.0059548999         3978 
 4684000   0.50916386   -9.8898249    447.66095 0.0079643635 0.0059525914         3978 
 4685000   0.51014839   -9.8904246    446.42672   0.00794071 0.0059502828         3980 
 4686000   0.50425321   -9.8909519    446.95533  0.007948416 0.0059479755         3982 
 4687000   0.50206353   -9.9050051    446.05971 0.0079307963 0.0059456686         3986 
 4688000   0.49317076   -9.8966242    446.76171 0.0079415833 0.0059433645         3977 
 4689000    0.5098813   -9.9004109     446.4079 0.0079336017  0.005941061         3985 
 4690000   0.50975945   -9.9151822    447.15513 0.0079451872 0.0059387614         3973 
 4691000   0.49084529      -9.8965    447.03008 0.0079412719 0.0059364609         3981 
 4692000   0.50748794   -9.8924947     447.0005 0.0079390541 0.0059341617         3980 
 4693000   0.50566677   -9.8927257    447.09209 0.0079389887 0.0059318624         3982 
 4694000   0.49955959   -9.9007725    447.21846 0.0079395409 0.0059295633         3980 
 4695000   0.49800967   -9.9078191    446.54531 0.0079259018 0.0059272668         3985 
 4696000   0.48980308   -9.8874727    446.21067 0.0079182757 0.0059249722         3978 
 4697000   0.48506517   -9.8942649    446.14939 0.0079155026  0.005922678         3984 
 4698000    0.5006416   -9.8888925    447.17633 0.0079320338 0.0059203855         3978 
 4699000   0.50630022   -9.8734994    446.98347 0.0079269253 0.0059180947         3975 
 4700000   0.50341035   -9.9021425    446.57662 0.0079180252 0.0059158054         3980 
 4701000    0.4963265   -9.9051631    447.06581 0.0079250126 0.0059135174         3980 
 4702000   0.48200908   -9.8848671    447.34732 0.0079283162 0.0059112308         3981 
 4703000   0.50673084   -9.8979302    446.61706 0.0079136909 0.0059089445         3980 
 4704000    0.4942294   -9.9022759    446.77166 0.0079147474 0.0059066585         3983 
 4705000   0.49917623    -9.895649    446.38188 0.0079061615 0.0059043745         3982 
 4706000   0.49588797   -9.9056909    446.66872 0.0079095608  0.005902092         3977 
 4707000   0.49740412   -9.9036743    446.60646 0.0079067781 0.0058998093         3978 
 4708000   0.49842836   -9.9061327    447.12016 0.0079141914 0.0058975293         3984 
 4709000   0.49709099   -9.9060855    446.40558 0.0078998651 0.0058952497         3981 
 4710000   0.49767026   -9.8894566    446.95034 0.0079078262 0.0058929701         3978 
 4711000   0.50138901   -9.8964287    446.56673  0.007899362 0.0058906921         3984 
 4712000   0.49325324   -9.8959007    446.65652 0.0078992734 0.0058884164         3982 
 4713000   0.48703932   -9.9071017    446.27845 0.0078909125 0.0058861415         3978 
 4714000   0.49750739   -9.8756233     446.7733 0.0078979864  0.005883868         3981 
 4715000   0.49310463   -9.9080779    446.57768  0.007892854 0.0058815957         3982 
 4716000   0.50359648   -9.8858539     446.6965 0.0078932799 0.0058793249         3977 
 4717000   0.49047881   -9.8930586    446.84351 0.0078942038 0.0058770568         3980 
 4718000   0.49421961   -9.9132109    446.03956 0.0078783305 0.0058747898         3977 
 4719000   0.49544702   -9.9117746    446.77666 0.0078896775 0.0058725229         3986 
 4720000   0.49344042   -9.8940478    447.51868 0.0079011067 0.0058702573         3981 
 4721000   0.49755511   -9.8911371     446.3619 0.0078790139 0.0058679931         3977 
 4722000   0.49148969   -9.9133863     446.9791 0.0078882376 0.0058657307         3977 
 4723000   0.48803768   -9.8999475    446.70395 0.0078817127 0.0058634692         3983 
 4724000   0.48871974   -9.9129466    446.17298 0.0078706777 0.0058612089         3981 
 4725000   0.49868602   -9.9263776    446.58249 0.0078762344 0.0058589482         3982 
 4726000   0.48044066   -9.9001215    446.49464 0.0078730188 0.0058566892         3980 
 4727000   0.49513746   -9.9079443    446.52126 0.0078718225 0.0058544325         3978 
 4728000   0.50036793   -9.9195415     446.5542 0.0078707382 0.0058521761         3983 
 4729000    0.4907704   -9.9094305    446.32801  0.007865088 0.0058499209         3975 
 4730000   0.50652673   -9.9098405    446.73183 0.0078705396 0.0058476677         3979 
 4731000   0.49238808   -9.9067944    445.88524 0.0078539639 0.0058454146         3986 
 4732000   0.49342164   -9.9014572    447.25107 0.0078763572 0.0058431643         3982 
 4733000   0.49537726   -9.8934357    447.44009 0.0078780212 0.0058409152         3981 
 4734000    0.4826991   -9.9036325    446.62744 0.0078620518  0.005838665         3980 
 4735000    0.5046269   -9.8862546    446.81131 0.0078636275 0.0058364169         3983 
 4736000   0.49607693   -9.8985831    446.99265 0.0078651578 0.0058341701         3981 
 4737000   0.48989749   -9.9010764    447.06834 0.0078648289 0.0058319253         3984 
 4738000   0.48989545   -9.9050024    446.37128 0.0078509089 0.0058296807         3976 
 4739000   0.49425907    -9.896692    446.76346 0.0078561486 0.0058274387         3982 
 4740000   0.48382229    -9.914647    447.10268 0.0078604551 0.0058251979         3981 
 4741000   0.48678293   -9.9036071    447.39907 0.0078640067 0.0058229571         3983 
 4742000   0.49380882   -9.9058931    447.02294 0.0078557385 0.0058207182         3977 
 4743000   0.49253429   -9.9057194    447.20651 0.0078573075 0.0058184804         3984 
 4744000   0.49811519   -9.8983383    446.67154 0.0078462539 0.0058162444         3974 
 4745000   0.49015594   -9.8968749    446.50457 0.0078416678 0.0058140094         3984 
 4746000   0.48415213   -9.9028253    447.21271 0.0078524495 0.0058117761         3986 
 4747000   0.50298342   -9.9165321    446.75986 0.0078428456 0.0058095428         3983 
 4748000   0.48902074   -9.9011425    446.63326 0.0078389719 0.0058073117         3984 
 4749000   0.49315842   -9.9123689    445.96381  0.007825574 0.0058050815         3984 
 4750000   0.48426074   -9.9017591    446.35786 0.0078308397 0.0058028519         3984 
 4751000   0.49323859   -9.8973891     446.3554 0.0078291482 0.0058006241         3985 
 4752000    0.4829336   -9.9093217     446.2503 0.0078256576 0.0057983959         3984 
 4753000   0.49671396   -9.9228779    447.50808 0.0078460635 0.0057961694         3984 
 4754000    0.4919572   -9.9167223    446.94861 0.0078346062 0.0057939458         3982 
 4755000   0.48453447   -9.8930567     446.2024 0.0078198808  0.005791721         3983 
 4756000   0.48935172   -9.9174658    446.37288 0.0078212237 0.0057894982         3979 
 4757000   0.48615015   -9.9131391    446.90631 0.0078289242  0.005787278         3982 
 4758000   0.50066725   -9.8934067    446.07387 0.0078126992 0.0057850582         3973 
 4759000   0.50142028   -9.9192144    446.76865 0.0078232235 0.0057828385         3979 
 4760000   0.49484107   -9.9204181    446.88145 0.0078235549 0.0057806197         3983 
 4761000   0.47875357   -9.9054505    446.32913  0.007812244 0.0057784037         3981 
 4762000   0.47762075   -9.9067938    446.79922 0.0078188299 0.0057761895         3982 
 4763000   0.48973414   -9.9157924    446.21835 0.0078070256 0.0057739759         3982 
 4764000   0.49950831   -9.9025724     446.8915 0.0078171617 0.0057717624         3982 
 4765000   0.48819885    -9.906284     446.5946 0.0078103287 0.0057695497         3982 
 4766000   0.49067877   -9.9111496    447.22238 0.0078196667  0.005767338         3981 
 4767000   0.49606733   -9.9183961    446.46841  0.007804846 0.0057651285         3980 
 4768000   0.48672747    -9.910791    446.99013 0.0078123275 0.0057629206         3984 
 4769000   0.49527441   -9.9225799     445.8578 0.0077909031 0.0057607132         3983 
 4770000   0.48252772   -9.9171731    445.95426  0.007790955  0.005758507         3985 
 4771000   0.48913273   -9.9114866    447.26391 0.0078121971 0.0057563004         3981 
 4772000   0.48216876   -9.9054473    446.74102 0.0078014288 0.0057540965         3980 
 4773000   0.48405855   -9.8971447    446.58037 0.0077969896 0.0057518948         3986 
 4774000   0.48003193   -9.9004251    447.08007 0.0078040789 0.0057496934         3985 
 4775000   0.48839672   -9.9150414     446.7508 0.0077966981 0.0057474934         3985 
 4776000   0.49636673    -9.915423    446.38362 0.0077886589 0.0057452929         3983 
 4777000   0.48448734   -9.9133794    446.40521 0.0077874051 0.0057430962         3984 
 4778000   0.48402383   -9.9266202    446.72875 0.0077914181 0.0057408985         3986 
 4779000   0.48025741   -9.9186487    446.64806 0.0077883808 0.0057387025         3986 
 4780000   0.47887846   -9.9345939    446.27429 0.0077802352 0.0057365074         3986 
 4781000   0.49313383   -9.9219454    447.16798 0.0077941849 0.0057343137         3988 
 4782000   0.49380699   -9.9040032    446.53686 0.0077815568 0.0057321216         3982 
 4783000   0.48626186   -9.9036147    446.72862 0.0077832709 0.0057299304         3978 
 4784000   0.48726815   -9.9120555    446.87442 0.0077841837 0.0057277397         3981 
 4785000   0.48312021   -9.9116715    446.47166 0.0077755427 0.0057255497         3986 
 4786000   0.48598894   -9.9290063    445.88476 0.0077636989 0.0057233605         3987 
 4787000   0.48401792   -9.9226167    446.65911 0.0077755573 0.0057211733         3985 
 4788000   0.48467121   -9.9303605    445.84257 0.0077597217 0.0057189868         3983 
 4789000   0.48799703    -9.903001    446.56212 0.0077706223 0.0057168037         3982 
 4790000   0.49142558   -9.9123648    447.40788  0.007783714 0.0057146217         3980 
 4791000   0.48128293   -9.9089162    446.26845 0.0077622704 0.0057124382         3980 
 4792000   0.47642573   -9.9138922    446.49208 0.0077645396 0.0057102559         3978 
 4793000   0.47384127   -9.9045404    446.04007 0.0077550607 0.0057080755         3980 
 4794000   0.48529971   -9.8948592    445.83662 0.0077499064 0.0057058951         3982 
 4795000   0.48628925   -9.8946163    446.55705 0.0077608108 0.0057037179         3980 
 4796000   0.48492096   -9.9139187    445.92241 0.0077481653 0.0057015409         3982 
 4797000   0.47298963   -9.9198576    446.39074 0.0077546858 0.0056993664         3977 
 4798000   0.48052957   -9.9263358    446.17691 0.0077493558 0.0056971906         3980 
 4799000   0.48440836   -9.9250459    445.76465 0.0077405822 0.0056950169         3980 
 4800000    0.4838044   -9.9240255    446.68894 0.0077550163 0.0056928452         3986 
 4801000   0.47795951   -9.9177381    446.09208 0.0077430411 0.0056906755         3984 
 4802000   0.47792382   -9.9329013    446.30188 0.0077450694 0.0056885052         3981 
 4803000   0.49063911   -9.9196574    446.20069 0.0077417012 0.0056863348         3980 
 4804000   0.48065919   -9.9244176    446.92594 0.0077526704  0.005684168         3979 
 4805000   0.48274924   -9.9258187    446.39228 0.0077418016 0.0056820028         3978 
 4806000   0.47985337    -9.915854    446.00868 0.0077335393 0.0056798362         3984 
 4807000    0.4736478   -9.9296798    446.55266 0.0077413609 0.0056776708         3980 
 4808000   0.46822579   -9.9176478    446.54369 0.0077395953 0.0056755076         3979 
 4809000   0.49612765    -9.934791    446.23787 0.0077326864  0.005673346         3986 
 4810000   0.47472976   -9.9343198     446.3269 0.0077326212 0.0056711858         3980 
 4811000   0.47506538    -9.935183    446.65882 0.0077367634 0.0056690255         3983 
 4812000    0.4830007   -9.9153984    446.21413 0.0077274545 0.0056668659         3986 
 4813000   0.49001686   -9.9211692    446.38464 0.0077288012 0.0056647092         3987 
 4814000   0.48831634   -9.9179444    446.32411 0.0077261479 0.0056625521         3983 
 4815000   0.48518997    -9.921135     446.3488 0.0077249706 0.0056603968         3985 
 4816000   0.48820677   -9.9250573    446.56117 0.0077270413 0.0056582424         3982 
 4817000   0.47826613   -9.9146363    446.54841 0.0077252165 0.0056560882         3987 
 4818000   0.47837652   -9.9363865    445.75156 0.0077098306 0.0056539352         3984 
 4819000   0.47093316   -9.9241322    445.77277 0.0077085973 0.0056517847         3983 
 4820000    0.4822715   -9.9340584    445.70507 0.0077058276 0.0056496345         3983 
 4821000   0.47435893   -9.9204784    446.31694 0.0077148058  0.005647487         3981 
 4822000   0.48413733   -9.9307308    446.33828 0.0077135746  0.005645341         3985 
 4823000   0.47831525   -9.9153348    446.44102 0.0077137505 0.0056431945         3982 
 4824000   0.48452999   -9.9294951    446.62114  0.007715263 0.0056410492         3987 
 4825000   0.46964679   -9.9279926    445.94019 0.0077019032 0.0056389052         3987 
 4826000   0.47465658   -9.9197311     446.0722 0.0077025867 0.0056367633         3981 
 4827000    0.4809262   -9.9295563    446.78858 0.0077133585 0.0056346216         3986 
 4828000   0.47147659   -9.9202388    446.93468 0.0077142827 0.0056324818         3987 
 4829000   0.47902512   -9.9244968    446.20724 0.0077001318  0.005630342         3983 
 4830000   0.47405164   -9.9243242    446.81044 0.0077089448 0.0056282033         3981 
 4831000    0.4767397   -9.9170364     446.6786 0.0077050749 0.0056260661         3985 
 4832000   0.47354533   -9.9223022    445.77341 0.0076878692 0.0056239325         3987 
 4833000   0.46687547    -9.918869    446.27287 0.0076948906 0.0056217984         3986 
 4834000   0.48705924   -9.9306561    446.15561 0.0076912772 0.0056196665         3983 
 4835000   0.46580619   -9.9315298    446.37637 0.0076934914 0.0056175335         3987 
 4836000   0.47280524   -9.9313695    445.86303 0.0076830546 0.0056154006         3988 
 4837000   0.46562378   -9.9349236     446.1017 0.0076855782 0.0056132695         3982 
 4838000   0.47037756   -9.9395279     445.7873 0.0076785742 0.0056111388         3981 
 4839000   0.47988528   -9.9290599     445.4282 0.0076708032 0.0056090096         3986 
 4840000   0.47650854   -9.9100156    446.59839 0.0076893662 0.0056068843         3982 
 4841000   0.46931521   -9.9304831     446.5994 0.0076877952  0.005604757         3986 
 4842000   0.49108489   -9.9248463    446.35851 0.0076820617  0.005602633         3983 
 4843000    0.4766695   -9.9277644    446.24855 0.0076785833 0.0056005086         3981 
 4844000   0.47690801   -9.9280716    445.72302 0.0076679573 0.0055983851         3986 
 4845000    0.4794091   -9.9248534    446.47722 0.0076793467 0.0055962637         3980 
 4846000   0.48068949   -9.9393566    445.83708 0.0076667541 0.0055941431         3982 
 4847000   0.47559842   -9.9356033    445.68842 0.0076626164 0.0055920236         3981 
 4848000   0.48349619   -9.9393435    446.13563  0.007668723 0.0055899035         3991 
 4849000   0.47759541   -9.9381971    445.97289 0.0076643447  0.005587786         3984 
 4850000     0.479471    -9.929369    446.42196 0.0076704804 0.0055856711         3982 
 4851000   0.47620647    -9.926443    446.26983 0.0076662858 0.0055835557         3984 
 4852000   0.48309536   -9.9318494    446.36956 0.0076664187 0.0055814424         3989 
 4853000   0.46936794   -9.9293987    446.03618 0.0076591143 0.0055793281         3981 
 4854000   0.47974043    -9.928057    446.31303 0.0076622893 0.0055772172         3987 
 4855000    0.4696712   -9.9057173    446.39832  0.007662175 0.0055751069         3986 
 4856000   0.47650986   -9.9303153    445.82597 0.0076507752 0.0055729988         3982 
 4857000   0.48400145    -9.926322     446.2465 0.0076564151 0.0055708901         3983 
 4858000   0.47896253   -9.9250218    446.63271  0.007661464 0.0055687826         3986 
 4859000   0.47083505   -9.9373658    446.26979 0.0076536631 0.0055666771         3986 
 4860000   0.46728884   -9.9271814    446.50026 0.0076560401 0.0055645736         3984 
 4861000    0.4709921   -9.9327185    445.77875  0.007642096 0.0055624687         3983 
 4862000   0.46657303   -9.9232947    446.62609 0.0076550474 0.0055603652         3979 
 4863000   0.47040603   -9.9344331    446.33007 0.0076484006 0.0055582631         3982 
 4864000   0.48313053   -9.9240738    446.63537 0.0076520587 0.0055561622         3989 
 4865000   0.46140964   -9.9399849    446.84797 0.0076541275 0.0055540611         3984 
 4866000   0.47145053   -9.9358016    445.96664 0.0076374613 0.0055519612         3981 
 4867000   0.47780205   -9.9441754    446.39778 0.0076432741  0.005549863         3985 
 4868000   0.47181898   -9.9444973    445.53047 0.0076268568 0.0055477652         3985 
 4869000   0.46910084   -9.9389246    446.10288 0.0076350874 0.0055456689         3980 
 4870000   0.46318944   -9.9249272    445.79626 0.0076282727 0.0055435725         3985 
 4871000   0.46735743   -9.9234165    446.42781 0.0076375112 0.0055414798         3986 
 4872000   0.47332986   -9.9280392    445.77188 0.0076247243 0.0055393862         3980 
 4873000   0.47959214   -9.9360312    446.25299 0.0076313871 0.0055372947         3986 
 4874000   0.47821263   -9.9288416     446.1993 0.0076289033 0.0055352047         3985 
 4875000   0.47469263   -9.9467472    445.91828 0.0076225348 0.0055331168         3982 
 4876000   0.47244982   -9.9478623     446.1707 0.0076252854   0.00553103         3985 
 4877000    0.4709571   -9.9275739    446.26828 0.0076253892 0.0055289435         3975 
 4878000   0.47202507    -9.933219    445.51662  0.007610985 0.0055268576         3987 
 4879000   0.47810791   -9.9356785    446.37686 0.0076241179 0.0055247736         3988 
 4880000   0.48369186   -9.9448638    446.07377   0.00761738 0.0055226891         3985 
 4881000   0.47119854   -9.9318095    446.06817 0.0076157238 0.0055206046         3981 
 4882000   0.45891729   -9.9528719    445.78177 0.0076092751 0.0055185221         3985 
 4883000   0.45382937   -9.9339176     446.4511 0.0076191395   0.00551644         3985 
 4884000   0.47985018   -9.9415609     446.8002 0.0076235361 0.0055143607         3981 
 4885000   0.47564461   -9.9368498    446.31152 0.0076136391 0.0055122819         3987 
 4886000   0.46817632   -9.9312862    446.44314 0.0076143257 0.0055102044         3982 
 4887000   0.47617064   -9.9243036     445.8688  0.007602974 0.0055081284         3979 
 4888000   0.46968303   -9.9416511    446.41957 0.0076108083 0.0055060527         3980 
 4889000   0.46927621   -9.9463704    445.63802 0.0075959301 0.0055039778         3978 
 4890000   0.47621126   -9.9553044    445.80073 0.0075971494 0.0055019048         3989 
 4891000   0.46851723   -9.9321501    445.88727 0.0075970707 0.0054998313         3985 
 4892000   0.47249312    -9.945674    445.64876 0.0075914548 0.0054977603         3985 
 4893000   0.46934715   -9.9435124    446.24402 0.0076000413 0.0054956906         3987 
 4894000   0.47257044    -9.945535     445.7281 0.0075897034 0.0054936204         3987 
 4895000   0.46492309   -9.9343726    445.94141 0.0075917842 0.0054915494         3983 
 4896000   0.47029892   -9.9233623    446.40956  0.007598202 0.0054894824         3983 
 4897000    0.4634456    -9.940876    445.79099  0.007586124 0.0054874161         3987 
 4898000    0.4648019   -9.9365124    446.14429 0.0075905861 0.0054853508         3987 
 4899000   0.46857145   -9.9430255    447.15835 0.0076062862  0.005483287         3988 
 4900000   0.48284696   -9.9398103    445.94605 0.0075841165 0.0054812249         3985 
 4901000   0.46419058   -9.9465018    446.05394 0.0075844035 0.0054791634         3985 
 4902000   0.46557973   -9.9500247    445.93124 0.0075807704 0.0054771026         3985 
 4903000   0.47462584   -9.9539449    445.69527 0.0075752136 0.0054750428         3982 
 4904000   0.45615791   -9.9553093    445.97791 0.0075784718 0.0054729837         3987 
 4905000   0.46814892   -9.9346177    446.50109 0.0075858153 0.0054709253         3983 
 4906000   0.47976973   -9.9503797    446.22287 0.0075795432 0.0054688683         3985 
 4907000   0.46921762   -9.9391346     446.2989 0.0075792897  0.005466812         3984 
 4908000   0.46045788    -9.942522     445.2995 0.0075607765 0.0054647573         3987 
 4909000   0.46902704   -9.9508274    445.78525 0.0075674824 0.0054627034         3982 
 4910000   0.46402142   -9.9403335    445.63024 0.0075633102 0.0054606508         3982 
 4911000   0.45774546   -9.9464909    445.98424 0.0075677771    0.0054586         3980 
 4912000   0.46038543    -9.954553    445.31297 0.0075548482 0.0054565482         3981 
 4913000   0.46015307   -9.9261271    445.71651 0.0075601552 0.0054544994         3983 
 4914000   0.46745916   -9.9465536    446.10543 0.0075652122 0.0054524516         3985 
 4915000   0.46219275   -9.9446097    445.58425 0.0075548364 0.0054504055         3983 
 4916000    0.4630274   -9.9536502    445.86401  0.007558042 0.0054483603         3985 
 4917000   0.45962964    -9.954192    446.01645 0.0075590883 0.0054463161         3977 
 4918000   0.46519954   -9.9500699    445.93218 0.0075561235 0.0054442727         3981 
 4919000   0.47111293   -9.9253643    445.78187 0.0075520409 0.0054422306         3980 
 4920000   0.45483277   -9.9333554    445.76698 0.0075502538  0.005440189         3979 
 4921000   0.47454803   -9.9479778    445.69527 0.0075475051 0.0054381492         3983 
 4922000   0.47033728   -9.9342099     445.8806 0.0075491094 0.0054361106         3980 
 4923000   0.47252632   -9.9425386    445.71925 0.0075448447 0.0054340737         3991 
 4924000   0.45042866    -9.938421    445.42805 0.0075383842 0.0054320365         3981 
 4925000   0.45802125    -9.953725    446.03494 0.0075471225 0.0054300001         3985 
 4926000   0.46117737   -9.9413981    445.88086 0.0075429839 0.0054279635         3980 
 4927000    0.4628265   -9.9489511    445.37723 0.0075329347 0.0054259288         3983 
 4928000   0.45717813   -9.9372742    446.29987 0.0075470081 0.0054238958         3982 
 4929000   0.46917882   -9.9376561     446.3637 0.0075465561 0.0054218637         3982 
 4930000   0.45318493   -9.9474633     444.9379 0.0075209245 0.0054198322         3979 
 4931000   0.45055711   -9.9361906    445.75365 0.0075331855 0.0054178002         3981 
 4932000   0.46975955   -9.9495618    446.13393 0.0075380835 0.0054157702         3986 
 4933000   0.46319084   -9.9598986    445.47424 0.0075254112 0.0054137416         3982 
 4934000   0.46013435   -9.9439385     446.1926 0.0075360188  0.005411714         3982 
 4935000   0.46487691   -9.9496148    445.69124 0.0075260256 0.0054096872         3984 
 4936000   0.45824265   -9.9409947    445.44918 0.0075204142 0.0054076629         3979 
 4937000   0.45320989    -9.956153    445.80898 0.0075249643 0.0054056386         3980 
 4938000   0.45762913   -9.9527743    445.40528 0.0075166275  0.005403616         3981 
 4939000    0.4639306   -9.9544136    445.18223 0.0075113423 0.0054015946         3981 
 4940000   0.45071528   -9.9578794    446.16623 0.0075264209 0.0053995729         3982 
 4941000     0.466732   -9.9483184    445.76812 0.0075181832 0.0053975533         3984 
 4942000   0.45799612   -9.9398404    445.74808 0.0075163241 0.0053955345         3980 
 4943000   0.45062297   -9.9380518    446.38311 0.0075255094  0.005393515         3981 
 4944000   0.46665523   -9.9341829    446.04643 0.0075183122 0.0053914982         3980 
 4945000   0.46321715    -9.941208    445.83794 0.0075132784 0.0053894828         3983 
 4946000   0.45877921   -9.9406356    445.72798 0.0075099066 0.0053874682         3980 
 4947000   0.46076858   -9.9440057    445.98396 0.0075127007 0.0053854534         3982 
 4948000   0.46282675   -9.9588038     445.4309 0.0075018677 0.0053834418         3979 
 4949000   0.46188537   -9.9527616     445.4428 0.0075005523 0.0053814296         3984 
 4950000    0.4685667   -9.9574188    445.61137  0.007501875 0.0053794175         3980 
 4951000   0.44800422   -9.9584974    445.43605 0.0074974088 0.0053774083         3981 
 4952000   0.45684165   -9.9525996    445.30355 0.0074936651 0.0053753995         3981 
 4953000    0.4589132   -9.9434155    446.08137 0.0075052387 0.0053733908         3978 
 4954000   0.46008365   -9.9596415    445.38167 0.0074919538 0.0053713835         3985 
 4955000   0.45747896   -9.9468851    445.62116 0.0074944695 0.0053693797         3984 
 4956000   0.46930056   -9.9649517    446.27773 0.0075039974  0.005367374         3985 
 4957000   0.46087217   -9.9415956     445.5196 0.0074897384 0.0053653697         3984 
 4958000   0.44796103   -9.9591045    445.50214 0.0074879343 0.0053633665         3980 
 4959000   0.45778311   -9.9574202    445.51625 0.0074866615 0.0053613632         3985 
 4960000   0.46598463   -9.9585667    445.89587 0.0074915301 0.0053593624         3988 
 4961000   0.45494023   -9.9683956    445.07389 0.0074762127 0.0053573639         3984 
 4962000   0.47171523   -9.9542179    446.16555 0.0074930396 0.0053553656         3983 
 4963000   0.45833181    -9.953186    445.33534 0.0074775898 0.0053533674         3982 
 4964000   0.46294709   -9.9648686    445.48641 0.0074786196 0.0053513713         3984 
 4965000   0.46400237   -9.9471606    446.19953 0.0074890824 0.0053493755         3982 
 4966000    0.4656697   -9.9582076    445.38505 0.0074739068 0.0053473806         3980 
 4967000   0.45519704   -9.9417746    445.78743 0.0074791529 0.0053453881         3981 
 4968000    0.4531457   -9.9537604    446.07666 0.0074824989 0.0053433946         3981 
 4969000   0.46142895   -9.9431907    445.27887 0.0074676138 0.0053414028         3983 
 4970000   0.45810879   -9.9623966    446.31298 0.0074834504 0.0053394125         3983 
 4971000   0.45618499   -9.9554216    445.41656 0.0074669174 0.0053374227         3985 
 4972000   0.45625578   -9.9501051    446.07726 0.0074764893 0.0053354333         3981 
 4973000   0.46300717   -9.9557938     445.4765 0.0074649189 0.0053334454         3988 
 4974000   0.46433452   -9.9608361    445.48631 0.0074635825 0.0053314581         3983 
 4975000   0.45721208   -9.9681611    445.09245  0.007455485 0.0053294722         3981 
 4976000    0.4532013   -9.9652538    445.56665  0.007461928 0.0053274876         3985 
 4977000   0.45116783   -9.9510036    445.72799 0.0074631302 0.0053255034         3987 
 4978000   0.46502227   -9.9552682    445.83754  0.007463465 0.0053235205         3983 
 4979000   0.45288744   -9.9498028    446.12447 0.0074667683 0.0053215396         3988 
 4980000   0.45729709   -9.9546928    445.36863  0.007452621 0.0053195588         3982 
 4981000   0.46275944   -9.9492746    445.88706 0.0074597982 0.0053175802         3983 
 4982000   0.46940279   -9.9623642    445.75375 0.0074560711 0.0053156007         3984 
 4983000   0.45924297   -9.9684167    445.49193 0.0074501961 0.0053136224         3983 
 4984000   0.44573071   -9.9765333    445.40383 0.0074472284 0.0053116453         3984 
 4985000   0.44645937   -9.9457328    445.53551 0.0074479357 0.0053096682         3983 
 4986000   0.45365361   -9.9495948    445.90579 0.0074526305 0.0053076941         3990 
 4987000   0.44586432   -9.9475316    445.47986 0.0074440188 0.0053057204         3983 
 4988000   0.45771221   -9.9689106    445.70139 0.0074462274 0.0053037469         3984 
 4989000   0.45191218   -9.9688915    445.54364    0.0074421 0.0053017756         3986 
 4990000   0.45239939   -9.9730562    445.82458 0.0074453002 0.0052998051         3989 
 4991000   0.45596511   -9.9675376    445.19561 0.0074333069  0.005297835         3981 
 4992000    0.4522865   -9.9612101    445.55536 0.0074378232 0.0052958673         3984 
 4993000   0.45403154   -9.9586312    445.49111 0.0074352612    0.0052939         3984 
 4994000   0.45667972   -9.9659963    445.33974 0.0074312465 0.0052919346         3986 
 4995000   0.45222843   -9.9719955    445.15403 0.0074266604 0.0052899688         3980 
 4996000   0.45174374   -9.9609725    445.75217  0.007435151 0.0052880039         3984 
 4997000   0.45109294    -9.966461    445.22459 0.0074248647 0.0052860402         3975 
 4998000   0.45124615   -9.9677326    446.27639 0.0074409162 0.0052840786         3984 
 4999000   0.45067813   -9.9615009    445.64895 0.0074289683 0.0052821167         3988 
 5000000   0.45302311   -9.9629286    445.64004 0.0074273339 0.0052801539         3991 
 5001000   0.44931727   -9.9568986    445.57938  0.007424838 0.0052781923         3984 
 5002000   0.45018839    -9.955274     445.6086 0.0074238405 0.0052762339         3985 
 5003000    0.4394472   -9.9603728    445.17513 0.0074151364 0.0052742763         3984 
 5004000   0.45946292   -9.9631217    446.08025 0.0074287279 0.0052723193         3989 
 5005000   0.44954003   -9.9567916    445.57468 0.0074188258 0.0052703635         3987 
 5006000   0.45620832    -9.977755    444.89751 0.0074060713  0.005268409         3982 
 5007000   0.45318621   -9.9583633    445.77361 0.0074191734 0.0052664539         3989 
 5008000   0.45616538   -9.9815249    445.31331 0.0074100325 0.0052645005         3989 
 5009000   0.45230485    -9.965546    445.14802 0.0074058032 0.0052625496         3985 
 5010000   0.43976536   -9.9601741    445.76239 0.0074145441 0.0052605993         3987 
 5011000   0.45216206   -9.9812891      445.186  0.007403479 0.0052586496         3984 
 5012000   0.44062005   -9.9694883    445.56089  0.007408235 0.0052567015         3982 
Loop time of 13066.4 on 48 procs for 5000000 steps with 4000 atoms

Performance: 66124.025 tau/day, 382.662 timesteps/s
99.4% CPU use with 48 MPI tasks x no OpenMP threads

MPI task timing breakdown:
Section |  min time  |  avg time  |  max time  |%varavg| %total
---------------------------------------------------------------
Pair    | 946.73     | 1043.8     | 1137.1     | 156.9 |  7.99
Neigh   | 90.229     | 94.795     | 98.892     |  19.5 |  0.73
Comm    | 830.98     | 931.44     | 1037.8     | 181.5 |  7.13
Output  | 18.25      | 18.254     | 18.352     |   0.3 |  0.14
Modify  | 10784      | 10850      | 10905      |  25.7 | 83.04
Other   |            | 128.3      |            |       |  0.98

Nlocal:        83.3333 ave          90 max          74 min
Histogram: 1 1 0 10 4 9 7 8 5 3
Nghost:        2407.60 ave        2420 max        2393 min
Histogram: 1 3 4 4 7 13 3 7 1 5
Neighs:        16637.5 ave       19248 max       14357 min
Histogram: 3 7 4 5 8 4 7 5 4 1
FullNghs:      33274.8 ave       36397 max       28729 min
Histogram: 1 0 2 7 6 9 8 6 7 2

Total # of neighbors = 1597188
Ave neighs/atom = 399.29700
Neighbor list builds = 265984
Dangerous builds = 0

#clear
#
#next RN
#
#jump SELF
Total wall time: 3:37:49
