
units lj                  # Use reduced LJ style units
atom_style atomic         # Uncharged point particles
atom_modify map hash      # Needed for indexing of clusters etc
                          # Used to be able to find where atoms are in relation to each other.

lattice fcc 1.0 spacing 1 1 1
Lattice spacing in x,y,z = 1.5874011 1.5874011 1.5874011
region box block 0 10 0 10 0 10 units lattice
create_box 2 box
Created orthogonal box = (0.0000000 0.0000000 0.0000000) to (15.874011 15.874011 15.874011)
  3 by 4 by 4 MPI processor grid
create_atoms 1 box
Created 4000 atoms
  using lattice units in orthogonal box = (0.0000000 0.0000000 0.0000000) to (15.874011 15.874011 15.874011)
  create_atoms CPU = 0.002 seconds
set type 1 type/fraction 2 0.73 78393
Setting atom values ...
  2936 settings made for type/fraction
mass 1 1.0
mass 2 1.0
pair_style lj/cut  3.5
pair_modify tail  yes
pair_coeff 1  1  1.0  1.0   # Intearaction between 1 and 1 set with epsilon = 1 and sigma = 1
pair_coeff 1  2  1.5  0.8
pair_coeff 2  2  0.5  0.88

write_data data.0
System init for write_data ...
Neighbor list info ...
  update every 1 steps, delay 10 steps, check yes
  max neighbors/atom: 2000, page size: 100000
  master list distance cutoff = 3.8
  ghost atom cutoff = 3.8
  binsize = 1.9, bins = 9 9 9
  1 neighbor lists, perpetual/occasional/extra = 1 0 0
  (1) pair lj/cut, perpetual
      attributes: half, newton on
      pair build: half/bin/atomonly/newton
      stencil: half/bin/3d
      bin: standard
WARNING: Not all mixed pair coeffs generated from mixing. Use write_data with 'pair ij' option to store all pair coeffs. (../write_data.cpp:312)


#############################
#   M E L T   S Y S T E M   #
#############################

velocity all create 2.4 1741580 mom yes dist gaussian # Assign velocities
                                                    # Temperature 2.4, random number seed, zero linear momentum
                                                                                # Gaussian distribution

timestep 0.002   # simulation timestep
thermo 1000       # output thermodynamic data every 1000 steps bf 100

# Define a fix  in this case with index 1 applied to all
# particles in the simulation. This fix is for simulations
# in the anisotropic NPT ensemble. Note that we use the MTK
# correction.
fix 1 all npt temp 2.4 2.4 0.1 iso 5.68 5.68 0.5 mtk yes tchain 5 pchain 5 # Use NPT ensemble
                                                                         # Set temperature and pressure and damping
                                                                         # Numbers of thermostats in chain and in barostat
run 10000          # run for 10000 steps
Per MPI rank memory allocation (min/avg/max) = 3.642 | 3.644 | 3.648 Mbytes
Step Temp E_pair E_mol TotEng Press Volume 
       0          2.4   -4.0230884            0  -0.42398835   -3.6147038         4000 
    1000    2.3570992   -3.5433697            0 -0.0086047685    5.6802276    3709.3532 
    2000    2.3677634   -3.5649486            0 -0.014191365      5.69628    3688.6575 
    3000    2.3567163   -3.5832856            0 -0.049094963    5.8186696    3666.4176 
    4000    2.4064503   -3.5623349            0  0.046438187    5.7278497     3683.172 
    5000     2.429016   -3.5588627            0    0.0837504    5.9357974    3681.9878 
    6000    2.3694919   -3.5554062            0 -0.0020569164    5.5355128    3702.4444 
    7000    2.4668872   -3.5939868            0   0.10541883    5.6204069    3684.8025 
    8000    2.4355858    -3.576513            0  0.075952412    5.5303249    3712.1721 
    9000    2.3827844   -3.5647525            0  0.008530616     5.467099     3722.618 
   10000    2.4204945   -3.5723647            0  0.057469299    5.8729218    3672.2894 
Loop time of 2.62301 on 48 procs for 10000 steps with 4000 atoms

Performance: 658784.919 tau/day, 3812.413 timesteps/s
99.6% CPU use with 48 MPI tasks x no OpenMP threads

MPI task timing breakdown:
Section |  min time  |  avg time  |  max time  |%varavg| %total
---------------------------------------------------------------
Pair    | 1.1899     | 1.2478     | 1.3185     |   2.7 | 47.57
Neigh   | 0.21612    | 0.22324    | 0.23512    |   0.8 |  8.51
Comm    | 0.79476    | 0.88611    | 0.95658    |   3.7 | 33.78
Output  | 0.00025618 | 0.00026194 | 0.00033183 |   0.0 |  0.01
Modify  | 0.22498    | 0.25       | 0.29167    |   2.8 |  9.53
Other   |            | 0.01557    |            |       |  0.59

Nlocal:        83.3333 ave          90 max          77 min
Histogram: 3 4 4 6 6 6 12 4 1 2
Nghost:        1734.65 ave        1753 max        1716 min
Histogram: 3 3 6 3 8 11 2 7 3 2
Neighs:        10380.5 ave       11559 max        9335 min
Histogram: 4 1 5 9 8 8 5 4 2 2

Total # of neighbors = 498265
Ave neighs/atom = 124.56625
Neighbor list builds = 907
Dangerous builds = 217

# Equilibrate just above the melting temperature to avoid step fn in T

fix 1 all npt temp 1.25 1.25 0.1 iso 5.68 5.68 0.5 mtk yes tchain 5 pchain 5
run 2000
Per MPI rank memory allocation (min/avg/max) = 3.644 | 3.646 | 3.649 Mbytes
Step Temp E_pair E_mol TotEng Press Volume 
   10000    2.4204945   -3.5723647            0  0.057469299    5.8729218    3672.2894 
   11000    1.2400528   -5.2816029            0   -3.4219887    5.6320823    2820.1454 
   12000     1.254075   -5.3428537            0   -3.4622114    5.6087078    2798.1968 
Loop time of 0.669709 on 48 procs for 2000 steps with 4000 atoms

Performance: 516044.872 tau/day, 2986.371 timesteps/s
99.6% CPU use with 48 MPI tasks x no OpenMP threads

MPI task timing breakdown:
Section |  min time  |  avg time  |  max time  |%varavg| %total
---------------------------------------------------------------
Pair    | 0.3006     | 0.32171    | 0.3913     |   2.5 | 48.04
Neigh   | 0.041922   | 0.043954   | 0.052001   |   0.8 |  6.56
Comm    | 0.1795     | 0.25479    | 0.2806     |   3.2 | 38.04
Output  | 5.0696e-05 | 5.2538e-05 | 6.794e-05  |   0.0 |  0.01
Modify  | 0.038419   | 0.044302   | 0.050019   |   1.8 |  6.62
Other   |            | 0.004901   |            |       |  0.73

Nlocal:        83.3333 ave          91 max          78 min
Histogram: 5 4 5 14 5 3 7 1 2 2
Nghost:        2084.50 ave        2106 max        2069 min
Histogram: 2 7 5 7 14 4 4 2 2 1
Neighs:        13611.8 ave       15427 max       12179 min
Histogram: 1 4 9 7 7 10 5 3 1 1

Total # of neighbors = 653367
Ave neighs/atom = 163.34175
Neighbor list builds = 143
Dangerous builds = 13

#############################
# L I N E A R  Q U E N C H  #
#############################

# Define solid atoms. This closely follows ten Wolde  Ruiz-Montero and Frenkel  Faraday Discuss  1996  104  93-110
# Compute components of the per-atom q6 vector
compute q6 all orientorder/atom degrees 1 6 components 6 nnn NULL cutoff 1.3 # compute the Q6 parameter.
                                                                             # Use all neighbours within 1.3 unit cell.

# get number of connections
compute coord_number all coord/atom orientorder q6 0.5

# An atom is solid if it has 8 or more connections (of a possible 14)
variable is_solid atom c_coord_number>=8
group solid dynamic all var is_solid    # Must be dynamic to update
dynamic group solid defined

# do clustering
compute cluster solid cluster/atom 1.3 # Create a cluster where all atoms within are solid and max 1.3 units from another member

# define chunks one chunk per cluster
compute clus_chunks solid chunk/atom c_cluster nchunk every compress yes  # Says which atoms are in which chunk

# count the size of each chunk
compute size_chunks solid property/chunk clus_chunks count


# Find the maximum entry in the vector of chunk sizes
variable max_n equal max(c_size_chunks)


# Thermo style which includes this variable
# thermo_style custom step temp pe vol v_max_n

thermo ${N}  # Print the thermo information every 100 steps
thermo 1000  

# Reset the npt fix at a lower temperature (below freezing)
fix 1  all npt temp  ${temp} ${temp}  0.1  iso  5.68  5.68  0.5  mtk yes tchain  5  pchain  5
fix 1  all npt temp  0.45 ${temp}  0.1  iso  5.68  5.68  0.5  mtk yes tchain  5  pchain  5
fix 1  all npt temp  0.45 0.45  0.1  iso  5.68  5.68  0.5  mtk yes tchain  5  pchain  5

dump dmp2 all dcd ${N} traj.dcd
dump dmp2 all dcd 1000 traj.dcd


compute msd all msd com yes
variable twopoint equal c_msd[4]/6/(step*dt+1.0e-6)
fix 9 all vector 10 c_msd[4]
variable fit equal slope(f_9)/6/(10*dt)
thermo_style custom step temp pe c_msd[4] v_twopoint v_fit v_max_n

fix 1 all npt temp 1.25 ${temp} 0.1 iso 5.68 5.68 0.5 mtk yes tchain 5 pchain 5
fix 1 all npt temp 1.25 0.45 0.1 iso 5.68 5.68 0.5 mtk yes tchain 5 pchain 5
run 500000 # 5000000  # Run for this many steps
Neighbor list info ...
  update every 1 steps, delay 10 steps, check yes
  max neighbors/atom: 2000, page size: 100000
  master list distance cutoff = 3.8
  ghost atom cutoff = 3.8
  binsize = 1.9, bins = 8 8 8
  4 neighbor lists, perpetual/occasional/extra = 1 3 0
  (1) pair lj/cut, perpetual
      attributes: half, newton on
      pair build: half/bin/atomonly/newton
      stencil: half/bin/3d
      bin: standard
  (2) compute orientorder/atom, occasional
      attributes: full, newton on
      pair build: full/bin/atomonly
      stencil: full/bin/3d
      bin: standard
  (3) compute coord/atom, occasional
      attributes: full, newton on
      pair build: full/bin/atomonly
      stencil: full/bin/3d
      bin: standard
  (4) compute cluster/atom, occasional
      attributes: full, newton on
      pair build: full/bin/atomonly
      stencil: full/bin/3d
      bin: standard
Per MPI rank memory allocation (min/avg/max) = 9.843 | 9.848 | 9.854 Mbytes
Step Temp PotEng c_msd[4] v_twopoint v_fit v_max_n 
   12000     1.254075   -5.3428537 2.8176139e-30 1.9566763e-32 8.3333333e+20            6 
   13000    1.2691386    -5.255576   0.66120808 0.0042385131  0.055238299            2 
   14000    1.2566471   -5.3226851     1.306013 0.0077738864  0.054211726            1 
   15000    1.2649025    -5.285776    1.9102808   0.01061267  0.052768085            1 
   16000    1.2827352   -5.2866621    2.5008985  0.013025513  0.051924184            2 
   17000    1.2477089   -5.3362771    3.1189672  0.015289054  0.051450305            3 
   18000    1.2484181   -5.3010585    3.7509141  0.017365343  0.051516596            2 
   19000    1.2421718   -5.2918437    4.3610865  0.019127572  0.051490382            2 
   20000    1.2297437   -5.3009238    4.9724885  0.020718702   0.05135941            2 
   21000    1.2321618   -5.3553036    5.5839703  0.022158612  0.051411492            1 
   22000    1.2607326   -5.2784639    6.3063764  0.023887789  0.051617903            2 
   23000    1.2497627   -5.2812459    6.8851836  0.024946317  0.051772424            3 
   24000    1.2249787   -5.3592203    7.4156142   0.02574866  0.051648392            2 
   25000    1.2454748   -5.3578767    8.0668655  0.026889551  0.051511952            1 
   26000    1.2220271   -5.3104316    8.6438705  0.027704713  0.051440931            3 
   27000    1.2408959    -5.358768    9.2316826  0.028492847  0.051294976            1 
   28000    1.2197526   -5.3557282    9.7390488  0.028985264  0.051050103            4 
   29000    1.2160407   -5.3449593    10.418271  0.029937559  0.050909404            2 
   30000    1.2177423   -5.3581626    11.026815   0.03063004  0.050822332            3 
   31000    1.2253981   -5.3349646    11.628914   0.03126052  0.050785342            2 
   32000    1.2307139   -5.3885392    12.267825  0.031947461  0.050807357            2 
   33000    1.2259353   -5.3421987     12.89887  0.032572903  0.050842766            2 
   34000    1.2270468   -5.3546815      13.5888  0.033305883  0.050841534            3 
   35000    1.2241508   -5.4220131    14.062585  0.033482345  0.050859687            1 
   36000     1.215772    -5.392192    14.690987  0.034006914  0.050842615            3 
   37000    1.2123688   -5.3804918    15.297436  0.034453684  0.050807999            3 
   38000    1.1959523   -5.4178816    15.816007  0.034684224  0.050731792            1 
   39000    1.2154544   -5.3829601      16.5495  0.035362179  0.050760359            2 
   40000    1.1990317   -5.3723004    17.036832  0.035493399  0.050721208            5 
   41000    1.2034959   -5.3897449    17.613806  0.035800418  0.050667943            3 
   42000     1.179598   -5.3923691    18.196078  0.036103329  0.050593022            3 
   43000    1.1962453   -5.4040922    18.630436  0.036105495  0.050482919            5 
   44000     1.184481   -5.4131686    19.256701  0.036471025  0.050317407            2 
   45000    1.1772896     -5.39201    19.831132  0.036724318  0.050205198            5 
   46000    1.2125434   -5.4161516    20.539587  0.037209397  0.050132873            2 
   47000    1.1622254   -5.4188221    20.940227  0.037128062  0.050094895            4 
   48000    1.2050461   -5.4305992    21.471955  0.037277699  0.049991152            2 
   49000    1.1889717   -5.4500727    21.969948  0.037363856  0.049885121            1 
   50000    1.1777538   -5.4795086    22.521772  0.037536285  0.049769293            1 
   51000    1.1697689   -5.4327732     22.99366   0.03757134   0.04963449            4 
   52000     1.211555   -5.4452255    23.499495  0.037659446  0.049480867            5 
   53000    1.2117823   -5.4251008    24.016007  0.037761017  0.049298975            4 
   54000     1.195711   -5.4621294    24.346916  0.037572401  0.049094407            2 
   55000    1.1747252    -5.437624    25.076563  0.037994792  0.048915712            1 
   56000    1.1652271   -5.4758983     25.46448   0.03789357  0.048753969            4 
   57000    1.1485646   -5.4467009     26.07254  0.038117748  0.048595862            2 
   58000    1.1740086   -5.4080889     26.76406   0.03845411  0.048466891            3 
   59000    1.1803204   -5.4353786    27.145065  0.038340487   0.04833614            4 
   60000    1.1686567   -5.4747763    27.582204  0.038308616  0.048206231            3 
   61000    1.1617176   -5.4344049    28.211058  0.038539697  0.048078915            2 
   62000    1.1548442   -5.4618044    28.654553  0.038514184  0.047954797            2 
   63000    1.2000937   -5.4598195    29.183798  0.038602908  0.047842901            2 
   64000    1.1527795    -5.470584    29.637789  0.038590871  0.047721775            1 
   65000    1.1652775   -5.4693722    30.256885  0.038790878  0.047590901            3 
   66000    1.1905829   -5.4970221    30.757091  0.038834711  0.047486739            4 
   67000    1.1415091   -5.4980638    31.332757   0.03897109   0.04739231            2 
   68000     1.164704   -5.4652225    31.944275  0.039147396  0.047301745            3 
   69000    1.1617483   -5.4830937    32.379151  0.039105255  0.047207948            2 
   70000    1.1343672   -5.4982339    32.809447  0.039058865  0.047108608            3 
   71000    1.1269567   -5.4743041    33.661663  0.039508993  0.047029295            3 
   72000    1.1612841   -5.4339808    34.167673  0.039545918  0.046964479            4 
   73000    1.1294443   -5.4807449    34.692416  0.039603214  0.046905813            3 
   74000    1.1383223   -5.5277182    35.140284  0.039572391  0.046850385            2 
   75000    1.1399198   -5.5152447     35.63744  0.039597155    0.0467899            1 
   76000    1.1503049   -5.4929384    36.312806  0.039816673  0.046735766            2 
   77000    1.1225222   -5.5421319    36.478404  0.039478792  0.046668497            2 
   78000    1.1347999   -5.5132215    36.911789  0.039435671  0.046587496            2 
   79000    1.1447913   -5.5350567    37.580629  0.039642013  0.046508926            5 
   80000     1.134293    -5.528963    38.060865  0.039646734  0.046431914            3 
   81000    1.1383017    -5.506717    38.622355  0.039734933  0.046364059            2 
   82000    1.1247285   -5.5300597     38.86957  0.039501596  0.046280224            2 
   83000    1.1412801   -5.4847316    39.196256  0.039353671   0.04617905            4 
   84000    1.1417818   -5.4798971      39.6832  0.039368254  0.046065911            2 
   85000    1.1662555   -5.5505833    40.177144  0.039389357  0.045958359            3 
   86000    1.1119398   -5.5285691    40.769752  0.039505573  0.045862403            2 
   87000    1.1372979   -5.5378904    41.029351  0.039300144  0.045767089            1 
   88000    1.1396779   -5.5353585    41.731339  0.039518314  0.045657434            8 
   89000     1.125575   -5.5797819     41.93154  0.039261741  0.045556056            4 
   90000    1.1193943   -5.5534876    42.440792   0.03929703  0.045447014            2 
   91000    1.1464932   -5.5408554    42.892576  0.039278916  0.045341178            2 
   92000    1.1302616   -5.5751518     43.40373  0.039314973  0.045237523            6 
   93000    1.1076335   -5.5797914    43.892582   0.03933027  0.045141713            2 
   94000    1.1451695    -5.577867    44.386635  0.039349854  0.045046655            1 
   95000     1.127795   -5.5804964    44.768311  0.039270448  0.044955688            4 
   96000    1.1259663   -5.5848056    45.317789  0.039338359  0.044870808            4 
   97000    1.1182021   -5.5899659    45.981089  0.039502653  0.044780706            4 
   98000    1.1521264   -5.6187733    46.546014  0.039579943  0.044709823            3 
   99000    1.1266011   -5.6087334    47.115488  0.039659502  0.044645858            5 
  100000    1.1104442   -5.5994758    47.569596   0.03964133  0.044582276            5 
  101000     1.082519   -5.6240076    47.960251  0.039571164   0.04451526            2 
  102000    1.1150446   -5.6095409    48.570135  0.039681483   0.04445371            2 
  103000    1.0933143   -5.5913371    49.241902  0.039839726  0.044399993            1 
  104000    1.1284376   -5.5827286    49.493163  0.039657983  0.044346612            2 
  105000    1.0956786   -5.6073916    49.781641  0.039509239  0.044285104            3 
  106000    1.1060906   -5.6375123    50.104739  0.039390518  0.044211996            4 
  107000    1.0970588   -5.6260238    50.633429  0.039434135  0.044143736            3 
  108000    1.1001653   -5.6304938    51.140164  0.039460003  0.044068896            3 
  109000    1.1039702   -5.6488798    51.439227  0.039326626  0.043991489            3 
  110000    1.0608061   -5.6439583    51.501337  0.039016164  0.043904766            3 
  111000    1.1258118    -5.639748     51.89163   0.03895768  0.043808983            5 
  112000    1.1144664    -5.600109    52.310599  0.038921576  0.043717718            4 
  113000     1.094761   -5.6147746    52.703613  0.038866971  0.043625253            5 
  114000    1.0736267   -5.6152215     53.40905  0.039041703   0.04352996            2 
  115000    1.0531542   -5.6421133    53.549204  0.038803771  0.043439315            4 
  116000    1.0886195   -5.6369974    54.225962  0.038955432  0.043344586            3 
  117000    1.0728361   -5.6478697     54.47288  0.038798348  0.043256248            1 
  118000    1.0982048   -5.6381659    55.017758  0.038854349  0.043171016            3 
  119000     1.083908   -5.6524186    55.403584  0.038798028  0.043089437            6 
  120000    1.0855367   -5.6652603    55.862977  0.038793734   0.04300289            2 
  121000    1.0727243   -5.6684259    56.198929  0.038704497  0.042917076            2 
  122000    1.0866094   -5.6617284    56.618615  0.038673918  0.042835003            7 
  123000    1.0699268   -5.6587043    56.941727  0.038578406  0.042753051            2 
  124000    1.0768507   -5.6080686    57.675671  0.038760532  0.042671872            2 
  125000    1.0892507   -5.6474685    58.081222  0.038720815   0.04259053            8 
  126000    1.0636351   -5.6866527    58.327575  0.038576438  0.042511092            2 
  127000    1.0486147    -5.684242    58.775878  0.038566849  0.042432567            6 
  128000    1.0634824   -5.6997264    58.960189   0.03838554  0.042352238            3 
  129000    1.0386865   -5.6310526    59.831963  0.038651138  0.042274123            5 
  130000    1.0377899   -5.6992739    59.720015   0.03828206  0.042197409            3 
  131000    1.0591453   -5.6979551    60.377044  0.038407789  0.042117826            3 
  132000    1.0745988   -5.6985723    60.801864  0.038385015  0.042039504            1 
  133000    1.0678689    -5.707744    61.486958  0.038525663  0.041968486            3 
  134000    1.0212056   -5.6978562    61.595737  0.038305806  0.041898368            3 
  135000    1.0509509   -5.6925785    62.048386  0.038301473  0.041819389            4 
  136000    1.0571399   -5.7464142     62.07537  0.038036379  0.041734922            3 
  137000    1.0402382   -5.7153874     62.54931  0.038047026   0.04165716            3 
  138000    1.0322497   -5.6866037    63.342204  0.038250123  0.041582476            3 
  139000    1.0490022   -5.7286334    63.577734  0.038116147  0.041506925            2 
  140000    1.0268541   -5.6927836    64.297755  0.038272473  0.041435608            4 
  141000    1.0371733   -5.7340514    64.474783  0.038105663  0.041363515            2 
  142000    1.0249978   -5.7071409    65.096281  0.038202043  0.041293292            3 
  143000    1.0234544    -5.767703    65.075062   0.03792253  0.041219434            2 
  144000    1.0397883   -5.7597497    65.712359  0.038027986  0.041147061            5 
  145000     1.057086   -5.7529574    65.835348  0.037836407  0.041074582            6 
  146000    1.0327119   -5.7577848    66.416907  0.037909193  0.041001793            7 
  147000    1.0278405    -5.751872    66.518459  0.037708877  0.040929071            3 
  148000    1.0368233   -5.7435305    67.287949  0.037887359  0.040857688            3 
  149000    1.0421539   -5.7366742    67.503181  0.037753457  0.040785825            4 
  150000    1.0268483   -5.7968895    67.619342  0.037566301  0.040708797            4 
  151000    1.0440638   -5.7754867    68.227241  0.037653002  0.040636893            3 
  152000     1.022543   -5.7764739    68.660965  0.037643073  0.040568239            2 
  153000    1.0153195   -5.7739372    69.258728  0.037722619  0.040502707            3 
  154000     1.034482     -5.76528    69.571379   0.03764685  0.040434976            2 
  155000    1.0104009   -5.7566259    70.343943  0.037819324  0.040369396            4 
  156000    1.0333304   -5.8151142    70.184691  0.037491822  0.040306824            3 
  157000     1.020317   -5.7540311     70.72846  0.037541645  0.040242728            5 
  158000    1.0106908     -5.79515    71.076647  0.037487683  0.040178283            2 
  159000    1.0095856   -5.8104412    71.092792  0.037260373  0.040108999            6 
  160000    1.0131233    -5.767536    71.733895  0.037361404  0.040038236            2 
  161000    1.0071995   -5.8089812     72.05242  0.037294213  0.039968255            5 
  162000    1.0197506   -5.8005029    72.442965    0.0372649  0.039897933            4 
  163000    1.0300046    -5.863994    72.636683  0.037135319  0.039828181            5 
  164000    1.0225542   -5.8349337    72.839371  0.037011876  0.039754146            2 
  165000    1.0008251   -5.7810932    73.592878   0.03716812  0.039682244            3 
  166000   0.99329599   -5.8184093    74.129937  0.037213824  0.039614598           10 
  167000   0.98306462   -5.8028734    74.387264  0.037119393  0.039547959            2 
  168000    0.9974395    -5.827813    74.401711   0.03690561   0.03947922            3 
  169000   0.99065426   -5.8224652    74.622587  0.036796147  0.039409114            2 
  170000    1.0046586   -5.8874065    74.773546  0.036653699  0.039335958            4 
  171000   0.98963111   -5.8223069    75.277951  0.036685161  0.039262195            7 
  172000    0.9943376   -5.8487326    75.599084  0.036627463  0.039185222            8 
  173000    1.0006818    -5.858869    75.707233  0.036467839  0.039108407            5 
  174000   0.99340344   -5.8582003    76.148978  0.036469817  0.039032909            6 
  175000     0.995298   -5.8510564    76.376968  0.036369985  0.038956971            2 
  176000   0.98953079   -5.8321314    76.781698  0.036354971   0.03888155            3 
  177000   0.99479365   -5.8706777    77.048648  0.036275258  0.038804603            2 
  178000    1.0034704   -5.8739355    77.350137  0.036212611  0.038729723            5 
  179000   0.99601566   -5.8850533    77.738036  0.036190892   0.03865391            3 
  180000   0.98708697   -5.8711368    77.928846  0.036078169  0.038579167            3 
  181000   0.99785047   -5.8338046    78.422016    0.0361059  0.038502977            5 
  182000   0.99125011   -5.8854043    78.438656  0.035915135  0.038428165            4 
  183000   0.97160502   -5.8646032    78.799169  0.035883046  0.038348537            2 
  184000   0.98628279   -5.8762311     79.10218  0.035825262  0.038270103            9 
  185000   0.97251596   -5.8865082    79.506098  0.035813558  0.038190948            7 
  186000   0.96305061   -5.8913753    79.498935  0.035617802  0.038107906           10 
  187000   0.95914083    -5.880984    79.481595  0.035419605  0.038025475            6 
  188000   0.96597186   -5.9113161    79.972399  0.035448758  0.037941877            7 
  189000   0.98608394   -5.9069577    80.230756  0.035375113  0.037858602            6 
  190000   0.96254481   -5.8555193    80.756303  0.035419431  0.037776769            2 
  191000   0.95687963   -5.9382467    80.914797   0.03530314  0.037696603            9 
  192000   0.94163767    -5.921566     81.32231  0.035296142  0.037617036            7 
  193000   0.95943891   -5.8951997    81.767498  0.035305483  0.037538368            5 
  194000   0.93176804   -5.9298523    81.963958  0.035207886  0.037461063            6 
  195000   0.94681563   -5.9121949    82.171595  0.035116066   0.03738557            4 
  196000   0.94068292   -5.9617223     82.59011  0.035114843  0.037307625            4 
  197000   0.96200063   -5.9385257    83.149619  0.035173273  0.037231616            3 
  198000   0.97019917   -5.9249061     83.39449  0.035098691    0.0371577            2 
  199000   0.96945288   -5.9830802    83.391315  0.034920986  0.037081755            6 
  200000   0.97326218   -5.9452157    83.688392  0.034870163  0.037004528            6 
  201000   0.94638747   -5.9375661    83.992011  0.034822558   0.03692869            3 
  202000   0.93082693   -5.9813422    83.955759  0.034635214  0.036850717            4 
  203000   0.92827094   -5.9730896    83.857642  0.034424319  0.036770836            7 
  204000   0.94861121   -5.9464746    84.500454  0.034518159   0.03669135            6 
  205000   0.94964694   -5.9789501    84.852914  0.034493054  0.036615634            3 
  206000   0.94157509   -5.9841645    85.176645  0.034456571  0.036539677            5 
  207000    0.9108042   -5.9762329    85.765876  0.034527325   0.03646372            2 
  208000   0.95794375   -5.9766888    86.064345  0.034480907  0.036389425            8 
  209000   0.94585905   -5.9739481     86.07025  0.034318281  0.036313807            6 
  210000   0.91958563   -5.9874778    86.127325   0.03417751  0.036236284            5 
  211000   0.91151606   -5.9982512    86.306205  0.034086179  0.036156383           15 
  212000     0.923495   -5.9729429    86.451711  0.033982591  0.036075353            2 
  213000   0.90533965   -6.0012059     86.79377  0.033956874  0.035996519            2 
  214000   0.91026658   -5.9936857    86.967649  0.033865907  0.035915797            2 
  215000   0.90039541   -6.0137464    87.241054  0.033814362  0.035833377            6 
  216000   0.91754403   -6.0097835    87.669517  0.033823116  0.035753014            3 
  217000     0.913164   -6.0306475    87.532839  0.033614762  0.035674302            5 
  218000   0.91956632   -5.9893096    88.093418  0.033674854  0.035596408            5 
  219000   0.93361143   -5.9986327    88.233556  0.033574412  0.035518294            5 
  220000   0.92523464   -6.0292831    88.103294   0.03337246  0.035437761            7 
  221000   0.92689149   -6.0303193    88.484794  0.033365307  0.035355288            3 
  222000   0.92040978   -6.0263697    88.670548   0.03328474  0.035273689            5 
  223000   0.89984918   -5.9973123     89.20091  0.033333673  0.035192369            6 
  224000   0.93058555   -6.0284992    89.232383  0.033196571  0.035113456            5 
  225000   0.89517385    -6.031066    89.768802  0.033247704  0.035034095            5 
  226000   0.90274146   -6.0365867    89.962685  0.033172081  0.034955002            4 
  227000   0.90918789   -6.0277307    90.060804  0.033061969  0.034877121            3 
  228000    0.9046708   -6.0761904    90.004785  0.032896486  0.034799053            3 
  229000   0.90434828   -6.1026172    90.259552  0.032845543  0.034718716            5 
  230000   0.89384501   -6.0779825    90.606572  0.032828468  0.034637307            4 
  231000   0.89574933   -6.0864145    90.577817   0.03267598  0.034555415            5 
  232000    0.8972897   -6.0837999    90.627385   0.03255294  0.034473353            5 
  233000   0.90262383   -6.0941226    90.890943   0.03250749  0.034391447            4 
  234000   0.90625206   -6.0689619     91.01762  0.032413682  0.034309824            5 
  235000   0.88651693   -6.1120485    91.343599  0.032391347   0.03422836            5 
  236000   0.89603365   -6.0716746    91.737534  0.032393197  0.034147606            7 
  237000   0.89270105   -6.1031348    91.423228  0.032146001  0.034065338            7 
  238000   0.89133052   -6.0982316    91.966171   0.03220104  0.033983608            4 
  239000   0.87823217   -6.0908957    92.137626   0.03212609  0.033903276            5 
  240000    0.8995202   -6.0962844    92.356476  0.032068221  0.033822319            3 
  241000   0.88377216   -6.0832534    92.911059  0.032126922  0.033742689            9 
  242000   0.87509637   -6.0990259    93.037017   0.03203754   0.03366251            3 
  243000   0.88934533   -6.0831837    92.862851  0.031845971  0.033581044            4 
  244000   0.86760733   -6.1011944    93.374481  0.031890191  0.033500238            3 
  245000   0.86560364    -6.097061    93.452198  0.031786462   0.03341889            6 
  246000   0.85828968   -6.1058497    93.147984  0.031554195  0.033337706            6 
  247000   0.88061039   -6.1156939    93.342159  0.031491956  0.033256221           12 
  248000   0.86201277   -6.1343232    93.624242  0.031459759  0.033174373            9 
  249000   0.87582085    -6.162516    93.777484    0.0313847  0.033091598            3 
  250000   0.84798975    -6.148382    93.983595  0.031327865   0.03301021            5 
  251000   0.86919546   -6.1498448    94.182093  0.031268955  0.032929322            5 
  252000    0.8676653   -6.1460016    94.520253  0.031256697  0.032847472            4 
  253000   0.85369942   -6.1590289    94.343914   0.03107507  0.032764829            7 
  254000   0.84945359   -6.1746596    94.593695  0.031034677  0.032681722            5 
  255000   0.86054613   -6.1864659    94.636215  0.030926867  0.032598564           10 
  256000   0.86995457   -6.1805928    94.887465  0.030887847  0.032515387            4 
  257000   0.85971966   -6.1597132    94.972998  0.030795395  0.032432276            5 
  258000   0.86853577   -6.1578529    95.407963  0.030816526   0.03234995            8 
  259000   0.84551516   -6.1802167    95.467457  0.030716685  0.032267939            5 
  260000   0.85590184   -6.1775044    95.393974  0.030574991  0.032186984           16 
  261000   0.86192434   -6.1715215    95.888608  0.030615775  0.032105219           11 
  262000   0.85636204   -6.1578122    96.023923   0.03054196  0.032023876            4 
  263000   0.86445877   -6.1922222    96.049053  0.030433794  0.031944549            5 
  264000   0.87209211   -6.2089242    96.265393  0.030386803  0.031864483            7 
  265000   0.83404887   -6.2562334     96.28824  0.030279321  0.031782558            7 
  266000   0.82527422   -6.2238811    96.412475  0.030204409  0.031701101            9 
  267000   0.84515314   -6.1889081     96.89238  0.030241067  0.031621039            8 
  268000   0.81699151   -6.1894258    96.796125  0.030098298  0.031541072            5 
  269000    0.8288338   -6.1949735    96.948429   0.03003359  0.031460184            7 
  270000   0.83613882   -6.2087213    97.095542   0.02996776  0.031380444            4 
  271000   0.82633496   -6.1871937    97.226715  0.029897514  0.031299814            6 
  272000   0.83108234   -6.2351725     97.49953  0.029871179  0.031220814            9 
  273000   0.82936609   -6.1688027    97.785475  0.029849046  0.031142151            7 
  274000   0.84139159   -6.2086654    97.677917  0.029707396  0.031064033            7 
  275000   0.82592635   -6.2090204    98.069773  0.029718113  0.030985435            5 
  276000   0.82448141   -6.2353074    97.886465  0.029555092  0.030906195           11 
  277000   0.83282012   -6.2414608    98.267507  0.029563029  0.030826665            7 
  278000   0.82530555   -6.2380966    98.364227  0.029485679  0.030748042            5 
  279000   0.81890677    -6.271735     98.42893  0.029399322  0.030669376            6 
  280000   0.82936677   -6.2644395    98.641919  0.029357714  0.030591341            7 
  281000   0.81611513   -6.2587406    99.129061  0.029397705  0.030513915            7 
  282000    0.8189426   -6.2408184    99.113797  0.029288947  0.030437167            3 
  283000   0.81597293   -6.2729819     99.08966  0.029178345   0.03036007            3 
  284000    0.8082981   -6.2462206    99.567261  0.029215745  0.030283675            4 
  285000   0.80718799   -6.2749521    99.638238  0.029133988  0.030207135           10 
  286000   0.82012837   -6.3002667    99.410747  0.028965835  0.030130368           19 
  287000   0.81122419   -6.2903853    99.750079  0.028963437  0.030053141            4 
  288000   0.79513475   -6.3041764    99.734016  0.028858222  0.029976478            3 
  289000   0.80143019   -6.2705259    100.13274   0.02887334  0.029900871            4 
  290000   0.78688602   -6.2850119    100.09916  0.028764127  0.029824911           15 
  291000    0.7902382   -6.3141476    99.907858  0.028610498  0.029748524            6 
  292000   0.81145807   -6.3011169    100.12313  0.028573953  0.029671224           18 
  293000   0.80185671   -6.2778131    100.44326  0.028567481  0.029594348            5 
  294000   0.81458157   -6.3001149    100.63097  0.028523517  0.029518615            9 
  295000   0.79612141   -6.3295595    100.54471  0.028402461  0.029442838            8 
  296000   0.77929603   -6.3437686    100.79228  0.028376204  0.029367453           11 
  297000   0.77361327   -6.3144936    100.92028  0.028316576  0.029292427            6 
  298000   0.79352368   -6.3361946    101.25739  0.028315825  0.029217581           10 
  299000   0.78312947   -6.3347925    101.06986  0.028168859  0.029143033           10 
  300000   0.78144613   -6.3297016    101.14244  0.028095122   0.02906806            6 
  301000   0.77972371    -6.318186    101.36893  0.028064487  0.028993405            5 
  302000   0.78429085   -6.3174843    101.58033  0.028029892  0.028918759           13 
  303000   0.78169224   -6.3854517    101.12191  0.027811306  0.028843141            5 
  304000   0.80424749    -6.348613    101.41773  0.027800913  0.028766941            5 
  305000   0.77302906   -6.3549621    101.69374  0.027785175  0.028691083            7 
  306000   0.79221928    -6.356317    101.33049  0.027595448  0.028615395            6 
  307000   0.78958477   -6.3650864    102.18437  0.027737343  0.028540522           10 
  308000   0.77480635   -6.3686179    101.95881  0.027586258  0.028465801            5 
  309000   0.77039228   -6.3810582    101.72657   0.02743435  0.028390212           16 
  310000    0.7746402   -6.3826222    101.85528  0.027380453  0.028314209            7 
  311000    0.7795865    -6.410442    102.16598  0.027375664  0.028238519           15 
  312000   0.76523835   -6.4299644    101.63461  0.027145995  0.028163191           11 
  313000   0.76621109   -6.3990988    102.45263  0.027277058   0.02808761           11 
  314000   0.77614224   -6.4047754    102.56053  0.027218824    0.0280133            5 
  315000   0.76622116   -6.3981308     102.7155  0.027173412   0.02793975            4 
  316000   0.76931178    -6.405304    102.41488  0.027008145  0.027865788            7 
  317000   0.77446914   -6.4357053    102.76203  0.027014203  0.027791391            8 
  318000   0.76823633   -6.4157157    102.73781  0.026922905   0.02771713           11 
  319000   0.73753038   -6.4640642     102.5227  0.026782313  0.027642258           11 
  320000   0.74580327    -6.429412    102.58085  0.026713763  0.027567224            6 
  321000   0.76746155   -6.4319983    103.02735  0.026746457  0.027492111           20 
  322000   0.75379407   -6.4227892     102.7922  0.026602536  0.027417554            6 
  323000   0.77023146   -6.4217142    102.95205  0.026561417  0.027342853           11 
  324000   0.76669857   -6.4133808    103.10285  0.026518223  0.027268532           10 
  325000   0.73947673   -6.4567826    102.82732   0.02636598  0.027194402           12 
  326000   0.76740475   -6.4494043    103.15871  0.026369813  0.027120469            7 
  327000   0.73839158   -6.4607271    103.01402    0.0262523  0.027046015           10 
  328000   0.74004133   -6.4516557    103.03011  0.026176348  0.026971601           12 
  329000   0.75424527   -6.4960847    103.03273  0.026097449    0.0268972            8 
  330000   0.74941136   -6.4677459    103.11042  0.026037985  0.026822586           12 
  331000   0.74195178   -6.4710755    103.48839  0.026054479  0.026748956           11 
  332000   0.73602021   -6.4561152     103.6434  0.026014909  0.026675694            6 
  333000    0.7251448   -6.4912415    103.50334  0.025901738  0.026602511           14 
  334000   0.73001828   -6.4865125    103.83205  0.025906201  0.026529501           24 
  335000   0.72464084   -6.5072727    103.80239  0.025821491  0.026456873            8 
  336000   0.73460121   -6.4670227    103.87221  0.025761958  0.026384381           30 
  337000   0.73412356   -6.4823407    103.75691  0.025657001   0.02631203           16 
  338000   0.73522102   -6.5074189    103.84334  0.025602401  0.026239471            4 
  339000   0.71626161   -6.5198668    104.01333  0.025568665  0.026167016            9 
  340000   0.72145697   -6.4966743    104.18008  0.025534334  0.026095051           25 
  341000   0.71429483    -6.524901    104.02294  0.025421051  0.026023004            7 
  342000    0.7263692   -6.5221094    104.02905  0.025348208  0.025951873           15 
  343000   0.72489173   -6.5107384    104.45088  0.025376792  0.025880202           15 
  344000   0.72728949   -6.5282261    104.11727  0.025222206  0.025809184           22 
  345000   0.73178157   -6.4948935    104.27381   0.02518691  0.025737916           17 
  346000   0.70770147   -6.5506276    104.32127  0.025125547  0.025666407           16 
  347000   0.71755086   -6.5416095    104.26942  0.025040687  0.025594199           15 
  348000   0.70005376   -6.5317307    104.24297  0.024962397  0.025522395            6 
  349000   0.70988468   -6.5445132    104.33256  0.024912264  0.025450658            9 
  350000   0.70239733   -6.5264588    104.11901   0.02479024   0.02537888           17 
  351000   0.71339861   -6.5856631    104.38377  0.024782471  0.025307287           15 
  352000   0.70409559   -6.5756264    104.58733  0.024760258  0.025235589           25 
  353000   0.71129657   -6.5804906    104.60731  0.024694833  0.025164101           16 
  354000   0.68620131   -6.5827915    104.58159  0.024619018  0.025093144           16 
  355000   0.70504117    -6.561466    104.50272  0.024531154  0.025022351           11 
  356000    0.7046402   -6.5735927    104.58486  0.024481474  0.024951471            9 
  357000   0.67675883   -6.6130864     104.5714  0.024409756  0.024880504           21 
  358000   0.70643332   -6.5936449    104.74564  0.024382132  0.024809335           21 
  359000   0.67450202   -6.6061008    104.75842  0.024317182  0.024738242           18 
  360000   0.68089167   -6.5752662    104.68857  0.024233465  0.024667224           10 
  361000   0.69230031   -6.6341836    104.46788  0.024115393  0.024596457           20 
  362000   0.70424297   -6.6070996    104.69135   0.02410022  0.024525414            9 
  363000   0.68735313   -6.6257674    104.90706  0.024083346  0.024454721           18 
  364000   0.68452949   -6.6125505    104.54507   0.02393431  0.024384107           20 
  365000   0.69517204   -6.6222686    104.79319  0.023925386  0.024313527           13 
  366000   0.67644408   -6.6357836    104.84421  0.023871633  0.024243234            8 
  367000    0.6846218   -6.6335603    104.36715  0.023698264  0.024172434           16 
  368000    0.6898475   -6.6310223    104.70452  0.023710262  0.024101628           20 
  369000   0.68673397   -6.6720382    104.53326  0.023607332  0.024030738           15 
  370000   0.67833415   -6.6237505    104.33219  0.023498241  0.023959949           23 
  371000   0.66678728   -6.6442087    104.55748  0.023485507  0.023889491           14 
  372000   0.65789361   -6.6498407    104.42737  0.023393227  0.023819394           17 
  373000   0.67589575   -6.6348612    104.63047  0.023375886  0.023749278           12 
  374000   0.66643743   -6.6247591    104.95561   0.02338583  0.023679651           21 
  375000   0.66274407   -6.6613926    104.61701  0.023248225  0.023610025           21 
  376000   0.66297613   -6.6562067    104.80154  0.023227291  0.023540215           22 
  377000    0.6820364   -6.6240831     104.5977  0.023120622   0.02347042           34 
  378000   0.65481212   -6.6515092    104.65132  0.023071278  0.023400645           10 
  379000    0.6580838   -6.6562507    104.69262  0.023019485  0.023330798           12 
  380000   0.66721465   -6.6706956    104.69459   0.02295934  0.023261168           20 
  381000   0.64968124   -6.6865704    104.54198  0.022865701  0.023191419           29 
  382000   0.66953651   -6.6797898    104.76707  0.022854945  0.023121878           18 
  383000     0.656347   -6.6806986    104.94094  0.022833102  0.023052915           34 
  384000   0.63403907   -6.7034794    104.94108  0.022773672  0.022984315           29 
  385000   0.65680771   -6.6887786    104.71097  0.022664711  0.022915629           44 
  386000   0.64268318   -6.6924817    104.52308  0.022565431  0.022846865           38 
  387000   0.65072465   -6.7192265    104.56146  0.022515387  0.022778041           14 
  388000   0.62894193    -6.710422     104.7212  0.022491667  0.022709194           65 
  389000   0.64925406   -6.7267864    104.52662  0.022392165  0.022640668           15 
  390000   0.65065758    -6.708325    104.61252  0.022353102  0.022572345           26 
  391000   0.64979933   -6.7470051    104.52337  0.022276932   0.02250418           22 
  392000   0.65501741   -6.7170201    104.72593  0.022263166  0.022436381           29 
  393000   0.64055992   -6.7296941    104.78891   0.02221987  0.022368522           43 
  394000   0.64129835    -6.757181    104.70759  0.022146276  0.022300837           52 
  395000    0.6454942   -6.7477896    104.78331  0.022106184  0.022233477           54 
  396000   0.63418168   -6.7452413    104.81116  0.022056221  0.022166205           27 
  397000   0.62923942    -6.747428     104.5803  0.021952203  0.022098782           52 
  398000    0.6289854   -6.7552765    104.43439  0.021866498  0.022031329           14 
  399000   0.62317213   -6.7510487    104.72693  0.021872791  0.021964128           21 
  400000    0.6396227   -6.7834163    104.44008   0.02175835  0.021896763           25 
  401000   0.63744647   -6.7880415    104.59087  0.021735425  0.021829612           26 
  402000   0.62461814   -6.7838372    104.53625  0.021670034  0.021762733           47 
  403000   0.62409228   -6.8039206    104.64995  0.021639775  0.021696037           51 
  404000   0.63613343   -6.7785808    104.35691  0.021525766  0.021629807           40 
  405000   0.62868939   -6.7812396    104.64479  0.021531849  0.021563429           66 
  406000   0.61851521   -6.7839685    104.63814  0.021477451  0.021497128           37 
  407000   0.60918314    -6.792852    104.60757  0.021418421  0.021430975           95 
  408000    0.6098987   -6.7824021    104.60155  0.021364695  0.021365119           75 
  409000   0.61719398   -6.7828333    104.79224  0.021351312  0.021299574           74 
  410000   0.60460785   -6.8084706    104.69683  0.021279844  0.021234237           34 
  411000   0.62026276   -6.7842952    104.84816  0.021258751  0.021169133           22 
  412000   0.60055302   -6.7958641    104.45555  0.021127741  0.021104098           26 
  413000   0.61111914   -6.8089929    104.71077  0.021128082  0.021039025           60 
  414000   0.59087047   -6.8077455    104.30334  0.020995036  0.020973967           27 
  415000   0.59582745   -6.8203845    104.25203  0.020934142  0.020908967           28 
  416000   0.61552028   -6.8099969    104.47352  0.020928189  0.020844022           22 
  417000   0.60190934   -6.7960943    104.47823  0.020878943  0.020779257           27 
  418000   0.59966462   -6.8430326    104.21431  0.020776377  0.020714702           47 
  419000   0.60738215    -6.841855    104.37528  0.020758807  0.020650347           31 
  420000   0.59993297    -6.847844    104.07396  0.020649595  0.020585973           37 
  421000   0.59272998   -6.8272965    104.26393  0.020638149  0.020521546           14 
  422000   0.58314536   -6.8248965    104.52003  0.020639816  0.020457599           24 
  423000   0.58761115   -6.8424033      104.272  0.020542158   0.02039374           51 
  424000   0.59555782   -6.8494779    104.37797  0.020514537  0.020329992           37 
  425000   0.59289152   -6.8523134    104.14076  0.020419756  0.020266388           23 
  426000   0.59378467   -6.8520613    104.27883  0.020398833   0.02020292           32 
  427000   0.59464363   -6.8558049    104.32159  0.020359404  0.020139847           34 
  428000   0.59408933   -6.8508065    104.24768  0.020297446  0.020076872           24 
  429000   0.58734437   -6.8667596    104.36276  0.020272486  0.020014234           30 
  430000   0.58127194   -6.8695869     104.1799  0.020189903  0.019951714           51 
  431000   0.58879322   -6.8938471    104.31765  0.020169693  0.019889192           50 
  432000   0.57506095   -6.9110443    104.11027  0.020082999  0.019826963           65 
  433000   0.58146238   -6.9016607     104.2973  0.020072613  0.019764825           34 
  434000   0.58395542   -6.9031869    104.19312  0.020006359  0.019702992           90 
  435000    0.5788364   -6.9090449    104.13976  0.019950145  0.019641353           45 
  436000   0.57402256   -6.9345503    104.08706  0.019894315  0.019579776           48 
  437000   0.57176345   -6.9187067    104.08629  0.019848645  0.019518371           73 
  438000   0.56775797   -6.9207631    104.13899  0.019813354  0.019457277           81 
  439000    0.5609311    -6.913448    104.13521  0.019767504  0.019396447          149 
  440000   0.55654534   -6.9039132    104.02584  0.019701864  0.019335773          140 
  441000   0.56092094   -6.9085742     104.2347  0.019696656  0.019275235           44 
  442000    0.5523286   -6.9418501     104.1503   0.01963618  0.019215051           51 
  443000   0.56959724   -6.8959366    104.09597  0.019581635  0.019154971           29 
  444000   0.56753931   -6.9322021    104.21767  0.019560374  0.019095048           77 
  445000   0.55249124   -6.9262339    104.12803  0.019499631  0.019035315           52 
  446000   0.55493444   -6.9242661    104.26203  0.019480947  0.018975645           60 
  447000    0.5563302   -6.9617028    103.97474  0.019383806  0.018916041          122 
  448000   0.54829943    -6.935046    103.86744   0.01932058  0.018856557           96 
  449000   0.55238132   -6.9494167    104.10877  0.019322341  0.018797459           60 
  450000   0.54627502   -6.9583276    104.22269  0.019300498  0.018738611          105 
  451000    0.5590277   -6.9515056    104.07516  0.019230444  0.018680045          163 
  452000   0.53726974   -6.9649457    103.85659  0.019147602  0.018621378          174 
  453000   0.54399341   -6.9683855    103.85263  0.019104604  0.018562982          128 
  454000   0.54097612   -6.9726841    103.93449   0.01907755  0.018504789          168 
  455000   0.54820271   -6.9682485    104.02407  0.019052028  0.018446953          257 
  456000   0.54161026   -6.9765413    104.11539  0.019026936  0.018389243          102 
  457000   0.53549871   -6.9957712    103.88217  0.018942774  0.018331534          172 
  458000   0.53101968   -7.0093721       103.82  0.018890102  0.018273779          143 
  459000   0.54393924   -6.9872467    103.83394  0.018851478  0.018216383           98 
  460000   0.53081354   -6.9920959    103.67741   0.01878214  0.018159102           75 
  461000   0.53505841   -7.0086689    103.67437  0.018740848  0.018101934          105 
  462000   0.53167614   -7.0100776    103.69252  0.018703557  0.018044895          113 
  463000    0.5281142   -7.0002858    103.74557  0.018672709  0.017988133          105 
  464000   0.53238219   -7.0093825    103.61807  0.018609567  0.017931544           90 
  465000   0.52721469   -7.0133754    103.79807  0.018601805  0.017875204          104 
  466000   0.52993452   -7.0002066     103.5675  0.018520655  0.017818967          236 
  467000   0.52440351   -7.0352771     103.5271  0.018473786  0.017762891          118 
  468000   0.52697832   -7.0194451    103.48085  0.018426078  0.017706935          131 
  469000   0.52017733   -7.0225502    103.38318  0.018369435  0.017651131          111 
  470000   0.51895275   -7.0313065    103.40372  0.018333993  0.017595469          195 
  471000   0.52574032   -7.0330195    103.45937  0.018304914  0.017539973          246 
  472000   0.51810659   -7.0494515     103.5412  0.018280579  0.017484758          192 
  473000   0.51115527    -7.033416    103.41175  0.018219125  0.017429613          154 
  474000   0.51548516   -7.0423911    103.36997  0.018173342  0.017374703          157 
  475000   0.51391797   -7.0394901    103.45428  0.018149874  0.017319991          166 
  476000   0.51358864   -7.0418175    103.49419   0.01811873  0.017265466          203 
  477000   0.50157744   -7.0572022    103.35616  0.018056632  0.017211062          117 
  478000   0.50093481   -7.0447445    103.18128  0.017988368  0.017156759          349 
  479000   0.50721008   -7.0513323    103.46285    0.0179998  0.017102772          235 
  480000   0.50151536   -7.0667179     103.3262  0.017938576  0.017049074          113 
  481000   0.49379389   -7.0557555    103.47943  0.017927829   0.01699568          112 
  482000   0.49271759   -7.0630033    103.32857  0.017864552  0.016942389          124 
  483000    0.5078856   -7.0700666    103.48011   0.01785371  0.016889362          280 
  484000   0.50269815   -7.0807764     103.4157  0.017805733  0.016836443          198 
  485000   0.49415561   -7.0798656    103.11318  0.017717041  0.016783632          223 
  486000   0.48291474   -7.0903739    103.22895  0.017700437  0.016731083          241 
  487000   0.49320587   -7.0835182    103.32771  0.017680991  0.016678667          208 
  488000    0.4878365   -7.0854724    103.28344    0.0176372   0.01662637          234 
  489000   0.48728048   -7.0981115    103.08295  0.017566964  0.016574289          199 
  490000   0.47742845   -7.0948992    103.13821  0.017540512  0.016522305          270 
  491000   0.47925228   -7.1090993    103.08603  0.017495932   0.01647055          204 
  492000   0.50949475   -7.1053497    103.36329  0.017507333  0.016418946          144 
  493000   0.48095034   -7.0955309    103.24186  0.017451295  0.016367627          413 
  494000   0.47795673   -7.0970412    103.25633  0.017418409  0.016316375          239 
  495000   0.47104761   -7.1217468    102.93829  0.017329678  0.016265252          409 
  496000   0.47887406   -7.1075291    103.01638   0.01730786  0.016214324          334 
  497000   0.47867594    -7.105298     103.0575   0.01727993  0.016163585          236 
  498000   0.45832774    -7.118334    103.02649  0.017240042  0.016113007          380 
  499000   0.46995628   -7.1253631    103.20705  0.017235647  0.016062592          266 
  500000   0.47385961   -7.1224227    103.01324  0.017168874  0.016012404          253 
  501000   0.45915965   -7.1188992    103.15444   0.01715809  0.015962389          363 
  502000   0.47248453   -7.1405043    103.13967  0.017121459  0.015912559          249 
  503000   0.46439514   -7.1375508    102.84222  0.017038142  0.015862863          310 
  504000   0.46629296   -7.1444632    102.92484  0.017017996  0.015813348          273 
  505000   0.45690828   -7.1489894    102.88445  0.016977632  0.015764014          233 
  506000   0.45692226   -7.1519569    103.09531  0.016978807  0.015714791          291 
  507000   0.46068731   -7.1436614    102.99351  0.016928586  0.015665794          321 
  508000   0.45369152    -7.149181    102.75199  0.016855641  0.015616985          278 
  509000   0.45780273   -7.1588883    102.82335  0.016834209  0.015568389          264 
  510000   0.45314553   -7.1626654    102.91947  0.016816906  0.015519926          426 
  511000   0.44154094   -7.1498201    102.90596  0.016781794  0.015471664          389 
  512000   0.45743083   -7.1641772    102.76759  0.016726496  0.015423651          376 
Loop time of 1287.72 on 48 procs for 500000 steps with 4000 atoms

Performance: 67095.144 tau/day, 388.282 timesteps/s
99.4% CPU use with 48 MPI tasks x no OpenMP threads

MPI task timing breakdown:
Section |  min time  |  avg time  |  max time  |%varavg| %total
---------------------------------------------------------------
Pair    | 91.231     | 97.783     | 102.24     |  27.4 |  7.59
Neigh   | 8.9922     | 9.3079     | 9.8831     |   6.3 |  0.72
Comm    | 83.038     | 88.355     | 95.335     |  29.1 |  6.86
Output  | 0.92979    | 0.93058    | 0.95385    |   0.4 |  0.07
Modify  | 1074.6     | 1079.1     | 1082.1     |   4.9 | 83.80
Other   |            | 12.23      |            |       |  0.95

Nlocal:        83.3333 ave          88 max          76 min
Histogram: 3 1 1 2 4 12 6 6 8 5
Nghost:        2399.50 ave        2422 max        2382 min
Histogram: 4 4 1 11 9 5 9 1 3 1
Neighs:        16612.3 ave       19127 max       13779 min
Histogram: 3 1 4 5 7 10 5 8 3 2
FullNghs:      33223.9 ave       35303 max       30111 min
Histogram: 2 1 2 3 7 8 5 10 7 3

Total # of neighbors = 1594747
Ave neighs/atom = 398.68675
Neighbor list builds = 26772
Dangerous builds = 0

#clear
#
#next RN
#
#jump SELF
Total wall time: 0:21:31
