
units lj                  # Use reduced LJ style units
atom_style atomic         # Uncharged point particles
atom_modify map hash      # Needed for indexing of clusters etc
                          # Used to be able to find where atoms are in relation to each other.

lattice fcc 1.0 spacing 1 1 1
Lattice spacing in x,y,z = 1.5874011 1.5874011 1.5874011
region box block 0 10 0 10 0 10 units lattice
create_box 2 box
Created orthogonal box = (0.0000000 0.0000000 0.0000000) to (15.874011 15.874011 15.874011)
  3 by 4 by 4 MPI processor grid
create_atoms 1 box
Created 4000 atoms
  using lattice units in orthogonal box = (0.0000000 0.0000000 0.0000000) to (15.874011 15.874011 15.874011)
  create_atoms CPU = 0.002 seconds
set type 1 type/fraction 2 0.76 78393
Setting atom values ...
  3028 settings made for type/fraction
mass 1 1.0
mass 2 1.0
pair_style lj/cut  3.5
pair_modify tail  yes
pair_coeff 1  1  1.0  1.0   # Intearaction between 1 and 1 set with epsilon = 1 and sigma = 1
pair_coeff 1  2  1.5  0.8
pair_coeff 2  2  0.5  0.88

write_data data.0
System init for write_data ...
Neighbor list info ...
  update every 1 steps, delay 10 steps, check yes
  max neighbors/atom: 2000, page size: 100000
  master list distance cutoff = 3.8
  ghost atom cutoff = 3.8
  binsize = 1.9, bins = 9 9 9
  1 neighbor lists, perpetual/occasional/extra = 1 0 0
  (1) pair lj/cut, perpetual
      attributes: half, newton on
      pair build: half/bin/atomonly/newton
      stencil: half/bin/3d
      bin: standard
WARNING: Not all mixed pair coeffs generated from mixing. Use write_data with 'pair ij' option to store all pair coeffs. (../write_data.cpp:312)


#############################
#   M E L T   S Y S T E M   #
#############################

velocity all create 2.4 6229865 mom yes dist gaussian # Assign velocities
                                                    # Temperature 2.4, random number seed, zero linear momentum
                                                                                # Gaussian distribution

timestep 0.002   # simulation timestep
thermo 1000       # output thermodynamic data every 1000 steps bf 100

# Define a fix  in this case with index 1 applied to all
# particles in the simulation. This fix is for simulations
# in the anisotropic NPT ensemble. Note that we use the MTK
# correction.
fix 1 all npt temp 2.4 2.4 0.1 iso 5.68 5.68 0.5 mtk yes tchain 5 pchain 5 # Use NPT ensemble
                                                                         # Set temperature and pressure and damping
                                                                         # Numbers of thermostats in chain and in barostat
run 10000          # run for 10000 steps
Per MPI rank memory allocation (min/avg/max) = 3.642 | 3.644 | 3.648 Mbytes
Step Temp E_pair E_mol TotEng Press Volume 
       0          2.4   -3.9031684            0  -0.30406845   -3.4881309         4000 
    1000    2.4145073   -3.3390038            0   0.28185168    5.9599231    3724.7476 
    2000    2.3888646   -3.3927506            0   0.18965044    5.4731977    3753.8829 
    3000    2.4159008   -3.3457014            0   0.27724373    5.8922344    3736.9693 
    4000    2.4064419   -3.3666906            0    0.2420698    5.9862725    3701.8125 
    5000    2.4217762   -3.4480791            0   0.18367711    5.4780994    3706.6719 
    6000    2.3709216   -3.3604684            0    0.1950249    5.9843198    3706.5558 
    7000    2.3930104    -3.409199            0   0.17941921    5.4002273    3736.9155 
    8000    2.3915271   -3.4477307            0   0.13866311    5.6229839    3694.3902 
    9000    2.3559501   -3.3813091            0   0.15173253    5.7215899     3708.964 
   10000     2.426723   -3.4076558            0   0.23151872     5.872812    3694.7487 
Loop time of 2.60347 on 48 procs for 10000 steps with 4000 atoms

Performance: 663730.718 tau/day, 3841.034 timesteps/s
99.6% CPU use with 48 MPI tasks x no OpenMP threads

MPI task timing breakdown:
Section |  min time  |  avg time  |  max time  |%varavg| %total
---------------------------------------------------------------
Pair    | 1.1792     | 1.2488     | 1.3153     |   2.7 | 47.97
Neigh   | 0.21665    | 0.22236    | 0.22816    |   0.6 |  8.54
Comm    | 0.80948    | 0.87586    | 0.9415     |   3.3 | 33.64
Output  | 0.00025739 | 0.00026232 | 0.00032703 |   0.0 |  0.01
Modify  | 0.22197    | 0.24037    | 0.25426    |   1.8 |  9.23
Other   |            | 0.01578    |            |       |  0.61

Nlocal:        83.3333 ave          93 max          74 min
Histogram: 3 4 4 6 5 8 10 2 4 2
Nghost:        1731.12 ave        1757 max        1707 min
Histogram: 2 3 7 5 9 7 4 5 5 1
Neighs:        10330.2 ave       11804 max        9142 min
Histogram: 7 1 3 12 6 7 4 4 1 3

Total # of neighbors = 495849
Ave neighs/atom = 123.96225
Neighbor list builds = 903
Dangerous builds = 174

# Equilibrate just above the melting temperature to avoid step fn in T

fix 1 all npt temp 1.25 1.25 0.1 iso 5.68 5.68 0.5 mtk yes tchain 5 pchain 5
run 2000
Per MPI rank memory allocation (min/avg/max) = 3.644 | 3.646 | 3.649 Mbytes
Step Temp E_pair E_mol TotEng Press Volume 
   10000     2.426723   -3.4076558            0   0.23151872     5.872812    3694.7487 
   11000    1.2502502   -5.0323136            0   -3.1574072    5.6169975    2840.4365 
   12000    1.2433142   -5.0942915            0   -3.2297863    5.6331324    2813.2454 
Loop time of 0.649985 on 48 procs for 2000 steps with 4000 atoms

Performance: 531704.555 tau/day, 3076.994 timesteps/s
99.6% CPU use with 48 MPI tasks x no OpenMP threads

MPI task timing breakdown:
Section |  min time  |  avg time  |  max time  |%varavg| %total
---------------------------------------------------------------
Pair    | 0.2961     | 0.32188    | 0.34612    |   2.2 | 49.52
Neigh   | 0.041879   | 0.044225   | 0.046647   |   0.6 |  6.80
Comm    | 0.20853    | 0.23349    | 0.2606     |   2.9 | 35.92
Output  | 5.514e-05  | 5.6381e-05 | 7.3458e-05 |   0.0 |  0.01
Modify  | 0.041285   | 0.045374   | 0.04976    |   1.1 |  6.98
Other   |            | 0.004958   |            |       |  0.76

Nlocal:        83.3333 ave          89 max          74 min
Histogram: 1 0 1 2 10 6 11 5 6 6
Nghost:        2086.92 ave        2109 max        2063 min
Histogram: 4 3 2 3 7 10 8 7 3 1
Neighs:        13569.0 ave       14844 max       12364 min
Histogram: 3 5 6 8 2 6 6 6 3 3

Total # of neighbors = 651310
Ave neighs/atom = 162.82750
Neighbor list builds = 144
Dangerous builds = 13

#############################
# L I N E A R  Q U E N C H  #
#############################

# Define solid atoms. This closely follows ten Wolde  Ruiz-Montero and Frenkel  Faraday Discuss  1996  104  93-110
# Compute components of the per-atom q6 vector
compute q6 all orientorder/atom degrees 1 6 components 6 nnn NULL cutoff 1.3 # compute the Q6 parameter.
                                                                             # Use all neighbours within 1.3 unit cell.

# get number of connections
compute coord_number all coord/atom orientorder q6 0.5

# An atom is solid if it has 8 or more connections (of a possible 14)
variable is_solid atom c_coord_number>=8
group solid dynamic all var is_solid    # Must be dynamic to update
dynamic group solid defined

# do clustering
compute cluster solid cluster/atom 1.3 # Create a cluster where all atoms within are solid and max 1.3 units from another member

# define chunks one chunk per cluster
compute clus_chunks solid chunk/atom c_cluster nchunk every compress yes  # Says which atoms are in which chunk

# count the size of each chunk
compute size_chunks solid property/chunk clus_chunks count


# Find the maximum entry in the vector of chunk sizes
variable max_n equal max(c_size_chunks)


# Thermo style which includes this variable
# thermo_style custom step temp pe vol v_max_n

thermo ${N}  # Print the thermo information every 100 steps
thermo 1000  

# Reset the npt fix at a lower temperature (below freezing)
fix 1  all npt temp  ${temp} ${temp}  0.1  iso  5.68  5.68  0.5  mtk yes tchain  5  pchain  5
fix 1  all npt temp  0.45 ${temp}  0.1  iso  5.68  5.68  0.5  mtk yes tchain  5  pchain  5
fix 1  all npt temp  0.45 0.45  0.1  iso  5.68  5.68  0.5  mtk yes tchain  5  pchain  5

dump dmp2 all dcd ${N} traj.dcd
dump dmp2 all dcd 1000 traj.dcd


compute msd all msd com yes
variable twopoint equal c_msd[4]/6/(step*dt+1.0e-6)
fix 9 all vector 10 c_msd[4]
variable fit equal slope(f_9)/6/(10*dt)
thermo_style custom step temp pe c_msd[4] v_twopoint v_fit v_max_n

fix 1 all npt temp 1.25 ${temp} 0.1 iso 5.68 5.68 0.5 mtk yes tchain 5 pchain 5
fix 1 all npt temp 1.25 0.45 0.1 iso 5.68 5.68 0.5 mtk yes tchain 5 pchain 5
run 2000000 # 5000000  # Run for this many steps
Neighbor list info ...
  update every 1 steps, delay 10 steps, check yes
  max neighbors/atom: 2000, page size: 100000
  master list distance cutoff = 3.8
  ghost atom cutoff = 3.8
  binsize = 1.9, bins = 8 8 8
  4 neighbor lists, perpetual/occasional/extra = 1 3 0
  (1) pair lj/cut, perpetual
      attributes: half, newton on
      pair build: half/bin/atomonly/newton
      stencil: half/bin/3d
      bin: standard
  (2) compute orientorder/atom, occasional
      attributes: full, newton on
      pair build: full/bin/atomonly
      stencil: full/bin/3d
      bin: standard
  (3) compute coord/atom, occasional
      attributes: full, newton on
      pair build: full/bin/atomonly
      stencil: full/bin/3d
      bin: standard
  (4) compute cluster/atom, occasional
      attributes: full, newton on
      pair build: full/bin/atomonly
      stencil: full/bin/3d
      bin: standard
Per MPI rank memory allocation (min/avg/max) = 9.842 | 9.848 | 9.853 Mbytes
Step Temp PotEng c_msd[4] v_twopoint v_fit v_max_n 
   12000    1.2433142   -5.0942915 8.5078649e-31 5.9082392e-33 8.3333333e+20            3 
   13000    1.2418904   -5.0097174   0.70267181 0.0045043063  0.059613942            2 
   14000    1.2433693   -4.9951899    1.4177549 0.0084390168  0.059321246            2 
   15000    1.2423957   -5.0091051    2.1575617  0.011986454   0.05925227            3 
   16000    1.2398926   -4.9978027    2.8484686  0.014835773  0.059641804            6 
   17000    1.2395725   -4.9940098    3.6148565  0.017719884  0.060040089            3 
   18000    1.2595639   -5.0158982    4.3164663   0.01998364   0.06032897            3 
   19000    1.2722365   -5.0315033     4.945404  0.021690368  0.059801828            2 
   20000    1.2251777   -5.0854337    5.5443026   0.02310126  0.058905679            3 
   21000    1.2310108   -5.0665677    6.1538627   0.02442009  0.058086237            2 
   22000    1.2535756   -5.0257255    6.7584469  0.025600177  0.057145888            4 
   23000    1.2335001   -5.0391161    7.4219832  0.026891243  0.056579476            3 
   24000    1.2385988   -5.0395909    8.1865493  0.028425518  0.056135792            3 
   25000    1.2530983   -5.0356149    8.7476506  0.029158835  0.055920715            2 
   26000    1.2633947   -5.0602157    9.4728917  0.030361832   0.05573342            3 
   27000    1.2081821   -5.0376458    10.203677   0.03149283   0.05576799            3 
   28000    1.2302959   -5.0819886    10.922148  0.032506393  0.055888614            2 
   29000    1.2528089   -5.0403804    11.710761  0.033651612  0.056094216            1 
   30000    1.2259238   -5.0533825    12.318093  0.034216924  0.056261782            2 
   31000    1.2373507   -5.0399038    12.882655  0.034630791  0.056310553            3 
   32000    1.2407031   -5.0751233      13.5728  0.035345832  0.056277279            1 
   33000    1.2079837    -5.055729    14.332602  0.036193439  0.056332591            2 
   34000    1.2662618   -5.0418632    15.279688  0.037450216  0.056490983            2 
   35000    1.2237854   -5.0631286    16.020998  0.038145232  0.056766777            2 
   36000    1.2481554   -5.0505951    16.598414  0.038422255   0.05693248            2 
   37000    1.2260584   -5.0132394     17.34176  0.039058018  0.057086374            2 
   38000    1.2469854   -5.0813746     17.87782  0.039205746  0.057156153            3 
   39000    1.2261476   -5.0446817    18.534006  0.039602577  0.057149297            5 
   40000    1.2505403   -5.0682029    19.310493  0.040230194   0.05717942            3 
   41000    1.2178737   -5.0178622    20.174398  0.041004874  0.057283459            1 
   42000    1.2604451   -5.0152778    20.888793  0.041446017  0.057386428            1 
   43000    1.2755799   -5.0490522    21.618179  0.041895696  0.057486717            5 
   44000    1.2250217   -5.0347735    22.434444  0.042489477  0.057628425            2 
   45000    1.2537952   -5.0158551    23.142652  0.042856763  0.057766281            1 
   46000    1.2584721   -5.0121146    23.962895   0.04341104  0.057920047            2 
   47000     1.232732    -5.024469    24.860369  0.044078669  0.058119904            2 
   48000    1.2364756    -5.066881    25.628359  0.044493678  0.058314178            2 
   49000    1.2382254   -5.0854834    26.256581  0.044654048  0.058502083            2 
   50000    1.2352605   -5.0473871    27.141737  0.045236228  0.058685934            5 
   51000    1.2426752   -5.0753914    27.839154  0.045488813  0.058864948            3 
   52000    1.2326995   -5.0301081    28.801374  0.046156048  0.059058414            2 
   53000    1.2494431    -5.081682     29.22961  0.045958506  0.059227457            6 
   54000    1.2546054   -5.0524496    29.487337  0.045505149  0.059290074            3 
   55000    1.2292062   -5.0575526    30.213436  0.045777933  0.059272915            1 
   56000    1.2190722   -5.0363347    30.988612  0.046114006  0.059246294            4 
   57000    1.2288159    -5.071222    31.475423    0.0460167  0.059221815            2 
   58000    1.2006926   -5.0730521    32.141412  0.046180189  0.059181473            6 
   59000    1.2287101   -5.0849344    32.892718  0.046458641  0.059148269            3 
   60000    1.2236912    -5.048423    33.481889  0.046502623  0.059070821            2 
   61000    1.2288239   -5.0966703    33.887603   0.04629454   0.05897169            2 
   62000    1.2341605   -5.0552341    34.547472  0.046434774   0.05886201            2 
   63000    1.2099724   -5.0539827    35.389591  0.046811628  0.058770875            4 
   64000    1.2260231   -5.0801319    35.863929  0.046697824  0.058672485            2 
   65000    1.2426874    -5.045831    36.476608  0.046764882  0.058567686            5 
   66000    1.2092814   -5.0943666     37.30237  0.047098951  0.058484181            4 
   67000    1.2238527   -5.0543141    37.944346   0.04719446  0.058413692            2 
   68000    1.2264043   -5.0728735    38.738547   0.04747371  0.058370689            2 
   69000    1.2194297   -5.0441585    39.650438  0.047887002  0.058317039            2 
   70000    1.2168533   -5.0784565    40.272309  0.047943225  0.058266741            3 
   71000    1.2171405   -5.1045836    40.731754  0.047807222   0.05820564            3 
   72000    1.2387341   -5.0653981     41.37233   0.04788464  0.058142413            1 
   73000    1.2454282   -5.0607717    42.000468  0.047945739  0.058094788            3 
   74000    1.2195226   -5.0481283    42.708404   0.04809505  0.058044362            1 
   75000    1.2315058   -5.0193597     43.58419  0.048426877  0.057995921            2 
   76000    1.2331794   -5.0776392    44.146149  0.048405865  0.057952469            2 
   77000    1.2027318    -5.062625    44.512614  0.048173825  0.057889562            1 
   78000    1.2344103   -5.0661841    45.212286  0.048303724  0.057822224            1 
   79000    1.2428029   -5.0708151    45.981311  0.048503492  0.057755127            3 
   80000    1.2344313   -5.0822717    46.425146  0.048359527  0.057672912            2 
   81000    1.2509826   -5.0744756     47.34534  0.048709197  0.057596949            3 
   82000    1.2170926   -5.0629711    47.983728  0.048763951  0.057540898            3 
   83000     1.238108   -5.0341638    48.609168  0.048804385  0.057495046            1 
   84000    1.2109404   -5.0474389     49.22481  0.048834136  0.057446383            1 
   85000    1.2266993   -5.0701442    50.012006  0.049031379  0.057406051            2 
   86000    1.2533487   -5.1108625    50.589833  0.049021156  0.057362121            2 
   87000    1.2222853   -5.0965927    51.044141  0.048892855   0.05732054            1 
   88000    1.2174431    -5.096637    52.033275  0.049273934  0.057274482            2 
   89000    1.2093322   -5.0970583    52.600277  0.049251195  0.057230333            3 
   90000    1.2364953   -5.0564275    53.482023  0.049520391  0.057198226            1 
   91000     1.193454   -5.0676367    54.105045  0.049546744  0.057168611            1 
   92000     1.217776    -5.115787      54.4756  0.049343841   0.05712999            3 
   93000    1.2098066   -5.1036548    55.130428  0.049400025   0.05708412            2 
   94000     1.205365    -5.089829    55.898879  0.049555744  0.057035272            1 
   95000    1.2424966   -5.0875732    56.553725  0.049608531  0.056994958            2 
   96000    1.2294013   -5.0735641    57.167212  0.049624316  0.056950918            2 
   97000    1.1977781   -5.0781105     57.76077  0.049622654  0.056913385            3 
   98000    1.2390623   -5.0554227    58.820836  0.050017717   0.05688539            1 
   99000    1.2085058   -5.0875127    59.387061  0.049989109  0.056867765            2 
  100000     1.207598   -5.0772912     60.00163  0.050001358  0.056842553            4 
  101000    1.2186254   -5.0924928    60.858311  0.050213128  0.056820766            3 
  102000    1.2158167   -5.0982275    61.455233  0.050208523  0.056798055            2 
  103000    1.2139298   -5.1022788    62.279633  0.050388052  0.056782692            2 
  104000    1.2087763   -5.0991961    63.060426  0.050529188  0.056776282            2 
  105000    1.1996236   -5.1269658    63.597911  0.050474532  0.056778464            2 
  106000    1.2094334   -5.0795159    64.706597  0.050869966  0.056792321            5 
  107000    1.2144088   -5.1103528    65.273355  0.050835946  0.056804977            3 
  108000    1.2207694   -5.0569499     65.72971  0.050717369    0.0568118            1 
  109000     1.213852    -5.088635    66.246069  0.050646841  0.056806225            3 
  110000    1.2108192   -5.1044849    66.838101  0.050634924  0.056805869            5 
  111000     1.207758   -5.0859588    67.907423  0.050981548  0.056801972            1 
  112000    1.2344891   -5.1035483    68.617044  0.051054348  0.056811995            2 
  113000    1.2159656   -5.1213888    69.494267  0.051249459  0.056823781            4 
  114000    1.2072083   -5.0944551    70.277696  0.051372584  0.056837732            2 
  115000     1.208123   -5.1258313    71.023865  0.051466569  0.056850938            2 
  116000    1.2216461   -5.0803884    71.831493  0.051603084  0.056867902            5 
  117000    1.2015467   -5.1242428    72.160524  0.051396384  0.056887556            2 
  118000    1.1820354   -5.0708703    72.791977  0.051406763  0.056900406            3 
  119000    1.1946046   -5.1028569    73.700845  0.051611236  0.056915313            2 
  120000    1.2181521   -5.0976271    74.841337  0.051973151  0.056941707            1 
  121000    1.2121549   -5.0808033    75.790564  0.052197358  0.056980095            1 
  122000    1.2225511   -5.0948426    76.816769   0.05247047  0.057022017            1 
  123000    1.2217501   -5.0821275     77.11735  0.052247527   0.05705801            1 
  124000    1.2009493   -5.0854881    77.695371  0.052214631  0.057089167            3 
  125000    1.2243427   -5.0705718    78.787344  0.052524895  0.057127738            1 
  126000    1.1851479   -5.0898675    79.023775  0.052264401   0.05715257            2 
  127000    1.1771843   -5.1060291    79.248566  0.052000371  0.057164705            2 
  128000    1.2085651   -5.0962898    80.201684  0.052214638  0.057175245            3 
  129000    1.2095572   -5.0776047    80.699537  0.052131484  0.057187899            2 
  130000     1.213407   -5.1353268    81.036099  0.051946217   0.05719277            3 
  131000    1.2174496   -5.0853535    82.119687  0.052238986  0.057193144            2 
  132000    1.1971304   -5.1073695    82.558551  0.052120297  0.057192274            3 
  133000    1.1937614   -5.0803822    83.245834  0.052159044  0.057190221            1 
  134000    1.1832489   -5.0985947    84.184836  0.052353754  0.057191127            2 
  135000    1.2219037   -5.0793308    84.547011  0.052189513  0.057186548            2 
  136000    1.1971689   -5.0997422    85.147155  0.052173502  0.057179791            1 
  137000     1.231397   -5.0852278    85.633911  0.052088754  0.057165147            3 
  138000    1.1867987   -5.1108828    86.023384  0.051946488  0.057142283            4 
  139000    1.1899887   -5.1128527    85.925646  0.051514176  0.057112605            2 
  140000    1.2024567   -5.1133704    86.871204   0.05170905  0.057082565            3 
  141000    1.1840575   -5.1500077    87.059975  0.051453886  0.057050211            1 
  142000    1.1919621   -5.1124191     87.96655  0.051623562  0.057008419            4 
  143000    1.2064581   -5.1376661      88.5248  0.051587879  0.056972005            2 
  144000    1.1829128   -5.1107729    89.507563  0.051798358  0.056943774            2 
  145000     1.203001   -5.1293447    89.995578  0.051721596  0.056914116            2 
  146000    1.1503295   -5.1345012    90.491575  0.051650442  0.056884008            2 
  147000    1.2202834   -5.1376267    91.155941  0.051675703   0.05684732            2 
  148000    1.1826949    -5.140506    91.892084  0.051741038  0.056813983            2 
  149000     1.193797   -5.1083752    92.747864  0.051872407  0.056775563            2 
  150000    1.1843328   -5.1227556    93.367741  0.051870967  0.056743922            4 
  151000    1.2048621   -5.1496974    93.726632  0.051725514  0.056710736            2 
  152000    1.1783678   -5.1527805    94.263534  0.051679569  0.056673749            3 
  153000    1.2210493   -5.1660403    95.165944  0.051833303    0.0566454            2 
  154000    1.2032537   -5.1384871    95.707665  0.051789862  0.056615987            2 
  155000    1.1714855   -5.1344997    96.364397  0.051808816  0.056585868            1 
  156000    1.2022293   -5.1233826    97.389064  0.052024073  0.056558271            5 
  157000    1.2134917   -5.1337983     97.53277  0.051768986  0.056527256            1 
  158000    1.1829419   -5.1373314    97.846424  0.051606764  0.056491565            2 
  159000    1.2066936   -5.1310938    99.061518  0.051919034  0.056458257            2 
  160000    1.2106351   -5.1235442    99.140672  0.051635767  0.056424616            5 
  161000    1.1365373   -5.1662423    99.375861  0.051436781  0.056383563            3 
  162000    1.1761181   -5.1386548    100.72731  0.051814462  0.056344198            2 
  163000    1.1816557   -5.1096986    101.46547  0.051873962  0.056308497            2 
  164000    1.2044362   -5.1380043    101.92125  0.051789253  0.056268426            3 
  165000     1.183604   -5.1060812    102.49408  0.051764687  0.056232334            2 
  166000    1.1869499   -5.1198935    103.03117  0.051722473  0.056199713            2 
  167000    1.1943467   -5.1571312    103.35194  0.051572824  0.056169061            1 
  168000    1.2015197   -5.1028443    104.56419  0.051867156  0.056142395            2 
  169000    1.1721693   -5.1420008    105.21283  0.051880092  0.056115357            2 
  170000     1.188712   -5.1029787    106.07469  0.051997396  0.056084805            2 
  171000    1.1761452   -5.1235751    106.57231  0.051935826  0.056060575            2 
  172000    1.1723707   -5.1657577    106.56927  0.051632397  0.056031177            4 
  173000    1.1835643   -5.1381007    107.63901  0.051849236  0.056001421            2 
  174000    1.1792461   -5.1581528    108.26403  0.051850589  0.055973192            2 
  175000    1.2011735   -5.1437847    109.09387  0.051949462  0.055947601            6 
  176000    1.1672954   -5.1539957    109.66984  0.051927008  0.055920519            2 
  177000    1.1858916   -5.1317865    110.14095  0.051855439   0.05588784            1 
  178000    1.1817404   -5.1253593    110.57936  0.051769362  0.055855644            2 
  179000    1.1798943   -5.1237314    110.64605  0.051511195   0.05581799            3 
  180000    1.2163146   -5.1911796    111.27235  0.051514977  0.055780615            1 
  181000    1.1987826    -5.178509    112.11518  0.051618408  0.055747177            4 
  182000    1.2038268   -5.1611251    112.05528  0.051307364   0.05570691            7 
  183000    1.1724538   -5.1579301    112.63399  0.051290524   0.05566844            8 
  184000    1.2036226   -5.1326001    114.06651  0.051660556  0.055632925            4 
  185000    1.1800326   -5.1455264    114.65513  0.051646456  0.055602169            5 
  186000    1.1828947   -5.1853763    114.46971  0.051285714    0.0555678            2 
  187000    1.1814173    -5.120607    115.94177  0.051667455   0.05553471            1 
  188000    1.1793289   -5.1642716    116.04603  0.051438843  0.055498859            2 
  189000    1.1888363   -5.1602957     116.6786  0.051445592   0.05546389            2 
  190000    1.1528415   -5.1795544     117.1474  0.051380439  0.055425612            2 
  191000    1.1871118   -5.1991901    117.72265  0.051362414  0.055388612            5 
  192000     1.184545   -5.1278513    118.27845  0.051336132  0.055349563            1 
  193000      1.15985   -5.1409756    119.05917  0.051407242   0.05531122            1 
  194000    1.1713715   -5.1308221    119.64588  0.051394276  0.055270945            1 
  195000    1.1541264   -5.1263075    120.05164  0.051304119  0.055226422            4 
  196000    1.1728079   -5.1505494    120.07563  0.051052563  0.055180838            2 
  197000    1.1379918   -5.2058355     120.1904  0.050841963  0.055129894            1 
  198000    1.1782534   -5.1589531    120.99866  0.050925364   0.05507715            2 
  199000     1.179543   -5.1739564    121.57142  0.050909304  0.055023867            5 
  200000     1.185564   -5.1365612    122.47921  0.051033004  0.054976103            5 
  201000    1.1728602    -5.172473    122.31183  0.050709715  0.054930276            2 
  202000     1.191894   -5.1755979    123.56675  0.050976382  0.054884868            2 
  203000    1.1648129   -5.1235963    125.19505  0.051393697  0.054841383            1 
  204000    1.1605447   -5.1817931    125.18835  0.051139033  0.054803424            3 
  205000    1.1905974   -5.1344652    126.16079  0.051284873  0.054768123            2 
  206000     1.166308   -5.1634683    126.72228  0.051263059  0.054727561            2 
  207000    1.1735802   -5.1475801    126.21313   0.05081044  0.054689003            2 
  208000    1.1609017   -5.1632064    127.73435  0.051175621  0.054646928            2 
  209000    1.1633814   -5.1982834    127.23829   0.05073297  0.054606229            2 
  210000    1.1697049   -5.1494963    128.45364  0.050973668  0.054562479            2 
  211000    1.1776849    -5.181608    128.89575  0.050906694  0.054521668            6 
  212000    1.1845052   -5.1808564     128.8117  0.050633532  0.054477995            1 
  213000    1.1974352   -5.1630647    130.12947  0.050911372  0.054430914            4 
  214000    1.1690968   -5.1864433    130.12292  0.050670917  0.054383773            2 
  215000    1.1537959   -5.2228879    130.48537  0.050575724  0.054337713            2 
  216000    1.1639508   -5.1763981    131.33656   0.05066997  0.054297089            2 
  217000    1.1623411    -5.164639    132.93039  0.051048535  0.054258146            2 
  218000    1.1367676   -5.1453888    132.78626  0.050759275  0.054220428            2 
  219000     1.162282   -5.1786826    133.66415  0.050861547  0.054183973            4 
  220000    1.1776498    -5.173023    134.81993  0.051068155  0.054148321            1 
  221000    1.1733969   -5.2223697    135.00872  0.050908264  0.054116816            2 
  222000    1.1521335   -5.2006102    136.52142  0.051246777  0.054088049            1 
  223000    1.1766442   -5.2048751    136.52963   0.05102004  0.054063687            2 
  224000    1.1569568   -5.1762623    138.00758  0.051342107  0.054037977            2 
  225000    1.1710521   -5.1931124    138.61124  0.051337495  0.054014593            3 
  226000    1.1580756   -5.1658542    139.04038  0.051268576  0.053991472            3 
  227000    1.1457215   -5.1806793    139.35112  0.051156797  0.053967778            4 
  228000    1.1531689   -5.2071017    139.78158  0.051089759  0.053942096            2 
  229000    1.1496528   -5.1756945    140.36589   0.05107929  0.053917909            2 
  230000    1.1760067   -5.1889557    140.84689  0.051031482  0.053893352            1 
  231000    1.1597911   -5.1886194    142.10298  0.051263701  0.053869591            5 
  232000    1.1829544    -5.211046    142.39438  0.051147407  0.053844439            4 
  233000    1.1439903   -5.2264919    142.85585  0.051092938  0.053820637            1 
  234000    1.1629719   -5.1774209    143.14028  0.050975882  0.053798404            2 
  235000    1.1785917   -5.2106591    143.59617  0.050920626  0.053774681            2 
  236000    1.1614097   -5.1822092    144.82415  0.051138472  0.053748157            2 
  237000    1.1625259    -5.187141    145.23563  0.051067379  0.053723927            3 
  238000    1.1607028    -5.161417    146.05402  0.051139363  0.053697303            4 
  239000    1.1565429   -5.1962674    145.64328  0.050782174  0.053672636            3 
  240000    1.1561869   -5.2332333    146.10477  0.050730822   0.05364457            2 
  241000    1.1610542   -5.2082798    146.58377   0.05068595  0.053616356            1 
  242000    1.1827792   -5.2160139    147.55267  0.050810147  0.053588174            2 
  243000      1.13144   -5.2089267    147.85917  0.050706161   0.05356087            2 
  244000    1.1843397   -5.2377469    148.87628  0.050845725  0.053532858            1 
  245000    1.1539544   -5.1845435     149.7498  0.050935305  0.053505482            2 
  246000    1.1628297   -5.2244691    149.97247  0.050803681   0.05347656            3 
  247000    1.1421352   -5.1911315    150.14409  0.050655901  0.053448046            2 
  248000     1.160754   -5.2323027    150.40381  0.050538916  0.053415793            2 
  249000    1.1656691   -5.1950705    151.56706  0.050725254  0.053383235            3 
  250000     1.142371    -5.198173    151.27296  0.050424319  0.053351919            3 
  251000    1.1738909   -5.2160245    152.59337  0.050661809  0.053322156            4 
  252000    1.1846661   -5.2193769    153.37494  0.050719226  0.053295263            5 
  253000    1.1702741   -5.1695714    154.42797  0.050865603  0.053268138            1 
  254000    1.1618879    -5.185575    154.29269  0.050620962  0.053240258            3 
  255000    1.1711122   -5.2071461    154.69087  0.050552571  0.053212565            2 
  256000    1.1500895     -5.21099    156.04311  0.050795284  0.053184534            2 
  257000    1.1813375   -5.1994852    156.86323  0.050863563  0.053158682            7 
  258000    1.1618342   -5.1909855    156.41943  0.050523072  0.053134619            4 
  259000    1.1583495   -5.2098619    157.00185  0.050515394  0.053106298            2 
  260000    1.1674165   -5.1976609    157.68721  0.050540773  0.053077017            3 
  261000    1.1736165    -5.199037    158.23415  0.050521761   0.05304635            5 
  262000    1.1342232   -5.2501471    158.12483  0.050294158  0.053013742            2 
  263000    1.1329156   -5.1611861    159.30745  0.050477644   0.05298324            2 
  264000    1.1359133   -5.2014204    159.27029  0.050274712  0.052951737            3 
  265000    1.1401281    -5.221331    160.39194  0.050437716  0.052921151            2 
  266000    1.1482733   -5.2433848    159.94796   0.05010901  0.052888936            3 
  267000     1.138968   -5.2111657    161.44663  0.050389085  0.052857639            3 
  268000    1.1613533   -5.2084372    161.49157  0.050215041  0.052827192            2 
  269000    1.1549313   -5.2144894    162.36997  0.050300487  0.052797758            2 
  270000    1.1188773   -5.2106936    163.80558  0.050557278  0.052768462            2 
  271000    1.1568131   -5.1885143    163.23947  0.050196639  0.052739932            2 
  272000     1.137188   -5.1677187    164.81089  0.050493531  0.052711495            3 
  273000    1.1637244   -5.2322748    164.23855  0.050133867  0.052682331            2 
  274000    1.1303258   -5.2257856    165.30433  0.050275039  0.052653988            4 
  275000    1.1311771   -5.2527729    165.68913  0.050208828  0.052626194            4 
  276000    1.1399019   -5.2238527    165.83369  0.050070558  0.052595954            2 
  277000    1.1457465   -5.2196072    166.98642  0.050236588   0.05256714            1 
  278000    1.1171434   -5.2361272    167.74173  0.050282293   0.05253818            2 
  279000    1.1246599   -5.2191225    167.51037  0.050032965  0.052509924            1 
  280000    1.1514896   -5.2292414    168.62157   0.05018499  0.052480431            2 
  281000    1.1339809   -5.2032922    168.67464  0.050022135  0.052449284            4 
  282000    1.1525092   -5.2426371    169.48911  0.050085433  0.052416859            2 
  283000     1.144949   -5.2476917    169.14787  0.049807971  0.052387267            4 
  284000    1.1380295   -5.2317932     171.1368  0.050216197  0.052360611            2 
  285000    1.1589127   -5.2216655     171.1953  0.050057107  0.052331933            3 
  286000    1.1301559   -5.2339964    171.89861  0.050087007  0.052304738            1 
  287000    1.1262775   -5.2140649    172.70492  0.050146609  0.052277972            8 
  288000    1.1327217   -5.2447108    172.96444  0.050047581  0.052249764            4 
  289000    1.1169573   -5.2139929    173.67694  0.050079857  0.052221975            2 
  290000    1.1382892   -5.2222943    174.03382  0.050009719  0.052193935            3 
  291000    1.1424867   -5.2282839    174.04464  0.049840962  0.052164711            4 
  292000    1.1219849   -5.2365078    175.24309  0.050012297  0.052135287            1 
  293000    1.1137257   -5.2230271    175.80888  0.050002526  0.052106758            2 
  294000    1.1723688   -5.2220443    175.68853  0.049798337  0.052078067            4 
  295000    1.1247125     -5.20989     177.4088  0.050115479  0.052049748            2 
  296000    1.1420884   -5.2153205    176.89868  0.049802555  0.052022551            3 
  297000    1.1516566   -5.2260421    178.07689  0.049965457  0.051995081            3 
  298000    1.1213074   -5.2435628    178.17148  0.049824238  0.051966772            1 
  299000    1.1450867   -5.2617568    178.50833  0.049751487  0.051937714            2 
  300000    1.1507973   -5.2616082    177.79965  0.049388792  0.051909227            4 
  301000    1.1336618   -5.2619318    179.43799  0.049678293   0.05187832            2 
  302000    1.1233333   -5.2515265    180.18023  0.049718607  0.051849557            5 
  303000    1.1562107    -5.241071     180.7039  0.049698542   0.05182136            3 
  304000     1.121046   -5.2245842    181.37628  0.049719375  0.051793509            2 
  305000     1.130347   -5.2704926     181.4651  0.049580628  0.051765414            2 
  306000    1.1331735   -5.2643057    181.97676  0.049557941  0.051735911            2 
  307000    1.1200456   -5.2283874    182.18407  0.049452788  0.051704741            3 
  308000    1.1524848   -5.2042532    183.06983  0.049531879  0.051672362            5 
  309000    1.1544189   -5.2289079    183.50014  0.049487632  0.051639205            5 
  310000    1.1316371   -5.2566424    183.12711  0.049227718  0.051604001            3 
  311000    1.1352716   -5.2647024    183.66603  0.049213835  0.051568449            2 
  312000    1.1036132   -5.2700299    183.78351  0.049087475  0.051532407            2 
  313000    1.1036881   -5.2981103    183.91109  0.048964615  0.051497285            2 
  314000    1.1342845   -5.2558982    184.51037   0.04896772  0.051460024            5 
  315000    1.1159402   -5.2654561    185.59556  0.049099355   0.05142435            2 
  316000    1.1246294   -5.2535616     185.5748  0.048938503  0.051386842            4 
  317000    1.1209025   -5.2666985    186.35545  0.048989339  0.051350081            1 
  318000    1.1309049   -5.2293901    187.24536  0.049068492  0.051315686            4 
  319000    1.1220459   -5.2561413    187.14616  0.048888758  0.051282184            3 
  320000     1.106493    -5.212949    188.01941  0.048963389  0.051246882            2 
  321000     1.135866   -5.2411131    188.66345  0.048978051  0.051212502            2 
  322000    1.1143254    -5.251737    189.42707  0.049023569  0.051178547            4 
  323000    1.1101959   -5.2285591    190.59916  0.049174191  0.051147235            5 
  324000    1.1373964   -5.2643302    190.43947  0.048981345   0.05111567            3 
  325000      1.10467   -5.2747129    191.42195   0.04908255  0.051083533            2 
  326000    1.1285202   -5.2563851    191.56447  0.048968422  0.051051684            3 
  327000     1.105623    -5.251448    192.53852    0.0490669  0.051021531            2 
  328000    1.1177323   -5.2584696       193.27  0.049103151  0.050991586            3 
  329000    1.1631068   -5.2650263    193.82891  0.049095469  0.050962258            8 
  330000    1.1194468   -5.2753195    194.30836  0.049067767  0.050933592            3 
  331000    1.1368617   -5.2879981    194.96012  0.049083615  0.050905088            2 
  332000    1.1400125    -5.255575    195.28261  0.049016719  0.050877406            3 
  333000     1.118705   -5.2761367    195.14285  0.048834547  0.050849097            3 
  334000    1.1252327   -5.2832182    195.70921  0.048829644  0.050819805            2 
  335000    1.1391993   -5.2632255    196.26915  0.048823172  0.050789914            2 
  336000    1.1208292   -5.2850285    196.30796  0.048687489  0.050761275            3 
  337000    1.1188666   -5.2511091    197.02665  0.048720734  0.050731827            1 
  338000    1.1057741   -5.2394617    198.73887  0.048998736   0.05070289            5 
  339000    1.1465516   -5.3072826    198.85276  0.048882192  0.050673416            2 
  340000    1.1236206   -5.2822729     199.3716  0.048865589  0.050644106            3 
  341000     1.130408   -5.3055352    198.56084  0.048524155  0.050612476            4 
  342000    1.1016158   -5.2807033    199.65879  0.048649802  0.050581689            3 
  343000    1.1336378   -5.2764219     200.5828  0.048732458  0.050550993            4 
  344000    1.1383414   -5.2598275    200.64057  0.048604788  0.050521034            2 
  345000    1.1185298   -5.2849584    201.12488  0.048580889  0.050491119            3 
  346000    1.1176333   -5.3095178    201.75137   0.04859137  0.050461095            1 
  347000    1.1587014   -5.2340146    202.45089  0.048619329  0.050429381            4 
  348000    1.1062509   -5.2716027    202.68183   0.04853492  0.050399913            1 
  349000    1.1358466   -5.3331645    202.46167  0.048343283  0.050371129            6 
  350000    1.1080772    -5.278786     204.1472  0.048606477  0.050343055            1 
  351000    1.0936127   -5.2461501    204.64819   0.04858694  0.050313416            2 
  352000    1.1093108   -5.2748362    204.48357  0.048409935  0.050284018            5 
  353000    1.1248306   -5.3135138    205.05638  0.048408022  0.050253484            2 
  354000    1.1226939   -5.2589129    204.84983  0.048222653  0.050223617            1 
  355000    1.1353233   -5.2778741    206.15597   0.04839342  0.050194453            5 
  356000    1.1094024   -5.2914897    206.42997  0.048321622  0.050165987            3 
  357000      1.10562   -5.2937962    207.64948  0.048470934  0.050134705            2 
  358000    1.1049553   -5.2566423     208.2527  0.048475955  0.050105285            3 
  359000     1.098732   -5.2797169    208.39139  0.048373118  0.050075511            6 
  360000    1.0801307   -5.3538239    207.67359  0.048072591    0.0500453            4 
  361000    1.1336037   -5.2857908    209.55205  0.048373049  0.050014676            1 
  362000    1.1309603   -5.2915123     209.1426  0.048145165  0.049985349            2 
  363000    1.0943362   -5.2771876    210.15454  0.048244843  0.049956525            5 
  364000    1.0995847   -5.2486547    211.61362  0.048446342  0.049928874            1 
  365000    1.1618563   -5.3071123    211.92281  0.048384202   0.04990186            3 
  366000    1.0967759   -5.2748211    211.98952  0.048267194  0.049875084            3 
  367000    1.1287428   -5.2832786    212.02946  0.048144745  0.049849076            5 
  368000    1.1123542   -5.3582821     212.8461  0.048198846  0.049821753            2 
  369000    1.1189266   -5.2894759    213.24979  0.048159392  0.049792191            2 
  370000    1.1077472   -5.3253981    213.42625  0.048068976  0.049762303            5 
  371000    1.0933972   -5.2920666    213.58701  0.047975519   0.04973273            3 
  372000    1.1103349   -5.3322704    214.56945  0.048066633   0.04970299            4 
  373000    1.1280368   -5.2947546    214.67204  0.047960687  0.049673635            4 
  374000    1.1008726   -5.2817472     215.2101   0.04795234  0.049644351            3 
  375000    1.0902405   -5.2853224    216.13745  0.048030545  0.049615823            1 
  376000    1.1054424   -5.3126101    216.61875  0.048009475   0.04958665            4 
  377000    1.1241737   -5.3213843     216.3865  0.047830792  0.049556783            3 
  378000    1.0967322   -5.3170832    217.53107  0.047956584  0.049528892            3 
  379000    1.1239947   -5.3423178    217.70089   0.04786739   0.04950205            2 
  380000    1.1116124    -5.355176    218.45507  0.047906813  0.049474749            4 
  381000    1.1171965   -5.3214106    219.74687  0.048063621  0.049447245            3 
  382000    1.0902372    -5.341508    218.98587  0.047771787  0.049418628            3 
  383000    1.0993304   -5.2806177    221.45037  0.048183283  0.049391505            5 
  384000    1.0997602   -5.3023067    220.97237  0.047954073  0.049367261            2 
  385000    1.1139458   -5.2877732    221.14208  0.047866252  0.049341025            2 
  386000    1.1021858   -5.3054902    222.59106  0.048055064  0.049314873            2 
  387000    1.0870597   -5.2869924    222.87625  0.047992302  0.049289356            5 
  388000    1.0846462   -5.3173156    223.04758  0.047905408  0.049263772            3 
  389000    1.1020352   -5.3209786    223.54664  0.047889169  0.049236246            2 
  390000    1.1193175   -5.3490238    222.27621  0.047494916  0.049208973            5 
  391000    1.1135097   -5.3341131    223.89933  0.047719379  0.049180727            1 
  392000    1.0891406   -5.3465704    224.23045  0.047668037  0.049152437            2 
  393000    1.1004156   -5.3267858    224.52847  0.047609939  0.049125042            3 
  394000    1.0856186   -5.3131107    225.19669  0.047630433  0.049098632            5 
  395000     1.069914   -5.3479229    225.55718  0.047585903   0.04907172            2 
  396000    1.0826722   -5.3376093     226.7113  0.047708607   0.04904322            6 
  397000    1.0898092   -5.2697203    227.26592  0.047704853  0.049016088            3 
  398000     1.083678   -5.3391445    226.79162  0.047485683  0.048988112            2 
  399000     1.099128   -5.3261914    227.09578  0.047430196  0.048960212            3 
  400000    1.1226487   -5.3260984    228.16418  0.047534205  0.048932878            3 
  401000    1.0691662   -5.3010204     228.9675  0.047582607  0.048905346            2 
  402000    1.0803853   -5.3316081    229.16562  0.047505311  0.048878815            3 
  403000    1.1014916   -5.3304754    229.05647  0.047364861   0.04885048            4 
  404000    1.0683038   -5.3194916    229.34352  0.047306831  0.048822866            2 
  405000    1.0910403   -5.3150536    230.38414  0.047404144  0.048795736            2 
  406000    1.0989826   -5.3190222    231.87721  0.047593844  0.048769752            2 
  407000    1.1137906   -5.3297693    231.46466  0.047392437  0.048744207            2 
  408000    1.1006004   -5.3063727    232.25875   0.04743847  0.048718853            3 
  409000    1.0767564   -5.3476889    233.35957  0.047546775  0.048693759            3 
  410000    1.0861493   -5.3211468    233.31631  0.047422015  0.048668829            2 
  411000     1.101174   -5.3236466    234.80993  0.047609474  0.048644936            3 
  412000    1.0953038   -5.3420584    234.08261  0.047346807  0.048619818            4 
  413000    1.0819858   -5.3261473    234.40519  0.047297253  0.048593974            5 
  414000    1.0823365   -5.3213166    235.79618  0.047462999  0.048567619            2 
  415000     1.104851   -5.3680796    234.64672  0.047117816  0.048540896            3 
  416000    1.0875684   -5.3391072    235.30298  0.047136013  0.048514114            4 
  417000    1.0779008   -5.3421062    236.19016  0.047200271  0.048487996            2 
  418000    1.0709644   -5.3578546    236.37128  0.047123461  0.048462387            5 
  419000    1.0960528   -5.3611697    236.81352  0.047098951  0.048436576            2 
  420000     1.107146   -5.3536786    236.99616  0.047023047  0.048411511            2 
  421000    1.1005603   -5.3578694    237.80248  0.047070957  0.048387162            2 
  422000    1.0676304     -5.32971    239.47977  0.047290634  0.048362315            1 
  423000     1.079533   -5.3489138    240.38674  0.047357513   0.04833756            3 
  424000    1.0670967   -5.3154109    240.10031  0.047189526  0.048312644            6 
  425000    1.0877736   -5.3252471    240.96874  0.047248773  0.048288528            5 
  426000    1.0957851    -5.311972    241.32756  0.047208051  0.048264976            2 
  427000    1.0584123   -5.3062285     241.1901  0.047070667   0.04824094            4 
  428000     1.095771   -5.3663317    242.27101  0.047171147  0.048216239            4 
  429000    1.0653636   -5.3097256    244.06956  0.047410559  0.048195282            2 
  430000    1.0898122   -5.3563995    243.85934  0.047259563  0.048174521            2 
  431000    1.0715066   -5.3820278    243.13143  0.047009171     0.048152            3 
  432000    1.0968556   -5.3242023    244.56396  0.047176689  0.048129672            2 
  433000    1.1153325   -5.3442532    244.86346  0.047125377   0.04810756            3 
  434000    1.1020504   -5.3537088    245.79976  0.047196574  0.048086128            2 
  435000    1.0950269   -5.3490959    245.34618  0.047001183  0.048063913            4 
  436000    1.0901513   -5.3546386    245.34368  0.046892905  0.048042033            6 
  437000     1.083172   -5.3659207    247.22031  0.047143461  0.048020371            3 
  438000    1.0721271   -5.3625425    247.35496  0.047061446  0.047998283            8 
  439000     1.080965   -5.3426077    248.75276  0.047219582  0.047977889            3 
  440000    1.0854133   -5.3767693    248.38174  0.047041996  0.047956881            6 
  441000    1.1013869   -5.3349523    249.33488  0.047115435  0.047935644            3 
  442000    1.0756042    -5.322809    250.15672  0.047163786  0.047914166            5 
  443000    1.0650759   -5.3630039    249.89963  0.047008959  0.047893172            3 
  444000    1.0872434   -5.3701145    250.01293  0.046924348  0.047871997            2 
  445000    1.1051244   -5.3766865    250.89288  0.046983686  0.047851224            4 
  446000    1.0728525   -5.3276927    251.84512  0.047056263      0.04783            2 
  447000    1.0436717   -5.3663719     251.0907  0.046810346  0.047808645            2 
  448000    1.0627134   -5.3401321    252.16983  0.046906591  0.047786561            4 
  449000    1.0820073   -5.3755078    250.99985  0.046584975  0.047763074            2 
  450000    1.0888619   -5.3543745    252.58372  0.046774763   0.04773916            3 
  451000    1.0668624   -5.3805709    252.39036  0.046635321  0.047714955            3 
  452000    1.0768434   -5.3472368    253.03704  0.046651371  0.047691037            4 
  453000     1.075393   -5.3324799    254.21405  0.046764911  0.047667799            5 
  454000    1.0627326   -5.3744836    254.84233  0.046777226  0.047645208            3 
  455000    1.0744598   -5.3533021    254.58156  0.046626659  0.047622281            4 
  456000    1.0690864   -5.3507987     254.9347  0.046588943   0.04759767            5 
  457000    1.0713414   -5.3481523    255.02564   0.04650358  0.047573408            3 
  458000    1.0675446   -5.4088862    255.73368  0.046530874  0.047549475            4 
  459000    1.0720487   -5.4280322    255.92858  0.046464884  0.047525676            2 
  460000    1.0473168   -5.3531938       257.15  0.046585145  0.047502861            4 
  461000    1.0749606   -5.3636109    256.97998  0.046453358  0.047479744            2 
  462000    1.0825112   -5.3773011    257.96073  0.046529714  0.047456351            2 
  463000    1.0506257   -5.3732437    257.94988  0.046427265  0.047433544            2 
  464000    1.0456805    -5.365131    259.43734   0.04659435  0.047411217            3 
  465000    1.0691446     -5.38193    259.48327  0.046502377  0.047389891            3 
  466000    1.0364487    -5.359331    261.63904  0.046788097  0.047369587            2 
  467000    1.0877871   -5.3741293    261.50123  0.046663317  0.047349169            3 
  468000    1.0506931   -5.3630718    261.67605  0.046594738  0.047328586            2 
  469000    1.0765753   -5.3585714    261.76632  0.046511429  0.047308262            5 
  470000    1.1030625   -5.4175279    260.09559   0.04611624  0.047286732            2 
  471000    1.0580851    -5.408836    262.57712  0.046457382  0.047264292            3 
  472000    1.0862035   -5.3557245    263.86238  0.046585872  0.047242413            5 
  473000    1.0873819   -5.3627627    264.87692  0.046666123  0.047221965            4 
  474000    1.0894194   -5.3577442    264.55838   0.04651167  0.047202222            2 
  475000    1.0753378    -5.400117    264.80468  0.046456961  0.047181682            6 
  476000    1.0683842   -5.3766204    265.87606  0.046546929  0.047160759            2 
  477000     1.048234    -5.344216    265.86699  0.046447761  0.047140444            2 
  478000    1.0781531   -5.4079228    265.76981  0.046333648  0.047118986            1 
  479000    1.0503195   -5.4223631     265.9154  0.046262248  0.047097946            3 
  480000    1.0604523   -5.4283719    266.83413   0.04632537  0.047077166            6 
  481000    1.0586712   -5.3821929    267.84704  0.046404545  0.047055814            2 
  482000    1.0352245   -5.3559108    268.32588  0.046391058  0.047034574            2 
  483000    1.0667196   -5.3883102    267.85485  0.046213743   0.04701327            2 
  484000    1.0741159   -5.4080385    267.08456  0.045985634  0.046990741            5 
  485000    1.0527254   -5.4472428    267.39814  0.045944698  0.046968252            3 
  486000    1.0714599    -5.405341    268.76796  0.046085042   0.04694527            3 
  487000    1.0821257   -5.4183045    269.43101  0.046103869  0.046922307            3 
  488000    1.0753805   -5.3969157    269.58908  0.046036387  0.046900286            4 
  489000    1.0703022   -5.3942989    270.36037  0.046073683  0.046879545            3 
  490000    1.0649447   -5.4098518    269.54742  0.045841398  0.046856933            2 
  491000    1.0465835   -5.4290866    270.70947  0.045945259  0.046835878            3 
  492000    1.0271858   -5.4350751    271.94816   0.04606168   0.04681405            2 
  493000    1.0550066    -5.372388    272.43434  0.046050429  0.046792036            1 
  494000    1.0652091   -5.4336281    272.73337  0.046007653  0.046771055            3 
  495000    1.0553267   -5.4258599    273.10119  0.045976632  0.046749904            2 
  496000    1.0668836   -5.4221813    272.55286  0.045791811  0.046727572            6 
  497000    1.0498124    -5.397879    273.40111  0.045841903  0.046705565            4 
  498000    1.0617837   -5.3844435    274.44751  0.045924952  0.046684214            6 
  499000    1.0436512   -5.3964829    275.34847  0.045983378  0.046662051            2 
  500000    1.0339424   -5.4238912     275.1435  0.045857249  0.046639746            5 
  501000    1.0487591    -5.381527    275.79192  0.045873573  0.046618237            2 
  502000    1.0455483   -5.4149231       276.14  0.045839973  0.046597055            3 
  503000    1.0522708   -5.4151373     277.1082  0.045909244  0.046575963            4 
  504000    1.0567627   -5.4203884    277.21452  0.045835734  0.046554747            2 
  505000    1.0371198   -5.3857299    277.69017   0.04582346  0.046533112            2 
  506000    1.0513324   -5.4306558    276.78369  0.045583611  0.046510365            4 
  507000    1.0457747   -5.3958152    277.99911  0.045693477  0.046487451            4 
  508000    1.0587147   -5.4020702    277.81052  0.045572592  0.046464413            5 
  509000    1.0288574   -5.4035189    278.74859  0.045636638  0.046440563            4 
  510000    1.0352447   -5.4480868    277.58366  0.045356808  0.046416503            4 
  511000    1.0620209   -5.4236472    280.02441  0.045666082  0.046393419            2 
  512000    1.0569513   -5.4087687     279.3309  0.045464013  0.046370205            2 
  513000    1.0341224   -5.4298184    279.94968  0.045475907  0.046347154            2 
  514000    1.0336955   -5.4277756    280.36334  0.045454497  0.046323101            2 
  515000     1.043093   -5.4187761    280.39874  0.045371965  0.046300299            2 
  516000    1.0516381   -5.3914317    281.15908  0.045406829  0.046276626            2 
  517000    1.0617959   -5.4336868    281.30642   0.04534275  0.046253512            3 
  518000     1.067738   -5.4180232    281.70306  0.045319024  0.046230438            7 
  519000      1.04245   -5.4154846    282.91569  0.045426411  0.046207659            5 
  520000    1.0597414   -5.4169329     283.1163  0.045371202  0.046184874           10 
  521000    1.0436747   -5.4259135    282.17071  0.045132871  0.046160826            2 
  522000    1.0227896   -5.4259523    282.78667  0.045144743  0.046136295            3 
  523000    1.0383523   -5.4410199    284.13106  0.045272636   0.04611281            5 
  524000    1.0381104   -5.4207166    284.72414  0.045280557  0.046089065            3 
  525000    1.0394687   -5.4024007    285.50636  0.045318469    0.0460662            2 
  526000    1.0360109   -5.4346486    285.33005   0.04520438  0.046043503            6 
  527000     1.030988   -5.4762222    285.62831  0.045165766  0.046019756            2 
  528000    1.0411963   -5.4311852    286.37776   0.04519851  0.045996867            3 
  529000    1.0530803   -5.4159197     287.2437  0.045249481   0.04597391            3 
  530000    1.0318784   -5.4431309    287.36995  0.045183955  0.045951656            3 
  531000    1.0326776   -5.4295638    286.97206  0.045036419  0.045929364            2 
  532000     1.038339   -5.4866727    286.29344  0.044845463  0.045905561            3 
  533000     1.060161   -5.4435729    286.98879  0.044870043  0.045882422            2 
  534000    1.0331052   -5.4540719    289.95212  0.045248458  0.045860274            5 
  535000    1.0520276   -5.4140391    288.50106   0.04493786  0.045837608            3 
  536000    1.0146239   -5.4460087    289.23582  0.044968255  0.045815381            5 
  537000    1.0230573    -5.445273    290.21283  0.045036131  0.045793096            4 
  538000    1.0389248   -5.4492966    291.42639  0.045140394  0.045771365            8 
  539000    1.0372469   -5.4498927    291.95521  0.045138407  0.045749974            3 
  540000    1.0475618   -5.4148901    293.09395  0.045230548  0.045727632            3 
  541000    1.0400858   -5.4223864    292.83488  0.045107036  0.045706179            2 
  542000    1.0230512   -5.4719111    293.77235   0.04516795  0.045684452            5 
  543000    1.0588481   -5.4313228    293.97871  0.045116438  0.045663801            3 
  544000     1.036707   -5.4597885    292.38077  0.044788721  0.045643078            7 
  545000    1.0446018   -5.4418432    293.63244  0.044897926  0.045621259            3 
  546000    1.0214127   -5.4387037    295.52139  0.045103997  0.045600367            3 
  547000    1.0281864   -5.4374173    295.48768  0.045016404  0.045580206            4 
  548000    1.0231272    -5.433892    296.01737  0.045014806  0.045560125            6 
  549000    1.0355636   -5.4772915     296.3801  0.044987871  0.045539102            6 
  550000    1.0244461   -5.4016874    298.15598  0.045175149  0.045518579            3 
  551000    1.0541623   -5.4505238    295.99943  0.044767004  0.045498096            3 
  552000    1.0433028   -5.4353404     297.6972  0.044942209  0.045477814            3 
  553000    1.0382364   -5.4485025      298.891  0.045040838  0.045457775            3 
  554000    1.0411376   -5.4867447    298.58035  0.044912808  0.045437399            3 
  555000    1.0231333    -5.451063    298.34706  0.044796856  0.045417062            4 
  556000     1.040941   -5.4805582    298.70982  0.044770656  0.045396298            3 
  557000      1.05386   -5.4919002    298.98744  0.044731813  0.045375129            4 
  558000    1.0119554   -5.4418103    300.75688  0.044915902  0.045354375            3 
  559000    1.0443445   -5.4662366    299.54726  0.044655227  0.045333684            2 
  560000    1.0320967   -5.4853812    300.44853  0.044709602   0.04531259            2 
  561000     1.040242    -5.489052    299.96764  0.044558473  0.045291565            2 
  562000    1.0282338   -5.4442419    300.75253   0.04459557  0.045270806            4 
  563000    1.0361578   -5.4241354    301.56782  0.044637036  0.045249968            2 
  564000    1.0363007   -5.4633472    301.84134  0.044598307  0.045229192            7 
  565000    1.0539748   -5.4780175    301.52605  0.044472869  0.045207832            4 
  566000    1.0098618   -5.4656626    302.82763   0.04458593   0.04518713            5 
  567000    1.0372963   -5.4736114    303.99938  0.044679509  0.045166611            5 
  568000     1.047403   -5.4822706    303.19845  0.044483341  0.045145174            5 
  569000    1.0271624   -5.4357659    303.49661   0.04444883  0.045124309            2 
  570000    1.0375771    -5.441187    304.60205  0.044532464  0.045103114            3 
  571000   0.99493344   -5.4361377     306.2515  0.044695198  0.045081697            1 
  572000    1.0297539   -5.4778437    305.30282  0.044478849  0.045060113            3 
  573000    1.0375722   -5.4811207    305.23907  0.044391953  0.045038325            4 
  574000    1.0436604   -5.4593627    306.28012  0.044465756  0.045017248            1 
  575000     1.009935   -5.4561438    306.10544  0.044363107  0.044995702            1 
  576000    1.0156315   -5.4877518     306.9783   0.04441237  0.044974179            2 
  577000    1.0224677   -5.4582574    307.18593  0.044365386  0.044952373           12 
  578000    1.0228354   -5.4453495    308.30738  0.044450314  0.044930867            4 
  579000    1.0262492   -5.4657907    308.72073  0.044433035  0.044909988            2 
  580000    1.0345015   -5.4853501    308.48829   0.04432303  0.044888842            4 
  581000    1.0110026   -5.4710436    308.94461  0.044312193  0.044867262            4 
  582000    1.0298751    -5.520758    308.08305  0.044112693  0.044845043            4 
  583000    1.0339752   -5.4953778    309.04815  0.044174978  0.044822813            4 
  584000    1.0469904   -5.4763365    309.92061  0.044223832   0.04480131            2 
  585000    1.0264631     -5.46919    310.98069  0.044299244  0.044779833            7 
  586000    1.0106061   -5.4818238    311.19381  0.044253954  0.044758274            6 
  587000   0.98517587   -5.5202166    310.60505  0.044094982  0.044737749            3 
  588000    1.0278629   -5.5178403    311.68967  0.044173706  0.044716559            3 
  589000    1.0237826   -5.4956289    312.14302   0.04416285  0.044695884            3 
  590000    1.0188148   -5.5141808    310.81127  0.043899897   0.04467422            7 
  591000    1.0029441   -5.4746863    312.96888  0.044129848  0.044652147            4 
  592000    1.0135741    -5.457582    312.79339    0.0440306  0.044630026            3 
  593000    1.0245776   -5.4860091    313.36983  0.044037356  0.044607883            6 
  594000    1.0216052    -5.465945    313.73652  0.044014663  0.044586398            3 
  595000    1.0015576   -5.4868031    313.68321  0.043933223  0.044564447            2 
  596000    1.0164641   -5.5293733    312.43271  0.043684663  0.044542398            4 
  597000     0.973721   -5.5096207    315.87301   0.04409171  0.044520341            5 
  598000    1.0173085   -5.4827603    315.72071  0.043996754   0.04449842            2 
  599000    1.0071468   -5.5388831    314.87993  0.043806335  0.044476397            4 
  600000    1.0318953   -5.5084162     314.8788  0.043733167  0.044454347            3 
  601000    1.0122664   -5.5241409      317.693   0.04405061  0.044431966            4 
  602000    1.0252966   -5.4960577    316.78686  0.043852002  0.044409566            3 
  603000   0.99826619   -5.5098117    317.12361  0.043825817  0.044387202            2 
  604000    1.0047217   -5.4914297    316.88217  0.043719946  0.044364833            6 
  605000    1.0108766   -5.5161126     316.7022  0.043622892  0.044342542            8 
  606000    1.0051501   -5.5039321    318.00159  0.043729592  0.044320078            3 
  607000    1.0195115   -5.4979983    317.61127  0.043603964  0.044297611            5 
  608000    1.0043913   -5.4718052    319.29821  0.043763461  0.044275366            3 
  609000   0.98964563   -5.5167555    319.11966  0.043667167  0.044253582            2 
  610000   0.99187105   -5.5249535    319.38046   0.04363121  0.044231349            5 
  611000   0.98751018   -5.5143397    318.80751  0.043481657  0.044208722            5 
  612000    1.0055059   -5.5058569    320.93388  0.043700147  0.044185898            3 
  613000    1.0117782    -5.501911     320.3417  0.043548355  0.044163923            5 
  614000    1.0221429   -5.5144126    320.88376  0.043550999   0.04414181            4 
  615000    1.0071152   -5.5038527     322.1661  0.043653944   0.04412016            3 
  616000   0.98883118   -5.5030613      323.346  0.043742695  0.044099106            5 
  617000   0.98020321   -5.4881211    323.50395  0.043693131  0.044077712            2 
  618000     1.017429   -5.5197976     323.5273   0.04362558  0.044056135            2 
  619000    1.0193598   -5.5243913    323.10284  0.043497959  0.044034363            4 
  620000    1.0151798   -5.5140568    323.64277  0.043500372  0.044013452            1 
  621000    1.0196928   -5.5027135    325.07189    0.0436221  0.043992717            4 
  622000   0.99293487   -5.5087589    323.66948  0.043364078  0.043971486            7 
  623000    1.0254452   -5.5429671    324.92254  0.043462083  0.043950248            3 
  624000   0.98853585   -5.5388976    324.61729  0.043351669  0.043928472            3 
  625000    1.0057127   -5.5005613    325.14116  0.043352155  0.043906862            2 
  626000    1.0100023   -5.5146542    325.95576  0.043391342  0.043885757            3 
  627000    1.0170932   -5.5420314    325.73489  0.043292781  0.043864309            4 
  628000    1.0071923   -5.5215404    326.13981  0.043277576  0.043842514            3 
  629000   0.98940989   -5.5038717    326.94232  0.043315092  0.043820352            1 
  630000    1.0155232   -5.5183081    327.85479  0.043367036  0.043798896            4 
  631000    0.9960976    -5.501182    328.16262  0.043338961  0.043777601            2 
  632000   0.96951176   -5.5120897    328.47968  0.043312194  0.043755884            3 
  633000    1.0005677   -5.5270206    327.66994   0.04313717  0.043734055            3 
  634000   0.98093924    -5.503668    329.71063   0.04333736  0.043713044            6 
  635000    1.0182602   -5.4937184    330.79482  0.043411393  0.043691936            3 
  636000    1.0254891   -5.5148006    329.87921  0.043223167  0.043671039            2 
  637000    1.0063195   -5.5238464    329.40738  0.043093587  0.043650172            3 
  638000   0.98678844   -5.5029126    331.10003   0.04324713  0.043628999            4 
  639000    1.0050987   -5.5335952    330.93328  0.043157705  0.043608376            4 
  640000    1.0060169   -5.5368739    330.56023  0.043041697  0.043587895            4 
  641000    1.0012598   -5.5200691    332.42755   0.04321731   0.04356723            3 
  642000   0.98757012   -5.5115865    331.49384  0.043028796  0.043546763            7 
  643000   0.99007715   -5.5736016    332.00765  0.043028467  0.043526415            4 
  644000    1.0009765   -5.5193014    332.58854   0.04303682   0.04350685            3 
  645000    1.0148585   -5.5274795    333.14018  0.043041367  0.043487107            2 
  646000   0.99872911   -5.5151801    333.86943  0.043068812   0.04346663            3 
  647000   0.97409313   -5.5024221    333.81917  0.042995772  0.043446179            3 
  648000   0.98438724   -5.5162319    333.89819  0.042939582  0.043425503            4 
  649000   0.98623765   -5.5245963    335.87864  0.043127714  0.043404859            2 
  650000    1.0154025   -5.5379849     335.8192  0.043053743  0.043384779            4 
  651000   0.98999223   -5.5263388    335.36863  0.042929932  0.043364656            7 
  652000   0.99520848    -5.532043    335.55938  0.042888469  0.043343586            4 
  653000   0.99983085   -5.5055979    336.89574  0.042993331  0.043322871            2 
  654000   0.99266359   -5.5426835    335.86149  0.042795806   0.04330255            3 
  655000   0.98941356   -5.5440075    337.03152  0.042879328  0.043281617            4 
  656000   0.99355056   -5.5026651    338.22396  0.042965441  0.043261483            3 
  657000   0.99212997   -5.5320767    338.96613  0.042994181  0.043241008            6 
  658000   0.98288543   -5.5753034    338.38347  0.042855049  0.043220603            4 
  659000   0.99255376   -5.5348333     338.6702  0.042826278   0.04320016            8 
  660000   0.97761354   -5.5316488    338.91604  0.042792429   0.04317945            3 
  661000    1.0185162   -5.5165279    340.00429  0.042864888  0.043158874            4 
  662000    1.0031377   -5.5731501    339.07203  0.042682784  0.043138116            3 
  663000   0.97931001   -5.5826241    339.18585  0.042632711  0.043117273            4 
  664000    1.0211299   -5.5711882    340.32938  0.042712021  0.043096896            9 
  665000   0.98312861   -5.5584162    341.07452  0.042741168  0.043076905            2 
  666000   0.98896788   -5.5583895    340.59778   0.04261734  0.043057234            6 
  667000   0.97725957    -5.561575    341.16456  0.042624258  0.043037127            3 
  668000   0.98417255   -5.5229697     342.4104  0.042715869  0.043017538            4 
  669000   0.98649357   -5.5639637    342.08891  0.042611972   0.04299755            2 
  670000    1.0006912   -5.5258078     343.8306     0.042765  0.042977557            2 
  671000    1.0021223   -5.5735139    343.49203  0.042659219  0.042957991            2 
  672000   0.97870632   -5.5491777    344.18542  0.042681723  0.042938099            3 
  673000   0.98267563   -5.5363485    344.34857  0.042638505  0.042918259            3 
  674000   0.98130762   -5.5509642    345.76143  0.042749929  0.042898009            2 
  675000   0.99407724   -5.5635548    344.45777  0.042525651  0.042877765            5 
  676000   0.97927323   -5.5986314    343.41975  0.042334782  0.042856559            4 
  677000    0.9941072   -5.5499445     344.6619  0.042425148  0.042835471            4 
  678000    1.0009553   -5.5650738    345.78537   0.04250066  0.042814689            4 
  679000   0.96364846   -5.5235653    345.27355  0.042375251  0.042793984            5 
  680000   0.99603381   -5.5743722    344.99595  0.042278916  0.042773096            3 
  681000   0.94210799   -5.5709323     345.4452  0.042271806  0.042751245            5 
  682000   0.98311192   -5.5647826    345.03034  0.042159132  0.042729625            3 
  683000   0.97730381   -5.5708871    346.94573  0.042331105   0.04270865            3 
  684000   0.97019189   -5.5792043    346.48415  0.042212982  0.042686914            5 
  685000   0.96946084    -5.552931    347.42651  0.042265999  0.042665434            2 
  686000   0.96364086   -5.5487381    346.49969  0.042091798  0.042643377            4 
  687000   0.98090151   -5.5735694    346.14192  0.041987132  0.042620899            2 
  688000     0.985438   -5.5649651    346.27738  0.041942512  0.042598333            3 
  689000   0.97550868   -5.5682077    347.10552    0.0419818  0.042576274            2 
  690000    0.9742078   -5.5814572    347.43335   0.04196055  0.042554427            3 
  691000   0.95759281   -5.5687236    348.72751  0.042055899  0.042532403            3 
  692000   0.97528271   -5.5607981    348.78123  0.042001593  0.042510633            8 
  693000   0.99626449    -5.578561    348.76931  0.041939551   0.04248919            3 
  694000   0.96473961   -5.5785467    349.73569  0.041995159   0.04246752            5 
  695000   0.95786733   -5.5871689    348.61368  0.041800201  0.042445737            8 
  696000   0.99121006   -5.5358794    351.59887  0.042097565  0.042423687            3 
  697000   0.99992884   -5.5729287     349.8999  0.041834038  0.042402087            2 
  698000   0.96854298   -5.5969013    349.77704  0.041759436   0.04237979            3 
  699000   0.98727136    -5.582488    350.58373  0.041795867   0.04235755            5 
  700000   0.98793941   -5.5965675     351.4739  0.041842131  0.042335375            4 
  701000   0.97527398   -5.5649542     350.8722  0.041710913  0.042312957            8 
  702000   0.98877551   -5.5548036    351.54364  0.041731202  0.042290105            3 
  703000   0.97737127    -5.580382    350.07171  0.041497358  0.042267267            4 
  704000   0.95653072   -5.5946112    350.65685  0.041507676  0.042243741            4 
  705000   0.96995155   -5.5607729       352.19  0.041630023  0.042220333            6 
  706000    0.9717104   -5.5896484    351.93619  0.041541099   0.04219671            5 
  707000   0.97771391   -5.5614419    352.67004   0.04156884  0.042173315            4 
  708000   0.94984556    -5.603598    353.12635  0.041563836  0.042149906            5 
  709000   0.96189817   -5.5899851    352.10105  0.041384703  0.042126351            4 
  710000    0.9411747    -5.545309    352.59623  0.041384535  0.042102554            4 
  711000   0.98743753   -5.6033214    352.62669  0.041329898  0.042078697            5 
  712000   0.96749107   -5.5784046    354.32493  0.041470614  0.042055234            4 
  713000   0.97384127    -5.626966    353.37679  0.041301635  0.042031511           12 
  714000    0.9698299   -5.6075931    353.06524  0.041207428  0.042007537            4 
  715000    0.9386322   -5.5806649    354.39426  0.041304692  0.041984143            5 
  716000    0.9593848   -5.5789544    354.79933   0.04129415  0.041961055            2 
  717000   0.96697053   -5.6080026    354.11895  0.041157479  0.041938204            9 
  718000   0.96783205   -5.5888474    356.02799  0.041321726  0.041914527            4 
  719000   0.98358761   -5.6212277    355.55835  0.041209823  0.041890563            5 
  720000    0.9837249   -5.5481955    356.74558  0.041289998  0.041867218            3 
  721000   0.97049132    -5.588507     355.6798  0.041109547  0.041843912            6 
  722000   0.97129978   -5.6029544     356.0439  0.041094633  0.041820497            6 
  723000   0.98148416   -5.6213473    358.13284  0.041278566  0.041797011            9 
  724000   0.96528475   -5.6138068    359.10223   0.04133313  0.041774282            5 
  725000   0.95922004   -5.5824208    357.97705  0.041146788  0.041751752            2 
  726000    0.9329488   -5.5938297    358.86884  0.041192475   0.04172917            3 
  727000   0.95587859   -5.5959249    359.16591  0.041169866  0.041706662           14 
  728000    0.9477126   -5.5982863    358.47583  0.041034322  0.041684289            4 
  729000   0.97088882   -5.6537335    358.82457  0.041017898  0.041661439            5 
  730000   0.92927777   -5.6152704    359.19517  0.041004015  0.041638858            4 
  731000   0.95389031   -5.6514216    359.80344  0.041017264  0.041616459            6 
  732000   0.97366003   -5.6064348    360.91131  0.041087353  0.041594135            3 
  733000   0.98254492   -5.6131682    361.41108  0.041088117  0.041571879            7 
  734000   0.96298427   -5.6464186     360.6131  0.040941542    0.0415494            3 
  735000   0.95512359   -5.6138523    362.28613  0.041075525  0.041527444            4 
  736000   0.95819492    -5.583831    363.09324    0.0411111  0.041505711            2 
  737000   0.93877498   -5.6097544     363.1288   0.04105934   0.04148366            4 
  738000   0.96998066   -5.6509053    361.53957  0.040824251  0.041461445            6 
  739000   0.96188551   -5.6221918    363.75586  0.041018929  0.041439803            3 
  740000   0.96393754   -5.5836525    364.70628  0.041070527  0.041418555            3 
  741000   0.96167994   -5.6129373    364.70207  0.041014628  0.041397549            4 
  742000   0.97750945   -5.6410728    365.35121  0.041032256  0.041376715            7 
  743000   0.97561519   -5.6433929      366.139  0.041065388  0.041355263            3 
  744000   0.96332226   -5.6174952    365.72785  0.040964141   0.04133438            4 
  745000   0.95827498   -5.6458266    365.46104  0.040879311  0.041313703            3 
  746000   0.96607279   -5.6568937    366.09434  0.040895256  0.041292454           10 
  747000   0.95633862   -5.6455098    366.84297  0.040924026  0.041271711            5 
  748000   0.96697824   -5.6512954    366.85126  0.040870239  0.041250428            4 
  749000   0.92921407   -5.6276327    369.09632  0.041065456  0.041229297            4 
  750000   0.95684115   -5.6899868    366.39955  0.040711061  0.041208242           17 
  751000   0.95243946   -5.6191995    368.98073  0.040943267   0.04118758            3 
  752000   0.95111364   -5.6388449    366.76606  0.040643402  0.041166391            8 
  753000   0.98371774   -5.6380892    368.80437  0.040815003  0.041145684            6 
  754000   0.98401745    -5.602796    369.98646  0.040891519  0.041124493            4 
  755000   0.94443507    -5.601925     369.4844  0.040781943  0.041103633            5 
  756000   0.95507017   -5.6278111     370.3648  0.040825044  0.041082288            6 
  757000   0.94258407   -5.6548166    369.00226   0.04062112  0.041061093            5 
  758000   0.93650511   -5.6528833    369.89761  0.040665964  0.041039955            7 
  759000   0.95298522   -5.6358083    370.84904  0.040716847  0.041018835            8 
  760000    0.9604008   -5.6429653    370.89646  0.040668471  0.040997698            3 
  761000   0.94690204   -5.6259451    371.16774  0.040644737  0.040976027            5 
  762000   0.94174559   -5.6010672    371.45685  0.040623015  0.040954711            3 
  763000    0.9342607   -5.6520469    370.06735  0.040418016  0.040933617            6 
  764000   0.92729331   -5.6241508    371.75502  0.040549195  0.040912319            3 
  765000   0.94089965   -5.6419789     372.0326  0.040526428   0.04089096            5 
  766000   0.94561001   -5.6198246    373.21296  0.040601933   0.04087009            2 
  767000   0.96956932   -5.6407924    371.99756  0.040416945  0.040848447            3 
  768000   0.97811422   -5.6539764    372.62343   0.04043223  0.040827174            2 
  769000   0.94706861   -5.6572317    372.73302  0.040391528   0.04080543            5 
  770000   0.92042207    -5.643593    373.47251  0.040419103  0.040783455            2 
  771000   0.95027073    -5.669283    372.69816  0.040282983  0.040761411            4 
  772000   0.94658722   -5.6532953    373.46759  0.040313859  0.040738877            2 
  773000   0.92669762   -5.6598722    373.23128  0.040236231  0.040716536            4 
  774000   0.95473525   -5.6519723    371.55115  0.040003354  0.040693751            4 
  775000   0.93623124      -5.6499     372.9989  0.040107409  0.040670548            4 
  776000    0.9338138   -5.6611606    373.37174  0.040095762  0.040647795            4 
  777000   0.93546045    -5.645693    373.80556  0.040090686  0.040624982            6 
  778000    0.9469878   -5.6434338    373.71355    0.0400293   0.04060209            6 
  779000   0.95323757   -5.6479301    375.59326  0.040178996  0.040579248            6 
  780000   0.94209432   -5.6507506    375.91438  0.040161793  0.040556857            5 
  781000   0.95233733   -5.6600357    374.58975   0.03996903  0.040534511            5 
  782000   0.93893213   -5.6391188    376.23947   0.04009372  0.040512268            3 
  783000    0.9542803   -5.6187535     377.0781  0.040131769  0.040490524            6 
  784000     0.966278   -5.6342228    376.81727  0.040052856  0.040468724           10 
  785000   0.93421138   -5.6681699    376.22712  0.039939185  0.040446477            3 
  786000   0.94556772   -5.6676006    376.27482  0.039893428   0.04042405            1 
  787000   0.93073784   -5.6546299    377.67936  0.039991462  0.040401769            3 
  788000   0.92747218   -5.6700134    377.10763  0.039880248  0.040379431            4 
  789000   0.93034831    -5.658066      377.994   0.03992332  0.040356611            3 
  790000   0.93622753   -5.6450222    378.37434  0.039912905  0.040334391            4 
  791000   0.93048125   -5.6598514    378.87198  0.039914874  0.040312457            7 
  792000    0.9490452   -5.6681025    379.07089  0.039885405  0.040290081            3 
  793000    0.9498575   -5.6474851    379.34113  0.039863507  0.040268206            2 
  794000   0.93250311   -5.6194247    380.23751  0.039907379   0.04024623            6 
  795000   0.93716634   -5.6618171    380.17179  0.039850292  0.040224241            5 
  796000   0.93221293    -5.668973    380.59296  0.039844322  0.040202253            5 
  797000    0.9396537   -5.6550802    380.47957  0.039782473  0.040180108            4 
  798000   0.93206075    -5.683097     379.1484  0.039593609  0.040158102            3 
  799000    0.9172782   -5.6449023    380.67414  0.039703186  0.040136533            2 
  800000   0.93524313   -5.6388624    381.10674  0.039698619  0.040114948            6 
  801000   0.92306868   -5.6655774    382.06979   0.03974925   0.04009292            9 
  802000   0.93727995   -5.6317328     382.3455  0.039728335  0.040071082            4 
  803000   0.96231613   -5.6674322    381.01562  0.039540849  0.040048902            3 
  804000   0.93715156   -5.6491869    382.14856  0.039609096  0.040026312            4 
  805000   0.93669257   -5.6797354    380.65506  0.039405286  0.040003563           11 
  806000   0.95528938   -5.6414163     382.1428  0.039510215  0.039980621            4 
  807000   0.94870183   -5.6830297    382.66168  0.039514836  0.039957954            5 
  808000   0.96944381   -5.7086607    381.77443  0.039374425   0.03993518            5 
  809000   0.94539326   -5.6559498    381.95957  0.039344825  0.039912216            4 
  810000   0.96107449    -5.655101    381.55288  0.039254411  0.039889242            1 
  811000   0.91752297   -5.6797129    382.13887  0.039266222  0.039866271            4 
  812000   0.92476156    -5.691855    383.18863  0.039325599  0.039843346            4 
  813000   0.93326628   -5.6748981    382.85549   0.03924308  0.039820501            3 
  814000    0.9287607    -5.687112    383.23788  0.039234017  0.039797581            6 
  815000   0.94377647   -5.6854755    384.33165  0.039297714   0.03977452            3 
  816000   0.93791286    -5.725435    383.08557    0.0391223  0.039751438            3 
  817000   0.92233292   -5.6724587    384.92866  0.039262409  0.039728397            4 
  818000   0.92856655   -5.6665332    384.03865  0.039123742  0.039705187            5 
  819000   0.92972927   -5.7023192    384.40266  0.039113009  0.039681543           10 
  820000   0.92845077    -5.691777    383.59957  0.038983696  0.039658113            3 
  821000   0.91507627   -5.6819604    384.63169  0.039040976  0.039634858            4 
  822000   0.91912484   -5.6930224    385.21537  0.039052654  0.039611391            3 
  823000   0.92116446   -5.7020006    385.13792   0.03899736  0.039587759            6 
  824000   0.92007842   -5.7306727    384.28417   0.03886369  0.039563983            5 
  825000   0.92914121   -5.6652197    386.38247  0.039028532    0.0395408            3 
  826000   0.92764609   -5.6858717    386.43445  0.038986527  0.039517598            3 
  827000   0.91239587   -5.7340642    386.61317  0.038957393  0.039494261            5 
  828000    0.9118907   -5.7003213     385.5181  0.038800131  0.039470608            4 
  829000   0.92469263   -5.7266014    386.89442  0.038891678  0.039447426           13 
  830000   0.91682032   -5.6845891    387.59937  0.038915599  0.039424451            6 
  831000   0.95440577   -5.6813258    387.28265  0.038837009  0.039401045            4 
  832000   0.93081788   -5.6853247    388.63789   0.03892607  0.039378099            7 
  833000   0.90762502   -5.6916412    388.32382  0.038847921  0.039354908            5 
  834000   0.91255214   -5.6653848    389.35085  0.038903962  0.039332037            3 
  835000   0.89572143   -5.6802849    389.38247  0.038860525  0.039309007            4 
  836000   0.94250903   -5.7089393    389.23115  0.038798958  0.039286044            7 
  837000   0.90221255   -5.6861931    388.68343  0.038698072  0.039262856            7 
  838000   0.91817324      -5.7026    389.85178  0.038768076  0.039239868            4 
  839000   0.94775686   -5.6848351    389.61263  0.038698116  0.039217344            4 
  840000   0.92747917   -5.6994492    391.38939  0.038828313  0.039194982            7 
  841000   0.91837802   -5.7058543      390.933   0.03873692  0.039172725            9 
  842000   0.91865827   -5.6848667    390.59798  0.038657758  0.039149756            2 
  843000    0.9331224   -5.7148156    390.76354  0.038628266  0.039126932            4 
  844000   0.91300442   -5.7102274    390.88041  0.038594037  0.039104161            4 
  845000   0.90656552    -5.702435    391.85194  0.038644175  0.039080946            6 
  846000   0.93506931   -5.7130066    391.48102  0.038561961  0.039057974            3 
  847000   0.90059628   -5.6841095    392.28402  0.038595437  0.039034919            5 
  848000   0.92545421    -5.705763    391.64162  0.038486794  0.039011353            4 
  849000   0.91473442   -5.7615229    390.71075  0.038350093  0.038987896            3 
  850000   0.92601183   -5.7308734     392.0862  0.038439823  0.038964404            6 
  851000   0.91853917   -5.7180874    391.27638  0.038315352  0.038940619            4 
  852000   0.93698932   -5.7336618    391.92597  0.038333917  0.038916884            7 
  853000   0.90212188   -5.7102798    392.69004  0.038363623   0.03889392            5 
  854000    0.9035967    -5.744776    392.46324  0.038296569  0.038870851            7 
  855000   0.90831352   -5.6911803    393.52698  0.038355456  0.038847844           10 
  856000   0.91089573   -5.7048652    394.17075   0.03837332  0.038825091            6 
  857000   0.91201168   -5.7375155    393.04918  0.038219484  0.038801896            5 
  858000   0.91510199   -5.7170714    393.79428  0.038247308  0.038778551            3 
  859000   0.89933277   -5.6974059    394.47928  0.038269236  0.038755297            4 
  860000   0.91975043   -5.7365302    393.89482  0.038168102  0.038732286            3 
  861000   0.89589179   -5.7488697    394.17923  0.038151299  0.038709237            5 
  862000   0.90845541   -5.7193777    396.02606  0.038285582   0.03868589            7 
  863000   0.93392011   -5.7105758    396.14836  0.038253028  0.038662815            4 
  864000   0.91202444   -5.7144606    395.54526  0.038150585  0.038640086            4 
  865000   0.92330208   -5.7293334    396.18521  0.038168132  0.038617359            6 
  866000   0.90430152   -5.7173736    396.22617     0.038128  0.038594342            3 
  867000   0.92275475   -5.6861221    396.33812  0.038094783  0.038571205            3 
  868000    0.8881495   -5.7324236    396.49927  0.038066367  0.038548448            6 
  869000   0.89901417   -5.7215756    396.93683  0.038064522   0.03852536            2 
  870000   0.89156618   -5.7382423     396.0596  0.037936743  0.038502513            5 
  871000   0.91057692   -5.7321254    396.80083  0.037964106  0.038479455            9 
  872000   0.89640648   -5.7398397    396.56665  0.037898189  0.038456564            5 
  873000   0.92389302   -5.7176898    398.40981  0.038030719  0.038433615            5 
  874000   0.91379095   -5.6971925    398.72695  0.038017444  0.038410782            5 
  875000   0.90285761    -5.716641    398.92846  0.037993187  0.038388009            5 
  876000   0.88975773     -5.70128    399.78018  0.038030839  0.038365074            6 
  877000    0.8910424   -5.6876008    400.33351  0.038040052  0.038342438            2 
  878000   0.90222481    -5.727558    398.48131  0.037820929  0.038319846            5 
  879000   0.91702643   -5.7683807    399.07862   0.03783453  0.038296643            4 
  880000   0.88143232   -5.7481004    398.95651  0.037779972  0.038273544            6 
  881000   0.90757089   -5.7648564    398.17476  0.037663144  0.038250313            5 
  882000   0.89593786   -5.7589663    399.76734  0.037770913  0.038227082            7 
  883000   0.88210141   -5.7321793    400.98431  0.037842989  0.038204088            3 
  884000   0.89772953   -5.7377665    401.65866   0.03786375  0.038181264            5 
  885000   0.90846048   -5.7470407    400.04955  0.037669449  0.038158376           13 
  886000    0.9003303   -5.7601104    400.51242  0.037670468  0.038135603           10 
  887000   0.89504725   -5.7779739     399.8742  0.037568038  0.038112545            6 
  888000   0.89221598   -5.7478168    402.96538   0.03781582  0.038089844            3 
  889000   0.89452689   -5.7502435     402.1414  0.037696044  0.038067193            5 
  890000   0.90071219   -5.7483904    400.88369  0.037535926  0.038044232            3 
  891000    0.8798942   -5.7574391    400.69273  0.037475938  0.038021477            3 
  892000   0.88973334   -5.7618445    402.49017  0.037601847  0.037999017            8 
  893000   0.90175108   -5.7434525    402.79628  0.037588305  0.037976689            6 
  894000   0.87677848   -5.7211012    402.96773  0.037562242  0.037954473            4 
  895000   0.89526198   -5.7793913    402.69107  0.037494513  0.037931731           12 
  896000   0.89139681   -5.8042672    403.10062  0.037490757  0.037909126            3 
  897000   0.89064908   -5.7381701    403.36433  0.037473461  0.037886616            5 
  898000   0.89751306   -5.7647969    404.47475  0.037534776  0.037864133            5 
  899000   0.90912201   -5.7752038    403.72758  0.037423765  0.037841602            5 
  900000   0.89917392   -5.7762003    403.97348  0.037404952  0.037818843            8 
  901000   0.89361466    -5.773018    404.08066   0.03737335  0.037796335            3 
  902000   0.88961666   -5.7945965    404.21666  0.037344481  0.037773631           15 
  903000   0.87993408   -5.7186165    404.96461   0.03737215  0.037751016            4 
  904000   0.88844976   -5.7701449    404.99294   0.03733342  0.037728411            6 
  905000   0.88096925   -5.7742824    405.85613  0.037371651  0.037705605            6 
  906000   0.89509194   -5.7865737    404.37918  0.037194553  0.037682814            3 
  907000   0.89045627   -5.7787698    405.31389  0.037239424  0.037660164            3 
  908000    0.9086926   -5.7929762    405.23143  0.037190844  0.037637496            5 
  909000   0.90527385   -5.7742839    405.54699  0.037178859  0.037615149            4 
  910000   0.88872529   -5.7857268     406.6501   0.03723902  0.037592987            3 
  911000   0.89015318   -5.7843087    406.95678  0.037226196  0.037570567            2 
  912000     0.904499   -5.7873611    407.80711  0.037263077   0.03754829            5 
  913000   0.88390529     -5.75536    407.49035  0.037193351   0.03752621            3 
  914000    0.8635424   -5.7574405    407.58246  0.037161056  0.037504415           12 
  915000   0.87396086   -5.7742876    408.26733  0.037182817  0.037482329            5 
  916000    0.8685246   -5.7779146    408.64982  0.037177021   0.03746004            6 
  917000   0.89595201   -5.7720047    408.75426  0.037145971   0.03743816            5 
  918000   0.90748326   -5.7588847    407.81121    0.0370199  0.037415899            8 
  919000   0.88691094   -5.7642667    409.04095  0.037091127   0.03739392            5 
  920000   0.87344534   -5.7963528    409.22809  0.037067762  0.037371581            6 
  921000   0.90669061   -5.7890277    407.83105  0.036901109  0.037349196            8 
  922000   0.89760379   -5.8048352    409.46584  0.037008843   0.03732683            4 
  923000   0.89001957   -5.7756593     410.5425  0.037065954  0.037304693            3 
  924000   0.87948115   -5.7653658    409.26343  0.036910483  0.037282222            9 
  925000   0.87586173   -5.8015939    408.36267   0.03678943  0.037259453            6 
  926000    0.8899671   -5.7802619    408.13401  0.036729122  0.037236493            6 
  927000   0.88648545   -5.7747814    409.19543  0.036784918  0.037213566            5 
  928000   0.85834721   -5.7708365    410.49237  0.036861743  0.037190709           20 
  929000   0.88237834   -5.7771064    410.12815  0.036789393  0.037167934            6 
  930000   0.86839373   -5.7937508    409.34848  0.036679972  0.037144927            4 
  931000   0.87579186   -5.7817246    411.02282  0.036790442  0.037121942            7 
  932000   0.87481416   -5.7901917    409.39575  0.036605485  0.037098901            4 
  933000   0.87442229   -5.7850899    409.05233  0.036535578  0.037075824            3 
  934000   0.88367775   -5.7685154     409.4863   0.03653518  0.037052628            9 
  935000   0.86593714   -5.8159584    409.15186  0.036466298  0.037029281            5 
  936000   0.86811479   -5.7969161    410.81891  0.036575758   0.03700589            6 
  937000   0.86087233   -5.7790362    412.06733  0.036647752  0.036982891            5 
  938000   0.87436344   -5.7898735    411.52457  0.036560463  0.036960117            3 
  939000   0.88418565   -5.8176074    411.53374  0.036522341  0.036937338            4 
  940000   0.87816407   -5.7875834    411.60178   0.03648952  0.036914632            5 
  941000   0.88221465   -5.7754173    412.55002  0.036534717  0.036892138            4 
  942000   0.86213779   -5.8397572    412.32211  0.036475771  0.036869931           11 
  943000   0.88129442   -5.8074111     411.4729  0.036362045   0.03684722            6 
  944000    0.8873685   -5.7791092    414.58976  0.036598673  0.036825036            4 
  945000   0.86608142   -5.7800342    413.95574  0.036504034  0.036803001            4 
  946000    0.8714945   -5.8286878     413.1816  0.036397252  0.036780763           10 
  947000   0.87072126    -5.792132    413.06842  0.036348858  0.036758101            4 
  948000   0.87234915   -5.7953644    413.61957  0.036358964   0.03673584            8 
  949000   0.87403421    -5.776262    415.19973  0.036459407  0.036713332            4 
  950000   0.87948029   -5.7964612    414.86966  0.036392075  0.036691084            5 
  951000   0.88686575   -5.7912776    415.79766  0.036435126  0.036668741            7 
  952000   0.86975098   -5.8128084    414.22944   0.03625958  0.036646108           12 
  953000   0.88365492   -5.8004036    415.41427  0.036325137  0.036623636            7 
  954000   0.87863062    -5.809206    415.76132  0.036317376  0.036601398            7 
  955000   0.85521045   -5.7998424    417.73888  0.036451909  0.036579677            8 
  956000   0.87535575    -5.791615    415.82201  0.036246689  0.036557682            2 
  957000   0.88612923   -5.8120465    416.69549  0.036284874  0.036535164            6 
  958000   0.88393375   -5.8235487    414.99052  0.036098688  0.036512899            4 
  959000   0.87664485    -5.818803    416.31799  0.036176398   0.03649036            8 
  960000   0.85927113    -5.795165    416.40926  0.036146637  0.036467941            4 
  961000   0.87223517   -5.8008569    416.18673  0.036089727  0.036445595            5 
  962000   0.83812447   -5.8029189    416.87268  0.036111632  0.036422969            4 
  963000   0.87978374   -5.8161198    416.72591  0.036061432  0.036400159            4 
  964000   0.85972075   -5.7696926    417.32847  0.036076112  0.036377398            7 
  965000   0.85575828   -5.8446164    416.10816  0.035933347  0.036354682            6 
  966000   0.87725609   -5.8666507    415.18216  0.035816267  0.036331577            4 
  967000   0.87927768   -5.8441354    416.51506  0.035894094  0.036308657           11 
  968000   0.85735386   -5.8208196    416.50327  0.035855998   0.03628559            3 
  969000   0.88524943   -5.7760402    418.58682  0.035998178  0.036262955            5 
  970000   0.86819731   -5.8467037    416.60995  0.035791232   0.03624017            2 
  971000   0.88058446   -5.8676589    416.87175  0.035776841  0.036217441            5 
  972000   0.86168689   -5.8360624    418.17188  0.035851499    0.0361947           10 
  973000    0.8801744   -5.8753849    415.28619  0.035567505  0.036171993            9 
  974000   0.88102724   -5.8319912    419.54388  0.035895267  0.036149447            4 
  975000   0.84715541   -5.8281995    419.63585  0.035866312  0.036127286            7 
  976000   0.83402278   -5.8448437    418.36875  0.035721376  0.036104844            4 
  977000   0.86901316    -5.824053    419.80592  0.035807397  0.036082576            5 
  978000   0.85598398   -5.8157831    421.10091  0.035881127  0.036060624           10 
  979000   0.84898673    -5.855324    420.97355  0.035833636   0.03603896            4 
  980000   0.85580795    -5.815352    420.98283   0.03579786  0.036017234            5 
  981000   0.87207955   -5.8005662    421.47026  0.035802774  0.035995459            9 
  982000   0.84144732   -5.8510877    419.64471  0.035611398  0.035973261            3 
  983000   0.85402217   -5.8422817    419.72445  0.035581931   0.03595112            5 
  984000   0.86377962   -5.8422241    420.44852   0.03560709  0.035928979            6 
  985000   0.85253717   -5.8428212    420.56549  0.035580837   0.03590683            4 
  986000   0.86898023   -5.8347924    421.37497  0.035613165  0.035884829            5 
  987000   0.84022268   -5.7949937    421.15358   0.03555839  0.035862819            5 
  988000   0.86551505   -5.8515806    422.22724  0.035612959  0.035841009            7 
  989000   0.85642478   -5.8360516    422.86793  0.035630934   0.03581903            7 
  990000   0.86436898   -5.8442314     423.6542  0.035661128  0.035797293            5 
  991000   0.86605393   -5.8256874    424.46765  0.035693546  0.035775525            3 
  992000   0.85832568   -5.8360398    423.48209  0.035574773  0.035753918           10 
  993000   0.86973852   -5.8476754    422.10471  0.035423356  0.035732434           10 
  994000   0.83986813   -5.8163506    424.01234  0.035547648  0.035710685            3 
  995000   0.85721648   -5.8684942    422.94868  0.035422838  0.035688781            3 
  996000   0.84918893   -5.8546871    424.13425  0.035486467  0.035666743            5 
  997000   0.85066247   -5.8807069     422.9346  0.035350602  0.035644679            9 
  998000   0.84619701   -5.8218733     424.9389   0.03548254  0.035622944           10 
  999000   0.87214336   -5.8493723    424.11478  0.035378277  0.035600898            5 
 1000000    0.8518098   -5.8675968      423.386  0.035282166  0.035578642            4 
 1001000   0.84769758   -5.8679953    425.51504  0.035424162  0.035556385            9 
 1002000    0.8541721   -5.8525398    424.12781  0.035273437  0.035534298            6 
 1003000   0.85672504   -5.8459433    425.57281  0.035358326  0.035512591            4 
 1004000   0.85169596   -5.8610411     425.0548  0.035280113  0.035490779            6 
 1005000   0.86403558   -5.8968943    424.01802   0.03515904  0.035468614            7 
 1006000   0.86840743   -5.8596553    425.63747   0.03525824  0.035446653            5 
 1007000   0.85556157   -5.8419998    427.19848  0.035352407  0.035425007            7 
 1008000   0.85077288    -5.874099    426.16067  0.035231537  0.035403463            5 
 1009000   0.86313316   -5.8649637    426.31618  0.035209463  0.035382125            4 
 1010000   0.82800107   -5.8722559    426.13294  0.035159483  0.035360537           10 
 1011000   0.84637887   -5.8757566    424.90142  0.035023196  0.035338999           10 
 1012000   0.83234102   -5.8672781    426.68398  0.035135374   0.03531732            4 
 1013000   0.85922048   -5.8734736    426.16057  0.035057632  0.035295509            4 
 1014000   0.85466372   -5.8532509    427.40163  0.035125052  0.035273774            5 
 1015000   0.86085741   -5.8886611    425.77087  0.034956557   0.03525209            4 
 1016000    0.8401028   -5.8550572     427.9972  0.035104758  0.035230176            5 
 1017000   0.84989274   -5.8467159     427.0366  0.034991528  0.035208374            6 
 1018000   0.84802009   -5.8615826    426.97211  0.034951875  0.035186654            6 
 1019000   0.86911553   -5.8362636    427.75515  0.034981612  0.035164869            9 
 1020000   0.85478224    -5.882579    428.14052  0.034978801   0.03514298            5 
 1021000   0.84599768   -5.8656603    427.57603  0.034898468  0.035121082           11 
 1022000   0.83119609   -5.8714258    427.67728  0.034872577  0.035099318            9 
 1023000    0.8773351   -5.8625723    428.24571  0.034884792  0.035077508            6 
 1024000   0.83669353   -5.8552817    428.05571  0.034835263  0.035055885            4 
 1025000   0.82933291   -5.8654725    429.45521  0.034915058  0.035034222            7 
 1026000   0.83392166   -5.8601876    428.22368  0.034781001  0.035012292           10 
 1027000   0.82690836   -5.8637293    428.73172  0.034788358  0.034990288            5 
 1028000   0.84025684   -5.8854025    428.41881  0.034729152  0.034968249            6 
 1029000   0.83918319   -5.8795492    427.29893  0.034604708   0.03494614            5 
 1030000   0.85698453   -5.8984987    427.96334  0.034624866  0.034923915            4 
 1031000    0.8615832   -5.8890858    428.33585  0.034621391   0.03490155           13 
 1032000   0.85223722   -5.8532485    429.19251  0.034657018  0.034879473            9 
 1033000   0.85821691   -5.8849298     428.4917  0.034566933  0.034857509           12 
 1034000   0.83706689   -5.8913743    428.63006  0.034544653  0.034835266            8 
 1035000   0.84436242   -5.8910423    430.19803  0.034637522  0.034813067            3 
 1036000   0.84856178   -5.8895495    429.37634  0.034537994  0.034790718            4 
 1037000   0.84870422   -5.8997051    430.00292   0.03455504   0.03476868            7 
 1038000   0.82921226   -5.8843401    430.10879  0.034530249  0.034746807            7 
 1039000   0.85118641   -5.8618891    431.19387  0.034584045  0.034724952            4 
 1040000   0.82412161   -5.8638489    430.16677  0.034468491  0.034703473            6 
 1041000   0.84786772   -5.8823574    432.03317  0.034584788  0.034682028            2 
 1042000   0.82695751   -5.8865871    432.68523  0.034603745  0.034660627           16 
 1043000   0.84747788   -5.8910687    430.62264  0.034405772  0.034639305            6 
 1044000   0.85485092   -5.9001568    432.70816  0.034539285  0.034617721            4 
 1045000   0.85356581   -5.8954704    431.28482  0.034392729  0.034596204            8 
 1046000   0.82955748    -5.925539    431.12542  0.034347149  0.034574719            4 
 1047000   0.82260645   -5.8864272    432.93943  0.034458726   0.03455328            6 
 1048000   0.83947643   -5.8829665    433.13949  0.034441753  0.034531838            7 
 1049000   0.83705543   -5.9314037    432.10454  0.034326703  0.034510067            6 
 1050000   0.85075928   -5.9044949    431.17345  0.034220115  0.034488171            7 
 1051000   0.83549138   -5.9230774    432.46612   0.03429005  0.034466374           10 
 1052000   0.84961199   -5.8699986    433.78697  0.034362086  0.034444838            5 
 1053000   0.83742221   -5.8982892    433.62986   0.03431702  0.034423144            6 
 1054000   0.81551514   -5.9145825    432.53114  0.034197592  0.034401239           12 
 1055000   0.83874837   -5.9006993     432.7363  0.034181382  0.034379364            5 
 1056000   0.83830371   -5.9181072    433.10548  0.034178147  0.034357619           14 
 1057000   0.83163577   -5.9272649     433.8567  0.034205038  0.034335824            5 
 1058000   0.81218421   -5.8877545    435.01404  0.034263866  0.034314331            4 
 1059000   0.83879533   -5.9143672    433.84145  0.034139239  0.034292942            9 
 1060000   0.80999413   -5.9078255    434.56056  0.034163566  0.034271499            9 
 1061000   0.82711314   -5.9162378    433.74746  0.034067504  0.034250079            6 
 1062000    0.8074053   -5.8971158     435.8158  0.034197724  0.034228618            5 
 1063000   0.83070197   -5.9356877    435.68984  0.034155679   0.03420731            6 
 1064000   0.82554424   -5.9085846     435.1778  0.034083474  0.034185953            8 
 1065000   0.82955265    -5.918556    434.14639  0.033970766  0.034164543            6 
 1066000   0.84623255   -5.9508175    435.38792  0.034035954  0.034142783            6 
 1067000   0.81302878   -5.9036029    434.86057  0.033962869  0.034120921            9 
 1068000   0.84456899   -5.8922952    435.92271  0.034013944  0.034099345            5 
 1069000   0.82576723   -5.8702363    436.70648  0.034043224   0.03407784            6 
 1070000   0.83074338   -5.9074554    435.89845  0.033948477  0.034056613            5 
 1071000   0.81223301   -5.9258053    435.91079  0.033917739  0.034035089           10 
 1072000   0.84288372   -5.9336852     435.9737   0.03389099  0.034013571            4 
 1073000    0.8350119   -5.9215182    436.45118  0.033896488  0.033992132            7 
 1074000   0.82983238   -5.8942531     436.3405  0.033856339  0.033970589           15 
 1075000   0.82407546   -5.9366205    436.44077  0.033832618  0.033949136            6 
 1076000   0.83172333   -5.8959692    437.16431  0.033857211  0.033927749           10 
 1077000   0.83036044   -5.9017739    436.90121  0.033805417  0.033906133            6 
 1078000   0.82791787   -5.8811067    437.38999  0.033811842  0.033884574           16 
 1079000   0.80397794   -5.9398061    436.03147  0.033675584  0.033862978            4 
 1080000   0.81744018   -5.9429749    436.05907  0.033646533  0.033841364            6 
 1081000   0.82107922   -5.8803751    437.77976  0.033748054  0.033819801            4 
 1082000   0.82799962   -5.9166478    437.38541  0.033686492  0.033798254            4 
 1083000   0.79918133   -5.9347251    439.21981  0.033796538  0.033776738            5 
 1084000   0.82175137   -5.9171557    437.92037  0.033665465  0.033755359           28 
 1085000     0.831263   -5.9474199    438.01544  0.033641739  0.033733881            9 
 1086000   0.82156703   -5.9268391    438.88811  0.033677725  0.033712382            8 
 1087000   0.81573424   -5.9470684    438.70938   0.03363304   0.03369101            8 
 1088000   0.81042204   -5.9469002     438.2452  0.033566575  0.033669576            6 
 1089000   0.81357997   -5.9277232    439.78572  0.033653636  0.033648082            5 
 1090000   0.80533948   -5.9555117    438.11529  0.033495053  0.033626833            3 
 1091000   0.81166324    -5.916923    438.89311  0.033523763  0.033605522            5 
 1092000   0.82046451   -5.9123879    439.11183  0.033509755  0.033584335            5 
 1093000   0.82388683   -5.9424332    439.88261  0.033537863  0.033563108            6 
 1094000   0.80358317    -5.933843    439.50205  0.033478218   0.03354188           11 
 1095000    0.8190757   -5.9506779    440.07534  0.033491274   0.03352054            4 
 1096000   0.80696938   -5.9364474     440.2745  0.033475859  0.033499184            5 
 1097000   0.83777914   -5.9575108    439.36552  0.033376293  0.033477978            6 
 1098000   0.83957018   -5.9560479    438.87116  0.033308376  0.033456669            7 
 1099000   0.81553104   -5.9477669    439.15478  0.033299574  0.033435315            9 
 1100000   0.82454925   -5.9183374    439.65669  0.033307325  0.033414066            6 
 1101000   0.81192647   -5.9219581    439.70422   0.03328067  0.033392855            7 
 1102000   0.80607388    -5.975996    439.05904  0.033201682  0.033371527            6 
 1103000   0.81250092   -5.9255479    440.64687  0.033291543  0.033350212            6 
 1104000   0.82220897   -5.9497068    439.51922   0.03317627  0.033329193           18 
 1105000   0.81513978   -5.9791321    440.96415  0.033255215  0.033308098            5 
 1106000   0.77093625   -5.9662567    440.91441  0.033221399  0.033286723           14 
 1107000   0.78809409   -5.9311233    440.96047  0.033194856  0.033265207            7 
 1108000   0.79558726   -5.9692773    441.43212   0.03320037  0.033243507            9 
 1109000   0.81570318   -5.9176076    440.15948  0.033074803   0.03322196            5 
 1110000   0.81633826   -5.9604253    440.87117  0.033098436  0.033200276            9 
 1111000   0.81293702   -5.9317202    441.42699  0.033110335  0.033178952            7 
 1112000   0.81686145    -5.962863    440.00997  0.032974368  0.033157485            9 
 1113000   0.81515013   -5.9712022    440.53553  0.032984092  0.033136155            5 
 1114000   0.80022324   -5.9665813    440.97119  0.032987073  0.033114662            7 
 1115000   0.80921341   -5.9597643    440.84242  0.032947864  0.033093247            5 
 1116000   0.80008758   -5.9590626    440.71593  0.032908895  0.033071605            5 
 1117000   0.80873532   -5.9414253    442.14207   0.03298583  0.033049917            6 
 1118000   0.80967504    -5.951304    442.07421  0.032951268  0.033028645            6 
 1119000    0.8202764   -5.9440996    443.38264  0.033019262   0.03300732            9 
 1120000   0.81062237   -5.9316933    443.35048  0.032987387  0.032986053            7 
 1121000   0.80348071   -5.9569288    442.31886  0.032881271  0.032964622            6 
 1122000    0.8072606   -5.9968318    441.81604   0.03281462  0.032943262            5 
 1123000    0.8044181   -5.9792074    442.23114  0.032816202  0.032921983            7 
 1124000   0.80165524   -6.0078693     442.0769  0.032775571  0.032900494           16 
 1125000   0.80770021   -5.9662406    442.79098  0.032799332   0.03287905            8 
 1126000   0.81923788   -5.9746887    442.57106  0.032753927  0.032857655            9 
 1127000   0.78719842   -5.9680736    443.96369  0.032827838  0.032836364           12 
 1128000   0.81932468   -5.9750771    443.38457  0.032755952  0.032815234            8 
 1129000   0.80132913   -6.0077468    442.24675  0.032642955  0.032793982           10 
 1130000   0.79872825   -6.0076312    442.70207  0.032647645  0.032772627           12 
 1131000   0.80273399   -6.0035121    443.79035  0.032698964  0.032751229            6 
 1132000   0.80128988   -5.9597219    444.58675  0.032728707  0.032730014            4 
 1133000   0.79354185   -5.9849998    443.90589  0.032649742  0.032708855            8 
 1134000   0.80052137   -5.9593363    445.20738  0.032716592  0.032687907           12 
 1135000   0.80465251   -5.9828475    444.48462    0.0326347  0.032666868           10 
 1136000   0.81282386   -5.9650876    445.72773  0.032697163  0.032646042           11 
 1137000   0.80748513    -5.961188     446.1356    0.0326983  0.032625086            9 
 1138000   0.81371781   -5.9597541    445.47916  0.032621496    0.0326044           10 
 1139000   0.80389153   -5.9862678    446.49992  0.032667539  0.032583566           11 
 1140000   0.77956184   -5.9781122    446.62726  0.032648191  0.032562767            8 
 1141000   0.80553862   -5.9914926    446.20914  0.032589041  0.032541773           16 
 1142000   0.78988663   -5.9780375    444.71687  0.032451611  0.032520567            6 
 1143000   0.79178209   -5.9895211    444.24506   0.03238882  0.032499121            7 
 1144000   0.80108292   -5.9812215    445.47727  0.032450267  0.032477824            5 
 1145000   0.79592003   -5.9970688    445.60236  0.032431031  0.032456633            6 
 1146000   0.80033641   -5.9905357     444.1817  0.032299425  0.032435376            6 
 1147000   0.80440112   -5.9680675    444.47835  0.032292818   0.03241404           13 
 1148000   0.80168288   -5.9995883    444.51378   0.03226726  0.032392546            8 
 1149000   0.77889203   -6.0234926    444.13911  0.032212004  0.032371168            4 
 1150000   0.80388932   -5.9768689    445.94452   0.03231482   0.03234997            7 
 1151000   0.78262782   -5.9577048    445.94626  0.032286871  0.032328882            5 
 1152000   0.79529861   -5.9889899    445.64754  0.032237235  0.032307543            8 
 1153000   0.79900858   -5.9896431    445.61812  0.032207149   0.03228626            4 
 1154000   0.80295869   -5.9784819    446.18309  0.032220038  0.032264938            7 
 1155000    0.7806097   -5.9855519    446.04769  0.032182373  0.032243728            4 
 1156000   0.79255239   -5.9763985    447.42592  0.032253887  0.032222585            7 
 1157000   0.78860626   -5.9661674     447.5308  0.032233564  0.032201524            8 
 1158000   0.78597152   -6.0101425    446.10952  0.032103449  0.032180291            7 
 1159000   0.78806862   -6.0042008    446.23379  0.032084684  0.032159012            9 
 1160000   0.79716854   -6.0428351    446.24921  0.032058133  0.032137675            9 
 1161000   0.77206755   -6.0312434    445.23923  0.031958027  0.032116249            8 
 1162000   0.80503853   -6.0012273    447.23644  0.032073755  0.032094873           12 
 1163000   0.79441089   -6.0250199    446.52791  0.031995408  0.032073498            5 
 1164000   0.80077726   -5.9857763    447.94787  0.032069578  0.032052151            3 
 1165000   0.78635052   -6.0061205    447.74286  0.032027386  0.032030938           11 
 1166000   0.80523071   -6.0332683    445.29937  0.031825283   0.03200945            3 
 1167000   0.79977841   -5.9919795    447.32097  0.031942372  0.031988022            9 
 1168000   0.78191606   -6.0156194    447.16227  0.031903701  0.031966515            5 
 1169000   0.77793901   -5.9876748    447.63032  0.031909775  0.031945339           12 
 1170000   0.76660951   -6.0351905    447.08361  0.031843562   0.03192414            7 
 1171000   0.76581902    -5.981655    448.86677  0.031943266  0.031902879            9 
 1172000   0.77987307   -6.0146467    446.94439  0.031779322  0.031881727            9 
 1173000    0.7897777   -6.0166535    447.86607  0.031817709  0.031860638           11 
 1174000   0.79028997   -5.9973733    449.17622  0.031883604  0.031839394            7 
 1175000    0.7727095   -5.9827951    448.88234  0.031835627  0.031818278            6 
 1176000   0.79908975   -6.0170584    448.02346  0.031747694  0.031797061           12 
 1177000    0.7903096   -6.0194801    448.93255  0.031785086  0.031775935           20 
 1178000    0.7908354   -6.0202849    449.68845  0.031811577  0.031754961           33 
 1179000   0.79326325   -6.0306033    449.00421  0.031736232  0.031733974            9 
 1180000   0.77041982   -6.0338352    448.07106  0.031643437  0.031712786           16 
 1181000   0.79834681   -6.0210044    448.85533  0.031671982  0.031691764            4 
 1182000   0.78036389   -6.0238201    448.19921  0.031598929  0.031670754            9 
 1183000   0.79533517   -6.0481233    447.87163  0.031549143  0.031649617            8 
 1184000   0.77205694   -6.0345428    449.22278  0.031617595  0.031628462            7 
 1185000   0.77821031   -6.0169593    448.92303  0.031569833  0.031607363            7 
 1186000   0.77210258   -6.0249943    449.82737  0.031606757  0.031586327           14 
 1187000   0.78991616   -6.0165184    448.88528  0.031513991   0.03156537            4 
 1188000   0.78086247   -6.0189804    450.43454  0.031596138  0.031544312            6 
 1189000   0.76601116    -6.033512    448.48506  0.031432931  0.031523205           10 
 1190000   0.78778335   -6.0062036    449.11782  0.031450827  0.031502174           10 
 1191000   0.76418508   -6.0650177    448.59922  0.031388135  0.031480939            5 
 1192000   0.78993043   -6.0496445    449.37712  0.031416186  0.031459713            9 
 1193000   0.78823404   -6.0426175    448.66007  0.031339765  0.031438395            7 
 1194000   0.76008131   -6.0415747    449.88646  0.031399111  0.031417039            7 
 1195000   0.77496789   -6.0578675    448.49555   0.03127584  0.031395987           12 
 1196000   0.77573274   -6.0154935    448.98262  0.031283628  0.031374748            7 
 1197000   0.77046698   -6.0102738     450.9373  0.031393574   0.03135341            5 
 1198000   0.78261835   -6.0715251    448.96149  0.031229931  0.031331973            7 
 1199000    0.7651395   -6.0367915    449.36822  0.031232153  0.031310355           12 
 1200000   0.78993073   -6.0658362    448.21721  0.031126195  0.031288673           14 
 1201000   0.76902783   -6.0642824    448.03866  0.031087889  0.031267008           11 
 1202000   0.78102609   -6.0504574    449.49772  0.031163181  0.031245503           13 
 1203000    0.7755134   -6.0363095    449.20681  0.031117125  0.031224147           32 
 1204000   0.77066408   -6.0515195    449.30067  0.031097776  0.031202853            8 
 1205000   0.76955513   -6.0574748    449.37244  0.031076932  0.031181325           15 
 1206000   0.78129185   -6.0510318    450.38231  0.031120945  0.031159828           10 
 1207000   0.75443288   -6.0532883    450.37117  0.031094392   0.03113854            4 
 1208000   0.76548399   -6.0417467    451.18764  0.031124975  0.031117245            3 
 1209000   0.76741485   -6.0461117    451.01727  0.031087488  0.031096107           11 
 1210000   0.77279891   -6.0813241    450.58531  0.031032046  0.031075008            9 
 1211000   0.80005978   -6.0483629    451.31913  0.031056918  0.031054008            9 
 1212000   0.76745078   -6.0315634    451.03234  0.031011574  0.031033106           10 
 1213000   0.75554301   -6.0376065    452.54211   0.03108973  0.031012221            5 
 1214000   0.75867169   -6.0479528    453.04722  0.031098793  0.030991539            4 
 1215000   0.77772701   -6.0665856    452.39808  0.031028675  0.030970735            5 
 1216000   0.77643325   -6.0357231    452.91778  0.031038773  0.030949939            9 
 1217000    0.7601737   -6.0545855    452.79289  0.031004717  0.030929147           15 
 1218000   0.76530428   -6.0495861    453.38685  0.031019899  0.030908329            9 
 1219000   0.75154792   -6.0560661    453.47921  0.031000766  0.030887542            8 
 1220000   0.77557141   -6.0815219    451.55039  0.030843606  0.030866737           13 
 1221000   0.78027613   -6.0704516    453.04237  0.030920173  0.030845906            9 
 1222000   0.75639848   -6.0451171    453.82592  0.030948303  0.030825153           11 
 1223000   0.77084038   -6.0570253    453.59441  0.030907223  0.030804551            6 
 1224000   0.76492537   -6.0834437    454.30828  0.030930574  0.030783883           10 
 1225000   0.76195205    -6.074467    453.47905  0.030848915  0.030763177           11 
 1226000   0.76265233   -6.0973931    451.89361  0.030715988  0.030742541           15 
 1227000   0.77291916   -6.0520379    453.50406   0.03080033  0.030721833            4 
 1228000   0.77450691   -6.0685074    454.05823  0.030812855  0.030701097           11 
 1229000   0.76932593   -6.0889669    453.48389   0.03074884  0.030680432           13 
 1230000   0.74737542   -6.1101411    453.20484  0.030704935   0.03065967            5 
 1231000   0.78570049   -6.0647904    453.41636  0.030694311  0.030638932           13 
 1232000   0.77700329   -6.0705049    452.48344  0.030606293  0.030618234            7 
 1233000   0.76691965   -6.0497352    453.41941  0.030644729  0.030597467            7 
 1234000   0.75924927   -6.0520864    454.36981  0.030684077  0.030576834           13 
 1235000   0.74922511   -6.0589505    453.26339  0.030584574  0.030556185            6 
 1236000   0.75265752   -6.0677199    453.38416  0.030567972  0.030535512           11 
 1237000   0.75779013   -6.0823949    453.69821  0.030564417  0.030514716            7 
 1238000   0.77185365   -6.0770392    453.55869  0.030530337  0.030493857            4 
 1239000   0.75884738   -6.0825281    453.01975  0.030469448  0.030473064           13 
 1240000    0.7719285   -6.0772764    453.38969  0.030469737  0.030452348           15 
 1241000   0.76858391   -6.0824468    455.49441  0.030586517  0.030431662            5 
 1242000   0.75626233    -6.083228    454.50227  0.030495321  0.030410912           11 
 1243000   0.76300698   -6.0767636    453.92396  0.030432017  0.030390172            6 
 1244000   0.75669785   -6.0638575    455.37059  0.030504461  0.030369456            5 
 1245000   0.74347302   -6.0697997    455.02872  0.030457076  0.030348656            7 
 1246000   0.75983007   -6.0904615    453.48542  0.030329416  0.030327949            5 
 1247000   0.77387243   -6.0896376    455.20821  0.030420223  0.030307253            7 
 1248000   0.76580535   -6.1063924    454.54566  0.030351606  0.030286554           13 
 1249000    0.7494061   -6.1075826    453.22062  0.030238899  0.030265653            6 
 1250000   0.75326826   -6.0933848     455.1322  0.030342146  0.030244959            9 
 1251000   0.75350241   -6.0898651    454.11663  0.030250242  0.030224314            5 
 1252000   0.74950804     -6.11132    454.34717  0.030241425  0.030203627           12 
 1253000   0.75052662   -6.1182085    453.99038  0.030193561  0.030182899            9 
 1254000   0.74687533     -6.10872     454.6587  0.030213895  0.030162299           10 
 1255000   0.75037236   -6.0833769    456.15032  0.030288866  0.030141737            9 
 1256000   0.75520247   -6.1004091    454.25844  0.030139228  0.030121185            7 
 1257000   0.75462992   -6.0955807    456.60772  0.030270997  0.030100581            7 
 1258000   0.75794661   -6.0865893    456.60396  0.030246685  0.030080144            9 
 1259000   0.73631895    -6.082521     457.1752  0.030260471  0.030059733            6 
 1260000   0.74740661   -6.0541213     456.8041  0.030211911  0.030039402           14 
 1261000   0.74468944   -6.0739747    456.51182  0.030168637   0.03001909            7 
 1262000   0.74072047   -6.0725997    456.74107   0.03015987  0.029998787           12 
 1263000    0.7404991   -6.0781065    455.89173  0.030079951  0.029978285            8 
 1264000   0.74906982   -6.1132334    455.12728  0.030005754  0.029957884            9 
 1265000   0.76277415   -6.1217184    456.25258  0.030056165   0.02993737           11 
 1266000   0.74363141   -6.0885555    456.82917  0.030070377  0.029917116           16 
 1267000    0.7422784   -6.0944156    456.85476  0.030048327  0.029896686            6 
 1268000   0.74933756   -6.0847616    457.20143  0.030047413  0.029876325            6 
 1269000   0.73940568   -6.1001284    457.22605  0.030025351  0.029855913            6 
 1270000   0.74925056   -6.0887692    457.26072  0.030003984  0.029835443            8 
 1271000   0.75238528   -6.1029096    457.66783   0.03000707   0.02981499            7 
 1272000   0.75268137   -6.1250644    456.31623  0.029894931   0.02979455            6 
 1273000   0.72778629   -6.1097935    456.25679  0.029867556  0.029774029            5 
 1274000   0.74643105   -6.1396342    456.59279   0.02986609   0.02975344           12 
 1275000   0.73772143   -6.1207883     456.5035   0.02983683  0.029732827            7 
 1276000   0.74416075   -6.1240989    457.08024  0.029851113  0.029712239           10 
 1277000   0.74561611   -6.1563423     456.0172  0.029758366  0.029691703            6 
 1278000   0.75728722   -6.0990598     458.0458  0.029867358  0.029671178            5 
 1279000     0.746888   -6.1094135    456.13511  0.029719515  0.029650797            6 
 1280000   0.74702867   -6.1520524    456.04142  0.029690197  0.029630138            4 
 1281000   0.73991032   -6.1509846    456.96635  0.029727189  0.029609417            8 
 1282000   0.73180061   -6.1488368    455.52526  0.029610326   0.02958883            7 
 1283000   0.74561599   -6.1316348    455.61299  0.029592946   0.02956833           11 
 1284000   0.73686476   -6.1337321    457.06663  0.029664241  0.029547917            9 
 1285000   0.73452647   -6.1475738    456.53308  0.029606555  0.029527415            9 
 1286000   0.75419608   -6.1226837    457.71517  0.029660133   0.02950689            9 
 1287000   0.73119897    -6.117681    458.54182  0.029690612  0.029486416            7 
 1288000   0.74092835   -6.1597186    456.81042  0.029555539   0.02946594            6 
 1289000   0.73809481   -6.1676474    457.59162  0.029583115  0.029445456           15 
 1290000   0.72953695   -6.1245142    457.26727  0.029539229  0.029424952           11 
 1291000   0.73837677   -6.1242525    457.63305  0.029539959  0.029404532           15 
 1292000   0.73531531   -6.1374736    457.25851  0.029492938  0.029384185           11 
 1293000    0.7380269   -6.1172072    458.64618  0.029559563  0.029363727            8 
 1294000   0.73622567   -6.1404261    458.25175  0.029511318   0.02934326           14 
 1295000   0.74895277   -6.1426152    457.44612  0.029436687  0.029322857            7 
 1296000   0.73555015    -6.137739    458.13574  0.029458317  0.029302635           10 
 1297000   0.74344612   -6.1319088    459.69977  0.029536094  0.029282417           12 
 1298000   0.72720166   -6.1240795    457.52597  0.029373778  0.029262127           10 
 1299000   0.71863114    -6.136891    458.85422  0.029436376  0.029241882           10 
 1300000   0.72421973   -6.1541869    458.41621  0.029385655  0.029221596           12 
 1301000   0.73758696   -6.1096074    459.82464  0.029453282  0.029201352            9 
 1302000   0.72965412    -6.125999    458.94058  0.029374077  0.029181226            7 
 1303000   0.74181167     -6.11756     459.8357  0.029408781  0.029161092           17 
 1304000   0.73047773   -6.1369179    459.94842  0.029393432  0.029140944           10 
 1305000   0.72162441   -6.1505653    458.25561   0.02926281  0.029120907           11 
 1306000   0.72619334   -6.1363868    458.96839  0.029285885  0.029100755            8 
 1307000   0.72547586   -6.1657573    458.82994  0.029254651  0.029080584            6 
 1308000   0.74281791   -6.1507593    458.50389  0.029211512  0.029060319            7 
 1309000   0.74403843   -6.1424907      458.794  0.029207665  0.029040078           12 
 1310000   0.73094316    -6.180386    458.54636  0.029169616  0.029019728           26 
 1311000   0.73334919    -6.153119    458.48437  0.029143426  0.028999435            8 
 1312000   0.73847883   -6.1570487     458.8134  0.029142111  0.028979209           38 
 1313000   0.73532419   -6.1488867    459.00627  0.029132157  0.028958865            6 
 1314000   0.72393803   -6.1409378    459.52085  0.029142621  0.028938638           14 
 1315000   0.71886162   -6.1227036    459.00989  0.029088079  0.028918515           15 
 1316000   0.73031032   -6.1373326    459.80746   0.02911648  0.028898324            5 
 1317000   0.73154692   -6.1631167    458.73889  0.029026758   0.02887804           10 
 1318000   0.73456895   -6.1169216     459.9461  0.029081064  0.028857803            6 
 1319000   0.74733754   -6.1511852     459.2664  0.029016073  0.028837761            8 
 1320000   0.73376218   -6.1610962    458.70657  0.028958748  0.028817612            5 
 1321000   0.75408262   -6.1343984    460.14854  0.029027791  0.028797473           16 
 1322000   0.72936755   -6.1681827     458.7074   0.02891499  0.028777329            8 
 1323000   0.72124706    -6.170294    459.78317  0.028960895  0.028757151           10 
 1324000    0.7283708   -6.1777912    459.29872   0.02890853  0.028736963           10 
 1325000   0.72118445   -6.1481864    460.92516  0.028989004  0.028716834           12 
 1326000   0.71921885   -6.1810778    460.36862  0.028932165  0.028696742            5 
 1327000   0.70875809   -6.1692861    459.77455  0.028873056  0.028676665            9 
 1328000   0.74363646   -6.1776844    459.91649  0.028860222  0.028656478            9 
 1329000    0.7280655    -6.166481    460.93468   0.02890235  0.028636421           11 
 1330000   0.72676806   -6.1923153    459.68208  0.028802135  0.028616314           11 
 1331000   0.71876406   -6.1984529    458.66331  0.028716711  0.028596116           17 
 1332000   0.72065662    -6.186839    459.58764  0.028752981  0.028576043            7 
 1333000    0.7327141   -6.1746117     459.4642  0.028723694  0.028555888            7 
 1334000   0.71246999   -6.1833375    461.51681  0.028830385  0.028535986           10 
 1335000   0.71586639   -6.1728395    460.99846  0.028776433  0.028516182           11 
 1336000    0.7148032   -6.1771621    460.18596  0.028704214  0.028496256            8 
 1337000   0.71181908   -6.1888053    460.12904  0.028679197  0.028476235           11 
 1338000   0.69433392    -6.190102    460.04436  0.028652489  0.028456158           17 
 1339000   0.71014047   -6.1999497    460.23706  0.028643083  0.028436135           11 
 1340000   0.71562033   -6.1650258    461.21149  0.028682307  0.028416169            6 
 1341000   0.72281319   -6.1652469    460.45656  0.028614005  0.028396305           20 
 1342000   0.71516873   -6.1752613    462.39226  0.028712883  0.028376486            9 
 1343000   0.71693217   -6.1698969     461.4541   0.02863329  0.028356697           10 
 1344000   0.72833072   -6.1813978     460.2389  0.028536638  0.028336913            9 
 1345000   0.71014471   -6.2009015    460.18242  0.028511922  0.028317079           19 
 1346000   0.72716887   -6.1836089    461.83616  0.028593125  0.028297309            8 
 1347000   0.73128835   -6.1644454    462.31655  0.028601618  0.028277694           12 
 1348000   0.70752882   -6.1946205    461.19385  0.028510995  0.028257992            6 
 1349000   0.70479972   -6.2021585    460.93104  0.028473625  0.028238264           11 
 1350000    0.7118695   -6.1822913    462.11399  0.028525555  0.028218575            9 
 1351000   0.71123143   -6.2233294     460.3872  0.028397927  0.028198918            8 
 1352000   0.71918174   -6.2153998    461.43286  0.028441375  0.028179187           12 
 1353000   0.70039864   -6.2083301    461.75018  0.028439898  0.028159451           12 
 1354000   0.71221926   -6.1928707    462.31315  0.028453542  0.028139772           10 
 1355000   0.72032434   -6.2120639    461.11027  0.028358565  0.028120088           16 
 1356000   0.72507493   -6.1904309    462.19385  0.028404243  0.028100408            8 
 1357000   0.71019664   -6.2245498    462.91202  0.028427414  0.028080812            6 
 1358000   0.70406744   -6.2252402    463.18285  0.028423101  0.028061158            5 
 1359000   0.71375348     -6.20533    462.19585  0.028341664  0.028041616           11 
 1360000   0.71220951   -6.2085187     462.4767  0.028338033  0.028022086            8 
 1361000   0.71348827    -6.248455    462.36751  0.028310526  0.028002464            8 
 1362000   0.72044256   -6.2142072    461.74454  0.028251624  0.027982831           15 
 1363000    0.7186729   -6.2180697     462.8301  0.028297267  0.027963309            5 
 1364000   0.71970802   -6.1865686    463.74898   0.02833266   0.02794373            5 
 1365000    0.7122638   -6.1893073    463.27969  0.028283253  0.027924188            7 
 1366000   0.70543753   -6.2095799    463.24668  0.028260534  0.027904792            7 
 1367000   0.70482969   -6.1916388    463.12891  0.028232682  0.027885217            9 
 1368000   0.68951517   -6.2074112    462.17331  0.028153832  0.027865641           11 
 1369000   0.69651886   -6.2276271    462.73373  0.028167381   0.02784602            9 
 1370000   0.68698103   -6.2118787    461.87428  0.028094543  0.027826354           31 
 1371000   0.71630349   -6.2051105    463.68457  0.028184085  0.027806856           19 
 1372000   0.70206876    -6.224594    462.25058  0.028076444  0.027787345           11 
 1373000   0.71167798   -6.1980535    463.68463  0.028143034  0.027767804            6 
 1374000   0.69768262   -6.1983828    463.04518  0.028083769  0.027748224            7 
 1375000    0.7090946   -6.1976367    463.60377  0.028097198  0.027728727           16 
 1376000   0.72768597   -6.2352762    462.77437  0.028026549  0.027709291           10 
 1377000   0.69729029   -6.2471831    462.90842  0.028014307  0.027689845            7 
 1378000   0.70865462   -6.2278703     463.1202  0.028006785  0.027670295           16 
 1379000   0.70281832   -6.2324306    463.00194  0.027979329  0.027650701            9 
 1380000   0.72327939   -6.2610505    461.60968  0.027874981  0.027630984            7 
 1381000   0.68606324   -6.2244153     462.9188  0.027933792   0.02761136            9 
 1382000   0.70198221   -6.2084694    464.31411  0.027997715  0.027591829           14 
 1383000    0.6963584   -6.2136959    463.89328  0.027952114  0.027572319            7 
 1384000   0.68733989   -6.2424874    462.99436  0.027877791  0.027552773            5 
 1385000   0.69686438   -6.2410875    463.10183  0.027864129  0.027533161            6 
 1386000   0.69360061   -6.2354791    461.88908  0.027771108  0.027513603           14 
 1387000   0.69025342   -6.2097581    462.99824  0.027817726  0.027494253           14 
 1388000   0.70844113   -6.2264303    463.27873  0.027814525   0.02747484           14 
 1389000   0.72540771   -6.2504935    463.18207  0.027788701  0.027455548           14 
 1390000    0.6812072   -6.2576858    463.46495  0.027785668  0.027436164            8 
 1391000   0.69207083   -6.2332944    463.96455  0.027795624  0.027416804           13 
 1392000   0.69574587   -6.2407419    463.77272  0.027764172  0.027397383            8 
 1393000   0.69667415   -6.2347428    464.02263  0.027759191  0.027378078           26 
 1394000   0.69461548   -6.2335649    464.37498  0.027760341  0.027358834            9 
 1395000   0.68755143   -6.2144665    465.31853  0.027796806   0.02733965            7 
 1396000   0.69607786   -6.2390547    464.84916  0.027748875  0.027320446           20 
 1397000   0.70523167   -6.2429946    465.68394  0.027778808  0.027301219            6 
 1398000   0.70515666   -6.2290793    465.18994  0.027729491  0.027282083            5 
 1399000   0.70387747   -6.2168334    464.96186  0.027696084  0.027263019            8 
 1400000   0.69163282   -6.2448851    464.38648  0.027642052  0.027243835           13 
 1401000   0.69876051   -6.2226405    464.96925  0.027656986  0.027224641            8 
 1402000   0.69829278   -6.2353036    464.04103  0.027582087  0.027205539           10 
 1403000   0.70023574   -6.2227932    465.45943  0.027646676  0.027186482            9 
 1404000   0.70145477   -6.2345274    466.46157  0.027686466  0.027167529           26 
 1405000   0.69973795   -6.2375876    465.54034   0.02761212  0.027148591           29 
 1406000   0.68920825    -6.233869    465.16183  0.027570047  0.027129566           12 
 1407000   0.70652166   -6.2781526    464.04127  0.027484084  0.027110471           13 
 1408000   0.70708328    -6.271114     464.7817  0.027508386  0.027091258           11 
 1409000   0.70586257   -6.2476081    464.75994  0.027487576  0.027072023           18 
 1410000   0.70126776   -6.2672497    464.10522  0.027429386  0.027052867           15 
 1411000   0.68926525   -6.2642694    465.24059  0.027477001  0.027033699            8 
 1412000   0.67330098   -6.2703005    464.60127  0.027419811  0.027014598           21 
 1413000   0.69847511   -6.2719803    464.95288  0.027421142   0.02699542            8 
 1414000   0.68791696   -6.2710124    465.33812  0.027424453  0.026976367           17 
 1415000   0.69144399   -6.2754964    464.18124   0.02733694    0.0269573           26 
 1416000   0.69498019   -6.2642869    464.89337  0.027359544  0.026938353           14 
 1417000   0.68428255   -6.2725731    464.21757  0.027300492  0.026919298           20 
 1418000   0.69149339   -6.2471103    466.41624  0.027410451  0.026900154           17 
 1419000   0.67802536    -6.269751       464.66  0.027287997  0.026881109           31 
 1420000   0.69323665   -6.2600415    466.19976  0.027359141  0.026862153           24 
 1421000   0.68458231   -6.2999378    464.80031  0.027257818  0.026843235           10 
 1422000   0.68212396   -6.2454856    466.39958  0.027332371  0.026824305           12 
 1423000   0.67679334   -6.2402276    467.25161   0.02736306  0.026805514           12 
 1424000   0.69001377   -6.2803953    466.40169  0.027294106   0.02678664            8 
 1425000   0.68886629   -6.2690075    465.61499  0.027228947  0.026767714           11 
 1426000   0.69122297   -6.2576221    465.21142  0.027186268  0.026748827           21 
 1427000   0.66958171   -6.2675876    465.47097  0.027182374  0.026729923            8 
 1428000   0.66295102   -6.2617643    465.60384  0.027171092  0.026710899           12 
 1429000   0.67019731   -6.2691319    465.75834  0.027161088   0.02669198           11 
 1430000     0.667473   -6.2935264    465.51414  0.027127864  0.026672996           13 
 1431000   0.67633545   -6.2733647    465.17576  0.027089201  0.026653988           11 
 1432000   0.67775109   -6.2583734    466.32812  0.027137344  0.026635055           15 
 1433000   0.68902887   -6.2487599    465.49005   0.02706967  0.026616233           15 
 1434000   0.68659921   -6.2650053    466.97775  0.027137247  0.026597473            9 
 1435000   0.69615241   -6.2681937    465.82163  0.027051198  0.026578631           18 
 1436000   0.69212802   -6.2498566    465.80861  0.027031604  0.026559769            9 
 1437000   0.68687449   -6.2741802    465.67162  0.027004849  0.026540804           11 
 1438000    0.6784979   -6.2953942    466.08187  0.027009844  0.026521948           25 
 1439000   0.67642715   -6.2943089    465.92693  0.026982101  0.026503013           30 
 1440000   0.68824434   -6.2728442    465.79034  0.026955459  0.026484078           25 
 1441000    0.6807297   -6.2917545      465.806  0.026937659  0.026465175            5 
 1442000   0.66578979   -6.3021035    465.99216  0.026929736  0.026446409            5 
 1443000   0.67917698   -6.2755685    465.69511   0.02689392  0.026427693           27 
 1444000   0.68638736   -6.2478316    467.33782  0.026970096  0.026408983           22 
 1445000   0.69167049   -6.2947749    466.36697  0.026895443  0.026390192           26 
 1446000   0.67590306   -6.3082524    466.56378  0.026888185  0.026371352           14 
 1447000   0.67457211   -6.3126466    465.44168   0.02680498  0.026352482           42 
 1448000   0.67410866   -6.2896307    465.36883  0.026782276  0.026333569            9 
 1449000   0.66701842   -6.2956408    466.74881  0.026843157   0.02631465            9 
 1450000   0.68581894    -6.294764    466.11896  0.026788446  0.026295779            9 
 1451000   0.68293915     -6.32551    464.86043  0.026697705  0.026276913            9 
 1452000   0.67950323   -6.3423817        464.8   0.02667585  0.026257989           11 
 1453000    0.6754383   -6.2874347    465.94745    0.0267233  0.026239188           14 
 1454000   0.67259232   -6.3331902    465.41075  0.026674161  0.026220413           11 
 1455000    0.6823147   -6.3072493    465.04908  0.026635113  0.026201574            8 
 1456000   0.67212156   -6.3272776    465.51529  0.026643503  0.026182798            9 
 1457000    0.6792794   -6.3040263     466.6471  0.026689951  0.026164017           23 
 1458000   0.66585877    -6.331356    467.09023  0.026696972  0.026145265           23 
 1459000   0.67487481   -6.3085392     466.4539  0.026642329  0.026126545           24 
 1460000    0.6761458   -6.2954996    466.91328  0.026650302   0.02610788            9 
 1461000   0.68115801   -6.3056521    466.72374  0.026621249  0.026089252           16 
 1462000   0.67348747   -6.3051715    467.20127   0.02663026  0.026070593           10 
 1463000   0.68668211   -6.3004525    466.97226  0.026599012  0.026051957           14 
 1464000   0.67095946   -6.3270782    466.54531  0.026556541  0.026033251           13 
 1465000     0.672382   -6.3165026    466.27642  0.026523119  0.026014597            8 
 1466000   0.65973152    -6.307475      465.512  0.026461574  0.025995947            8 
 1467000   0.67284591   -6.3111017    466.54487  0.026502208  0.025977315            8 
 1468000   0.67371678   -6.3062874    466.61469  0.026488118  0.025958803           18 
 1469000   0.65901316   -6.2916541    467.20958  0.026503834  0.025940284           14 
 1470000   0.65943558   -6.3101473    466.44404  0.026442406  0.025921804            8 
 1471000   0.66860463   -6.3069959    467.05169  0.026458854  0.025903254            7 
 1472000   0.66612458    -6.301506    466.70712  0.026421372  0.025884623           37 
 1473000   0.66842235   -6.2949927     468.0563  0.026479763  0.025866066            8 
 1474000   0.66324037   -6.3010228    466.97964  0.026400929  0.025847496           29 
 1475000   0.66110037   -6.3100847    465.95694  0.026325251  0.025828933           16 
 1476000   0.65450239   -6.3052232    465.67701  0.026291611  0.025810468           15 
 1477000   0.66374531   -6.3223352     466.0153  0.026292897  0.025791907           13 
 1478000   0.66399305   -6.3245003    466.47897   0.02630125  0.025773368           13 
 1479000   0.65569268   -6.3148119    466.19563  0.026267502  0.025754742           25 
 1480000    0.6627858    -6.300241    466.77317  0.026282273  0.025736207           15 
 1481000   0.67052924   -6.3174133    466.96337  0.026275229  0.025717696           10 
 1482000   0.67516155   -6.3288622    467.74812  0.026301626  0.025699208           18 
 1483000   0.65602725   -6.3291421    467.06556  0.026245536  0.025680667           10 
 1484000   0.66042788   -6.3054007    467.08321  0.026228841  0.025662088           12 
 1485000   0.65584841   -6.3331151    466.42145  0.026174043  0.025643542           48 
 1486000   0.65512858   -6.3404572    466.70799  0.026172499  0.025624998           34 
 1487000   0.67451566    -6.344898    466.52115  0.026144427  0.025606441           12 
 1488000   0.66468876   -6.3635107    465.87152  0.026090475  0.025587932           14 
 1489000   0.65653684   -6.3516802    466.80137  0.026124993  0.025569366           51 
 1490000   0.66143091   -6.3392391    466.80487  0.026107655  0.025550755           28 
 1491000   0.66474717   -6.3545681    466.50584  0.026073432  0.025532146           25 
 1492000   0.65469124   -6.3291652    466.97785  0.026082319  0.025513543           38 
 1493000   0.66922338   -6.3590415    466.30579  0.026027338   0.02549503           50 
 1494000   0.66948206   -6.3020928     467.2361  0.026061808  0.025476646           19 
 1495000   0.65604793   -6.3294217    467.73602  0.026072242  0.025458253           26 
 1496000   0.66237396   -6.3307479    466.58694  0.025990805  0.025439912            8 
 1497000   0.65701587   -6.3357595    466.55756  0.025971808   0.02542157           19 
 1498000   0.65383338   -6.3327659    466.73592  0.025964393  0.025403257           16 
 1499000   0.66192119   -6.3398258    467.16855  0.025971122  0.025384821           36 
 1500000   0.65049415   -6.3647093    466.36083  0.025908935  0.025366398           11 
 1501000   0.66823885   -6.3205098    467.42837  0.025950942  0.025348074           28 
 1502000   0.65553549   -6.3573019    467.92713  0.025961336  0.025329793           17 
 1503000   0.66245455   -6.3459798    466.48898  0.025864326  0.025311429           28 
 1504000   0.65992189   -6.3436985    466.67702  0.025857548  0.025293117           15 
 1505000   0.65879749   -6.3450876    466.75254  0.025844548  0.025274807            9 
 1506000     0.656751   -6.3589269     466.9899  0.025840521  0.025256469           21 
 1507000    0.6494685   -6.3476784    466.88228  0.025817423  0.025238161           45 
 1508000   0.67154787   -6.3709698    466.19988  0.025762593  0.025219826           21 
 1509000   0.64519533   -6.3639798    467.08594  0.025794452  0.025201538            8 
 1510000   0.65197383   -6.3634134    467.22928   0.02578528  0.025183312           40 
 1511000   0.63897483   -6.3664986    467.59041  0.025788132  0.025165118           43 
 1512000    0.6475768    -6.363133    466.47427  0.025709561  0.025146953           27 
 1513000   0.65875815   -6.3528048    466.95198   0.02571888  0.025128706           21 
 1514000   0.64005029   -6.3498808    468.23866  0.025772713  0.025110558           12 
 1515000   0.64440351   -6.3609466    468.65073  0.025778368  0.025092519           22 
 1516000   0.63507341   -6.3554186    468.38209  0.025746597  0.025074469           16 
 1517000   0.65113369   -6.3623603    468.43238  0.025732387  0.025056373           16 
 1518000   0.64346777   -6.3626834    468.57248  0.025723127  0.025038312           19 
 1519000   0.65249535   -6.3382775    469.15828   0.02573833  0.025020258           24 
 1520000   0.64759962   -6.3587876    468.61812  0.025691783  0.025002323           16 
 1521000   0.63664483   -6.3458216    468.81032  0.025685422  0.024984319           16 
 1522000   0.64117641   -6.3550934     469.3025  0.025695494  0.024966306           32 
 1523000   0.65308151   -6.3481875    468.43173  0.025630977  0.024948328           17 
 1524000   0.64376442   -6.3471049    469.68378  0.025682621  0.024930386           21 
 1525000   0.64692988   -6.3586327    468.99444  0.025628111  0.024912402           12 
 1526000   0.63479383   -6.3894396    467.23712  0.025515351  0.024894341           18 
 1527000   0.63781698   -6.3606147    468.32423   0.02555797  0.024876341            9 
 1528000   0.63443731   -6.3520901    468.52772  0.025552341  0.024858353           14 
 1529000   0.63931794   -6.3831492    467.22773  0.025464777  0.024840403           11 
 1530000   0.65885056    -6.387531    468.14024  0.025497834  0.024822445           19 
 1531000   0.63189021    -6.372665     468.4921  0.025500332  0.024804543           15 
 1532000   0.64905555   -6.3769014    468.37928   0.02547755  0.024786649            7 
 1533000   0.65185391   -6.3851787    467.57445   0.02541718  0.024768693           24 
 1534000   0.63783204   -6.3988615     467.3293  0.025387293  0.024750727           31 
 1535000   0.64680218   -6.3930787    468.27655  0.025422179  0.024732726           16 
 1536000   0.63460499   -6.3989597    468.32495  0.025408255  0.024714751           21 
 1537000   0.63314585   -6.3850208    467.80926  0.025363764  0.024696809           16 
 1538000   0.64522739   -6.3690058    469.49027  0.025438355  0.024678956           17 
 1539000   0.64436013   -6.3740727    467.84742  0.025332869  0.024661052           16 
 1540000   0.63820637   -6.3939311    468.06139  0.025327997  0.024643161           13 
 1541000   0.64041465   -6.3785789     467.9238  0.025304121  0.024625255           28 
 1542000    0.6434126   -6.3918562    467.53556  0.025266729  0.024607384           10 
 1543000   0.63340736   -6.3751928    468.48433  0.025301595  0.024589465           17 
 1544000   0.64501155   -6.3728488     468.4749  0.025284699  0.024571687           14 
 1545000   0.64647113   -6.3903483    468.25269  0.025256348  0.024553869           19 
 1546000   0.63919828   -6.3899929      469.332  0.025298189  0.024535997           24 
 1547000    0.6242769   -6.4111607    468.38472  0.025230808  0.024518123           26 
 1548000   0.64028042   -6.3707374    468.82555   0.02523824   0.02450033           14 
 1549000   0.63982468    -6.389464     468.4062  0.025199387  0.024482533           15 
 1550000   0.64531489   -6.3967621    468.93195  0.025211395   0.02446479           15 
 1551000   0.63847525   -6.3822299    466.67966  0.025074128   0.02444705           34 
 1552000   0.63443123   -6.3985263    468.37266  0.025148876  0.024429277           33 
 1553000   0.64778912    -6.381668    468.48893  0.025138921  0.024411508           24 
 1554000   0.64742186   -6.4039651    468.33709  0.025114602  0.024393831           60 
 1555000   0.62310507    -6.393419    469.50001  0.025160772  0.024376116           21 
 1556000   0.62951647   -6.4185578     468.6629  0.025099769  0.024358395           25 
 1557000   0.63326872   -6.4035935    468.32639  0.025065638  0.024340714           26 
 1558000   0.62704822   -6.3945347    468.29209  0.025047715  0.024322992           14 
 1559000   0.63500045   -6.3854401    468.49838  0.025042676  0.024305282           23 
 1560000   0.62457232   -6.3926304    468.09696  0.025005179  0.024287618           19 
 1561000   0.63255391   -6.4086917    469.20543  0.025048336  0.024269953           27 
 1562000   0.62520377   -6.3992762    469.19862  0.025031937   0.02425234           17 
 1563000   0.62703189   -6.4206171    467.40635  0.024920364  0.024234747           12 
 1564000    0.6383762   -6.4178759    467.63884  0.024916818  0.024217054           12 
 1565000   0.62153681   -6.4396516    466.93459  0.024863396  0.024199419           20 
 1566000   0.61812617    -6.437532    467.86594  0.024897081  0.024181718           38 
 1567000   0.62034186     -6.42242    468.26482  0.024902405  0.024164029           28 
 1568000   0.62116057   -6.4317063    468.38363  0.024892837  0.024146402           29 
 1569000   0.63166572   -6.4090215    468.61213  0.024889108   0.02412886           26 
 1570000   0.63205148   -6.4367867    468.02224  0.024841945  0.024111359           29 
 1571000    0.6150158   -6.3999888     469.5911  0.024909352  0.024093868           30 
 1572000   0.62023652   -6.4293469    468.76592  0.024849762  0.024076337           59 
 1573000   0.62241598   -6.4176055    469.13011  0.024853258  0.024058871           41 
 1574000   0.62871039   -6.4203614     469.0406   0.02483273  0.024041389           57 
 1575000    0.6211589   -6.4170049    468.54517   0.02479075  0.024023869           22 
 1576000   0.63545748   -6.4230952    467.89221  0.024740493  0.024006318           36 
 1577000   0.62413761   -6.4315465    469.05811  0.024786414  0.023988796           57 
 1578000   0.62539494    -6.420782    468.40256  0.024736088  0.023971312           48 
 1579000   0.62646675   -6.4454083    467.86472  0.024692037  0.023953783           40 
 1580000   0.61922768   -6.4456754    468.16056  0.024692013  0.023936214           25 
 1581000   0.60622819   -6.4311266    468.75321  0.024707633  0.023918676           22 
 1582000   0.62008074   -6.4443182    467.90268  0.024647213  0.023901182           23 
 1583000   0.62067595   -6.4426145    468.62234  0.024669527  0.023883727           33 
 1584000   0.62449569     -6.42626    468.58774  0.024652133   0.02386628           29 
 1585000   0.62274002   -6.4280712    469.73822  0.024697067  0.023848896           25 
 1586000   0.61473353   -6.4389754    468.74901  0.024629519  0.023831467           54 
 1587000   0.60782644    -6.413204    469.15499  0.024635318  0.023814078           45 
 1588000   0.60800503   -6.4464663    467.90241  0.024554073  0.023796698           37 
 1589000   0.62014596   -6.4284312    468.42147  0.024565842  0.023779369           43 
 1590000   0.61661744   -6.4304143     468.6173  0.024560655  0.023762056           35 
 1591000   0.62390449   -6.4340559    468.61525   0.02454511  0.023744699           33 
 1592000    0.6157253   -6.4250342    468.68697  0.024533447  0.023727366           22 
 1593000   0.61155274   -6.4366499    468.93767  0.024531161  0.023710025           12 
 1594000   0.60885511   -6.4490041     468.9721  0.024517571  0.023692676           11 
 1595000   0.60196599   -6.4383986    470.01195  0.024556528  0.023675393           34 
 1596000    0.6141837   -6.4621156    467.78801  0.024425022  0.023658091           33 
 1597000   0.61766769   -6.4283617    468.54211  0.024449077  0.023640738           16 
 1598000   0.60363397   -6.4399264    469.19322  0.024467731  0.023623423           11 
 1599000   0.61342594   -6.4601555    468.15282  0.024398208  0.023606158           12 
 1600000   0.60968734   -6.4397726    469.08274  0.024431393  0.023588865           13 
 1601000   0.61017882   -6.4608048     468.7405  0.024398319  0.023571538           19 
 1602000   0.61617327   -6.4477394    467.65766  0.024326761  0.023554197           14 
 1603000   0.61031803   -6.4607983    468.80052  0.024370998  0.023536891           41 
 1604000   0.61310153   -6.4848208    468.43625  0.024336879  0.023519566           32 
 1605000   0.61347586    -6.459027    467.88003  0.024292836  0.023502332           47 
 1606000   0.60290417    -6.479499    467.64021  0.024265266  0.023485062           16 
 1607000   0.61946966   -6.4586202    470.02795  0.024373986  0.023467774           71 
 1608000   0.61083381   -6.4859553    468.45515  0.024277319   0.02345051           70 
 1609000   0.61681086   -6.4443909     468.9861   0.02428973   0.02343321           39 
 1610000   0.60349175   -6.4762918    467.67068  0.024206557  0.023415947           55 
 1611000   0.62437912   -6.4614548    469.36826  0.024279343   0.02339875           43 
 1612000    0.6122115    -6.463506    468.67961  0.024228681  0.023381516           43 
 1613000   0.61251983   -6.4879432    468.35602  0.024196943  0.023364294           70 
 1614000   0.61685168   -6.4723789    468.14917  0.024171271  0.023347105           60 
 1615000   0.60894074   -6.4656078    468.29321  0.024163736  0.023329888           69 
 1616000   0.60973875   -6.4747479    467.20488  0.024092661  0.023312695           63 
 1617000   0.61412317    -6.499784     467.8264  0.024109792  0.023295522           99 
 1618000   0.61145928   -6.4918598    467.91903  0.024099662  0.023278371           81 
 1619000   0.60462208    -6.480317    467.79457   0.02407837  0.023261186           82 
 1620000   0.60128444   -6.5040787    468.20484  0.024084611  0.023244012           70 
 1621000   0.59451172   -6.4592156    468.54578   0.02408728  0.023226844           46 
 1622000   0.62284311   -6.4690206    469.14123  0.024103022  0.023209747           36 
 1623000    0.6147178   -6.4724395    467.71203  0.024014789  0.023192648           33 
 1624000   0.60383972   -6.4976694    468.09275  0.024019538  0.023175502           23 
 1625000   0.60648414   -6.4834598    468.40787  0.024020916  0.023158311           58 
 1626000   0.59697771   -6.4660334    468.13069  0.023991938  0.023141196           65 
 1627000   0.59641815   -6.4814736    469.13559  0.024028662  0.023124098           27 
 1628000   0.60932281   -6.4858562    468.64777  0.023988932  0.023107052           41 
 1629000   0.61247425   -6.4773987    468.53012  0.023968187  0.023089965           39 
 1630000   0.60456333   -6.4821478    468.24397  0.023938853  0.023072916           88 
 1631000   0.59097778   -6.4665176     468.0483  0.023914178  0.023055858           47 
 1632000   0.60428552   -6.4757354    468.42204  0.023918609  0.023038826           30 
 1633000   0.61259732   -6.4846618    467.70483  0.023867362  0.023021787           71 
 1634000   0.59891733   -6.4727047    468.44485  0.023890496  0.023004743           57 
 1635000   0.60657748   -6.4749516    469.02565  0.023905487  0.022987774           26 
 1636000   0.59218362   -6.4870898    468.21149  0.023849404  0.022970724           29 
 1637000   0.59857917   -6.4913105    467.92052  0.023820022  0.022953759           48 
 1638000   0.59609634   -6.4905164    467.87606  0.023803218  0.022936714           64 
 1639000   0.59868779   -6.4991098    468.25864  0.023808147  0.022919711           70 
 1640000   0.59199887   -6.5031077    468.76129  0.023819171  0.022902741           40 
 1641000   0.60367407   -6.4907304     468.8414  0.023808724  0.022885802           39 
 1642000   0.60165788   -6.4849148    468.60526   0.02378224  0.022868839           69 
 1643000   0.59858468    -6.493212    467.48909  0.023711153  0.022851851           63 
 1644000   0.61381469   -6.5215648    467.92904  0.023719031  0.022834896           32 
 1645000   0.60074371   -6.5025644    468.76935  0.023747181  0.022817974           34 
 1646000   0.59059055   -6.4905708    468.95427  0.023742116  0.022801073           20 
 1647000   0.59825209   -6.4900103    468.46876  0.023703135  0.022784196           22 
 1648000   0.58071371   -6.5117047    467.24734  0.023626989  0.022767246           27 
 1649000   0.59716644   -6.5093611    468.41645  0.023671743  0.022750312           37 
 1650000    0.5956267   -6.5085175    467.75055  0.023623765  0.022733409           45 
 1651000   0.59917433   -6.5320122    467.91256  0.023617634  0.022716471           48 
 1652000   0.59153839   -6.5298961    468.45915  0.023630909  0.022699544          119 
 1653000   0.58836331    -6.517055    468.60101  0.023623765   0.02268264           53 
 1654000   0.59417138   -6.5254123    467.45766  0.023551877  0.022665761           86 
 1655000   0.59274948   -6.5102327    467.84353  0.023557076  0.022648879           62 
 1656000   0.60424253   -6.5106522    467.74508  0.023537896  0.022632002           53 
 1657000   0.59259855   -6.5238152    467.58383  0.023515582  0.022615119          114 
 1658000    0.5950291   -6.5356457    467.84434  0.023514493  0.022598244           96 
 1659000   0.59379783   -6.5174914    467.70027  0.023493082  0.022581397           51 
 1660000   0.58565618   -6.5430571    466.90373  0.023438942  0.022564541          126 
 1661000   0.58600512    -6.534647     468.1734  0.023488531  0.022547669          103 
 1662000   0.59084952   -6.5235749        467.3  0.023430606  0.022530759          124 
 1663000   0.59673875   -6.5165286    467.50822   0.02342695   0.02251391          114 
 1664000   0.58724519   -6.5282943    468.38561  0.023456811  0.022497032           75 
 1665000   0.59194338   -6.5346323    467.18302  0.023382533  0.022480192          120 
 1666000   0.57797839   -6.5464747    467.01651  0.023360169  0.022463296          126 
 1667000   0.57707539    -6.548986    467.71012   0.02338083  0.022446384          187 
 1668000   0.59739782   -6.5511025    466.08771  0.023285757  0.022429495          291 
 1669000   0.58758569   -6.5417162    466.85776  0.023310254  0.022412631          296 
 1670000   0.58671231   -6.5338022    467.09314  0.023308041  0.022395743          118 
 1671000   0.59172026   -6.5421585    467.26391  0.023302609  0.022378934          166 
 1672000   0.58545293   -6.5604336    466.27948  0.023239607  0.022362145          219 
 1673000    0.5759133   -6.5544507    466.59737  0.023241551  0.022345315          174 
 1674000   0.58261964   -6.5449862    466.70211  0.023232881  0.022328455          208 
 1675000   0.57551381   -6.5520206    467.13417  0.023240506  0.022311585          207 
 1676000   0.58452512   -6.5532644    466.70758  0.023205429  0.022294761          155 
 1677000   0.59158824   -6.5622833    467.33021  0.023222531  0.022278007           72 
 1678000   0.58236644   -6.5697993    466.13652   0.02314941  0.022261218          180 
 1679000   0.57367308   -6.5596738    466.80835  0.023168967   0.02224441          360 
 1680000   0.57639182   -6.5715211    466.79771  0.023154648  0.022227621          217 
 1681000   0.57563225   -6.5850868    465.81728  0.023092271    0.0222108          322 
 1682000   0.58020644   -6.5867465    466.44455  0.023109619  0.022193939          227 
 1683000   0.58983929   -6.5543352    466.60928  0.023104044  0.022177153          367 
 1684000   0.58313331   -6.5560068     466.6895  0.023094295  0.022160391          182 
 1685000   0.57861024   -6.5561993    466.85321  0.023088685  0.022143631          383 
 1686000   0.57883169   -6.5492642    466.61275  0.023063105  0.022126965           98 
 1687000   0.56442439   -6.5663158    467.53789  0.023095134  0.022110322          226 
 1688000   0.59234849   -6.5734556    467.25605  0.023067538  0.022093636          268 
 1689000   0.56658844   -6.5659732    466.77072  0.023029935  0.022076981          198 
 1690000   0.58086853   -6.5754147    466.58956  0.023007375  0.022060314          266 
 1691000   0.57620753   -6.5639664    467.38118   0.02303278  0.022043657          239 
 1692000   0.57713032   -6.5742759    465.83344  0.022942939  0.022027037          270 
 1693000   0.57383289   -6.5765631    466.40415  0.022957479    0.0220104          228 
 1694000   0.57976817   -6.5753213    466.45926  0.022946638  0.021993767          254 
 1695000   0.57580323   -6.5518835    466.61664  0.022940838  0.021977188          101 
 1696000   0.58433743   -6.5520678    467.00243  0.022946267  0.021960657           75 
 1697000   0.57843129   -6.5730688    467.38258  0.022951413  0.021944138          167 
 1698000   0.57459598   -6.5704426    466.50204  0.022894682  0.021927599          168 
 1699000   0.58700855   -6.5546522     467.7588  0.022942849  0.021911107          160 
 1700000   0.57265615   -6.5644008    467.29953   0.02290684  0.021894666          130 
 1701000   0.56766632   -6.5863626    467.99063  0.022927231  0.021878206          133 
 1702000   0.57647012   -6.5519158    467.17495  0.022873822  0.021861711          141 
 1703000   0.57535845   -6.5593867    467.61054  0.022881706   0.02184528          233 
 1704000   0.56740486     -6.56413    466.70927  0.022824202  0.021828848          143 
 1705000   0.56641581   -6.5784971    467.20436  0.022835013    0.0218124          102 
 1706000    0.5694822    -6.569987    467.37817  0.022830118  0.021795956           94 
 1707000   0.57717108   -6.5512747    467.62358  0.022828724  0.021779568          356 
 1708000   0.56724363   -6.5706583    466.81515  0.022775915  0.021763179          129 
 1709000   0.56171381   -6.5709923    467.93357  0.022817123  0.021746812          176 
 1710000   0.56382046   -6.5848275    466.83813  0.022750396  0.021730429          190 
 1711000   0.56420771   -6.5497203    466.86761  0.022738535  0.021714085          310 
 1712000   0.57330859   -6.5959277    465.98359  0.022682223  0.021697733          176 
 1713000   0.56284676   -6.5712002    467.60753  0.022747983  0.021681397          159 
 1714000   0.56283541   -6.5823052    467.22832  0.022716274  0.021665095          313 
 1715000   0.57080167   -6.5728218    466.98674  0.022691289  0.021648785          161 
 1716000    0.5612192    -6.586372    466.75422  0.022666774  0.021632506          187 
 1717000   0.55983715   -6.5663521    467.02659  0.022666792  0.021616215          258 
 1718000   0.57244019   -6.5960531       466.84  0.022644548  0.021599976          152 
 1719000   0.56915327   -6.6113845    466.63233  0.022621307  0.021583709          238 
 1720000   0.56737106   -6.5839745    466.66733  0.022609851  0.021567443          138 
 1721000   0.55982805   -6.5827018    465.84455  0.022556873  0.021551134          273 
 1722000   0.56605585   -6.6065885    465.78805   0.02254104  0.021534837          225 
 1723000   0.56331847   -6.5603265    468.12429   0.02264095   0.02151862          116 
 1724000    0.5623522   -6.5816998    467.31309  0.022588606   0.02150237          103 
 1725000   0.56733093   -6.5963083    466.84133  0.022552721  0.021486182          127 
 1726000   0.55738013   -6.5999929    466.88222  0.022541629  0.021469966          113 
 1727000   0.55519764   -6.5876872    466.52365  0.022511274  0.021453759          111 
 1728000   0.56149714   -6.5996833    466.75428  0.022509369  0.021437543          158 
 1729000   0.56588198   -6.5862522    467.15931  0.022515872  0.021421353          136 
 1730000   0.55622121    -6.594346    467.34282  0.022511696  0.021405169          148 
 1731000   0.55782122    -6.617999    465.43056  0.022406632  0.021389002          147 
 1732000   0.55570623   -6.5892266    466.39559  0.022440127  0.021372826          156 
 1733000   0.56358235    -6.583805     467.0148  0.022456953  0.021356727          159 
 1734000   0.56150512   -6.5985592    466.87236  0.022437157  0.021340627          200 
 1735000   0.56298215   -6.5949115    467.52738  0.022455686  0.021324539          130 
 1736000   0.54868944   -6.5852946    466.68399  0.022402265  0.021308472          127 
 1737000   0.55311968   -6.5863761    467.16343   0.02241237  0.021292434          137 
 1738000   0.56370543   -6.6073645    467.18359  0.022400441  0.021276414          136 
 1739000   0.55217712   -6.6160903    467.18742  0.022387743  0.021260401          129 
 1740000   0.55071243   -6.6018161    467.02601  0.022367146  0.021244363          174 
 1741000   0.56538233   -6.5918855    466.46389  0.022327393  0.021228355          154 
 1742000    0.5412569   -6.5992771    466.10689  0.022297498  0.021212321          145 
 1743000   0.56748783   -6.6136481    467.02954  0.022328817  0.021196327          109 
 1744000   0.55586668   -6.6145885    465.81834  0.022258139  0.021180336          138 
 1745000   0.56299866   -6.6224662       466.73  0.022288921  0.021164332          105 
 1746000   0.55143324   -6.5959524    467.00972  0.022289506  0.021148334          138 
 1747000    0.5482334   -6.5988288     466.1393  0.022235227  0.021132379          121 
 1748000   0.54800625    -6.608572    466.59107  0.022244044  0.021116437          153 
 1749000   0.54907188   -6.5933966    467.49371  0.022274334  0.021100515          140 
 1750000   0.56657424   -6.6140958    466.83252   0.02223012  0.021084593          140 
 1751000   0.55405122   -6.6188334    467.25078   0.02223733  0.021068679          287 
 1752000    0.5456406   -6.6099572    466.85886  0.022205996  0.021052797          171 
 1753000    0.5542791   -6.6011871    467.25569  0.022212193  0.021036934          267 
 1754000   0.54995275   -6.6056852    466.08877  0.022144088  0.021021064          242 
 1755000   0.55690777   -6.6245164    465.50357  0.022103684  0.021005239          144 
 1756000   0.55951212   -6.6380698    465.73103   0.02210189  0.020989401          248 
 1757000   0.55471926   -6.6278917    466.56846  0.022129029  0.020973587          186 
 1758000   0.55227509   -6.6100736    466.94106  0.022134104  0.020957821          185 
 1759000   0.56323992   -6.6067541    466.53371  0.022102222  0.020942065          150 
 1760000   0.55457787   -6.6283807     466.6659  0.022095923  0.020926314          296 
 1761000   0.53927374   -6.6188562     466.5379  0.022077319  0.020910543          230 
 1762000   0.55191748   -6.6152637    467.24629  0.022098292  0.020894783          159 
 1763000   0.54817037   -6.6287269    466.85695  0.022067355  0.020879055          292 
 1764000   0.54627942   -6.6142679    467.41563  0.022081237  0.020863313          172 
 1765000   0.55463584   -6.6514455    467.08769  0.022053243  0.020847597          152 
 1766000   0.55525508   -6.6220763    466.88891  0.022031376  0.020831902          205 
 1767000   0.54112742   -6.6381456    466.52424  0.022001709  0.020816168          285 
 1768000    0.5510405    -6.630698    466.43424  0.021985022  0.020800453          250 
 1769000    0.5373239   -6.6259243    466.08991  0.021956374  0.020784747          313 
 1770000   0.55064836   -6.6282112    466.69463   0.02197244  0.020769078          120 
 1771000   0.54275465   -6.6467462    466.09036    0.0219316  0.020753388          180 
 1772000   0.54759612   -6.6348787    466.78062  0.021951685  0.020737691          139 
 1773000    0.5584098   -6.6451458    466.09967  0.021907298  0.020722024          321 
 1774000    0.5498698   -6.6297963    467.57415  0.021964212  0.020706353          223 
 1775000   0.55487393   -6.6392879    465.77489  0.021867366  0.020690668          303 
 1776000   0.55503062   -6.6444907    466.22513  0.021876179  0.020675019          304 
 1777000   0.52388402   -6.6565007    465.41708  0.021825974  0.020659351           97 
 1778000   0.54260243   -6.6385112    466.97828  0.021886871  0.020643692          330 
 1779000   0.53870313   -6.6461798    466.98603  0.021874931  0.020628023          347 
 1780000   0.54130374   -6.6630959    465.94488  0.021813899  0.020612372          224 
 1781000   0.52886189   -6.6513944    466.18971  0.021813106  0.020596729          170 
 1782000   0.53799813   -6.6528887       465.72    0.0217789  0.020581085          302 
 1783000   0.54941623   -6.6533496     465.9063  0.021775393  0.020565451          429 
 1784000   0.55207852   -6.6383355    466.17056   0.02177553  0.020549853          226 
 1785000   0.53215936    -6.665854    465.96517  0.021753743  0.020534269          359 
 1786000   0.53912379   -6.6579627    465.56233  0.021722766  0.020518712          203 
 1787000   0.53501336   -6.6495452     465.9831  0.021730232  0.020503153          350 
 1788000   0.53333175   -6.6472385    465.44011  0.021692772   0.02048763          293 
 1789000   0.53401163   -6.6721438    465.93891  0.021703881  0.020472113          350 
 1790000   0.55123415   -6.6592345    466.95964  0.021739276  0.020456624          252 
 1791000   0.53740716   -6.6523679    466.27588  0.021695323  0.020441115          306 
 1792000   0.55370861   -6.6576686    466.99803  0.021716798  0.020425616          257 
 1793000   0.53755884   -6.6399271     466.5577  0.021684221  0.020410132          191 
 1794000   0.53869387   -6.6398292    465.21781  0.021609895  0.020394664          322 
 1795000   0.54294034   -6.6716988    466.00519   0.02163441  0.020379192          299 
 1796000   0.53083354   -6.6609329    465.38666  0.021593665  0.020363732          324 
 1797000   0.53514958   -6.6700828    465.77658   0.02159973  0.020348293          483 
 1798000   0.53572997   -6.6637086    465.30887  0.021566039  0.020332824          312 
 1799000   0.54401376   -6.6659106    465.45225  0.021560693  0.020317386          391 
 1800000     0.535178   -6.6551516    465.41688  0.021547078  0.020301944          410 
 1801000   0.52940779   -6.6805179    464.86166  0.021509424  0.020286485          312 
 1802000   0.53819307   -6.6770362    466.28217  0.021563178  0.020271033          371 
 1803000   0.53579419   -6.6607703    464.66395  0.021476426  0.020255577          464 
 1804000   0.53674735   -6.6782411    465.11857  0.021485522   0.02024014          373 
 1805000   0.53079434   -6.6740567    465.18973  0.021476904  0.020224691          465 
 1806000   0.53802912   -6.6587146    465.49804  0.021479238  0.020209293          307 
 1807000   0.52799004   -6.6799353    465.98642  0.021489874  0.020193927          548 
 1808000   0.52969645   -6.6740281     464.6644  0.021417054  0.020178554          591 
 1809000   0.53539356   -6.6793545    465.00385  0.021420852  0.020163198          462 
 1810000   0.53419825   -6.6841498    465.62789  0.021437748  0.020147822          378 
 1811000    0.5335313   -6.6901071    464.76051  0.021385998  0.020132444          491 
 1812000   0.53485723   -6.6893213    465.40904  0.021404021  0.020117085          421 
 1813000   0.53346698   -6.6832904    465.25218  0.021385005  0.020101729          348 
 1814000   0.52708605   -6.6760616    465.13415  0.021367794  0.020086396          382 
 1815000   0.52199411    -6.695307    465.61166  0.021377946  0.020071078          410 
 1816000   0.53259639   -6.6793434    464.29864  0.021305921  0.020055748          394 
 1817000   0.53263845   -6.6832488    465.25936  0.021338257  0.020040432          637 
 1818000   0.52973988    -6.673468     464.7283  0.021302177  0.020025127          491 
 1819000   0.53565234   -6.6682728    464.76759  0.021292267  0.020009838          414 
 1820000   0.52007772   -6.6780638    464.64886  0.021275131  0.019994576          422 
 1821000   0.51150223   -6.6887064     465.2093  0.021289095   0.01997931          493 
 1822000   0.51865506   -6.6693979    464.82074  0.021259639   0.01996407          351 
 1823000   0.52291889   -6.6821641     465.4578  0.021277098  0.019948821          521 
 1824000   0.52659371   -6.6958427    464.38245  0.021216304   0.01993356          296 
 1825000   0.52078451    -6.697558    465.33092  0.021247987  0.019918337          326 
 1826000    0.5141458   -6.6982389    464.97743  0.021220219  0.019903154          426 
 1827000   0.52139728   -6.7065252    465.12345  0.021215264  0.019887972          521 
 1828000   0.52868487    -6.683339    464.31836  0.021166957  0.019872793          405 
 1829000   0.52599044   -6.7044188    464.70153  0.021172842  0.019857624          406 
 1830000   0.52466621   -6.6776222    464.78452  0.021165051  0.019842466          468 
 1831000   0.51794747   -6.6878406    464.39245  0.021135648  0.019827317          433 
 1832000   0.52193144   -6.7017871    465.69485  0.021183354  0.019812174          363 
 1833000    0.5237415   -6.7059202    464.14626  0.021101394  0.019797034          553 
 1834000   0.52662671   -6.7002174    463.48797  0.021059977  0.019781889          624 
 1835000   0.52354295   -6.6918609    464.22441  0.021081944  0.019766785          580 
 1836000   0.52242347   -6.7123607    463.25496   0.02102646  0.019751699          572 
 1837000   0.52388947   -6.7059923     464.4923  0.021071144  0.019736585          531 
 1838000   0.52116138   -6.7064166    464.71234  0.021069656  0.019721476          560 
 1839000    0.5218184   -6.7101733    464.53374  0.021050106  0.019706434          585 
 1840000   0.51129731   -6.7123742     465.0725  0.021063066  0.019691388          556 
 1841000   0.52935263   -6.7101998    464.66325    0.0210331  0.019676359          679 
 1842000   0.52756475   -6.7007354    464.74741  0.021025489  0.019661315          618 
 1843000   0.52511535   -6.7126053    464.02253  0.020981304  0.019646284          538 
 1844000   0.51761774   -6.7098487    464.91654  0.021010328  0.019631254          318 
 1845000   0.51782195   -6.7191318     464.3562  0.020973631  0.019616229          616 
 1846000   0.51942717   -6.7222306    463.32091  0.020915534  0.019601209          623 
 1847000   0.51664648   -6.7191182    463.61005  0.020917256  0.019586207          585 
 1848000   0.51677632   -6.7127288    465.04458  0.020970625  0.019571235          391 
 1849000   0.51188074   -6.6987624    463.91728  0.020908477  0.019556265          625 
 1850000   0.51877228   -6.7282927    463.76549  0.020890337  0.019541313          530 
 1851000   0.51208199   -6.7237981    464.34211  0.020905011  0.019526374          449 
 1852000   0.52140571   -6.7086723    464.30737   0.02089216   0.01951145          366 
 1853000   0.50857975   -6.7106895    464.35259  0.020882919  0.019496505          393 
 1854000   0.50982604   -6.7142179    463.62347  0.020838883  0.019481594          408 
 1855000   0.51942435    -6.720232    463.66298  0.020829424  0.019466701          618 
 1856000   0.50747078   -6.7242582    463.89979  0.020828834  0.019451799          545 
 1857000   0.51655048   -6.7232132    463.41217  0.020795736  0.019436909          483 
 1858000   0.51106217   -6.7310903    463.65015  0.020795217  0.019422023          571 
 1859000   0.50568321   -6.7235362    463.86716  0.020793758  0.019407154          467 
 1860000   0.52078099    -6.716018    464.18102  0.020796641  0.019392288          557 
 1861000   0.50601629   -6.7088893    463.22124  0.020742488  0.019377415          417 
 1862000   0.50745717   -6.7311796    463.86977  0.020760373  0.019362587          654 
 1863000   0.49847401   -6.7307875    464.09176  0.020759159  0.019347765          648 
 1864000   0.48829975   -6.7272182      463.661  0.020728764  0.019332937          590 
 1865000   0.50590229   -6.7400787    463.48508  0.020709789  0.019318107          492 
 1866000   0.50298604   -6.7229149    462.95238  0.020674901  0.019303296          665 
 1867000   0.50616781   -6.7371707    464.44081  0.020730263  0.019288503          573 
 1868000   0.50829992   -6.7251736    463.67601  0.020685047  0.019273729          692 
 1869000   0.49984946    -6.726009    463.35911   0.02065985  0.019259009          681 
 1870000   0.49260495   -6.7320903    463.26123   0.02064444  0.019244271          636 
 1871000   0.50772667   -6.7379514    463.13594  0.020627825  0.019229542          484 
 1872000   0.50035643   -6.7436269    463.16944  0.020618298  0.019214816          743 
 1873000    0.5113082   -6.7321793    463.54469  0.020623985  0.019200115          656 
 1874000    0.5169337   -6.7339161    463.05227  0.020591083  0.019185426          665 
 1875000   0.49590097   -6.7295458    463.38166   0.02059474  0.019170766          708 
 1876000   0.50250694   -6.7505967    463.16451  0.020574116  0.019156079          621 
 1877000   0.50054318   -6.7319258    462.82051  0.020547883    0.0191414          680 
 1878000    0.4985752   -6.7234128    463.51025  0.020567547  0.019126743          694 
 1879000   0.51357985   -6.7469378    463.28148  0.020546456  0.019112111          743 
 1880000   0.50650939   -6.7326691    464.31104  0.020581163  0.019097455          703 
 1881000   0.49478626   -6.7572554    463.08973  0.020516114  0.019082805          752 
 1882000   0.49774291   -6.7608905    463.10806  0.020506025  0.019068169          693 
 1883000   0.49533331   -6.7598198    463.15766   0.02049733  0.019053534          755 
 1884000   0.50551588   -6.7369931    463.24785  0.020490439  0.019038909          774 
 1885000   0.50876764   -6.7584453    462.78277  0.020459008  0.019024304          806 
 1886000   0.49583975   -6.7723829    462.65899  0.020442691  0.019009694          719 
 1887000   0.50675045   -6.7644335    463.02622  0.020448076  0.018995086          671 
 1888000   0.49986083   -6.7631528    463.18537   0.02044427  0.018980483          757 
 1889000   0.49481213   -6.7705669    463.05149  0.020427541  0.018965891          679 
 1890000   0.49622154   -6.7626135    462.74501  0.020403219  0.018951308          726 
 1891000    0.4952598   -6.7675062    462.05338  0.020361951  0.018936746          756 
 1892000   0.50242044    -6.764338    462.68668  0.020379082  0.018922193          726 
 1893000   0.50374654   -6.7723676    462.62569  0.020365632  0.018907648          806 
 1894000   0.49816104   -6.7622942     462.2364  0.020337751  0.018893128          812 
 1895000    0.5092712   -6.7645958    462.12558  0.020322145  0.018878629          752 
 1896000   0.48798199   -6.7560595    463.29034   0.02036262  0.018864144          837 
 1897000   0.50335026   -6.7533835    462.71066  0.020326421  0.018849657          754 
 1898000   0.50268443   -6.7691884    463.09893  0.020332759  0.018835194          678 
 1899000   0.49388967   -6.7622741     462.8502  0.020311137  0.018820737          709 
 1900000   0.48876553    -6.757705    462.60582  0.020289729  0.018806306          879 
 1901000   0.49541465   -6.7653532    462.43986  0.020271781  0.018791868          905 
 1902000   0.50148664   -6.7777524    462.66805   0.02027112  0.018777457          733 
 1903000   0.48481938   -6.7699506    462.90925   0.02027103  0.018763041          822 
 1904000   0.49318505   -6.7648395    462.52329  0.020243491  0.018748648          816 
 1905000   0.49599348   -6.7783777    462.05604  0.020212425  0.018734251          892 
 1906000   0.49253148   -6.7719529    461.82205   0.02019159  0.018719871          840 
 1907000   0.50052466   -6.7679133    462.58291  0.020214251  0.018705504          867 
 1908000   0.48779418   -6.7565677    462.49041  0.020199616  0.018691155          810 
 1909000   0.49767461   -6.7770415    462.15479  0.020174384  0.018676819          815 
 1910000   0.49245154   -6.7564997    463.56212  0.020225223  0.018662514          809 
 1911000     0.489411   -6.7623577    462.59585  0.020172503  0.018648188          843 
 1912000   0.47076899   -6.7581997    462.89974  0.020175198    0.0186339          829 
 1913000   0.49552204   -6.7683416      462.838  0.020161962  0.018619614          866 
 1914000   0.48924138   -6.7719723    462.56514  0.020139548  0.018605329          843 
 1915000   0.48621166    -6.783945    463.52972  0.020171006  0.018591036          811 
 1916000   0.48409751   -6.7724503    462.21303  0.020103211  0.018576757          848 
 1917000   0.48292729   -6.7687175    461.98222  0.020082691  0.018562485          823 
 1918000   0.48371449   -6.7860952     463.3344   0.02013097  0.018548215          826 
 1919000   0.48358282   -6.7761221    461.86034  0.020056468  0.018533958          823 
 1920000   0.48651186   -6.7854993    462.39904  0.020069403  0.018519722          862 
 1921000   0.49061655    -6.778292    462.63264  0.020069089   0.01850551          887 
 1922000   0.49112861   -6.7751923    461.69349  0.020017928  0.018491291          861 
 1923000   0.49337069   -6.7703912    462.31213  0.020034327  0.018477102          905 
 1924000    0.4896103   -6.7853341    462.50245  0.020032158  0.018462919          936 
 1925000   0.48222991   -6.7681558    462.46653  0.020020196   0.01844874          981 
 1926000   0.50163102   -6.7708466    462.61354  0.020016162  0.018434572          853 
 1927000   0.48203588   -6.7945291      461.569  0.019960604  0.018420403          917 
 1928000   0.48887177   -6.7800801    462.07321  0.019972044  0.018406238          717 
 1929000   0.48533571   -6.7857797    461.44471  0.019934539    0.0183921          863 
 1930000   0.48625896   -6.7962429    461.08179   0.01990854  0.018377961          864 
 1931000    0.4854268   -6.7876331    461.74212  0.019926727  0.018363849          952 
 1932000    0.4911039   -6.7896675    461.81821  0.019919695  0.018349743          865 
 1933000   0.48597437   -6.7851557    462.14477  0.019923468  0.018335666          824 
 1934000   0.48726056   -6.7857007    461.86813  0.019901246  0.018321588          932 
 1935000   0.47898012   -6.7801832     461.8737  0.019891202  0.018307533          838 
 1936000    0.4849812   -6.7950006    461.97225  0.019885169  0.018293473          879 
 1937000   0.47695869   -6.7832298    461.04639  0.019835071  0.018279415          822 
 1938000    0.4789868   -6.7891092    461.79613  0.019857075  0.018265365          845 
 1939000   0.46795838   -6.8008658    462.44387  0.019874672   0.01825135          812 
 1940000   0.48181327   -6.7791635    461.97928  0.019844471  0.018237339          836 
 1941000   0.47534725   -6.7788402    461.88731  0.019830298   0.01822334          842 
 1942000   0.46400393   -6.7780918    461.63177  0.019809122  0.018209347          831 
 1943000   0.49143181   -6.8000964    462.28732  0.019827042  0.018195357          772 
 1944000   0.47729791   -6.8065957    461.25333  0.019772519   0.01818139          800 
 1945000   0.48213884   -6.7890275    461.07224  0.019754595  0.018167432          862 
 1946000   0.46762679   -6.7924516    460.68507  0.019727863    0.0181535          935 
 1947000   0.47832159   -6.7983819    461.31343  0.019744626  0.018139569          794 
 1948000   0.46821753   -6.8043824    461.98281  0.019763125  0.018125646          890 
 1949000   0.47056632   -6.8177718    460.65169   0.01969607  0.018111722          881 
 1950000   0.48233083   -6.7935823    461.40039  0.019717965  0.018097803          865 
 1951000   0.47431162   -6.8049012    461.48637  0.019711531  0.018083913          778 
 1952000   0.47606166   -6.8151972    462.16736  0.019730505  0.018070013          848 
 1953000   0.47812227   -6.8048609    461.41327  0.019688226  0.018056131          844 
 1954000    0.4720161   -6.8218507    461.36311  0.019676011  0.018042259          774 
 1955000   0.46671705   -6.8165226    460.39757   0.01962479  0.018028398          960 
 1956000   0.46588276   -6.7936866    461.28183   0.01965243  0.018014552          919 
 1957000   0.48011009   -6.8130901    460.99967  0.019630373  0.018000707          903 
 1958000   0.47611359   -6.7998611    461.17418  0.019627774  0.017986882          888 
 1959000   0.45662847    -6.808592    461.65471  0.019638196  0.017973074          858 
 1960000    0.4679728   -6.7982526    460.86723  0.019594695  0.017959257          909 
 1961000   0.46589294   -6.8306773    460.76385   0.01958031  0.017945452         1011 
 1962000   0.47656482   -6.8119213    461.25444  0.019591167  0.017931656          970 
 1963000   0.46087838   -6.8174079    460.91214  0.019566656  0.017917873          948 
 1964000   0.47462708   -6.8271399    460.83326  0.019553346  0.017904113          929 
 1965000   0.46511213   -6.8110287    461.11911  0.019555518  0.017890363          948 
 1966000   0.46581647   -6.8107411    461.25697  0.019551414  0.017876638          916 
 1967000   0.46240202   -6.8129982    460.86308  0.019524787  0.017862911          995 
 1968000   0.47181753   -6.8075339      461.137  0.019526465  0.017849206          939 
 1969000   0.47554546   -6.8156927    461.07606  0.019513969  0.017835507          894 
 1970000   0.46846154   -6.8176656    461.13561  0.019506582  0.017821803          882 
 1971000    0.4624818   -6.8302484    460.41079   0.01946604  0.017808103          931 
 1972000   0.46978985   -6.8130239    460.39378  0.019455451  0.017794411          972 
 1973000   0.46022379   -6.8171512    461.72564  0.019501843  0.017780747          949 
 1974000   0.46418733   -6.8135084    460.64095  0.019446173   0.01776708         1039 
 1975000   0.45890725     -6.82197    460.90079  0.019447291  0.017753412          975 
 1976000    0.4659809   -6.8226674    460.59977  0.019424754  0.017739778         1024 
 1977000   0.46110878   -6.8276485    460.96553  0.019430346  0.017726154          893 
 1978000   0.45538881   -6.8307146    461.19237   0.01943008  0.017712544         1031 
 1979000   0.46574001   -6.8234817    460.60486  0.019395522  0.017698939          991 
 1980000   0.46456143   -6.8347296    460.63161  0.019386852  0.017685358         1001 
 1981000   0.46112247   -6.8270414    461.17097  0.019399755   0.01767178          982 
 1982000   0.46346356   -6.8117233    460.90807  0.019378913  0.017658212          961 
 1983000   0.46118013   -6.8448318    460.16712  0.019338003  0.017644656         1056 
 1984000   0.47542111    -6.837731    460.65181  0.019348614  0.017631098          985 
 1985000   0.44969798   -6.8263173    460.34243  0.019325879  0.017617571          956 
 1986000   0.45846543    -6.809336    461.14538   0.01934984  0.017604055          981 
 1987000   0.46205068   -6.8211049    459.74189   0.01928124  0.017590562          941 
 1988000   0.45810154   -6.8425704    460.26562  0.019293495  0.017577069          975 
 1989000   0.46016023   -6.8172459    460.93064  0.019311658  0.017563587         1014 
 1990000   0.45958105   -6.8213568    460.19519  0.019271155  0.017550107          967 
 1991000   0.45658418   -6.8238736    461.15259  0.019301548  0.017536653          955 
 1992000   0.45122858   -6.8410206    460.23806    0.0192536  0.017523202         1048 
 1993000   0.45916987    -6.822009    459.93455  0.019231249  0.017509771          942 
 1994000   0.45862698   -6.8284431    460.83957  0.019259427  0.017496354          994 
 1995000   0.47092083   -6.8223675    460.39005  0.019230996  0.017482957          998 
 1996000   0.46732089    -6.836428    459.68895   0.01919209  0.017469554         1036 
 1997000    0.4591824   -6.8348902    460.84714   0.01923081  0.017456183         1030 
 1998000    0.4559743   -6.8301417    460.66361  0.019213531  0.017442803          970 
 1999000   0.45980515   -6.8197674    460.79401  0.019209355  0.017429473          876 
 2000000   0.45553459    -6.826347    460.25173  0.019177155  0.017416136          890 
 2001000   0.44945622   -6.8325479    461.04761  0.019200717  0.017402798          978 
 2002000   0.46021722   -6.8295846    460.73289  0.019178026  0.017389459          933 
 2003000   0.45196904   -6.8325955    460.33899  0.019152063  0.017376137          954 
 2004000   0.45504637   -6.8488201    461.27179  0.019181295  0.017362843          943 
 2005000   0.44855174   -6.8265722    460.93915  0.019157903  0.017349561          979 
 2006000   0.45270337   -6.8468921     460.1399   0.01911515  0.017336265         1036 
 2007000   0.44766429   -6.8404641    460.35971  0.019114753  0.017322989          966 
 2008000   0.44849129   -6.8534711    460.58051  0.019114397  0.017309721         1037 
 2009000   0.44681267   -6.8331076    460.55941  0.019104007  0.017296475         1033 
 2010000   0.44611382   -6.8479265    460.28717  0.019083216  0.017283251          940 
 2011000   0.45218595   -6.8321635    459.87389  0.019056601   0.01727003          943 
 2012000   0.45045985   -6.8588903    460.36085  0.019067298  0.017256831          861 
Loop time of 5131.97 on 48 procs for 2000000 steps with 4000 atoms

Performance: 67342.567 tau/day, 389.714 timesteps/s
99.4% CPU use with 48 MPI tasks x no OpenMP threads

MPI task timing breakdown:
Section |  min time  |  avg time  |  max time  |%varavg| %total
---------------------------------------------------------------
Pair    | 360.62     | 388.03     | 413.73     |  62.3 |  7.56
Neigh   | 35.273     | 36.845     | 38.268     |  12.0 |  0.72
Comm    | 327.71     | 352.2      | 380.69     |  66.3 |  6.86
Output  | 4.5999     | 4.6021     | 4.6559     |   0.4 |  0.09
Modify  | 4291       | 4303.7     | 4314       |   8.1 | 83.86
Other   |            | 46.63      |            |       |  0.91

Nlocal:        83.3333 ave          93 max          76 min
Histogram: 3 5 7 11 7 2 3 6 2 2
Nghost:        2396.38 ave        2421 max        2373 min
Histogram: 1 3 6 11 3 10 7 3 1 3
Neighs:        16535.6 ave       19890 max       13812 min
Histogram: 2 5 4 6 13 7 7 2 1 1
FullNghs:      33070.3 ave       36935 max       30105 min
Histogram: 6 2 6 13 5 3 3 6 2 2

Total # of neighbors = 1587375
Ave neighs/atom = 396.84375
Neighbor list builds = 107197
Dangerous builds = 0

#clear
#
#next RN
#
#jump SELF
Total wall time: 1:25:35
