
units lj                  # Use reduced LJ style units
atom_style atomic         # Uncharged point particles
atom_modify map hash      # Needed for indexing of clusters etc
                          # Used to be able to find where atoms are in relation to each other.

lattice fcc 1.0 spacing 1 1 1
Lattice spacing in x,y,z = 1.5874011 1.5874011 1.5874011
region box block 0 10 0 10 0 10 units lattice
create_box 2 box
Created orthogonal box = (0.0000000 0.0000000 0.0000000) to (15.874011 15.874011 15.874011)
  3 by 4 by 4 MPI processor grid
create_atoms 1 box
Created 4000 atoms
  using lattice units in orthogonal box = (0.0000000 0.0000000 0.0000000) to (15.874011 15.874011 15.874011)
  create_atoms CPU = 0.002 seconds
set type 1 type/fraction 2 0.97 78393
Setting atom values ...
  3879 settings made for type/fraction
mass 1 1.0
mass 2 1.0
pair_style lj/cut  3.5
pair_modify tail  yes
pair_coeff 1  1  1.0  1.0   # Intearaction between 1 and 1 set with epsilon = 1 and sigma = 1
pair_coeff 1  2  1.5  0.8
pair_coeff 2  2  0.5  0.88

write_data data.0
System init for write_data ...
Neighbor list info ...
  update every 1 steps, delay 10 steps, check yes
  max neighbors/atom: 2000, page size: 100000
  master list distance cutoff = 3.8
  ghost atom cutoff = 3.8
  binsize = 1.9, bins = 9 9 9
  1 neighbor lists, perpetual/occasional/extra = 1 0 0
  (1) pair lj/cut, perpetual
      attributes: half, newton on
      pair build: half/bin/atomonly/newton
      stencil: half/bin/3d
      bin: standard
WARNING: Not all mixed pair coeffs generated from mixing. Use write_data with 'pair ij' option to store all pair coeffs. (../write_data.cpp:312)


#############################
#   M E L T   S Y S T E M   #
#############################

velocity all create 2.4 8172548 mom yes dist gaussian # Assign velocities
                                                    # Temperature 2.4, random number seed, zero linear momentum
                                                                                # Gaussian distribution

timestep 0.002   # simulation timestep
thermo 1000       # output thermodynamic data every 1000 steps bf 100

# Define a fix  in this case with index 1 applied to all
# particles in the simulation. This fix is for simulations
# in the anisotropic NPT ensemble. Note that we use the MTK
# correction.
fix 1 all npt temp 2.4 2.4 0.1 iso 5.68 5.68 0.5 mtk yes tchain 5 pchain 5 # Use NPT ensemble
                                                                         # Set temperature and pressure and damping
                                                                         # Numbers of thermostats in chain and in barostat
run 10000          # run for 10000 steps
Per MPI rank memory allocation (min/avg/max) = 3.642 | 3.644 | 3.648 Mbytes
Step Temp E_pair E_mol TotEng Press Volume 
       0          2.4   -2.8451072            0   0.75399283    -1.976462         4000 
    1000    2.3833876   -1.6851386            0     1.889049    5.4533859    4204.8724 
    2000    2.3967455    -1.625944            0    1.9682755    5.7337099    4205.0853 
    3000    2.4106904   -1.6531322            0    1.9619994    5.6499869    4202.8099 
    4000    2.3990596   -1.6809882            0    1.9167016    5.5033324    4204.9369 
    5000    2.4041866   -1.6570096            0    1.9483687    5.7902254    4182.1758 
    6000    2.4099098   -1.6886308            0    1.9253301    5.5692887    4185.7843 
    7000     2.406334   -1.6322076            0    1.9763911    5.8766526    4175.8356 
    8000    2.4104961    -1.658395            0    1.9564453    5.7608572    4173.7174 
    9000    2.4310831   -1.6068555            0    2.0388575    6.0979766    4164.2474 
   10000    2.4424732   -1.6965675            0    1.9662263    5.6499103    4167.7229 
Loop time of 2.38676 on 48 procs for 10000 steps with 4000 atoms

Performance: 723992.641 tau/day, 4189.772 timesteps/s
99.6% CPU use with 48 MPI tasks x no OpenMP threads

MPI task timing breakdown:
Section |  min time  |  avg time  |  max time  |%varavg| %total
---------------------------------------------------------------
Pair    | 1.0351     | 1.0942     | 1.1875     |   3.0 | 45.85
Neigh   | 0.20319    | 0.21008    | 0.22654    |   1.0 |  8.80
Comm    | 0.75026    | 0.82409    | 0.89919    |   3.9 | 34.53
Output  | 0.00024252 | 0.00024803 | 0.0003237  |   0.0 |  0.01
Modify  | 0.20676    | 0.24303    | 0.29027    |   4.2 | 10.18
Other   |            | 0.01509    |            |       |  0.63

Nlocal:        83.3333 ave          93 max          75 min
Histogram: 3 3 8 8 5 6 8 3 1 3
Nghost:        1592.35 ave        1617 max        1567 min
Histogram: 2 3 5 7 5 8 6 6 3 3
Neighs:        9143.29 ave       10604 max        7881 min
Histogram: 2 3 5 10 10 5 6 3 3 1

Total # of neighbors = 438878
Ave neighs/atom = 109.71950
Neighbor list builds = 907
Dangerous builds = 212

# Equilibrate just above the melting temperature to avoid step fn in T

fix 1 all npt temp 1.25 1.25 0.1 iso 5.68 5.68 0.5 mtk yes tchain 5 pchain 5
run 2000
Per MPI rank memory allocation (min/avg/max) = 3.643 | 3.645 | 3.649 Mbytes
Step Temp E_pair E_mol TotEng Press Volume 
   10000    2.4424732   -1.6965675            0    1.9662263    5.6499103    4167.7229 
   11000     1.268324   -2.5855801            0  -0.68356977     5.703546    3243.2468 
   12000    1.2374763   -2.5637637            0  -0.70801326    5.5290743    3265.4932 
Loop time of 0.608409 on 48 procs for 2000 steps with 4000 atoms

Performance: 568039.133 tau/day, 3287.264 timesteps/s
99.5% CPU use with 48 MPI tasks x no OpenMP threads

MPI task timing breakdown:
Section |  min time  |  avg time  |  max time  |%varavg| %total
---------------------------------------------------------------
Pair    | 0.2482     | 0.27544    | 0.30894    |   2.1 | 45.27
Neigh   | 0.037577   | 0.03941    | 0.04154    |   0.5 |  6.48
Comm    | 0.21183    | 0.24227    | 0.27258    |   2.5 | 39.82
Output  | 5.3231e-05 | 5.465e-05  | 7.2053e-05 |   0.0 |  0.01
Modify  | 0.039855   | 0.046485   | 0.081931   |   4.3 |  7.64
Other   |            | 0.004746   |            |       |  0.78

Nlocal:        83.3333 ave          90 max          77 min
Histogram: 2 3 6 8 10 4 5 4 3 3
Nghost:        1883.12 ave        1901 max        1869 min
Histogram: 5 5 7 4 6 7 4 6 2 2
Neighs:        11692.2 ave       13123 max       10154 min
Histogram: 1 2 2 7 13 8 6 4 3 2

Total # of neighbors = 561227
Ave neighs/atom = 140.30675
Neighbor list builds = 141
Dangerous builds = 11

#############################
# L I N E A R  Q U E N C H  #
#############################

# Define solid atoms. This closely follows ten Wolde  Ruiz-Montero and Frenkel  Faraday Discuss  1996  104  93-110
# Compute components of the per-atom q6 vector
compute q6 all orientorder/atom degrees 1 6 components 6 nnn NULL cutoff 1.3 # compute the Q6 parameter.
                                                                             # Use all neighbours within 1.3 unit cell.

# get number of connections
compute coord_number all coord/atom orientorder q6 0.5

# An atom is solid if it has 8 or more connections (of a possible 14)
variable is_solid atom c_coord_number>=8
group solid dynamic all var is_solid    # Must be dynamic to update
dynamic group solid defined

# do clustering
compute cluster solid cluster/atom 1.3 # Create a cluster where all atoms within are solid and max 1.3 units from another member

# define chunks one chunk per cluster
compute clus_chunks solid chunk/atom c_cluster nchunk every compress yes  # Says which atoms are in which chunk

# count the size of each chunk
compute size_chunks solid property/chunk clus_chunks count


# Find the maximum entry in the vector of chunk sizes
variable max_n equal max(c_size_chunks)


# Thermo style which includes this variable
# thermo_style custom step temp pe vol v_max_n

thermo ${N}  # Print the thermo information every 100 steps
thermo 1000  

# Reset the npt fix at a lower temperature (below freezing)
fix 1  all npt temp  ${temp} ${temp}  0.1  iso  5.68  5.68  0.5  mtk yes tchain  5  pchain  5
fix 1  all npt temp  0.45 ${temp}  0.1  iso  5.68  5.68  0.5  mtk yes tchain  5  pchain  5
fix 1  all npt temp  0.45 0.45  0.1  iso  5.68  5.68  0.5  mtk yes tchain  5  pchain  5

dump dmp2 all dcd ${N} traj.dcd
dump dmp2 all dcd 1000 traj.dcd


compute msd all msd com yes
variable twopoint equal c_msd[4]/6/(step*dt+1.0e-6)
fix 9 all vector 10 c_msd[4]
variable fit equal slope(f_9)/6/(10*dt)
thermo_style custom step temp pe c_msd[4] v_twopoint v_fit v_max_n

fix 1 all npt temp 1.25 ${temp} 0.1 iso 5.68 5.68 0.5 mtk yes tchain 5 pchain 5
fix 1 all npt temp 1.25 0.45 0.1 iso 5.68 5.68 0.5 mtk yes tchain 5 pchain 5
run 2000000 # 5000000  # Run for this many steps
Neighbor list info ...
  update every 1 steps, delay 10 steps, check yes
  max neighbors/atom: 2000, page size: 100000
  master list distance cutoff = 3.8
  ghost atom cutoff = 3.8
  binsize = 1.9, bins = 8 8 8
  4 neighbor lists, perpetual/occasional/extra = 1 3 0
  (1) pair lj/cut, perpetual
      attributes: half, newton on
      pair build: half/bin/atomonly/newton
      stencil: half/bin/3d
      bin: standard
  (2) compute orientorder/atom, occasional
      attributes: full, newton on
      pair build: full/bin/atomonly
      stencil: full/bin/3d
      bin: standard
  (3) compute coord/atom, occasional
      attributes: full, newton on
      pair build: full/bin/atomonly
      stencil: full/bin/3d
      bin: standard
  (4) compute cluster/atom, occasional
      attributes: full, newton on
      pair build: full/bin/atomonly
      stencil: full/bin/3d
      bin: standard
Per MPI rank memory allocation (min/avg/max) = 9.815 | 9.819 | 9.823 Mbytes
Step Temp PotEng c_msd[4] v_twopoint v_fit v_max_n 
   12000    1.2374763   -2.5637637 3.1554436e-30 2.1912802e-32 8.3333333e+20            1 
   13000    1.2546872   -2.5452321    1.1439652 0.0073331097  0.097555959            1 
   14000    1.2664229   -2.5728767    2.3885638  0.014217641   0.10099256            2 
   15000    1.2435405   -2.5564057    3.7506005  0.020836669   0.10611541            1 
   16000    1.2179515   -2.5754576    5.1145547  0.026638305   0.10801782            2 
   17000    1.2521198   -2.5511639    6.4374463  0.031556109   0.10884836            4 
   18000    1.2618897   -2.5380898    7.8025726   0.03612302   0.10992926            1 
   19000    1.2697845   -2.5281675    9.1566974  0.040160952   0.11050156       -1e+20 
   20000     1.282826   -2.5375947    10.435204  0.043480017   0.11053494            1 
   21000    1.2713334   -2.5591041    11.539821  0.045792941   0.11009385            1 
   22000     1.258978   -2.5387232    12.924515  0.048956495   0.10949777            2 
   23000    1.2394286   -2.5678494     14.31038  0.051849202   0.10942118            3 
   24000    1.2162416   -2.5323885    15.657543  0.054366469   0.10952423            1 
   25000    1.2383669    -2.553919    16.981619  0.056605396   0.10976169            2 
   26000    1.2585492   -2.5217425    18.208273  0.058359848   0.10975008            1 
   27000    1.2366471   -2.5583688    19.455447  0.060047675   0.10952264            1 
   28000    1.2370816   -2.5542531    21.077605  0.062730967   0.10971705            2 
   29000    1.2237969   -2.5406595    22.516024  0.064701216   0.11004142            2 
   30000    1.2513127   -2.5423313    23.689197  0.065803323   0.11028802            1 
   31000    1.2486211   -2.5197677    24.893438  0.066917843   0.11018056            1 
   32000    1.2500118   -2.5514249    26.047616  0.067832332   0.10985669            2 
   33000    1.2377322   -2.5673363    27.449536   0.06931701    0.1096462            3 
   34000    1.2314072    -2.547062     28.87469  0.070771299   0.10952325            1 
   35000    1.2516672   -2.5409109    30.112352  0.071696076   0.10948283            2 
   36000    1.2452206   -2.5808122    31.388123   0.07265769   0.10944773            1 
   37000    1.2226022   -2.5419138    32.673731  0.073589484   0.10947534            1 
   38000    1.2246897   -2.5494741    34.219284  0.075042289   0.10954108            1 
   39000    1.2387362   -2.5538665    35.443842  0.075734704   0.10962547            1 
   40000    1.2400463   -2.5522805    36.866123  0.076804421   0.10960349            3 
   41000    1.2323384   -2.5613155    37.924177   0.07708166   0.10967951            1 
   42000    1.2350849   -2.5508899    39.480252  0.078333833   0.10974796            1 
   43000    1.2474259   -2.5787841    40.948022   0.07935663    0.1098066            1 
   44000    1.2674938   -2.5727556    41.863153  0.079286274   0.10983876            1 
   45000     1.258504   -2.5534202    43.171379  0.079946997   0.10983424            1 
   46000    1.2366078   -2.5562073    44.337197  0.080321008   0.10977363            1 
   47000    1.2341386   -2.5497613    45.466341  0.080614079   0.10962711       -1e+20 
   48000    1.2313088   -2.5280184    46.893078  0.081411593   0.10948496            1 
   49000    1.2545629   -2.5155941    48.203349  0.081978484   0.10935097            1 
   50000    1.2360419   -2.5975218     49.45176  0.082419598      0.10927            1 
   51000    1.2410619    -2.555545    51.065653  0.083440608   0.10928935            2 
   52000    1.2395837   -2.5637989    52.848501  0.084693109   0.10940174            3 
   53000    1.2431033   -2.6083265    53.986254  0.084884047   0.10949273            2 
   54000    1.2194643   -2.5761869     55.28535  0.085316898    0.1095759            2 
   55000    1.2305751   -2.5345694    56.404188  0.085460889   0.10960218            2 
   56000    1.2297095    -2.561668    58.115575   0.08648151   0.10963457            1 
   57000    1.2357207   -2.5775976     59.15931  0.086490219   0.10969862            1 
   58000    1.2067728   -2.5532395    60.619009  0.087096277   0.10973641            1 
   59000    1.2327964   -2.5479464    61.998662   0.08756873   0.10974617            1 
   60000    1.2288375   -2.5814308    62.892728  0.087351011    0.1097314            1 
   61000    1.2301319   -2.5531487    64.330249  0.087882853   0.10971981            2 
   62000    1.2504498   -2.5721411    65.216905   0.08765713   0.10970826            1 
   63000    1.2014377   -2.5738276    66.813157  0.088377191   0.10966619            2 
   64000    1.2359464   -2.5852143    67.981149  0.088517121   0.10960563            2 
   65000     1.239513   -2.5546901    69.405484  0.088981389   0.10958613            3 
   66000    1.2318999   -2.5530652    70.585838  0.089123532   0.10952922            2 
   67000    1.2516499   -2.5753817    71.993649  0.089544338   0.10950484            2 
   68000    1.2393619   -2.5810725    73.150092   0.08964472   0.10946298            3 
   69000     1.232558   -2.5682911     74.40966  0.089866738   0.10939087            2 
   70000    1.2324404   -2.5702368    75.378086  0.089735816   0.10934387            2 
   71000    1.2552795   -2.5655911    76.982626  0.090355194   0.10931399            2 
   72000    1.2263939   -2.5637782    78.751971  0.091148114   0.10928853            2 
   73000     1.222581   -2.5772753    79.806057  0.091102804   0.10926266            1 
   74000    1.2252754   -2.5906321    81.373863  0.091637233   0.10924207            1 
   75000    1.2235234    -2.551944    82.372738  0.091525264   0.10923684            2 
   76000    1.2212368   -2.5457071    83.537064  0.091597657   0.10924645            2 
   77000    1.2036146   -2.5661275    84.594421  0.091552403   0.10920909            1 
   78000    1.2102793   -2.5565848    85.663398  0.091520724   0.10913942            2 
   79000    1.2167258   -2.5844736    86.753542  0.091512175   0.10903943            1 
   80000     1.223567     -2.57688     87.88986  0.091551937   0.10892313            2 
   81000    1.2143624   -2.5434518     89.19844  0.091767942   0.10877901            1 
   82000    1.2051279   -2.5518583     90.11172  0.091576951    0.1086568            2 
   83000    1.2491423    -2.579513    90.483445  0.090846832   0.10850989            1 
   84000     1.237879   -2.5775376    92.146576  0.091415253   0.10835563            3 
   85000    1.2059637   -2.5853447    93.185194  0.091358033   0.10819927            1 
   86000    1.2637116   -2.6146209      94.1256  0.091206977    0.1080379            1 
   87000    1.2168016   -2.6066536    95.631439  0.091600995   0.10789635            3 
   88000    1.2315783   -2.5959226    96.878433   0.09174094   0.10776495            2 
   89000    1.2375556   -2.5719016    99.014425  0.092710135   0.10765281            3 
   90000    1.2273866   -2.5862041    100.03847  0.092628212   0.10757097            1 
   91000    1.1919984   -2.5746025    101.47112  0.092922268   0.10749077            2 
   92000    1.2337821   -2.5717447    103.12749  0.093412585   0.10741572            3 
   93000    1.2364737    -2.569826    103.35045  0.092607931   0.10731923            1 
   94000    1.2082011   -2.5705193    104.74819  0.092861868   0.10719765            2 
   95000    1.2378339   -2.5810886     105.8703  0.092868687   0.10709783            1 
   96000    1.2151571   -2.5596557    107.32787   0.09316655   0.10699653            3 
   97000    1.2057988   -2.5594135    107.81283  0.092622708   0.10689632            1 
   98000    1.2393384   -2.5892881    109.01799  0.092702368   0.10676544            1 
   99000    1.2334374   -2.5757458    110.09633  0.092673681   0.10664363            6 
  100000    1.2074871   -2.6233024    111.15518  0.092629319   0.10651104            1 
  101000     1.191281   -2.5700402    113.14055  0.093350288   0.10639247            2 
  102000    1.2256494   -2.5924371    113.94519  0.093092476   0.10627495            2 
  103000    1.2225466   -2.5699588     115.0923  0.093116746   0.10616833            1 
  104000    1.2282945   -2.6040354    116.09459  0.093024511   0.10605795            1 
  105000    1.2142146   -2.5773011    117.15071  0.092976751   0.10595466            2 
  106000    1.1959452   -2.5829391    118.84379  0.093430651   0.10585742            1 
  107000    1.2391001   -2.5914205    120.91613   0.09417144   0.10579023            1 
  108000    1.2016365   -2.5374563    122.23555  0.094317557   0.10571869            1 
  109000    1.2171144   -2.5600533     123.1447  0.094147323   0.10566752            3 
  110000    1.2047761   -2.5838102    124.79892  0.094544633   0.10562088            3 
  111000    1.2065867   -2.6144447    125.56783  0.094270142   0.10558553            3 
  112000    1.2113767   -2.6190326    127.08995  0.094560973   0.10555876            1 
  113000     1.212194   -2.5863894    129.65692  0.095617198   0.10555081            1 
  114000    1.2358253   -2.5772091    130.41495  0.095332566   0.10555422            2 
  115000     1.210049   -2.6064835    130.18286  0.094335405   0.10554971            2 
  116000    1.2212361   -2.6018423    132.48977  0.095179436   0.10552761            2 
  117000    1.2080668   -2.5525286    133.54655  0.095118625   0.10549682            2 
  118000    1.2138563   -2.6004196    134.95952  0.095310397   0.10546843            2 
  119000    1.2023996     -2.61756    136.22287  0.095394166   0.10543973            1 
  120000    1.1999095   -2.5715816    137.53951  0.095513545   0.10540909            2 
  121000     1.230335   -2.6149996    138.75569  0.095561771   0.10538984            2 
  122000    1.2100438   -2.5950985    139.47445  0.095269434   0.10534262            2 
  123000    1.2167371   -2.6069077    140.48121  0.095176974   0.10530267            1 
  124000    1.2106509   -2.6148081    141.08225  0.094813339   0.10524924            1 
  125000    1.2270386   -2.5899952    142.45212   0.09496808   0.10520083            1 
  126000    1.2161973   -2.6074479    143.31044  0.094782039   0.10513553            2 
  127000    1.2220038   -2.5912958    143.93318  0.094444346   0.10506522            2 
  128000    1.1963379    -2.617718    145.76316  0.094897889   0.10499724            6 
  129000    1.1983529   -2.5670197    146.63762  0.094727147   0.10492818            2 
  130000     1.192723   -2.6015176     147.6998  0.094679358   0.10485027            2 
  131000    1.1778013   -2.5968536    148.74668  0.094622567   0.10476582            1 
  132000    1.1870587   -2.5790621    148.95956  0.094040124   0.10467727            2 
  133000    1.2129669   -2.6005539    150.19596  0.094107743   0.10458061            2 
  134000    1.2121283   -2.6091304    152.20364  0.094654005   0.10449661            1 
  135000    1.2039003   -2.5776699    154.24858  0.095215173   0.10442826            7 
  136000     1.182378   -2.5885289    155.24594  0.095126188   0.10435941            1 
  137000    1.1734153   -2.5954401    156.56675  0.095235249   0.10428677            1 
  138000    1.1920706   -2.5687209    158.02744  0.095427196   0.10423957            4 
  139000    1.1916876   -2.5843273    159.25533  0.095476814   0.10419911            1 
  140000    1.2225646   -2.6145806    160.29133  0.095411506   0.10416116            1 
  141000    1.1969942   -2.6044643    161.65938  0.095543371   0.10411832            1 
  142000    1.1847834   -2.6250691    161.37833  0.094705594   0.10405927            1 
  143000    1.1626695   -2.5899228     163.5968  0.095336131   0.10399468            1 
  144000    1.2090221   -2.5892112    164.38245  0.095128733    0.1039286            2 
  145000    1.2148033    -2.625131    165.67991  0.095218341   0.10386687            3 
  146000    1.1850212   -2.6105772    166.41607   0.09498634   0.10379728            3 
  147000    1.1948833   -2.6059473    167.99283   0.09523403   0.10373442            1 
  148000    1.2120423   -2.6301916    168.80862  0.095049896   0.10366765            1 
  149000    1.1980381   -2.5887655    170.22275   0.09520288   0.10359511            2 
  150000    1.1601088   -2.5875314    171.31975  0.095177639   0.10353386            2 
  151000    1.1966489   -2.6121046    172.32808  0.095103796   0.10347486            2 
  152000    1.2003174   -2.6024391    173.18878  0.094949991      0.10341            3 
  153000    1.1889202   -2.5869327    174.96161  0.095294993   0.10335986            1 
  154000    1.2134992   -2.5845237    175.82534  0.095143581   0.10329334            1 
  155000    1.1928085   -2.6108309    176.01755  0.094633093   0.10321943            2 
  156000    1.1958755   -2.6362287    176.38457  0.094222527   0.10314507            2 
  157000    1.1859722   -2.6122058    178.26584  0.094620933   0.10306625            1 
  158000    1.1907798   -2.5556391    179.55053  0.094699648   0.10299265            1 
  159000    1.1773481   -2.6096785    181.38817  0.095067176   0.10292067            3 
  160000    1.2025329   -2.6203657    181.18605  0.094367733   0.10285578            2 
  161000    1.2041255   -2.5900939    184.34145   0.09541483   0.10278911            2 
  162000    1.1746064   -2.6170313    184.62383  0.094971104   0.10272868            1 
  163000    1.1980396   -2.6078805    185.87122  0.095026187    0.1026646            2 
  164000    1.1905956   -2.6037794    186.89279  0.094965846   0.10259909            3 
  165000    1.1881007   -2.6268022    187.66474  0.094780172   0.10254479            2 
  166000    1.2230125    -2.621312    189.87522  0.095318885   0.10248826            2 
  167000    1.1732985   -2.6084277    190.24627  0.094933269   0.10242884            1 
  168000     1.194521   -2.5897084    190.60559  0.094546422   0.10237578            1 
  169000    1.1630727   -2.6167851    192.83766  0.095087605   0.10231385            1 
  170000    1.1933982   -2.5660987    193.63727  0.094920232   0.10225191            1 
  171000    1.1660161   -2.6047494    195.17678  0.095115389   0.10219563            3 
  172000    1.1875179   -2.6056882    195.49982  0.094718905   0.10212804            1 
  173000    1.1839298   -2.6259649    196.36297  0.094587173   0.10205807            1 
  174000    1.1663547   -2.5975994    197.63262  0.094651636   0.10199006            1 
  175000    1.1912658   -2.6096024     199.3199  0.094914239   0.10193176            1 
  176000    1.1923982   -2.6057536    200.56015  0.094962193   0.10187319            1 
  177000    1.1972354   -2.6052183    202.12387  0.095161899   0.10181062            2 
  178000    1.1985316   -2.6302373    201.43911  0.094306701   0.10174311            1 
  179000    1.1663757   -2.6446755     202.4324  0.094242273   0.10167045            1 
  180000     1.179065   -2.6148814    204.91295  0.094867105   0.10160014            6 
  181000    1.1940969   -2.6207243    205.74538  0.094726236   0.10152992            2 
  182000    1.1955246   -2.6510662    207.93977  0.095210517    0.1014645            2 
  183000    1.1898047   -2.5969913    208.47582  0.094934345   0.10140898            1 
  184000    1.1678879   -2.5753271      210.034  0.095124095    0.1013503            1 
  185000    1.1549623   -2.6306683    210.27602  0.094718926   0.10128915            1 
  186000    1.1920612   -2.6131025    211.17822  0.094613896   0.10122937            2 
  187000    1.1736091   -2.6060855    211.75113  0.094363248   0.10116641            2 
  188000    1.1740547   -2.6218065    214.13231  0.094916805   0.10109873            3 
  189000     1.187495   -2.5963788    214.61601  0.094627872    0.1010418            2 
  190000     1.179193   -2.6364424    214.98958  0.094293677   0.10098417            4 
  191000    1.1838748   -2.6621399    216.50524  0.094461274   0.10092631            1 
  192000    1.1765435     -2.61434    217.61392  0.094450487   0.10086845            2 
  193000    1.1847647   -2.6070864    218.73108   0.09444347    0.1008077            1 
  194000    1.1783849   -2.6098435    219.96411    0.0944863   0.10074428            2 
  195000    1.2080821   -2.6165873    220.77132  0.094346718   0.10067793            1 
  196000    1.1931697   -2.6296058    221.97495  0.094377105   0.10061247            2 
  197000    1.1802734   -2.6465139    223.68768  0.094622538   0.10055969            2 
  198000    1.2009465   -2.6102694    224.52566   0.09449733   0.10051036            1 
  199000    1.1832283   -2.6416684    226.60363  0.094892642   0.10047004            1 
  200000    1.1543484   -2.6328472    228.69089   0.09528787   0.10042965            3 
  201000    1.1633013   -2.6065507    229.06002  0.094966843    0.1003955            2 
  202000    1.1730022   -2.6391036    230.46668  0.095077015   0.10035625            2 
  203000    1.1502758   -2.5995333    231.33134  0.094963604   0.10032478            2 
  204000    1.1678122   -2.6378013    233.50545  0.095386215   0.10029371            2 
  205000     1.175426   -2.6342501    232.68929  0.094589141   0.10025452            4 
  206000    1.1655665   -2.6398734    234.66971  0.094931111   0.10021839            4 
  207000    1.1580491   -2.6330229    236.11447  0.095054135   0.10017818            2 
  208000    1.1886779   -2.6269491    237.40929    0.0951159   0.10014595            4 
  209000    1.1466024   -2.6519659    237.79059  0.094812836   0.10011343            2 
  210000    1.1677942   -2.5976022    239.18436  0.094914428   0.10007821            2 
  211000    1.1670417   -2.6267567    241.29214  0.095297055   0.10004839            1 
  212000    1.1963373   -2.6257573    241.70217  0.095008715   0.10001683            2 
  213000    1.1660195   -2.6261234    244.42853  0.095629315  0.099986396            4 
  214000    1.1875998   -2.6544866    243.73708  0.094913194  0.099959122            2 
  215000    1.1600947   -2.6497088    245.18894  0.095034475  0.099925143            1 
  216000    1.1854962   -2.6306943    246.73829  0.095192241  0.099894993            1 
  217000     1.142351   -2.6309277    246.60814  0.094703585  0.099854732            3 
  218000     1.195891   -2.5985199    248.14978  0.094858479  0.099818576            2 
  219000    1.1779579   -2.6339203     249.6704  0.095003956  0.099777631            2 
  220000    1.1758099   -2.6440876    250.26908  0.094798893   0.09973951            2 
  221000    1.1722397   -2.6726417    252.12029  0.095067981  0.099706869            2 
  222000    1.1544451   -2.6239996    252.81696  0.094901262  0.099673528            2 
  223000    1.1535818   -2.6342639    253.72446   0.09481482  0.099637773            1 
  224000    1.1711155   -2.6649354    255.10917  0.094906686  0.099606556            1 
  225000    1.1391267   -2.5915543    257.05481  0.095205484  0.099575111            1 
  226000    1.1741418   -2.6270728    257.17246  0.094827603  0.099540638            2 
  227000     1.166387   -2.6636556    258.43638  0.094873855  0.099505556            1 
  228000    1.1619998   -2.6463673    257.91074  0.094265621  0.099465343            1 
  229000    1.1804119   -2.6525276    260.31791  0.094729952  0.099427311            2 
  230000    1.1497768   -2.6511837    260.93036  0.094539987  0.099387751            1 
  231000    1.1453534   -2.6756402    262.26115  0.094610805  0.099351717            2 
  232000    1.1535316   -2.6261535    263.40113  0.094612474   0.09930757            2 
  233000     1.125206   -2.6306539    265.65303  0.095011815  0.099270253            1 
  234000    1.1703348   -2.6727656    264.75802  0.094287043  0.099229925            1 
  235000    1.1317247   -2.6701245    265.37429  0.094104358  0.099183236            3 
  236000    1.1476608   -2.6497637    266.90166  0.094244937  0.099138592            1 
  237000    1.1469842   -2.6325575    268.16564  0.094291716  0.099093767            2 
  238000     1.171857   -2.6462441    268.87049   0.09414233  0.099054383            2 
  239000    1.1732331   -2.6356364    270.09697  0.094176072  0.099006424            3 
  240000    1.1400667   -2.6655469     271.0721  0.094122256  0.098959698            2 
  241000     1.167145   -2.6408192    272.26239  0.094143287  0.098918672            2 
  242000    1.1311181   -2.6615174    273.88732  0.094313815  0.098871799            1 
  243000    1.1669599   -2.6150395    274.68864  0.094200495  0.098824782            2 
  244000    1.1606367   -2.6545349    276.64538   0.09448271  0.098784522            1 
  245000    1.1637759   -2.6246733    276.82752  0.094159019  0.098735414            2 
  246000     1.154716   -2.6471135    278.50199  0.094343493   0.09869204            1 
  247000    1.1446549   -2.6439487    278.89832  0.094095249  0.098646583            1 
  248000     1.160609   -2.6487569    279.83211  0.094029605  0.098604806            2 
  249000    1.1718126   -2.6515782    281.83255  0.094321468  0.098563718            3 
  250000    1.1642627   -2.6575818    283.03377  0.094344591  0.098519952            1 
  251000    1.1378185   -2.6568173    285.96951  0.094943397  0.098478759            1 
  252000     1.165137   -2.6537419     284.0655  0.093937004  0.098437868            2 
  253000    1.1602701   -2.6476943    285.76889  0.094126777  0.098398107            2 
  254000    1.1519628    -2.663917    286.65571  0.094047148  0.098359371            1 
  255000    1.1458571   -2.6695044     287.5419   0.09396794  0.098320865            1 
  256000    1.1498904   -2.6513823    290.39969   0.09453115  0.098286306           10 
  257000    1.1496293   -2.6683412    289.92285  0.094008705  0.098246831            4 
  258000    1.1724605   -2.6731949    290.76441  0.093916153  0.098200778            3 
  259000    1.1695194   -2.6300705    291.64877  0.093838086  0.098154942            1 
  260000    1.1389765   -2.6659714    293.46971  0.094060803  0.098113038            3 
  261000    1.1686118   -2.6664393    293.68548   0.09376931  0.098064431            1 
  262000    1.1469435   -2.6423381    293.86846  0.093469612  0.098018179            2 
  263000    1.1635628   -2.6560816    294.40341  0.093283716  0.097971215            3 
  264000    1.1579623   -2.6664493    294.53499  0.092971902  0.097922095            5 
  265000    1.1372623   -2.6534962    297.78421  0.093642832  0.097873594            2 
  266000    1.1318686   -2.6398968    299.26413  0.093754428  0.097824985            2 
  267000    1.1375494   -2.6391802     300.0044  0.093634331  0.097779194            2 
  268000    1.1481807   -2.6736726    301.58104  0.093775199  0.097735156            2 
  269000    1.1444378   -2.6259966    302.95645   0.09385268   0.09769715            3 
  270000    1.1740717   -2.6866757    301.73383  0.093127726  0.097655093            1 
  271000    1.1426687   -2.6703442    303.53917  0.093339228  0.097609799            2 
  272000    1.1486194   -2.6604789    304.39265  0.093257552  0.097563767            1 
  273000    1.1345492   -2.6841294    306.11481   0.09344164  0.097513794            1 
  274000    1.1340307   -2.6593977    306.84923  0.093323975   0.09746368            2 
  275000    1.1352573   -2.6782821     307.7244  0.093249819  0.097413695            1 
  276000    1.1347699   -2.6620063    309.39569  0.093416574  0.097368004            1 
  277000    1.1542327   -2.6475367    310.07981  0.093285142  0.097322755            3 
  278000    1.1181838   -2.6681205    309.65979  0.092823678  0.097278466            2 
  279000    1.1397577   -2.6938631    312.06972   0.09321079  0.097236738            2 
  280000    1.1336476   -2.6625097    314.42597  0.093579157  0.097194935            2 
  281000    1.1325257   -2.6770081    314.82881    0.0933656  0.097152395            1 
  282000    1.1142862   -2.6746839    315.35756  0.093190769  0.097107605            1 
  283000    1.1236621   -2.6721285    317.85974  0.093598275  0.097062703            2 
  284000    1.1417758   -2.6722169    317.94533  0.093293819  0.097020004            4 
  285000    1.1540147   -2.6642723    317.69562  0.092893456  0.096979636            1 
  286000    1.1250548   -2.6792292    319.09928  0.092977645  0.096937374            2 
  287000    1.1446525   -2.6686823    320.82441  0.093154592  0.096896845            1 
  288000    1.1571055   -2.6329325    322.91691  0.093436607  0.096854407            1 
  289000    1.1343443   -2.6475642    322.09379   0.09287595    0.0968044            2 
  290000       1.1457   -2.6817887    321.48842  0.092381731  0.096750088            4 
  291000    1.1175273   -2.6525505    323.79489  0.092724769   0.09669777            2 
  292000    1.1184174   -2.6915232    323.03181  0.092189445  0.096642398            3 
  293000    1.1194809   -2.6795792     324.7864  0.092373832  0.096585985            2 
  294000    1.1126184   -2.6717083    327.04796   0.09270067  0.096531873            4 
  295000    1.1561358   -2.6745871    327.36329  0.092475504  0.096479957            1 
  296000    1.1313267    -2.667328    327.63909  0.092240734   0.09643211            3 
  297000    1.1112567   -2.6579402      329.609  0.092482884    0.0963823            2 
  298000     1.135424   -2.6511663      331.118  0.092594518  0.096333908            1 
  299000     1.132152   -2.6685914    331.95914   0.09251927  0.096284846            1 
  300000      1.10966   -2.6392964    334.33413  0.092870593   0.09623414            6 
  301000    1.1506791   -2.6668906    331.99328  0.091913976  0.096181493            1 
  302000    1.1302153    -2.656567    334.30784  0.092248301  0.096128607            1 
  303000    1.1565948   -2.6696073    333.66215  0.091766266  0.096075284            2 
  304000    1.1334781   -2.6568227    336.47385  0.092235156  0.096021773            2 
  305000    1.1587861   -2.6728722    337.04343   0.09208837  0.095968823            2 
  306000    1.1329777   -2.6475274    338.18019     0.092097  0.095914462            1 
  307000    1.1413488   -2.6709663    340.71657  0.092485496  0.095864696            1 
  308000    1.1179656   -2.6574597    340.00741  0.091993347  0.095812924            2 
  309000    1.1441887   -2.6662397    340.33889   0.09178503   0.09576157            3 
  310000    1.1519497   -2.6910184     341.2433   0.09173207  0.095709356            1 
  311000    1.1372264   -2.6815486    341.54759  0.091518647   0.09565336            2 
  312000    1.1484399   -2.7096693    343.72986  0.091808188  0.095600896            2 
  313000     1.108002    -2.683263    344.74545  0.091785265  0.095547368            1 
  314000    1.1205642    -2.647392    344.24702  0.091360674  0.095492836            2 
  315000    1.0901683   -2.6556386    345.69385  0.091453398   0.09543491            3 
  316000     1.127505   -2.6802059    345.90261  0.091219042  0.095376616            2 
  317000    1.1179236   -2.6724718    347.62356  0.091383689  0.095321548            2 
  318000       1.1057    -2.675947    349.91085  0.091695715  0.095265994            2 
  319000    1.1376668   -2.7059689    349.01866  0.091175199  0.095208698            2 
  320000    1.1256602   -2.6932518    350.45102  0.091263287  0.095155144            1 
  321000    1.1511395   -2.6646955    352.60888   0.09153917  0.095103418            3 
  322000    1.1344825   -2.6591185    354.26911  0.091684553  0.095053407            2 
  323000    1.1081808   -2.6796192    353.38631  0.091172939  0.094999003            3 
  324000    1.1285707   -2.6919757     352.9761  0.090786034  0.094944685            2 
  325000    1.1301378   -2.6940429    355.32702  0.091109493  0.094890445            3 
  326000    1.1215962    -2.670891    355.53362  0.090882826  0.094832908            1 
  327000    1.1334998   -2.6641536     356.3262  0.090806881  0.094775785            1 
  328000    1.1379465   -2.6691742    359.40469  0.091312167  0.094721155            1 
  329000    1.1260769    -2.709662    358.83392   0.09089005  0.094670451            4 
  330000    1.1297338   -2.6895653    361.00382   0.09116258  0.094619189            2 
  331000     1.122194   -2.6580792     361.8308  0.091095368   0.09457015            2 
  332000    1.1225916   -2.6561454    362.31354  0.090942154  0.094517218            2 
  333000    1.1239394   -2.6959914    364.81971  0.091296225   0.09446363            3 
  334000    1.1157166   -2.6706731    364.26349  0.090884105  0.094411186            2 
  335000    1.1166494   -2.7007752    364.90147   0.09077151  0.094353527            2 
  336000     1.144668   -2.6865657    364.55304  0.090414941  0.094297859            3 
  337000    1.1258295   -2.6946542    367.01651  0.090755815  0.094241929            1 
  338000    1.0691998    -2.679739    367.13191  0.090515757  0.094184686            2 
  339000    1.1252163   -2.6660896    369.94682  0.090940712  0.094129095            3 
  340000    1.1287328   -2.6833204    368.14136  0.090230725  0.094073736            2 
  341000    1.1033363    -2.686546    369.69121  0.090344871  0.094021144            6 
  342000     1.125599   -2.7035483    371.10488  0.090425165   0.09396842            3 
  343000    1.1330172   -2.6911103    372.20257  0.090428224   0.09391485            2 
  344000    1.0916026   -2.6924285    373.44503  0.090466335  0.093861794            2 
  345000    1.1282297   -2.6949872    376.63343  0.090974258  0.093811852            2 
  346000    1.1249688    -2.693194    375.21838  0.090370515  0.093759324            4 
  347000    1.1143473   -2.7070493    376.03915  0.090307194   0.09370755            2 
  348000    1.1100422   -2.6818067    377.23388  0.090333783  0.093653061            2 
  349000    1.1035904   -2.7034506    379.02648   0.09050298  0.093599594            4 
  350000    1.1196717   -2.7054732     377.5023    0.0898815  0.093546982            1 
  351000    1.1189835   -2.7165025    380.92144  0.090437189  0.093492451            2 
  352000    1.1171897   -2.6819697    379.82958  0.089921774  0.093439456            2 
  353000    1.1446876   -2.7260779    380.10461  0.089731967  0.093386594            1 
  354000    1.0994695   -2.6995478    383.04076  0.090169669  0.093331193            2 
  355000     1.118134    -2.677414    381.90818  0.089649806   0.09327714            3 
  356000    1.1027894   -2.7138528    383.05174  0.089665669   0.09322081            2 
  357000    1.1088353   -2.6843576    384.50952   0.08975479  0.093164925            3 
  358000    1.1182661   -2.6894373     386.7082  0.090015875  0.093107056            2 
  359000    1.1075439   -2.6671749    386.37011  0.089686656   0.09305042            2 
  360000    1.1191082   -2.7080632    385.78151  0.089301275  0.092993223            5 
  361000    1.1082967   -2.6995966    387.96785  0.089558599  0.092936027            2 
  362000    1.0919893   -2.6933351    388.79769  0.089502231  0.092877686            2 
  363000    1.1393546   -2.6827303     389.9785  0.089526745  0.092823647            1 
  364000    1.1102336   -2.6830214    390.37559  0.089371701  0.092766245            1 
  365000    1.0985066   -2.6969402    389.04035  0.088821998  0.092709732            2 
  366000    1.0903472   -2.6928665    392.38707  0.089341318  0.092651774            2 
  367000    1.1117718   -2.6768944    392.57854  0.089141359  0.092595359            1 
  368000     1.098113   -2.7172464    391.75054  0.088711627  0.092536905            1 
  369000    1.1260929   -2.6933672    394.15786  0.089014873  0.092480531            2 
  370000    1.1006646   -2.7003044      394.032  0.088745947  0.092423926            1 
  371000    1.1277694   -2.7167458     396.8829  0.089147103  0.092367109            2 
  372000    1.1020913   -2.6800269    399.15752  0.089417006  0.092312206            2 
  373000     1.092468   -2.7168502    397.56003  0.088820381  0.092255674            3 
  374000    1.0866755   -2.7038385    399.55283  0.089026922  0.092201369            4 
  375000    1.1064765   -2.6965234    402.60131  0.089466959  0.092148555            1 
  376000    1.1029727   -2.6938021     402.1375  0.089126219  0.092095745       -1e+20 
  377000     1.099657   -2.6969689    401.97371  0.088853606  0.092044788            2 
  378000    1.1287808   -2.6922998    402.75526  0.088790843   0.09199327            3 
  379000    1.0938283    -2.689173    404.56048  0.088953491  0.091942003            2 
  380000     1.114153   -2.7076081    406.07371  0.089051252  0.091893511            3 
  381000    1.1174027   -2.7044362    406.19542  0.088844143  0.091844161            2 
  382000    1.0847031   -2.6870068    408.45674  0.089104874  0.091793416            2 
  383000    1.1070896   -2.7030809    408.24966  0.088827167  0.091744085            1 
  384000    1.1062203   -2.6909383    409.20358  0.088802859  0.091693697            2 
  385000    1.1214889   -2.6976625    408.88219  0.088502639  0.091644488            3 
  386000    1.1042507   -2.7016559     410.9408  0.088717789  0.091594823            2 
  387000    1.0820924   -2.6914348    413.31028  0.088998767  0.091543191            1 
  388000    1.0921691   -2.7327442    412.74284  0.088647516  0.091495999            1 
  389000    1.0975326   -2.7269627    414.42976  0.088781011  0.091445535            2 
  390000     1.105434   -2.6905227    415.27427  0.088733818  0.091396174            1 
  391000    1.0738992   -2.6779017    415.92427  0.088645412  0.091343388            2 
  392000    1.0789129   -2.7076427    415.84433  0.088402282  0.091293885            2 
  393000    1.0882028   -2.7376461    417.47523  0.088523162  0.091240816            1 
  394000    1.0735049   -2.7089474     417.4625  0.088295792  0.091187141            2 
  395000    1.0779378   -2.7017312     417.0046  0.087975654    0.0911345            3 
  396000    1.1207775   -2.7482781    417.96365  0.087955314  0.091079436            2 
  397000    1.0935685   -2.7206622    420.49361  0.088264821  0.091026569            2 
  398000    1.0812384   -2.6997104    422.31793  0.088425028  0.090975774            2 
  399000    1.0927535   -2.7221693     423.0967  0.088366062  0.090925754            2 
  400000    1.0804708   -2.7281394    424.02109  0.088337727  0.090876461            1 
  401000    1.1239122   -2.7177834    426.26348  0.088583433  0.090826421            1 
  402000    1.1152431   -2.7281632    426.28709  0.088367971  0.090778554            1 
  403000     1.120199   -2.7161798    426.12656  0.088115501  0.090731943            3 
  404000    1.0665798    -2.739462    427.97537  0.088278747  0.090683039            3 
  405000    1.1107489   -2.7423772    427.12428  0.087885655  0.090633969            3 
  406000    1.0928266   -2.7333048    430.28781  0.088318516  0.090586513            2 
  407000    1.0743234   -2.6943223    432.47332     0.088549  0.090541102            2 
  408000    1.1072075   -2.7065255    432.48809  0.088334985   0.09049589            1 
  409000    1.0631939   -2.7033216    433.53191  0.088331685  0.090449548            4 
  410000     1.109826   -2.7002539    434.43577  0.088299954  0.090401864            2 
  411000    1.0855056   -2.7155021    433.45726  0.087886711  0.090354871            1 
  412000    1.0933082   -2.7014524     435.4713  0.088080764  0.090309876            2 
  413000    1.0984327    -2.704217    434.13353  0.087597565  0.090262177            2 
  414000    1.0859187   -2.7097813    437.27197  0.088017708  0.090216244            1 
  415000    1.0746471   -2.7402493    436.64521   0.08767976   0.09016909            3 
  416000    1.0763461   -2.7122721     440.3787  0.088216887  0.090121551            1 
  417000    1.0933127    -2.735278    439.10786  0.087751371  0.090078155            2 
  418000    1.0815896   -2.7273292    441.67424  0.088053078  0.090033391            2 
  419000    1.1114666   -2.7139667    442.23041  0.087953543   0.08998983            1 
  420000    1.1049514   -2.7385755    444.13207  0.088121441  0.089946002            1 
  421000    1.0676159     -2.74563    443.76266  0.087839007  0.089903177            2 
  422000    1.0916493   -2.7029884     447.8374  0.088435506  0.089862265       -1e+20 
  423000    1.1130062    -2.724881    445.22036  0.087710867  0.089820898            1 
  424000    1.0888833   -2.7318227    447.52039  0.087956051  0.089778687            2 
  425000    1.0738981    -2.741876    448.00496  0.087844109  0.089739284            2 
  426000    1.0737977   -2.7309453    449.53659  0.087937517   0.08969969            2 
  427000    1.0762903    -2.746352    451.48884  0.088112575  0.089660514            1 
  428000    1.0745256   -2.7321059    451.13752  0.087838301   0.08962197            3 
  429000    1.0675592   -2.7061571    453.62672  0.088117078  0.089584649            2 
  430000    1.0926579   -2.7281955    453.40813  0.087869793  0.089545589            1 
  431000    1.0899664   -2.7041885    454.07929  0.087795687  0.089507836            3 
  432000    1.0719947   -2.7221595     455.9884  0.087960725  0.089468715            3 
  433000    1.0990208   -2.7260844    457.54336  0.088056845  0.089431022            2 
  434000    1.0752523   -2.7279271    457.14609  0.087777666   0.08939286            1 
  435000    1.0795262   -2.7377562    456.14772   0.08738462  0.089356495            1 
  436000     1.066699   -2.7614204    457.96314  0.087531181  0.089319367            1 
  437000    1.0548661   -2.7148394    460.76284  0.087864767  0.089283691            1 
  438000    1.0757682    -2.712997    460.42567  0.087600013  0.089249361            4 
  439000    1.0578844   -2.7149551    463.95692   0.08807079  0.089214145            2 
  440000    1.0610068   -2.7355136    464.10313   0.08789832  0.089179912            4 
  441000    1.0636918     -2.72824    465.16395  0.087899462  0.089145137            1 
  442000    1.0780806   -2.7345877    467.60542  0.088160901   0.08911235            1 
  443000     1.075503   -2.7354378    467.30005  0.087904449  0.089078946            3 
  444000    1.0701719   -2.7610023    467.48471  0.087741125  0.089047168            4 
  445000    1.0870284   -2.7296038    469.27763  0.087879706  0.089013424            2 
  446000    1.0581855   -2.7411036    468.45272  0.087528535  0.088981944            1 
  447000    1.0749882   -2.7414764     472.9858  0.088177815   0.08895172            2 
  448000    1.0757056   -2.7517624    470.51795  0.087521939  0.088920088            1 
  449000    1.0882149   -2.7378879    472.78725  0.087748191  0.088888098            3 
  450000    1.0661108   -2.7566571    474.25352  0.087824725  0.088857252            2 
  451000    1.0664438   -2.7297156    475.94708  0.087942919  0.088827195            2 
  452000    1.0941249   -2.7530411    476.54141  0.087857929  0.088796755            3 
  453000    1.0810515   -2.7502109    477.32772  0.087808632  0.088767331            2 
  454000    1.0797748   -2.7251637    478.00553  0.087739635  0.088739083            2 
  455000    1.0664296   -2.7687988    476.87942  0.087340553  0.088709359            3 
  456000    1.0771539    -2.745648    478.90849  0.087519827  0.088678348            3 
  457000    1.0505762   -2.7130021    483.60072   0.08818394  0.088649355            2 
  458000    1.0692938    -2.717792    482.48951  0.087789211  0.088622589            2 
  459000    1.0632604   -2.7220596    484.23784  0.087915366  0.088596177            2 
  460000    1.0576964   -2.7541066    482.13954   0.08734412  0.088567158            3 
  461000     1.084638   -2.7398671     485.8694  0.087828886  0.088538622            2 
  462000    1.0590816   -2.7213002    488.52019  0.088116918  0.088511249            1 
  463000    1.0613535   -2.7466615    485.18341  0.087326028  0.088484443            2 
  464000    1.0861954   -2.7365577    489.44638  0.087903445  0.088458539            1 
  465000    1.0636232   -2.7357483    489.98264  0.087810509  0.088431235            3 
  466000    1.0691569   -2.7534398    490.32699  0.087683654  0.088405726            2 
  467000    1.0630445   -2.7298386    489.46657  0.087342357  0.088379301            2 
  468000    1.0682796   -2.7184589    492.01616  0.087609714  0.088352933            3 
  469000    1.0827717   -2.7714601    493.31221  0.087653199  0.088329116            1 
  470000    1.0595127   -2.7534153    496.74513  0.088075377  0.088304007            3 
  471000    1.0544873   -2.7337349    493.37247  0.087291661  0.088280551            3 
  472000    1.0793014   -2.7520454    494.81212  0.087360898  0.088254801            2 
  473000    1.0453213   -2.7449297    498.56537  0.087837451  0.088227544            1 
  474000    1.0695894   -2.7447068    496.03807  0.087207819  0.088199252            2 
  475000     1.086112   -2.7735624    497.09378  0.087209434  0.088172587            1 
  476000    1.0626688   -2.7523599    499.92621  0.087522096  0.088146298            3 
  477000    1.0595356   -2.7527856    501.03299  0.087531969  0.088120591            2 
  478000    1.0697956   -2.7545659    502.11926  0.087538225  0.088096856            2 
  479000    1.0831921   -2.7481372    503.65603   0.08762283  0.088070262            1 
  480000    1.0676962   -2.7565806    504.11165  0.087519384  0.088045283            4 
  481000    1.0694084   -2.7258066    506.36206  0.087727314  0.088021432            2 
  482000     1.060759   -2.7513675    506.71375  0.087606112  0.087995716            2 
  483000    1.0634551   -2.7593825    506.53282  0.087393516  0.087969354            3 
  484000    1.0749414   -2.7316916    506.81844  0.087262127  0.087944545            2 
  485000     1.075299   -2.7650377     508.8217  0.087426409   0.08791655            2 
  486000    1.0598218   -2.7538903     506.7758  0.086895713  0.087889721            2 
  487000    1.0521595   -2.7884331    509.41236  0.087168439  0.087863471            2 
  488000    1.0862435   -2.7513512    510.88997  0.087242139  0.087836901            3 
  489000    1.0503237    -2.742988    510.19063  0.086944552  0.087810033            4 
  490000    1.0476742   -2.7529751    512.17197  0.087104077  0.087784021            2 
  491000    1.0449268   -2.7565948    515.32967  0.087462606  0.087759352            3 
  492000    1.0786603   -2.7664493     516.4397  0.087472848  0.087734908            4 
  493000    1.0525003   -2.7554374    513.10597  0.086731908  0.087709571            2 
  494000     1.049244   -2.7640645    514.12769  0.086728692  0.087684158            4 
  495000    1.0693381   -2.7769097    516.71323  0.086988759  0.087657854            1 
  496000    1.0573695   -2.7157303    518.61508   0.08713291  0.087631443            2 
  497000    1.0270724   -2.7427605    519.05198  0.087030849  0.087605591            5 
  498000    1.0365048   -2.7713132    518.93477  0.086836473  0.087578942            6 
  499000    1.0750746   -2.7662386    522.02961  0.087179294  0.087553336            1 
  500000    1.0357595   -2.7450635    519.71718   0.08661953  0.087526851            2 
  501000    1.0503183   -2.7734318    520.60802  0.086594814  0.087498545            1 
  502000     1.057526    -2.756517    522.13303   0.08667547  0.087469423            1 
  503000    1.0545455   -2.7686921    522.71538  0.086599632  0.087441275            3 
  504000     1.047295   -2.7505697    525.27456  0.086850952  0.087414196            1 
  505000    1.0733636   -2.7676329    525.70136  0.086749399  0.087386091            2 
  506000    1.0525931   -2.7627524    524.18302  0.086327901  0.087355634            6 
  507000    1.0552466   -2.7607931    525.83925  0.086429857   0.08732504            2 
  508000    1.0828957   -2.7597635    525.97601  0.086282154  0.087295853            3 
  509000     1.045408   -2.7591449    527.20178  0.086313323  0.087266441            3 
  510000    1.0514236   -2.7582865    530.12044  0.086620986  0.087235552            2 
  511000    1.0574423   -2.7819238     528.0898   0.08612032  0.087205142            2 
  512000    1.0684116    -2.765262    529.21614   0.08613544  0.087173704            1 
  513000    1.0584135   -2.7564042    530.57127  0.086187665  0.087143406            1 
  514000    1.0500011   -2.7690146    530.60013  0.086024665  0.087112033            2 
  515000    1.0376647    -2.772663    532.57818  0.086177699  0.087080003            2 
  516000    1.0501219   -2.7822815    531.10481   0.08577274  0.087047892            2 
  517000    1.0638195   -2.7509806    533.87839  0.086053899  0.087016927            2 
  518000    1.0451992   -2.7690046    535.64555  0.086172065  0.086986674            2 
  519000    1.0404213   -2.7705486    534.99357  0.085901343  0.086955924            2 
  520000    1.0734557    -2.791138    534.88338   0.08571849  0.086923903            2 
  521000    1.0621603    -2.777278    535.32765  0.085625023  0.086889952            2 
  522000    1.0414519   -2.7771386    541.24351  0.086405414   0.08685835            2 
  523000    1.0179185    -2.752408    539.20194  0.085914904  0.086825651            3 
  524000    1.0557381   -2.7769722    538.87439  0.085698854  0.086795112            2 
  525000    1.0563667   -2.7485327    543.04753  0.086198021  0.086766655            1 
  526000    1.0421196   -2.7537312    542.08621  0.085881846  0.086736629            4 
  527000    1.0256944   -2.7662842     544.4041  0.086085404  0.086707007            2 
  528000    1.0498011   -2.7613254    542.96843  0.085695775  0.086678091            2 
  529000    1.0644698   -2.8190821    544.69938  0.085806456  0.086647389            2 
  530000    1.0628342   -2.7875958    543.52504  0.085459912   0.08661723            2 
  531000    1.0547779   -2.7883887    545.52966  0.085613568  0.086588073            1 
  532000    1.0609483   -2.7937298     547.1152  0.085701002  0.086557721            2 
  533000    1.0448733   -2.7987246    549.68586  0.085942129  0.086529186            1 
  534000    1.0694953   -2.7677946    547.89455  0.085501647  0.086499472            1 
  535000    1.0475218    -2.751767    551.07296   0.08583691  0.086469728            3 
  536000    1.0339358   -2.8012505    549.10021  0.085370058  0.086438546            1 
  537000    1.0490263   -2.7539291    551.14977  0.085529138   0.08640801            4 
  538000    1.0479093   -2.7743933    554.68206  0.085917296  0.086380713            2 
  539000    1.0439121   -2.7832788    553.14212  0.085519807  0.086351527            4 
  540000    1.0276478   -2.7852014    552.90918  0.085325491  0.086321909            1 
  541000    1.0569649   -2.7789526    555.52634  0.085570909  0.086293291            2 
  542000    1.0704136   -2.7737183    555.54828  0.085416402  0.086263386            1 
  543000    1.0442597   -2.8098143    555.72853   0.08528676  0.086234042            3 
  544000    1.0477702   -2.7794885    555.83234  0.085145885  0.086205431            2 
  545000     1.036049   -2.7668768    560.43056  0.085692747  0.086175972            3 
  546000    1.0373098   -2.7794827    559.92905  0.085459256  0.086147487            5 
  547000    1.0738271   -2.7965035    558.93451   0.08515151  0.086119784            2 
  548000    1.0041285   -2.8057438    559.95357  0.085151091  0.086090707            4 
  549000    1.0558829   -2.7815213     561.5076  0.085231876  0.086061416            1 
  550000    1.0324445   -2.7785905    560.76191  0.084963925  0.086031142            1 
  551000    0.9994134   -2.7728352    564.65377  0.085398332  0.086000598            8 
  552000    1.0211771   -2.7996321    562.63646  0.084939078  0.085971106            1 
  553000    1.0270534   -2.7870694    565.99487  0.085291571  0.085942026            2 
  554000    1.0447559   -2.7606732    567.45464  0.085357196   0.08591408            1 
  555000    1.0145435    -2.771525    568.42981  0.085349821  0.085886053            4 
  556000    1.0220509   -2.7948682    569.00109  0.085281938  0.085859516            2 
  557000     1.024831   -2.7886476     569.5665   0.08521342  0.085831287            3 
  558000    1.0666565   -2.7970966    569.78682  0.085093611  0.085803149            3 
  559000    1.0215499   -2.7789969    571.14322  0.085143592  0.085774334            1 
  560000    1.0363335   -2.7961622    570.93819  0.084961039  0.085745507            2 
  561000    1.0469843   -2.8096166    571.25223  0.084856243  0.085717014            4 
  562000    1.0468415   -2.7733069    576.50781   0.08548455  0.085689374            1 
  563000    1.0290843   -2.7827878    575.42271    0.0851721  0.085661082            3 
  564000    1.0340376   -2.7999937    576.59515  0.085194318  0.085635403            1 
  565000     1.028272   -2.7995948    578.08036  0.085262591  0.085607397            3 
  566000    1.0359145   -2.7966053    578.50671  0.085174722  0.085579826            4 
  567000    1.0257384   -2.8049343    577.96507  0.084944895   0.08555281            2 
  568000    1.0173112   -2.7691215    579.13999  0.084967722  0.085525531            3 
  569000    1.0440337   -2.7896608    579.04771  0.084804879  0.085496194            1 
  570000    1.0220984   -2.8082634    577.67843   0.08445591  0.085465242            1 
  571000    1.0198274    -2.780033    580.21743  0.084678551  0.085434299            2 
  572000    1.0378032    -2.776078    579.64026  0.084446424  0.085402656            2 
  573000    1.0488934   -2.8020032    581.56628  0.084579157  0.085371437            2 
  574000     1.029327   -2.7812969    581.92773  0.084484281  0.085339579            1 
  575000    1.0276338   -2.8034701    581.78112  0.084316105  0.085307519            1 
  576000    1.0221721   -2.7981168    583.23505  0.084380071  0.085275724            4 
  577000    1.0136685   -2.7889603    582.12505   0.08407352  0.085245547            2 
  578000    1.0319515    -2.804108    584.53635  0.084275714  0.085213088            5 
  579000    1.0295053   -2.8089431    584.56085  0.084133686  0.085180117            2 
  580000    1.0262979    -2.811741    586.52054  0.084270192  0.085147182            2 
  581000    1.0282676   -2.8121881     585.5489  0.083985786  0.085113204            3 
  582000    1.0322103   -2.7637176    586.73059  0.084010679  0.085079219            2 
  583000    1.0304316   -2.7994084    586.51643  0.083835968  0.085044869            2 
  584000    1.0181191    -2.791717    586.84295  0.083739005  0.085011123            1 
  585000    1.0400401   -2.8101876    587.20221  0.083647038   0.08497714            6 
  586000    1.0160842   -2.8226007    589.64907  0.083852256  0.084943491            2 
  587000    1.0164293    -2.808156    590.92261  0.083890206  0.084908796            1 
  588000   0.99076519   -2.7949321    591.71789  0.083860245   0.08487362            2 
  589000    1.0009733   -2.8234564    588.61803  0.083279291  0.084837823            2 
  590000   0.98827192   -2.8134663    592.52668  0.083690209  0.084800907            3 
  591000    1.0109616   -2.7828959    592.03285  0.083478969  0.084765422            1 
  592000    1.0093086   -2.8030602    594.48587  0.083683258  0.084729339            2 
  593000    1.0088647   -2.8022056    595.65661  0.083706662  0.084693534            1 
  594000   0.99724078   -2.8175418    592.00932  0.083054057   0.08465754            2 
  595000    1.0156304   -2.7976049    598.31702  0.083797902  0.084623256            1 
  596000    1.0232076    -2.838943     597.5002  0.083543093  0.084589775            1 
  597000    1.0137767   -2.8081739    598.00224  0.083473233   0.08455636            3 
  598000    1.0043026   -2.7997449    599.44665  0.083534929  0.084522784            2 
  599000     1.023188   -2.8402301    598.69715  0.083291201  0.084489894            5 
  600000    1.0172548   -2.8212272    600.08754  0.083345492  0.084456611            3 
  601000    1.0021762   -2.8193809    600.40632  0.083251015  0.084422624            2 
  602000    1.0146196   -2.7968319    600.83265   0.08317174  0.084389024            2 
  603000    1.0322748   -2.8338269    602.30087  0.083236715  0.084354454            2 
  604000    1.0270363   -2.8164516    603.40829  0.083251695  0.084320906            3 
  605000   0.99967642   -2.7949448    603.60959  0.083141817  0.084287941            3 
  606000    1.0190822    -2.805312    604.88211  0.083179607  0.084254318            3 
  607000    1.0437251   -2.8175061    606.65359  0.083285775  0.084222063            4 
  608000    1.0036416   -2.8148671    605.37483  0.082973524  0.084188689            5 
  609000    1.0077236   -2.7955615    607.31051  0.083102149  0.084155098            1 
  610000    1.0436338    -2.801854    608.24038  0.083092949  0.084121291            1 
  611000    1.0006465   -2.8149911    608.72083  0.083022481  0.084086034            1 
  612000   0.99740766   -2.8446451    607.93041  0.082779196  0.084051639            3 
  613000   0.99933485   -2.7843608    611.14862   0.08308165  0.084017811            3 
  614000    1.0031451   -2.7995305    610.12363  0.082807225  0.083983758            1 
  615000   0.99699767    -2.813163    610.29553  0.082695871  0.083948273            2 
  616000   0.99383504   -2.8312487    612.30001  0.082832794  0.083912513            1 
  617000   0.99607151   -2.8175387    611.05899  0.082530928  0.083876956            3 
  618000    1.0145608   -2.8022794    611.62829  0.082474149  0.083842268            1 
  619000    1.0171077    -2.827691    616.28155   0.08296736  0.083808732            1 
  620000    1.0008754   -2.8082428    618.61786  0.083147562  0.083775469            2 
  621000    1.0038458   -2.7990594    616.37823  0.082713128  0.083742352            1 
  622000    1.0277333   -2.8179512    616.33943   0.08257495  0.083707901            4 
  623000   0.99962249   -2.8184995    618.47385  0.082727909  0.083673949            3 
  624000   0.99199371   -2.8362814    617.55311   0.08247237  0.083639768            1 
  625000     1.001956   -2.8160293    619.07834  0.082543779  0.083607214            5 
  626000    1.0108374   -2.7985773    622.54773  0.082873766  0.083573725            1 
  627000   0.99504593   -2.8057237    622.21477  0.082697337  0.083540796            2 
  628000    1.0150672    -2.795736     623.2503  0.082703065  0.083508329            2 
  629000    1.0240209   -2.8250625    619.33685  0.082053107  0.083475856            3 
  630000    1.0153574    -2.828871    620.89541  0.082129023  0.083441587            2 
  631000    1.0154871   -2.8303235    624.76704  0.082510174  0.083407397            4 
  632000    1.0197163   -2.8205421    625.26664  0.082445496  0.083374385            3 
  633000   0.97130765   -2.8357184    624.45087  0.082207855  0.083340379            3 
  634000     1.002026   -2.8283412    625.94591  0.082274699  0.083306655            3 
  635000   0.99015517   -2.8183416    627.46591  0.082344608  0.083272574            2 
  636000   0.99435399   -2.8273753    628.14694  0.082304369  0.083238079            2 
  637000    1.0049537   -2.8179852    627.45075  0.082084085  0.083203652            1 
  638000    1.0164591   -2.8308842    629.22338  0.082186962  0.083169881            2 
  639000     1.005103   -2.8096498    632.43069  0.082476615  0.083135701            2 
  640000   0.99009299   -2.8162309    630.32218  0.082073201  0.083101443            2 
  641000    1.0083856   -2.8329698    630.29672  0.081941851   0.08306659            3 
  642000   0.98237476   -2.8196804    630.36908  0.081823609  0.083033282            2 
  643000   0.99879234   -2.8263294    633.55063  0.082108687  0.082998759            3 
  644000      1.01589   -2.8300484    634.73851    0.0821349  0.082966021            2 
  645000   0.97885826   -2.8487988    635.40846  0.082094117  0.082932442            2 
  646000   0.99748141   -2.8310866    634.57928  0.081860072  0.082898565            3 
  647000   0.98402773   -2.8350159    635.30461  0.081826972  0.082865688            2 
  648000   0.98204523   -2.8304103    634.50093  0.081597342  0.082829941            2 
  649000   0.98948078   -2.8439333    635.04543   0.08154153  0.082795264            3 
  650000   0.98274173    -2.827139    636.69538  0.081627613  0.082760529            4 
  651000   0.99320575   -2.8192975    637.02098  0.081543904  0.082725867            4 
  652000    1.0005806   -2.8636429    637.96101  0.081538984  0.082691091            2 
  653000   0.99126673   -2.8502415    640.47599  0.081735068  0.082655905            2 
  654000   0.98537966   -2.8000386    640.85689  0.081658626  0.082620415            3 
  655000   0.97876265   -2.8301715    641.10311  0.081565281  0.082586048            1 
  656000   0.97654873   -2.8659983    638.91237  0.081162649   0.08254975            4 
  657000    1.0154046   -2.8330067      642.583  0.081504693  0.082513932            3 
  658000   0.97404297    -2.831615    642.26001   0.08133992  0.082478401            3 
  659000   0.97034262    -2.836579    644.28701  0.081472814  0.082441364            3 
  660000    1.0107083   -2.8645029    641.58202   0.08100783  0.082406182            2 
  661000   0.99803593    -2.831833    645.09415  0.081328058  0.082370661            2 
  662000    1.0126096    -2.842016    644.05612  0.081074537  0.082334744            7 
  663000    1.0122114   -2.8409953    645.84547  0.081177158  0.082298807            2 
  664000   0.97740937   -2.8328284    644.51853  0.080888369  0.082262736            5 
  665000   0.99162192   -2.8102221    648.04945  0.081209204  0.082226441            1 
  666000   0.99470986   -2.8546672    647.47236   0.08101506  0.082190288            4 
  667000   0.97425357   -2.8616336    647.35939  0.080879483  0.082154301            4 
  668000    1.0073499   -2.8515032    650.17651  0.081109844  0.082118534            2 
  669000    1.0208186   -2.8576812    650.77983  0.081063756  0.082083014            1 
  670000   0.98740675   -2.8586105    650.05496  0.080852607  0.082046525            2 
  671000   0.98657562   -2.8603875    649.78465   0.08069854  0.082011001            2 
  672000    0.9919402     -2.85551    653.48574  0.081037418  0.081974714            3 
  673000   0.98662119   -2.8340681    654.35591  0.081024753   0.08193914            2 
  674000   0.97462095   -2.8485721    654.63798  0.080939414  0.081903936            3 
  675000   0.99858916   -2.8396921     654.8731  0.080848531  0.081869048            2 
  676000   0.97688544   -2.8421452    656.68164  0.080951878   0.08183427            3 
  677000   0.97621936   -2.8389334    660.27679  0.081274839  0.081800735            3 
  678000    1.0060123    -2.856438    658.68635  0.080959483  0.081767022            3 
  679000    0.9786216   -2.8487116    658.64072   0.08083465  0.081733481            2 
  680000   0.98082223   -2.8559857    660.49249  0.080942707  0.081699964            2 
  681000     0.968954   -2.8425926    662.17568  0.081029819  0.081667006            2 
  682000   0.98067326   -2.8557711    661.28254  0.080801875  0.081635581            1 
  683000   0.98413738   -2.8756296    663.94547  0.081008476  0.081603858            4 
  684000   0.98444276   -2.8440214    664.57489  0.080966726  0.081571854            4 
  685000    0.9771805   -2.8572194    663.95405  0.080772999  0.081539634            3 
  686000   0.97424297   -2.8716213    667.30321  0.081062101  0.081506134            3 
  687000   0.98825906   -2.8422718    667.42925  0.080959394  0.081473311            2 
  688000   0.97759827   -2.8537279    665.93389  0.080660597  0.081440784            1 
  689000    0.9763361   -2.8711841    664.65694  0.080389083  0.081407913            2 
  690000     0.968494   -2.8667459    668.22615  0.080703642  0.081374495            2 
  691000   0.99694055   -2.8572262    667.34936  0.080481109  0.081341486            2 
  692000    0.9828353   -2.8681925     667.1488  0.080340655  0.081308006            7 
  693000   0.97225837   -2.8550657    670.67451  0.080648691  0.081274582            2 
  694000   0.96084306   -2.8627657    673.54728  0.080877435  0.081241994            4 
  695000    0.9630291   -2.8420567     674.1759  0.080836438  0.081210994            2 
  696000     0.966454   -2.8578334    673.05179  0.080585703  0.081179272            2 
  697000    0.9713024   -2.8433411    673.27575  0.080496861  0.081148765            3 
  698000   0.96460791   -2.8749859    673.80149  0.080444304  0.081117529            7 
  699000   0.97100895   -2.8561509    676.12889  0.080606687  0.081086235            2 
  700000    0.9683548   -2.8684615    675.56516  0.080424423  0.081054215            8 
  701000   0.98016077   -2.8708274     676.8024  0.080456776  0.081022446            1 
  702000   0.96620005   -2.8559797    676.35158  0.080288649  0.080990585            3 
  703000   0.97174979   -2.8820612     677.5385  0.080315137  0.080958809            4 
  704000   0.97566489   -2.8550689    677.67075  0.080216708  0.080928553            4 
  705000   0.97634939   -2.8744386     678.4386  0.080193688   0.08089771            8 
  706000    0.9882858   -2.8312436    679.86419   0.08024837  0.080866785            1 
  707000   0.96881745   -2.8738373    680.27554   0.08018335  0.080836413            2 
  708000   0.95570058   -2.8329354    683.16088  0.080409708  0.080805838            3 
  709000   0.97051429   -2.8586788    681.92698  0.080151267  0.080774808            4 
  710000    0.9518354    -2.900419    680.42631  0.079862243  0.080742648            4 
  711000   0.95520699   -2.8591848    686.04695  0.080408691  0.080711245            4 
  712000   0.96215117   -2.8808206     683.2233  0.079965273   0.08068049            5 
  713000   0.97096476   -2.8550409    688.37864  0.080455661  0.080649923            2 
  714000   0.97316481   -2.8592734    687.88763  0.080285672  0.080620712            2 
  715000   0.96461795   -2.8288573    687.79548  0.080162643   0.08059111            2 
  716000   0.97186087   -2.8601095    689.22489   0.08021705  0.080560835            2 
  717000   0.95432574   -2.8366549    690.94252  0.080304802  0.080531231            2 
  718000   0.95576841   -2.8602462    688.73163  0.079936355  0.080500833            3 
  719000   0.96629202   -2.8698481    690.41662   0.08002047  0.080470743            2 
  720000   0.98407346   -2.8966406    690.68693  0.079940617  0.080439215            2 
  721000   0.97198008   -2.8746661    689.97584  0.079747554  0.080408493            1 
  722000   0.99072923   -2.8550315    693.43256  0.080036076  0.080378683            4 
  723000   0.97487278   -2.8712203    692.54528  0.079823107   0.08034796            3 
  724000   0.96106649   -2.8727133     696.5678  0.080175852  0.080318727            2 
  725000   0.95656698   -2.8952459    693.33556  0.079693742  0.080288865            2 
  726000   0.96183874   -2.8922124     696.1442  0.079906359  0.080257931            4 
  727000   0.96810697   -2.8992917    693.89601  0.079538745  0.080226209            5 
  728000   0.96314316   -2.8728747     693.4795  0.079381811   0.08019507            2 
  729000   0.96417267   -2.8686449     696.4566  0.079613237  0.080163901            3 
  730000   0.96666139   -2.8990432    695.68894  0.079416546  0.080132162            2 
  731000    0.9461409   -2.8795722    698.54982  0.079634043  0.080100121            3 
  732000   0.96375626   -2.8885012    698.92438  0.079567894  0.080068142            2 
  733000   0.97039263   -2.8903301    697.22132  0.079265726  0.080035245            2 
  734000   0.95726248   -2.8780814     697.8665  0.079230983  0.080002282            3 
  735000   0.99342421   -2.8714197     701.7527  0.079563798  0.079969199            2 
  736000   0.96089347   -2.8854245    697.54806  0.078979627  0.079935426            2 
  737000   0.93924873   -2.8686206    700.54202  0.079210992  0.079902112            2 
  738000   0.97171754   -2.8708529    699.68152  0.079006495  0.079868624            1 
  739000   0.96061067   -2.8917949    701.39284  0.079092562   0.07983501            2 
  740000   0.95429208   -2.8745526    701.11877  0.078954816  0.079802045            3 
  741000   0.94088681   -2.8763696    702.15431  0.078964723  0.079768859            2 
  742000   0.95056941   -2.9062652    701.19663  0.078750745   0.07973581            4 
  743000   0.96277685   -2.8709547    705.02895  0.079074579  0.079703362            1 
  744000    0.9486777   -2.9075942    707.31973   0.07922488  0.079670295            2 
  745000   0.96734346   -2.8766481    705.31387  0.078894168  0.079636665            3 
  746000   0.97885739   -2.8563055    707.08065  0.078985774  0.079603314            2 
  747000   0.94399234    -2.886754    708.41298  0.079028668  0.079569805            3 
  748000   0.94082115   -2.8798062    708.95099  0.078982953  0.079536235            3 
  749000   0.94418988   -2.8963259     706.8843  0.078647564   0.07950263            7 
  750000   0.95819861   -2.8598454    707.91863  0.078657625  0.079468843            3 
  751000   0.95536457   -2.8719816    707.46536  0.078502592  0.079435133            2 
  752000   0.93933234   -2.8895498    709.96869  0.078675608   0.07940102            2 
  753000   0.97926648   -2.8960689    708.28935  0.078385275  0.079366218            3 
  754000   0.95211868   -2.9040062     709.5605  0.078421806   0.07933239            1 
  755000   0.96437926   -2.8967875    710.58051   0.07843052  0.079298159            6 
  756000   0.96564594   -2.8951038     710.0922   0.07827295  0.079263208            3 
  757000   0.98973975   -2.8933658    710.87973  0.078256245  0.079228491            6 
  758000   0.94431397    -2.876563    712.27418  0.078306308  0.079193827            6 
  759000   0.94162298   -2.8647047    712.99533  0.078282315  0.079159449            3 
  760000   0.97621365   -2.8975837    715.06881  0.078406668  0.079123765            5 
  761000   0.95832133   -2.8870672    710.15702   0.07776577  0.079088557            2 
  762000   0.95859229   -2.8942482    713.35986  0.078013983  0.079052003            2 
  763000   0.93863199   -2.8841987    713.22236  0.077896719  0.079016162            2 
  764000   0.95291735   -2.8789854    716.16858  0.078116119  0.078980848            3 
  765000   0.94605158   -2.9086493    713.98079  0.077775685  0.078945541            3 
  766000   0.95241446   -2.9149946    716.76384  0.077976919  0.078909886            2 
  767000   0.95482405    -2.886969    717.70059  0.077977031  0.078874417            3 
  768000   0.96039769   -2.8972598    717.29478  0.077831465   0.07883834            4 
  769000   0.95396466   -2.9046489    717.01744  0.077700199    0.0788025            3 
  770000   0.95881452   -2.9149078    716.81478  0.077577357  0.078764965            8 
  771000    0.9554869   -2.9019005    716.87992  0.077483778  0.078728336            6 
  772000   0.92672001   -2.8836063    718.57344  0.077566218   0.07869179            5 
  773000   0.93963968   -2.8794021    716.89578  0.077285013  0.078654685            3 
  774000   0.94781298   -2.9075644    718.46716  0.077354345  0.078617777            1 
  775000   0.95040784   -2.8892056    717.36095  0.077135586  0.078580933            2 
  776000   0.94302201   -2.9111708    722.87913  0.077628772   0.07854432            1 
  777000   0.93542923   -2.8891657    720.80324  0.077306225  0.078508533            2 
  778000   0.92189242   -2.9029128    721.97556   0.07733243  0.078472858            1 
  779000   0.93905222   -2.9270544    722.42666  0.077281414  0.078437045            2 
  780000   0.95274972   -2.9146015    722.65009  0.077206206  0.078400151            3 
  781000   0.93349203   -2.9089624    724.33001  0.077286599  0.078364015            2 
  782000   0.94155896   -2.8914597    722.01622  0.076941199  0.078326943            2 
  783000    0.9242919   -2.9027471    724.66288  0.077124614  0.078290224            1 
  784000   0.95418961   -2.9003585    725.16752  0.077079881  0.078254514            1 
  785000   0.92383899   -2.8982683    728.63785   0.07735009  0.078217453            3 
  786000   0.92520829   -2.9187947    722.15933  0.076564814    0.0781805            3 
  787000   0.96953971   -2.8994024    729.46884  0.077241512  0.078144533            3 
  788000   0.94784569   -2.9031186     728.0311  0.076991445   0.07810893            4 
  789000   0.93320789   -2.8977862    730.83054  0.077189537  0.078073539            3 
  790000   0.93223596    -2.903789    731.48866  0.077161251   0.07803764            6 
  791000   0.94852389   -2.9010731    731.09035  0.077021739  0.078001465            3 
  792000   0.95038674   -2.9050854    732.94009  0.077119117  0.077964993            2 
  793000   0.94276993   -2.9080609    732.38506  0.076963541  0.077928821            2 
  794000   0.94651585    -2.935675    731.78239  0.076803358   0.07789209            3 
  795000   0.93042974   -2.9138404    731.26115  0.076652112   0.07785534            2 
  796000   0.95454859   -2.8994817    736.16754  0.077069466  0.077819584            1 
  797000   0.92695435   -2.9029328    736.35889  0.076992774  0.077783767            2 
  798000   0.91653639    -2.897495    736.69159  0.076931034  0.077748082            3 
  799000   0.90578589   -2.9119725    734.28663   0.07658392    0.0777124            2 
  800000   0.94874918   -2.8718737    736.41466   0.07670986  0.077676524            1 
  801000   0.94555632   -2.9136173    734.40762  0.076405287  0.077640675            3 
  802000   0.90638814    -2.904126    736.31306  0.076508007  0.077604266            2 
  803000   0.93472072    -2.932581    737.58039  0.076544249  0.077567883            1 
  804000   0.92696601   -2.9192694    736.90545  0.076379089  0.077531024            4 
  805000   0.92138419    -2.901332    737.32204  0.076327334  0.077494982            1 
  806000   0.92234402   -2.9180648    736.95098   0.07619427  0.077458453            4 
  807000   0.92567248   -2.9319496     737.8098  0.076188537  0.077422145            3 
  808000   0.93876365   -2.9187842    742.45197  0.076573017  0.077385271            2 
  809000    0.9130504   -2.9435321    740.59946  0.076287542  0.077348377            5 
  810000   0.94646312   -2.9409738    741.75592  0.076312338  0.077311873           14 
  811000   0.93331469   -2.9326069    739.34435  0.075970443  0.077274975            5 
  812000   0.91343047   -2.9232697     743.2231  0.076274949  0.077237874            4 
  813000   0.94835793   -2.9000361    742.20048   0.07607631  0.077201011            3 
  814000   0.93409099   -2.9227041    742.97631  0.076062276  0.077164448            2 
  815000   0.94057262   -2.9013238    743.28297  0.076000303  0.077127998            4 
  816000     0.932191   -2.9183826    746.04276  0.076189007  0.077091487            3 
  817000   0.92720838   -2.9124886    746.14593  0.076106275  0.077055077            3 
  818000   0.90226266   -2.9109167    744.18678  0.075813649   0.07701901            3 
  819000   0.92814768   -2.9227995    745.63682  0.075868622  0.076982317            2 
  820000   0.92611624   -2.9158499    747.17076  0.075931988  0.076946081            4 
  821000   0.92512417   -2.9280288    746.21184  0.075742168  0.076910372            4 
  822000   0.92232271   -2.9222652    751.72166  0.076208603  0.076876115            3 
  823000   0.93131941   -2.9366827    751.40807  0.076084252  0.076841287            3 
  824000   0.91151421   -2.9058039    753.54305  0.076207833  0.076806424            3 
  825000   0.94817981   -2.9018898    750.95434  0.075853973  0.076771427            2 
  826000     0.922551   -2.9449075    750.18094  0.075684114   0.07673645            5 
  827000   0.92805539   -2.9112064    753.46618  0.075923637  0.076701167            6 
  828000   0.94391602   -2.9138939    752.23877  0.075708411  0.076664777            4 
  829000   0.93929746   -2.9337303    754.78499  0.075873039  0.076629544            3 
  830000   0.90774675   -2.9187931    754.95571  0.075798766  0.076595501            3 
  831000   0.93642465   -2.9387998    753.47994  0.075559561  0.076560386            2 
  832000   0.93257073    -2.932445    755.87498  0.075708631  0.076525505            3 
  833000    0.9188986   -2.8878115    759.06916  0.075937291  0.076490809            2 
  834000   0.93911653   -2.9100869    757.46186  0.075685638  0.076456481            4 
  835000   0.92472257   -2.9468409     758.1824  0.075666906  0.076421301            2 
  836000   0.92490685   -2.9263744      760.108  0.075768341  0.076387146            5 
  837000   0.91871702   -2.9455626    756.75516  0.075344002    0.0763522            2 
  838000   0.91048309   -2.9310692    759.77535   0.07555443  0.076316557            3 
  839000   0.91782161   -2.9132508    762.31069  0.075716199  0.076282154            3 
  840000   0.90460273   -2.9519184     760.4446  0.075440932  0.076247114            3 
  841000    0.9253209   -2.9340354    759.01515  0.075209587  0.076211651            2 
  842000   0.92414236   -2.9237283    759.46022  0.075164313  0.076175938            4 
  843000   0.92965922   -2.9100752    760.55995  0.075183863   0.07614006            2 
  844000   0.89603543   -2.9431618    764.89136  0.075522449   0.07610542            3 
  845000   0.90501564   -2.9534988    761.05655  0.075054886  0.076070168            1 
  846000   0.91112058   -2.9062801    765.84827  0.075438167  0.076035067            2 
  847000   0.91510986   -2.9474883    763.13987  0.075082631  0.075999833            3 
  848000   0.92147351   -2.9493175    764.69875  0.075147283  0.075964576            3 
  849000   0.94785776   -2.9371429    764.16011    0.0750059  0.075929323            8 
  850000   0.93822035   -2.9274491    763.45271  0.074848305  0.075894043            2 
  851000   0.89480807   -2.9343665    765.27618  0.074938913  0.075859044            3 
  852000   0.93419972   -2.9443648    765.09154  0.074832897  0.075823774            2 
  853000    0.9142417   -2.9461112    768.52051   0.07508016  0.075788879            7 
  854000   0.91914859   -2.9392627    768.28875  0.074969628   0.07575326            4 
  855000     0.916009   -2.9273275    765.48416  0.074608593  0.075717996            2 
  856000   0.91948879   -2.9386766    766.76554  0.074646178  0.075682169            2 
  857000   0.91414486   -2.9120969    770.10732  0.074884026  0.075646859            3 
  858000    0.9151479   -2.9231691    767.61617  0.074554795  0.075611483            1 
  859000   0.90793774   -2.9562597    770.30637  0.074728984  0.075576588            5 
  860000   0.92749235   -2.9406284    773.95701  0.074995834   0.07554114            3 
  861000   0.89161231   -2.9054842    773.47304  0.074861889  0.075505839            2 
  862000   0.88284372   -2.9358062    771.52115  0.074586345  0.075470365            2 
  863000   0.90300166   -2.9343983      775.044  0.074840092  0.075435042            2 
  864000   0.90831268   -2.9428111    773.58923  0.074613159  0.075399874            3 
  865000   0.91604784   -2.9460033    772.78711  0.074449625  0.075363455            2 
  866000   0.91180513   -2.9233342    777.25576  0.074793664  0.075327369            2 
  867000   0.89076579   -2.9394729    772.09496  0.074211357  0.075291294            3 
  868000   0.88728378   -2.9175893    772.73833  0.074187628  0.075254978            7 
  869000   0.90170017   -2.9490693     776.4145  0.074454785  0.075219043            3 
  870000   0.89537667   -2.9534632    775.66098  0.074297029   0.07518222            1 
  871000   0.90377026   -2.9659642    776.68069  0.074309289  0.075145983            2 
  872000   0.90977656   -2.9686416      776.165   0.07417479  0.075109695            2 
  873000   0.91069407   -2.9426296    777.17297  0.074186041  0.075072594            2 
  874000   0.90015603   -2.9385489    776.63129  0.074049513  0.075034897            3 
  875000   0.89603826   -2.9270665    780.03209  0.074288771   0.07499839            5 
  876000   0.92375588   -2.9397837    775.69107  0.073791007  0.074960917            2 
  877000   0.92374298   -2.9660882    777.35508  0.073864983  0.074923564            2 
  878000   0.91670336   -2.9496192    778.09346  0.073850936  0.074887522            2 
  879000   0.88516682   -2.9416823    780.47467  0.073992668  0.074850826            2 
  880000   0.91682083   -2.9660741    779.18048   0.07378603  0.074814682            4 
  881000   0.90486291   -2.9577378    781.82796  0.073952701  0.074778131            5 
  882000   0.91548765   -2.9490536    781.84179  0.073870162  0.074741557            3 
  883000   0.89019354   -2.9453492    780.62912  0.073672057  0.074704646            9 
  884000   0.89828392   -2.9580118    780.84366  0.073608943  0.074667746            2 
  885000   0.88397916   -2.9556668    781.66841  0.073603429  0.074630855            2 
  886000   0.89513735   -2.9498875    780.10015  0.073372851  0.074593728            7 
  887000   0.88333447   -2.9713221    784.46181  0.073699907  0.074556173            3 
  888000    0.8873959   -2.9731603    782.59984  0.073442178  0.074519611            2 
  889000   0.91784581   -2.9442454    784.84448  0.073569974  0.074482425            3 
  890000   0.89724458   -2.9690491    783.27052  0.073339937  0.074445623            4 
  891000   0.90288967   -2.9647683    783.52721  0.073281632  0.074408335            3 
  892000   0.89654797   -2.9475239    784.27221  0.073269078   0.07437187            1 
  893000   0.89018885   -2.9828427    785.82868  0.073332277  0.074334916            2 
  894000   0.86785291    -2.935696    790.26127  0.073663429  0.074298177            2 
  895000   0.90212527   -2.9636575    786.82859  0.073261507  0.074261085            4 
  896000   0.91042622   -2.9737565    786.03737  0.073106155  0.074224008            5 
  897000   0.90920371    -2.977104     784.6493  0.072895699  0.074186877            2 
  898000   0.88262331   -2.9134903    788.74758  0.073194838  0.074149944            3 
  899000   0.90644841   -2.9541713    790.58964  0.073284171  0.074113608            3 
  900000   0.88340024   -2.9559382    791.20521  0.073259742  0.074077384            5 
  901000   0.89013497    -2.976842    793.35938  0.073377671  0.074041249            2 
  902000    0.8848795   -2.9669795    792.18789   0.07318809  0.074005142            3 
  903000   0.90217565   -3.0033718    790.12096  0.072916293  0.073969191            3 
  904000   0.90017064   -2.9858356    791.49771  0.072962547  0.073933325            6 
  905000    0.9005531   -2.9513509    796.09492  0.073305242  0.073897695            1 
  906000   0.88990392   -2.9983072     793.3441  0.072971312  0.073861663            2 
  907000   0.90124822   -2.9783564    792.37925   0.07280221  0.073825883            2 
  908000   0.91093174   -2.9591286    792.46336   0.07272975   0.07379002            3 
  909000   0.89848996   -2.9530266    795.70253  0.072946693  0.073753245            2 
  910000   0.89413521   -2.9688342    796.11536  0.072904337  0.073716862            2 
  911000   0.89273982   -2.9803755    794.89533  0.072712708  0.073680189            3 
  912000   0.88711465   -2.9508219    800.12255  0.073110613  0.073643719            3 
  913000   0.87874303   -2.9610665    798.99398  0.072927527  0.073607826            4 
  914000   0.90129332   -2.9611686    800.74554  0.073007434  0.073572246            4 
  915000   0.90313286   -2.9537181    798.64269  0.072736128  0.073536748            3 
  916000   0.87439833   -2.9789412    797.62841  0.072564447  0.073500537            7 
  917000   0.92038573   -2.9717381    799.50234  0.072655611  0.073464182            5 
  918000   0.89749116    -2.983603    801.83005  0.072787767  0.073428317            3 
  919000   0.89899058   -2.9667049    800.05596  0.072547693  0.073392299            2 
  920000   0.88034755   -2.9542876    803.32008    0.0727645  0.073356662            3 
  921000   0.89071804    -2.999302    799.55027  0.072344396  0.073320476            3 
  922000   0.89849173   -3.0081525    801.45984  0.072438525  0.073284165            2 
  923000   0.89740728   -2.9559368    801.70123  0.072381837  0.073247789            5 
  924000   0.89471916   -2.9803662    801.22756  0.072260783  0.073212491            2 
  925000   0.87906075   -2.9829869    805.59383   0.07257602  0.073177045            2 
  926000   0.89497554   -2.9812708    805.23835  0.072465654  0.073141546            4 
  927000   0.87730887   -2.9639878    805.56156  0.072416537  0.073106465            5 
  928000   0.87557204   -2.9614383    806.74954  0.072445181  0.073071446            3 
  929000   0.86076453   -2.9878045    808.48718  0.072523069  0.073036518            2 
  930000   0.87438485   -2.9615624    806.10343  0.072231491  0.073001326            4 
  931000   0.86347378   -2.9903632    808.03217  0.072326546  0.072966932            2 
  932000   0.88086741   -2.9943355    804.47517  0.071930898  0.072932122            3 
  933000   0.86694862   -3.0024688     811.2506  0.072458968  0.072896602            3 
  934000   0.87540432   -2.9839462    809.95829  0.072266086   0.07286233            5 
  935000   0.88782321   -2.9864478    811.12056  0.072292385  0.072828265            4 
  936000   0.89049384    -2.986668    812.29552  0.072319758  0.072793575            4 
  937000   0.86499163   -2.9594462    811.92172  0.072209331  0.072759106            4 
  938000   0.88068894   -2.9855693     811.5791   0.07210191  0.072723799            2 
  939000   0.89141062   -2.9830917    808.14238  0.071720126   0.07268866            4 
  940000   0.88430618   -2.9878348    811.24605  0.071918976    0.0726532            4 
  941000   0.87393839   -2.9917621      813.196  0.072015232  0.072618086            2 
  942000   0.87516049   -2.9898712    812.79257  0.071903093  0.072582234            5 
  943000   0.88342586   -2.9803308    815.96288  0.072107006  0.072547104            6 
  944000   0.86658576   -3.0146032    810.51789  0.071549955  0.072512164            2 
  945000   0.88738859   -2.9924462    815.24134   0.07189077  0.072477109            2 
  946000   0.89523278   -3.0107379    817.49714   0.07201349  0.072442204            5 
  947000   0.86331666   -2.9576359    820.50626  0.072202241  0.072407942            2 
  948000   0.89827494   -2.9781855    818.41126  0.071941918  0.072373803            6 
  949000   0.86535137   -2.9982766    818.40519  0.071865577  0.072339395            2 
  950000   0.86490446   -2.9740575    818.71105  0.071816759  0.072304781            2 
  951000   0.85314546   -2.9948758    822.62985  0.072084634  0.072270579            4 
  952000   0.86095416   -3.0080497    818.12338  0.071614441  0.072236158            4 
  953000   0.86970824   -3.0047769    820.45401  0.071743093  0.072201659            3 
  954000   0.87633469   -2.9897775    819.49592    0.0715842   0.07216648            2 
  955000   0.85970552   -2.9762369    819.15613  0.071479593  0.072131229            2 
  956000   0.87609689   -2.9965248    818.42656  0.071341227  0.072095802            3 
  957000   0.88001822   -2.9940551    822.23765  0.071598541  0.072060454            7 
  958000   0.87857576   -2.9920741    821.46376  0.071456485  0.072024846            7 
  959000   0.87179185   -2.9700462    818.60719   0.07113375  0.071989696            4 
  960000   0.88171506   -3.0010792    823.90056  0.071519146  0.071954282            4 
  961000   0.87173295   -2.9820588    822.58169  0.071330358  0.071918754            2 
  962000   0.87088879   -2.9702074      821.425  0.071156012  0.071883472            3 
  963000    0.8655679   -3.0050841    819.79497  0.070941067  0.071847813            2 
  964000   0.86580424   -3.0012812    824.25547  0.071253066  0.071811782            2 
  965000   0.84867221   -3.0158622    823.40007   0.07110536  0.071775803            2 
  966000   0.87382105   -2.9850932    825.53995  0.071216352  0.071740841            4 
  967000   0.87749195   -2.9884373    825.16645  0.071110518   0.07170554            2 
  968000    0.8586867   -2.9769883    827.89866  0.071272268   0.07167094            3 
  969000   0.87128504   -2.9658242    825.52826  0.070994862  0.071635977            3 
  970000   0.87468361    -2.983684    828.00761  0.071134675  0.071601077            3 
  971000   0.88095176   -2.9917891    830.57215   0.07128151  0.071566235            2 
  972000   0.86488303   -3.0017922    827.96663  0.070984794  0.071531595            2 
  973000   0.87741445   -3.0013443    827.45514  0.070868031  0.071496598            2 
  974000   0.86950603   -2.9861626    827.46326  0.070795967  0.071462337            3 
  975000   0.88203389   -2.9932855    828.19937  0.070786271  0.071427495            4 
  976000   0.85619603   -3.0161277    831.50737   0.07099619  0.071392952            3 
  977000   0.87371955   -3.0201015    830.17808   0.07081014  0.071358213            6 
  978000    0.8522135   -2.9856793    834.06066  0.071068563  0.071324035            2 
  979000   0.87243551    -2.993828     832.6893  0.070879239  0.071290123            2 
  980000   0.85157511   -3.0315167    831.85096  0.070735626  0.071256068            2 
  981000   0.85492474   -3.0198184    831.53874  0.070636998  0.071221826            2 
  982000   0.84470343   -3.0011917    831.82455   0.07058932  0.071187812            2 
  983000   0.84022074   -3.0160887    834.04067   0.07070538  0.071153948            3 
  984000    0.8539896   -3.0138683    837.93404  0.070963248  0.071121109            2 
  985000   0.84704021   -3.0071642    838.99465  0.070980935  0.071087605            3 
  986000   0.86677699   -3.0124713    838.05706  0.070829704  0.071054431            4 
  987000   0.85959255   -2.9728467     837.3594  0.070699037  0.071020673            1 
  988000   0.86174752   -2.9963813    837.08394  0.070604246  0.070986662            1 
  989000    0.8625125   -2.9997075    839.38877  0.070727062  0.070952684            4 
  990000   0.86957666   -3.0123461    837.00279  0.070454781   0.07091903            5 
  991000   0.86212657   -3.0107357    834.66598  0.070187183  0.070885446            3 
  992000   0.85354899   -3.0114258    841.77677  0.070713774  0.070851616            4 
  993000   0.86735861   -2.9824972    846.60903  0.071048089  0.070818313            3 
  994000   0.84963407    -3.029461    840.32999  0.070450201  0.070785381            3 
  995000   0.87343793   -3.0038486    842.94143  0.070598109  0.070752413            3 
  996000   0.85922293    -3.020446    842.17105  0.070462772  0.070719587            2 
  997000   0.87228904   -3.0544014    844.24254  0.070565241  0.070686871            4 
  998000   0.85087691   -3.0234269    842.96626  0.070387964  0.070654048            2 
  999000   0.84868329   -3.0150763    843.18166  0.070335474  0.070621146            5 
 1000000   0.87882468   -3.0180787    844.85034  0.070404195  0.070588095            5 
 1001000   0.85448045   -3.0265353    842.18918  0.070112319  0.070555337            2 
 1002000   0.84566119     -3.00425    845.37423  0.070307238  0.070522539            3 
 1003000    0.8351142   -3.0275458    846.02799  0.070291458  0.070489282            6 
 1004000   0.83716506   -3.0176651    848.54432  0.070430305  0.070456113            3 
 1005000   0.83737774    -3.004006    845.31105  0.070092127   0.07042323            2 
 1006000   0.83775568   -3.0335979    842.81526  0.069815711  0.070390178            2 
 1007000   0.85111784   -3.0406453    848.52396  0.070218798  0.070357266            2 
 1008000   0.86022915   -3.0019609     847.9023  0.070097743   0.07032507            2 
 1009000   0.84877412   -3.0051615    848.11815  0.070046098  0.070292546            3 
 1010000   0.86336968   -3.0034052     848.7249  0.070026807   0.07026055            4 
 1011000   0.84442547   -3.0001584    852.24513  0.070247703  0.070227879            3 
 1012000   0.85220431   -3.0461629    845.86683  0.069653066   0.07019515            3 
 1013000   0.83718233   -3.0292099    852.49355  0.070129447  0.070163138            2 
 1014000   0.85882268   -3.0181289    855.47511  0.070305318  0.070131318            3 
 1015000   0.85502803   -3.0205526    853.62801  0.070084401  0.070099689            5 
 1016000   0.83764956   -3.0207058    856.22954  0.070228801  0.070068803            2 
 1017000   0.84227997   -3.0082274    856.16131  0.070154155  0.070037166            3 
 1018000   0.82414624   -3.0213334    855.19909  0.070006474  0.070006252            5 
 1019000   0.85172765   -3.0328662    856.94083  0.070080212  0.069975706            2 
 1020000    0.8571892   -3.0582242    858.88242  0.070170132  0.069944486            5 
 1021000   0.83911846   -3.0524262    856.60459  0.069915491  0.069913376            3 
 1022000   0.85095845   -3.0317794    856.76284  0.069859983  0.069881849            3 
 1023000   0.83741452   -3.0092044    856.85474   0.06979918  0.069850461            2 
 1024000   0.83721048   -3.0240642    859.77412  0.069968597  0.069819494            5 
 1025000   0.83992801    -3.043774    857.59631  0.069723277  0.069788199            2 
 1026000   0.84132339   -2.9978591    857.89157  0.069679303  0.069757216            3 
 1027000   0.85808678   -3.0344051    860.73071   0.06984183  0.069726527            3 
 1028000   0.83223454   -3.0106214    860.42993  0.069749508  0.069695997            3 
 1029000   0.83563375   -3.0150369    859.61002  0.069615324  0.069665466            2 
 1030000   0.83895963   -3.0190331     864.9689  0.069981302  0.069635135            3 
 1031000    0.8398622   -3.0533694    861.28848  0.069615946  0.069604838            3 
 1032000   0.82701505   -3.0241689    867.56726  0.070055496  0.069574216            3 
 1033000   0.84749342   -3.0529139    864.68653  0.069755286  0.069544639            5 
 1034000   0.83590517   -3.0303692    867.69642  0.069930401  0.069515047            4 
 1035000    0.8402621   -3.0360123     868.4544  0.069923865  0.069485802            3 
 1036000   0.85584672   -3.0380529    868.43218  0.069854583  0.069456404            5 
 1037000   0.84608233   -3.0416652    871.70147  0.070049941  0.069427459            4 
 1038000   0.85269573   -3.0538996     865.3763  0.069474655  0.069397685            4 
 1039000   0.84833437   -3.0460853    871.75461  0.069919363  0.069367961            3 
 1040000   0.84484524   -3.0275745    872.09325  0.069879266  0.069338723            3 
 1041000   0.83359296   -3.0311411    873.29101  0.069908022   0.06930984            4 
 1042000   0.86940767   -3.0535028    872.69609  0.069793353   0.06928084            2 
 1043000   0.83178537   -3.0336186    874.93794  0.069905556  0.069252286            4 
 1044000   0.85487972   -3.0301986    870.37469  0.069474353  0.069223213            4 
 1045000   0.82497817   -3.0171036    876.33038  0.069882806  0.069194201            7 
 1046000   0.81834167   -3.0477416       873.19  0.069565806   0.06916528            7 
 1047000   0.81561154   -3.0194811    872.81978  0.069469897  0.069135871            3 
 1048000   0.83373603   -3.0394374    875.01816  0.069578416  0.069106807            4 
 1049000   0.83182191   -3.0529835    873.44961  0.069387481  0.069077216            4 
 1050000   0.82613433   -3.0586097    872.14132  0.069217565  0.069047626            4 
 1051000   0.84461584   -3.0331541    876.61825   0.06950668  0.069018658            3 
 1052000   0.83431331   -3.0628303    873.69348  0.069208926  0.068989498           12 
 1053000   0.82964627    -3.042135    874.73094  0.069225304  0.068959329            5 
 1054000   0.83047497   -3.0343702    873.34111   0.06904974  0.068929916            1 
 1055000   0.83840642   -3.0581325    878.75988  0.069412313   0.06890027            2 
 1056000   0.82596333    -3.034207    874.90681   0.06904252  0.068870687            5 
 1057000   0.82223099   -3.0350501    876.21939  0.069080684  0.068840559            2 
 1058000   0.84204493   -3.0624661    874.72921  0.068898016  0.068810821            2 
 1059000   0.83547935   -3.0353507    877.13231  0.069022058  0.068780853            3 
 1060000    0.8188202   -3.0288605    878.59059  0.069071588  0.068751114            3 
 1061000   0.82620553    -3.056099    880.08336  0.069123732  0.068721375            2 
 1062000   0.81783096   -3.0312286    879.66611  0.069025903  0.068692023            5 
 1063000   0.83388726   -3.0636819    881.87445   0.06913409  0.068662895            7 
 1064000   0.83688049   -3.0698394    879.14967  0.068855707  0.068633541            3 
 1065000   0.83046681   -3.0461812    880.41889  0.068890367  0.068603703            6 
 1066000   0.82644727   -3.0258889    881.36332  0.068899571  0.068573935            3 
 1067000   0.81493679     -3.06337    880.30871  0.068752633   0.06854404            4 
 1068000   0.81105484   -3.0432966    885.62273  0.069102897   0.06851425            2 
 1069000   0.82814112   -3.0704702    882.01672   0.06875715  0.068484554            5 
 1070000   0.86327289   -3.0706483    885.41315  0.068957411  0.068454918            3 
 1071000   0.84083333   -3.0616637    885.08152  0.068867221  0.068425275            2 
 1072000   0.83151207   -3.0671352    887.64957   0.06900261  0.068396093            1 
 1073000   0.83327351   -3.0722028    885.64647  0.068782733  0.068366953            2 
 1074000    0.8370468   -3.0554321    887.65644  0.068874646   0.06833768            4 
 1075000    0.8458907   -3.0784186    887.96723  0.068834669   0.06830864            4 
 1076000    0.8286295   -3.0573364    887.76037  0.068754676  0.068279986            3 
 1077000   0.83238665   -3.0495727    890.02367   0.06886596  0.068251397            4 
 1078000   0.83308691   -3.0516277    890.42922  0.068833427    0.0682226            4 
 1079000   0.82484192   -3.0630778     888.3705  0.068610635  0.068193975            5 
 1080000    0.8453513   -3.0544983    886.72458  0.068420107  0.068165463            3 
 1081000   0.81617996   -3.0742768    890.30467  0.068632799  0.068136277            2 
 1082000   0.80400252    -3.060374    892.24299  0.068718653  0.068107108            4 
 1083000   0.81910732   -3.0480969    892.58374  0.068681421  0.068078739           13 
 1084000   0.82136589   -3.0638388    891.21184  0.068512596  0.068050228            3 
 1085000   0.83324902   -3.0690801    892.05877  0.068514499  0.068021041            2 
 1086000   0.82092936   -3.0702636    890.86193  0.068359571  0.067991521            4 
 1087000   0.81099231   -3.0630429    891.76571   0.06836597  0.067962478            4 
 1088000   0.81794745   -3.0266528    895.57546  0.068594934  0.067933488            2 
 1089000   0.83396271   -3.0532631    892.82991  0.068321848  0.067904158            3 
 1090000    0.8152656   -3.0810862     889.6675  0.068017393  0.067874586            7 
 1091000   0.81697643   -3.0503148    892.16926   0.06814614  0.067845494            9 
 1092000   0.80363093   -3.0503368    894.36476  0.068251279  0.067816563            4 
 1093000    0.7968405   -3.0738403    895.05152  0.068241196  0.067787209            5 
 1094000   0.81851189   -3.0777352    895.05906  0.068179392   0.06775757            7 
 1095000   0.81414871     -3.05264    894.56283  0.068079363  0.067728157            3 
 1096000   0.81070674   -3.0855011    895.85582  0.068115558  0.067698605            5 
 1097000   0.82776342   -3.0636463    892.77352   0.06781932  0.067668733            6 
 1098000   0.79296547   -3.1059975    895.36183  0.067953994  0.067638879            4 
 1099000   0.80563748   -3.0802015    895.20453  0.067880234  0.067609524            5 
 1100000   0.82413554    -3.061828    897.90082  0.068022789  0.067580134            2 
 1101000    0.8107489   -3.0355289    897.36027  0.067920093  0.067551191            5 
 1102000   0.81021884   -3.0816002    900.01152  0.068058947  0.067521789            4 
 1103000   0.83186136   -3.0712052    900.32436   0.06802088  0.067492513            4 
 1104000   0.82873359   -3.0958476    899.28423  0.067880754  0.067463042            4 
 1105000   0.82486683   -3.0699941    900.08659  0.067879833  0.067434287            3 
 1106000   0.79659305   -3.0966809    900.75307  0.067868676  0.067405347            2 
 1107000   0.80859315   -3.0635593    899.92028  0.067744677  0.067376755           10 
 1108000   0.81670785   -3.0710858    900.08553  0.067695963  0.067347794            5 
 1109000    0.8205067   -3.0718051    897.76458  0.067460518    0.0673186            5 
 1110000   0.82360009    -3.080447    901.68709  0.067694226  0.067288992            2 
 1111000    0.8163315   -3.1022465    897.66348  0.067331494  0.067259429            1 
 1112000   0.81523715   -3.0856316     897.7361  0.067276386  0.067229595            2 
 1113000   0.79614658   -3.0730899    903.39239  0.067639442   0.06719995            2 
 1114000   0.79023126   -3.0837767    904.08574  0.067630591  0.067170059            4 
 1115000    0.8159416   -3.0641888    901.92877  0.067408727  0.067139973            5 
 1116000    0.8179658   -3.0884364    902.77563  0.067411562  0.067110103            3 
 1117000   0.80686277   -3.1064126    900.96378  0.067216039  0.067080177           11 
 1118000   0.80017281   -3.0759705    902.83918  0.067295705  0.067050268            4 
 1119000   0.82512979   -3.0768767    902.82114  0.067234222  0.067020349            4 
 1120000     0.823456   -3.0786659    905.97796  0.067409074  0.066990527            2 
 1121000   0.80287169   -3.0756975    905.34169  0.067301642  0.066961081            3 
 1122000   0.80653283   -3.0819631    907.33822  0.067389945  0.066931428            3 
 1123000   0.81258272   -3.1053305    905.01511  0.067157548  0.066901851            3 
 1124000   0.80494778   -3.0912147    905.01444  0.067097749  0.066872319            5 
 1125000   0.80070845   -3.1054154    905.05843  0.067041365    0.0668429            5 
 1126000    0.8162635   -3.1284029    906.83452  0.067113271  0.066813584            3 
 1127000    0.7882939   -3.0962504    908.59696   0.06718404  0.066783779            3 
 1128000   0.80494428   -3.0866718    907.06547  0.067011338  0.066754391            5 
 1129000   0.78392309   -3.0874645    906.86495  0.066937182   0.06672472            6 
 1130000     0.817381   -3.0591932    910.23769  0.067126673   0.06669498            2 
 1131000   0.80488977   -3.0934459     907.7293  0.066882501  0.066665717            6 
 1132000   0.81000506   -3.0878682    907.40745  0.066799724  0.066636185            3 
 1133000    0.7986043   -3.0719214    911.02774  0.067007042  0.066606591            3 
 1134000   0.81378856   -3.0825318    909.46794  0.066833329  0.066577084            1 
 1135000    0.8071341   -3.1058927    911.49965  0.066923616  0.066547751            4 
 1136000   0.81091798   -3.0730702    915.20469  0.067136494  0.066518503            3 
 1137000   0.81652666   -3.0706869    913.66225  0.066964398  0.066489239            5 
 1138000   0.79084066   -3.1181424    912.98936   0.06685628  0.066459551            5 
 1139000   0.79523429   -3.1140692     909.3055  0.066528058  0.066430099            2 
 1140000   0.79147413    -3.095338    910.54437  0.066560261  0.066400417            3 
 1141000   0.80798859   -3.0881881    913.54982   0.06672143  0.066371271            5 
 1142000   0.79350694   -3.0722557    915.98437  0.066840657   0.06634234            5 
 1143000   0.79480839   -3.0954369    913.35515  0.066590489  0.066313396            4 
 1144000   0.79204998   -3.1128783    913.95845  0.066576227  0.066283534            6 
 1145000   0.79794409   -3.0935339    914.85528  0.066583354  0.066254243            7 
 1146000   0.80372895   -3.1134683    915.09115  0.066542405  0.066225455            3 
 1147000   0.79372223    -3.089008    917.52381  0.066661131  0.066196223            4 
 1148000   0.79999349   -3.0912643    918.35792  0.066663612  0.066166885            8 
 1149000   0.81825007   -3.1089685    917.91172  0.066573232  0.066137708            4 
 1150000   0.80138698   -3.1082461    916.15944  0.066388365  0.066108365            7 
 1151000   0.80349041   -3.1157109    915.77533  0.066302876  0.066078824            5 
 1152000   0.80574327   -3.0878262    916.00884  0.066262213  0.066049268            4 
 1153000   0.79528066   -3.1056247    919.61518  0.066465393  0.066019873            5 
 1154000   0.79183543   -3.0965693    916.84721  0.066207915  0.065990061            7 
 1155000   0.79870007   -3.1224336    918.95133  0.066302405  0.065960425            3 
 1156000    0.7911105   -3.1055972    921.59408   0.06643556  0.065930907            7 
 1157000   0.80359924   -3.1081807    920.79626  0.066320675  0.065901465            4 
 1158000   0.80625483   -3.0814105    919.13061  0.066143539   0.06587194            2 
 1159000   0.78880794   -3.1210234    916.23659  0.065878386  0.065842859            2 
 1160000   0.79458976   -3.1076573     919.5144  0.066057069  0.065813221            2 
 1161000   0.82318338   -3.1081021    920.38565  0.066062708  0.065783837            8 
 1162000   0.79753312   -3.0765713    921.47985  0.066084327  0.065754413            3 
 1163000   0.80503282   -3.1049328    923.16742  0.066148425  0.065724657            3 
 1164000   0.79225577   -3.1027791    925.73549   0.06627545  0.065695361            7 
 1165000   0.79699387   -3.0884391     922.0973  0.065958319   0.06566581            3 
 1166000    0.8073428   -3.1234193    919.76601  0.065735135   0.06563595            4 
 1167000   0.79753909   -3.1222075    920.75238  0.065749242  0.065605921            3 
 1168000   0.77354497   -3.1192875    920.44462  0.065670992  0.065575975            4 
 1169000   0.78655909   -3.1146435    921.23332  0.065671038  0.065546466            6 
 1170000   0.78681957    -3.115864    926.82219  0.066012976  0.065517114            3 
 1171000   0.78388689    -3.128404     922.0689  0.065618339  0.065487752            7 
 1172000   0.79494809   -3.1092842    926.21377  0.065857066  0.065458426            5 
 1173000   0.76159641   -3.1028963    924.31393  0.065665951   0.06542936            3 
 1174000   0.79720289   -3.1241328    928.97206  0.065940663  0.065400425            2 
 1175000   0.78761948   -3.0978085    928.01849  0.065816914  0.065371343            4 
 1176000   0.77189248   -3.0936376    928.96198  0.065827804  0.065342326            3 
 1177000   0.78650085   -3.1265446    928.29819  0.065724879    0.0653131            6 
 1178000   0.77521398    -3.122747    926.59687  0.065548732   0.06528377            3 
 1179000   0.78840282   -3.1267654    925.59915  0.065422615  0.065253735           10 
 1180000   0.77976508   -3.1252147     928.9842  0.065606229  0.065224233            4 
 1181000   0.77775188   -3.1412925    932.21758   0.06577883  0.065194752            2 
 1182000   0.77066063    -3.118709    928.33287    0.0654493  0.065165667            4 
 1183000   0.78089218   -3.1396524     929.5923  0.065482692  0.065136362            5 
 1184000   0.78007409   -3.1103063    930.32122   0.06547869  0.065107014            2 
 1185000   0.77469349   -3.1297179    924.32246  0.065001579  0.065077472            4 
 1186000   0.77399873   -3.0978198    934.93656  0.065692563  0.065048173            3 
 1187000   0.76895634   -3.1336355    931.76885  0.065414831  0.065018787            2 
 1188000   0.78776134   -3.1219625    931.13645  0.065315408  0.064989804            5 
 1189000   0.78128487   -3.1200216    933.00135  0.065391179  0.064960122            2 
 1190000   0.79153254   -3.1327915    928.86861  0.065046821  0.064930684           14 
 1191000   0.77178344   -3.0988913    932.01405   0.06521229  0.064900931            4 
 1192000   0.77675795   -3.1329123    931.44737  0.065117965  0.064871289            6 
 1193000   0.78658532   -3.1220399    931.33076  0.065055236  0.064841398            4 
 1194000   0.78218228   -3.1278114    931.83233  0.065035757  0.064811558            3 
 1195000   0.76933878   -3.1244521     933.5331  0.065099937  0.064781755            9 
 1196000   0.77880702   -3.1143775    933.15893  0.065019435  0.064752081            8 
 1197000   0.79832836   -3.1101639     932.6979   0.06493302  0.064722174            7 
 1198000   0.76975634   -3.1037871    935.90754  0.065102082  0.064692259            3 
 1199000   0.79973067    -3.126501    934.75738  0.064967847  0.064662353            4 
 1200000   0.76765206   -3.1517505    934.89008  0.064922922  0.064632363            3 
 1201000   0.76339772   -3.1413762    937.48802  0.065049127  0.064602298            3 
 1202000   0.76215014   -3.1192866    933.28111  0.064703349  0.064572335            2 
 1203000   0.77028737   -3.1518004    933.63797  0.064674284  0.064542086            2 
 1204000   0.78602958   -3.1325539    937.50892  0.064888491  0.064511439            3 
 1205000   0.77976316   -3.1257211    934.97714  0.064659553  0.064480846            3 
 1206000   0.78361446   -3.1480414     934.0599  0.064542558  0.064450288            4 
 1207000    0.7738447   -3.1215532    938.13781  0.064770631  0.064419618            4 
 1208000   0.78044188   -3.1334212    934.50731  0.064466564  0.064388561            4 
 1209000   0.77686182   -3.1329209    935.60947  0.064489211  0.064357637            5 
 1210000   0.77607787    -3.155288    933.39429  0.064283353   0.06432666            7 
 1211000   0.78077706   -3.1349727    934.72149    0.0643216  0.064295762            3 
 1212000   0.76312391   -3.1120657    936.14166  0.064366176  0.064264839            7 
 1213000   0.74930476   -3.1275686     935.6476   0.06427917  0.064234077            3 
 1214000   0.77560428   -3.1441176    935.22599  0.064197281  0.064203001            6 
 1215000   0.77312804   -3.1175527    936.55484  0.064235586  0.064171883            5 
 1216000   0.76970693   -3.1213319    936.57713  0.064184288  0.064141301            8 
 1217000    0.7541266   -3.1629387    937.53683  0.064197263  0.064110427            9 
 1218000   0.78364701   -3.1235496    939.09497  0.064251161  0.064079535            4 
 1219000   0.75290036   -3.1406069    940.73845  0.064310804  0.064049021            2 
 1220000   0.77821324   -3.1401133    939.59494  0.064179982   0.06401809            4 
 1221000   0.75761049   -3.1604596    939.79994   0.06414141  0.063987581            9 
 1222000   0.76673987    -3.142716    938.85437  0.064024439  0.063957032            4 
 1223000   0.76147969   -3.1291852    940.82402  0.064106297  0.063926621            3 
 1224000   0.75767929    -3.149464    938.65808   0.06390646  0.063896519            9 
 1225000   0.75516779   -3.1589559    944.61665  0.064259636  0.063866377            6 
 1226000   0.77914832   -3.1531061    941.10895  0.063968798  0.063836496            3 
 1227000   0.76172469   -3.1345954     942.9846   0.06404405  0.063806397            3 
 1228000   0.76441051   -3.1365993    941.55557  0.063894922  0.063776066            5 
 1229000    0.7600338   -3.1442354    940.75866  0.063788897  0.063745512            7 
 1230000   0.77301525   -3.1371581    945.33625  0.064047171  0.063715121            4 
 1231000   0.75270712   -3.1575549    943.55295  0.063874421  0.063685064            5 
 1232000   0.75566382   -3.1233221    941.54433   0.06368671  0.063654754            4 
 1233000   0.74330807   -3.1641979    942.94353  0.063729625  0.063624316            5 
 1234000   0.76038544   -3.1782103     941.0745  0.063551763  0.063593939            8 
 1235000   0.74645307   -3.1530177    940.65286  0.063471853  0.063563167            4 
 1236000   0.76859143   -3.1476033    944.33904  0.063669029  0.063532463            7 
 1237000   0.75861198   -3.1540173    944.51029  0.063629095  0.063501816            6 
 1238000   0.78253868   -3.1425102    947.58466  0.063784643  0.063471782            4 
 1239000   0.74101026   -3.1596296    946.13866  0.063635907  0.063441441            7 
 1240000   0.74811432   -3.1578471    943.07731  0.063378851  0.063410963            4 
 1241000   0.75703264   -3.1448106    946.57524  0.063562667  0.063380345            5 
 1242000   0.76463932   -3.1601622    944.12054  0.063346789  0.063349805            5 
 1243000   0.77364135   -3.1551963    948.43002  0.063584742  0.063319353            2 
 1244000   0.74843349   -3.1436976    949.07832  0.063577058  0.063289199            7 
 1245000   0.75100526   -3.1491061    948.20442  0.063467498  0.063258724            5 
 1246000   0.75636143   -3.1675187    948.74821   0.06345293  0.063228326           13 
 1247000   0.76996837   -3.1579233    947.10022  0.063291915  0.063197962            5 
 1248000   0.77648761    -3.179657     944.9715  0.063099059  0.063167209            3 
 1249000   0.77331417   -3.1384867    944.91226  0.063044586  0.063136312            5 
 1250000   0.76903114   -3.1528837    947.29434  0.063152956  0.063105353            8 
 1251000   0.74827437   -3.1695648    947.25364  0.063099763  0.063074386            5 
 1252000   0.76905905     -3.16901    947.03372  0.063034726  0.063043385            5 
 1253000    0.7547631   -3.1696953    949.46968  0.063146427  0.063012167            5 
 1254000    0.7548259   -3.1631581    946.92435  0.062926924  0.062980444            3 
 1255000   0.74960573   -3.1668336    945.93809  0.062811294   0.06294894            5 
 1256000   0.76614643   -3.1903925    946.86119  0.062822531  0.062917156            3 
 1257000   0.74184449    -3.156762    946.04376  0.062718361  0.062885708            7 
 1258000   0.75911297   -3.1675917    946.66382   0.06270958  0.062854237            3 
 1259000   0.75126078   -3.1685539    947.46017  0.062712481  0.062823044            6 
 1260000   0.76040428   -3.1525261    947.28961  0.062651429   0.06279186            4 
 1261000   0.74402818   -3.1590719    950.13375  0.062789701  0.062760042            6 
 1262000    0.7519524    -3.176501    949.64443  0.062707635  0.062728513            5 
 1263000   0.74493982    -3.178807    949.25799  0.062632488  0.062697189            4 
 1264000   0.75384285   -3.1393814    949.19346  0.062578683  0.062665638            3 
 1265000   0.72584958   -3.1604993    947.59729  0.062424064  0.062633883           17 
 1266000   0.75187259   -3.1667256    946.24533  0.062285764  0.062602219            3 
 1267000   0.75244303   -3.1793088    950.21764  0.062497872  0.062570549            3 
 1268000    0.7426034   -3.1853604    951.21087  0.062513858  0.062538836            3 
 1269000   0.74981882   -3.1665467    953.84471  0.062637556  0.062507047            4 
 1270000   0.77125458   -3.1689439    952.37106   0.06249154  0.062475643            4 
 1271000   0.74976764   -3.1578962    952.45929  0.062448157  0.062444107            7 
 1272000   0.74850829   -3.1497508    955.12423  0.062573653  0.062413022            3 
 1273000   0.77727258   -3.1852307    952.63401  0.062361482  0.062381913            4 
 1274000   0.75317223   -3.1641895    954.72231  0.062449131  0.062350846            3 
 1275000   0.74346736   -3.1714372    954.91392  0.062412675  0.062320073            6 
 1276000   0.74430234   -3.1632213     957.3745  0.062524458  0.062289112            4 
 1277000    0.7614435   -3.1584877    953.39399  0.062215739  0.062258303            5 
 1278000   0.74620055    -3.185971    953.44957  0.062170682  0.062227375            7 
 1279000   0.73443977   -3.1651359    959.00552  0.062484071  0.062196677            4 
 1280000    0.7489625   -3.2027724    954.63863  0.062150952  0.062165715            9 
 1281000   0.74001479   -3.1922734     955.1525  0.062135864  0.062134507            3 
 1282000   0.74889151    -3.177898     956.1021  0.062149122  0.062103672            6 
 1283000   0.73264219    -3.183402    957.47315  0.062189734  0.062072677            5 
 1284000    0.7336315   -3.1861285    956.80854  0.062098166  0.062041609            2 
 1285000   0.73841341   -3.1792176    956.77717  0.062047806  0.062010282            7 
 1286000   0.72997798   -3.1833286    957.36306  0.062037523  0.061979335            4 
 1287000   0.74848002   -3.1904969    958.40054  0.062056497  0.061948451            5 
 1288000   0.73933513   -3.1679865    957.12327  0.061925677  0.061917425            2 
 1289000   0.75277244   -3.1925518    957.44295  0.061898303  0.061886477            5 
 1290000   0.75049525   -3.1727983    961.49882  0.062112327  0.061855656            4 
 1291000   0.73115843   -3.1798613    959.64668   0.06194466   0.06182476            6 
 1292000   0.74602713   -3.1657832    959.38451  0.061879806  0.061793935            7 
 1293000   0.71889118   -3.1815106    959.88844  0.061864426  0.061763023            3 
 1294000   0.72940229   -3.1821482    958.81764  0.061747658  0.061731749            6 
 1295000   0.72662052   -3.1830679    959.49173  0.061743354  0.061700673            4 
 1296000    0.7360175   -3.1819429    960.32768  0.061749465  0.061669631            5 
 1297000   0.73494923   -3.1841385    959.41416  0.061643161  0.061638376            3 
 1298000   0.71922152    -3.179639    961.13152  0.061705927  0.061607275            3 
 1299000   0.72662053   -3.1884539    960.58721  0.061623506  0.061576207            3 
 1300000   0.72850935   -3.2174563     961.5621  0.061638596  0.061544902            7 
 1301000   0.72045442   -3.1791161    959.65454  0.061469033  0.061513498            2 
 1302000   0.73529907   -3.2062328    958.24703  0.061331735  0.061482164            6 
 1303000   0.74763516   -3.2205766    960.68806  0.061440782  0.061450207            3 
 1304000   0.75527674   -3.2043136    960.18796  0.061361705  0.061418817            2 
 1305000   0.73327292   -3.1833229     960.1701  0.061313544   0.06138728            6 
 1306000   0.74983198    -3.194551    963.61057  0.061486126  0.061355814            3 
 1307000    0.7331599   -3.1876191    962.14949  0.061345925  0.061324187            3 
 1308000   0.74353647   -3.1976753    960.48618  0.061193054  0.061292863            2 
 1309000   0.72776233   -3.2149833     960.4089  0.061141386  0.061261368            6 
 1310000   0.73226282   -3.1979083    963.75024  0.061307267  0.061229883            4 
 1311000   0.71887745   -3.2126849    960.97741   0.06108425  0.061198256            2 
 1312000   0.73220938   -3.1992963    960.19596  0.060988056  0.061166294            7 
 1313000   0.74691203   -3.1910415    961.78119  0.061042218   0.06113454            9 
 1314000   0.70754353   -3.2030421    963.11218  0.061080174  0.061103142            2 
 1315000   0.72855124   -3.1974641     961.8673  0.060954835  0.061071705            7 
 1316000   0.74453191   -3.2044131    963.46031  0.061009391  0.061040082            3 
 1317000   0.74386939   -3.1926194    961.73873  0.060854133  0.061008317           13 
 1318000   0.74640523   -3.2038563    960.93418  0.060757093  0.060976712            4 
 1319000   0.72262358   -3.1819979    964.03769  0.060907107  0.060945251            5 
 1320000   0.70011765    -3.193473     967.3801  0.061071976  0.060914105            6 
 1321000   0.73312666   -3.1956424    966.66936  0.060980909  0.060882651            8 
 1322000   0.71945255   -3.2055554     965.5356  0.060863313  0.060851219            8 
 1323000   0.70932745   -3.2200574     966.5641  0.060882092  0.060819867            4 
 1324000   0.73071559   -3.2114148    964.48345  0.060705151  0.060788191            4 
 1325000   0.72246108   -3.1881776    969.33571   0.06096451  0.060756834            4 
 1326000   0.73071189   -3.2027676    965.35437  0.060668324  0.060725325            5 
 1327000    0.7289287   -3.2003778    962.61391  0.060450509  0.060693632            6 
 1328000   0.73356206   -3.1960991    967.64017  0.060720392  0.060661982            4 
 1329000   0.72204077   -3.2018013    964.66324  0.060488038  0.060630637            3 
 1330000   0.72643446    -3.211714     965.8522  0.060517055  0.060599292            4 
 1331000   0.71747587   -3.2024696    964.89617  0.060411731  0.060567909            4 
 1332000    0.7120002   -3.1981943    964.96049  0.060370401  0.060536417            9 
 1333000   0.70958697   -3.2251322    965.80987  0.060378212  0.060504527            9 
 1334000   0.72763832   -3.2172095    964.59468  0.060257039   0.06047286            3 
 1335000   0.71530355   -3.1947596    968.78073  0.060473204  0.060441221            5 
 1336000   0.72356336   -3.1911447     968.8352  0.060431337  0.060409665            2 
 1337000   0.71173222   -3.1892389    971.48103  0.060551049  0.060378142            5 
 1338000   0.71692845    -3.208387    971.55752  0.060510558  0.060346868            3 
 1339000   0.71735194   -3.2136375    970.49521  0.060399254   0.06031538            7 
 1340000   0.70878252   -3.2059075    966.42241  0.060100896  0.060283949            8 
 1341000   0.71444156   -3.2161357       969.78  0.060264728  0.060252455            3 
 1342000    0.7252676   -3.2071045    969.12398  0.060179085  0.060220994            3 
 1343000   0.71776381   -3.2070047    970.08152  0.060193691  0.060189385            5 
 1344000   0.71711778   -3.2341424    971.64806  0.060246036   0.06015787            4 
 1345000   0.71879319   -3.2325102    967.48349  0.059943215  0.060126136            8 
 1346000   0.72633916   -3.2228411    969.87305  0.060046623  0.060094392            4 
 1347000    0.7172806   -3.1961713    970.79078  0.060058821  0.060062533            5 
 1348000    0.7251456   -3.2065587     971.4163  0.060052937  0.060031029            2 
 1349000   0.71867125   -3.2106595    970.02977  0.059922768  0.059999414            6 
 1350000   0.70420485   -3.2012092    972.18938   0.06001169  0.059967668            5 
 1351000    0.7138456   -3.2133327    967.61432  0.059685068   0.05993586            2 
 1352000   0.70121396   -3.2116585    970.88859  0.059842739  0.059904057           10 
 1353000   0.72908914   -3.2196839    972.02762  0.059868663  0.059872191            6 
 1354000   0.72304631   -3.2091621     973.3768  0.059907484  0.059840613            3 
 1355000   0.71190633   -3.2238373    972.70063  0.059821687  0.059808673            6 
 1356000   0.71397318   -3.2293826    970.31151  0.059630746  0.059776839            4 
 1357000    0.7089465   -3.2401072    973.69455  0.059794556  0.059745108            3 
 1358000   0.71596997   -3.2314605    973.34646  0.059729164  0.059713437            7 
 1359000   0.70158866   -3.2476448    972.45684  0.059630662  0.059681836            7 
 1360000   0.72005087   -3.2314597    973.29546  0.059638202   0.05965004            9 
 1361000   0.71360142   -3.2340695    974.68336  0.059679363  0.059618222           14 
 1362000   0.69026354   -3.2399342    968.87407  0.059280107   0.05958645            4 
 1363000   0.70715656   -3.2545701    974.79029   0.05959833  0.059554536            5 
 1364000   0.71754904   -3.2188518    973.09785  0.059451237  0.059523127            5 
 1365000   0.70275728   -3.2250076    971.20958  0.059292404  0.059491973            5 
 1366000   0.71416753   -3.2278231    976.01225  0.059541987  0.059460469           11 
 1367000   0.71179949   -3.2306652    975.88155  0.059490463  0.059429173            8 
 1368000   0.70577781   -3.2320753    976.07488  0.059458753  0.059398106            5 
 1369000   0.70227518   -3.2357193     976.8746     0.059464  0.059366983            5 
 1370000   0.69782158   -3.2385096     976.8131  0.059416855  0.059336011            4 
 1371000   0.69715395   -3.2115449    979.15008  0.059515565  0.059305027            5 
 1372000   0.68698939   -3.2588262    978.45936  0.059430233  0.059274276            9 
 1373000   0.70502033   -3.2358525     975.1646  0.059186975  0.059243419            6 
 1374000    0.7238662   -3.2079838    979.39815  0.059400664  0.059212223           11 
 1375000    0.7068643   -3.2252102    980.29666  0.059411919  0.059181362            5 
 1376000   0.70881633   -3.2377722    980.56331   0.05938489  0.059150429            8 
 1377000   0.69472146   -3.2197968    977.24535  0.059140967  0.059119692           10 
 1378000   0.69241263    -3.253565    979.28764  0.059221556  0.059088894            6 
 1379000   0.70286618   -3.2404241    980.53828  0.059254187  0.059057793            4 
 1380000    0.6967385   -3.2382168     979.0961  0.059124161  0.059026835            4 
 1381000   0.70318777   -3.2519491    980.05809  0.059139397  0.058995757            6 
 1382000   0.69660529   -3.2491117    980.58333  0.059128276  0.058964884            5 
 1383000   0.70539603   -3.2395828    980.43839  0.059076789  0.058934346            4 
 1384000   0.69193834   -3.2357999    983.54203   0.05922098  0.058904142            6 
 1385000    0.7027998   -3.2214972    982.71249  0.059128308  0.058873823            5 
 1386000   0.68615738   -3.2480486    981.71751  0.059025824   0.05884327            4 
 1387000   0.70107963   -3.2512334      980.769   0.05892628  0.058812671            4 
 1388000   0.69623477   -3.2299179     981.4776  0.058926369  0.058781972            6 
 1389000   0.69797186   -3.2346955    985.33883  0.059115601  0.058751752            9 
 1390000   0.70052004   -3.2381259    981.29151  0.058830426  0.058721258            4 
 1391000   0.68716096   -3.2378618    979.51147  0.058681492  0.058690684            6 
 1392000   0.70211103   -3.2393702    984.15091   0.05891708  0.058660239            5 
 1393000   0.70149269   -3.2410615    984.76897  0.058911759  0.058629779            5 
 1394000   0.68963461   -3.2336794    983.54428  0.058796287  0.058599286           15 
 1395000    0.6767729   -3.2440355    980.74308  0.058586803  0.058569043            4 
 1396000   0.71005136   -3.2542209    983.88091  0.058732146  0.058538705            3 
 1397000   0.68366116   -3.2666115    984.29745  0.058714952   0.05850834            3 
 1398000   0.68484803   -3.2406218     985.7354  0.058758667  0.058477665            4 
 1399000   0.71116059   -3.2490388    983.48464  0.058582597    0.0584471            5 
 1400000    0.7037757   -3.2472362    985.99359  0.058690095   0.05841674            5 
 1401000   0.68393023   -3.2452478    982.50719  0.058440828   0.05838642           10 
 1402000   0.70589969   -3.2565972    986.40007  0.058630532  0.058355877            5 
 1403000   0.69705652   -3.2472458    985.66249  0.058544933  0.058325647            6 
 1404000   0.72296442   -3.2559243    985.23831  0.058478057  0.058295494            7 
 1405000   0.67879277   -3.2548272    986.81578  0.058529999  0.058265348            4 
 1406000   0.69879012   -3.2518506    984.37804  0.058343886  0.058235035            5 
 1407000   0.69472274   -3.2408637    988.48416  0.058545615  0.058204682            6 
 1408000   0.70608611   -3.2403525    987.58467  0.058450797  0.058174617            6 
 1409000   0.68755581   -3.2782207    985.36646  0.058278121  0.058144218            3 
 1410000   0.67432226   -3.2448938    990.33909  0.058530679  0.058114132            9 
 1411000   0.68918012    -3.263659    987.77871  0.058337982  0.058084291            3 
 1412000   0.68870707   -3.2697352    989.22161  0.058381823  0.058054194            7 
 1413000   0.69196038   -3.2618247    990.17974  0.058397012  0.058023972            5 
 1414000   0.68099309   -3.2567485    991.33247  0.058423648  0.057994077            6 
 1415000   0.69713783   -3.2667627    989.58756  0.058279597  0.057964228            6 
 1416000   0.68702268   -3.2810825    990.27693   0.05827901  0.057934107            3 
 1417000   0.67932131   -3.2706174    988.20336  0.058115935  0.057904116            4 
 1418000   0.70023708   -3.2410087    988.86246  0.058113684  0.057873962            4 
 1419000    0.6906491   -3.2555997    993.27395  0.058331804  0.057844255            5 
 1420000   0.68453726   -3.2557761    991.43862  0.058183018  0.057814445            9 
 1421000   0.69884287   -3.2492153     992.6909  0.058215511  0.057784721            4 
 1422000   0.68237354   -3.2642008    993.38202  0.058215074  0.057754996            6 
 1423000   0.68531913   -3.2557531    991.28171  0.058051166  0.057725187            7 
 1424000   0.67592681   -3.2720399    993.31408  0.058129335  0.057695191            3 
 1425000   0.68436399   -3.2768127    994.76987  0.058173677  0.057665841            6 
 1426000   0.67146377   -3.2603614    992.10753  0.057977298  0.057636249           17 
 1427000   0.69418434    -3.276904      993.475  0.058016527  0.057606764           13 
 1428000    0.6873168   -3.2535811    995.52087  0.058095289   0.05757737            8 
 1429000   0.68036438   -3.2589714    996.03897  0.058084848  0.057547981            7 
 1430000   0.68846455   -3.2676285    992.01526  0.057809747  0.057518209            4 
 1431000   0.69032281   -3.2867482    993.56016  0.057859315  0.057488308           12 
 1432000   0.67993302   -3.2761868    996.17533  0.057971097  0.057458571            6 
 1433000   0.68582502   -3.2767599    996.30212  0.057938016  0.057428777           13 
 1434000   0.69086884   -3.2823623     993.5391  0.057737047  0.057398995            6 
 1435000   0.68404266   -3.2933202    996.87695  0.057890647  0.057369345           18 
 1436000    0.6850864   -3.2816159    996.46821  0.057826614  0.057339723           10 
 1437000   0.67531974   -3.2901648    994.95172   0.05769843  0.057310103            8 
 1438000   0.67110642   -3.2806872    995.08956  0.057666294  0.057280395            7 
 1439000   0.65467011   -3.2582416    996.73589  0.057721559  0.057250737            5 
 1440000   0.68242736   -3.2631701    994.04741  0.057525892  0.057221216            6 
 1441000    0.6746027   -3.2538963     996.7307  0.057641146  0.057191863            3 
 1442000   0.69114639   -3.2709971    995.27405  0.057516993  0.057162684            8 
 1443000   0.69070087   -3.2965876    998.15684  0.057643615  0.057133236            4 
 1444000   0.69132348    -3.293423    998.10149  0.057600501   0.05710376            8 
 1445000   0.68925519   -3.2786807    999.32476  0.057631186  0.057074337            3 
 1446000   0.67484285    -3.292046    996.30252  0.057417158  0.057044917            6 
 1447000   0.67653678   -3.2732392    996.62383  0.057395982  0.057015275           10 
 1448000   0.68747411   -3.2789183    998.37341  0.057457033  0.056986005            7 
 1449000   0.67242837    -3.274782    999.31157  0.057471335  0.056956558            4 
 1450000   0.66889315   -3.2833351    1000.3476  0.057491244  0.056927348            5 
 1451000   0.68052741   -3.2896465    997.32479  0.057278015  0.056898118            4 
 1452000   0.67244552    -3.283799    997.23954  0.057233674  0.056868782           12 
 1453000   0.66318304   -3.2650736    997.95495  0.057235315   0.05683944            5 
 1454000   0.67382243   -3.2702958    1001.7689  0.057414539  0.056810375            3 
 1455000   0.67492575   -3.2930755    1001.8204  0.057378031  0.056781243            6 
 1456000   0.67820204   -3.2838491    1001.0018  0.057291769  0.056752087           12 
 1457000   0.67463821   -3.2901876    999.81025  0.057184297  0.056723066            7 
 1458000   0.69176107   -3.2847683    1001.7616  0.057256606  0.056693686            6 
 1459000   0.67615582   -3.2931029    1001.1914  0.057184798    0.0566646            7 
 1460000    0.6740045   -3.2785383    1001.0518  0.057137659  0.056635474            4 
 1461000   0.67040927   -3.2963948    1003.8438  0.057257803  0.056606504            8 
 1462000   0.67085739   -3.2773151    1003.8593  0.057219525  0.056577729            6 
 1463000   0.66514962    -3.288031    1002.5363  0.057105053  0.056548836            4 
 1464000   0.66752884   -3.2820227    1002.2584  0.057050229   0.05651969           10 
 1465000   0.68616472   -3.3090539    1000.6253  0.056918387  0.056490575            3 
 1466000   0.67110085   -3.2764867    1001.4663  0.056927368  0.056461549            6 
 1467000   0.67065694   -3.2775341    1002.5005  0.056947311  0.056432451            4 
 1468000   0.66722948   -3.3097761    1003.3643  0.056957558  0.056403523            5 
 1469000   0.67021202    -3.306788     1003.119  0.056904867  0.056374377            5 
 1470000   0.67726433   -3.3074955    999.25662  0.056647201  0.056344946           14 
 1471000   0.65240578   -3.2878126    1002.7269  0.056805285  0.056315559            5 
 1472000   0.67020285   -3.3078204    1002.2271  0.056738399  0.056286197            8 
 1473000   0.67462596   -3.2918832    1004.9551  0.056854214  0.056256962            6 
 1474000    0.6777864   -3.3112278    1002.6481  0.056685219  0.056227975            6 
 1475000   0.67047817    -3.286012    1002.4955  0.056638162   0.05619903            7 
 1476000   0.65722508    -3.287046    1003.7823  0.056672444  0.056169819            4 
 1477000   0.67753249   -3.2839355    1003.8852  0.056639879  0.056140754            5 
 1478000   0.67411338   -3.3137849    1005.0476  0.056667093  0.056111853            5 
 1479000   0.66136936   -3.2812965    1006.4507  0.056707836  0.056082714            6 
 1480000   0.66790381   -3.2973667    1006.1855  0.056654587  0.056053662           11 
 1481000   0.66622397   -3.3065307    1002.2922  0.056397263  0.056024505            4 
 1482000   0.65266621   -3.2880815    1006.8971  0.056618143  0.055995444            4 
 1483000   0.65882529   -3.2992901    1005.4552  0.056498941  0.055966421            5 
 1484000   0.67454873   -3.2999529    1007.2128  0.056559571  0.055937368            4 
 1485000   0.65408325   -3.3315689     1004.338  0.056360159  0.055908297            6 
 1486000   0.66668749   -3.3003278    1007.1706   0.05648108  0.055879136           10 
 1487000    0.6686841   -3.2851444    1005.5975  0.056354934  0.055850107            8 
 1488000   0.66017049   -3.2994011     1006.588  0.056372535   0.05582137            5 
 1489000   0.66451505   -3.2856424    1009.3359  0.056488464  0.055792526           16 
 1490000   0.66032021   -3.3027183    1007.6092  0.056353984  0.055763878            4 
 1491000   0.66066788   -3.3010879    1010.2664  0.056464697  0.055735288            6 
 1492000   0.65927936   -3.3256174    1006.6054  0.056222374   0.05570625            5 
 1493000   0.64969133   -3.2903954    1008.0845  0.056267273  0.055677203            4 
 1494000   0.65572163   -3.2930427    1008.4609  0.056250606  0.055648251            4 
 1495000   0.67316477   -3.3133584    1008.1693  0.056196729  0.055619384            5 
 1496000   0.67039624   -3.2943492    1008.7979  0.056194181  0.055590592            6 
 1497000   0.64235479   -3.2831335    1012.1996  0.056346002  0.055561762            5 
 1498000   0.65279965   -3.3073084    1011.3671  0.056262077  0.055532931            6 
 1499000   0.64727954   -3.3013508    1009.3726  0.056113665  0.055504058           11 
 1500000   0.67164919    -3.296409    1010.8125  0.056156248  0.055475154           10 
 1501000   0.65005854   -3.3427218    1006.7436  0.055892938  0.055446041            9 
 1502000   0.65337866   -3.3096513    1007.3683  0.055890384  0.055417223            4 
 1503000   0.64912496   -3.3319839    1008.6218  0.055922696   0.05538838            7 
 1504000   0.65515968   -3.3195362    1008.6703  0.055888206  0.055359733            3 
 1505000   0.65765667   -3.3114636    1010.7429  0.055965833  0.055330969            9 
 1506000   0.65748583    -3.307936    1011.5518   0.05597343  0.055302189            8 
 1507000     0.645086   -3.3138246    1010.8005  0.055894742  0.055273213            6 
 1508000   0.65925441   -3.3229172    1007.6911  0.055685847  0.055244334            8 
 1509000   0.65911463   -3.3122795    1010.5424  0.055806408  0.055215103            7 
 1510000   0.65277713   -3.3194071    1009.0749   0.05568846  0.055185828            7 
 1511000   0.62550692   -3.3133135    1010.6573  0.055738874  0.055156476            6 
 1512000   0.64459016   -3.3136678    1008.5464  0.055585671  0.055127283            9 
 1513000    0.6528538   -3.3357498    1006.8522  0.055455617  0.055097908            7 
 1514000   0.65032513   -3.3091708    1008.0749   0.05548629  0.055068501            4 
 1515000   0.63724881   -3.3086587    1010.0499  0.055558302  0.055039118           12 
 1516000   0.64982093   -3.2783684    1010.6625  0.055555327  0.055010127            3 
 1517000   0.65429935   -3.3205106     1010.645  0.055517743  0.054980993            3 
 1518000   0.64754713    -3.323892    1012.3783  0.055576323  0.054951822           13 
 1519000   0.64726703   -3.3311249    1012.0111   0.05551959  0.054922731            8 
 1520000   0.64728859   -3.3113084    1010.6869  0.055410468  0.054893682            6 
 1521000   0.63429337   -3.3192714    1009.5758  0.055313158  0.054864361            4 
 1522000   0.64312282   -3.3431171    1009.1025  0.055250905  0.054835166            5 
 1523000   0.64390986   -3.3225336    1012.2453  0.055386588  0.054806249            6 
 1524000   0.63375306   -3.3418105    1014.5636  0.055477015  0.054777262           11 
 1525000   0.64160833   -3.3420589    1010.4352  0.055215038  0.054748153            8 
 1526000   0.64700545   -3.3433377    1011.6498  0.055245183  0.054719108            4 
 1527000    0.6514554   -3.3330995    1010.0183  0.055119968  0.054689926            7 
 1528000   0.65500995   -3.3465803    1012.8586  0.055238801  0.054660777           10 
 1529000   0.62561558    -3.329635     1012.124  0.055162636  0.054631904            9 
 1530000   0.64543139   -3.3269623     1012.575  0.055151142  0.054603042            5 
 1531000   0.64305649   -3.3450807    1013.0598  0.055141509  0.054574304            5 
 1532000   0.64817694   -3.3529391    1012.0559  0.055050908  0.054545372            6 
 1533000   0.66052374    -3.330151    1015.9763  0.055228108  0.054516662            7 
 1534000   0.64455534   -3.3181545     1015.552  0.055169058  0.054487978            9 
 1535000   0.65135191    -3.336105    1015.2065   0.05511436  0.054459444            8 
 1536000   0.64266227   -3.3313131     1016.995  0.055175512  0.054430934           11 
 1537000    0.6446968   -3.3193247    1019.1698  0.055257528  0.054402333            5 
 1538000   0.63310972   -3.3333788    1019.3365  0.055230628  0.054373999            6 
 1539000   0.65368479   -3.3268498    1015.2582   0.05497391  0.054345737            5 
 1540000    0.6362425     -3.32104    1017.8525  0.055078601  0.054317329            5 
 1541000   0.63610272   -3.3336368    1015.7701  0.054930243  0.054289023            5 
 1542000   0.64370286   -3.3195297    1017.1185  0.054967493  0.054260606           15 
 1543000   0.64017663    -3.343405    1018.0527  0.054982326  0.054232393            7 
 1544000   0.63977878   -3.3364605      1017.37  0.054909868  0.054203904            9 
 1545000   0.63636401   -3.3239727    1015.1242  0.054753192  0.054175308            8 
 1546000   0.63486112   -3.3338976     1013.159  0.054611846  0.054146746           11 
 1547000   0.63443423   -3.3275208     1019.186  0.054901207  0.054117897            6 
 1548000   0.64811173   -3.3349945    1016.4642  0.054719217  0.054089419            5 
 1549000   0.64009752   -3.3330044    1016.5456  0.054688273   0.05406074           11 
 1550000   0.65160639   -3.3480534    1015.4731   0.05459533   0.05403213            6 
 1551000   0.64202754   -3.3475135    1016.0852  0.054593016  0.054003249            5 
 1552000   0.63994928   -3.3591078    1017.3859   0.05462768   0.05397463            9 
 1553000   0.63067355   -3.3358608    1016.4083  0.054540049  0.053945956            4 
 1554000   0.64399611   -3.3487378    1015.2059  0.054440469  0.053917096            8 
 1555000   0.64354031   -3.3582658    1015.8112    0.0544379  0.053888246            8 
 1556000   0.61899369   -3.3395872     1016.979  0.054465455  0.053859368           22 
 1557000    0.6334704   -3.3562865    1016.1723    0.0543873  0.053830576           11 
 1558000   0.64535717   -3.3563763    1018.8296  0.054494524   0.05380174            3 
 1559000   0.63613533   -3.3654381    1015.4829  0.054280677   0.05377274            6 
 1560000   0.64419707   -3.3606746    1017.3721  0.054346802  0.053743833            5 
 1561000   0.63112122   -3.3537199     1019.601  0.054430972  0.053714917            4 
 1562000   0.62369046   -3.3540946    1019.8552  0.054409686  0.053686106            7 
 1563000   0.62468146   -3.3570765    1018.0977  0.054281174  0.053657288           10 
 1564000    0.6287174   -3.3563764    1016.6294  0.054168235  0.053628384            8 
 1565000   0.63522482   -3.3329317    1017.9354  0.054203164  0.053599595            4 
 1566000   0.62435142   -3.3510438    1016.8246  0.054109438    0.0535708            5 
 1567000   0.63521584   -3.3475086    1016.6044  0.054063202   0.05354183            6 
 1568000   0.63798538   -3.3699872    1015.0482  0.053946013  0.053512521            7 
 1569000    0.6412241   -3.3491051    1016.4231  0.053984653  0.053483179            8 
 1570000   0.63014655   -3.3550331    1016.2115  0.053939041  0.053454047           12 
 1571000   0.64190035   -3.3614326    1014.8827  0.053834221  0.053424655           10 
 1572000   0.61694205   -3.3578874    1015.6777   0.05384212  0.053395379            3 
 1573000   0.62386633   -3.3450023    1019.7247  0.054022287  0.053366165            8 
 1574000    0.6318823   -3.3332355     1018.854  0.053941866   0.05333698           16 
 1575000   0.62411885   -3.3832415     1015.911  0.053751907  0.053307953            5 
 1576000   0.62079466   -3.3379605    1016.5704  0.053752666  0.053278485           13 
 1577000   0.61646686   -3.3695521    1015.2888  0.053650857  0.053249017            5 
 1578000   0.63071255   -3.3791673    1016.4234  0.053676777  0.053219564            5 
 1579000   0.62759756   -3.3790413    1018.9813  0.053777774  0.053190154            8 
 1580000   0.63288358   -3.3655768    1017.9119  0.053687335  0.053161023            5 
 1581000   0.61747928   -3.3627381    1018.3452  0.053676215  0.053131682            8 
 1582000   0.63025275   -3.3733634    1016.8023  0.053561014  0.053102183            4 
 1583000   0.62945897   -3.3539694    1017.8853  0.053584193  0.053072924            9 
 1584000   0.62522797   -3.3765992     1017.071  0.053507522  0.053043492            7 
 1585000   0.60503134   -3.3645947    1015.8867    0.0534115  0.053014097            4 
 1586000   0.61840136   -3.3666798    1015.6314  0.053364408  0.052984655           10 
 1587000   0.62471166   -3.3793771    1019.1136  0.053513634   0.05295523           15 
 1588000   0.61234498   -3.3785909    1016.7782  0.053357377  0.052925785            7 
 1589000   0.62853664   -3.3774729    1019.8539    0.0534851  0.052896492           17 
 1590000   0.61764056   -3.3834039    1020.5928   0.05349019  0.052867036            6 
 1591000   0.62012857   -3.3701905    1017.2247  0.053280155  0.052837725           16 
 1592000   0.62582767   -3.3593505    1018.7738  0.053327773  0.052808264            7 
 1593000   0.61667785   -3.3756229    1016.3073  0.053165272  0.052778959            7 
 1594000   0.61587297   -3.3823956    1018.3046  0.053236334  0.052749601            5 
 1595000   0.60738183   -3.3642558    1024.0499  0.053503131  0.052720432            5 
 1596000   0.61385613   -3.3708385    1017.6859   0.05313732  0.052691129           18 
 1597000   0.60770966    -3.374105    1019.3054   0.05318855   0.05266189           12 
 1598000   0.62399806   -3.3615555     1020.705  0.053228253   0.05263276            8 
 1599000   0.61045204   -3.3748335    1017.1786  0.053011183  0.052603529            5 
 1600000   0.61422125   -3.3675071    1019.3909  0.053093276  0.052574432            6 
 1601000   0.61679785   -3.3821397     1018.913  0.053035239  0.052545427           14 
 1602000   0.62246755   -3.3792031    1018.5287   0.05298214  0.052516305            4 
 1603000     0.602579   -3.3704095    1018.6982  0.052957904  0.052487198           16 
 1604000   0.61839352   -3.3687056     1017.385  0.052856661  0.052458001           11 
 1605000   0.61024838   -3.3865718    1021.2139  0.053022531  0.052428903            6 
 1606000   0.61291369   -3.4087906     1021.649  0.053012089  0.052399895            9 
 1607000   0.61116909   -3.3756144    1021.2028  0.052955963  0.052370856            5 
 1608000   0.62360308   -3.3744272    1020.0869  0.052865199  0.052341741           17 
 1609000   0.61968665   -3.3747711    1019.7534  0.052815073  0.052312704            6 
 1610000   0.59751126   -3.3896775    1021.3146  0.052863075  0.052283776            5 
 1611000   0.61670578   -3.3940724    1021.4218  0.052835805  0.052254794           20 
 1612000   0.61464255   -3.4202236    1017.8307  0.052617387  0.052225677           10 
 1613000   0.61547941   -3.3766863    1020.0153  0.052697628  0.052196701            9 
 1614000   0.61353421    -3.396617    1020.4629   0.05268809  0.052167613           16 
 1615000    0.6082546   -3.3854675    1021.3788  0.052702726  0.052138636            5 
 1616000    0.5931869   -3.4007833    1019.2521  0.052560442  0.052109598           10 
 1617000     0.609395   -3.3625664    1021.1464  0.052625562   0.05208077            7 
 1618000   0.61384013    -3.398969    1019.5542  0.052511032  0.052052062           19 
 1619000     0.608283   -3.3807179    1024.2965  0.052722696  0.052023254            6 
 1620000   0.59281375   -3.3943142    1025.8932  0.052772285  0.051994447           10 
 1621000   0.60771757   -3.3914468    1021.1582   0.05249631  0.051965536            4 
 1622000    0.6097829   -3.3724087    1023.7109  0.052595093  0.051936809           19 
 1623000   0.60268751   -3.3973044    1026.2418  0.052692638  0.051907959           14 
 1624000   0.59890815   -3.3980442    1022.5906  0.052472834  0.051879134            5 
 1625000   0.60253224   -3.3878984    1019.5364  0.052283916  0.051850028           15 
 1626000   0.59385414   -3.3927263    1022.4636  0.052401784  0.051821043           10 
 1627000   0.60554375   -3.3917293    1019.6393  0.052224918  0.051792107           15 
 1628000   0.60311539   -3.3888399     1025.191  0.052477014  0.051763355           15 
 1629000   0.61555539   -3.4138335    1019.9142  0.052174861  0.051734399            5 
 1630000   0.61295891   -3.3901736    1020.3986  0.052167619  0.051705347           11 
 1631000   0.61035533   -3.4105624    1022.8908  0.052262968  0.051676549            7 
 1632000    0.6187287   -3.3878065    1022.0541  0.052188218  0.051647843           11 
 1633000    0.5993989   -3.3939584    1021.7963  0.052143107    0.0516189            5 
 1634000   0.59509311   -3.4294988    1020.5609  0.052048192  0.051589984           11 
 1635000   0.59047301   -3.4084803     1022.813   0.05213114  0.051561101            6 
 1636000   0.59993049   -3.4146663    1021.7607  0.052045673  0.051532289            5 
 1637000   0.61225501   -3.4072633    1021.8854  0.052020231  0.051503407            7 
 1638000   0.59994702   -3.3785499    1024.0099  0.052096554   0.05147472           12 
 1639000   0.59461419   -3.3973228    1023.6868  0.052048345   0.05144606           10 
 1640000   0.59042978   -3.4166965    1023.8745  0.052026142  0.051417378           10 
 1641000    0.5880141   -3.3895758    1024.6783  0.052035256  0.051388562           11 
 1642000    0.6054369   -3.3847064     1025.635  0.052052121  0.051360182            8 
 1643000   0.59862622   -3.3956858    1024.4426  0.051959961  0.051331643           13 
 1644000   0.58607918   -3.4191405    1022.0498  0.051807068  0.051302958            8 
 1645000   0.59080609   -3.4223469    1022.1673  0.051781522  0.051274194           18 
 1646000   0.59256456   -3.4027734      1023.83  0.051834246  0.051245379            9 
 1647000   0.61075294   -3.3947749    1025.1775  0.051870951  0.051216677            8 
 1648000   0.59216048   -3.4162957    1022.0284  0.051680241   0.05118811            8 
 1649000   0.59057979   -3.4200753    1026.7215  0.051886067  0.051159639            6 
 1650000   0.59889938   -3.4287028    1025.6989  0.051802973  0.051131037            7 
 1651000   0.59096051   -3.3993717    1026.4718  0.051810608  0.051102432           10 
 1652000   0.58631876   -3.4101998    1025.0599  0.051708023   0.05107395           13 
 1653000   0.59528287   -3.4060973     1027.147  0.051781964  0.051045602           12 
 1654000   0.58160182    -3.417401    1024.5153   0.05161806  0.051017231            7 
 1655000   0.58619242    -3.422887    1026.7565  0.051699723  0.050988827           15 
 1656000   0.58504235   -3.4195364    1025.7235  0.051616521  0.050960526            9 
 1657000    0.5910211   -3.4054441     1026.726  0.051635787  0.050932252           15 
 1658000   0.59922417   -3.4091571    1026.9026  0.051613519  0.050903928           11 
 1659000   0.58969807   -3.4212995    1025.0739   0.05149055  0.050875656            9 
 1660000   0.58338643   -3.4250636    1026.7402  0.051543183  0.050847176            9 
 1661000   0.59173822   -3.4145578    1025.8801  0.051468998  0.050818707            9 
 1662000    0.5859529   -3.4377475    1026.0216  0.051445127  0.050790288            4 
 1663000   0.59222686   -3.4088021    1028.9626  0.051561568  0.050761859            7 
 1664000   0.58992036   -3.4080099    1028.9274  0.051528816   0.05073351            7 
 1665000   0.57804266    -3.400338    1029.8668  0.051544883  0.050705207           13 
 1666000   0.58524225   -3.4268225    1026.8603   0.05136356  0.050676892            9 
 1667000   0.57908103   -3.4098616    1029.3535  0.051457382  0.050648577            7 
 1668000   0.58660441   -3.4175733     1025.767  0.051247352  0.050620194            6 
 1669000   0.58464599   -3.4384184    1023.3994   0.05109843  0.050591759            6 
 1670000   0.58864385   -3.4289436    1026.6007  0.051227581  0.050563348            7 
 1671000   0.58806004    -3.406115     1027.647    0.0512491  0.050535054           13 
 1672000   0.59962431   -3.4244258    1027.0804  0.051190213   0.05050675            5 
 1673000   0.56822977   -3.4228965    1027.0616  0.051158677  0.050478468            6 
 1674000   0.58266095   -3.4211232    1025.0171   0.05102634  0.050450171            9 
 1675000   0.58040202   -3.4442399    1028.8135  0.051184749  0.050421932           10 
 1676000   0.58678007   -3.4270887    1028.1353  0.051120488   0.05039369            6 
 1677000   0.57525315   -3.4354684    1028.5784  0.051112027   0.05036541            5 
 1678000    0.5849852    -3.431944    1028.2883  0.051067158  0.050337084            7 
 1679000   0.59218842   -3.4265859    1030.2009  0.051131669  0.050308915           10 
 1680000   0.58248859   -3.4387868    1028.2815  0.051006025  0.050280801            7 
 1681000   0.58768102   -3.4267627    1029.0354  0.051013058   0.05025252           13 
 1682000   0.57858393   -3.4323555    1029.5323  0.051007346  0.050224406            5 
 1683000    0.5795921   -3.4411912    1029.3877  0.050969879  0.050196426            9 
 1684000   0.58312339   -3.4163107    1029.9135   0.05096563  0.050168279            6 
 1685000    0.5808716   -3.4213505     1031.664  0.051021957  0.050140267            6 
 1686000   0.58417928   -3.4535941    1030.8723  0.050952563  0.050112337            6 
 1687000    0.5832745   -3.4374275    1030.4097   0.05089951  0.050084221            9 
 1688000   0.58290588   -3.4287709    1033.2069   0.05100745  0.050056184            7 
 1689000   0.57780748    -3.444646    1033.1893  0.050976382   0.05002829           18 
 1690000   0.57747713   -3.4421848     1029.137  0.050746402  0.050000397           13 
 1691000   0.58459349   -3.4319058    1032.9977  0.050906648  0.049972575            8 
 1692000   0.57127978   -3.4267968    1030.2734  0.050742384  0.049944684           13 
 1693000    0.5835458   -3.4478949    1028.5866  0.050629388  0.049916696            6 
 1694000   0.58893013   -3.4302166    1030.1864  0.050678199  0.049888701           11 
 1695000   0.59446072   -3.4250744    1031.7978  0.050727522  0.049861002            8 
 1696000   0.56246552   -3.4269768    1031.5202  0.050683971  0.049833032            4 
 1697000   0.58186047   -3.4365581    1031.9212  0.050673795  0.049805115           13 
 1698000   0.57578446   -3.4360969     1030.108  0.050554966  0.049777285           13 
 1699000   0.57826197   -3.4626071    1031.3486   0.05058606  0.049749273           11 
 1700000   0.58373431    -3.443483    1033.5534  0.050664381  0.049721315            6 
 1701000   0.57122241    -3.426535    1029.8203  0.050451711  0.049693542            6 
 1702000   0.58174959   -3.4419482    1028.1794  0.050341724   0.04966557            7 
 1703000   0.56963164   -3.4451909    1029.3527  0.050369577  0.049637573           10 
 1704000   0.58059901   -3.4533472    1028.6083  0.050303612  0.049609496            7 
 1705000   0.57486463   -3.4389621    1029.5982  0.050322492  0.049581676            6 
 1706000   0.56927325   -3.4360703    1033.1411  0.050466054   0.04955388            6 
 1707000   0.57212913   -3.4481805    1028.9939  0.050234031  0.049525967           11 
 1708000    0.5702003   -3.4565444    1031.3874  0.050321401  0.049498181            5 
 1709000   0.57836409   -3.4518219    1031.6645  0.050305464  0.049470403           15 
 1710000   0.56535437   -3.4643101     1031.772  0.050281287  0.049442467            7 
 1711000   0.57210253    -3.459109    1032.1028  0.050268012  0.049414494            6 
 1712000    0.5753271    -3.469859    1031.9972  0.050233508  0.049386797           17 
 1713000   0.57013589   -3.4515664    1033.0451   0.05025516  0.049358998            7 
 1714000   0.56411654   -3.4594749    1033.2792  0.050237224  0.049331221            9 
 1715000   0.57705978   -3.4671383    1036.2546  0.050352505   0.04930347           17 
 1716000   0.56430612   -3.4659461    1031.8732  0.050110391  0.049275728           14 
 1717000   0.57494011    -3.451722    1031.2324  0.050050109  0.049248131            9 
 1718000    0.5677863   -3.4517854    1034.2891  0.050169242  0.049220437            8 
 1719000   0.56656091    -3.451786    1035.6601  0.050206521   0.04919284            7 
 1720000   0.56980487   -3.4427409    1034.8461  0.050137891  0.049165483           12 
 1721000   0.55376345   -3.4734874    1032.9322  0.050016085  0.049137864           20 
 1722000   0.56094184   -3.4741233    1033.4383  0.050011533  0.049110258           15 
 1723000   0.56864616   -3.4588924    1036.7698  0.050143635  0.049082795           15 
 1724000   0.57270439   -3.4383367    1034.9447   0.05002633  0.049055538           14 
 1725000   0.56769477   -3.4592985    1035.3708  0.050017915  0.049028269           15 
 1726000   0.56041979   -3.4720065    1035.4928  0.049994826  0.049000804           14 
 1727000   0.56646589   -3.4636488    1037.2342  0.050049906  0.048973383           16 
 1728000   0.57025465   -3.4523108    1032.7671  0.049805513  0.048945843            6 
 1729000   0.56298335   -3.4706636     1032.063  0.049742768  0.048918353            8 
 1730000   0.56759307   -3.4672553    1033.5647  0.049786351  0.048890982            7 
 1731000   0.56027045   -3.4646033    1034.4361  0.049799545  0.048863605           10 
 1732000   0.54722246    -3.475023    1034.1639  0.049757693  0.048836205           11 
 1733000     0.562325   -3.4857816    1034.0236  0.049722233  0.048808768            8 
 1734000    0.5530961   -3.4796831    1035.4769  0.049763406  0.048781223           10 
 1735000   0.56891062   -3.4594633    1036.7479  0.049795771  0.048753677            5 
 1736000   0.56423664   -3.4610276    1035.2772  0.049696485  0.048726263            8 
 1737000   0.56693696   -3.4845343    1032.8678  0.049552282  0.048698668            7 
 1738000   0.55585046   -3.4686967    1031.6763  0.049466644  0.048671059           12 
 1739000   0.57253095   -3.4774682    1037.4169  0.049713287  0.048643544            7 
 1740000   0.55544404   -3.4776277    1035.2385  0.049580388  0.048616029           10 
 1741000   0.56426946    -3.471182    1037.2151  0.049646521  0.048588569           15 
 1742000   0.54793049   -3.4668461    1034.6848  0.049496977  0.048561232            9 
 1743000   0.55702105   -3.4650017    1035.6072  0.049512679  0.048533971           11 
 1744000   0.57785802   -3.4798067    1034.2007  0.049417084  0.048506614            7 
 1745000   0.55119451   -3.4675728    1034.9322  0.049423697   0.04847933           20 
 1746000   0.55726834   -3.4764668    1037.4401  0.049515087  0.048452059           18 
 1747000   0.55619137   -3.4743677    1035.0861  0.049374457  0.048424738            9 
 1748000   0.54464404   -3.4669343    1034.3189  0.049309633  0.048397428           15 
 1749000   0.55596415   -3.4677382    1037.8073  0.049447649  0.048370127           14 
 1750000   0.55017536   -3.4800027    1035.3176  0.049300837  0.048342944           15 
 1751000   0.55786897   -3.4982479    1036.9199   0.04934894   0.04831557            6 
 1752000   0.54991451   -3.4810017    1034.2791  0.049195162  0.048288294           10 
 1753000   0.55781815   -3.4872113    1037.6199  0.049325911  0.048261072           14 
 1754000   0.55032623   -3.4646498    1036.4054  0.049240089   0.04823388           13 
 1755000   0.54537501   -3.4779796    1039.6926  0.049368118  0.048206668            9 
 1756000   0.55877286   -3.5008392    1036.0947  0.049169262  0.048179569            7 
 1757000   0.56353191   -3.4893449    1036.3623  0.049153971   0.04815244            6 
 1758000   0.55830556   -3.4993626    1037.0624  0.049159196  0.048125226           16 
 1759000   0.55426947   -3.4881323    1037.2291  0.049139146  0.048098045            8 
 1760000   0.54906505   -3.4703711    1037.4819  0.049123195  0.048071071            8 
 1761000   0.54275036     -3.47933    1036.5796  0.049052604  0.048044187            5 
 1762000   0.55222542   -3.4754985    1038.8617  0.049132696   0.04801729            8 
 1763000   0.54188539   -3.4899366    1038.9685  0.049109874  0.047990268           11 
 1764000    0.5438222   -3.4909303    1036.4036  0.048960864  0.047963276           12 
 1765000   0.55093799   -3.5002688    1038.5574  0.049034814  0.047936257           13 
 1766000    0.5349898   -3.5041667    1038.0516  0.048983183  0.047909214            7 
 1767000   0.54549193   -3.4917032    1038.6469  0.048983537  0.047882302           14 
 1768000   0.55014096   -3.4872667    1037.4578  0.048899785  0.047855304            9 
 1769000   0.54982324   -3.4991829    1039.1559  0.048952133  0.047828502           10 
 1770000   0.55717711   -3.5029871    1038.9838  0.048916374  0.047801625           15 
 1771000   0.55009914   -3.4669919    1037.2854  0.048808839  0.047774796           18 
 1772000   0.53574358   -3.4877008    1038.0975  0.048819483  0.047748101            6 
 1773000   0.55615559   -3.4979095      1039.56  0.048860689  0.047721363           16 
 1774000   0.54673406     -3.50118    1039.5444  0.048832414  0.047694509            8 
 1775000   0.54776478   -3.4957856    1040.1726  0.048834393  0.047667778            8 
 1776000   0.54971786   -3.4827265    1041.8691  0.048886499  0.047641071            9 
 1777000   0.55147852   -3.5093516    1041.3397  0.048834164  0.047614475           18 
 1778000   0.53541079   -3.4929452    1040.2611  0.048756144  0.047587712           26 
 1779000   0.53212295   -3.5035517    1038.4685  0.048644766  0.047561165           11 
 1780000   0.53492308   -3.4987297    1043.4472  0.048850527   0.04753451           20 
 1781000   0.55270508   -3.5383801    1039.3384  0.048630844  0.047507783           16 
 1782000   0.53893835    -3.508187    1041.0459  0.048683403  0.047481121            8 
 1783000   0.53940162    -3.513648      1041.48  0.048676386  0.047454528           19 
 1784000   0.54958876   -3.4888629    1042.3161  0.048688161  0.047428081           16 
 1785000   0.53605223   -3.4880344    1042.4896  0.048668984  0.047401645           13 
 1786000   0.53833664   -3.4991636    1038.9649  0.048477274  0.047375008           11 
 1787000   0.54301095   -3.5110772    1041.3975  0.048563586  0.047348421           18 
 1788000   0.54179384   -3.5026362    1041.7998  0.048555174  0.047321762           24 
 1789000   0.53943672   -3.5140317    1043.5904   0.04861144  0.047295274           11 
 1790000   0.52625277   -3.5057809    1038.4691  0.048345862  0.047268886            7 
 1791000   0.55195604   -3.5042826    1040.9347  0.048433589  0.047242419           11 
 1792000   0.53013863    -3.521576    1041.7907  0.048446366  0.047215927           16 
 1793000   0.52797575   -3.4880079    1041.7224  0.048416175  0.047189497            5 
 1794000   0.54665023   -3.5073835     1042.697  0.048434459  0.047163063           12 
 1795000   0.53628235   -3.4963467    1039.4486  0.048256665  0.047136505            9 
 1796000   0.53916303   -3.5143907    1039.4237  0.048228644  0.047109985           14 
 1797000   0.53742137    -3.515583    1036.9163  0.048085528  0.047083282           14 
 1798000   0.53612791   -3.5367552    1040.2453  0.048213077   0.04705664           13 
 1799000    0.5388906    -3.511093    1037.3166  0.048050613  0.047029898           19 
 1800000   0.53663684   -3.5151102    1039.0726  0.048105211  0.047003176           12 
 1801000   0.52598973   -3.5202556     1039.132  0.048081252  0.046976539           10 
 1802000   0.52866317    -3.520386    1040.5908  0.048122031  0.046949914           15 
 1803000   0.52257713   -3.5152928    1039.1521  0.048028845  0.046923446           17 
 1804000   0.53091636   -3.4985113    1040.0945  0.048045756  0.046897029            7 
 1805000    0.5265676   -3.5214688    1041.8116  0.048098411  0.046870462           12 
 1806000   0.53540991   -3.5082825    1040.3835  0.048005884  0.046843859           14 
 1807000   0.53712495   -3.5045918    1039.9251  0.047958177  0.046817364            9 
 1808000   0.53020151   -3.5229419    1038.6254  0.047871745  0.046790948           12 
 1809000   0.53736215   -3.5386539    1041.1591     0.047962   0.04676427           14 
 1810000   0.52815024   -3.5015396    1041.0463  0.047930308  0.046737687            9 
 1811000   0.53728954   -3.5333082    1041.4741  0.047923526   0.04671115           18 
 1812000   0.52761204   -3.5161292    1040.7626  0.047864356  0.046684628           11 
 1813000   0.51966231   -3.5231757     1042.622  0.047923425   0.04665816           10 
 1814000   0.52787043    -3.514071    1042.2563  0.047880203  0.046631582            7 
 1815000   0.52579639   -3.5526522    1039.5435  0.047729269  0.046604855           12 
 1816000   0.52674076   -3.5271074    1040.5353  0.047748501  0.046578249            9 
 1817000   0.52328248   -3.5323233    1038.1432  0.047612512  0.046551615           13 
 1818000   0.52685923   -3.5341202    1040.3696  0.047688377  0.046524952           24 
 1819000   0.52176366   -3.5353382    1037.2567  0.047519549   0.04649839           14 
 1820000   0.52192236   -3.5346021    1037.5882  0.047508619   0.04647171           12 
 1821000   0.52591547   -3.5404734    1039.1632  0.047554606  0.046445093           16 
 1822000    0.5134842   -3.5302086    1038.4656  0.047496599  0.046418401            7 
 1823000   0.52647785   -3.5504286    1041.9406  0.047629392  0.046391759           11 
 1824000   0.52512611   -3.5349001    1040.5297   0.04753882  0.046365195           15 
 1825000   0.51951436   -3.5483566    1041.3994  0.047552486  0.046338658           30 
 1826000    0.5249748   -3.5379807    1036.0119  0.047280574  0.046311957            8 
 1827000   0.52773296   -3.5287896    1039.8199  0.047428386  0.046285317           13 
 1828000   0.53073563    -3.535326    1041.9379  0.047498995   0.04625874           12 
 1829000   0.50793283   -3.5073706    1039.0671  0.047342224  0.046232167            6 
 1830000   0.53271609   -3.5410966    1040.4334  0.047378572  0.046205659           14 
 1831000   0.53053309   -3.5333622    1038.3153  0.047256297  0.046179067           24 
 1832000   0.50817895   -3.5379151    1039.7077  0.047293838   0.04615253           20 
 1833000   0.51848648   -3.5408499    1040.6463  0.047310706  0.046126007           10 
 1834000     0.520061   -3.5416425    1039.6567  0.047239943  0.046099455           13 
 1835000   0.51781804   -3.5520239    1044.5419  0.047436056  0.046072947           11 
 1836000   0.51581581   -3.5498348    1040.9214  0.047245888  0.046046362           13 
 1837000   0.51689702   -3.5395408    1038.5387  0.047112079  0.046019676           11 
 1838000    0.5148331   -3.5305041       1040.9  0.047193508  0.045993126            6 
 1839000   0.51145544   -3.5506682    1039.0518  0.047084093  0.045966624           10 
 1840000   0.52177901   -3.5348067    1037.0079  0.046965936  0.045940154           23 
 1841000   0.53048574   -3.5528897    1038.0129  0.046985917  0.045913553           22 
 1842000   0.50605226     -3.55052    1040.1502  0.047057103  0.045886981           13 
 1843000   0.52519816   -3.5380522     1039.655  0.047009177   0.04586045           12 
 1844000   0.52341819   -3.5499828    1039.6745  0.046984567  0.045833975            7 
 1845000   0.50568252   -3.5615814    1039.0103  0.046929101  0.045807473           10 
 1846000   0.52325397   -3.5405974    1041.1803  0.047001638  0.045781071           13 
 1847000   0.51298004   -3.5462661    1039.9903  0.046922501  0.045754617           20 
 1848000   0.51144875   -3.5509877    1039.9849  0.046896864  0.045728177           26 
 1849000   0.51135405   -3.5276281    1041.6288  0.046945591  0.045701789           16 
 1850000   0.52034577   -3.5415881    1040.2558  0.046858369  0.045675365           11 
 1851000   0.51454465   -3.5422233    1042.3781  0.046928601  0.045648953           25 
 1852000   0.50456498   -3.5354724     1041.836  0.046878871  0.045622661            5 
 1853000   0.51633803   -3.5417691    1041.8513  0.046854259  0.045596348            8 
 1854000   0.51436738    -3.540542    1040.4583  0.046766376  0.045570057           16 
 1855000   0.51829626   -3.5587037    1039.6806  0.046706227  0.045543864           13 
 1856000   0.50472154   -3.5470724    1040.6539  0.046724763  0.045517608           17 
 1857000   0.52744899   -3.5607025    1043.1465  0.046811456  0.045491326            8 
 1858000   0.50071314   -3.5449199    1042.7776  0.046769718  0.045465083           18 
 1859000   0.50980712    -3.555373    1039.5807  0.046601252  0.045438827           19 
 1860000   0.51287166   -3.5575557    1041.8541  0.046678052  0.045412515           16 
 1861000   0.50516184   -3.5414193    1042.4343   0.04667895  0.045386311           11 
 1862000   0.50492996   -3.5527131    1040.8051  0.046580968  0.045360092            9 
 1863000   0.51251361   -3.5427645    1040.2843  0.046532665  0.045333916           20 
 1864000   0.50444418   -3.5605696    1041.0134  0.046540299  0.045307807           17 
 1865000    0.5076233   -3.5352051    1038.8017   0.04641652  0.045281622           13 
 1866000   0.51208853   -3.5600606    1041.9545  0.046532445  0.045255333           23 
 1867000   0.50217915   -3.5453409    1043.5276  0.046577737  0.045229097           14 
 1868000   0.51267741    -3.536814    1042.2875  0.046497479  0.045202864           34 
 1869000   0.50286846   -3.5524131    1039.7403   0.04635903  0.045176673           21 
 1870000   0.49771307   -3.5724635    1041.2801  0.046402857  0.045150396           26 
 1871000   0.50743737   -3.5350223    1042.5938  0.046436566  0.045124173           20 
 1872000   0.51333014   -3.5602929    1042.1302  0.046391125  0.045098019           12 
 1873000   0.51603834   -3.5681098    1039.2667  0.046238954  0.045071913           21 
 1874000   0.50181177   -3.5477381    1040.8628  0.046285255  0.045045738           11 
 1875000   0.50611263   -3.5633339    1039.1724  0.046185441  0.045019532           20 
 1876000   0.51112017   -3.5664413    1043.1511  0.046337556  0.044993433           24 
 1877000   0.49290647   -3.5699036    1042.2149  0.046271305  0.044967148           14 
 1878000   0.50058382   -3.5675295    1040.6788  0.046178504   0.04494085           15 
 1879000   0.50369021   -3.5762735    1042.6086  0.046239515  0.044914549           25 
 1880000   0.50051228   -3.5576757    1040.9162  0.046139903  0.044888341           13 
 1881000    0.4966791   -3.5580036     1041.375    0.0461357  0.044862184           10 
 1882000   0.49742424   -3.5754154    1037.2361  0.045927916  0.044835938           14 
 1883000   0.50757445   -3.5627327    1040.7211   0.04605776   0.04480971           14 
 1884000   0.50408718   -3.5739288    1039.5185  0.045980118  0.044783453           27 
 1885000   0.48878765   -3.5757527    1038.0412  0.045890417  0.044757185           41 
 1886000   0.50057201   -3.5759394    1039.8459  0.045945823  0.044730971           16 
 1887000   0.51163648   -3.5608243    1038.8445  0.045877254  0.044704666           18 
 1888000   0.50144136   -3.5867712    1040.3567  0.045919701  0.044678428           12 
 1889000   0.50050397   -3.5786185    1040.1462  0.045886106  0.044652276            9 
 1890000    0.4890515   -3.5904513    1039.3075  0.045824846  0.044626111            8 
 1891000   0.48988555   -3.5820514    1038.8317  0.045779643  0.044599899           16 
 1892000   0.48201737   -3.5886377    1039.2387  0.045773374  0.044573589           11 
 1893000   0.49822991   -3.5766023    1041.1515  0.045833397  0.044547332            9 
 1894000   0.49323644   -3.5790352    1041.4709  0.045823252  0.044521119           18 
 1895000   0.50160186   -3.5832215    1038.4276   0.04566524  0.044495001            9 
 1896000   0.49525004    -3.574561    1042.4514  0.045818011  0.044468849            9 
 1897000   0.50080755   -3.5851629    1040.9907   0.04572969   0.04444272            4 
 1898000    0.5049397   -3.5930678    1040.0963  0.045666326   0.04441661            6 
 1899000   0.49331106   -3.5915485    1039.1022  0.045598655  0.044390433           12 
 1900000   0.49852437   -3.5653396    1040.0702  0.045617115  0.044364307           21 
 1901000   0.49832716   -3.5895183     1040.417   0.04560832  0.044338133           19 
 1902000   0.48976262   -3.6019758    1039.1083  0.045527003  0.044311946           47 
 1903000    0.4926477   -3.5899114    1038.8031  0.045489711   0.04428583            9 
 1904000   0.50290945   -3.5820818    1040.9114  0.045558098  0.044259739           11 
 1905000   0.48501521   -3.6053262    1041.2234  0.045547828  0.044233737           24 
 1906000   0.48339952   -3.5736382    1041.6784  0.045543828  0.044207736           31 
 1907000   0.48830896   -3.5755273     1040.339  0.045461413   0.04418175           23 
 1908000   0.49565563    -3.592639    1040.7647  0.045456179  0.044155684           17 
 1909000   0.47977734   -3.5853699    1040.8868  0.045437697  0.044129686           21 
 1910000   0.49269194   -3.5953241     1039.502  0.045353489  0.044103622           34 
 1911000   0.49334821   -3.6183644    1038.4305  0.045283032  0.044077585           25 
 1912000   0.49112819   -3.6042602    1042.0069  0.045415224  0.044051587           12 
 1913000   0.49394705   -3.5934957    1038.3294  0.045231287  0.044025507           12 
 1914000   0.48750413   -3.6110739    1039.1699  0.045244247  0.043999462           15 
 1915000   0.48535081   -3.6004633    1040.9163  0.045296618  0.043973519           11 
 1916000   0.48911063   -3.5844961    1043.7317   0.04539543  0.043947637           23 
 1917000   0.49608272   -3.6122153    1042.6194  0.045323397  0.043921817           14 
 1918000   0.48551442   -3.5954628    1040.2286  0.045195889   0.04389594           11 
 1919000   0.48888173   -3.6060811    1040.7925  0.045196825   0.04387001           20 
 1920000   0.48576585    -3.580128    1041.3168   0.04519604  0.043844134           32 
 1921000   0.49369871   -3.6063247    1038.4404  0.045047734  0.043818307           14 
 1922000    0.4907063   -3.6067745    1040.3016  0.045104995  0.043792534           22 
 1923000    0.4806889   -3.6033376    1039.5797  0.045050254  0.043766565           18 
 1924000   0.48017077   -3.6111193      1044.68  0.045247746  0.043740706            7 
 1925000   0.49161107   -3.5912978    1041.5873  0.045090361  0.043714911           12 
 1926000   0.48663026   -3.5966852    1042.0505  0.045086988  0.043689119           14 
 1927000   0.48500362   -3.6051401     1040.352   0.04499014   0.04366323           16 
 1928000   0.48180439   -3.6225609    1039.4849  0.044929327  0.043637279           16 
 1929000   0.48180305   -3.6140877     1038.664  0.044870573  0.043611332           21 
 1930000   0.48210136   -3.6201375    1040.8589  0.044942095  0.043585419           16 
 1931000   0.49769882   -3.6272512     1039.654  0.044866824  0.043559543           17 
 1932000   0.47444182   -3.5918856    1038.9571  0.044813539  0.043533678           18 
 1933000   0.48789928   -3.5932842    1037.8285  0.044741699  0.043507792           22 
 1934000   0.48458525   -3.6086611    1040.9599  0.044853495  0.043482082           14 
 1935000   0.48423451   -3.6083254    1042.2055  0.044883959  0.043456321           67 
 1936000   0.48660306    -3.625743     1042.578  0.044876809  0.043430664           24 
 1937000    0.4764209   -3.6137005    1038.3953  0.044673693  0.043404872           43 
 1938000   0.48287059    -3.622493    1037.7987  0.044624987  0.043379091           24 
 1939000   0.46401555   -3.6015468    1040.2972   0.04470935  0.043353284           19 
 1940000   0.47431306   -3.5971525    1039.9197  0.044670089  0.043327522           10 
 1941000   0.47294334   -3.6192167    1039.8481  0.044644001  0.043301737           17 
 1942000   0.47207755   -3.6363287     1040.421  0.044645598  0.043275879           25 
 1943000   0.48385569   -3.6351325    1040.2755   0.04461638  0.043250112           22 
 1944000   0.47822306   -3.6133584    1041.4271  0.044642794  0.043224468           41 
 1945000   0.47123534   -3.6286531     1042.149  0.044650772  0.043198843           25 
 1946000   0.46842811   -3.6315803    1039.0217  0.044493905  0.043173116           32 
 1947000   0.48208625   -3.6112971    1041.7792  0.044589079  0.043147461           18 
 1948000   0.47758476     -3.62695    1039.8855  0.044485179  0.043121838           15 
 1949000   0.47137897   -3.6201984    1039.8008  0.044458731  0.043096227           11 
 1950000   0.47382007   -3.6047072    1039.4721  0.044421884  0.043070619           20 
 1951000   0.47347195   -3.6275244    1039.4225  0.044396998  0.043045154           27 
 1952000   0.48322421   -3.6117012    1040.8351  0.044434557  0.043019615           13 
 1953000   0.46775138   -3.5982968    1039.9328  0.044373308   0.04299413           13 
 1954000   0.47495639   -3.6254594    1038.5724  0.044292578  0.042968695           12 
 1955000   0.48084614   -3.6370301    1043.2174   0.04446792  0.042943095           71 
 1956000   0.46279815   -3.6480683    1038.8839  0.044260562  0.042917584           22 
 1957000   0.46837452   -3.6346045    1040.4134  0.044303076  0.042892062           13 
 1958000   0.47979782    -3.607843     1041.593  0.044330651  0.042866558           16 
 1959000   0.46751613   -3.6179406    1036.1833  0.044077902  0.042840991           28 
 1960000   0.47117151   -3.6386489    1041.0332  0.044261617  0.042815426           31 
 1961000   0.47607744   -3.6303747    1040.6089  0.044221013  0.042789865           18 
 1962000    0.4684909   -3.6239459    1040.5264   0.04419497  0.042764274           41 
 1963000   0.47635775   -3.6273553    1037.9793  0.044064329  0.042738819           27 
 1964000   0.47575153   -3.6479548    1038.1075  0.044047329  0.042713329           24 
 1965000     0.468536   -3.6436329    1040.0239  0.044106186  0.042687836           65 
 1966000   0.46802102   -3.6400753    1041.0616  0.044127737   0.04266231           22 
 1967000    0.4657429   -3.6405722    1040.4486  0.044079335  0.042636832           24 
 1968000   0.45737187   -3.6387679    1039.5579  0.044019222   0.04261137            7 
 1969000   0.47222769    -3.632554    1040.6502  0.044043094   0.04258592           28 
 1970000   0.45843471   -3.6520684    1040.7308  0.044024144  0.042560508           24 
 1971000   0.46274236   -3.6372549    1042.0971  0.044059576  0.042535086           17 
 1972000   0.45420871   -3.6283411     1041.499   0.04401196  0.042509755           27 
 1973000   0.46448684   -3.6255027    1043.1243  0.044058301  0.042484471           16 
 1974000   0.46883353   -3.6523691     1042.041  0.043990248  0.042459305           27 
 1975000   0.46246226   -3.6490596    1042.0761  0.043969454  0.042434001           31 
 1976000   0.46879069   -3.6425403    1044.0428  0.044030144  0.042408721           35 
 1977000   0.46527308   -3.6432565    1041.1581  0.043886279  0.042383382           39 
 1978000   0.46798383   -3.6441139    1041.3694  0.043872996  0.042358088           28 
 1979000   0.45868057   -3.6432476    1041.8569  0.043871355  0.042332832           21 
 1980000   0.46500596   -3.6483956    1039.9915  0.043770688  0.042307638           22 
 1981000   0.46669941   -3.6493844    1041.9992  0.043833048  0.042282394           28 
 1982000   0.45505447    -3.632354    1041.1908  0.043776943  0.042257177           20 
 1983000   0.46427552   -3.6584764    1039.1128  0.043667542  0.042231896           41 
 1984000   0.46839046     -3.64836    1040.3648  0.043698116  0.042206641           31 
 1985000   0.45884395   -3.6380184    1040.2401  0.043670871  0.042181533           15 
 1986000   0.46091943   -3.6541883    1042.1469   0.04372889  0.042156379           34 
 1987000   0.46435957   -3.6380812    1040.8994  0.043654564   0.04213123           21 
 1988000   0.46112399    -3.636253    1040.9198  0.043633457  0.042106093           16 
 1989000   0.47701402   -3.6534037    1040.5867  0.043597565  0.042081001           21 
 1990000   0.46112651   -3.6489111    1038.7073  0.043496957   0.04205576           17 
 1991000   0.44131743   -3.6457893    1039.0513  0.043489509   0.04203063           17 
 1992000   0.46157961    -3.653609     1040.261  0.043518282  0.042005547           13 
 1993000   0.45831419   -3.6554598    1040.0747  0.043488657  0.041980417           14 
 1994000    0.4550512   -3.6815131    1041.6566  0.043532958   0.04195528           12 
 1995000   0.45803547   -3.6615095    1038.2044  0.043366934  0.041930199           17 
 1996000   0.45816808   -3.6465368    1040.9395  0.043459398  0.041905211           21 
 1997000   0.45704397   -3.6423836    1042.1239   0.04348706  0.041880305           16 
 1998000   0.46329108    -3.658639    1042.2933  0.043472359  0.041855397           27 
 1999000   0.44846155   -3.6561499    1041.6576  0.043424112   0.04183049           16 
 2000000   0.46046756   -3.6610231    1040.0402   0.04333501  0.041805637           49 
 2001000   0.45969016   -3.6528827    1040.9199  0.043349989  0.041780792           18 
 2002000   0.45285648   -3.6671639    1042.0302  0.043374549  0.041755998           38 
 2003000   0.45022044   -3.6499109    1044.4339  0.043452899   0.04173129           25 
 2004000   0.44589731   -3.6446727    1043.3698  0.043386967  0.041706654           31 
 2005000   0.45756551   -3.6615542    1041.7851  0.043299462  0.041681991           21 
 2006000   0.44784139   -3.6425196    1041.8155  0.043279143  0.041657383           53 
 2007000   0.46838961   -3.6567616    1044.7328  0.043378708   0.04163279           62 
 2008000   0.44468376   -3.6693399    1042.5579  0.043266845  0.041608164           34 
 2009000   0.45074348   -3.6707438    1043.7701  0.043295591  0.041583448           78 
 2010000   0.45122931   -3.6700825     1042.257  0.043211317  0.041558793           43 
 2011000   0.45085413   -3.6655564    1042.6496  0.043206099  0.041534198           53 
 2012000   0.45358038   -3.6830556    1041.5972  0.043141036  0.041509564           59 
Loop time of 4815.84 on 48 procs for 2000000 steps with 4000 atoms

Performance: 71763.137 tau/day, 415.296 timesteps/s
99.4% CPU use with 48 MPI tasks x no OpenMP threads

MPI task timing breakdown:
Section |  min time  |  avg time  |  max time  |%varavg| %total
---------------------------------------------------------------
Pair    | 305.31     | 330.01     | 349.38     |  56.7 |  6.85
Neigh   | 32.387     | 33.828     | 35.096     |  12.5 |  0.70
Comm    | 311.8      | 332.3      | 355.71     |  60.3 |  6.90
Output  | 4.2053     | 4.2072     | 4.243      |   0.3 |  0.09
Modify  | 4061.5     | 4071.8     | 4078.4     |   5.9 | 84.55
Other   |            | 43.69      |            |       |  0.91

Nlocal:        83.3333 ave          89 max          77 min
Histogram: 5 0 0 5 11 8 7 6 4 2
Nghost:        2185.62 ave        2200 max        2175 min
Histogram: 3 4 10 4 8 6 5 5 2 1
Neighs:        14538.0 ave       16140 max       12846 min
Histogram: 2 1 7 3 9 11 5 4 3 3
FullNghs:      29076.9 ave       31115 max       26438 min
Histogram: 2 3 0 3 14 4 6 9 6 1

Total # of neighbors = 1395689
Ave neighs/atom = 348.92225
Neighbor list builds = 108539
Dangerous builds = 0

#clear
#
#next RN
#
#jump SELF
Total wall time: 1:20:19
