
units lj                  # Use reduced LJ style units
atom_style atomic         # Uncharged point particles
atom_modify map hash      # Needed for indexing of clusters etc
                          # Used to be able to find where atoms are in relation to each other.

lattice fcc 1.0 spacing 1 1 1
Lattice spacing in x,y,z = 1.5874011 1.5874011 1.5874011
region box block 0 10 0 10 0 10 units lattice
create_box 2 box
Created orthogonal box = (0.0000000 0.0000000 0.0000000) to (15.874011 15.874011 15.874011)
  3 by 4 by 4 MPI processor grid
create_atoms 1 box
Created 4000 atoms
  using lattice units in orthogonal box = (0.0000000 0.0000000 0.0000000) to (15.874011 15.874011 15.874011)
  create_atoms CPU = 0.003 seconds
set type 1 type/fraction 2 0.15 78393
Setting atom values ...
  634 settings made for type/fraction
mass 1 1.0
mass 2 1.0
pair_style lj/cut  3.5
pair_modify tail  yes
pair_coeff 1  1  1.0  1.0   # Intearaction between 1 and 1 set with epsilon = 1 and sigma = 1
pair_coeff 1  2  1.5  0.8
pair_coeff 2  2  0.5  0.88

write_data data.0
System init for write_data ...
Neighbor list info ...
  update every 1 steps, delay 10 steps, check yes
  max neighbors/atom: 2000, page size: 100000
  master list distance cutoff = 3.8
  ghost atom cutoff = 3.8
  binsize = 1.9, bins = 9 9 9
  1 neighbor lists, perpetual/occasional/extra = 1 0 0
  (1) pair lj/cut, perpetual
      attributes: half, newton on
      pair build: half/bin/atomonly/newton
      stencil: half/bin/3d
      bin: standard
WARNING: Not all mixed pair coeffs generated from mixing. Use write_data with 'pair ij' option to store all pair coeffs. (../write_data.cpp:312)


#############################
#   M E L T   S Y S T E M   #
#############################

velocity all create 2.4 2750902 mom yes dist gaussian # Assign velocities
                                                    # Temperature 2.4, random number seed, zero linear momentum
                                                                                # Gaussian distribution

timestep 0.002   # simulation timestep
thermo 1000       # output thermodynamic data every 1000 steps bf 100

# Define a fix  in this case with index 1 applied to all
# particles in the simulation. This fix is for simulations
# in the anisotropic NPT ensemble. Note that we use the MTK
# correction.
fix 1 all npt temp 2.4 2.4 0.1 iso 5.68 5.68 0.5 mtk yes tchain 5 pchain 5 # Use NPT ensemble
                                                                         # Set temperature and pressure and damping
                                                                         # Numbers of thermostats in chain and in barostat
run 10000          # run for 10000 steps
Per MPI rank memory allocation (min/avg/max) = 3.642 | 3.644 | 3.648 Mbytes
Step Temp E_pair E_mol TotEng Press Volume 
       0          2.4   -7.3553801            0   -3.7562801   -3.3553213         4000 
    1000    2.3300528   -4.7293962            0   -1.2351908     5.661227    4646.8663 
    2000    2.3993036   -4.7374572            0   -1.1394016    5.6686276    4636.2997 
    3000    2.4680751   -4.7675542            0   -1.0663671    5.8650547    4609.4791 
    4000     2.390478   -4.6854967            0   -1.1006761    5.7438861    4665.7102 
    5000    2.3133164   -4.7783917            0   -1.3092846    5.4769532    4639.8013 
    6000    2.4391566   -4.6947783            0   -1.0369581    5.8020752    4663.3796 
    7000    2.3961953   -4.7738762            0   -1.1804818    5.7058872    4619.9138 
    8000    2.4298685   -4.7212177            0   -1.0773261    5.7568857    4639.6843 
    9000    2.3924024   -4.7232052            0   -1.1354988    5.7055892    4650.7528 
   10000    2.4607529   -4.7156701            0   -1.0254635    5.6133682    4667.1374 
Loop time of 2.20266 on 48 procs for 10000 steps with 4000 atoms

Performance: 784505.818 tau/day, 4539.964 timesteps/s
99.6% CPU use with 48 MPI tasks x no OpenMP threads

MPI task timing breakdown:
Section |  min time  |  avg time  |  max time  |%varavg| %total
---------------------------------------------------------------
Pair    | 0.93505    | 0.99633    | 1.0785     |   3.4 | 45.23
Neigh   | 0.19077    | 0.19978    | 0.21455    |   1.1 |  9.07
Comm    | 0.68348    | 0.76178    | 0.82233    |   4.1 | 34.58
Output  | 0.00024217 | 0.00024654 | 0.00030453 |   0.0 |  0.01
Modify  | 0.19061    | 0.23009    | 0.2692     |   4.1 | 10.45
Other   |            | 0.01443    |            |       |  0.66

Nlocal:        83.3333 ave          94 max          75 min
Histogram: 2 4 4 8 12 11 3 1 2 1
Nghost:        1494.08 ave        1525 max        1465 min
Histogram: 5 3 6 4 6 6 4 5 7 2
Neighs:        8167.04 ave        9555 max        7082 min
Histogram: 3 4 6 7 9 10 5 0 3 1

Total # of neighbors = 392018
Ave neighs/atom = 98.004500
Neighbor list builds = 904
Dangerous builds = 179

# Equilibrate just above the melting temperature to avoid step fn in T

fix 1 all npt temp 1.25 1.25 0.1 iso 5.68 5.68 0.5 mtk yes tchain 5 pchain 5
run 2000
Per MPI rank memory allocation (min/avg/max) = 3.642 | 3.644 | 3.648 Mbytes
Step Temp E_pair E_mol TotEng Press Volume 
   10000    2.4607529   -4.7156701            0   -1.0254635    5.6133682    4667.1374 
   11000    1.2728079   -6.4177175            0   -4.5089829    5.5818559    3805.8895 
   12000    1.2580308    -6.403004            0   -4.5164296    5.5687002    3809.4782 
Loop time of 0.483196 on 48 procs for 2000 steps with 4000 atoms

Performance: 715237.660 tau/day, 4139.107 timesteps/s
99.6% CPU use with 48 MPI tasks x no OpenMP threads

MPI task timing breakdown:
Section |  min time  |  avg time  |  max time  |%varavg| %total
---------------------------------------------------------------
Pair    | 0.21333    | 0.23252    | 0.26101    |   1.9 | 48.12
Neigh   | 0.030836   | 0.033066   | 0.03554    |   0.5 |  6.84
Comm    | 0.14263    | 0.16466    | 0.19361    |   2.6 | 34.08
Output  | 4.9268e-05 | 5.0633e-05 | 6.3704e-05 |   0.0 |  0.01
Modify  | 0.037914   | 0.048544   | 0.057313   |   2.2 | 10.05
Other   |            | 0.004356   |            |       |  0.90

Nlocal:        83.3333 ave          94 max          76 min
Histogram: 4 7 3 11 7 6 6 2 1 1
Nghost:        1699.48 ave        1728 max        1680 min
Histogram: 3 5 3 11 11 9 3 1 1 1
Neighs:        10011.3 ave       11683 max        8812 min
Histogram: 3 3 6 10 10 8 4 2 1 1

Total # of neighbors = 480544
Ave neighs/atom = 120.13600
Neighbor list builds = 141
Dangerous builds = 9

#############################
# L I N E A R  Q U E N C H  #
#############################

# Define solid atoms. This closely follows ten Wolde  Ruiz-Montero and Frenkel  Faraday Discuss  1996  104  93-110
# Compute components of the per-atom q6 vector
compute q6 all orientorder/atom degrees 1 6 components 6 nnn NULL cutoff 1.3 # compute the Q6 parameter.
                                                                             # Use all neighbours within 1.3 unit cell.

# get number of connections
compute coord_number all coord/atom orientorder q6 0.5

# An atom is solid if it has 8 or more connections (of a possible 14)
variable is_solid atom c_coord_number>=8
group solid dynamic all var is_solid    # Must be dynamic to update
dynamic group solid defined

# do clustering
compute cluster solid cluster/atom 1.3 # Create a cluster where all atoms within are solid and max 1.3 units from another member

# define chunks one chunk per cluster
compute clus_chunks solid chunk/atom c_cluster nchunk every compress yes  # Says which atoms are in which chunk

# count the size of each chunk
compute size_chunks solid property/chunk clus_chunks count


# Find the maximum entry in the vector of chunk sizes
variable max_n equal max(c_size_chunks)


# Thermo style which includes this variable
# thermo_style custom step temp pe vol v_max_n

thermo ${N}  # Print the thermo information every 100 steps
thermo 1000  

# Reset the npt fix at a lower temperature (below freezing)
fix 1  all npt temp  ${temp} ${temp}  0.1  iso  5.68  5.68  0.5  mtk yes tchain  5  pchain  5
fix 1  all npt temp  0.45 ${temp}  0.1  iso  5.68  5.68  0.5  mtk yes tchain  5  pchain  5
fix 1  all npt temp  0.45 0.45  0.1  iso  5.68  5.68  0.5  mtk yes tchain  5  pchain  5

dump dmp2 all dcd ${N} traj.dcd
dump dmp2 all dcd 1000 traj.dcd


compute msd all msd com yes
variable twopoint equal c_msd[4]/6/(step*dt+1.0e-6)
fix 9 all vector 10 c_msd[4]
variable fit equal slope(f_9)/6/(10*dt)
thermo_style custom step temp pe c_msd[4] v_twopoint v_fit v_max_n

fix 1 all npt temp 1.25 ${temp} 0.1 iso 5.68 5.68 0.5 mtk yes tchain 5 pchain 5
fix 1 all npt temp 1.25 0.45 0.1 iso 5.68 5.68 0.5 mtk yes tchain 5 pchain 5
run 500000 # 5000000  # Run for this many steps
Neighbor list info ...
  update every 1 steps, delay 10 steps, check yes
  max neighbors/atom: 2000, page size: 100000
  master list distance cutoff = 3.8
  ghost atom cutoff = 3.8
  binsize = 1.9, bins = 9 9 9
  4 neighbor lists, perpetual/occasional/extra = 1 3 0
  (1) pair lj/cut, perpetual
      attributes: half, newton on
      pair build: half/bin/atomonly/newton
      stencil: half/bin/3d
      bin: standard
  (2) compute orientorder/atom, occasional
      attributes: full, newton on
      pair build: full/bin/atomonly
      stencil: full/bin/3d
      bin: standard
  (3) compute coord/atom, occasional
      attributes: full, newton on
      pair build: full/bin/atomonly
      stencil: full/bin/3d
      bin: standard
  (4) compute cluster/atom, occasional
      attributes: full, newton on
      pair build: full/bin/atomonly
      stencil: full/bin/3d
      bin: standard
Per MPI rank memory allocation (min/avg/max) = 9.762 | 9.768 | 9.773 Mbytes
Step Temp PotEng c_msd[4] v_twopoint v_fit v_max_n 
   12000    1.2580308    -6.403004 1.7242527e-30 1.1973977e-32 8.3333333e+20            5 
   13000     1.259816   -6.4277427   0.55462239 0.0035552716  0.045856275            4 
   14000    1.2345036   -6.3618063    1.1095212 0.0066042925  0.045742617            3 
   15000    1.2616353   -6.3906979    1.6083141 0.0089350778  0.045055943            1 
   16000    1.2417829   -6.3595595    2.1357416  0.011123654  0.044114058            3 
   17000    1.2504842   -6.3627976    2.7038079   0.01325396  0.044207788            1 
   18000    1.2300415   -6.3988794    3.2328977  0.014967118  0.044314687            2 
   19000    1.2320431   -6.3992576    3.7426351  0.016415066  0.044294847            4 
   20000     1.245724   -6.3918735    4.3041837  0.017934098  0.044344779            1 
   21000    1.2285375   -6.4175104    4.8878474  0.019396219  0.044573595            2 
   22000    1.2217087   -6.4559865    5.3265924  0.020176486  0.044638383            3 
   23000    1.2376973   -6.4020196     5.820904  0.021090231  0.044381103            2 
   24000    1.2138396   -6.4237599    6.2546079  0.021717388  0.044005413            2 
   25000    1.2225607   -6.4069932    6.8301419  0.022767139  0.043677332            2 
   26000    1.2169272   -6.4272628    7.3427438  0.023534435  0.043485431            2 
   27000    1.2143748   -6.4375128    7.7914741  0.024047759  0.043329926            3 
   28000    1.2143926   -6.3978724    8.2502288  0.024554252  0.043073247            1 
   29000    1.1982272   -6.4849036    8.8389227  0.025399203  0.042922994            1 
   30000    1.2240031   -6.4460343    9.2942553  0.025817375  0.042896532            1 
   31000    1.2231256   -6.4073122    9.8512443  0.026481839  0.042854867            2 
   32000     1.231723   -6.4585512    10.236315  0.026657071  0.042719297            4 
   33000    1.1938706   -6.4595286    10.602486  0.026773955  0.042492074            4 
   34000    1.2049916   -6.4538633    11.124695  0.027266408  0.042228091            2 
   35000    1.2142216   -6.4668448    11.504248  0.027391065  0.042029028            2 
   36000    1.2215451   -6.4698569    12.046038  0.027884346  0.041805042            2 
   37000    1.2253265   -6.4813907    12.576992  0.028326558  0.041641921            2 
   38000     1.200949   -6.4712463    13.046577  0.028610914   0.04156171            3 
   39000     1.183026    -6.431771    13.593136  0.029045162   0.04148624            3 
   40000    1.1978231   -6.4597001    14.102721  0.029380669   0.04141726            1 
   41000    1.2056161   -6.4885792    14.452328  0.029374649  0.041349635            3 
   42000    1.2242742   -6.4891749    14.926987  0.029617038  0.041250477            1 
   43000    1.1984725    -6.464895     15.39078  0.029827092  0.041145831            7 
   44000    1.1968843    -6.492086    15.874455  0.030065255  0.041050325            2 
   45000    1.1934916    -6.503346    16.352443  0.030282302   0.04095451            2 
   46000    1.2161928   -6.5263675    16.741723  0.030329208  0.040860182            2 
   47000    1.2031044   -6.4784481    17.300131   0.03067399  0.040781684            1 
   48000    1.2016849   -6.4852495    17.681768  0.030697513  0.040700617            2 
   49000    1.2035186   -6.4706408        18.19  0.030935373  0.040623244            2 
   50000    1.1870266   -6.4772433    18.589916  0.030983194  0.040553078            4 
   51000    1.1878906   -6.4864238    19.057724  0.031140071  0.040464944            1 
   52000    1.2032678   -6.5128658    19.448212  0.031167006  0.040367961            2 
   53000    1.1843318    -6.485048    20.004529  0.031453662  0.040276771            2 
   54000    1.2002776   -6.5393311    20.383497  0.031456013  0.040187725           10 
   55000    1.2052073   -6.5355855     20.77972  0.031484425  0.040091334            2 
   56000    1.1812248   -6.4927838    21.333752  0.031746655  0.040003689            3 
   57000     1.184249   -6.5599625    21.851145  0.031946119  0.039959939            2 
   58000    1.1876254   -6.5113286    22.368358  0.032138444  0.039926978            3 
   59000    1.1700334   -6.5209216    22.717812  0.032087304   0.03987773            3 
   60000    1.1643219   -6.5462398    23.158976  0.032165244  0.039829701            2 
   61000    1.1492769   -6.5158814    23.637702  0.032291942  0.039771035            3 
   62000    1.1888244   -6.5290929    24.026707  0.032293961  0.039711159            5 
   63000    1.1633684   -6.5623741    24.465833  0.032362212  0.039647997            1 
   64000    1.1723866   -6.5363044    25.218312  0.032836343  0.039609012            2 
   65000    1.1735625   -6.5566268    25.671774  0.032912531  0.039604901            2 
   66000    1.1673819   -6.5962217    25.936678  0.032748331  0.039590675            1 
   67000    1.1787751   -6.5468076    26.373184  0.032802467  0.039545365            1 
   68000    1.1347226   -6.5617595    26.853585  0.032908805  0.039502863            1 
   69000    1.1417668   -6.5380527    27.323107  0.032998921   0.03946175            6 
   70000    1.1504868   -6.6226847     27.72953  0.033011345  0.039422052            2 
   71000    1.1276407   -6.5507656    28.194991  0.033092712  0.039381054            3 
   72000    1.1479161   -6.5910267    28.691655  0.033207934  0.039337496            3 
   73000    1.1482558    -6.584862     28.87157  0.032958413  0.039298506            1 
   74000    1.1507485   -6.5929957    29.401064  0.033109306  0.039239396            1 
   75000     1.143586   -6.5977288    29.843296  0.033159218  0.039193233            3 
   76000    1.1633087   -6.5749451    30.238337  0.033156071  0.039144169            2 
   77000    1.1338065   -6.5813633    30.786809  0.033319058  0.039098654            2 
   78000     1.141397   -6.5722646    31.332008  0.033474367   0.03906024            1 
   79000    1.1309263   -6.5594013    31.732342  0.033472934  0.039025934            1 
   80000    1.1590421    -6.566614     32.08328  0.033420083  0.038987832            2 
   81000    1.1361137    -6.577567    32.476797  0.033412343  0.038947152            4 
   82000    1.1362952   -6.6323807    32.778056  0.033311032  0.038897698            1 
   83000    1.1304673   -6.6773226     33.24245  0.033375953  0.038839091            2 
   84000    1.1486213   -6.5993595    33.504313  0.033238406   0.03877591            3 
   85000    1.1197419   -6.6105626    34.072455  0.033404367  0.038716863            1 
   86000    1.1362389    -6.610749    34.376596  0.033310654  0.038653932            2 
   87000    1.1282444   -6.6010902    34.791887  0.033325562  0.038583625            3 
   88000    1.1414341   -6.6188998     35.17673  0.033311298  0.038514941            2 
   89000    1.1547173   -6.6154636    35.554241  0.033290487    0.0384486            2 
   90000    1.1456232   -6.6657692    35.584162  0.032948298  0.038365839            6 
   91000    1.1154324   -6.6188226    36.256779  0.033202178  0.038282531            1 
   92000    1.1294822   -6.6119373    36.730523  0.033270401  0.038208942            2 
   93000    1.0919898   -6.6440815    36.869311  0.033037017  0.038131893            3 
   94000    1.0916334   -6.6274816    37.159276   0.03294262  0.038046156            3 
   95000    1.1197363     -6.61183     37.28077  0.032702429  0.037947979            2 
   96000    1.1171932   -6.6586826    37.810315  0.032821453  0.037850801            4 
   97000    1.1025799   -6.5849913    38.263713  0.032872605  0.037758888            2 
   98000     1.107444   -6.6513609    38.433611  0.032681642  0.037665437            4 
   99000    1.1021341   -6.6238052    38.831361   0.03268633  0.037562178            4 
  100000    1.1247617    -6.674928    39.263497  0.032719581  0.037461161            3 
  101000    1.1072923   -6.6611817    39.667323  0.032728814  0.037365347            4 
  102000    1.1056427   -6.6191808     40.14133  0.032795204  0.037280211            3 
  103000    1.1010693   -6.6861353    40.442091  0.032720139  0.037194324            5 
  104000    1.1116041    -6.681454    40.830736  0.032716936   0.03710695            1 
  105000    1.0771745   -6.6479562    41.172374  0.032676487  0.037018643            5 
  106000    1.1040908    -6.688428    41.077292  0.032293469  0.036919148            2 
  107000    1.0998069    -6.680141     41.33789  0.032194618  0.036810572            2 
  108000    1.0715554   -6.7181425    41.582904  0.032085574  0.036695149            4 
  109000    1.1148022   -6.6727445    42.044127  0.032143827   0.03658221            2 
  110000    1.1017307   -6.6775771    42.212584   0.03197923   0.03647149            3 
  111000    1.0946676   -6.6868704    42.564473   0.03195531  0.036364774            3 
  112000    1.0855513   -6.7039421     43.09475  0.032064546  0.036262365            4 
  113000    1.0640622   -6.6892691    43.462583  0.032052052  0.036163004            2 
  114000    1.0875475   -6.6775326    43.751249  0.031981907  0.036063248            2 
  115000    1.0892539   -6.7069454    44.103542  0.031959088  0.035963163            3 
  116000    1.0797715   -6.6854198    44.298443  0.031823594   0.03586542            3 
  117000    1.0966528   -6.7033837    44.508781  0.031701411  0.035767334            3 
  118000    1.0769077   -6.7091965     45.03641  0.031805374  0.035665811            1 
  119000    1.1036473   -6.7303443    45.227199  0.031671708  0.035569859            4 
  120000    1.0686107   -6.7248732    45.754156   0.03177372  0.035477654            8 
  121000    1.0818614   -6.7544161     45.96014  0.031652989  0.035383241            1 
  122000     1.056149   -6.7180361    46.249281  0.031591039  0.035287379            1 
  123000    1.0532361   -6.6936883    46.617432  0.031583626  0.035188854            3 
  124000    1.0689775   -6.7071711    46.895637  0.031515885  0.035097912            2 
  125000     1.033581   -6.7466109    47.189366  0.031459577  0.035001327            3 
  126000    1.0481829   -6.7408589    47.466706  0.031393324  0.034902528            2 
  127000    1.0715547    -6.745748    47.719514  0.031312017  0.034811909            4 
  128000    1.1053567    -6.759284    48.024663  0.031266057  0.034715996            2 
  129000    1.0731139   -6.7513237    48.382085  0.031254577  0.034620042            2 
  130000    1.0539137      -6.7775    48.368072  0.031005175  0.034521178            3 
  131000    1.0549308   -6.7330909    48.657292  0.030952476  0.034418287            2 
  132000    1.0618708     -6.76718    48.734114  0.030766486  0.034313398            2 
  133000       1.0535   -6.7554359    49.130595  0.030783581  0.034209696            2 
  134000    1.0640726   -6.7423697     49.33709   0.03068227  0.034105626            3 
  135000    1.0514537   -6.7271028    49.702376  0.030680479   0.03399925            7 
  136000    1.0361126    -6.744471    50.057634   0.03067257  0.033893539            5 
  137000    1.0276181   -6.7656496    50.133823  0.030495026  0.033789025            4 
  138000    1.0350069   -6.7948523    50.626421   0.03057151  0.033686745            2 
  139000     1.043449   -6.7587789    50.959267  0.030551119  0.033590931            3 
  140000    1.0504978   -6.7693857    51.271752    0.0305189  0.033495788            4 
  141000    1.0285949   -6.7930395    51.702891  0.030557264  0.033402591            5 
  142000    1.0444982   -6.7687537    52.254545  0.030665813  0.033320207            2 
  143000    1.0212952    -6.741039    52.798778  0.030768518  0.033243949            1 
  144000    1.0546751   -6.8134029    52.766651  0.030536256  0.033165591            2 
  145000     1.023948   -6.8021284    52.953592  0.030433099  0.033086249            4 
  146000    1.0389355    -6.827297    53.154861  0.030339533  0.033004583            3 
  147000    1.0324996   -6.7834848     53.77918  0.030487063  0.032925552            3 
  148000     1.043181   -6.7535762    53.924175  0.030362711  0.032847655            3 
  149000     1.012472   -6.8221216    53.977931  0.030188999  0.032767378            2 
  150000    1.0311741   -6.8207714    54.067033   0.03003724  0.032683322            4 
  151000    1.0086464   -6.7957507    54.295914  0.029964632  0.032598999            3 
  152000    1.0328813   -6.7969434    54.758259  0.030020975  0.032513777            4 
  153000    1.0292306   -6.8032489    55.165374    0.0300465  0.032431541            2 
  154000    1.0039605   -6.8413138    55.386371   0.02997098  0.032349289            2 
  155000    1.0090753   -6.8262982    55.622056  0.029904331  0.032266912            2 
  156000    1.0024907   -6.8309269    55.915035  0.029869143  0.032183887            2 
  157000    1.0479622   -6.8583179    56.180948  0.029820036  0.032100848            4 
  158000     1.017417   -6.8368229    56.258617  0.029672266  0.032018168            3 
  159000    1.0343925   -6.8365376    56.540469   0.02963337  0.031934741            3 
  160000    1.0074136   -6.7872992    57.066267  0.029722014   0.03185367            1 
  161000    1.0214359     -6.87961    57.127274  0.029568982  0.031773937            3 
  162000    1.0182918    -6.836371    57.450818   0.02955289  0.031694687            4 
  163000    1.0086551    -6.843284    57.600028  0.029447867  0.031617559            2 
  164000    1.0202647   -6.8667456    57.791266   0.02936548  0.031537955            2 
  165000   0.96638892   -6.8515852    58.023463  0.029304779   0.03145853            5 
  166000   0.99366189   -6.8699957    58.183121  0.029208394  0.031378892            3 
  167000     1.000978   -6.8668628     58.47926  0.029181268  0.031300983            3 
  168000    1.0080611   -6.8914128    58.835072  0.029184064  0.031221874            2 
  169000   0.99801203   -6.8608068    59.129202  0.029156411  0.031143852            2 
  170000   0.99794426   -6.8882862    59.157311  0.028998682  0.031066318            5 
  171000   0.98070063   -6.8737112    59.544018  0.029017553  0.030986262            4 
  172000   0.98546781   -6.8888723    59.431026  0.028794102  0.030904501            3 
  173000    1.0187985   -6.8627036    59.780978  0.028796232  0.030823695            5 
  174000   0.97607848   -6.8772819    59.840167  0.028659084  0.030741257            7 
  175000   0.99819459   -6.8701539    60.083238  0.028611066  0.030659949            6 
  176000   0.98111798    -6.910767    60.187457  0.028497849   0.03057914            7 
  177000   0.98622925   -6.9050505    60.540176  0.028502907  0.030498223            3 
  178000   0.99226577   -6.8891018    60.838834    0.0284826  0.030416627            9 
  179000   0.98594126   -6.9102577    60.949119  0.028374823  0.030336028            3 
  180000   0.97794069   -6.9284455    61.245521  0.028354408  0.030255542            3 
  181000   0.99095719   -6.9055955    61.782272  0.028444877  0.030177001            3 
  182000   0.98351808    -6.897609    62.039742  0.028406475   0.03010218            5 
  183000   0.97535959   -6.9263851    62.192885  0.028320986  0.030028194            5 
  184000    0.9731938   -6.9404474    62.332322  0.028230218  0.029954156            2 
  185000   0.99456439   -6.9281814    62.551964   0.02817656  0.029879672            3 
  186000   0.95222224   -6.9449139     62.86536  0.028165484  0.029804732            3 
  187000   0.97134496   -6.9541822    62.969254  0.028061165  0.029729564            2 
  188000   0.96585067   -6.9523424    63.447479  0.028123883  0.029656772            2 
  189000   0.98073816    -6.929353    63.631874  0.028056382  0.029585763            6 
  190000   0.97193193     -6.96182    63.645453  0.027914672  0.029513862           12 
  191000   0.95473362   -6.9151362     64.18053  0.028001977  0.029444385            4 
  192000   0.93983811   -6.9522727    64.533672  0.028009406  0.029378137            3 
  193000   0.96736899   -6.9513308    64.792813  0.027976172  0.029310244            5 
  194000   0.94332716   -6.9644466    64.747192  0.027812368  0.029240557            3 
  195000   0.97888883   -6.9904534    65.034457  0.027792503  0.029171225            6 
  196000   0.94532128    -7.012682     65.07314  0.027667151  0.029101354            6 
  197000   0.94200907   -6.9920077    65.328378  0.027634678  0.029031682            4 
  198000   0.94412014   -6.9708883    65.695313  0.027649542  0.028960714            4 
  199000   0.97044597   -6.9848078    65.814659  0.027560577  0.028893428            6 
  200000   0.94138917   -6.9539049    66.290909  0.027621212  0.028827584            7 
  201000   0.93309844   -6.9355263    66.558066  0.027594555  0.028764655            7 
  202000   0.93884381   -6.9476658    67.020831  0.027648858  0.028703283            4 
  203000   0.93292795   -7.0029683    67.361287  0.027652417  0.028643325            4 
  204000   0.94354501   -7.0059627    67.542591  0.027590928  0.028583887            2 
  205000   0.92849218   -6.9790606    67.701366  0.027520881  0.028523232            3 
  206000   0.91334927   -7.0106108    67.380202  0.027257363  0.028460974            5 
  207000    0.9185923   -7.0032877    67.798839  0.027294218  0.028396599            3 
  208000   0.90976631   -6.9933502    67.765826   0.02714977  0.028331795            5 
  209000   0.92581835   -6.9839659    68.082956  0.027146314  0.028267661           13 
  210000   0.93300954   -6.9974352    68.274072  0.027092886  0.028204769            2 
  211000   0.92943366   -6.9892063    68.499165  0.027053383   0.02814122            6 
  212000   0.94155879   -6.9921164    68.752088  0.027025192  0.028077808            5 
  213000   0.93543794   -6.9729105    68.849036  0.026936242  0.028014924            9 
  214000   0.92136786   -6.9888215    69.164313  0.026933143  0.027951508            3 
  215000   0.91853061   -7.0222452    69.136596   0.02679713  0.027887791            4 
  216000   0.91698973   -7.0061106    69.253816  0.026718293  0.027821444            8 
  217000   0.91966239   -7.0005513    69.278945  0.026604818  0.027754178            6 
  218000   0.92036326   -7.0326928    69.412492  0.026533827  0.027687771            3 
  219000   0.91662755    -7.011658    69.636158  0.026497777  0.027622053            2 
  220000   0.89689912   -7.0423797    69.884107  0.026471253  0.027555752            3 
  221000   0.91170249   -7.0711573    69.876946  0.026348773  0.027488404            3 
  222000   0.93435778   -7.0486498    70.204823  0.026353162  0.027421414            2 
  223000   0.93171651   -7.0487842     70.41611  0.026313942  0.027355534            7 
  224000    0.9196149   -7.0357055    70.813978  0.026344486  0.027291118            3 
  225000    0.9341634   -7.0597302    70.844786  0.026238809  0.027227467            7 
  226000   0.89404025   -7.0647279    71.030806    0.0261913  0.027163346            3 
  227000   0.91735788    -7.056794     71.03926  0.026079023  0.027098437            8 
  228000   0.91161835   -7.0759584    71.303994  0.026061401  0.027032796            4 
  229000   0.90243743   -7.0629168    71.322278   0.02595425  0.026967316            3 
  230000   0.90042954   -7.0500465    71.603674   0.02594336  0.026902618            3 
  231000    0.8838073   -7.0562634    71.978906  0.025966416  0.026838968            4 
  232000   0.88163404   -7.0523331      72.0779   0.02589005  0.026775887            6 
  233000   0.88694375   -7.1158492    72.087782  0.025782468  0.026712789            5 
  234000   0.88006275   -7.1044369    72.463764  0.025806184  0.026649157            6 
  235000   0.89458667   -7.0913998    72.457224  0.025694051  0.026585397            3 
  236000   0.89277274   -7.1147409    72.401992  0.025565675  0.026521974            4 
  237000   0.87065986   -7.1017635    72.581428  0.025520896  0.026457245            5 
  238000   0.87897653   -7.0650488    72.912683  0.025529651   0.02639358            4 
  239000   0.89918308   -7.0971678    73.113453  0.025492836    0.0263296            4 
  240000   0.86867223   -7.1079411    72.997064  0.025346203  0.026265179            2 
  241000   0.87713768   -7.0939719    73.270127  0.025335452  0.026200671            8 
  242000   0.88798875   -7.0745318     73.40715  0.025277944  0.026135314            8 
  243000   0.88410876   -7.0786987     73.59825  0.025239455  0.026071165            6 
  244000   0.87882032   -7.0724011    73.647481  0.025152828  0.026006298            3 
  245000   0.87669552   -7.1156175    73.694515  0.025066162  0.025941676            7 
  246000   0.88382074   -7.1080029      73.9754  0.025059417  0.025877721            5 
  247000    0.8760705   -7.1465642    74.207372  0.025036225  0.025814434            4 
  248000   0.87517946   -7.1097072    74.528517  0.025043184  0.025753508            3 
  249000   0.84452743    -7.159983    74.656848  0.024985558  0.025692127           11 
  250000   0.87976868   -7.1326554    74.895452  0.024965151  0.025630729            5 
  251000   0.85845219   -7.1345444    74.955777  0.024885716  0.025570036            2 
  252000   0.86633294   -7.1705242    74.983593  0.024796162  0.025508623            4 
  253000   0.86345475   -7.1860737    75.195721  0.024768024  0.025447469           10 
  254000    0.8708965   -7.1703451     75.40129  0.024737956  0.025387398            4 
  255000   0.84513843    -7.139794    75.809934  0.024774488  0.025326531            6 
  256000   0.86061389   -7.1665495    75.485954   0.02457225  0.025265794            3 
  257000   0.86020409    -7.162754    75.684087  0.024540884  0.025204353            5 
  258000   0.85792837   -7.1525995    75.584403  0.024413567  0.025142488            3 
  259000   0.83396901   -7.1847774    75.809947  0.024391875  0.025081077           13 
  260000   0.82910646   -7.1725014    75.944075  0.024341049  0.025019749            6 
  261000   0.84283682   -7.1874426    76.081804  0.024291764  0.024957724            6 
  262000   0.83645683   -7.1842638    76.312513  0.024272428   0.02489618            6 
  263000   0.85431693   -7.1928441    76.577528  0.024264109  0.024834444            4 
  264000   0.83226744   -7.1794272    76.390506  0.024113165   0.02477244            3 
  265000    0.8174214   -7.1808862    76.685412  0.024114909  0.024710633            5 
  266000   0.86391615   -7.1893857    76.521937  0.023973038  0.024649009            6 
  267000   0.83982249   -7.1774478    76.795722  0.023968702  0.024587661            5 
  268000   0.83527097   -7.2163969    76.811425  0.023884149  0.024527408            4 
  269000   0.83643078   -7.1867241    77.399614  0.023977576  0.024467397           12 
  270000   0.84062214   -7.2138574    77.603275  0.023951628  0.024408582            4 
  271000   0.84008347   -7.2052067    77.745359  0.023906937  0.024350037            6 
  272000   0.83366917   -7.2104924      77.5923  0.023772151  0.024291856            3 
  273000   0.83942672   -7.1917604    77.872797  0.023770695  0.024234063            3 
  274000   0.83887931   -7.2050676    78.036881  0.023733845  0.024177055            3 
  275000   0.83110177    -7.248234    78.106237  0.023668557    0.0241199            8 
  276000   0.81245601   -7.2453417    77.931831  0.023530142  0.024061606            9 
  277000   0.81217582   -7.2354463    78.189661  0.023522762  0.024002285            6 
  278000   0.83499138   -7.2184529    78.177788  0.023434589  0.023942511           11 
  279000   0.82224159    -7.229106    78.319757  0.023392998  0.023883241            3 
  280000   0.83477186   -7.2269532    78.398472  0.023332879   0.02382413            4 
  281000   0.82508729    -7.246298    78.710868  0.023342488  0.023765326            3 
  282000   0.81013145   -7.2429199    78.726175  0.023264236   0.02370722           10 
  283000   0.82532699   -7.2475035    78.756259  0.023190889  0.023649447            5 
  284000   0.82241927   -7.2409798    78.798779  0.023121707  0.023590429            7 
  285000   0.81893002   -7.2799497    78.980043   0.02309358  0.023531321            3 
  286000   0.82322044   -7.2391595    79.090334  0.023044969  0.023472252            5 
  287000   0.80345248   -7.2686453    79.030512  0.022947303  0.023412449            6 
  288000   0.79835733   -7.2488651    79.276045   0.02293867  0.023353621           10 
  289000   0.81397737   -7.2760251    79.248318  0.022851303  0.023295175           11 
  290000   0.79651749   -7.2737659    79.420248   0.02282191  0.023236617            5 
  291000   0.79758142   -7.2641827    79.858523  0.022868993  0.023178222            8 
  292000   0.78900596   -7.2919556    79.650301   0.02273125  0.023120745            7 
  293000   0.80492353   -7.2951881    79.768728  0.022687351  0.023062441           24 
  294000   0.78985508   -7.2846535    79.964759  0.022665748  0.023004305            6 
  295000   0.80812326   -7.3117431    79.934859  0.022580469   0.02294626            8 
  296000   0.81418982   -7.3052099    80.252636  0.022593648  0.022888614            6 
  297000   0.78743325   -7.3019179    80.211324  0.022505983  0.022830985            8 
  298000   0.80021322   -7.2969647    80.333908  0.022464739  0.022773502            4 
  299000   0.79765142   -7.2996346    80.269859  0.022371756  0.022715907            6 
  300000   0.77833445   -7.3000914    80.323182  0.022311995  0.022657933            5 
  301000   0.79856108   -7.3250146    80.142427  0.022187826  0.022599424            6 
  302000   0.78211253   -7.3241028    80.303242  0.022158731  0.022540236            9 
  303000   0.78050599   -7.3177307    80.178022  0.022051161  0.022479866           10 
  304000   0.77849579   -7.3365703    80.423268  0.022045852  0.022420157            4 
  305000   0.77212547   -7.3470021    80.264414  0.021930168  0.022360514            8 
  306000   0.77953127   -7.3362171    80.304596  0.021869443  0.022300948            3 
  307000   0.78138987   -7.3565963    80.617721  0.021883203   0.02224173            7 
  308000   0.77228168   -7.3558821    80.589529  0.021804526  0.022182938            8 
  309000   0.78818841   -7.3320757    80.594127  0.021735201  0.022123692            9 
  310000   0.77531567   -7.3380761    80.500005  0.021639786  0.022064249            5 
  311000   0.77203088   -7.3651575    80.980145   0.02169886  0.022005279            3 
  312000   0.76581745   -7.3551211    80.819142  0.021586309  0.021946557            5 
  313000   0.76625958   -7.3724104    80.839786   0.02152284  0.021887826            5 
  314000   0.76044103   -7.3396248    81.274095  0.021569558  0.021829183           11 
  315000   0.75773275   -7.3775055    81.150085  0.021468277  0.021771183           19 
  316000   0.77239836   -7.3750361    81.438267  0.021476336  0.021713478            3 
  317000   0.74855048   -7.3575974    81.092985  0.021317819   0.02165503            9 
  318000   0.75222471   -7.3546351     81.29101  0.021302676  0.021596581           14 
  319000   0.74253823   -7.3616276    81.212908  0.021215493  0.021537742            8 
  320000   0.75908228   -7.4008073    81.535853  0.021233295  0.021479216            6 
  321000   0.75270856   -7.3524461    81.364852  0.021122755  0.021420568            8 
  322000   0.75398323    -7.401913    81.488487  0.021089153  0.021361799            4 
  323000    0.7446524   -7.3948201    81.436867  0.021010544  0.021303289            4 
  324000   0.74369333   -7.3914916    81.719443  0.021018375  0.021244789            5 
  325000   0.75335007   -7.3991053     81.65309   0.02093669  0.021186729            6 
  326000   0.75694246   -7.4109028    81.465731  0.020824573  0.021128263            6 
  327000   0.74948408    -7.442813    81.723731  0.020826639   0.02106996            4 
  328000   0.73769362    -7.413909     81.59223  0.020729733  0.021011772            7 
  329000   0.73940097   -7.4242506    81.902438  0.020745298  0.020953236           11 
  330000   0.73637421   -7.4362773    81.680586  0.020626411  0.020895097            3 
  331000   0.74229786   -7.4355554     81.66389  0.020559892  0.020836745            7 
  332000   0.75234424   -7.4335656    81.617705  0.020486372  0.020778579           11 
  333000   0.73353901   -7.4535796    81.859362  0.020485326   0.02072021            7 
  334000    0.7264591   -7.4397223    81.688155  0.020381276  0.020661541            3 
  335000    0.7451933   -7.4435572    81.912989  0.020376365  0.020602925            4 
  336000    0.7273643   -7.4772163    81.919187  0.020317259  0.020544956            5 
  337000   0.73916877   -7.4165297    82.017951  0.020281392  0.020487152           10 
  338000   0.72302683   -7.4072825     82.20854  0.020268378  0.020429709            7 
  339000   0.72786506   -7.4633599    82.127638  0.020188702  0.020372483            5 
  340000   0.71530262   -7.4378708    82.053505  0.020111153  0.020314928            8 
  341000   0.72899565   -7.4406035    82.034994  0.020047652  0.020257448            6 
  342000   0.72467271   -7.4570451    82.297436  0.020052982  0.020199898            9 
  343000   0.72884251   -7.4357242     82.29273  0.019993375   0.02014326            6 
  344000   0.71465529   -7.4667841    82.598963  0.020009439  0.020087199           17 
  345000   0.71167602   -7.4443742    82.345693  0.019890264   0.02003135            8 
  346000   0.71548079   -7.4571596    82.402341  0.019846421   0.01997517            7 
  347000    0.7167841   -7.4576352    82.448569  0.019800329  0.019918854            6 
  348000   0.72200496   -7.4490598     82.52352  0.019761379  0.019862546            5 
  349000   0.70712757    -7.462698    82.746599  0.019758023  0.019806132            5 
  350000   0.71778617   -7.4551789    82.654603  0.019679667   0.01975021           13 
  351000   0.69005498   -7.4717004    82.545221  0.019597631  0.019694052           24 
  352000    0.6982189   -7.4909561    82.684736  0.019574985  0.019637946           11 
  353000   0.71192537   -7.4876818    82.828452  0.019553459  0.019582409            5 
  354000   0.70663846   -7.5002206    82.818118   0.01949579  0.019527051           10 
  355000   0.71405268   -7.4946938    82.651177  0.019401685  0.019471842            5 
  356000   0.69032036   -7.5174591    82.710348  0.019361037  0.019416642            7 
  357000   0.68376025   -7.4860935    83.105811  0.019399116  0.019361652           10 
  358000   0.68727033    -7.510743    82.911844  0.019299777  0.019306794            9 
  359000   0.72457926   -7.5185324    83.061474  0.019280751  0.019252025            7 
  360000   0.71375398    -7.505402     82.85792  0.019180074  0.019197303           11 
  361000   0.68631352   -7.5259533    83.039677  0.019168901  0.019142484           10 
  362000   0.67706753   -7.5283985     83.05903  0.019120403  0.019087995           21 
  363000    0.6741815   -7.5248061    83.030682  0.019061222  0.019033651           19 
  364000   0.69186729   -7.5289246    83.233842  0.019055367  0.018979485           17 
  365000   0.67914009   -7.5246917    83.177096  0.018990204  0.018925548           13 
  366000   0.68330125    -7.535353    83.140871  0.018930071  0.018871594           13 
  367000   0.68691241    -7.529533    83.266903  0.018907108  0.018817666           13 
  368000   0.67380013   -7.5474197    83.292031   0.01886142  0.018763878           11 
  369000    0.6790338   -7.5674146    83.169638  0.018782664  0.018710155           13 
  370000   0.68164007   -7.5507022    83.294012  0.018759912  0.018656666           10 
  371000   0.67149244   -7.5437007    83.359364  0.018724026  0.018603608           16 
  372000   0.66202536   -7.5653661    83.221587  0.018642829  0.018550293           18 
  373000   0.65894973    -7.551977    83.345897   0.01862062  0.018497048           16 
  374000   0.66914692   -7.5651301    83.297754  0.018560106  0.018443731           26 
  375000   0.66403927   -7.5918127    83.248369  0.018499638  0.018390423           29 
  376000   0.67011427   -7.6032343    83.364624  0.018476202  0.018336867           24 
  377000   0.67191156    -7.562172    83.254495   0.01840285  0.018284001           15 
  378000    0.6829248   -7.5725716     83.27452   0.01835858  0.018231185           23 
  379000   0.66798744   -7.5961219    83.440835  0.018346709  0.018178362           18 
  380000     0.669994     -7.59792    83.406745  0.018290953  0.018125772           17 
  381000   0.65690997   -7.5811549    83.362163  0.018233194  0.018073054           16 
  382000   0.65372514   -7.6191318     83.24483  0.018159867  0.018020342           13 
  383000   0.66457084   -7.6134166    83.335874  0.018132262  0.017967647           16 
  384000   0.64993704   -7.6074166    83.442684  0.018108221  0.017915237            9 
  385000   0.65276632   -7.6048516    83.399096  0.018051752  0.017862949           21 
  386000   0.64294254   -7.5996336    83.411319  0.018007625  0.017810793           11 
  387000   0.64773161   -7.5811935    83.488651  0.017977746  0.017758994           11 
  388000   0.64665449   -7.5881572    83.516342  0.017937359  0.017707502            6 
  389000   0.65091251   -7.6118943    83.485077  0.017884549  0.017655915            6 
  390000   0.64336646   -7.6243521    83.426626  0.017826202  0.017604346            6 
  391000   0.62947501   -7.6063523    83.569213     0.017811   0.01755293            7 
  392000   0.63133332   -7.5985188     83.58378  0.017768661   0.01750159           11 
  393000   0.64898071   -7.6471836    83.521574  0.017710257  0.017450243            8 
  394000   0.63580699   -7.6041391    83.535455  0.017668243  0.017399111            8 
  395000    0.6316259   -7.6407142    83.709676  0.017660269   0.01734808           11 
  396000   0.63141185    -7.662037    83.330051  0.017535785  0.017297022           13 
  397000   0.62680467   -7.6424385    83.520724  0.017531638   0.01724599           13 
  398000   0.64021407   -7.6440159    83.505857  0.017484476  0.017195107           14 
  399000   0.62630766   -7.6393778    83.589716   0.01745817  0.017144409            5 
  400000   0.63475455   -7.6691004    83.641865  0.017425389  0.017093798            5 
  401000   0.62472218   -7.6548525    83.573467   0.01736772  0.017043361           12 
  402000   0.63104311   -7.6665612    83.441467  0.017297153  0.016993089           24 
  403000   0.61875605   -7.6525935    83.495816  0.017265471   0.01694297            7 
  404000    0.6363611   -7.6587121    83.533931  0.017230596  0.016892934           10 
  405000   0.62239472    -7.681719    83.680028  0.017218113  0.016843028            6 
  406000   0.62015897   -7.6724119    83.443647  0.017127185  0.016793121            8 
  407000   0.62793588   -7.6809932    83.516327  0.017099985  0.016743527            8 
  408000   0.61141647    -7.678478    83.575943   0.01707025  0.016694241            9 
  409000   0.61634211   -7.6709108    83.670191  0.017047716  0.016645083            7 
  410000   0.61099424   -7.6765748    83.794002  0.017031301  0.016595923            9 
  411000   0.61563689    -7.678547    83.730008  0.016976887  0.016546851           10 
  412000   0.62788602   -7.7147288    83.697325  0.016929071  0.016498127           12 
  413000   0.60623904   -7.6869067    83.716497  0.016891949  0.016449455            7 
  414000   0.60474633   -7.6892813    83.672852  0.016842362  0.016400871           11 
  415000    0.6232065   -7.7026763    83.709268   0.01680909  0.016352422           12 
  416000   0.60903007   -7.7103442    83.809758  0.016788814  0.016304032            7 
  417000   0.59437848   -7.6952645    83.612711  0.016709175  0.016255768            6 
  418000   0.59088871   -7.7305159    83.764444  0.016699451  0.016207645            4 
  419000   0.60680206   -7.7077011    83.657409  0.016638307  0.016159479           10 
  420000    0.5972413   -7.7199096    83.610118  0.016589309  0.016111556            5 
  421000   0.58408072   -7.7149845    83.563848  0.016540746  0.016063772            8 
  422000   0.58755865   -7.7302187    83.781843  0.016544598  0.016016082            6 
  423000    0.5787126   -7.7128995    83.670615  0.016483573  0.015968489           17 
  424000   0.58884962   -7.7369287     83.67492  0.016445542  0.015920951           11 
  425000   0.58037464   -7.7214116    83.605115   0.01639316  0.015873609           13 
  426000   0.57974985   -7.7452691    83.673513  0.016368058  0.015826279            8 
  427000   0.58341993    -7.754981    83.699849  0.016334865  0.015779032           13 
  428000   0.60624141    -7.753865     83.35909  0.016230352    0.0157318            9 
  429000   0.58044894   -7.7613002    83.506362  0.016221127  0.015684768           12 
  430000   0.58965506    -7.750412    83.425604  0.016167753   0.01563768            9 
  431000   0.57517407   -7.7543744    83.524681  0.016149397  0.015590733            3 
  432000   0.58449613   -7.7736274    83.560463  0.016118917  0.015543921            6 
  433000   0.57269907   -7.7797085    83.504333  0.016070888  0.015497199            3 
  434000   0.56904619   -7.7691758    83.445083  0.016022481   0.01545067            7 
  435000   0.57722587   -7.7672276    83.607374  0.016016738  0.015404189            5 
  436000   0.56832657   -7.7568495    83.342177  0.015929315  0.015357649            9 
  437000   0.56521566   -7.7744246    83.590304   0.01594018  0.015311357            6 
  438000   0.57237601   -7.7831583    83.428497  0.015873002  0.015265167            6 
  439000    0.5651465   -7.7872467    83.348972  0.015821749  0.015219018            4 
  440000   0.57401661   -7.7825097    83.455242  0.015805917  0.015172975            3 
  441000   0.56802827   -7.7837004    83.454396  0.015769916   0.01512706           10 
  442000   0.55438475   -7.7864627    83.416273   0.01572705  0.015081299            9 
  443000   0.55841371   -7.7804201    83.418082  0.015691889  0.015035634            9 
  444000   0.56496393   -7.7934724    83.297325  0.015633882  0.014990057           13 
  445000   0.55155591   -7.8112171    83.180064  0.015576791  0.014944552           11 
  446000   0.55401169   -7.8157304    83.312497   0.01556661  0.014899142           10 
  447000   0.54188452   -7.8184625    83.298826  0.015529237  0.014853828           10 
  448000   0.55702027   -7.8176211    83.273064  0.015489781  0.014808607           18 
  449000   0.55331954   -7.7815219    83.170334  0.015436216  0.014763534            6 
  450000   0.54161833   -7.8090932     83.20208  0.015407793   0.01471848           11 
  451000   0.54888557   -7.8334027    83.229275  0.015378654  0.014673647            5 
  452000   0.54597974   -7.8337882    83.152916  0.015330552   0.01462895            5 
  453000   0.54904108   -7.8306149    82.992658  0.015267229  0.014584284            7 
  454000   0.53521419   -7.8338578    83.159064  0.015264145  0.014539828            9 
  455000   0.54234641   -7.8271594    83.189893  0.015236244   0.01449553           10 
  456000   0.55674464    -7.834581     83.12588  0.015191133  0.014451342            9 
  457000   0.55034821   -7.8445495    83.074386  0.015148502  0.014407308           10 
  458000   0.52797588   -7.8381574    83.054475  0.015111804  0.014363381            5 
  459000   0.52676043   -7.8362471    83.097731  0.015086734  0.014319638           12 
  460000   0.53444098   -7.8307894    83.125532  0.015058973  0.014275997           13 
  461000   0.51435988   -7.8345631    83.141552  0.015029203  0.014232539           11 
  462000   0.52857992   -7.8410354    83.176597  0.015002994   0.01418931           10 
  463000    0.5154151   -7.8445686    83.111537   0.01495888  0.014146044           12 
  464000   0.52067499   -7.8380786    82.887455  0.014886396  0.014102793           11 
  465000   0.52224818   -7.8502448    83.068001  0.014886738  0.014059852           11 
  466000   0.51993312   -7.8473208    82.981152  0.014839262  0.014017053           11 
  467000   0.52615249   -7.8578197    82.935046  0.014799259  0.013974254           13 
  468000   0.51404478   -7.8551697    82.954202  0.014771047  0.013931692           12 
  469000   0.51512027   -7.8622093    82.931234  0.014735472  0.013889168           15 
  470000   0.52143772   -7.8665897    82.935515  0.014704879  0.013846955           14 
  471000   0.50775585   -7.8790645    82.981384  0.014681773  0.013804808           17 
  472000   0.50462923   -7.8820572    82.973564  0.014649287   0.01376273           10 
  473000   0.51067456   -7.8754799    82.783248  0.014584786  0.013720709            8 
  474000    0.5198673   -7.8782888    82.768826  0.014551481  0.013678902           19 
  475000   0.51888837   -7.8828458    83.043334  0.014569006  0.013637118           23 
  476000   0.51117413   -7.8926938    83.049613  0.014539498  0.013595589           16 
  477000   0.51080398   -7.8818581     82.86385  0.014476564  0.013554067           14 
  478000    0.4998367    -7.893398    82.813565  0.014437511  0.013512805           13 
  479000   0.49579862   -7.8950694    82.971859  0.014434909   0.01347157           14 
  480000   0.49966031   -7.8928312    82.832723  0.014380681  0.013430579           18 
  481000   0.50207265   -7.8775194    82.868138  0.014356919  0.013389679           21 
  482000   0.50309161   -7.8988686    82.907576  0.014333952  0.013348876           20 
  483000   0.50912302   -7.8997469    82.884861  0.014300355  0.013308286           16 
  484000    0.4938247   -7.9113427    82.850267  0.014264853  0.013267771           16 
  485000   0.50155124   -7.8986746    82.733452   0.01421537  0.013227486           14 
  486000   0.50359623   -7.9089724    82.860196  0.014207852  0.013187328           28 
  487000   0.50448884   -7.9242782    82.871108  0.014180545  0.013147301           33 
  488000   0.50117582   -7.9151585    82.889714  0.014154664  0.013107396           21 
  489000   0.49375138   -7.9279211    82.885442   0.01412499  0.013067567           19 
  490000    0.4835126   -7.9266458    82.719032  0.014067863  0.013027977           22 
  491000   0.47597574   -7.9196682    82.769091  0.014047707  0.012988363           18 
  492000   0.47620474   -7.9248391    82.696536  0.014006866  0.012948903           18 
  493000   0.47501919   -7.9298216    82.708954  0.013980553  0.012909564           34 
  494000   0.48967369    -7.918167    82.797032  0.013967111  0.012870458           35 
  495000   0.47106615    -7.937998    82.674722  0.013918303  0.012831463           26 
  496000   0.47601481   -7.9480265    82.795446  0.013910525  0.012792551           19 
  497000    0.4844592   -7.9351199    82.591075  0.013848269  0.012753829           18 
  498000   0.47843692   -7.9266948    82.724805  0.013842839  0.012715238           24 
  499000   0.48584925   -7.9530182    82.791124  0.013826173  0.012676701           22 
  500000   0.47186155    -7.946291    82.538293  0.013756382  0.012638327           25 
  501000   0.47453831   -7.9455032    82.765009  0.013766635  0.012600123           12 
  502000   0.45963377   -7.9494669    82.673607  0.013724038  0.012562009           20 
  503000   0.46395281   -7.9410567    82.643355  0.013691742  0.012524042           21 
  504000   0.45889259   -7.9587384    82.716321   0.01367664  0.012486223           23 
  505000   0.45454548   -7.9629263    82.644525   0.01363771  0.012448617           24 
  506000   0.47068597   -7.9763012    82.739297  0.013626366    0.0124111           16 
  507000   0.45568597   -7.9540354    82.600253  0.013576636  0.012373643           28 
  508000   0.45619393   -7.9671884    82.643786  0.013557051  0.012336363           18 
  509000    0.4527646   -7.9788805    82.688198  0.013537688  0.012299238           28 
  510000   0.44921684   -7.9755517    82.647685  0.013504524  0.012262206           15 
  511000   0.45258717   -7.9606874    82.490372  0.013452442  0.012225294           14 
  512000   0.45265065   -7.9830212    82.589731  0.013442339  0.012188595           13 
Loop time of 1109.97 on 48 procs for 500000 steps with 4000 atoms

Performance: 77840.190 tau/day, 450.464 timesteps/s
99.4% CPU use with 48 MPI tasks x no OpenMP threads

MPI task timing breakdown:
Section |  min time  |  avg time  |  max time  |%varavg| %total
---------------------------------------------------------------
Pair    | 70.031     | 73.298     | 76.448     |  17.2 |  6.60
Neigh   | 7.1281     | 7.2813     | 7.5239     |   3.5 |  0.66
Comm    | 64.168     | 67.512     | 70.729     |  22.1 |  6.08
Output  | 0.79188    | 0.79244    | 0.80112    |   0.1 |  0.07
Modify  | 947.44     | 950.14     | 953.24     |   5.0 | 85.60
Other   |            | 10.94      |            |       |  0.99

Nlocal:        83.3333 ave          91 max          75 min
Histogram: 3 3 2 8 7 6 7 1 5 6
Nghost:        1872.40 ave        1892 max        1853 min
Histogram: 5 3 4 9 5 4 4 6 4 4
Neighs:        11669.1 ave       13067 max        9889 min
Histogram: 1 2 3 6 5 12 7 4 4 4
FullNghs:      23336.9 ave       25443 max       20963 min
Histogram: 3 3 4 7 7 5 6 2 2 9

Total # of neighbors = 1120172
Ave neighs/atom = 280.04300
Neighbor list builds = 26905
Dangerous builds = 0

#clear
#
#next RN
#
#jump SELF
Total wall time: 0:18:33
