
units lj                  # Use reduced LJ style units
atom_style atomic         # Uncharged point particles
atom_modify map hash      # Needed for indexing of clusters etc
                          # Used to be able to find where atoms are in relation to each other.

lattice fcc 1.0 spacing 1 1 1
Lattice spacing in x,y,z = 1.5874011 1.5874011 1.5874011
region box block 0 10 0 10 0 10 units lattice
create_box 2 box
Created orthogonal box = (0.0000000 0.0000000 0.0000000) to (15.874011 15.874011 15.874011)
  3 by 4 by 4 MPI processor grid
create_atoms 1 box
Created 4000 atoms
  using lattice units in orthogonal box = (0.0000000 0.0000000 0.0000000) to (15.874011 15.874011 15.874011)
  create_atoms CPU = 0.014 seconds
set type 1 type/fraction 2 0.29 78393
Setting atom values ...
  1200 settings made for type/fraction
mass 1 1.0
mass 2 1.0
pair_style lj/cut  3.5
pair_modify tail  yes
pair_coeff 1  1  1.0  1.0   # Intearaction between 1 and 1 set with epsilon = 1 and sigma = 1
pair_coeff 1  2  1.5  0.8
pair_coeff 2  2  0.5  0.88

write_data data.0
System init for write_data ...
Neighbor list info ...
  update every 1 steps, delay 10 steps, check yes
  max neighbors/atom: 2000, page size: 100000
  master list distance cutoff = 3.8
  ghost atom cutoff = 3.8
  binsize = 1.9, bins = 9 9 9
  1 neighbor lists, perpetual/occasional/extra = 1 0 0
  (1) pair lj/cut, perpetual
      attributes: half, newton on
      pair build: half/bin/atomonly/newton
      stencil: half/bin/3d
      bin: standard
WARNING: Not all mixed pair coeffs generated from mixing. Use write_data with 'pair ij' option to store all pair coeffs. (../write_data.cpp:312)


#############################
#   M E L T   S Y S T E M   #
#############################

velocity all create 2.4 9580093 mom yes dist gaussian # Assign velocities
                                                    # Temperature 2.4, random number seed, zero linear momentum
                                                                                # Gaussian distribution

timestep 0.002   # simulation timestep
thermo 1000       # output thermodynamic data every 1000 steps bf 100

# Define a fix  in this case with index 1 applied to all
# particles in the simulation. This fix is for simulations
# in the anisotropic NPT ensemble. Note that we use the MTK
# correction.
fix 1 all npt temp 2.4 2.4 0.1 iso 5.68 5.68 0.5 mtk yes tchain 5 pchain 5 # Use NPT ensemble
                                                                         # Set temperature and pressure and damping
                                                                         # Numbers of thermostats in chain and in barostat
run 10000          # run for 10000 steps
Per MPI rank memory allocation (min/avg/max) = 3.642 | 3.644 | 3.648 Mbytes
Step Temp E_pair E_mol TotEng Press Volume 
       0          2.4   -6.4756105            0   -2.8765105   -3.9602485         4000 
    1000    2.4167653   -4.9434618            0   -1.3192202    5.6795021    4196.8537 
    2000    2.4277949   -4.9918908            0   -1.3511089    5.5448853    4178.0157 
    3000    2.3573604   -4.9615862            0   -1.4264297     5.789085    4159.9645 
    4000    2.4550923   -4.9286529            0   -1.2469352    5.9723662    4186.0512 
    5000    2.3337286   -4.9306522            0   -1.4309344    5.9128217    4170.9509 
    6000     2.402208   -4.9847957            0   -1.3823845    5.4970357    4184.0549 
    7000    2.4369945   -4.9851259            0    -1.330548    5.9597881    4147.5397 
    8000    2.3929084   -4.9564379            0   -1.3679726    5.5343176    4204.1642 
    9000    2.4245907   -4.9983547            0   -1.3623779    6.0812732    4134.4987 
   10000    2.4492395   -4.9435753            0   -1.2706345    5.8858313    4181.3659 
Loop time of 2.46697 on 48 procs for 10000 steps with 4000 atoms

Performance: 700455.603 tau/day, 4053.563 timesteps/s
99.6% CPU use with 48 MPI tasks x no OpenMP threads

MPI task timing breakdown:
Section |  min time  |  avg time  |  max time  |%varavg| %total
---------------------------------------------------------------
Pair    | 1.004      | 1.1181     | 1.2246     |   3.7 | 45.32
Neigh   | 0.19945    | 0.21266    | 0.23009    |   1.1 |  8.62
Comm    | 0.75443    | 0.85976    | 0.93883    |   4.7 | 34.85
Output  | 0.00025473 | 0.00025896 | 0.00032609 |   0.0 |  0.01
Modify  | 0.21586    | 0.26095    | 0.31075    |   5.0 | 10.58
Other   |            | 0.01523    |            |       |  0.62

Nlocal:        83.3333 ave          92 max          74 min
Histogram: 1 2 3 9 7 7 8 8 2 1
Nghost:        1599.85 ave        1638 max        1552 min
Histogram: 1 1 1 5 6 15 11 5 2 1
Neighs:        9140.94 ave       10259 max        8006 min
Histogram: 2 2 5 7 9 5 9 5 3 1

Total # of neighbors = 438765
Ave neighs/atom = 109.69125
Neighbor list builds = 906
Dangerous builds = 217

# Equilibrate just above the melting temperature to avoid step fn in T

fix 1 all npt temp 1.25 1.25 0.1 iso 5.68 5.68 0.5 mtk yes tchain 5 pchain 5
run 2000
Per MPI rank memory allocation (min/avg/max) = 3.643 | 3.645 | 3.649 Mbytes
Step Temp E_pair E_mol TotEng Press Volume 
   10000    2.4492395   -4.9435753            0   -1.2706345    5.8858313    4181.3659 
   11000    1.2545886   -6.8445908            0   -4.9631783    5.3425131    3374.3828 
   12000    1.2695684   -6.8285436            0   -4.9246671     6.151032    3347.8764 
Loop time of 0.566675 on 48 procs for 2000 steps with 4000 atoms

Performance: 609873.701 tau/day, 3529.362 timesteps/s
99.6% CPU use with 48 MPI tasks x no OpenMP threads

MPI task timing breakdown:
Section |  min time  |  avg time  |  max time  |%varavg| %total
---------------------------------------------------------------
Pair    | 0.23925    | 0.27338    | 0.29908    |   2.3 | 48.24
Neigh   | 0.037194   | 0.040451   | 0.044225   |   0.6 |  7.14
Comm    | 0.17506    | 0.2041     | 0.24361    |   3.1 | 36.02
Output  | 5.155e-05  | 5.3063e-05 | 6.7236e-05 |   0.0 |  0.01
Modify  | 0.039794   | 0.043989   | 0.047194   |   0.9 |  7.76
Other   |            | 0.004701   |            |       |  0.83

Nlocal:        83.3333 ave          91 max          77 min
Histogram: 4 2 9 6 3 12 3 6 1 2
Nghost:        1846.65 ave        1879 max        1827 min
Histogram: 5 6 10 7 7 5 2 4 1 1
Neighs:        11413.6 ave       12831 max        9864 min
Histogram: 3 2 4 7 4 11 4 5 4 4

Total # of neighbors = 547854
Ave neighs/atom = 136.96350
Neighbor list builds = 144
Dangerous builds = 9

#############################
# L I N E A R  Q U E N C H  #
#############################

# Define solid atoms. This closely follows ten Wolde  Ruiz-Montero and Frenkel  Faraday Discuss  1996  104  93-110
# Compute components of the per-atom q6 vector
compute q6 all orientorder/atom degrees 1 6 components 6 nnn NULL cutoff 1.3 # compute the Q6 parameter.
                                                                             # Use all neighbours within 1.3 unit cell.

# get number of connections
compute coord_number all coord/atom orientorder q6 0.5

# An atom is solid if it has 8 or more connections (of a possible 14)
variable is_solid atom c_coord_number>=8
group solid dynamic all var is_solid    # Must be dynamic to update
dynamic group solid defined

# do clustering
compute cluster solid cluster/atom 1.3 # Create a cluster where all atoms within are solid and max 1.3 units from another member

# define chunks one chunk per cluster
compute clus_chunks solid chunk/atom c_cluster nchunk every compress yes  # Says which atoms are in which chunk

# count the size of each chunk
compute size_chunks solid property/chunk clus_chunks count


# Find the maximum entry in the vector of chunk sizes
variable max_n equal max(c_size_chunks)


# Thermo style which includes this variable
# thermo_style custom step temp pe vol v_max_n

thermo ${N}  # Print the thermo information every 100 steps
thermo 1000  

# Reset the npt fix at a lower temperature (below freezing)
fix 1  all npt temp  ${temp} ${temp}  0.1  iso  5.68  5.68  0.5  mtk yes tchain  5  pchain  5
fix 1  all npt temp  0.45 ${temp}  0.1  iso  5.68  5.68  0.5  mtk yes tchain  5  pchain  5
fix 1  all npt temp  0.45 0.45  0.1  iso  5.68  5.68  0.5  mtk yes tchain  5  pchain  5

dump dmp2 all dcd ${N} traj.dcd
dump dmp2 all dcd 1000 traj.dcd


compute msd all msd com yes
variable twopoint equal c_msd[4]/6/(step*dt+1.0e-6)
fix 9 all vector 10 c_msd[4]
variable fit equal slope(f_9)/6/(10*dt)
thermo_style custom step temp pe c_msd[4] v_twopoint v_fit v_max_n

fix 1 all npt temp 1.25 ${temp} 0.1 iso 5.68 5.68 0.5 mtk yes tchain 5 pchain 5
fix 1 all npt temp 1.25 0.45 0.1 iso 5.68 5.68 0.5 mtk yes tchain 5 pchain 5
run 5000000 # 5000000  # Run for this many steps
Neighbor list info ...
  update every 1 steps, delay 10 steps, check yes
  max neighbors/atom: 2000, page size: 100000
  master list distance cutoff = 3.8
  ghost atom cutoff = 3.8
  binsize = 1.9, bins = 8 8 8
  4 neighbor lists, perpetual/occasional/extra = 1 3 0
  (1) pair lj/cut, perpetual
      attributes: half, newton on
      pair build: half/bin/atomonly/newton
      stencil: half/bin/3d
      bin: standard
  (2) compute orientorder/atom, occasional
      attributes: full, newton on
      pair build: full/bin/atomonly
      stencil: full/bin/3d
      bin: standard
  (3) compute coord/atom, occasional
      attributes: full, newton on
      pair build: full/bin/atomonly
      stencil: full/bin/3d
      bin: standard
  (4) compute cluster/atom, occasional
      attributes: full, newton on
      pair build: full/bin/atomonly
      stencil: full/bin/3d
      bin: standard
Per MPI rank memory allocation (min/avg/max) = 9.808 | 9.814 | 9.817 Mbytes
Step Temp PotEng c_msd[4] v_twopoint v_fit v_max_n 
   12000    1.2695684   -6.8285436 3.9443045e-34 2.7391003e-36 8.3333333e+20            1 
   13000    1.2603408   -6.8909497   0.50745797 0.0032529356  0.041889975            1 
   14000    1.2466586   -6.8481218    0.9793066 0.0058292058  0.040136747            1 
   15000    1.2330305   -6.8669563    1.4772673 0.0082070402  0.040209134            2 
   16000    1.2667071   -6.8835208     1.999969  0.010416505  0.040786863            1 
   17000    1.2688819   -6.9166676    2.4900614  0.012206183  0.041395216            1 
   18000    1.2680355   -6.8538044    2.9692274  0.013746423  0.041472242            3 
   19000    1.2339611   -6.8555946    3.4350178  0.015065867  0.041237805            1 
   20000    1.2401657   -6.8556963    3.9831832  0.016596596  0.041091147            1 
   21000    1.2871809   -6.8926453    4.4356704  0.017601866  0.041102764            2 
   22000    1.2617271    -6.877517    4.9342237  0.018690241  0.041127488            2 
   23000    1.2536367   -6.8882167    5.3721298  0.019464238   0.04112722            1 
   24000    1.2511401   -6.8393909    5.8670672  0.020371761  0.040925209            2 
   25000    1.2174923   -6.8477934    6.3526095  0.021175365  0.040755618            3 
   26000    1.2689281   -6.8749471      6.81596  0.021846025  0.040685261            1 
   27000    1.2379909   -6.8607086    7.2597964  0.022406779   0.04055376            3 
   28000    1.2399696   -6.8353395    7.7020239   0.02292269  0.040382762            3 
   29000    1.2619559   -6.8696888    8.1773079  0.023498011  0.040227877            1 
   30000    1.2457888   -6.8330041    8.7242803  0.024234111  0.040127604            1 
   31000    1.2499285   -6.8819436    9.0813808  0.024412314  0.039974987       -1e+20 
   32000    1.2492071   -6.8774444    9.6223858  0.025058296  0.039931752            1 
   33000    1.2686059   -6.8745533    10.078341  0.025450356  0.039874852            1 
   34000    1.2286971   -6.8473135    10.600676   0.02598205  0.039897699            1 
   35000    1.2253029   -6.8335014     11.05586  0.026323476  0.039904851            4 
   36000    1.2419686   -6.8927786    11.508386  0.026639781   0.03988469            1 
   37000    1.2528969   -6.8441389    12.117086  0.027290733  0.039932283            2 
   38000    1.2639995    -6.886725    12.511894  0.027438364  0.039946061            1 
   39000     1.273002   -6.8398191    12.936346  0.027641766  0.039926204            2 
   40000    1.2520948     -6.94063    13.374263  0.027863047  0.039854295            1 
   41000    1.2293835   -6.9106291    13.799792  0.028048357  0.039782953            2 
   42000    1.2271482   -6.8782395    14.348471  0.028469189  0.039725935            2 
   43000    1.2454889    -6.844961    14.879542  0.028836322  0.039704132            1 
   44000    1.2347026   -6.8659364    15.322515  0.029019914  0.039702204            1 
   45000    1.2451536   -6.8583645    15.804637  0.029267845   0.03967981       -1e+20 
   46000      1.25161   -6.8196432    16.252295  0.029442563  0.039672759            1 
   47000    1.2329869   -6.9072319    16.675109  0.029565796  0.039646183            2 
   48000    1.2476812   -6.8605055    17.077485  0.029648412  0.039582434            1 
   49000    1.2485492   -6.9081778    17.421864   0.02962902   0.03951665            1 
   50000    1.2606868   -6.8571232    17.837588  0.029729313  0.039403469            1 
   51000    1.2090942   -6.8927412    18.193168  0.029727398   0.03929994            2 
   52000      1.24451    -6.880352    18.694168  0.029958603  0.039203449            1 
   53000    1.2511643   -6.8698022    19.372599   0.03046006  0.039152356            2 
   54000    1.2188795   -6.8970676    19.799955  0.030555486  0.039125116            2 
   55000    1.2304699   -6.8649037    20.295394  0.030750597  0.039097737            1 
   56000    1.2411222   -6.8605114    20.635282  0.030707264  0.039059422            1 
   57000    1.2380605   -6.8419429    20.967217  0.030653826  0.038992046            3 
   58000     1.252008   -6.8717784    21.244067  0.030523084   0.03889819            1 
   59000    1.2350639   -6.8592643    21.804876  0.030797847  0.038806167            1 
   60000    1.2326373   -6.9003195    22.235264  0.030882311  0.038714556            1 
   61000    1.2307602   -6.9029514    22.600074  0.030874418  0.038634978            1 
   62000    1.2352541   -6.8897483    23.049557  0.030980588  0.038557259            2 
   63000    1.2396862   -6.8864319    23.450533  0.031019224  0.038481823            5 
   64000    1.2176697   -6.8616418    23.921547  0.031147847  0.038408513            1 
   65000    1.2337642   -6.9637651    24.299178  0.031152792  0.038337593            2 
   66000    1.2806304   -6.8607132    24.903979  0.031444418  0.038273861            3 
   67000    1.2458467   -6.9046122    25.300898  0.031468778  0.038221231            1 
   68000    1.2374395    -6.875805       25.952  0.031803921  0.038188437            2 
   69000    1.2399581   -6.8801087    26.332164   0.03180213  0.038155473            4 
   70000    1.2252156   -6.9124525    26.589674  0.031654374  0.038114977            2 
   71000    1.2372089   -6.8379694    27.227908  0.031957638  0.038082856            3 
   72000    1.2763343   -6.8695092    27.679075  0.032035966  0.038063817            1 
   73000    1.2477127   -6.8711286      28.1198  0.032100229  0.038035593            3 
   74000    1.2303498   -6.8843507    28.554121  0.032155542  0.038021653            2 
   75000    1.2475081    -6.925142    28.922556  0.032136173  0.037999585            3 
   76000    1.2647181   -6.8754051    29.574101  0.032427742  0.037977732            2 
   77000    1.2203738   -6.8749122    30.000235  0.032467786  0.037971069            1 
   78000    1.2544405   -6.8875078    30.395031  0.032473324   0.03796028            2 
   79000    1.2282063   -6.8771098    30.744897  0.032431326  0.037944143            1 
   80000    1.2535118   -6.8546375    31.313698  0.032618436  0.037921652            1 
   81000     1.235132   -6.8577803     31.59791  0.032508138  0.037902215            2 
   82000    1.2611779    -6.883596    32.115746  0.032637953  0.037881409            1 
   83000     1.222973   -6.9111015    32.423603  0.032553818  0.037869667            2 
   84000    1.2499776   -6.8296431     32.81055  0.032550149  0.037843349            1 
   85000    1.2153331   -6.8599186    33.435083  0.032779493  0.037812067            2 
   86000     1.232764   -6.9010742    33.576085  0.032534965  0.037784238            1 
   87000    1.2363477   -6.9275691    34.045103  0.032610251  0.037756361            2 
   88000    1.2711541    -6.910829    34.672816  0.032834106  0.037733425            1 
   89000    1.2417116   -6.8794273    35.176763  0.032937044   0.03771934            2 
   90000    1.2317604   -6.8860491    35.554851  0.032921158  0.037707476            3 
   91000    1.2281371   -6.8893865    36.143446  0.033098394  0.037690964            1 
   92000     1.215881   -6.8447458    36.718134  0.033259179  0.037686121            2 
   93000    1.2295094    -6.919738    37.136476  0.033276412  0.037688963            2 
   94000    1.2130744   -6.8547482    37.747242  0.033463867  0.037694384            1 
   95000    1.2074104   -6.8768209    37.844575  0.033196995  0.037692538            2 
   96000    1.2636483    -6.847984    38.582253  0.033491539  0.037684745            1 
   97000    1.2591983   -6.8965967    38.966329  0.033476227  0.037685555            1 
   98000    1.2441976   -6.8710395    39.536343  0.033619339  0.037685912            1 
   99000    1.2227022   -6.9222844    39.926631  0.033608275  0.037685047            2 
  100000    1.2406127   -6.8640674    40.509601  0.033758001  0.037694949            1 
  101000    1.2174272   -6.8863853    41.118433    0.0339261  0.037718098            1 
  102000    1.2436981   -6.9279876    41.623753  0.034006334  0.037745009            1 
  103000    1.2254303   -6.8796637    42.201313  0.034143457  0.037774042            1 
  104000    1.2189595    -6.854294    42.678338  0.034197386  0.037803011            1 
  105000    1.2298374   -6.8859785    43.161836  0.034255425  0.037831393            2 
  106000    1.2404648   -6.8994896    43.558175  0.034243848  0.037857011            1 
  107000    1.2472156   -6.8922353    44.097753  0.034344044  0.037882786            4 
  108000     1.236729   -6.8818618    44.523264   0.03435437  0.037909451            1 
  109000     1.220848   -6.8758014    44.845211   0.03428533  0.037930185            1 
  110000    1.2298727   -6.8714355    45.448452  0.034430646  0.037948433            1 
  111000    1.2378699   -6.9167066    45.563454  0.034206797  0.037958434            2 
  112000    1.2574571   -6.8974275    46.304937  0.034453078  0.037968353            1 
  113000    1.2198124   -6.8849612    47.001118  0.034661591  0.037984917            1 
  114000    1.2462078   -6.9100586    47.467114  0.034698183  0.038007806            1 
  115000    1.2376371    -6.841518     48.04886  0.034818014  0.038033687            2 
  116000    1.2457023   -6.8956933    48.310048  0.034705494  0.038059695            2 
  117000    1.2603546   -6.8654357    48.958537  0.034870753  0.038086832            1 
  118000    1.2397806   -6.8779864     49.57836  0.035012966  0.038114372            1 
  119000    1.2260994   -6.8637049    50.117069  0.035095987  0.038145186            1 
  120000    1.2599886   -6.8565111     50.43891   0.03502702  0.038171926            2 
  121000    1.2296777    -6.881787    51.174889  0.035244414  0.038202745            2 
  122000    1.2339131   -6.8941196    51.355577  0.035078946  0.038230982            1 
  123000    1.2307003   -6.8973284     51.89599  0.035159885  0.038251473            2 
  124000    1.2354033   -6.9421754    51.894187  0.034875126  0.038269114            3 
  125000    1.2025048   -6.8951071    52.229947  0.034819965  0.038278441            1 
  126000    1.2205024   -6.9334832    52.896367   0.03498437  0.038287361            2 
  127000    1.2356049   -6.9249671    53.549636  0.035137556    0.0383049            2 
  128000    1.2224513   -6.8946474    54.230253  0.035306154  0.038325915            1 
  129000    1.2306773   -6.8893652    54.455619  0.035178048  0.038350788            3 
  130000    1.2194233   -6.9208122    55.223603  0.035399746  0.038369525            2 
  131000    1.2370229   -6.8765119    55.618896  0.035380977  0.038390891            2 
  132000    1.2496675   -6.9085437    56.077727  0.035402605   0.03840711            1 
  133000    1.2441019   -6.8862231    56.432832  0.035358917  0.038424402            1 
  134000    1.2455141   -6.9027412    56.821543   0.03533678  0.038441593            1 
  135000    1.2526252   -6.9326696     57.20695  0.035312932  0.038451464            1 
  136000    1.2505674   -6.8740179    57.631628  0.035313497  0.038455923            2 
  137000    1.2556388   -6.8731101    57.910676  0.035225472  0.038459095            2 
  138000    1.2347149   -6.8720669    58.433668  0.035286032      0.03846            2 
  139000    1.2336776   -6.9023054     58.96834  0.035352722  0.038464202            1 
  140000    1.2440133   -6.9316443    59.361901  0.035334465  0.038471254            2 
  141000    1.2431019   -6.9277252    60.099113   0.03551957  0.038480469            1 
  142000     1.226723   -6.9006048    60.684195  0.035612791  0.038494049            2 
  143000    1.2265584   -6.8881213    61.168316  0.035645872  0.038508683            1 
  144000    1.2287697   -6.8600391    61.418553  0.035543144  0.038518588            2 
  145000    1.2037356   -6.8843764    61.936296  0.035595572  0.038522799            1 
  146000    1.2225393   -6.9110579    62.288483  0.035552787  0.038526976            2 
  147000    1.2327293   -6.8765314    62.615849  0.035496513  0.038530862            2 
  148000    1.2245473   -6.8990224    62.813913  0.035368194   0.03853207            1 
  149000     1.232934   -6.8912488    63.802053  0.035683475  0.038531747            2 
  150000    1.2265077   -6.9092876    63.787427  0.035437459  0.038528478            2 
  151000    1.2165649   -6.9291376    64.024055  0.035333364  0.038522196            2 
  152000    1.2537163   -6.8865279    64.692888  0.035467592  0.038516562            1 
  153000    1.2482941   -6.8400349    65.289503  0.035560731  0.038508134            4 
  154000    1.2022574   -6.9159136    65.473197  0.035429219  0.038499415            1 
  155000    1.2204197    -6.942631    65.869172  0.035413533  0.038490313            1 
  156000    1.2311739   -6.8912523    66.595836  0.035574699  0.038485887            3 
  157000    1.2492007   -6.9129818    66.934556  0.035527896  0.038481367            1 
  158000     1.214565   -6.9014012    67.499039  0.035600759   0.03847342            1 
  159000    1.2294267   -6.8761423     67.87343  0.035573077  0.038464818            2 
  160000    1.2416774   -6.9205541    68.017613   0.03542584  0.038459011            3 
  161000    1.2282831    -6.899072    68.828367  0.035625449  0.038453496            2 
  162000    1.2377125   -6.9100434    69.059785   0.03552458   0.03844578            1 
  163000    1.2572512   -6.8784906    69.710987  0.035639564  0.038440641            4 
  164000    1.2222657   -6.9344735    70.304127  0.035723642  0.038438739            3 
  165000    1.2510187   -6.8858564    70.475896  0.035593887  0.038432624            2 
  166000    1.2344199   -6.8972628    71.082365  0.035683918  0.038426441            2 
  167000    1.2084184   -6.9113832    71.592912  0.035725006  0.038422878            1 
  168000    1.2204619    -6.975924    71.672547  0.035551859  0.038418079            2 
  169000     1.216575   -6.9234937    72.301751  0.035651751  0.038413047            2 
  170000    1.2281983   -6.8641101    72.933217  0.035751577  0.038410906            1 
  171000    1.2140298   -6.9174367    73.347044  0.035744173   0.03841042            2 
  172000    1.2071841   -6.8835712    73.594656  0.035656326  0.038409105            2 
  173000    1.2115573   -6.9000934    74.416045  0.035845879  0.038407578            3 
  174000    1.2220526   -6.9348065    74.607674  0.035731644  0.038406486            3 
  175000    1.2231184   -6.9433756    74.955627  0.035693155  0.038403355            1 
  176000    1.2260927   -6.8962121    75.317406  0.035661651  0.038396259            2 
  177000    1.2209209    -6.930305     75.31637  0.035459685  0.038386332            1 
  178000    1.2035111   -6.9130041    76.115659  0.035634672  0.038373919            3 
  179000    1.2279304   -6.9242383    76.305614  0.035524029  0.038363401            5 
  180000    1.2331657   -6.8917175    77.002773  0.035649432  0.038353494            1 
  181000    1.1909424   -6.9388522    76.984918  0.035444253  0.038340433            1 
  182000    1.2238718   -6.9319325    77.793656  0.035619806    0.0383251            3 
  183000    1.2246243   -6.9740232    77.640623  0.035355475  0.038306467            1 
  184000    1.2187269   -6.9072694    78.546132  0.035573429  0.038288186            1 
  185000    1.2172258   -6.9408825    78.952717  0.035564287  0.038271914            1 
  186000    1.2067943   -6.9195074    79.220296  0.035492964   0.03825588            2 
  187000    1.2096712   -6.9067075    80.115993  0.035702314  0.038243231            2 
  188000    1.2531858   -6.9142201    80.402904  0.035639585  0.038232026            3 
  189000    1.2167778   -6.9155268    80.876125  0.035659667  0.038218869            1 
  190000     1.237702    -6.870791    81.270339  0.035644886  0.038206128            2 
  191000    1.2413955    -6.969832    81.541783  0.035576694  0.038194359            1 
  192000    1.2236277   -6.9159114    82.001916  0.035591109  0.038183001            3 
  193000    1.1934233   -6.8890914     82.65336  0.035687979  0.038174807            1 
  194000    1.1930362    -6.925774    83.371818  0.035812636  0.038168894            1 
  195000    1.2574254   -6.9316554    83.668405  0.035755728  0.038164446            2 
  196000    1.2327417   -6.9317363    84.008974  0.035718101   0.03815901            2 
  197000    1.2121645    -6.897139    84.979769  0.035947449  0.038153365            1 
  198000    1.2053668   -6.9113896    84.837558  0.035706043  0.038147088            1 
  199000    1.2102436   -6.9094738    85.305763  0.035722681  0.038139441            1 
  200000    1.2438444   -6.9043888    85.755443  0.035731434  0.038130048            2 
  201000    1.2143034   -6.9225618    85.636574  0.035504384  0.038116637            4 
  202000    1.1919295   -6.8994814    86.576291  0.035716291   0.03810282            2 
  203000    1.2292659   -6.9004983      86.4685    0.0354961  0.038087492            2 
  204000    1.2140952   -6.8745312    87.120527  0.035588451   0.03807224            1 
  205000    1.2242845   -6.8892252    87.411647   0.03553319  0.038056195            1 
  206000    1.2279448   -6.8682863    88.160386  0.035663586  0.038041062            2 
  207000    1.1989933   -6.8777801    88.749842    0.0357286  0.038028435            1 
  208000    1.1997614   -6.8886426    88.852242  0.035597853  0.038015629            1 
  209000    1.2097185   -6.9181962    89.601252  0.035726177  0.038003316            1 
  210000    1.2168017   -6.9120481    89.660204  0.035579446  0.037988851            1 
  211000    1.2318945   -6.9339858    89.803831  0.035467548  0.037973255            2 
  212000    1.1961344   -6.8995051    90.738766  0.035667754  0.037959106            3 
  213000    1.2120938   -6.9082687     90.83098  0.035536377  0.037946421            1 
  214000    1.2180449   -6.9141792    91.744848  0.035726187  0.037932054            1 
  215000    1.2156944   -6.9852777    91.868776  0.035608053  0.037920018            1 
  216000    1.2418134   -6.9537083    92.290664  0.035605966  0.037907276            1 
  217000    1.2004759   -6.9439274    92.909713  0.035679613  0.037895946            1 
  218000    1.2095405   -6.9391727      93.0582  0.035572707  0.037885268            3 
  219000    1.2106546   -6.9364967    93.617656  0.035623157   0.03787382            2 
  220000    1.2251224   -6.9173788    94.101548  0.035644526  0.037859039            1 
  221000    1.2047852   -6.8637638    94.135174  0.035495918  0.037842697            2 
  222000    1.2294246    -6.913476    94.711973  0.035552542  0.037827444            2 
  223000    1.1952232   -6.8761578    95.152218   0.03555763  0.037811269            2 
  224000    1.1907511   -6.9333644    95.708494  0.035605838  0.037794867            1 
  225000    1.2186084   -6.8979226    96.178413  0.035621635  0.037779646            1 
  226000    1.2159112    -6.919858    96.370127  0.035534708  0.037765168            2 
  227000    1.1963548   -6.9577714    96.606944  0.035465104  0.037751552            1 
  228000     1.227729   -6.9722963    96.923746  0.035425346   0.03773437            1 
  229000    1.2371587    -6.957338    97.517172  0.035486598  0.037720401            1 
  230000    1.2029545   -6.9147112    98.357884  0.035636914  0.037706557            1 
  231000     1.212159   -6.9454615    98.335625  0.035474612  0.037691748            1 
  232000    1.2207853   -6.9988433     97.87068  0.035154698  0.037674184            1 
  233000    1.2084135   -6.9451193    99.041004   0.03542239  0.037657854            1 
  234000    1.2163916   -6.9128405    99.241627   0.03534246  0.037642543            2 
  235000    1.2107005   -6.9074747    100.22709  0.035541523  0.037626804            1 
  236000    1.2055845   -6.9377419    100.51006   0.03549084    0.0376127            2 
  237000     1.208567   -6.9209326    101.40339    0.0356552  0.037600046            2 
  238000     1.231797   -6.8828843    101.59076  0.035570993  0.037589027            2 
  239000     1.189705   -6.9147048    101.97551  0.035556313  0.037578544            1 
  240000    1.2201962   -6.9513779    102.20375  0.035487413  0.037565126            4 
  241000    1.2173116   -6.9276961    102.45873  0.035428329  0.037551279            1 
  242000    1.2033866   -6.9140449    103.07889  0.035495485  0.037536909            1 
  243000    1.2277508   -6.9753318    103.48261  0.035487862  0.037522605            2 
  244000     1.211547   -6.9083552    103.92307  0.035492852  0.037511419            2 
  245000    1.2289558   -6.9271301    104.12669  0.035417243  0.037497441            3 
  246000    1.2003067   -6.9218718     104.3512  0.035349323  0.037482146            1 
  247000     1.224407   -6.9017305    104.80427  0.035359065  0.037464978            3 
  248000     1.200514   -6.9545326    104.42726  0.035089806  0.037446115            1 
  249000    1.2085428   -6.9212123    105.36622  0.035263126  0.037427579            2 
  250000    1.2064857   -6.9481359     105.6448  0.035214933  0.037409627            3 
  251000    1.1765881   -6.9264363    106.38731  0.035321151  0.037391848            1 
  252000    1.2208146   -6.9337461    107.01693  0.035389197  0.037375915            1 
  253000    1.1823042   -6.9324699    107.01213  0.035247738  0.037359828            2 
  254000    1.2211266   -6.9693664    107.92016  0.035406877  0.037344523            1 
  255000    1.1939559   -6.9069279    108.55833   0.03547658  0.037330688            1 
  256000    1.2041816    -6.972718    108.76169  0.035404197  0.037317467            2 
  257000    1.1976808   -6.9469213    108.99346  0.035341589  0.037305398            4 
  258000    1.2139879   -6.9310784    109.80668  0.035467275  0.037293227            1 
  259000    1.2194755   -6.9318429     110.3602   0.03550843  0.037281557            3 
  260000    1.1963388   -6.9268787    110.68714  0.035476647  0.037271095            1 
  261000    1.2037545   -6.9501844    110.99067  0.035437635  0.037259997            2 
  262000    1.1979212   -6.9340936    111.47596  0.035456729  0.037249871            2 
  263000    1.2112131   -6.9428056      112.037  0.035499683    0.0372406            1 
  264000    1.2221893   -6.9818642    112.64337  0.035556619   0.03723092            2 
  265000    1.2012039   -6.9513379    113.59636  0.035722125  0.037224049            1 
  266000    1.2051359   -6.9460547    113.80099   0.03565194  0.037218779            1 
  267000    1.2361741   -6.9688489     114.6204  0.035774158  0.037213909            1 
  268000    1.2132962   -6.9028749    115.62046  0.035951636  0.037209093            1 
  269000    1.2285293   -6.9309617    115.98774  0.035931766  0.037207456            1 
  270000     1.203138   -6.9343926    116.06988  0.035824037  0.037206317            1 
  271000    1.2099877   -6.9460082    116.72086  0.035892025  0.037206075            2 
  272000    1.2131605   -6.9466707    117.50001  0.035998778  0.037206006            1 
  273000    1.2281107   -6.9230738    117.83284  0.035968511  0.037205959            4 
  274000    1.2214197   -6.9566672    118.26327  0.035968147  0.037205902            1 
  275000    1.1987335   -6.9496299    118.57672  0.035932338  0.037206264            1 
  276000    1.2284818   -6.9655372     118.9084  0.035902295   0.03720533            2 
  277000    1.2167346    -6.906303    120.02926  0.036109885  0.037205955            2 
  278000    1.2020931   -6.9687574    119.88761  0.035937532  0.037204806            2 
  279000      1.22222   -6.9401779    120.41931  0.035967535  0.037204376            1 
  280000    1.2100675   -6.9637945    120.90762  0.035984409  0.037203525            1 
  281000    1.2220989   -6.9776135     121.3027  0.035973516  0.037202696            2 
  282000    1.2184597   -6.9337421    121.71538  0.035967901  0.037203038            2 
  283000    1.2189982   -6.9594203    122.26059  0.036001351  0.037201291            1 
  284000    1.2084075   -6.9896156    122.28337  0.035881271  0.037199099            1 
  285000    1.1961975   -6.9490484    123.21827  0.036028733  0.037199217            2 
  286000    1.1961388   -6.9764551     123.4361  0.035966231  0.037198072            1 
  287000    1.2136967   -6.9202538    123.52513  0.035866762  0.037197203            2 
  288000    1.1765754   -6.9705646    123.85077  0.035836449  0.037195046            1 
  289000     1.246566   -6.9565588     124.6031  0.035929383  0.037192935            1 
  290000     1.193278   -6.9202714    125.32064  0.036011679  0.037190714            2 
  291000    1.1918554    -6.908081    125.06494  0.035814702  0.037188484            1 
  292000    1.2065383   -6.9868437    125.17086  0.035722276  0.037183917            2 
  293000    1.1952174   -6.9313279     125.5827  0.035717492  0.037179122            2 
  294000    1.2207081   -6.9287522    126.67674  0.035906107  0.037174443            1 
  295000    1.1774549   -6.9723595    126.16671  0.035640315  0.037168734            1 
  296000    1.1993364   -6.9279349    126.91108  0.035729471  0.037162402            1 
  297000    1.2021377   -7.0265734    126.78151  0.035572813  0.037154489            1 
  298000    1.2326341   -6.9691233    127.24243  0.035582335  0.037144611            1 
  299000    1.2277017   -6.9673087    128.03473   0.03568415  0.037135589            2 
  300000    1.2179362   -6.9850267    128.62525  0.035729236  0.037127999            1 
  301000    1.2197619   -6.9464396    128.83857  0.035669594   0.03712083            1 
  302000    1.1897989   -6.9524827    128.88821  0.035565178  0.037113888            2 
  303000    1.1945622    -6.962704    129.59029  0.035640893  0.037106465            1 
  304000    1.2095271   -7.0014613    129.91129  0.035611647  0.037099022            1 
  305000    1.1459231   -6.9634509    130.48406  0.035651381  0.037092266            3 
  306000    1.1780626   -6.9507881     131.3543  0.035771869  0.037087112            3 
  307000    1.1860395   -6.9155127    131.84622  0.035788875  0.037082739            2 
  308000    1.1869353   -6.9736513    132.06546  0.035731996  0.037077801            2 
  309000    1.2336346   -6.8998976    132.70586  0.035789068  0.037070863            2 
  310000     1.219501   -6.9568256    132.25921   0.03555355  0.037063443            1 
  311000    1.2078753   -6.9857444    132.77337  0.035577001  0.037055772            2 
  312000      1.20959   -6.9033806    134.03035  0.035798703  0.037048252            1 
  313000    1.2134643   -6.9596114    134.31337  0.035759682  0.037040842            1 
  314000    1.2217163   -6.9499367    134.63831  0.035732035  0.037033244            1 
  315000    1.1955083   -6.9650464    134.64967  0.035621605  0.037025807            2 
  316000    1.1947842    -6.982348    135.24432  0.035665697  0.037019439            1 
  317000     1.197167   -6.9308106    135.32197    0.0355736  0.037012396            1 
  318000    1.2090511   -6.9949308    135.75869  0.035576176   0.03700512            2 
  319000    1.1772138    -6.966725    136.89958  0.035762689   0.03699739            2 
  320000     1.242005   -6.9575622    137.24285  0.035740326  0.036990619            1 
  321000    1.2035828    -6.872949    137.59957  0.035721591  0.036985047            1 
  322000    1.2020562   -6.9492555    137.67909  0.035631234   0.03697928            1 
  323000    1.1975671   -6.9488414    138.46758  0.035724349  0.036974305            2 
  324000     1.206379   -6.9146402    139.05409   0.03576494  0.036968345            1 
  325000    1.1838104   -6.9652691    139.13241  0.035674978  0.036963219            1 
  326000    1.1883864   -7.0071336    139.30819  0.035610477  0.036957513            3 
  327000    1.2038925   -6.9692852    139.79796  0.035626392  0.036950232            1 
  328000    1.1958095   -6.9659098    140.15806  0.035609263  0.036942461            1 
  329000    1.1828686   -6.9244497    140.91723   0.03569332  0.036936125            2 
  330000    1.1704197   -6.9399168    141.44467   0.03571835  0.036928544            1 
  331000    1.2174352   -7.0343297    140.75055  0.035435686  0.036920576            2 
  332000    1.2046429   -6.9674739    141.37473  0.035485624  0.036911769            3 
  333000    1.1926836   -6.9777275    142.23921  0.035595398  0.036903668            1 
  334000    1.2080069   -6.9768493    141.87461  0.035397858  0.036894885            1 
  335000    1.1743115   -6.9782281    142.44062   0.03543299  0.036885184            1 
  336000    1.1874374    -7.003822    142.92682  0.035448121  0.036875493            1 
  337000    1.2005861   -6.9523438    143.08068   0.03538098  0.036864513            2 
  338000    1.2174487   -6.9359613    143.18909  0.035303031  0.036852983            1 
  339000    1.1783005   -6.9476837    144.20495  0.035448611  0.036840694            1 
  340000    1.1929023   -6.9464057    144.21203  0.035346086   0.03682883            1 
  341000    1.1787673   -6.9944732    144.23115  0.035247104  0.036816323            2 
  342000    1.1970637     -6.94469    145.02456  0.035337367  0.036803529            1 
  343000    1.2094276   -6.9735173    145.66653  0.035390313  0.036793294            2 
  344000     1.184369   -6.9403888    145.78416   0.03531593   0.03678167            1 
  345000     1.195281   -6.9835378    146.52049  0.035391423  0.036770062            1 
  346000    1.2099187   -6.9820456    146.30946  0.035238308  0.036758902            1 
  347000    1.2164092   -6.9503317    147.03512  0.035311028  0.036748402            2 
  348000     1.194084   -6.9677234    147.45538  0.035310197  0.036737948            1 
  349000    1.1879844   -6.9409407    148.32737  0.035417231  0.036727539            2 
  350000    1.1878281   -6.9677524    148.22389  0.035291401  0.036716851            2 
  351000    1.1964577   -6.9743459    148.37393  0.035226479  0.036706777            1 
  352000    1.2047748     -6.96338    148.81996  0.035231998  0.036696869            1 
  353000    1.1721468   -6.9759252    149.32424  0.035251236  0.036685427            2 
  354000    1.1834754    -6.942309    149.37204  0.035162909  0.036673256            2 
  355000    1.1902197   -6.9833941    150.11296  0.035237784  0.036661941            1 
  356000    1.1949983    -7.004352    150.22427  0.035164858  0.036649697            2 
  357000    1.2102121   -6.9749268    151.13005   0.03527779  0.036637344            3 
  358000    1.1978277   -7.0028634    150.87589  0.035120086  0.036624911            1 
  359000    1.1700244   -6.9952722    151.30958   0.03512293  0.036612243            1 
  360000    1.2010689   -6.9559481    151.72571  0.035121691  0.036598747            1 
  361000    1.1796799   -6.9646853    151.63298  0.035002997  0.036585182            1 
  362000    1.2242124   -6.9679094    151.62274  0.034903945  0.036570514            2 
  363000    1.1878533   -6.9959339    152.41044  0.034988622  0.036556201            1 
  364000    1.1825762   -6.9789155    152.74048  0.034968058  0.036541438            1 
  365000    1.2024738   -6.9677761    153.42439    0.0350284  0.036527106            1 
  366000    1.2026528   -6.9973783    153.52553  0.034955723  0.036513226            1 
  367000    1.1881042   -6.9680937    153.77498  0.034917116  0.036499787            1 
  368000    1.1820956   -7.0125947    153.93456  0.034858368  0.036485446            2 
  369000    1.1951668   -6.9411424    155.82761   0.03519142  0.036471936            1 
  370000    1.2101206    -7.018824     155.1014  0.034932748  0.036457866            1 
  371000    1.1910096   -6.9584639    155.38572  0.034902454  0.036443846            3 
  372000    1.1982413   -6.9481824    156.12674  0.034974629  0.036429317            2 
  373000    1.2019367   -7.0001009    156.26856  0.034912546  0.036414623            2 
  374000    1.2275261   -6.9989477     156.4527  0.034860227   0.03639982            2 
  375000    1.1721123   -6.9772471    156.69233  0.034820519  0.036385236            1 
  376000    1.2016822   -6.9934661    157.42189  0.034889603  0.036370264            2 
  377000    1.1808554   -6.9550951    157.96138  0.034916308  0.036355623            2 
  378000    1.1845488   -7.0102023    157.99356  0.034831032  0.036341796            2 
  379000     1.183843   -6.9491111    158.89118  0.034936494  0.036329315            1 
  380000    1.1893883   -6.9856864    158.99083   0.03486641  0.036315488            1 
  381000    1.1854633   -6.9456056    159.09247  0.034797129  0.036300055            1 
  382000    1.2180288   -6.9453262    159.47839  0.034790225  0.036285889            2 
  383000     1.208127   -6.9557056    160.40468   0.03490093  0.036272733            2 
  384000    1.2000587    -7.007193    161.17926  0.034978137  0.036260508            2 
  385000    1.2044196   -7.0245174    160.78469   0.03480188  0.036248376            1 
  386000    1.2025272   -6.9831194    161.94288  0.034961762  0.036236076            1 
  387000    1.2016351   -6.9735287     162.2342  0.034934152  0.036223808            2 
  388000    1.1778686   -6.9478576     162.2488   0.03484725  0.036211149            4 
  389000    1.1718032   -7.0414576    161.86727  0.034675937  0.036197608            1 
  390000    1.1900921   -6.9826309    163.48249  0.034932155  0.036184088            1 
  391000    1.1751774   -6.9603115    163.46058  0.034838146  0.036170675            1 
  392000    1.1808273    -6.936532    165.18304  0.035115443  0.036158791            2 
  393000    1.2037269   -6.9568628    165.00991  0.034989378  0.036147713            1 
  394000    1.2022852   -6.9767861    165.15236  0.034930703  0.036137164            2 
  395000    1.1857554   -6.9375487    165.72777  0.034963665   0.03612593            1 
  396000    1.2012301   -7.0208493    165.22535  0.034769645  0.036114946            1 
  397000    1.1964198   -7.0061334    166.11955  0.034869764    0.0361039            2 
  398000    1.1673272    -6.997827    166.89821  0.034945186  0.036093477            2 
  399000    1.1896213   -6.9612251    167.60701  0.035005642  0.036082762            2 
  400000    1.1960231   -7.0142769    166.59449  0.034707185  0.036071468            2 
  401000    1.1864921   -6.9301669    168.17447  0.034948976  0.036059675            1 
  402000    1.1616555   -7.0064706    167.52459   0.03472732  0.036047868            3 
  403000    1.2056564   -7.0149045    167.98786  0.034736944   0.03603636            3 
  404000    1.1771819    -6.954421    168.15932  0.034686329  0.036024538            2 
  405000    1.1861571   -7.0210467    168.45199  0.034660904  0.036012774            1 
  406000    1.2193935    -6.956251    169.11071  0.034710737  0.036000772            2 
  407000    1.1758253   -6.9876588    169.63938  0.034733697  0.035988251            1 
  408000    1.1835436   -7.0084126      169.837  0.034688929  0.035976554            2 
  409000    1.1657892   -6.9969528    170.52947  0.034745205  0.035965143            2 
  410000    1.1732718   -6.9852282    171.52166  0.034862125  0.035953573            2 
  411000     1.199476   -6.9614691    171.87459  0.034848862  0.035942633            1 
  412000     1.185568   -7.0254509    172.03693  0.034797113  0.035931598            2 
  413000    1.2085986   -7.0182114    172.46932  0.034800106   0.03592181            1 
  414000    1.1649473   -7.0359886     173.1206  0.034847141  0.035913218            2 
  415000    1.1772219   -7.0105418    174.08363  0.034956553  0.035904791            2 
  416000    1.1483735   -6.9753334      173.819  0.034819512  0.035895505            1 
  417000    1.1853667   -6.9369256    174.71596   0.03491526  0.035886694            1 
  418000    1.1992154   -6.9831377    174.87737  0.034863909  0.035877719            2 
  419000    1.1844316   -7.0217673    175.38133  0.034880934  0.035869259            1 
  420000     1.182432   -6.9905848    175.31604  0.034784928  0.035859785            1 
  421000    1.1760959   -6.9712152    175.29445   0.03469803  0.035849786            2 
  422000    1.1942009   -7.0092398    175.67873  0.034691693  0.035838584            3 
  423000    1.1839931   -7.0268504    175.91884  0.034656982  0.035828225            4 
  424000     1.199573   -7.0045621    176.59195  0.034707538  0.035818305            5 
  425000    1.1918284   -6.9711264    177.33853  0.034772261  0.035809345            5 
  426000    1.1829603    -6.976042    177.85562  0.034791787   0.03579971            3 
  427000    1.1860238   -7.0016223     178.0355  0.034745414  0.035790561            1 
  428000     1.171973   -7.0028034    179.03019  0.034857903  0.035781426            1 
  429000    1.1926756   -6.9918021    179.10745  0.034791658  0.035773297            2 
  430000    1.1709983   -6.9618132    180.17114  0.034916887  0.035765891            1 
  431000    1.1561407   -6.9697723     180.4231   0.03488459  0.035758446            1 
  432000    1.1914203   -6.9859295    180.89501  0.034894871  0.035750572            1 
  433000    1.1731845   -6.9916806    180.74661  0.034785721  0.035742741            2 
  434000    1.1728157   -6.9783788    181.38049  0.034827283  0.035736014            2 
  435000    1.1789562   -7.0082871    182.16738  0.034897965  0.035729481            2 
  436000     1.177975   -6.9864011    183.10543  0.034997216  0.035722995            2 
  437000    1.1822726   -6.9754275    183.67853  0.035026418  0.035716416            1 
  438000     1.168416   -7.0016649    183.84931   0.03497894   0.03571075            1 
  439000     1.182281   -6.9945929    183.75709  0.034881756  0.035703966            2 
  440000    1.2009865   -7.0056225    184.53253  0.034949342  0.035697488            1 
  441000    1.1854967   -7.0396781    184.89968  0.034939471  0.035690189            1 
  442000    1.2128601   -7.0102648    184.46432  0.034778342    0.0356827            1 
  443000    1.1842206   -7.0291786    184.59012  0.034723499  0.035675006            1 
  444000    1.1919049   -7.0137756    185.61594  0.034837826  0.035667243            1 
  445000    1.2014684   -6.9823262    185.86106  0.034805441  0.035659705            1 
  446000    1.1889259   -6.9854131    186.44815  0.034837098  0.035652777            1 
  447000    1.1940879   -6.9747818    187.08286   0.03487749  0.035645802            3 
  448000    1.1760603   -6.9888549    187.55085  0.034886691  0.035639328            2 
  449000    1.1978769   -6.9787282    187.57568  0.034813601   0.03563155            1 
  450000    1.1889703   -7.0347501    187.32426  0.034689677  0.035624131            1 
  451000    1.1763575   -7.0355835    187.99373  0.034736462  0.035617337            2 
  452000    1.1862553   -6.9934908    188.88839  0.034824555   0.03561067            1 
  453000    1.1668164   -7.0294848    189.05112  0.034777616  0.035603896            1 
  454000    1.1866797   -6.9851985    189.57217  0.034796653  0.035597095            1 
  455000    1.1894114   -7.0021456    190.14995  0.034825999   0.03559069            2 
  456000    1.1502043   -7.0102243    190.96797  0.034899117  0.035583609            1 
  457000    1.1657187   -7.0049959     191.1876  0.034862801  0.035577063            1 
  458000    1.1670795   -7.0219129    191.39655  0.034824699  0.035570632            3 
  459000    1.1602872   -6.9750669    191.91863  0.034843614  0.035564599            1 
  460000    1.1816086   -6.9628827    192.39874  0.034854843  0.035558485            1 
  461000     1.170551   -6.9802086    192.73728  0.034840433  0.035551896            2 
  462000    1.1714278    -6.982957    192.95378  0.034804073  0.035546029            3 
  463000    1.1840665   -7.0191525    193.91247  0.034901452  0.035540356            3 
  464000    1.1903201   -7.0139677    193.90708  0.034825266  0.035534714            1 
  465000    1.1868587   -6.9965848    194.47498  0.034852146  0.035529281            1 
  466000    1.1889893    -7.015101    194.81783  0.034838668   0.03552303            1 
  467000    1.1923496    -7.017286    195.94561  0.034965313  0.035517828            1 
  468000    1.1842572   -7.0282842    196.08501  0.034915422  0.035513713            2 
  469000    1.2014279   -7.0187445    196.97421   0.03499897  0.035509424            2 
  470000    1.1983301   -7.0123732    197.05499  0.034938827  0.035505115            2 
  471000     1.161503   -7.0471232     197.2814  0.034904706  0.035500337            1 
  472000    1.1645324   -7.0339397       197.68   0.03490113  0.035497095            1 
  473000    1.1790934   -7.0102125    198.43126    0.0349597  0.035492887            2 
  474000    1.1752652   -6.9998075    198.32509   0.03486728  0.035488933            1 
  475000    1.1546012   -7.0024444    199.49818  0.034999681  0.035485472            1 
  476000    1.1676207   -7.0066473    199.47023  0.034921259  0.035482354            2 
  477000    1.2157926   -7.0165886    199.95136  0.034932103  0.035479228            1 
  478000    1.1799231   -7.0504265    200.23457  0.034908397  0.035475933            5 
  479000    1.1810401   -7.0356441    200.35424  0.034856339  0.035472017            3 
  480000    1.1754664   -7.0187096    201.15345  0.034922473  0.035467588            1 
  481000    1.1653346   -7.0410444    201.08536  0.034838073  0.035463415            1 
  482000    1.1659998   -7.0199606    201.18739  0.034783435  0.035458579            3 
  483000    1.2089757    -7.029437    202.73819  0.034978983  0.035454144            1 
  484000    1.1622058   -6.9991275     202.6426  0.034890255  0.035450103            2 
  485000    1.1510925   -7.0031663    203.89424  0.035033375  0.035446017            2 
  486000    1.1647209   -6.9875506    204.62412   0.03508644  0.035442127            1 
  487000     1.160993   -7.0285127    204.20616  0.034942874  0.035438257            2 
  488000    1.1957622   -6.9892639    204.55808  0.034931365    0.0354344            2 
  489000     1.181165   -7.0184971    204.74811  0.034892317  0.035430408            2 
  490000    1.1829056   -7.0484999    204.60974  0.034797575  0.035426368            2 
  491000    1.1712611   -6.9940296    206.16282  0.034990295   0.03542171            1 
  492000    1.1644175   -6.9907725    206.49537  0.034975503  0.035418113            1 
  493000    1.2008157   -7.0048949    207.14614  0.035014561  0.035415351            1 
  494000    1.1689779   -6.9687453    207.26309   0.03496341  0.035411546            2 
  495000     1.174277   -6.9560007    207.64356  0.034956828  0.035408309            2 
  496000    1.1821428   -7.0354896    207.87144  0.034924638  0.035405007            1 
  497000     1.185864   -7.0010822    209.08696  0.035058175  0.035401695            1 
  498000    1.1862141   -7.0199111    208.73383  0.034928686  0.035399493            2 
  499000    1.2012661   -7.0336394    209.35163  0.034961862  0.035395796            1 
  500000    1.1531535   -7.0033619    209.99906  0.034999844  0.035392339            3 
  501000    1.1852834   -7.0208719    209.94335  0.034920716  0.035388583            2 
  502000    1.1862081   -6.9875174     209.9425  0.034851012  0.035384597            1 
  503000    1.1864695   -7.0151073    210.37522  0.034853415  0.035381495            4 
  504000    1.1568231   -7.0138673    210.94854  0.034879058  0.035378261            3 
  505000    1.2042026   -7.0008855    212.08548  0.034997603  0.035375119            3 
  506000    1.1813035   -7.0549975    211.53447  0.034837692  0.035372032            4 
  507000    1.1694358   -7.0203897    212.60339  0.034944673  0.035368846            1 
  508000    1.1687891   -7.0356456    212.50451  0.034859664   0.03536552            1 
  509000    1.1836287   -7.0435765    212.32552  0.034761872   0.03536122            2 
  510000    1.1551667   -7.0061671    212.29561  0.034688825   0.03535687            1 
  511000    1.1778051   -7.0174688    213.19739  0.034768002  0.035352215            3 
  512000    1.1890441   -7.0202506    213.49791  0.034749009  0.035346781            1 
  513000    1.1731779   -7.0395823    213.70909  0.034715577  0.035342304            1 
  514000    1.1883184   -7.0438336    214.36617  0.034754567  0.035337107            1 
  515000    1.1718786   -7.0205653    214.80238  0.034757666  0.035332605            1 
  516000    1.1686974    -7.002534    215.06643  0.034732951  0.035327536            2 
  517000    1.1878276   -7.0109824    215.25305   0.03469585  0.035322686            1 
  518000    1.1894206   -6.9979957    216.09639  0.034764542  0.035317775            4 
  519000    1.1607416   -7.0272711      216.541  0.034768947  0.035312495            4 
  520000    1.1939245   -7.0839738    216.42778   0.03468394  0.035307515            4 
  521000    1.1612788   -7.0473712    216.92845  0.034697449  0.035302678            2 
  522000    1.1789947   -7.0566055    217.34832  0.034698008  0.035297968            1 
  523000     1.175885   -7.0328151    217.80047  0.034703707  0.035292649            1 
  524000    1.1476757   -7.0307264     218.5413  0.034755295  0.035287705            1 
  525000    1.1465534   -7.0289273    218.47517  0.034678598  0.035282611            2 
  526000    1.1830556   -7.0326242    219.36155  0.034753097  0.035278054            1 
  527000     1.182651   -6.9981922    219.37727  0.034689638  0.035273113            1 
  528000    1.1723682   -7.0254329    220.97811  0.034876595  0.035268555            2 
  529000    1.1749009   -7.0352194    219.77729  0.034621501   0.03526398            1 
  530000    1.1650281   -7.0270529    220.77451  0.034712974  0.035259468            2 
  531000    1.1681755    -7.083721    221.72475  0.034796728  0.035255011            2 
  532000    1.1686516   -7.0363329    223.07053  0.034942126  0.035251622            1 
  533000    1.2004557   -7.0630137    222.81538  0.034836677  0.035248822            1 
  534000    1.1672665    -7.051277    223.45145  0.034870701  0.035245899            2 
  535000    1.1848939   -7.0545362    224.00331  0.034891482  0.035243139            3 
  536000    1.1796853   -6.9899081    224.29266  0.034871371   0.03524002            2 
  537000    1.1586858   -7.0254652    223.99964  0.034760962  0.035236908            2 
  538000     1.163143   -7.0579248    223.33322  0.034593126  0.035232951            1 
  539000    1.1446547   -7.0664439    223.99741  0.034631634  0.035228287            1 
  540000    1.1673557   -7.0308626    224.92818  0.034711139  0.035223861            1 
  541000    1.1619137   -7.0020935    225.57237  0.034746207  0.035219839            1 
  542000    1.1653358   -7.0412764    225.26243  0.034634444  0.035215016            1 
  543000    1.1859551   -7.0045779    225.92543  0.034672412  0.035210829            1 
  544000    1.1639957   -7.0204437    226.95431  0.034766285  0.035206171            3 
  545000    1.1552083   -7.0460267    227.02476  0.034713266  0.035201338            1 
  546000     1.177627   -7.0318639    226.53219  0.034574511  0.035196049            1 
  547000     1.200289   -7.0405894    227.96865  0.034730142  0.035191603            3 
  548000    1.1636241   -7.0130678     227.4824  0.034592823  0.035186649            1 
  549000    1.1584813   -7.0618535    227.73263  0.034567794  0.035181744            1 
  550000    1.1534652   -7.0396607    228.74485   0.03465831  0.035176613            3 
  551000    1.1545224   -7.0658659    228.96219   0.03462828  0.035171159            2 
  552000    1.1739796   -7.0614803     228.2842  0.034463195  0.035165697            2 
  553000    1.1375164   -7.0102362    229.52543  0.034587918  0.035160287            2 
  554000    1.1681664   -7.0296004     230.6603  0.034696195  0.035154999            3 
  555000    1.1611539    -7.048531    230.51716  0.034612187  0.035150027            1 
  556000    1.1528601   -7.0746984    230.36223  0.034526713  0.035144934            2 
  557000    1.1622088    -7.051696    231.48203   0.03463226  0.035139296            2 
  558000    1.1947483   -7.0374383     231.5322  0.034577688  0.035133826            2 
  559000     1.151204   -6.9911849    232.35608  0.034638652  0.035129061            2 
  560000    1.1473143   -7.0423402    232.24492  0.034560256  0.035124083            1 
  561000    1.1763928   -7.0511913    232.19171  0.034490748  0.035119192            1 
  562000    1.1592104   -7.0666433    233.15565  0.034572309  0.035114504            2 
  563000    1.1659712   -7.0423342    234.59393  0.034723791  0.035109869            1 
  564000    1.1598493    -7.061101    234.06307  0.034583786  0.035105541            1 
  565000    1.1524719   -7.0698786    234.59034  0.034600345  0.035100916            2 
  566000    1.1987812   -7.0379953    234.01866  0.034455044  0.035095572            2 
  567000    1.1542374   -7.0412986    233.91177  0.034378567  0.035089592            2 
  568000    1.1276924   -7.0642083    234.35356  0.034382858  0.035083364            2 
  569000    1.1760563   -7.0570418    235.61515  0.034507198  0.035077108            2 
  570000    1.1458745    -6.994151    235.83564  0.034478894  0.035070774            2 
  571000    1.1528038   -7.0563926    235.34929  0.034347532  0.035064212            1 
  572000    1.1616177   -7.0079398    236.67286  0.034480312  0.035057661            1 
  573000    1.1735751   -7.0755971    236.66252  0.034418632  0.035050965            1 
  574000    1.1581192   -7.0875645    236.86506  0.034388076  0.035043916            3 
  575000    1.1588859   -7.0205075    236.94253  0.034339497  0.035037448            1 
  576000    1.1789875   -7.0056532    238.25909  0.034470355  0.035030999            2 
  577000    1.1797391   -7.0490741    237.42675  0.034290403  0.035023762            2 
  578000    1.1640182   -7.0342892    237.61256  0.034257865  0.035016675            2 
  579000    1.1846781   -7.0444797    238.43895  0.034317638  0.035009467            2 
  580000    1.1492494   -7.0424542     237.7809  0.034163922  0.035001783            1 
  581000    1.1726774   -7.0682782    239.42806  0.034341374  0.034994269            1 
  582000     1.159794   -7.0017536    239.69228    0.0343202  0.034986915            1 
  583000    1.1475109   -7.0524187     238.8231  0.034137092  0.034978988            2 
  584000    1.1733752   -7.0406247     240.5732  0.034328367  0.034971259            1 
  585000    1.1615521   -7.0595934    240.79555  0.034301361  0.034964331            1 
  586000    1.1859554    -7.052528    241.40155  0.034329004  0.034957567       -1e+20 
  587000     1.183081     -7.02842    242.45892   0.03442063  0.034951539            2 
  588000    1.1675613   -7.0988254    241.85909  0.034277082  0.034944785            2 
  589000    1.1731818   -7.0468979    242.35216  0.034288647  0.034937945            1 
  590000    1.1607773   -7.0369346    242.08323  0.034192547  0.034931366            7 
  591000    1.1619246   -7.0729909    242.89238  0.034248785  0.034924621            1 
  592000    1.1703345   -7.0449366    243.61687  0.034292916  0.034918372            1 
  593000    1.1487192    -7.081145    244.33839  0.034336479  0.034911581            1 
  594000    1.1512468    -7.036168    244.37537  0.034283863  0.034905107            2 
  595000    1.1308539   -7.0728235    244.31078  0.034217196  0.034898595            1 
  596000    1.1912384   -7.0722977    244.60518  0.034200948  0.034891795            1 
  597000    1.1514495   -7.0112355    246.11905  0.034354977  0.034885232            2 
  598000     1.127882   -7.0454341    245.66601  0.034234394  0.034878494            1 
  599000    1.1389581   -7.0484976    246.34036  0.034271057    0.0348712            1 
  600000    1.1555387   -7.0069691    246.44322  0.034228225  0.034864152            1 
  601000    1.1665726   -7.0435108    245.96313  0.034104704  0.034857118            3 
  602000    1.1243339   -7.0476387    246.67651  0.034146803  0.034849542            2 
  603000    1.1574376   -7.0394459    247.36524  0.034185357   0.03484234            1 
  604000    1.1424635   -7.0639168    247.94044  0.034208118  0.034834973            2 
  605000    1.1535253   -7.0533091    247.29067  0.034062076  0.034827376            3 
  606000    1.1663792   -7.0411241    248.85992  0.034221661  0.034820212            1 
  607000    1.1715792   -7.0403538    248.32124  0.034091329  0.034812878            1 
  608000    1.1681063   -7.1000173    249.02784  0.034132105  0.034805647            2 
  609000    1.1555622   -7.0512578    249.23338  0.034104184  0.034797748            1 
  610000    1.1464655   -7.0588842    249.38275  0.034068682  0.034789935            1 
  611000    1.1563196   -7.0249727    249.67017  0.034052124  0.034782403            2 
  612000    1.1515584   -7.0861482    249.21067  0.033933914  0.034774685            3 
  613000    1.1614547   -7.0709932     250.3085  0.034027801  0.034766296            1 
  614000    1.1469573   -7.0601975    250.32391  0.033974472  0.034758356            1 
  615000    1.1480742   -7.0625159    251.29922  0.034051385  0.034750116            2 
  616000    1.1419507   -7.0910542    250.83576  0.033933408  0.034742062            2 
  617000     1.173703   -7.0928862    251.49648  0.033967649  0.034734127            1 
  618000    1.1581416   -7.0509643    252.56154  0.034056303  0.034725911            2 
  619000    1.1328316   -7.0699047    252.93561  0.034051644  0.034717899            1 
  620000    1.1571489   -7.0317968    253.43022  0.034063201  0.034709897            2 
  621000    1.1739423   -7.0503867    253.47306  0.034014098  0.034701609            4 
  622000    1.1483814   -7.0991729    251.96617  0.033757525   0.03469293            2 
  623000    1.1381681   -7.0903256    252.68048  0.033798887   0.03468374            1 
  624000    1.1451881   -7.0356774    254.19951  0.033947584  0.034674583            1 
  625000    1.1710983   -7.0819889     254.3798  0.033917307  0.034666216            1 
  626000    1.1547697   -7.0953387     254.1762  0.033836022  0.034657577            1 
  627000    1.1706115   -7.0362693    254.91356  0.033880059  0.034649448            1 
  628000    1.1406869   -7.0428633    255.55225  0.033910861  0.034640776            1 
  629000    1.1397772   -7.0735338     255.6565  0.033870761  0.034631544            2 
  630000     1.181175   -7.0583998    256.09347  0.033874798  0.034622746            2 
  631000    1.1474575   -7.0284669    256.67308   0.03389766  0.034614302            1 
  632000    1.1484865   -7.0756114    255.32479  0.033666243  0.034605565            2 
  633000    1.1565648   -7.0460206    256.52006  0.033770413  0.034596715            1 
  634000    1.1419342   -7.1002204    256.22364  0.033678187  0.034588078            3 
  635000    1.1525669   -7.0722633    257.78502  0.033830055  0.034579354            2 
  636000    1.1362546    -7.003653    258.43636  0.033862206  0.034570961            1 
  637000    1.1562745   -7.0991468     257.2392  0.033652433  0.034562421            1 
  638000    1.1634619   -7.0396363     259.4154  0.033883934  0.034554429            1 
  639000    1.1566757    -7.052856    258.72904  0.033741398  0.034545925            3 
  640000    1.1371447   -7.1112585    259.05294  0.033730852  0.034537349            2 
  641000    1.1647521   -7.0762583     259.4769  0.033733346  0.034528679            3 
  642000    1.1472273   -7.1007099    259.94105   0.03374105  0.034520073            1 
  643000    1.1492547   -7.0501941     260.5988   0.03377382   0.03451151            2 
  644000    1.1509534   -7.0824827    259.69075  0.033603875  0.034502267            1 
  645000    1.1523739    -7.073998    261.19026  0.033745512  0.034493173            2 
  646000    1.1711608   -7.0646966     262.4158  0.033851367  0.034484495            1 
  647000    1.1612047   -7.0448334    262.75494  0.033842729  0.034476496            1 
  648000    1.1450465   -7.0818524    262.91343  0.033810883  0.034469049            4 
  649000    1.1609107   -7.0768387    263.12225    0.0337856  0.034461569            2 
  650000    1.1340882   -7.1278983    262.62659  0.033670076  0.034453878            1 
  651000     1.138645   -7.0947444    262.93164  0.033657404  0.034446131            3 
  652000    1.1485185   -7.0935014    264.76564  0.033840189  0.034438403            1 
  653000    1.1511316   -7.0485059      264.786  0.033790965  0.034430817            1 
  654000    1.1271924   -7.1277955     265.6906  0.033854562  0.034423212            2 
  655000    1.1482836   -7.0731854    266.03504  0.033846697   0.03441554            2 
  656000    1.1424882     -7.08056    265.82692  0.033768664  0.034408367            4 
  657000    1.1328872   -7.0384728    267.35389  0.033910945  0.034401167            4 
  658000    1.1470927   -7.0852405    267.36539  0.033860865  0.034394663            1 
  659000    1.1591271   -7.0556265    268.41291  0.033941946  0.034388214            2 
  660000    1.1645471   -7.0829658    267.62335  0.033790827  0.034381392            1 
  661000    1.1404882   -7.0780584     267.9647  0.033782741  0.034374673            1 
  662000    1.1458478   -7.0989233    267.43016  0.033664421  0.034367412            3 
  663000    1.1318878   -7.0843532    269.13567  0.033828013  0.034360236            2 
  664000    1.1310931   -7.0888772    269.55998  0.033830319  0.034353572            2 
  665000    1.1434122   -7.0847647    269.95628  0.033829108   0.03434673            1 
  666000    1.1539525    -7.103219    269.71464  0.033748079  0.034339826            1 
  667000    1.1547411   -7.0471369     269.8634  0.033716066  0.034333125            1 
  668000    1.1329166   -7.0862798    270.56674  0.033753336  0.034327027            1 
  669000    1.1389379   -7.0861633    271.41357  0.033808367  0.034320782            3 
  670000    1.1535961    -7.087112     271.6093  0.033782251  0.034314747            1 
  671000    1.1614302   -7.0909381     272.7796  0.033877247  0.034308719            2 
  672000    1.1528095   -7.0882027    273.55619  0.033923138  0.034302846            3 
  673000    1.1212001    -7.061083     273.4638  0.033861293  0.034297176            3 
  674000    1.1403943   -7.0828103    274.01602  0.033879329  0.034291217            1 
  675000    1.1103356   -7.0773761    274.65489  0.033908011  0.034285342            1 
  676000     1.141366   -7.0572161    275.11192  0.033914191  0.034279661            1 
  677000     1.133377   -7.1355356    274.39833  0.033776259  0.034273712            1 
  678000    1.1462446   -7.0942684    275.09962  0.033812638  0.034267662            2 
  679000    1.1351437   -7.0961523    274.48695  0.033687647  0.034261707            1 
  680000    1.1440463   -7.0951831    275.67762  0.033784022  0.034255488            2 
  681000    1.1399163   -7.0676779      277.114  0.033910182  0.034249681            2 
  682000    1.1293753   -7.0946131    276.40477  0.033773799  0.034243689            2 
  683000    1.1522219   -7.1029933    275.48217  0.033611783  0.034237269            1 
  684000    1.1188025   -7.1062729    276.12453  0.033640903  0.034230772            1 
  685000    1.1423003   -7.0549798    278.66116  0.033900385  0.034224072            2 
  686000     1.121342   -7.1419877    276.90273  0.033637357  0.034217769            2 
  687000    1.1545873   -7.0788599    278.37956  0.033767536  0.034211114            2 
  688000    1.1337433   -7.1399085    278.04855  0.033678361  0.034204893            2 
  689000     1.164285   -7.0601143    278.92415  0.033735384   0.03419861            2 
  690000    1.1393761   -7.0836355    279.74511  0.033785642  0.034192422            1 
  691000    1.1652746   -7.0976618    280.20258  0.033791918  0.034186012            1 
  692000    1.1311507   -7.0512979    280.62818  0.033794337  0.034180249            2 
  693000     1.156185   -7.0331489    281.39629  0.033837938    0.0341744            2 
  694000    1.1321119   -7.1128916    281.30523  0.033778246  0.034168336            2 
  695000     1.138576   -7.1037625    281.29652    0.0337286  0.034162199            2 
  696000    1.1336804   -7.1344461    281.19989  0.033668569  0.034156103            2 
  697000    1.1562154   -7.0965918    282.53626   0.03378004  0.034150123            1 
  698000    1.1281552   -7.0574889    283.22683  0.033814091    0.0341448            3 
  699000    1.1317687   -7.1109373    282.53812   0.03368361  0.034139827            3 
  700000    1.1326641   -7.0767011    283.31648  0.033728152  0.034134392            3 
  701000    1.1290085   -7.1011297    284.90411  0.033868772  0.034129411            2 
  702000    1.1678869   -7.0426606    285.38472  0.033877578  0.034124582            2 
  703000    1.1440775   -7.0912939    284.81885   0.03376231  0.034119991            1 
  704000    1.1541996   -7.0763711    285.39634   0.03378271  0.034115104            3 
  705000     1.125984   -7.0795185    286.21125  0.033831117  0.034109942            1 
  706000     1.121293   -7.1071806    286.52839  0.033820632  0.034104796            3 
  707000    1.1390633   -7.1004537    287.25963  0.033858985  0.034099766            1 
  708000    1.1393633   -7.0758882    287.21867   0.03380634  0.034094849            1 
  709000    1.1333169   -7.0887657    288.40989  0.033898671  0.034090115            2 
  710000    1.1550334   -7.0661452    288.05501  0.033809273  0.034085315            4 
  711000      1.14628   -7.0884521    287.88884  0.033742245  0.034080375            2 
  712000    1.1448394   -7.0887712    288.75267  0.033795959  0.034075193            1 
  713000    1.1434125   -7.0766824     288.6263  0.033733789  0.034069854            1 
  714000    1.1260873   -7.0862684    289.33858  0.033769675  0.034064576            1 
  715000    1.1479528   -7.1002642    288.13248  0.033581874  0.034059128            1 
  716000     1.144311   -7.0823219    289.60836  0.033706746  0.034053379            1 
  717000    1.1398137   -7.1279687    288.98209  0.033586947  0.034047856            1 
  718000    1.1489949   -7.0962421    289.61208  0.033613287  0.034042315            5 
  719000    1.1404078   -7.0934525    290.28816  0.033644896  0.034037113            1 
  720000    1.1397264   -7.0979233    291.11436  0.033693791  0.034031794            2 
  721000     1.144795   -7.0967133    291.12625  0.033648434  0.034026537            2 
  722000    1.1166692   -7.0929936    291.62519  0.033659417  0.034021166            1 
  723000    1.1591959   -7.1046456    292.67753  0.033734155  0.034015835            2 
  724000    1.1481344   -7.1424773    292.26402  0.033639965  0.034010486            1 
  725000    1.1398524   -7.1095158    291.88918  0.033550481  0.034004421            1 
  726000    1.1261312   -7.0839803    292.77234  0.033605641  0.033998706            2 
  727000    1.1461847   -7.1102585    292.25562  0.033500186  0.033993055            2 
  728000    1.1235976   -7.1453071     292.6634  0.033500847  0.033986861            1 
  729000    1.1509898   -7.1147212    293.26772  0.033523974  0.033980735            4 
  730000    1.1533235   -7.0872413    294.89297  0.033663581  0.033974903            4 
  731000    1.1448124   -7.1011291    294.36413  0.033557243  0.033968766            2 
  732000    1.1101375   -7.0778182    294.41024  0.033516648  0.033962939            2 
  733000    1.1358377    -7.106356    293.89398  0.033412231  0.033956683            1 
  734000    1.1235055   -7.1026591    294.66995  0.033454808  0.033950023            2 
  735000     1.125976   -7.0712348    294.28929  0.033366133  0.033943405            2 
  736000    1.1451412   -7.0954164    294.68014  0.033365052  0.033936461            4 
  737000    1.1060351   -7.0710537    297.19101  0.033603688  0.033929484            1 
  738000    1.1555059   -7.1108323    295.63634  0.033382604  0.033922343            4 
  739000    1.1421348   -7.1117596    295.59089  0.033332307   0.03391547            2 
  740000    1.1580603   -7.1190787    296.82592  0.033426342  0.033907944            2 
  741000    1.1189195   -7.1077341    295.71517  0.033256316  0.033900302            2 
  742000    1.1403081   -7.0672755    297.01748  0.033357759  0.033892555            3 
  743000    1.1416975   -7.0783679    297.53028  0.033370377   0.03388564            1 
  744000     1.127711   -7.0911675    298.01347  0.033379645  0.033878753            1 
  745000    1.1299716   -7.1056294    298.02294    0.0333359  0.033871771            3 
  746000    1.1282951   -7.1116667    298.76758  0.033374395  0.033864826            3 
  747000    1.1369766   -7.0805562    299.24298  0.033382751  0.033858187            3 
  748000    1.1295627   -7.1128682    299.67707  0.033386483   0.03385174            1 
  749000    1.1450336     -7.11217     300.6535  0.033450545  0.033844948            2 
  750000    1.1362063   -7.0988152    300.69221  0.033410246  0.033838358            2 
  751000    1.1178668   -7.0759324    301.31705  0.033435092  0.033831869            1 
  752000    1.1125669   -7.0501155    301.91031  0.033456373  0.033825487            2 
  753000    1.1076063   -7.0981294     301.6131   0.03337905  0.033818878            1 
  754000    1.1356875    -7.091518    301.27079  0.033296949  0.033812098            2 
  755000    1.1573726   -7.1392858    301.48881   0.03327691  0.033805159            2 
  756000    1.1382387   -7.1084046    301.70306   0.03325651  0.033798255            1 
  757000    1.1599265   -7.1370271    301.79191  0.033222359  0.033790895            4 
  758000    1.1319033   -7.1191407     301.8118  0.033180717   0.03378372            3 
  759000    1.1214814   -7.0984812     303.6379  0.033337495  0.033776913            1 
  760000     1.137834   -7.0870594    304.31735  0.033368131  0.033770197            1 
  761000    1.1425411   -7.1097658    303.79973  0.033267601  0.033763473            2 
  762000    1.1449386   -7.0894396    303.53788  0.033195306  0.033756446            1 
  763000    1.1139378   -7.1313617    304.34124  0.033239542   0.03374936            1 
  764000    1.1240638   -7.0723872    304.84545  0.033251031  0.033742032            2 
  765000    1.1302057   -7.1033528    304.79621  0.033202201  0.033735055            1 
  766000    1.1265433   -7.1616656    303.97796  0.033069839  0.033727806            2 
  767000     1.106025   -7.1503679    304.35894  0.033068116  0.033720295            3 
  768000    1.1441766   -7.1019808    305.06439  0.033101605  0.033713102            2 
  769000    1.1163762   -7.1245873    306.45854  0.033209638  0.033706358            3 
  770000    1.0795471   -7.1188749    306.84639  0.033208483  0.033699354            2 
  771000    1.1486324   -7.0694996    307.69756   0.03325741  0.033692411            1 
  772000    1.1067429    -7.092311    307.24088  0.033165034  0.033685566            3 
  773000    1.1030619   -7.1160498    307.16864  0.033114342  0.033678226            2 
  774000     1.126612   -7.0746436    308.19758  0.033182341  0.033670928            1 
  775000    1.1291279   -7.1184031    308.69048  0.033192524  0.033663784            1 
  776000    1.1176623   -7.1206591    309.06685  0.033190169  0.033657048            1 
  777000    1.1316543   -7.0870788    310.13596  0.033262114  0.033650325            1 
  778000    1.1370145    -7.133223    309.87708  0.033191632  0.033643778            1 
  779000    1.1163135   -7.1158565    311.12411  0.033282425  0.033637319            1 
  780000    1.1475142    -7.082821    311.20584  0.033248487   0.03363097            1 
  781000    1.1303807   -7.1177534    311.16824  0.033201903  0.033624522            2 
  782000     1.122913   -7.1307519    309.55545   0.03298758  0.033617893            3 
  783000    1.1098355   -7.1337374    311.55123  0.033157858  0.033610755            1 
  784000    1.1175029   -7.1055789    311.65035    0.0331261  0.033603638            1 
  785000    1.1060339   -7.0926221    312.47659  0.033171613  0.033596747            1 
  786000    1.1428929   -7.1286989    311.52388  0.033028401  0.033589777            1 
  787000    1.1304798   -7.1232051    312.09737  0.033047159  0.033582868            1 
  788000    1.1219793   -7.1254636    313.08286  0.033109439  0.033576385            3 
  789000    1.1059787   -7.1247296    313.38218  0.033099089  0.033569339            2 
  790000    1.1196743   -7.1552753    312.49826  0.032963952  0.033562246            2 
  791000    1.1093876   -7.0940582    315.09963  0.033196337  0.033554896            2 
  792000    1.1311622   -7.0880021    314.28199  0.033068391  0.033547824            2 
  793000     1.121305   -7.1268932    315.58068  0.033163165  0.033540974            2 
  794000    1.1221723   -7.1361885    315.15435  0.033076653  0.033534197            3 
  795000    1.1231607   -7.1809967      313.965  0.032910377  0.033527289            2 
  796000      1.12043   -7.1555359    315.73275  0.033054099  0.033520139            2 
  797000    1.1280814   -7.1430331    316.36096  0.033078311  0.033513326            1 
  798000     1.114058   -7.1483565    316.25541  0.033025837  0.033506554            3 
  799000     1.101526   -7.1169613    317.09684  0.033072261  0.033499676            2 
  800000    1.1390729   -7.0993593     318.3986   0.03316652  0.033493271            1 
  801000    1.1047942   -7.0866864    318.13998  0.033098209  0.033486675            1 
  802000    1.1349612   -7.1583731    316.91146  0.032929287   0.03348014            1 
  803000    1.1182716   -7.1235974    317.93212  0.032994201  0.033473344            1 
  804000    1.1532624    -7.117593    319.04308  0.033068313  0.033466878            2 
  805000    1.1058835   -7.1192957    318.74025  0.032995885  0.033460166            1 
  806000    1.0978192   -7.1119048    319.38589  0.033021701  0.033453491            2 
  807000    1.1059149    -7.136179    319.19498  0.032961068  0.033446832            2 
  808000    1.1394561   -7.1246456    320.49259  0.033054103  0.033440298            2 
  809000    1.1399385   -7.1498747    320.46029  0.033009918  0.033433901            1 
  810000    1.1380439   -7.1268185    321.44756  0.033070737  0.033427555            1 
  811000    1.1298656   -7.1292692    322.21321  0.033108632  0.033421366            1 
  812000    1.1332283   -7.0845498    321.30041   0.03297418  0.033414959            2 
  813000    1.1267271   -7.0791211    320.99652  0.032902472  0.033408137            2 
  814000    1.1273158   -7.1580868    321.04574   0.03286709  0.033401243            1 
  815000    1.1235802   -7.1532659    321.54914  0.032878235  0.033394028            4 
  816000    1.1312633   -7.1325611    322.37745  0.032922534  0.033387065            1 
  817000    1.1062221   -7.1362599    322.57626  0.032902515    0.0333797            1 
  818000    1.1172067   -7.1214096    322.56637  0.032861284   0.03337218            3 
  819000     1.130494   -7.1431445    322.89364   0.03285446   0.03336498            1 
  820000    1.0878634   -7.1376702    322.69687  0.032794397  0.033357935            2 
  821000    1.1241179   -7.1192896    323.44888  0.032830783  0.033350605            1 
  822000    1.1375254   -7.1261104    322.95031  0.032740299  0.033343087            2 
  823000    1.1199145   -7.1077395    325.04578  0.032912695  0.033335949            2 
  824000    1.1417063    -7.136946    324.70667  0.032838458  0.033328924            2 
  825000    1.1503871    -7.124801     324.1518  0.032742607  0.033321541            2 
  826000    1.1363853   -7.0760466    325.04219  0.032792796  0.033314142            1 
  827000    1.0974158   -7.0920213     323.9445  0.032642533  0.033306421            2 
  828000    1.1214595   -7.1508991    324.62529  0.032671628  0.033298351            3 
  829000    1.0973176   -7.1246769    326.06386  0.032776825  0.033290275            2 
  830000     1.145297   -7.1368969    325.53174  0.032683909  0.033282335            1 
  831000    1.1046017   -7.1291069    325.78263  0.032669738  0.033274583            2 
  832000    1.1279986   -7.1359581    327.86872  0.032839415  0.033266927            1 
  833000    1.1131342   -7.1476803    326.66518   0.03267959   0.03325944            2 
  834000    1.1433664   -7.1154467    327.17747  0.032691594   0.03325228            1 
  835000    1.0978001   -7.1626258    328.49618   0.03278405  0.033244816            2 
  836000    1.1274604   -7.1756042    328.13896  0.032709227  0.033237159            1 
  837000    1.1101072   -7.1355808     328.9301  0.032748914  0.033229799            2 
  838000    1.1120267    -7.117518    328.15842  0.032633096  0.033222484            2 
  839000    1.0956476   -7.1255048    329.49185  0.032726643  0.033215409            4 
  840000    1.0982301   -7.1483024    329.10529  0.032649334  0.033208038            1 
  841000    1.1078567   -7.1298547    329.64096  0.032663591  0.033200428            1 
  842000    1.0964235    -7.173446    329.75605  0.032636189  0.033192688            2 
  843000    1.1191456   -7.1167434    330.08964  0.032630451  0.033185184            1 
  844000    1.1134155    -7.140908    328.86679   0.03247105    0.0331773            2 
  845000     1.127619   -7.1304685    331.33436  0.032675972  0.033169577            2 
  846000    1.1277389   -7.1424439    331.43888  0.032647644  0.033161979            1 
  847000    1.0900342   -7.1625133    331.77952  0.032642613  0.033154575            1 
  848000    1.0975688    -7.140444    332.07182  0.032632844  0.033146878            1 
  849000    1.1285946   -7.1438614    332.52037  0.032638435  0.033139372            1 
  850000     1.117486   -7.1495256    332.75684   0.03262322  0.033132004            3 
  851000    1.1177396   -7.1016593    334.65116  0.032770384  0.033124546            2 
  852000    1.1269468   -7.1550777    331.84789  0.032457736  0.033117105            2 
  853000    1.1102173   -7.1935405    332.78358  0.032511096  0.033109127            2 
  854000    1.0970236   -7.1484807     332.9758  0.032491784  0.033100944            1 
  855000    1.1316698   -7.1341208    333.07746   0.03246369  0.033093206            1 
  856000    1.1095347   -7.1257712    334.68146  0.032581918   0.03308556            1 
  857000    1.1262413   -7.1421267    333.48018  0.032427088  0.033078094            2 
  858000    1.0978087   -7.1489522    335.05724  0.032542467  0.033070285            1 
  859000    1.0915805   -7.1163334    334.68659  0.032468625   0.03306253            1 
  860000    1.1114782   -7.1877466    334.39273  0.032402397  0.033054297            2 
  861000    1.0969474   -7.1479735    336.44222  0.032563126  0.033046016            3 
  862000    1.1171226    -7.165481    336.53381  0.032534204  0.033038275            2 
  863000    1.1320945    -7.143801    336.47243  0.032490578  0.033030142            2 
  864000    1.1162924   -7.1521685    336.89653  0.032493878  0.033022017            1 
  865000    1.1075937   -7.1382525    337.23637  0.032489053  0.033013863            3 
  866000     1.107224   -7.1900352     337.4466  0.032471767  0.033006016            2 
  867000    1.1253466   -7.1381726    338.05276  0.032492576  0.032998143            2 
  868000    1.1281708   -7.1419689    338.42651  0.032491024  0.032990509            1 
  869000    1.0975389   -7.1165337    339.92414  0.032597252   0.03298314            3 
  870000    1.1219875   -7.1340094    338.93999  0.032465516   0.03297565            1 
  871000      1.12394   -7.1078804    340.06457  0.032535837  0.032968271            1 
  872000    1.1431244   -7.1051935    340.30739  0.032521731  0.032961202            3 
  873000    1.0914992   -7.1434069    340.45016  0.032498106  0.032953592            1 
  874000    1.1189897   -7.1444258    339.07837  0.032330127  0.032946071            2 
  875000    1.0764915    -7.147206    340.46818  0.032425541  0.032938334            3 
  876000    1.1261225   -7.1293318    340.64783  0.032405615  0.032930561            1 
  877000    1.1226428    -7.149138    341.51754  0.032451306  0.032922821            1 
  878000    1.1320867   -7.1182797    340.98431  0.032363735  0.032915065            1 
  879000    1.1005443   -7.1874594    342.08517  0.032431282  0.032907086            2 
  880000    1.1143391   -7.1267575    342.37182  0.032421574  0.032899343            2 
  881000    1.1060763   -7.1707699    342.75075  0.032420615  0.032892174            2 
  882000    1.0943351   -7.1197126    343.34343  0.032439855   0.03288496            1 
  883000    1.1125222   -7.1607838     343.5058  0.032418441  0.032877784            1 
  884000    1.1109398     -7.14662    344.03208   0.03243138  0.032870417            2 
  885000    1.0980877   -7.1599569    343.16275  0.032312877  0.032863144            2 
  886000    1.1188071    -7.149314    344.66473  0.032417676  0.032855818            4 
  887000    1.1196495   -7.1619533    344.88305  0.032401639   0.03284889            1 
  888000     1.098211   -7.1771034    345.94073  0.032464408  0.032841985            1 
  889000    1.1114769   -7.1489004    345.60395  0.032396321  0.032834905            1 
  890000    1.1146437   -7.1516351    346.41306   0.03243568  0.032828254            1 
  891000    1.1178522   -7.1603704    346.42466  0.032400361  0.032821494            2 
  892000    1.1401888   -7.1396852    346.04973   0.03232901  0.032814657            1 
  893000    1.1199001   -7.1851538    346.88391  0.032370652  0.032807709            1 
  894000    1.1189665   -7.1077184    347.30028  0.032373255  0.032800987            2 
  895000    1.1170877   -7.1855242    348.34559  0.032434412  0.032794217            3 
  896000    1.0951847   -7.1220395    348.34651  0.032398299   0.03278718            1 
  897000    1.1142994   -7.2038287    346.83034  0.032221325  0.032780137            1 
  898000    1.1065837   -7.1488003    348.10012  0.032303278  0.032772842            3 
  899000    1.1038916   -7.1711061    348.06618  0.032264199  0.032765727            2 
  900000    1.0950344   -7.1289802    348.97614  0.032312606  0.032758645            1 
  901000    1.0856638   -7.1393269     349.5605   0.03233079  0.032751602            2 
  902000    1.1127931    -7.147543     349.7553  0.032312943  0.032744488            2 
  903000    1.0911221   -7.1307883    351.09977  0.032401234  0.032737064            2 
  904000    1.0936295   -7.1296883    350.21049  0.032283415    0.0327299            3 
  905000    1.1052939    -7.134156    351.29042  0.032347184  0.032722618            3 
  906000    1.1012644   -7.1868992    350.81017  0.032267308  0.032715088            2 
  907000    1.1282329    -7.162028    350.24674  0.032179965  0.032707483            2 
  908000    1.1138429    -7.157147    351.58685  0.032267515  0.032700145            1 
  909000    1.0969944   -7.1368075     351.7848  0.032250165  0.032692616            5 
  910000    1.1194155    -7.141886    351.10563   0.03215253  0.032685031            2 
  911000    1.1085282   -7.1881902    351.74732  0.032175935  0.032677463            4 
  912000    1.1102796   -7.1652994    352.97809  0.032253115  0.032669852            1 
  913000    1.1195068   -7.1413327    352.42532  0.032167334  0.032662434            3 
  914000    1.0995323    -7.133221    353.42565  0.032223345  0.032655182            5 
  915000    1.1253384    -7.173686    352.26723  0.032082626  0.032647457            1 
  916000    1.0934806   -7.1387252    353.16814  0.032129561  0.032639731            1 
  917000    1.0939561   -7.1546198    353.73511  0.032146048  0.032632275            3 
  918000    1.0957707   -7.1262103    355.08564  0.032233627  0.032624799            3 
  919000    1.1087674   -7.1895259    353.72026  0.032074742  0.032617448            3 
  920000    1.0990506   -7.2183525    353.90883  0.032056959  0.032609707            2 
  921000    1.0805676   -7.1379134    356.11033  0.032221347  0.032602174            1 
  922000     1.087611    -7.136886    355.06772  0.032092166  0.032594862            1 
  923000    1.1174884   -7.1880108    355.48324  0.032094911  0.032587529            3 
  924000     1.103439   -7.1969491    355.15465  0.032030542  0.032580037            2 
  925000     1.084449    -7.153648    356.10742   0.03208175   0.03257268            3 
  926000    1.0853432   -7.1921025    355.83435   0.03202253  0.032565204            5 
  927000      1.12837   -7.2157212    356.53379  0.032050862  0.032557877            1 
  928000    1.0855452   -7.1531248    357.43529  0.032097278  0.032550485            1 
  929000    1.1160197   -7.1353534    356.29594  0.031960525  0.032542842            1 
  930000    1.0908634   -7.1843939    356.74997  0.031966843  0.032535095            3 
  931000    1.1021226   -7.1137476    356.88799  0.031944861  0.032527687            2 
  932000    1.1090988   -7.1680054    358.95231  0.032095164  0.032520095            2 
  933000    1.1131487   -7.1461444    359.53763  0.032113043   0.03251277            1 
  934000    1.1039454   -7.1392446    359.66007  0.032089585  0.032505299            2 
  935000    1.1104264   -7.1971571    358.96394  0.031993221  0.032497841            2 
  936000    1.0952437   -7.1865269    359.32877  0.031991522  0.032490328            1 
  937000    1.0841262   -7.1722702     360.1567  0.032031012  0.032482821            1 
  938000    1.0976343   -7.1304114    360.51513  0.032028707  0.032475274            1 
  939000    1.0967594   -7.1416002    360.44205  0.031988112   0.03246753            1 
  940000    1.1205723   -7.1500429    361.89936  0.032083277  0.032460068            2 
  941000    1.0968221   -7.1712919    362.93388  0.032140797  0.032452631            1 
  942000    1.1138112   -7.1806444    362.49743  0.032068067  0.032445219            2 
  943000    1.0988683   -7.1561961    362.52934  0.032036881  0.032437981            2 
  944000    1.1067049   -7.1151213     363.6942  0.032105774  0.032430963            1 
  945000    1.0930326   -7.1456342    363.64326  0.032067307  0.032423718            2 
  946000    1.1075081    -7.181165    363.04651  0.031980841  0.032416482            1 
  947000    1.0998568   -7.1982556    362.70204  0.031916758  0.032409225            3 
  948000    1.1113533   -7.2003781    362.94492  0.031904441  0.032401817            1 
  949000    1.0931733   -7.1630262     364.3272  0.031992203  0.032394427            1 
  950000     1.107974   -7.1674005    363.64743  0.031898897  0.032386995            1 
  951000    1.0916858   -7.1932378    363.56217  0.031857884  0.032379467            2 
  952000    1.0887399   -7.2075255    364.28135  0.031887373  0.032371706            2 
  953000    1.1012218    -7.166288    364.58394  0.031880372  0.032363992            1 
  954000    1.0725515   -7.1772914    365.31942    0.0319112  0.032356265            1 
  955000    1.1056233   -7.1863992    365.87318  0.031926107  0.032348836            2 
  956000    1.1087073   -7.1442205    365.55402   0.03186489  0.032341082            1 
  957000    1.0962889   -7.1641233    364.92332  0.031776674   0.03233334            1 
  958000     1.120741   -7.1570413    366.85272  0.031911336  0.032325764            1 
  959000    1.0960321   -7.1914192    365.84081  0.031790129  0.032318124            3 
  960000    1.0999423   -7.2328178    365.29091   0.03170928  0.032310082            1 
  961000    1.1003338   -7.2206213    366.20099  0.031755202  0.032301914            2 
  962000    1.1090232   -7.1904469     365.7572  0.031683749  0.032293553            3 
  963000     1.105078   -7.1360195    367.08607  0.031765842  0.032285254            2 
  964000    1.1015998   -7.1901714    367.97648  0.031809861  0.032277246            2 
  965000    1.1158441   -7.1980726    367.66931  0.031750373  0.032269249            2 
  966000    1.1032722    -7.166573     368.0374  0.031749258  0.032261346            2 
  967000     1.095638   -7.1526353    368.88201  0.031789211  0.032253484            5 
  968000    1.1041299   -7.1865086    368.92676  0.031760224  0.032245617            3 
  969000     1.117283   -7.1743799    369.91152  0.031812136  0.032237648            1 
  970000    1.0779416   -7.1682664     369.3387  0.031730129  0.032229836            2 
  971000    1.1127199   -7.1854927    369.23046  0.031688161  0.032222112            1 
  972000    1.0934563   -7.1806536    370.21808  0.031740233  0.032214546            2 
  973000    1.1047981   -7.1948906    370.38474  0.031721886  0.032207224            1 
  974000    1.0849879   -7.2137765    370.42557  0.031692811  0.032199491            2 
  975000    1.0822365   -7.1986936    371.73102  0.031771882  0.032191792            1 
  976000    1.0955736   -7.1717326    371.00822  0.031677614   0.03218403            1 
  977000    1.1218933   -7.1762448    371.47954  0.031685392  0.032176363            1 
  978000    1.1139039   -7.1907456    372.62462  0.031750564  0.032168817            1 
  979000    1.0929789   -7.1705678    372.33961  0.031693872  0.032161278            2 
  980000    1.0478218   -7.1958035    373.31261  0.031744269  0.032153726            1 
  981000    1.0982636   -7.1735597    374.04114  0.031773797  0.032146053            4 
  982000    1.0960257   -7.2106892    373.31808  0.031680082  0.032138359            1 
  983000    1.0881436   -7.2361459    372.61204  0.031587999  0.032130675            2 
  984000    1.0774656   -7.1752118    373.79899  0.031656418  0.032122749            1 
  985000     1.091708   -7.1673361    374.23849  0.031661463  0.032115046            3 
  986000    1.0829252   -7.1801509    374.41382   0.03164417  0.032107181            2 
  987000     1.111897   -7.1812021    374.54885   0.03162351  0.032099618            1 
  988000    1.1052243   -7.1767764    376.47799  0.031754216  0.032091775            2 
  989000    1.1149585   -7.2092809    375.43901  0.031634565  0.032084313            5 
  990000    1.1408721   -7.1761153    374.96447  0.031562666  0.032076717            1 
  991000    1.0904244   -7.1680743    375.88244  0.031608009  0.032068762            2 
  992000    1.0742097   -7.1477239    377.09722  0.031678194  0.032061121            1 
  993000    1.0707018   -7.1894878    375.90572  0.031546301  0.032053421            2 
  994000    1.1007952   -7.1677978    377.35422  0.031636001  0.032045519            2 
  995000    1.1100275   -7.1835745    376.40474  0.031524685  0.032037555            1 
  996000    1.0938868   -7.1790457    376.75732  0.031522534  0.032029538            4 
  997000    1.0654038   -7.1873882    376.48805   0.03146841  0.032021342            2 
  998000    1.0748395   -7.1844844    378.81427  0.031631118  0.032013295            1 
  999000     1.082471   -7.1699803    378.46084  0.031569974  0.032005056            1 
 1000000    1.1118047    -7.208441    377.33885  0.031444904  0.031997063            1 
 1001000    1.0815293    -7.210904     378.0811  0.031475283   0.03198914            4 
 1002000    1.0773578   -7.2321165    377.72587  0.031414327  0.031980976            2 
 1003000    1.0739595   -7.2318884    379.30168  0.031513931  0.031972978            2 
 1004000    1.0777995   -7.1523096    379.51725  0.031500435  0.031965307            3 
 1005000     1.067357   -7.1563237    379.31873  0.031452631  0.031957696            3 
 1006000    1.0883849   -7.1543999    380.57385  0.031525335  0.031949961            2 
 1007000    1.1009693   -7.2064649     379.7079  0.031422368   0.03194217            2 
 1008000    1.0805459   -7.1866309    380.39122  0.031447687  0.031934499            3 
 1009000    1.0965889   -7.1785126    381.48523  0.031506874  0.031926644            1 
 1010000    1.0658395    -7.195533     381.8312  0.031504224  0.031918855            2 
 1011000    1.0873418   -7.2160535    381.03009   0.03140703  0.031911158            2 
 1012000    1.1059299   -7.2357113    381.81837  0.031440906  0.031903195            2 
 1013000    1.0923215   -7.2014247    381.93024  0.031419072  0.031895327            1 
 1014000    1.0858119   -7.1837722    382.55017  0.031439034  0.031887568            3 
 1015000    1.0868604   -7.2435199    382.43639  0.031398719  0.031879915            5 
 1016000    1.0981197   -7.1663616    383.55751   0.03145977  0.031872399            1 
 1017000    1.1008353   -7.1912001    382.44264  0.031337482  0.031864709            2 
 1018000    1.0775173   -7.1720757    384.78428  0.031498386  0.031857034            1 
 1019000     1.092572   -7.1997648    383.75641  0.031383416  0.031849409            3 
 1020000    1.1020105   -7.1891401    383.33036   0.03131784  0.031841353            2 
 1021000    1.0730059   -7.1793895    384.56111  0.031387619  0.031833632            4 
 1022000    1.1197346   -7.1807183     384.8004  0.031376419  0.031826095            2 
 1023000    1.0610226   -7.1715506    385.90894  0.031436049  0.031818579            2 
 1024000    1.1311793   -7.1861459    385.01362  0.031332488  0.031810934            3 
 1025000    1.0923648   -7.1740302    385.79748  0.031365648  0.031803228            1 
 1026000     1.085027   -7.2276956     385.1481  0.031282335  0.031795489            2 
 1027000    1.0902361    -7.208297    386.71458  0.031378982  0.031787657            2 
 1028000    1.0891916   -7.1698586    386.17648  0.031304838  0.031780032            3 
 1029000    1.0787038   -7.1861409    386.73682  0.031319794  0.031772151            2 
 1030000    1.0910893   -7.1939661    386.31589  0.031255331  0.031764372            1 
 1031000    1.0688391   -7.1866998    387.18517  0.031295277  0.031756508            1 
 1032000    1.0902499   -7.1854443    387.97615  0.031328823  0.031748989            3 
 1033000    1.0689776   -7.2033635    387.52726  0.031262283  0.031741329            3 
 1034000    1.1040323   -7.2192703    387.76831  0.031251475  0.031733504            2 
 1035000    1.0768319   -7.1769257    389.23322  0.031339229   0.03172563            4 
 1036000    1.0963779   -7.2020662    387.78982  0.031192875  0.031717807            1 
 1037000    1.0703707   -7.2160804    387.94927  0.031175609  0.031709773            3 
 1038000    1.1095373   -7.1912472    389.94916   0.03130613  0.031702024            2 
 1039000    1.0739699   -7.2436639      388.876  0.031189926  0.031694163            2 
 1040000     1.099565   -7.1978617    390.21214  0.031266998  0.031686358            2 
 1041000    1.0876637   -7.2087622    390.75469  0.031280394  0.031678543            1 
 1042000    1.0861098   -7.2010611    391.02715  0.031272165  0.031670865            2 
 1043000    1.0851554   -7.2170283    391.32253  0.031265782  0.031663129            3 
 1044000    1.0910051    -7.220283    391.20684    0.0312266  0.031655462            3 
 1045000    1.0964005   -7.1970242    391.58216  0.031226647  0.031648009            1 
 1046000    1.0634432   -7.1944862    392.25877  0.031250699  0.031640563            4 
 1047000    1.0726889   -7.2073967    392.51041   0.03124088  0.031633038            1 
 1048000    1.0755592   -7.2015167    392.96542   0.03124725  0.031625816            2 
 1049000    1.1060344   -7.2292151    393.26994  0.031241654  0.031618597            2 
 1050000    1.1001721   -7.2128726    395.22574  0.031367122  0.031611327            2 
 1051000    1.0978539   -7.2148668    394.80171  0.031303656  0.031604155            1 
 1052000    1.0892019   -7.2135497    394.76442  0.031270946  0.031596857            1 
 1053000    1.0968647   -7.2193715    394.47456   0.03121831  0.031589369            3 
 1054000    1.0760127   -7.1984565    395.08162  0.031236687  0.031582049            6 
 1055000    1.0701499   -7.2275892    394.79302  0.031184282  0.031574804            3 
 1056000    1.0803467   -7.2251575    394.20487  0.031108338  0.031567435            2 
 1057000    1.0766308   -7.2067436    396.94481  0.031294923  0.031560281            2 
 1058000    1.0944776   -7.2458449    394.54669  0.031076457  0.031552804            2 
 1059000    1.0858713   -7.2432484    394.73231  0.031061718  0.031545093            1 
 1060000    1.0936915   -7.1877726    395.28165  0.031075602  0.031537316            1 
 1061000    1.0949338   -7.2213752    395.93428  0.031097571  0.031529436            1 
 1062000    1.0816865   -7.2029121    396.13023  0.031083665  0.031521469            1 
 1063000    1.0723032   -7.1778752    395.67662  0.031018863  0.031513455            3 
 1064000    1.0954201   -7.2479059    395.51498   0.03097705  0.031505428            2 
 1065000    1.0662059   -7.2453237    395.78547  0.030969129  0.031497306            1 
 1066000    1.0711976   -7.2479469    397.04164  0.031038277  0.031489306            1 
 1067000    1.0968184   -7.2194565    396.76277  0.030987408  0.031481412            2 
 1068000    1.0662332   -7.1863855    397.75341  0.031035691  0.031473565            2 
 1069000    1.0908558   -7.2161593    397.22325  0.030965329  0.031465609            2 
 1070000     1.113024   -7.2834373    397.06113  0.030923764   0.03145784            2 
 1071000    1.1016504   -7.2118195    399.40391  0.031077179  0.031449985            3 
 1072000    1.0861326   -7.2029625    399.44145  0.031051108  0.031442175            3 
 1073000    1.0955077   -7.1792757    400.31171  0.031089757  0.031434652            2 
 1074000     1.098412   -7.2272961    400.06512  0.031041676  0.031427069            1 
 1075000    1.0728553   -7.2090139    400.38681  0.031037737  0.031419421            2 
 1076000    1.0843861   -7.2194031    399.15567  0.030913543  0.031411921            1 
 1077000    1.0681519   -7.2142741     400.7544  0.031008542  0.031404272            2 
 1078000    1.0829509   -7.2214026    400.54844  0.030963856  0.031396652            2 
 1079000    1.0510213   -7.1883344    401.12625  0.030979784   0.03138909            3 
 1080000    1.0801676   -7.2187695    400.74451  0.030921644  0.031381376            2 
 1081000    1.0852122   -7.2391783    401.10939  0.030921168  0.031373555            1 
 1082000    1.0530469   -7.2374855    401.54914  0.030926458  0.031365854            3 
 1083000    1.0790477   -7.2099442    403.72391  0.031065244  0.031358252            2 
 1084000    1.0795615   -7.2158224    402.51229  0.030943442  0.031350655            3 
 1085000    1.0843144   -7.2230744    403.42917  0.030985343  0.031343096            2 
 1086000    1.0881463    -7.193487    404.26668  0.031021077  0.031335588            3 
 1087000    1.0707312    -7.258335    403.82203   0.03095845  0.031328221            1 
 1088000    1.0836516   -7.1786086    405.17119  0.031033333  0.031320954            2 
 1089000     1.063202   -7.1942264    405.33422  0.031017311  0.031313661            3 
 1090000    1.0636546   -7.2385785    405.29912  0.030986171  0.031306321            1 
 1091000    1.0653811   -7.2244565    405.42358  0.030967276  0.031299048            2 
 1092000    1.0848374   -7.2144652    404.77042  0.030889073  0.031291587            4 
 1093000    1.0662172   -7.2333467    406.37042  0.030982801  0.031284189            1 
 1094000    1.0809717   -7.2580673    404.96441  0.030847381  0.031276966            1 
 1095000    1.0738422   -7.2433376    405.69915  0.030875126  0.031269615            2 
 1096000    1.0782553   -7.2344922    405.90408  0.030862537  0.031262476            1 
 1097000    1.0592768    -7.285084    405.17664  0.030779143  0.031254958            1 
 1098000    1.0911881   -7.2243535    406.30008  0.030836376  0.031247317            3 
 1099000    1.0840041   -7.2211729    407.18738  0.030875597  0.031239949            2 
 1100000    1.0537929   -7.2326665    407.61985  0.030880292  0.031232642            3 
 1101000    1.1015586   -7.2150359    408.15311  0.030892606  0.031225426            2 
 1102000    1.0680143   -7.2474693    408.91049  0.030921846  0.031218405            3 
 1103000    1.0791188   -7.2068944     410.4635  0.031011144  0.031211388            2 
 1104000     1.068617   -7.2203286    407.56667  0.030764392  0.031204228            2 
 1105000    1.0781342   -7.2317136      410.735   0.03097549  0.031196891            1 
 1106000    1.0844569   -7.2353186    409.33282  0.030841834  0.031189549            2 
 1107000    1.0675934   -7.2457463    409.85735  0.030853459  0.031182167            3 
 1108000    1.0768127   -7.2557309    409.66687  0.030811287  0.031174735            2 
 1109000    1.0566697   -7.2137627    409.58611  0.030777435  0.031167376            4 
 1110000    1.0735389   -7.2152942    409.46884  0.030740904  0.031159906            2 
 1111000    1.0577257   -7.2297036     410.4115  0.030783941  0.031152204            1 
 1112000    1.0861818   -7.2088918    409.99287  0.030724885  0.031144713            1 
 1113000     1.082277   -7.2349813     409.4394   0.03065584  0.031136993            2 
 1114000    1.0770116   -7.2309031     411.8748  0.030810503  0.031129117            1 
 1115000    1.0833608   -7.2350904    409.38911  0.030597093  0.031121156            1 
 1116000    1.0612355   -7.2317533    410.37371  0.030643198  0.031113344            4 
 1117000    1.0757825    -7.224451    411.30192  0.030685014  0.031105625            3 
 1118000    1.0668823   -7.1995344    411.73319  0.030689713  0.031097769            2 
 1119000    1.0876982   -7.2120408    410.79909  0.030592723  0.031089649            2 
 1120000    1.0539306   -7.1907062    412.28655  0.030676082  0.031081688            1 
 1121000    1.0706263   -7.2476239    410.62113  0.030524913   0.03107357            2 
 1122000    1.0574568   -7.2444959    411.94389  0.030595952  0.031065671            3 
 1123000    1.0692032   -7.2120312    413.31403  0.030670379  0.031057677            4 
 1124000    1.0561929   -7.1959784    413.65047  0.030668036  0.031049695            2 
 1125000    1.0677673   -7.2083821     413.3702  0.030620015   0.03104167            3 
 1126000    1.0779721   -7.2467876    412.79241   0.03055006  0.031033548            2 
 1127000    1.0790788   -7.2146114    413.49271  0.030574735  0.031025444            2 
 1128000    1.0642352   -7.2757405    411.65314  0.030411727   0.03101718            3 
 1129000    1.0761523    -7.283154    412.03876  0.030413254  0.031008602            2 
 1130000    1.0590968   -7.2457567     413.2219  0.030473592  0.031000216            1 
 1131000    1.0530497   -7.2328074    413.81616  0.030490434  0.030992044            3 
 1132000    1.0642927      -7.1885     415.0908  0.030557332  0.030984079            1 
 1133000    1.0656617   -7.2010434    414.75189  0.030505435  0.030975987            2 
 1134000     1.056248   -7.2515934    413.50949  0.030387235  0.030967696            2 
 1135000     1.069986   -7.2124917    414.83483   0.03045777  0.030959392            1 
 1136000    1.0742514   -7.2331736    415.28753  0.030464167  0.030951284            2 
 1137000    1.0487564   -7.2551629    415.68075  0.030466194  0.030943062            1 
 1138000    1.0700441   -7.2244428    415.73786  0.030443604  0.030934688            2 
 1139000    1.0737549   -7.2218534    416.76125   0.03049175  0.030926393            2 
 1140000    1.0980014    -7.296058    414.17666  0.030276072   0.03091808            3 
 1141000    1.0865803   -7.2450523    415.88791  0.030374519  0.030909818            2 
 1142000     1.095972   -7.2443313    416.52821  0.030394645  0.030901532            1 
 1143000    1.0413368   -7.2731459    416.27951  0.030349921  0.030893147            3 
 1144000      1.08878   -7.2686328    415.35665  0.030256166  0.030884742            3 
 1145000    1.0862765   -7.2401785    416.30487  0.030298753  0.030876262            1 
 1146000    1.0467271   -7.2498473    417.66796  0.030371434   0.03086778            1 
 1147000    1.0914111    -7.223303    417.89396  0.030361374  0.030859333            1 
 1148000     1.059232   -7.2738812     417.8838   0.03033419  0.030850965            2 
 1149000    1.0644129   -7.2409277    418.79345  0.030373764  0.030842668            1 
 1150000     1.071288    -7.244092    419.43806  0.030394062  0.030834514            1 
 1151000    1.0547803   -7.2536485    419.60839  0.030379988  0.030826241            3 
 1152000    1.0652734   -7.2633411    419.06503  0.030314311  0.030817979            2 
 1153000    1.0852873   -7.2402607     419.2935  0.030304531  0.030809697            1 
 1154000    1.0541804   -7.2675092    420.92237  0.030395896  0.030801407            2 
 1155000    1.0733614   -7.2525163    419.37155  0.030257688   0.03079306            1 
 1156000    1.0687367   -7.2328835    420.79939  0.030334442   0.03078464            2 
 1157000    1.0654577   -7.2574738    419.97877  0.030249119  0.030775978            2 
 1158000    1.0501965    -7.271381    419.85089  0.030213795  0.030767546            2 
 1159000    1.0570631   -7.2300261    421.78386  0.030326709  0.030759181            1 
 1160000    1.0795613   -7.2663639    420.90132  0.030237164  0.030750838            2 
 1161000    1.0558248   -7.2750917    421.57683  0.030259606   0.03074267            3 
 1162000    1.0793227   -7.2580074    422.11862  0.030272419  0.030734505            3 
 1163000     1.093854   -7.2726637    422.32278  0.030261019  0.030726369            2 
 1164000    1.0767217    -7.277434    422.77323   0.03026727  0.030718153            1 
 1165000    1.0517448   -7.2484019    422.89465  0.030249975  0.030709957            1 
 1166000    1.0604347   -7.2063124     423.1583  0.030242875   0.03070176            2 
 1167000    1.0617372   -7.2665391     424.7701  0.030332055  0.030693571            2 
 1168000    1.0888342   -7.2423241    423.66041  0.030226913  0.030685436            1 
 1169000    1.0417943   -7.2644435    424.09396  0.030231961  0.030677148            2 
 1170000    1.0675719   -7.2253718    424.55328  0.030238838  0.030668943            2 
 1171000    1.0603075   -7.2040508    426.42008  0.030345864  0.030660859            1 
 1172000    1.0586499   -7.2514779    425.93265  0.030285314  0.030652991            2 
 1173000    1.0683588   -7.2421977    425.92643  0.030259053  0.030645045            2 
 1174000     1.088845   -7.2363223    426.33812  0.030262501  0.030637099            1 
 1175000    1.0915781   -7.2438675    426.05498  0.030216665  0.030629247            3 
 1176000    1.0540221   -7.2407947    425.90671  0.030180464  0.030621213            2 
 1177000    1.0765867   -7.2823469    426.30548  0.030183056  0.030613203            3 
 1178000    1.0777787   -7.2612499    425.99244  0.030135288  0.030605244            2 
 1179000    1.0605963   -7.2950498    426.26588  0.030129056  0.030597263            1 
 1180000    1.0655855   -7.2350646    427.38178  0.030182329  0.030589152            1 
 1181000    1.0420685   -7.2460876    426.37494  0.030085728  0.030581182            1 
 1182000    1.0595018   -7.2801233    427.34991  0.030129012  0.030573157            6 
 1183000    1.0568435   -7.2568463    429.12314  0.030228454  0.030565227            1 
 1184000    1.0699041   -7.2812704    427.97457  0.030122084  0.030557222            2 
 1185000    1.0768775   -7.2201596    428.69576  0.030147381  0.030549345            2 
 1186000    1.0610282    -7.266421    428.76314  0.030126696  0.030541495            2 
 1187000    1.0506106   -7.2454354    429.22813   0.03013396  0.030533459            3 
 1188000    1.0448045   -7.2505376    429.15105  0.030103188  0.030525577            3 
 1189000    1.0441155   -7.2492062     429.0608  0.030071545  0.030517813            3 
 1190000    1.0512971     -7.29845    429.90063  0.030105086  0.030509805            2 
 1191000    1.0657206   -7.2517978    431.10215  0.030163879  0.030502148            3 
 1192000    1.0502542   -7.2409011    430.72425  0.030112154  0.030494482            3 
 1193000    1.0735565   -7.2339363    432.27371  0.030195146  0.030486987            2 
 1194000    1.0475496    -7.300692    429.88462  0.030003114  0.030479427            1 
 1195000     1.054493   -7.2673585    432.22482  0.030141201  0.030471868            2 
 1196000    1.0609541   -7.2730269    432.81631  0.030157212  0.030464403            3 
 1197000    1.0818286    -7.238104    433.80352  0.030200746  0.030457092            1 
 1198000    1.0630141   -7.2345391    434.04651   0.03019244   0.03044987            2 
 1199000    1.0774218   -7.2795274    434.85279  0.030223297  0.030442546            1 
 1200000    1.0507196   -7.2607737    434.88853  0.030200592  0.030435183            1 
 1201000    1.0597655   -7.2895463    433.00012  0.030044416  0.030427707            4 
 1202000    1.0535895   -7.2557127    434.13726  0.030098257  0.030420222            2 
 1203000    1.0616965   -7.2686206    434.20049  0.030077618    0.0304127            1 
 1204000    1.0711258   -7.2111536    434.85076  0.030097644  0.030405145            1 
 1205000    1.0581289    -7.302295    434.27177  0.030032626   0.03039747            3 
 1206000    1.0625958   -7.2698223    435.51946  0.030093937  0.030389893            2 
 1207000    1.0551495   -7.2282695    435.37892  0.030059301  0.030382404            3 
 1208000    1.0795756   -7.2515088    435.75648  0.030060463  0.030374874            2 
 1209000    1.0592117   -7.2438474    434.88092   0.02997525  0.030367353            3 
 1210000    1.0466931   -7.2985083    436.12591   0.03003622  0.030359778            3 
 1211000    1.0646303    -7.312914     435.3868  0.029960556   0.03035214            1 
 1212000    1.0691596   -7.2823919    436.12257  0.029986425  0.030344445            2 
 1213000    1.0481862   -7.2761506    435.75162   0.02993622  0.030336816            2 
 1214000    1.0731354   -7.2354652    437.42883  0.030026691  0.030329184            1 
 1215000    1.0552914   -7.2391687    438.58275  0.030081122  0.030321606            4 
 1216000     1.052324   -7.2487501    438.59038  0.030056907  0.030314023            2 
 1217000    1.0637181   -7.2672744    438.31384  0.030013273  0.030306469            3 
 1218000    1.0705897   -7.2561558    437.63297  0.029942048  0.030298893            1 
 1219000    1.0472416   -7.2170032    439.83537  0.030068045  0.030291505            1 
 1220000    1.0700357   -7.2349063    439.65397  0.030031009  0.030284042            1 
 1221000    1.0830774   -7.2645217    437.99158  0.029892955  0.030276458            1 
 1222000    1.0695355    -7.262133    439.96918  0.030003354  0.030269016            2 
 1223000    1.0667465   -7.2408982    440.96995  0.030047012  0.030261648            4 
 1224000    1.0440701   -7.2585962    440.20508  0.029970389   0.03025418            1 
 1225000    1.0365917    -7.258366    440.92716  0.029995045  0.030246874            1 
 1226000    1.0239913   -7.2640501    441.17566   0.02998747  0.030239313            3 
 1227000     1.066278   -7.2782962    440.96226  0.029948537  0.030232044            1 
 1228000    1.0628238   -7.2860669    441.01769  0.029927911  0.030224732            2 
 1229000    1.0768985   -7.2671124     441.8583  0.029960557  0.030217331            1 
 1230000    1.0625549   -7.3276929    439.71005  0.029790654  0.030209735            2 
 1231000    1.0699095   -7.3025205    440.03316  0.029788327   0.03020207            1 
 1232000    1.0495798   -7.3085325    441.45481  0.029860309  0.030194631            1 
 1233000    1.0471397   -7.2503309    442.91736  0.029934939  0.030187315            1 
 1234000    1.0453582   -7.2819781    442.39625   0.02987549  0.030180139            2 
 1235000     1.046569   -7.2777576    442.18366  0.029836954  0.030172948            1 
 1236000    1.0562055   -7.3038984    444.28357  0.029954394  0.030165794            2 
 1237000    1.0452652   -7.2908275    443.05237  0.029847236  0.030158513            1 
 1238000    1.0536504    -7.238164    444.96558   0.02995191  0.030151312            2 
 1239000    1.0608052   -7.2698268     445.3722  0.029955085  0.030144224            2 
 1240000    1.0766712   -7.2503292    445.84191  0.029962494  0.030137145            2 
 1241000    1.0418774   -7.2482835    446.40661   0.02997627  0.030130026            1 
 1242000    1.0476952    -7.263925    445.50505  0.029891643   0.03012283            2 
 1243000    1.0610709   -7.2802982    445.02049  0.029835109  0.030115796            3 
 1244000     1.034389   -7.2824751    446.31896  0.029898109  0.030108601            1 
 1245000    1.0432638    -7.238223    447.21561  0.029934111  0.030101371            2 
 1246000    1.0728312   -7.2816686    447.71763  0.029943662  0.030094403            2 
 1247000    1.0756716   -7.2785858    446.69516  0.029851321  0.030087311            1 
 1248000    1.0728932   -7.3021285    447.16148  0.029858539  0.030080252            1 
 1249000    1.0339827   -7.2772984    447.05848  0.029827761   0.03007317            3 
 1250000    1.0681741   -7.2880789    448.27022  0.029884682  0.030066075            2 
 1251000     1.063418   -7.2736891    448.03094  0.029844854  0.030059038            1 
 1252000    1.0444632   -7.3060455    448.37188  0.029843709  0.030051877            1 
 1253000    1.0577112   -7.2503676    449.05941  0.029865617  0.030044851            1 
 1254000     1.038791   -7.2727825    449.51925  0.029872358  0.030037975            1 
 1255000     1.067442   -7.2927762    450.20972  0.029894404  0.030031027            1 
 1256000     1.045976   -7.2720915    450.01737   0.02985784  0.030024302            2 
 1257000    1.0339066   -7.2776583    452.22908  0.029980713  0.030017615            1 
 1258000    1.0658793    -7.254607    451.89674  0.029934866   0.03001088            1 
 1259000    1.0421559    -7.271857    450.33223  0.029807534  0.030004379            3 
 1260000    1.0497409   -7.2527913    452.59819  0.029933743  0.029997741            2 
 1261000    1.0548535   -7.3128843    450.96565  0.029802118  0.029991174            2 
 1262000    1.0595568   -7.2608668    452.68265  0.029891881  0.029984457            2 
 1263000    1.0549077   -7.2783074    452.53125  0.029858225  0.029977941            3 
 1264000    1.0407898   -7.2878978    454.51554  0.029965423  0.029971327            3 
 1265000    1.0418138   -7.3211128    452.65636   0.02981926  0.029964843            2 
 1266000    1.0433642   -7.2689472    454.47827  0.029915631  0.029958297            3 
 1267000    1.0630178   -7.2799266    453.29262  0.029814037  0.029952006            1 
 1268000    1.0568771   -7.3144867    453.91985  0.029831746  0.029945609            1 
 1269000    1.0641736   -7.2342509    455.26093  0.029896305  0.029939427            1 
 1270000    1.0516124   -7.3086593    456.04963  0.029924516  0.029932919            1 
 1271000    1.0500875   -7.3101801    455.75189  0.029881451  0.029926404            3 
 1272000    1.0651357   -7.3272178    455.07007  0.029813291  0.029919871            3 
 1273000    1.0331789   -7.2977036    455.73303   0.02983327  0.029913476            3 
 1274000    1.0557554   -7.2713655    455.89883  0.029820698  0.029906963            2 
 1275000    1.0559557   -7.2906512    455.75332  0.029787798  0.029900428            3 
 1276000    1.0707273   -7.2809112    454.54404  0.029685478  0.029893819            2 
 1277000    1.0445125   -7.2872909    456.44486  0.029786274  0.029887393            2 
 1278000     1.040524   -7.2731986    457.06808  0.029803605  0.029881075            3 
 1279000    1.0758111   -7.2596376    457.85881  0.029831823  0.029874846            1 
 1280000    1.0323347   -7.2949098    457.78458  0.029803684  0.029868595            1 
 1281000    1.0333859   -7.2919693    457.38165  0.029754206  0.029862208            2 
 1282000    1.0489522   -7.2982193    458.08647  0.029776812  0.029855882            2 
 1283000    1.0724356   -7.3014242    459.41214  0.029839708  0.029849543            1 
 1284000    1.0457049   -7.3249425    458.17475   0.02973616  0.029843338            2 
 1285000    1.0529984   -7.2972268    460.98506   0.02989527  0.029836943            2 
 1286000    1.0417928   -7.3293474     460.1843  0.029820133  0.029830627            2 
 1287000    1.0373696   -7.2864998    460.07116  0.029789638  0.029824251            3 
 1288000     1.036992   -7.2677519    460.09828  0.029768263  0.029818079            2 
 1289000    1.0585692   -7.3003969    459.53133  0.029708516   0.02981182            1 
 1290000    1.0320091   -7.2753757    461.43395  0.029808395  0.029805592            1 
 1291000    1.0467726   -7.2786131    461.06573  0.029761537  0.029799295            1 
 1292000    1.0497304   -7.2972979    460.38417  0.029694541  0.029792944            2 
 1293000    1.0546019   -7.2857856    461.63499   0.02975219  0.029786593            1 
 1294000    1.0560187   -7.3184466    462.01426  0.029753623  0.029780301            2 
 1295000    1.0640498   -7.2876576    460.31055  0.029621013  0.029773946            7 
 1296000    1.0521221   -7.2808258    462.80018  0.029758242  0.029767508            2 
 1297000    1.0432786   -7.3167981    461.89272  0.029676993  0.029761167            2 
 1298000    1.0558916   -7.2805074    462.22844  0.029675683  0.029754569            1 
 1299000    1.0548126   -7.3229119    460.74953  0.029557963  0.029747993            3 
 1300000    1.0457198   -7.2619042    462.42927  0.029642902  0.029741543            4 
 1301000    1.0363831   -7.2759553    463.53254  0.029690785  0.029735057            1 
 1302000    1.0611418   -7.2930756    463.88253  0.029690382  0.029728585            2 
 1303000    1.0080174   -7.3162457    462.08029  0.029552333  0.029721913            4 
 1304000    1.0369383    -7.334248    463.30096  0.029607679  0.029715285            1 
 1305000    1.0174949   -7.3274365     462.3577  0.029524757  0.029708716            1 
 1306000    1.0434544   -7.2968083    463.77669  0.029592693   0.02970198            1 
 1307000    1.0224954     -7.28685    464.18322  0.029595972  0.029695217            4 
 1308000    1.0468073   -7.3313267    462.48697  0.029465276  0.029688448            1 
 1309000    1.0336055   -7.3026519    462.63876  0.029452429  0.029681496            4 
 1310000    1.0221848   -7.3082383    463.92198  0.029511576  0.029674667            1 
 1311000    1.0204166   -7.3036172    464.21133  0.029507458  0.029667755            3 
 1312000    1.0316722   -7.3302571    464.33985  0.029493131  0.029660842            2 
 1313000    1.0477002   -7.2750221     464.4746  0.029479221  0.029654068            2 
 1314000    1.0393145   -7.3043328    464.41912  0.029453267  0.029647361            2 
 1315000    1.0383046   -7.3009025    465.96298  0.029528706  0.029640435            3 
 1316000    1.0498567   -7.2860508    465.32144  0.029465644  0.029633604            2 
 1317000    1.0469978   -7.2868296    465.70489  0.029467533  0.029626637            3 
 1318000    1.0465505   -7.3372989    464.08944  0.029343035  0.029619521            2 
 1319000    1.0528339   -7.3357606    464.76922  0.029363736  0.029612132            2 
 1320000    1.0137153   -7.3535246    464.96477  0.029353836  0.029604835            1 
 1321000    1.0493112   -7.3128076    466.19423  0.029409174  0.029597696            2 
 1322000    1.0562103   -7.3020099    465.51682  0.029344227  0.029590771            2 
 1323000    1.0479301   -7.2991159    465.24182  0.029304725  0.029583667            1 
 1324000    1.0254441   -7.3132985    466.96561  0.029391088  0.029576628            1 
 1325000    1.0577287   -7.2763726    466.77268  0.029356772  0.029569503            2 
 1326000    1.0432913   -7.3407274    465.80712  0.029273952  0.029562362            3 
 1327000    1.0450681   -7.2664919     468.0981  0.029395761  0.029555134            1 
 1328000    1.0163218   -7.3315418    466.79013  0.029291549  0.029548057            2 
 1329000    1.0252643   -7.3147397     468.1043  0.029351912  0.029540807            3 
 1330000    1.0437525   -7.3374134    467.61334  0.029299081  0.029533634            2 
 1331000     1.033652   -7.3075986    469.00206  0.029364016   0.02952641            2 
 1332000    1.0364618   -7.2644843    470.57482  0.029440367  0.029519318            2 
 1333000    1.0577589   -7.3202334    468.62874   0.02929662  0.029512236            3 
 1334000    1.0356964   -7.3282902    468.71554  0.029280081  0.029505159            3 
 1335000     1.050125   -7.2509865    471.28666  0.029418643  0.029498335            2 
 1336000    1.0365409   -7.2782125    471.12562  0.029386578  0.029491545            1 
 1337000    1.0330334   -7.3279522    470.70735  0.029338529  0.029484842            1 
 1338000    1.0292965   -7.2664094    471.25281  0.029350573  0.029478013            2 
 1339000    1.0448705   -7.2924031    471.26232  0.029329246  0.029471341            2 
 1340000    1.0400817   -7.3298166    470.11594  0.029236066  0.029464687            1 
 1341000    1.0396118   -7.3178791    472.96094   0.02939106  0.029457726            4 
 1342000    1.0201353   -7.2849293    471.85189  0.029300291  0.029450945            1 
 1343000    1.0268498   -7.2748641    472.18564  0.029299184   0.02944416            4 
 1344000    1.0633073   -7.2847754    473.27885  0.029345167  0.029437414            1 
 1345000    1.0191392   -7.2553435    474.40469  0.029393104  0.029430729            1 
 1346000    1.0366871   -7.3235483    473.13449  0.029292626  0.029423864            1 
 1347000    1.0176106   -7.3112987    473.46895  0.029291571  0.029417051            1 
 1348000    1.0632041   -7.2707991    473.52846   0.02927352  0.029410312            1 
 1349000    1.0274282    -7.290614    474.01536  0.029281898    0.0294036            2 
 1350000    1.0454969   -7.3050647    474.12965  0.029267262  0.029396806            1 
 1351000    1.0553801   -7.3283011    473.41294   0.02920139  0.029389865            2 
 1352000    1.0507798   -7.3096406    474.09524  0.029221846  0.029383149            2 
 1353000    1.0407332   -7.3083807    476.57043    0.0293527  0.029376367            1 
 1354000    1.0573219   -7.3167994    473.65415  0.029151536   0.02936957            1 
 1355000    1.0513192   -7.2724716    472.95696  0.029087144  0.029362659            1 
 1356000    1.0414243   -7.2967854    475.31835  0.029210813  0.029355633            6 
 1357000    1.0374438   -7.3372728    472.80736  0.029035087  0.029348612            1 
 1358000    1.0396469   -7.3076041    475.58536  0.029184178  0.029341475            1 
 1359000    1.0421189   -7.3511743    473.64236  0.029043559  0.029334213            2 
 1360000    1.0136203    -7.324637    475.77392  0.029152814  0.029327061            2 
 1361000    1.0309876   -7.3287852    477.14222  0.029215174  0.029319939            1 
 1362000    1.0384427   -7.3587119    474.89175   0.02905603  0.029312766            2 
 1363000    1.0264998   -7.3170236    477.06469  0.029167565  0.029305771            3 
 1364000    1.0396788   -7.3260143    476.53137  0.029113598  0.029298896            1 
 1365000    1.0397949     -7.33372    477.57516  0.029155992  0.029291968            2 
 1366000    1.0303686   -7.3259247    476.66435  0.029079084  0.029284968            1 
 1367000    1.0566959    -7.343587    476.28174  0.029034488  0.029277941            4 
 1368000    1.0139646   -7.2991742    479.01821  0.029179959  0.029271005            2 
 1369000    1.0315546   -7.3005119    477.31692  0.029055084  0.029264019            2 
 1370000    1.0280357   -7.3037695     479.1331  0.029144349  0.029257083            3 
 1371000    1.0284791   -7.3647149    476.15934  0.028942338  0.029249984            1 
 1372000    1.0211224   -7.3220137    478.46209  0.029061108  0.029242901            1 
 1373000    1.0277842   -7.3234199    477.73211  0.028995637  0.029235808            1 
 1374000    1.0177168   -7.3638134    478.73765   0.02903552  0.029228824            2 
 1375000    1.0275137   -7.3562969    478.21753  0.028982881  0.029221686            2 
 1376000    1.0417885   -7.3504276    478.41501  0.028973778  0.029214665            3 
 1377000    1.0332206   -7.3389417    477.23858  0.028881541  0.029207551            1 
 1378000    1.0314538    -7.338017    480.27522   0.02904422  0.029200439            1 
 1379000    1.0171623   -7.3653422    479.34942  0.028967212  0.029193579            3 
 1380000    1.0338503   -7.3115613    481.15979  0.029055543  0.029186556            1 
 1381000    1.0161621    -7.343394    478.68979  0.028885457  0.029179594            3 
 1382000    1.0220859   -7.3019341    481.83304  0.029054091  0.029172619            2 
 1383000    1.0309321   -7.3042123    481.30563  0.029001303  0.029165728            1 
 1384000    1.0491412   -7.3469635    481.38084  0.028984877  0.029158816            2 
 1385000    1.0082767   -7.3393098    481.93177  0.028997098  0.029151855            1 
 1386000    1.0473075   -7.3076381    482.55368  0.029013569  0.029144906            2 
 1387000    1.0345025    -7.331868    482.50815  0.028989916  0.029138052            2 
 1388000    1.0386946   -7.3256039    481.64179  0.028917015  0.029131101            2 
 1389000    1.0250689   -7.2902808    483.81681  0.029026687  0.029124292            2 
 1390000     1.024661   -7.3268685     482.7038  0.028939077  0.029117491            2 
 1391000    1.0246212   -7.3593141    481.94508  0.028872818  0.029110613            2 
 1392000    1.0432304    -7.343238    483.36192  0.028936896  0.029103634            2 
 1393000    1.0325282   -7.3272347    482.57867  0.028869267   0.02909667            3 
 1394000    1.0379406   -7.3202398    484.65773  0.028972844  0.029089741            2 
 1395000    1.0187966   -7.2841436    485.45513  0.028999709   0.02908275            5 
 1396000    1.0167825   -7.3771291    484.58997  0.028927291  0.029075764            2 
 1397000    1.0153513   -7.3503842    483.89638   0.02886521  0.029068635            1 
 1398000    1.0433408   -7.3689079    483.53049  0.028822752  0.029061543            2 
 1399000    1.0391619    -7.331567    483.73053  0.028814066  0.029054428            2 
 1400000    1.0081552    -7.349774    483.56664  0.028783729  0.029047321            3 
 1401000    1.0066818   -7.3234966     485.2886  0.028865608  0.029040339            1 
 1402000    1.0580264   -7.3216623    485.63587   0.02886566  0.029033352            1 
 1403000     1.006189     -7.35204    485.48783  0.028836293  0.029026452            1 
 1404000    1.0183265   -7.3251838    485.99549  0.028845886  0.029019599            2 
 1405000    1.0339655   -7.3366019     487.3934  0.028908268  0.029012768            4 
 1406000    1.0116811   -7.3246695    487.84791  0.028914646  0.029005942            4 
 1407000    1.0354874   -7.3462522    486.26831  0.028800539  0.028999071            1 
 1408000    1.0209809   -7.3557183    487.08363   0.02882834  0.028992081            2 
 1409000    1.0334234    -7.358188    486.20977  0.028756197  0.028985017            2 
 1410000    1.0150712   -7.3871622     486.4123  0.028747772  0.028977949            1 
 1411000    1.0299529   -7.3216147    488.82319  0.028869785  0.028970977            2 
 1412000    1.0255584   -7.3101422    488.82604  0.028849507  0.028963995            1 
 1413000    1.0306982   -7.3349832    489.70539   0.02888095  0.028957226            2 
 1414000    1.0474871   -7.3431871    487.86356  0.028751978  0.028950253            2 
 1415000    1.0276362    -7.308776    489.94012  0.028853953  0.028943309            2 
 1416000    1.0233283   -7.3103871    488.92686  0.028773944  0.028936414            3 
 1417000    1.0291415   -7.3533979    488.97628  0.028756545   0.02892938            1 
 1418000    1.0176727   -7.3656208    489.17347  0.028747853  0.028922495            3 
 1419000    1.0357592   -7.3371704    490.49425  0.028805159  0.028915638            1 
 1420000     1.026912   -7.3013754    490.99915  0.028814504  0.028908844            1 
 1421000    1.0243358   -7.3618557    490.33229  0.028755119  0.028901888            3 
 1422000    1.0086428   -7.3763493    490.44732  0.028741639  0.028894873            2 
 1423000    1.0252533   -7.3355646    492.31515  0.028830824  0.028887988            2 
 1424000    1.0176419    -7.382586    489.58291  0.028650685  0.028881033            2 
 1425000    1.0264667   -7.3440605    491.59402  0.028748189  0.028874113            1 
 1426000     1.029993   -7.3477803    490.70435  0.028676037  0.028867194            1 
 1427000    1.0192814   -7.3365575    493.01947  0.028791139  0.028860479            3 
 1428000    1.0361342   -7.3407367    492.39592  0.028734589  0.028853566            1 
 1429000     1.027694   -7.3235163    492.48208  0.028719506  0.028846777            2 
 1430000    1.0152611   -7.3540136    491.98765  0.028670609  0.028839899            6 
 1431000    1.0181786   -7.3882284    492.18142  0.028661858  0.028832988            4 
 1432000    1.0192476   -7.3590055    492.62158  0.028667457  0.028826006            3 
 1433000    1.0320558   -7.3437822    493.17732   0.02867977  0.028819026            1 
 1434000    1.0272254   -7.3814107    492.73712  0.028634189  0.028812072            1 
 1435000    1.0328117   -7.4061083    492.63633  0.028608382  0.028805089            2 
 1436000    1.0264697   -7.3679242    493.67747  0.028648878  0.028798035            2 
 1437000    1.0199619   -7.3537319    493.64684  0.028627165  0.028790967            3 
 1438000    1.0451659   -7.3364911    493.89577  0.028621683  0.028783893            3 
 1439000     1.015328   -7.3545027    494.49338  0.028636401  0.028776791            3 
 1440000    1.0228101   -7.3415737    495.09281  0.028651205  0.028769878            3 
 1441000    1.0058664   -7.3466961    495.04935  0.028628808  0.028762927            2 
 1442000   0.99421024   -7.3507776    495.08682   0.02861112  0.028756145            2 
 1443000    1.0297226   -7.3351251    495.77096  0.028630801  0.028749192            1 
 1444000    1.0107337   -7.3408009    496.00927  0.028624727  0.028742264            1 
 1445000    1.0079934   -7.3236189    495.64636  0.028583989  0.028735249            1 
 1446000    1.0269779   -7.3890183    495.28173  0.028543207   0.02872821            2 
 1447000    1.0386409   -7.3425109    496.00325  0.028565034  0.028721073            2 
 1448000     1.036882     -7.32428    496.36904  0.028566358  0.028714091            1 
 1449000    1.0105056     -7.33819    496.14539  0.028533781  0.028707118            1 
 1450000    1.0116826   -7.3896059    496.58826  0.028539555  0.028699976            1 
 1451000   0.99471527   -7.3581574     496.4329  0.028510964  0.028692788            1 
 1452000    1.0139219   -7.3427276    496.13512  0.028474238   0.02868581            2 
 1453000    1.0284068   -7.3716429    495.95493  0.028444307  0.028678713            1 
 1454000    1.0279305   -7.3104764    497.63933  0.028521282  0.028671687            3 
 1455000    1.0433334    -7.322328    497.51268  0.028494426  0.028664647            1 
 1456000    1.0283654   -7.3571761     497.1095   0.02845178  0.028657542            4 
 1457000    1.0293051   -7.3477431    497.30388   0.02844337  0.028650358            2 
 1458000    1.0319182   -7.3798756    496.70496   0.02838963  0.028643152            1 
 1459000    1.0275378   -7.3558241    498.93171  0.028497356  0.028635919            1 
 1460000    1.0396643     -7.34483    496.99663  0.028367388  0.028628629            2 
 1461000    1.0111201   -7.3186337     499.8364  0.028509948  0.028621535            2 
 1462000    1.0092692    -7.359918    498.21951  0.028398285  0.028614523            5 
 1463000    1.0457987   -7.3264416    499.38601  0.028445318  0.028607442            1 
 1464000    1.0155233   -7.3634215    498.62753  0.028382715  0.028600276            2 
 1465000   0.99796027   -7.3731952    499.63231  0.028420495  0.028593158            2 
 1466000    1.0450058   -7.3531091    500.19216  0.028432933  0.028586098            1 
 1467000    1.0304129    -7.348334    498.47926   0.02831625  0.028578966            1 
 1468000    1.0479475   -7.3641185    500.71085   0.02842364  0.028571906            1 
 1469000    1.0418926   -7.3484387    500.70965  0.028404223  0.028564884            2 
 1470000    1.0094414   -7.3338481    501.75565  0.028444198  0.028557901            1 
 1471000     1.005862   -7.3709843    501.41755  0.028405707  0.028551052            1 
 1472000    1.0057927   -7.3788449     500.9422    0.0283595   0.02854402            2 
 1473000    1.0254507   -7.3598874    500.39168  0.028309102  0.028536865            2 
 1474000    1.0271174   -7.3785152    501.73143  0.028365639  0.028529898            3 
 1475000     1.005594   -7.3804176    500.91847  0.028300478  0.028522898            2 
 1476000   0.99391864   -7.3762396    501.69917  0.028325382  0.028515898            3 
 1477000    1.0121312    -7.411331    501.21633  0.028278962  0.028508819            1 
 1478000     1.004073   -7.3594885    502.81184  0.028349788   0.02850178            1 
 1479000   0.99865479   -7.3625648    504.42567   0.02842155  0.028494918            1 
 1480000    1.0010561   -7.3357251    503.94633  0.028375356  0.028488133       -1e+20 
 1481000    1.0374078   -7.3320784    504.06735  0.028363006  0.028481515            1 
 1482000    1.0281883   -7.3699863    502.70509  0.028267268  0.028474676            2 
 1483000    1.0111669    -7.347574    505.16832  0.028386621  0.028467826            2 
 1484000    1.0112851   -7.3079937      505.473  0.028384602  0.028461066            1 
 1485000   0.99890688   -7.3180638    506.28235  0.028410907  0.028454489            2 
 1486000    1.0025238   -7.3278801    505.90991  0.028370901  0.028447636            2 
 1487000     1.012667   -7.3711796    506.72718  0.028397622  0.028440847            2 
 1488000    1.0017312   -7.3799144    505.52533   0.02831123  0.028434234            2 
 1489000    1.0081448   -7.3647132    507.05005  0.028377549  0.028427433            3 
 1490000   0.99297541   -7.3541904     505.9213  0.028295375  0.028420615            4 
 1491000    1.0185462   -7.3915478    504.48373   0.02819605  0.028413692            3 
 1492000    1.0092592     -7.40198    506.65509   0.02829843  0.028406838            1 
 1493000    1.0323784   -7.3808115      506.787  0.028286838  0.028399998            1 
 1494000    1.0055302   -7.3635217    507.45574  0.028305207   0.02839311            3 
 1495000    1.0173745   -7.3543691    507.23772   0.02827412   0.02838631            2 
 1496000   0.99857955   -7.3391416    506.77222   0.02822929  0.028379625            2 
 1497000     1.008056   -7.3727737    506.72909  0.028208032   0.02837265            3 
 1498000    1.0261228   -7.3844063    507.37395  0.028225075  0.028365839            2 
 1499000     1.010371      -7.4007    505.64003  0.028109853  0.028358952            1 
 1500000    1.0055835   -7.4168213     507.5764  0.028198689  0.028352065            2 
 1501000   0.99994327   -7.3523127    507.69563  0.028186522   0.02834513            2 
 1502000   0.99776986   -7.3528562    506.71439  0.028113315  0.028338299            1 
 1503000   0.99919503   -7.3941199    508.36488  0.028186121  0.028331391            1 
 1504000    1.0104064   -7.3573322    510.44543  0.028282659  0.028324443            1 
 1505000    1.0138647   -7.3711284    509.26495  0.028198502  0.028317549            4 
 1506000   0.99709923     -7.34852    510.73915  0.028261352  0.028310585            2 
 1507000    1.0101524   -7.3651282    509.58062  0.028178535   0.02830378            1 
 1508000   0.97901897   -7.3601499    510.12344  0.028189845  0.028297051            2 
 1509000    1.0019151   -7.4032289    508.90793  0.028104039   0.02829037            1 
 1510000    1.0221997   -7.3636951    511.04821  0.028203544  0.028283529            2 
 1511000     1.007708   -7.3549015     511.1784  0.028192058  0.028276745            2 
 1512000    1.0072709    -7.378131    510.34431  0.028127442   0.02826997            2 
 1513000     1.032018   -7.3809021    510.93045  0.028141135  0.028263151            1 
 1514000     1.004713   -7.3605826    510.95295  0.028123786  0.028256359            1 
 1515000    1.0163869   -7.4042478    510.70391  0.028091524  0.028249584            1 
 1516000   0.99640844       -7.384    512.22532  0.028156625  0.028242831            1 
 1517000     1.016845   -7.3330877    511.48184  0.028097223  0.028236099            2 
 1518000    1.0061839   -7.3876337     512.9249  0.028157933  0.028229334            1 
 1519000    1.0092669   -7.3694839    512.34457  0.028107558  0.028222416            2 
 1520000    1.0346345   -7.3739394    511.85696  0.028062333  0.028215437            5 
 1521000    1.0191114    -7.360539    512.60233  0.028084721  0.028208541            2 
 1522000    1.0041683   -7.4085261    511.50396   0.02800613  0.028201576            2 
 1523000    0.9999295   -7.3832912    510.95776  0.027957855  0.028194454            1 
 1524000    1.0029124    -7.405422    511.94896   0.02799371  0.028187325            3 
 1525000   0.99752188    -7.358766     513.3231  0.028050442  0.028180427            4 
 1526000    1.0042144   -7.3583339    513.39732  0.028036114  0.028173402            5 
 1527000    0.9957935   -7.4062147    512.56137  0.027972133  0.028166381            3 
 1528000   0.99928676   -7.4189422     513.3925  0.027999154  0.028159348            2 
 1529000   0.99531171   -7.4041358    512.06158  0.027908305  0.028152241            1 
 1530000    1.0053207   -7.4147992    513.68585  0.027978532  0.028145074            2 
 1531000    1.0227397   -7.4108516    513.74171  0.027963298  0.028137849            2 
 1532000   0.99732465   -7.3642156    514.62762  0.027993234  0.028130722            2 
 1533000    1.0222409   -7.3887023    512.69133  0.027869718  0.028123682            2 
 1534000    1.0181275   -7.3888361     513.9737  0.027921214  0.028116533            1 
 1535000   0.99359289   -7.3646996    516.14109  0.028020689  0.028109395            3 
 1536000   0.98703859   -7.3480054    514.96795  0.027938799  0.028102385            2 
 1537000    1.0432388   -7.4186657    513.59989  0.027846448  0.028095265            1 
 1538000     1.006572   -7.3953359    513.91513  0.027845423  0.028088015            2 
 1539000    1.0007879   -7.3584322    515.77542   0.02792806  0.028080817            1 
 1540000    1.0159015   -7.3741074    515.14513  0.027875818  0.028073666            5 
 1541000   0.99909259   -7.3690749    514.74989  0.027836356  0.028066319            4 
 1542000    1.0152805   -7.3646786    515.42919  0.027855015  0.028058963            2 
 1543000   0.99200544   -7.4074697    514.39895  0.027781322  0.028051623            1 
 1544000    1.0055495   -7.4354556    514.52754  0.027770269  0.028044304            2 
 1545000    1.0138956   -7.3688791    516.29826  0.027847802  0.028037145            3 
 1546000    1.0117789   -7.3893048    516.74374  0.027853802  0.028030017            2 
 1547000    1.0024362   -7.4157454    517.49801  0.027876428  0.028022922            5 
 1548000   0.98896923   -7.3908957    515.24039  0.027736886  0.028015742            2 
 1549000    1.0053971   -7.4073947     516.4958  0.027786518  0.028008499            1 
 1550000   0.97844401   -7.4036663    517.38985  0.027816658  0.028001352            1 
 1551000    1.0090921   -7.4085174     516.4496  0.027748206  0.027994091            2 
 1552000    1.0041104   -7.3620029    518.42367  0.027836322  0.027986932            3 
 1553000   0.99049095   -7.3988754    517.29021  0.027757577  0.027979772            2 
 1554000   0.99917855   -7.4198091    517.03228  0.027725883  0.027972362            2 
 1555000   0.99076011   -7.3831436    516.54757  0.027682078  0.027965068            3 
 1556000   0.99801458   -7.4226852    517.79836  0.027731275  0.027957743            2 
 1557000    1.0066787   -7.4042198    517.53635   0.02769944    0.0279503            3 
 1558000    1.0122222   -7.3957033    518.98268  0.027759022  0.027942861            2 
 1559000    1.0169446   -7.3995862    516.87765  0.027628696  0.027935432            1 
 1560000   0.99826771   -7.3992781    517.38904  0.027638303  0.027928064            2 
 1561000   0.99932347   -7.4050127    518.87417  0.027699881  0.027920715            1 
 1562000   0.99656863   -7.3933543    517.23705  0.027594806  0.027913389            2 
 1563000    1.0044796   -7.4035166    518.39598  0.027638941  0.027905992            2 
 1564000   0.99699763   -7.3926524    518.89122  0.027647657  0.027898692            1 
 1565000    1.0009954   -7.3741393    520.12924  0.027695912  0.027891419            2 
 1566000   0.98693768   -7.3635376    520.33602  0.027689231  0.027884277            1 
 1567000   0.99774688   -7.4228125    520.13651   0.02766095  0.027877064            1 
 1568000    0.9982335   -7.3890614     521.3584  0.027708248  0.027869939            2 
 1569000   0.99861148   -7.3880039    522.60006  0.027756536  0.027862858            1 
 1570000    1.0036295   -7.3871486    522.38564  0.027727476  0.027855764            1 
 1571000    1.0073418   -7.3673812    523.55171   0.02777168  0.027848755            3 
 1572000    1.0113308   -7.4155013    521.44053  0.027642098   0.02784177            2 
 1573000   0.99569054   -7.4229234    521.73607  0.027640182  0.027834598            1 
 1574000   0.98751294   -7.3920938    524.29549  0.027758126  0.027827474            1 
 1575000   0.97579618   -7.4299115    521.87801  0.027612593  0.027820461            1 
 1576000   0.99891349   -7.3729148    524.09924  0.027712523  0.027813407            2 
 1577000    1.0065105   -7.3912649    524.84046  0.027734119  0.027806516            1 
 1578000   0.98790758   -7.3757095    525.24786  0.027738058  0.027799777            2 
 1579000   0.99969095   -7.3953572    525.24783  0.027720489  0.027792914            1 
 1580000    1.0069498   -7.4088317    524.29358  0.027652615  0.027786014            2 
 1581000   0.99667768   -7.3745633    525.57608  0.027702724  0.027779153            4 
 1582000   0.97816551   -7.3711704    526.49162   0.02773344  0.027772259            2 
 1583000   0.99481984   -7.3700466    525.03949  0.027639476  0.027765498            1 
 1584000   0.99619537   -7.3980212     524.9941  0.027619639  0.027758482            1 
 1585000   0.98473048   -7.3902373    526.77115  0.027695644  0.027751474            1 
 1586000    1.0115045   -7.4164345    524.12534  0.027539162  0.027744435            2 
 1587000   0.97500143   -7.4059404    526.79288  0.027661882  0.027737562            3 
 1588000    1.0052365   -7.4243915    525.09959  0.027555604  0.027730666            2 
 1589000   0.98785091    -7.423772    526.10793  0.027591144  0.027723797            2 
 1590000    1.0080686   -7.4048357    527.64401  0.027654298  0.027716974            2 
 1591000     0.982118   -7.4059707     525.2601  0.027512052  0.027710098            2 
 1592000    1.0178552   -7.3751168    527.04168  0.027588028   0.02770318            1 
 1593000   0.99679214   -7.3778431    528.20709  0.027631675  0.027696226            1 
 1594000    1.0088114   -7.4174481    526.86465  0.027544158  0.027689337            1 
 1595000   0.99764121    -7.391027    526.83731   0.02752546   0.02768253            2 
 1596000   0.96693145   -7.4320721      527.066  0.027520154  0.027675487            4 
 1597000   0.99676558   -7.4219846    527.11761  0.027505615  0.027668516            3 
 1598000   0.98732465   -7.4022814    527.92442  0.027530477  0.027661641            1 
 1599000   0.99941124   -7.3769116    528.87231  0.027562659  0.027654756            2 
 1600000   0.97901668    -7.423699    528.57537  0.027529967   0.02764781            1 
 1601000   0.99446906   -7.4106205    528.78246  0.027523551  0.027640817            1 
 1602000   0.98673101   -7.4159202    530.50513  0.027595981  0.027633881            1 
 1603000   0.97716142   -7.4152668    530.33377  0.027569857   0.02762699            1 
 1604000   0.99460157   -7.4160629    530.12033   0.02754158  0.027620158            2 
 1605000    1.0006255   -7.4252833    528.89938  0.027461027  0.027613357            2 
 1606000   0.99937956   -7.4632224    528.65377  0.027431184  0.027606397            2 
 1607000    1.0032177   -7.4415097    531.25274  0.027548887  0.027599631            1 
 1608000    1.0083202   -7.4261475     530.5944  0.027497637  0.027592794            1 
 1609000   0.97972611    -7.411441    530.44945   0.02747304   0.02758596            1 
 1610000    1.0034003   -7.4242335    530.40607   0.02745373   0.02757914            4 
 1611000    1.0042614    -7.411848     531.3311  0.027484539   0.02757226            1 
 1612000   0.99834215   -7.4020847    530.85988  0.027443128  0.027565375            3 
 1613000   0.99217949   -7.3899029    530.44123  0.027404486  0.027558578            3 
 1614000   0.99521616   -7.4078624    531.79235  0.027457267  0.027551694            5 
 1615000    1.0032094   -7.4374049    530.48146  0.027372624  0.027544707            5 
 1616000   0.98916147   -7.4178805    531.43787  0.027405006  0.027537717            1 
 1617000   0.99295592   -7.4337201    532.52729  0.027444202  0.027530679            2 
 1618000   0.98423078   -7.4141779    532.24057  0.027412473  0.027523734            2 
 1619000   0.99736528   -7.4000787    532.30573  0.027398895  0.027516784            3 
 1620000   0.98525605    -7.395081    531.64974  0.027348238  0.027509761            1 
 1621000    1.0180504   -7.4429685    531.61963  0.027329819  0.027502683            2 
 1622000    1.0137193   -7.3868024    531.51644  0.027307667  0.027495594            3 
 1623000   0.99427043   -7.4300038    530.08717  0.027217456  0.027488412            1 
 1624000    1.0106455   -7.4147836    532.59312  0.027329286   0.02748119            4 
 1625000    1.0006449   -7.4168629    531.15914   0.02723893  0.027474026            1 
 1626000   0.96343086   -7.4464409     531.8462   0.02725739  0.027466789            2 
 1627000   0.99983355   -7.4473015    531.01003  0.027197809  0.027459508            2 
 1628000   0.97635145   -7.4063718    533.57798   0.02731255    0.0274524            2 
 1629000   0.98141297   -7.4087989    534.02517   0.02731866  0.027445324            3 
 1630000   0.96219155   -7.4501142    532.11554  0.027204271  0.027438274            2 
 1631000   0.98154133   -7.4478661    533.76069  0.027271648  0.027431264            1 
 1632000   0.99907513   -7.3818119    536.40372  0.027389896   0.02742439            5 
 1633000   0.98900301   -7.4199017    534.57191  0.027279644  0.027417519            1 
 1634000   0.99335049   -7.4232832    534.21431  0.027244712  0.027410531            1 
 1635000   0.99636962    -7.424509    534.10339  0.027222395  0.027403531            1 
 1636000   0.97361592   -7.4090678    536.41394  0.027323448   0.02739654            2 
 1637000   0.99709564   -7.3800516    536.04997  0.027288229  0.027389657            2 
 1638000    1.0089396   -7.4166818    534.68998   0.02720238  0.027382718            4 
 1639000   0.98163306   -7.4237464    536.05378  0.027255124  0.027375716            3 
 1640000   0.99695848   -7.4262132    535.83925  0.027227604  0.027368766            1 
 1641000   0.97571032   -7.4452148    536.42346  0.027240679   0.02736176            2 
 1642000    1.0173331   -7.4488814     534.6516  0.027134166   0.02735467            1 
 1643000   0.98460198    -7.439439    535.27825  0.027149434  0.027347626            2 
 1644000    1.0040814   -7.4102894    535.28871  0.027133451  0.027340666            3 
 1645000   0.98427425    -7.391781    538.95321  0.027302594  0.027333682            2 
 1646000   0.99151235   -7.4359392    537.18577  0.027196526  0.027326701            3 
 1647000    1.0053801   -7.4311723     536.5729  0.027149003  0.027319693            4 
 1648000   0.97569522   -7.4255655    537.85258  0.027197238  0.027312649            1 
 1649000   0.97566115   -7.3952528     537.6582  0.027170922  0.027305754            1 
 1650000    0.9853828   -7.4016501    537.47545  0.027145225  0.027298842            2 
 1651000   0.99150511   -7.3952682    538.44354  0.027177647  0.027291896            2 
 1652000    1.0005397   -7.4469306    537.41524  0.027109324  0.027284879            4 
 1653000    0.9976342   -7.4560528     537.4133  0.027092826  0.027277615            9 
 1654000   0.98573319   -7.4465727    537.82858  0.027097369  0.027270403            2 
 1655000   0.98657194   -7.4526505    536.25759  0.027001893  0.027263163            6 
 1656000    1.0098654   -7.4672635    537.07653  0.027026798  0.027255931            2 
 1657000    0.9726114   -7.4016362     539.0352  0.027108992  0.027248785            3 
 1658000   0.99182217    -7.437229    537.78691  0.027029901  0.027241619            2 
 1659000    1.0014476   -7.4245123    538.02473  0.027025554  0.027234483            2 
 1660000   0.97212377      -7.4364    540.62427  0.027139772  0.027227352            3 
 1661000   0.98286565   -7.4456328    537.71343  0.026977395  0.027220271            1 
 1662000     1.003752   -7.4390168    539.47828  0.027049653  0.027213182            4 
 1663000   0.96661073   -7.4485921    538.38578  0.026978642  0.027206025            5 
 1664000   0.98880814   -7.4343757    539.11789  0.026999093  0.027198878            1 
 1665000   0.97894168   -7.4288333    540.42615  0.027048356  0.027191715            4 
 1666000   0.98212603   -7.4084315    540.81616  0.027051629  0.027184641            5 
 1667000   0.97891311   -7.4357606    539.95215  0.026992209  0.027177566            1 
 1668000   0.97504821    -7.439931    539.47513  0.026952195  0.027170513            2 
 1669000    0.9822844   -7.4208002     539.5541  0.026939989  0.027163478            2 
 1670000   0.98452953    -7.412871    540.05403  0.026948804  0.027156398            2 
 1671000   0.99872512   -7.4192688    541.77519  0.027018512  0.027149308            1 
 1672000   0.95863491   -7.4373224     541.3208  0.026979705  0.027142145            3 
 1673000   0.98986831   -7.4611531     540.4356  0.026919486  0.027134997            2 
 1674000    1.0119422   -7.4653437     541.1327  0.026938107  0.027127827            2 
 1675000   0.98378039   -7.4592768    541.01093  0.026915967  0.027120689            1 
 1676000   0.99298725   -7.4178595    542.25156  0.026961593  0.027113559            2 
 1677000   0.97756846   -7.4459327    542.20142  0.026943024  0.027106534            1 
 1678000    0.9950737   -7.4286122    541.49162  0.026891717  0.027099355            2 
 1679000   0.98639215   -7.4157298    542.26157  0.026913915  0.027092094            2 
 1680000   0.96985031   -7.4485568    542.80241  0.026924723  0.027084916            1 
 1681000   0.97836347   -7.4539238    540.61814  0.026800423  0.027077767            2 
 1682000   0.97142288   -7.4110172    544.08561  0.026956283  0.027070659            2 
 1683000   0.98460641   -7.4312692    543.18474  0.026895659  0.027063522            2 
 1684000    0.9860228   -7.4138871    543.26051  0.026883438  0.027056353            1 
 1685000   0.98198303   -7.4191462    544.39356  0.026923519  0.027049307            1 
 1686000   0.98435235   -7.4523918    544.58031  0.026916781  0.027042262            2 
 1687000   0.99222398   -7.4291396    545.21332  0.026932095  0.027035219            2 
 1688000   0.98014195   -7.4515649    544.59462  0.026885595  0.027028179            2 
 1689000   0.97983914   -7.4498558    544.57381  0.026868651  0.027021139            3 
 1690000   0.97011315   -7.4451639    544.91971  0.026869808  0.027013937            3 
 1691000   0.99130081   -7.4535595    544.58648  0.026837496  0.027006848            2 
 1692000   0.99478865   -7.4370402    545.39541  0.026861476  0.026999826            2 
 1693000   0.97829788   -7.4467432    545.01653   0.02682696  0.026992686            2 
 1694000   0.99056418   -7.4348085    545.69815  0.026844655  0.026985557            4 
 1695000   0.98482256   -7.4266974    546.24939  0.026855919  0.026978455            3 
 1696000   0.98650041   -7.4654106     545.0682  0.026782046  0.026971362            2 
 1697000   0.98663768   -7.4309146    544.64658   0.02674556  0.026964267            1 
 1698000   0.98594199   -7.4410864     544.8958   0.02674204  0.026957106            2 
 1699000   0.98850313   -7.4297779    546.94999  0.026827055  0.026950044            3 
 1700000    0.9659447   -7.4832293    546.02974  0.026766164  0.026942913            3 
 1701000   0.97202791   -7.4410108      547.787  0.026836518  0.026935788            3 
 1702000   0.97873324   -7.4284626    546.99466  0.026781956  0.026928655            2 
 1703000    1.0148252   -7.4399875    545.47627  0.026691929  0.026921649            3 
 1704000   0.98200311   -7.4311262    549.20531  0.026858632   0.02691462            3 
 1705000   0.98561128   -7.4569596    546.28459  0.026700127  0.026907604            1 
 1706000   0.98964076   -7.4299807     547.2176  0.026730051  0.026900635            1 
 1707000   0.96289249    -7.437887    550.44207  0.026871806  0.026893633            1 
 1708000   0.98778725   -7.4524919    548.36982  0.026754968  0.026886654            3 
 1709000   0.97731793   -7.4368768    548.81038  0.026760795  0.026879648            2 
 1710000   0.96993241   -7.4828416    546.87234  0.026650699  0.026872651            3 
 1711000   0.98283914   -7.4706463    549.43809  0.026760086   0.02686559            1 
 1712000   0.98689996   -7.4490792    550.14932  0.026779075   0.02685863            1 
 1713000    0.9841073   -7.4443939    549.56993  0.026735256   0.02685166            5 
 1714000   0.98318546   -7.4899616    548.38328  0.026661964  0.026844611            2 
 1715000   0.96635876   -7.4636286     549.2354  0.026687823  0.026837586            1 
 1716000   0.98175384   -7.4944562    548.75956  0.026649163  0.026830582            1 
 1717000   0.95862214    -7.467981    549.86281  0.026687188  0.026823548            3 
 1718000   0.97442488   -7.4682062     549.5113  0.026654603  0.026816499            2 
 1719000   0.97725767   -7.4780244    548.60153  0.026594994  0.026809396            3 
 1720000   0.99239809   -7.4509278    548.78755  0.026588544  0.026802235            2 
 1721000   0.98051958   -7.4268963    551.19215  0.026689529  0.026795198            2 
 1722000   0.99414257   -7.4447257    550.75862   0.02665305  0.026788231            1 
 1723000   0.99302949   -7.4481846    551.11034  0.026654592   0.02678121            1 
 1724000   0.97601184   -7.4441759    552.22386  0.026692955  0.026774148            3 
 1725000   0.97183874   -7.5112764     550.3537  0.026587135  0.026767108            2 
 1726000   0.98656246   -7.4651628    551.74927  0.026639111  0.026760055            4 
 1727000     1.007655   -7.4935537    550.46587  0.026561758  0.026752997            1 
 1728000   0.95904668   -7.4347398    551.79071  0.026610277  0.026745865            2 
 1729000   0.96681398    -7.431168    550.91855  0.026552851  0.026738774            2 
 1730000    1.0004163   -7.4647519    551.84315   0.02658204  0.026731733            4 
 1731000    0.9815674   -7.4699655    552.28229  0.026587824  0.026724662            3 
 1732000   0.94535792   -7.4511023    553.11108   0.02661235  0.026717626            1 
 1733000   0.97205666   -7.4440975    554.17511  0.026648159  0.026710674            1 
 1734000   0.96230466   -7.4546635    551.66265  0.026512046  0.026703629            3 
 1735000   0.99357508   -7.4516439    553.76038  0.026597521  0.026696589            1 
 1736000   0.99036821   -7.4727451    552.98148   0.02654481  0.026689581            1 
 1737000    0.9488328   -7.4843282    551.28753   0.02644826  0.026682437            2 
 1738000   0.96162546   -7.4525885    551.64445  0.026450156  0.026675287            2 
 1739000   0.98649905   -7.4365471     555.0972  0.026600403  0.026668179            1 
 1740000   0.97777132   -7.4491572    551.72281  0.026423506  0.026661197            3 
 1741000   0.99459983   -7.4645771    555.65453  0.026596521  0.026654181            2 
 1742000   0.98922437   -7.4843137    554.01067  0.026502615  0.026647244            2 
 1743000   0.94865962   -7.4113166    556.56351  0.026609462  0.026640356            2 
 1744000   0.99502607   -7.4381605    555.45975  0.026541464  0.026633541            3 
 1745000   0.97465973   -7.4691092    555.44805  0.026525695  0.026626642            3 
 1746000   0.94931445   -7.4494186    556.76969  0.026573582  0.026619805            2 
 1747000   0.96061934   -7.4334239    555.35361  0.026490823   0.02661308            1 
 1748000   0.95802067   -7.4788048    556.36379  0.026523827  0.026606353            1 
 1749000   0.96394349   -7.5097184    556.04417  0.026493433  0.026599524            4 
 1750000   0.96252965   -7.4799801    555.19331  0.026437777  0.026592709            2 
 1751000   0.97449282   -7.4653857    557.40861  0.026528108  0.026585962            1 
 1752000   0.95089704   -7.4468197    557.69115  0.026526406  0.026579345            1 
 1753000   0.98243665   -7.4403587    557.60691  0.026507269  0.026572655            1 
 1754000   0.97199813   -7.4634603    556.63489  0.026445975  0.026565897            3 
 1755000   0.96711465   -7.4726032    558.77455  0.026532505  0.026559141            2 
 1756000   0.97769714    -7.500538    556.70649  0.026419253  0.026552278            1 
 1757000   0.94946971   -7.5132492    557.87891  0.026459823  0.026545383            2 
 1758000   0.97328379   -7.5217015    557.31287   0.02641794  0.026538387            2 
 1759000   0.96806206    -7.458408    557.36033   0.02640517  0.026531498            2 
 1760000   0.96503802   -7.5165492    557.55363   0.02639932  0.026524588            4 
 1761000   0.96814229   -7.4692494    560.74924   0.02653555  0.026517731            3 
 1762000   0.93719335   -7.4737787    557.94506  0.026387867  0.026510885            2 
 1763000   0.97952235   -7.4582889    559.79045  0.026460127  0.026503993            5 
 1764000   0.99105912   -7.4305919    559.17542  0.026416072  0.026497103            3 
 1765000    0.9452404   -7.4950453    559.04684  0.026395035  0.026490296            1 
 1766000   0.97586661    -7.433876    559.93565  0.026422029  0.026483408            1 
 1767000   0.94396189   -7.4487041    560.22624  0.026420781  0.026476631            1 
 1768000   0.96345433   -7.4818505    558.54639  0.026326659  0.026469814            1 
 1769000   0.97447093   -7.4709532    560.89604  0.026422463  0.026462871            2 
 1770000   0.96646317   -7.5242218    557.35492  0.026240815  0.026455852            2 
 1771000   0.98028882   -7.4996104    558.56054  0.026282728  0.026448923            2 
 1772000   0.95175541   -7.4603791    559.51306  0.026312691  0.026441962            2 
 1773000   0.95487116   -7.4918697    558.60128  0.026254995  0.026434973            2 
 1774000   0.95999874   -7.4608744    561.26741  0.026365436  0.026428033            5 
 1775000   0.97586546   -7.4688622    561.00116  0.026338083  0.026421061            3 
 1776000   0.96032225   -7.4862735    560.71537  0.026309843  0.026414046            1 
 1777000   0.98020671   -7.4933286    560.14363  0.026268225   0.02640701            2 
 1778000   0.96910055   -7.4596012    562.57151  0.026367244  0.026400078            2 
 1779000   0.96709348    -7.474282    560.88049   0.02627321  0.026393276            4 
 1780000   0.96159389   -7.4520866    562.75481  0.026346199  0.026386429            1 
 1781000    0.9760744    -7.474315    560.99659  0.026249138  0.026379608            1 
 1782000   0.94853157   -7.4596229    564.30875  0.026389298  0.026372778            6 
 1783000   0.97817963    -7.494802    562.55943  0.026292738  0.026365927            2 
 1784000   0.98403555    -7.487094    562.26034   0.02626403  0.026359112            1 
 1785000   0.96895452   -7.4709593    561.99446  0.026236903  0.026352179            3 
 1786000   0.96506655   -7.5016733    562.89571  0.026264264  0.026345366            1 
 1787000   0.98426384   -7.4626508    563.99166  0.026300674  0.026338443            1 
 1788000   0.97866214   -7.4476884    563.83054  0.026278456  0.026331655            1 
 1789000   0.98270703   -7.4867271    563.20334  0.026234551    0.0263248            1 
 1790000    0.9943408   -7.4932709    565.14477  0.026310278  0.026317914            2 
 1791000   0.96334138   -7.4839891    564.56124  0.026268437  0.026311062            2 
 1792000   0.96728548   -7.4894388    564.79636  0.026264712  0.026304283            2 
 1793000   0.97087489   -7.5000338    564.46987  0.026234889   0.02629748            3 
 1794000   0.97942091   -7.4766747    566.06812  0.026294506  0.026290617            2 
 1795000    0.9723344   -7.4769461    564.45049  0.026204758  0.026283868            3 
 1796000   0.97858282   -7.4889587    566.38011  0.026279701  0.026277169            1 
 1797000   0.97918445   -7.5180292    564.76036  0.026189963  0.026270359            2 
 1798000   0.97513242   -7.4990098     565.5848  0.026213608  0.026263542            1 
 1799000   0.93756016   -7.4877784    566.20824  0.026227916  0.026256766            1 
 1800000   0.97662095   -7.4513294    566.79289  0.026240411  0.026250057            1 
 1801000   0.95605714   -7.4878948    566.17925  0.026197448  0.026243391            3 
 1802000   0.96020345   -7.4571639    567.84334  0.026259866   0.02623675            2 
 1803000   0.95036712   -7.4464926    568.08422  0.026256434  0.026230115            1 
 1804000    0.9721526   -7.4878857    568.04369  0.026240008  0.026223585            2 
 1805000   0.96502966   -7.4530083    569.95029  0.026313494  0.026217068            2 
 1806000   0.97081228   -7.4912592    568.31397  0.026223421  0.026210486            2 
 1807000   0.95185194   -7.4900428    568.16596  0.026202083  0.026203871            2 
 1808000   0.99233485   -7.5123979    568.62657  0.026208821  0.026197228            2 
 1809000   0.96921828   -7.4794425    568.52215  0.026189522  0.026190617            1 
 1810000   0.96028266   -7.4622802    568.69175  0.026182861  0.026184039            3 
 1811000    0.9579516   -7.4718386    568.39863  0.026154916  0.026177375            2 
 1812000   0.95904833    -7.513025    567.70839  0.026108737  0.026170694            1 
 1813000    0.9538297   -7.5047467    570.27134  0.026212141  0.026164001            4 
 1814000   0.95559165   -7.4649107    568.29525  0.026106911  0.026157293            2 
 1815000   0.94346101   -7.4673315    568.29451  0.026092494  0.026150544            3 
 1816000   0.94467273   -7.4733065    568.18792  0.026073234  0.026143858            1 
 1817000   0.97242455   -7.4822027    570.13253  0.026148071   0.02613718            2 
 1818000   0.95506627   -7.4894899    568.51597  0.026059588  0.026130488            3 
 1819000   0.96881479   -7.4976099    569.32943  0.026082529  0.026123787            2 
 1820000   0.97259855   -7.5060416     568.0652  0.026010311  0.026116994            1 
 1821000   0.95654429   -7.4936828    569.76542  0.026073834  0.026110236            4 
 1822000    0.9733158   -7.5162749    570.09032  0.026074383  0.026103473            2 
 1823000   0.94402107   -7.4852571    571.56673  0.026127571  0.026096777            2 
 1824000   0.95704105   -7.4916925    571.27015  0.026099696  0.026090142            2 
 1825000   0.97849515   -7.4956437    571.24469  0.026084232  0.026083527            2 
 1826000    0.9404095   -7.4629071     571.2364  0.026069569  0.026076904            3 
 1827000   0.96248997   -7.5051145     570.6623  0.026029114  0.026070286            2 
 1828000   0.95523187   -7.5069856    571.68899  0.026061679  0.026063659            2 
 1829000   0.94885034   -7.4903118     571.0626   0.02601889   0.02605704            2 
 1830000   0.95984246   -7.4776051    572.46347  0.026068464  0.026050376            1 
 1831000   0.95015768   -7.5029908    571.09402    0.0259919  0.026043808            1 
 1832000   0.96904773   -7.4917336    572.41197  0.026037662  0.026037162            3 
 1833000   0.96945781   -7.5026834    571.07717  0.025962774  0.026030545            3 
 1834000   0.97110554   -7.4952857    573.32797  0.026050889  0.026023938            2 
 1835000   0.94269003   -7.4795771    571.22807  0.025941329  0.026017348            2 
 1836000   0.94005599   -7.4929288    573.78624  0.026043312  0.026010879            2 
 1837000   0.97256294   -7.4911864    574.54611  0.026063605   0.02600439            2 
 1838000    0.9636981   -7.4752827    575.14647  0.026076644  0.025997971            3 
 1839000   0.94754551   -7.4966344    575.38518  0.026073282  0.025991575            1 
 1840000   0.98261238   -7.5086649    574.85215  0.026034971  0.025985174            2 
 1841000   0.96553576   -7.4903997    574.15299  0.025989181  0.025978721            2 
 1842000   0.94442998   -7.4791658    574.82855  0.026005635  0.025972333            1 
 1843000   0.96555956   -7.4709482    575.11955  0.026004682  0.025965949            1 
 1844000   0.93932597   -7.4944929    574.88105  0.025979802   0.02595948            4 
 1845000   0.96063546   -7.4872997    576.76955  0.026051018  0.025953016            2 
 1846000   0.94661093   -7.4738529    575.77951  0.025992214  0.025946521            1 
 1847000   0.95945906   -7.4415216    577.40282  0.026051381  0.025940126       -1e+20 
 1848000   0.93588038   -7.4996138    574.45482  0.025904348  0.025933698            2 
 1849000   0.99262715    -7.503763    575.89577  0.025955281  0.025927266            3 
 1850000   0.95348873   -7.4975797    575.98817  0.025945413  0.025920817            2 
 1851000   0.96787056   -7.4806891    576.48309  0.025953678  0.025914361            1 
 1852000    0.9450496   -7.4671274      578.184  0.026016198  0.025907952            1 
 1853000   0.94701949   -7.4984032    577.59825  0.025975816  0.025901524            1 
 1854000   0.95003013    -7.499617    576.70934  0.025921851  0.025895128            1 
 1855000   0.96504718   -7.4949042    577.45949  0.025941576  0.025888642            2 
 1856000    0.9357405   -7.5135825     577.6586  0.025936539  0.025882217            3 
 1857000   0.96789831   -7.5165845    578.25632  0.025949395  0.025875719            2 
 1858000    0.9589643   -7.5186248    576.64675  0.025863238  0.025869189            2 
 1859000   0.94880363   -7.5395939    578.49526  0.025932188  0.025862726            1 
 1860000    0.9566998   -7.5250118    578.06596  0.025899013  0.025856386            2 
 1861000    0.9420219   -7.5139004    579.94942  0.025969435  0.025849991            3 
 1862000    0.9506665    -7.494625    580.44752   0.02597778  0.025843618            2 
 1863000   0.93343911   -7.5012035    579.18371  0.025907305  0.025837292            3 
 1864000   0.95842159   -7.4805171    580.20628  0.025939122  0.025830947            3 
 1865000    0.9629576     -7.53532    578.07183  0.025829841  0.025824475            3 
 1866000   0.91779499   -7.5180309    577.88249  0.025807542  0.025817989            3 
 1867000   0.95563822   -7.5027916    579.42796  0.025862701  0.025811485            1 
 1868000   0.92617939   -7.4890468    580.68128  0.025904768  0.025805118            2 
 1869000   0.93990363   -7.4600611    580.03752  0.025862204  0.025798658            4 
 1870000   0.93862645   -7.4723842    580.32151   0.02586103  0.025792242            1 
 1871000   0.95901922   -7.4996651    579.94519  0.025830447  0.025785824            3 
 1872000   0.94917016   -7.5378908    578.84353  0.025767607  0.025779339            1 
 1873000   0.94135423   -7.5465472    579.37316  0.025777414  0.025772816            1 
 1874000   0.94509818   -7.4893355    582.23227  0.025890798  0.025766359            1 
 1875000   0.93812926    -7.532574    580.32819  0.025792364  0.025759893            1 
 1876000   0.93281366   -7.5218478    579.78103   0.02575431  0.025753331            2 
 1877000   0.95197723   -7.5259612     579.8971  0.025745742  0.025746787            3 
 1878000   0.95741233   -7.4965259    579.00551   0.02569247  0.025740248            2 
 1879000   0.95991503   -7.4963203     579.8895  0.025718002  0.025733653            3 
 1880000   0.94679631   -7.4772209    582.83332   0.02583481  0.025727134            1 
 1881000      0.94994   -7.4989327    581.82004  0.025776185  0.025720616            2 
 1882000   0.96087792   -7.5064416    580.67329  0.025711711  0.025714039            4 
 1883000   0.93999414   -7.5391918    580.29656  0.025681384  0.025707433            2 
 1884000   0.95052799   -7.5319765     581.3639  0.025714964  0.025700833            3 
 1885000   0.95646605   -7.5216056     579.8244  0.025633263   0.02569423            2 
 1886000   0.94221145   -7.4941316      583.159  0.025767011  0.025687681            4 
 1887000   0.97641943   -7.5262966    581.50615  0.025680363  0.025681085            1 
 1888000   0.94011598   -7.5209365    581.46733  0.025665048   0.02567446            2 
 1889000   0.94974125    -7.514705    580.72999  0.025618934  0.025667814            2 
 1890000   0.96489222   -7.4863944    581.09536  0.025621489  0.025661163            2 
 1891000   0.94880583   -7.5521385    580.88968  0.025598876  0.025654541            3 
 1892000   0.95060036   -7.5195117     581.6394  0.025618367  0.025647827            1 
 1893000   0.95024461   -7.5191563    580.91514  0.025572951  0.025641159            5 
 1894000   0.94846089   -7.4791578    583.74217  0.025683833  0.025634505            1 
 1895000   0.95647224    -7.497163    583.32894  0.025652108  0.025627888            1 
 1896000   0.92419753   -7.5134043    583.25822   0.02563547  0.025621305            1 
 1897000   0.93112649   -7.5530139      582.454  0.025586628  0.025614636            1 
 1898000   0.94890181   -7.4758177    583.77376  0.025631092  0.025607964            2 
 1899000   0.93331198   -7.5104883    583.91712  0.025623886  0.025601403            2 
 1900000   0.94270626   -7.5045041    582.21676  0.025535823  0.025594686            1 
 1901000   0.94295214   -7.5385068    582.79809  0.025547873  0.025588044            1 
 1902000   0.95184481   -7.5219487    583.54211   0.02556704  0.025581388            1 
 1903000   0.93741179   -7.5415489    581.79325  0.025477021  0.025574804            2 
 1904000   0.94584261   -7.4827638    584.99527  0.025603785  0.025568322            4 
 1905000   0.97573328   -7.5410629    584.95807  0.025588717  0.025561846            2 
 1906000   0.93326038   -7.5126825    585.95499  0.025618879  0.025555462            1 
 1907000   0.95835464     -7.53894     586.0021  0.025607503  0.025549079            2 
 1908000   0.94560319   -7.5277477    585.03196   0.02555171  0.025542535            3 
 1909000   0.93458955    -7.561137     586.3844  0.025597363  0.025535995            4 
 1910000   0.93057202    -7.524972    585.43494  0.025542537   0.02552944            4 
 1911000    0.9530861   -7.5591511    586.23191  0.025563924  0.025522912            5 
 1912000   0.95811582   -7.5081137    586.08043  0.025543952  0.025516355            1 
 1913000   0.94810195   -7.5439381    585.08571  0.025487267  0.025509756            6 
 1914000   0.91821035   -7.5048503    586.29996  0.025526818   0.02550323            1 
 1915000   0.94668143   -7.5562341    584.40537  0.025431043  0.025496623            3 
 1916000   0.95570183   -7.5127882    585.70022  0.025474087  0.025490015            1 
 1917000   0.95929598   -7.5618012    585.16917  0.025437714  0.025483366            2 
 1918000   0.94918827   -7.5119962    586.95537  0.025502058  0.025476807            1 
 1919000   0.94189798   -7.5447473    588.31941  0.025548003   0.02547021            2 
 1920000   0.94237774   -7.5310452    585.04124  0.025392415  0.025463624            4 
 1921000   0.94743101   -7.5155589    587.23077  0.025474179  0.025457002            4 
 1922000   0.96359228   -7.5269337       585.95  0.025405394  0.025450432            2 
 1923000   0.96253651    -7.508986    586.33433  0.025408837  0.025443873            2 
 1924000    0.9516559   -7.5262603    587.53812   0.02544777  0.025437364            2 
 1925000   0.96171957   -7.5267232    586.30293  0.025381079  0.025430866            2 
 1926000   0.94639721   -7.5591633    589.84375  0.025521104  0.025424312            2 
 1927000   0.94554251   -7.5647363    587.69018  0.025414729  0.025417734            2 
 1928000   0.95157054   -7.5274555    587.67941  0.025401081  0.025411238            1 
 1929000   0.95488658    -7.528843    588.34937  0.025416855  0.025404599            2 
 1930000   0.95063589   -7.4927719    589.09833  0.025436025  0.025398088            2 
 1931000   0.92536067   -7.5511522    586.68325  0.025318628   0.02539148            3 
 1932000   0.93929338   -7.4993391    589.07041  0.025408489  0.025384912            2 
 1933000   0.93090067   -7.5120709    588.93142  0.025389353   0.02537833            1 
 1934000     0.936733    -7.544667    589.15722  0.025385954  0.025371684            4 
 1935000   0.93794516   -7.5297781    589.44031  0.025385026  0.025365066            2 
 1936000   0.93802971    -7.533697    589.35193   0.02536811  0.025358355            3 
 1937000   0.95082265   -7.5236724     588.3217  0.025310691  0.025351654            2 
 1938000   0.95039899   -7.5177864    589.18596  0.025334794  0.025345064            2 
 1939000   0.94485702    -7.526254    590.33411  0.025371072  0.025338382            2 
 1940000   0.92671228   -7.5645247    589.32102  0.025314477  0.025331668            2 
 1941000   0.96032266   -7.5166108    589.91382  0.025326886  0.025324949            1 
 1942000   0.94147309   -7.5348127     589.9602  0.025315834  0.025318246            2 
 1943000    0.9393019   -7.5404185    588.60425  0.025244649  0.025311486            1 
 1944000   0.92170786   -7.5392866    589.70028  0.025278647  0.025304739            4 
 1945000   0.94428084   -7.5748447    587.70624  0.025180216  0.025297905            3 
 1946000   0.94751286    -7.541925    588.09967  0.025184124  0.025291068            2 
 1947000   0.93826584   -7.5343546    588.21995  0.025176337  0.025284252            1 
 1948000   0.95985212   -7.5449284    589.27146  0.025208396  0.025277451            3 
 1949000   0.94922952   -7.5440389    590.02352  0.025227618  0.025270735            2 
 1950000   0.93725212   -7.5054647    589.91649  0.025210106  0.025263973            2 
 1951000   0.93424554   -7.5295147    590.60715  0.025226685  0.025257256            2 
 1952000   0.93801869   -7.5513734    589.26831  0.025156605    0.0252505            1 
 1953000    0.9369009   -7.5542194     588.6422  0.025117008  0.025243606            3 
 1954000   0.95079316   -7.5535883    590.75847  0.025194408  0.025236716            5 
 1955000   0.95699028   -7.5330434    590.34051  0.025163705  0.025229837            2 
 1956000   0.92588028   -7.5362709     591.7234  0.025209756  0.025222974            2 
 1957000   0.93213217   -7.5658031     590.8579  0.025160019  0.025216112            2 
 1958000   0.93098177   -7.5480826    589.23979  0.025078302  0.025209242            2 
 1959000   0.95660626   -7.5252502    591.06222  0.025143025  0.025202384            3 
 1960000   0.93464867   -7.4988678    591.63013  0.025154342  0.025195599            1 
 1961000   0.92924957   -7.5180669    590.45687  0.025091657  0.025188761            7 
 1962000   0.94477649   -7.5197534    591.60801  0.025127761  0.025182001            3 
 1963000   0.95085502   -7.5129647    591.83533  0.025124611  0.025175209            2 
 1964000   0.94563351   -7.5227296    591.40713  0.025093649  0.025168367            2 
 1965000    0.9447783   -7.5391214    592.44163  0.025124751  0.025161615            2 
 1966000   0.93673568   -7.5624029     592.0614  0.025095855  0.025154757            2 
 1967000   0.93389211   -7.5361507    590.78379  0.025028969  0.025148003            1 
 1968000   0.94705212    -7.593781    592.19768  0.025076121  0.025141231            2 
 1969000   0.94522874   -7.5474221    593.35796  0.025112492  0.025134406            1 
 1970000   0.94085055   -7.5447453    593.93104  0.025123986  0.025127663            5 
 1971000   0.92433286   -7.5549737    592.38394  0.025045829   0.02512095            2 
 1972000   0.94137202   -7.5481314    592.06071  0.025019469  0.025114302            4 
 1973000   0.92173358   -7.5773575    592.15786  0.025010891  0.025107626            2 
 1974000   0.91790876   -7.5530982    594.48255  0.025096359  0.025100971            2 
 1975000   0.93122257   -7.5627636    595.38868  0.025121885  0.025094342            1 
 1976000   0.92534661   -7.5663946    593.83651  0.025043712  0.025087622            2 
 1977000   0.91741558   -7.5649996    593.88883   0.02503325  0.025080899            2 
 1978000   0.93401798   -7.5713346    593.20843  0.024991929  0.025074179            2 
 1979000   0.93745015   -7.5305022    594.68366  0.025041421  0.025067472            1 
 1980000   0.94784776   -7.5420787    595.14871  0.025048346  0.025060855            3 
 1981000   0.93215677   -7.5144485    597.07121  0.025116574   0.02505422            2 
 1982000   0.93369363   -7.5070252    596.05599  0.025061217  0.025047647            2 
 1983000   0.93415877   -7.5326965    595.84729  0.025039809  0.025041017            3 
 1984000   0.94008794    -7.567433    595.83371  0.025026617  0.025034399            4 
 1985000   0.96987118   -7.4933149    597.61061  0.025088607   0.02502781            2 
 1986000   0.94181101   -7.5266041     596.2381  0.025018383  0.025021216            4 
 1987000   0.92831999   -7.5442002    595.58891  0.024978565   0.02501448            1 
 1988000   0.93218839   -7.5347416    597.69301  0.025054201  0.025007763            1 
 1989000   0.95532385   -7.5275016    597.54588   0.02503544  0.025001136            1 
 1990000    0.9424711    -7.550236    597.06575  0.025002753  0.024994432            4 
 1991000    0.9231587   -7.5428187    596.91361  0.024983828  0.024987783            2 
 1992000   0.93441503   -7.5920649    596.95858  0.024973167  0.024981149            1 
 1993000   0.94772828   -7.5798582    595.28533  0.024890673  0.024974429            2 
 1994000   0.95490999   -7.5554677    598.84945  0.025027142  0.024967783            2 
 1995000   0.91055615   -7.5425736    596.59989   0.02492063  0.024961204            4 
 1996000   0.92444992   -7.5933016    598.65941   0.02499413  0.024954634            3 
 1997000   0.93391531   -7.5650941    598.43375  0.024972198  0.024948136            1 
 1998000   0.93372701   -7.5580536    600.09276  0.025028894  0.024941617            1 
 1999000   0.92689197   -7.5488671    598.90153  0.024966714  0.024935058            3 
 2000000   0.94366936   -7.5447741    600.14646  0.025006103  0.024928497            2 
 2001000   0.93099889   -7.5842354    597.38927   0.02487878  0.024921974            2 
 2002000    0.9465659   -7.5505704    598.72176  0.024921818  0.024915439            1 
 2003000   0.93466393   -7.5261026    598.91935  0.024917597  0.024908903            2 
 2004000   0.92255203    -7.567489     598.3457  0.024881308  0.024902334            3 
 2005000   0.90855009   -7.5425079    599.53969  0.024918524  0.024895783            4 
 2006000   0.92834729   -7.5732718    598.76515  0.024873926  0.024889263            1 
 2007000   0.92744473   -7.5498995    599.65344  0.024898416   0.02488271            2 
 2008000     0.941551   -7.5727313    600.02672  0.024901507  0.024876176            2 
 2009000   0.94090055   -7.5449201    600.04947  0.024890056   0.02486972            2 
 2010000   0.90985114   -7.5900253    599.80966   0.02486773  0.024863177            2 
 2011000   0.93583642   -7.5822079    601.70961  0.024934096  0.024856632            1 
 2012000    0.9114629   -7.5782914     601.0954  0.024896264    0.0248501            1 
 2013000   0.93853312   -7.5540483    601.73158  0.024910232  0.024843536            4 
 2014000   0.93302274   -7.5737574    602.13193   0.02491443     0.024837            6 
 2015000   0.91504432   -7.5592395    599.93507   0.02481121   0.02483051            2 
 2016000   0.93175643   -7.6032271    602.36994  0.024899551  0.024824022            2 
 2017000   0.93354976   -7.5533698      600.599  0.024814039  0.024817573            1 
 2018000   0.93414038   -7.5506377    601.01517  0.024818928  0.024811158            1 
 2019000   0.92395555   -7.5802744    600.88446  0.024801241  0.024804656            2 
 2020000   0.91609031   -7.5949712      602.242  0.024844967  0.024798222            2 
 2021000   0.92474226   -7.5749295    604.73609  0.024935514  0.024791751            2 
 2022000   0.92279876   -7.5910114    602.83107   0.02484467  0.024785366            2 
 2023000   0.91951674   -7.5617654    602.77145  0.024829933  0.024778976            2 
 2024000   0.91792098   -7.5821483    604.88061  0.024904505   0.02477257            2 
 2025000   0.90258101   -7.5718342    604.25109    0.0248663  0.024766171            3 
 2026000   0.92161889   -7.5492117     604.7168  0.024873182  0.024759907            1 
 2027000   0.93071745    -7.570253    602.14285  0.024755092  0.024753617            3 
 2028000   0.93785876   -7.5665455    605.22973  0.024869729  0.024747339            1 
 2029000   0.91215238    -7.574945    604.88537  0.024843329  0.024741071            3 
 2030000   0.92704949   -7.5596071    605.20536  0.024844226  0.024734805            4 
 2031000   0.91162752   -7.5828219    605.31704  0.024836576  0.024728509            2 
 2032000   0.92318759   -7.5855113    606.30759  0.024864976  0.024722216            2 
 2033000   0.93158214   -7.5923693     605.7338  0.024829226  0.024715903            3 
 2034000   0.94341643   -7.5898635    603.77133  0.024736616  0.024709583            1 
 2035000   0.92315847   -7.5817713    606.65992  0.024842748  0.024703281            4 
 2036000   0.92888121   -7.5311633    607.05732  0.024846812  0.024697002            2 
 2037000   0.93186046   -7.5603049    605.38005  0.024765998  0.024690754            3 
 2038000   0.93905725   -7.5723768    606.08082    0.0247825  0.024684435            1 
 2039000   0.91831798   -7.5463484    606.72904  0.024796838  0.024678139            2 
 2040000   0.93390115   -7.5393986    605.78962  0.024746308  0.024671895            2 
 2041000    0.9076002   -7.5962559    607.86011  0.024818721   0.02466565            3 
 2042000   0.93138824   -7.5646054    606.97171  0.024770311  0.024659325            1 
 2043000     0.932161   -7.5696291    606.62115  0.024743888  0.024652989            3 
 2044000   0.92708782   -7.5774522    606.54327  0.024728607  0.024646607            2 
 2045000   0.92978197   -7.5379886    606.75451  0.024725123   0.02464026            2 
 2046000    0.9335704   -7.5332247    607.36733  0.024737998  0.024633913            3 
 2047000   0.93526579   -7.6054061      606.771  0.024701637  0.024627479            3 
 2048000   0.91698285   -7.5885339    605.76893  0.024648801  0.024621099            3 
 2049000   0.93164485   -7.5689517    605.19501   0.02461343  0.024614679            3 
 2050000   0.92364031   -7.5791609    607.15585  0.024681132   0.02460823            3 
 2051000   0.92581912   -7.5719467    607.13736  0.024668347  0.024601824            1 
 2052000   0.94566078   -7.5635763    607.35595  0.024665203  0.024595439            3 
 2053000   0.93980483    -7.523292    609.51648  0.024740887  0.024589072            4 
 2054000   0.90803658   -7.5569144    607.40081  0.024643006  0.024582685            2 
 2055000   0.95506173   -7.5537393    609.41521  0.024712701  0.024576313            3 
 2056000   0.92204651   -7.5780188    608.10044  0.024647391  0.024569977            1 
 2057000   0.92492105   -7.5718142    607.29143  0.024602635  0.024563511            2 
 2058000   0.91722136   -7.5884592    608.10949  0.024623805  0.024557069            2 
 2059000    0.9317655    -7.604139    607.74228  0.024596984  0.024550645            2 
 2060000   0.92674218   -7.5914933    606.67662  0.024541934  0.024544158            2 
 2061000   0.92612243   -7.5934059    607.53863  0.024564881  0.024537636            1 
 2062000   0.91474241   -7.5750232    609.33892  0.024625724  0.024531183            2 
 2063000   0.91545689   -7.5891942    608.16726  0.024566459  0.024524716            2 
 2064000    0.9241076   -7.5922668    607.25371  0.024517672  0.024518256            1 
 2065000   0.91866446   -7.5497799    608.83307  0.024569535  0.024511844            2 
 2066000   0.91473614   -7.6127902    607.94345  0.024521759  0.024505337            3 
 2067000   0.92322576   -7.5751872    608.49232  0.024532024  0.024498799            4 
 2068000   0.90959526   -7.6028761    609.53094  0.024562014  0.024492225            2 
 2069000   0.91937837   -7.5887285    608.59987  0.024512642   0.02448567            2 
 2070000   0.91789504   -7.5654111    609.89727   0.02455303  0.024479126            2 
 2071000   0.92166293   -7.5954631    608.93377  0.024502405  0.024472595            4 
 2072000   0.92305274    -7.573335    610.16339  0.024540033   0.02446608            2 
 2073000   0.92620734   -7.5596462    608.45824  0.024459649  0.024459671            4 
 2074000   0.90639326   -7.5610325    610.64826  0.024535851  0.024453226            2 
 2075000   0.91939062   -7.5693326    609.11642  0.024462507   0.02444679            2 
 2076000   0.90478951   -7.5822286    608.62715  0.024431084  0.024440277            1 
 2077000     0.926626    -7.585316    610.23911  0.024483996  0.024433797            3 
 2078000   0.90893319   -7.5577765     611.1011  0.024506781  0.024427294            2 
 2079000    0.9090558   -7.5702683    610.41258  0.024467396   0.02442087            3 
 2080000   0.92707519    -7.592214    610.03407  0.024440468  0.024414337            2 
 2081000   0.90323941   -7.6076544    610.26225  0.024437861  0.024407826            2 
 2082000   0.90234964   -7.6038594    609.62761  0.024400721  0.024401318            3 
 2083000   0.91346052    -7.600132    610.47792  0.024423024  0.024394734            2 
 2084000   0.92795547    -7.619779    610.70451  0.024420366  0.024388211            5 
 2085000   0.91805627   -7.6332559    609.97314  0.024379422  0.024381673            2 
 2086000   0.92232592   -7.5967879    610.55806  0.024391102  0.024375123            2 
 2087000     0.902365   -7.5789351    611.32821  0.024410167  0.024368612            1 
 2088000   0.92743531   -7.5828724    610.57766  0.024368521  0.024362152            4 
 2089000   0.90797903   -7.5667865    613.22562  0.024462487  0.024355656            1 
 2090000   0.90646656   -7.6096738    611.56841  0.024384705    0.0243491            1 
 2091000   0.90715377   -7.5843261    611.47377  0.024369272  0.024342629            2 
 2092000   0.90937293   -7.5767761    610.68458  0.024326186  0.024336141            1 
 2093000   0.90807268   -7.6010475    611.71252  0.024355491  0.024329586            2 
 2094000   0.92665355   -7.5556059    613.01099  0.024395534  0.024322995            5 
 2095000   0.92513556   -7.6138098    609.59486  0.024248006  0.024316431            2 
 2096000   0.91221122   -7.6102214    611.70594   0.02432037  0.024309891            2 
 2097000   0.91103831   -7.5915032    611.19716  0.024288554  0.024303306            3 
 2098000   0.90418423   -7.5678357    614.27613  0.024399274  0.024296757            3 
 2099000   0.91378515   -7.5825864    612.38777   0.02431268  0.024290246            6 
 2100000   0.93291867   -7.5902079    613.63826  0.024350725  0.024283783            1 
 2101000   0.92308093   -7.6197076    613.05334  0.024315935  0.024277314            2 
 2102000   0.89616943   -7.5836628    614.91604  0.024378213  0.024270814            3 
 2103000   0.92341361    -7.557868     613.4705   0.02430934  0.024264331            3 
 2104000   0.92496684   -7.5952078    614.86473  0.024353007  0.024257923            2 
 2105000   0.91431867   -7.5947195    614.43847  0.024324563  0.024251511            1 
 2106000   0.90834269   -7.5946458    612.96752  0.024254809   0.02424506            2 
 2107000   0.89786659   -7.6292536    613.82029  0.024277025  0.024238622            2 
 2108000   0.92341428   -7.5953483    613.86131   0.02426713  0.024232224            2 
 2109000   0.92356005   -7.5768871    615.07993  0.024303775  0.024225817            1 
 2110000    0.8905533   -7.5671678    615.92177  0.024325504  0.024219397            2 
 2111000   0.92000817   -7.6193918    614.49055  0.024257483  0.024212932            5 
 2112000   0.92580223   -7.6192607    614.38891  0.024241987   0.02420647            3 
 2113000   0.92345257   -7.5799694    615.07064    0.0242574  0.024200031            2 
 2114000   0.90408093   -7.6027918    614.45835  0.024221789  0.024193555            1 
 2115000    0.9331322   -7.5988294    616.49639  0.024290638  0.024187042            2 
 2116000   0.92999065    -7.602967     615.7041  0.024247956  0.024180612            1 
 2117000   0.92425642   -7.6245064    614.49997  0.024189103  0.024174132            2 
 2118000   0.93335743   -7.6046634    615.72073  0.024225713  0.024167676            3 
 2119000    0.9314989   -7.6421986    614.39579  0.024162175  0.024161183            2 
 2120000    0.8987139   -7.6083105    614.14763  0.024141023  0.024154733            1 
 2121000   0.89710178   -7.6222571    615.23772  0.024172471  0.024148275            2 
 2122000   0.93361021   -7.6002435    616.28206  0.024202092  0.024141852            2 
 2123000   0.91090423   -7.5836845    616.49341  0.024198988  0.024135437            2 
 2124000   0.90991586   -7.6122404    616.41467  0.024184505  0.024129084            2 
 2125000   0.89502577    -7.627112    616.01277  0.024157364  0.024122667            7 
 2126000   0.90628841   -7.6193396    617.58789  0.024207741  0.024116233            2 
 2127000   0.89435932   -7.6215919    615.83263  0.024127591  0.024109804            3 
 2128000   0.93707806   -7.5943412    616.86792  0.024156795  0.024103385            2 
 2129000   0.91126568   -7.6087656     616.3199  0.024123998  0.024096966            2 
 2130000   0.91230724   -7.5734151    617.85304  0.024172654  0.024090547            3 
 2131000   0.89189801      -7.6484    616.31973   0.02410135  0.024084079            4 
 2132000    0.9134497   -7.6028308    618.13574  0.024161028  0.024077617            2 
 2133000   0.89958044   -7.6200559     615.5381  0.024048215  0.024071196            2 
 2134000     0.904839   -7.5995212    616.43478  0.024071961   0.02406472            2 
 2135000    0.8956063   -7.6148292    618.01336  0.024122301  0.024058275            2 
 2136000   0.91771145   -7.5992278    617.08202  0.024074673  0.024051803            1 
 2137000   0.89244872   -7.5997909    618.35307  0.024112973  0.024045346            3 
 2138000   0.91019417   -7.6278691    617.32664  0.024061687  0.024038859            3 
 2139000   0.92313873   -7.6364467    617.81014  0.024069275  0.024032331            2 
 2140000   0.90799271   -7.5988509     618.3327  0.024078376  0.024025881            2 
 2141000     0.901292   -7.5926296     619.0999  0.024096991  0.024019423            2 
 2142000   0.93752005   -7.5772586    618.66486  0.024068817  0.024012926            1 
 2143000   0.92270262   -7.6250854     617.5008  0.024012319  0.024006436            2 
 2144000   0.91556031   -7.6142785    617.39792  0.023997121  0.023999938            1 
 2145000   0.90593409   -7.5997419    617.51989  0.023990672  0.023993467            2 
 2146000   0.89556451   -7.5635758    619.90392  0.024072069  0.023987036            1 
 2147000   0.91841045   -7.6180953     618.4563  0.024004669  0.023980536            3 
 2148000   0.89667829   -7.6565492     618.6535  0.024001145  0.023974072            1 
 2149000   0.90115472   -7.5978884    620.60392  0.024065609  0.023967649            6 
 2150000   0.92942101   -7.6110882    618.80739  0.023984782  0.023961225            7 
 2151000   0.88895787   -7.6449991    618.78809  0.023972884  0.023954789            2 
 2152000   0.89776344   -7.6043445    619.18261  0.023977022  0.023948306            2 
 2153000   0.89096777   -7.6403078    620.51826  0.024017582  0.023941851            2 
 2154000   0.89536335   -7.5929593    621.47848  0.024043581  0.023935419            1 
 2155000   0.88107223   -7.5804782    620.82061  0.024006984  0.023928906            2 
 2156000   0.89877615   -7.6296192    619.43921  0.023942456   0.02392241            3 
 2157000   0.90273179   -7.5974299    620.12125  0.023957706  0.023915892            3 
 2158000   0.92214745   -7.5972563     620.5931  0.023964825  0.023909427            1 
 2159000   0.91823118   -7.6436222    620.10853  0.023935021  0.023902949            4 
 2160000   0.90728361   -7.5868011    618.97372  0.023880159  0.023896482            1 
 2161000   0.92309748   -7.6242806    621.49477  0.023966326  0.023890021            2 
 2162000   0.91821929   -7.6051367    622.50242  0.023994081  0.023883468            3 
 2163000   0.91394469   -7.6294871    620.55034   0.02390778  0.023876912            1 
 2164000   0.93218445   -7.5964512    621.65581  0.023939303  0.023870398            1 
 2165000   0.91735954   -7.6139973    621.01959  0.023903756  0.023863858            3 
 2166000   0.90936084   -7.6393232    621.32809  0.023904589  0.023857369            5 
 2167000   0.90530627   -7.6381366    621.66758  0.023906614  0.023850869            2 
 2168000   0.89617195   -7.6177438    622.26302  0.023918474  0.023844353            5 
 2169000   0.90509063   -7.5969166    621.78455  0.023889064  0.023837939            1 
 2170000   0.90910958   -7.6140789    622.76729  0.023915795  0.023831513            1 
 2171000   0.89320508   -7.6210818    622.19295  0.023882733  0.023825081            5 
 2172000   0.89205167   -7.5966525    620.68242  0.023813782  0.023818612            2 
 2173000   0.91934088   -7.6017413    623.23547  0.023900732  0.023812089            2 
 2174000    0.9032627    -7.636519    622.21555  0.023850642  0.023805559            2 
 2175000   0.90004185    -7.638202    620.70606  0.023781841  0.023799052            3 
 2176000   0.88705293   -7.6310829    621.43982  0.023799013  0.023792527            3 
 2177000   0.90962923   -7.6088956    621.27037  0.023781594  0.023785991            1 
 2178000   0.89107802   -7.6103304    622.48191  0.023817031  0.023779427            1 
 2179000    0.9067614   -7.6311285    621.68306  0.023775549  0.023772873            3 
 2180000   0.89548692   -7.6178337    621.99618  0.023776612  0.023766331            2 
 2181000   0.90950532   -7.6466692    622.37817  0.023780306  0.023759764            2 
 2182000   0.89702789   -7.6120624     624.1663  0.023837698  0.023753183            2 
 2183000   0.91758484   -7.6407256    623.05045  0.023784183   0.02374666            3 
 2184000   0.90906132       -7.592    623.16592  0.023777698  0.023740047            1 
 2185000   0.92021528    -7.642149    620.19592  0.023653544  0.023733438            2 
 2186000   0.91345164   -7.6521833    620.39058  0.023650144  0.023726791            2 
 2187000   0.92276818   -7.6111725    622.77253  0.023730092   0.02372011            2 
 2188000   0.89134056   -7.6415185    622.88881  0.023723675  0.023713459            7 
 2189000    0.8899643   -7.6573091    620.95953  0.023639391  0.023706714            3 
 2190000   0.89479646   -7.6677349     619.4278  0.023570312  0.023700003            2 
 2191000   0.88942219   -7.6420616     622.3686  0.023671406  0.023693272            1 
 2192000   0.89574572   -7.6548542    623.42912  0.023700925  0.023686609            4 
 2193000   0.91967457   -7.6256136    622.53138  0.023656003  0.023679892            2 
 2194000   0.91141192   -7.6266962    622.73798  0.023653068  0.023673189            2 
 2195000   0.90597554   -7.6274065    622.26321  0.023624268  0.023666488            1 
 2196000    0.9026651   -7.6505975    622.08786  0.023606856  0.023659789            1 
 2197000   0.90630866   -7.6228723    622.08374  0.023595955  0.023653089            2 
 2198000   0.90382229    -7.643645    622.71099     0.023609  0.023646342            1 
 2199000   0.87523898   -7.6247435    624.17353  0.023653689  0.023639625            3 
 2200000   0.90851697   -7.6316433    625.27971  0.023684838  0.023632948            2 
 2201000   0.87810494   -7.6083801     622.6803  0.023575659  0.023626283            2 
 2202000   0.92381365    -7.631706    625.03333  0.023654001  0.023619638            1 
 2203000   0.89169038   -7.5926259    625.01073  0.023642409  0.023612994            2 
 2204000   0.89934377   -7.6485085    622.49537  0.023536576   0.02360629            1 
 2205000   0.91585635   -7.6281045    624.22631  0.023591319  0.023599572            1 
 2206000    0.8836702   -7.6617187    624.80143  0.023602351   0.02359288            1 
 2207000   0.86371275   -7.6358625    625.16251  0.023605291  0.023586243            2 
 2208000   0.89865148   -7.5821038    626.05772  0.023628386  0.023579648            4 
 2209000   0.90630777   -7.6224718    625.12171  0.023582379  0.023573032            2 
 2210000   0.90980426   -7.6508877    624.13759    0.0235346  0.023566406            3 
 2211000   0.89606686   -7.6420986    623.47195  0.023498867  0.023559798            2 
 2212000   0.89255066   -7.6299509    625.74542  0.023573893  0.023553205            2 
 2213000   0.88944379   -7.6015762     624.9608  0.023533695  0.023546567            2 
 2214000   0.88479433   -7.6452522    624.87806  0.023519951  0.023539839            2 
 2215000    0.9048485   -7.6237565     624.8592  0.023508623  0.023533105            2 
 2216000   0.89489325   -7.6637408     624.9109  0.023499959  0.023526363            3 
 2217000   0.89476581   -7.6208501    625.70667   0.02351927  0.023519653            3 
 2218000   0.89477712   -7.6390963    624.53053  0.023464477  0.023512963            1 
 2219000   0.88805001    -7.623654    625.06405  0.023473939  0.023506252            2 
 2220000   0.89036373   -7.6775658    624.49497  0.023442003  0.023499538            2 
 2221000   0.90381964   -7.6480241    623.95786  0.023411296  0.023492775            4 
 2222000    0.8813293   -7.6245472    625.80476  0.023470026  0.023486021            2 
 2223000   0.89617211   -7.6537224    623.67847   0.02337976  0.023479283            2 
 2224000   0.91912824   -7.6185052      625.962  0.023454811  0.023472606            1 
 2225000   0.88895094   -7.6536361    624.19602  0.023378128  0.023465948            3 
 2226000   0.89420517   -7.6580183    623.78088  0.023352084  0.023459194            1 
 2227000    0.8903676   -7.6550913    625.24292  0.023396308  0.023452481            4 
 2228000   0.90074764   -7.6306199     625.8871    0.0234099  0.023445752            2 
 2229000   0.88386753   -7.6146269    627.02582   0.02344197  0.023438987            2 
 2230000   0.91028207   -7.6318519    626.91203  0.023427206  0.023432326            4 
 2231000   0.87908822    -7.627727    626.42858  0.023398647  0.023425692            2 
 2232000   0.89073945   -7.6289668    627.32754  0.023421727  0.023418997            2 
 2233000    0.9071793   -7.6335878    627.63561  0.023422735  0.023412335            2 
 2234000   0.90721197   -7.6577642    626.72502  0.023378283   0.02340565            2 
 2235000   0.88754117   -7.6181525    627.52962  0.023397823  0.023398971            3 
 2236000   0.89849932   -7.6362203    627.09676  0.023371227    0.0233923            1 
 2237000   0.89465071   -7.6543058    627.00225  0.023357259  0.023385574            1 
 2238000   0.89873781   -7.6237837    625.69482  0.023298139   0.02337881            2 
 2239000   0.89285744   -7.6210935    627.00171  0.023336375  0.023372056            1 
 2240000   0.87769904   -7.6571135    627.17665  0.023332465  0.023365312            3 
 2241000   0.90052491   -7.6635211    626.64402  0.023302247  0.023358542            2 
 2242000   0.91438401   -7.6212191    626.96434  0.023303759   0.02335181            2 
 2243000   0.88497316   -7.6664049    627.14117  0.023299939  0.023345087            2 
 2244000   0.88371951   -7.6757745    626.15413  0.023252901  0.023338278            2 
 2245000    0.9111339   -7.6360912    627.52805  0.023293543  0.023331507            3 
 2246000   0.88917672   -7.6444265    626.52535  0.023245969   0.02332474            2 
 2247000   0.89650845    -7.648546    627.81418  0.023283422  0.023318017            5 
 2248000   0.89339494    -7.648295    627.42642   0.02325869  0.023311331            2 
 2249000   0.89510194    -7.666008    627.23472  0.023241245  0.023304536            1 
 2250000   0.89844366   -7.6404151    629.30378  0.023307547  0.023297758           10 
 2251000   0.90051856   -7.6414795    628.14477  0.023254286  0.023291063            2 
 2252000   0.87037948   -7.6747187    626.39925  0.023179368  0.023284342            2 
 2253000   0.91081932   -7.6304361    629.21575  0.023273256  0.023277596            2 
 2254000   0.88181473   -7.6854292    625.60945  0.023129601  0.023270834            1 
 2255000   0.88163903   -7.6528981    628.52343   0.02322703  0.023264042            2 
 2256000   0.89738154   -7.6677106      627.679  0.023185542  0.023257241            2 
 2257000   0.89190969   -7.6701605    628.39057  0.023201542  0.023250447            2 
 2258000   0.90144402   -7.6550603    627.38204  0.023154046  0.023243607            3 
 2259000   0.87563572   -7.6805986    627.77101  0.023158145  0.023236764            2 
 2260000   0.89329849   -7.6494766    628.54196  0.023176326  0.023229983            3 
 2261000   0.89569783   -7.6413372    627.68325  0.023134426  0.023223227            1 
 2262000   0.86869615   -7.6179335    627.88146  0.023131501  0.023216496            2 
 2263000   0.87984269   -7.6593006    628.14992  0.023131165   0.02320972            2 
 2264000   0.88507825   -7.6706946    627.91429  0.023112275  0.023202931            2 
 2265000   0.87594844   -7.6751683    629.65408  0.023166081  0.023196108            1 
 2266000   0.89479864   -7.6785008    627.99883  0.023094985  0.023189352            1 
 2267000   0.88148299   -7.6592282    628.53884  0.023104648  0.023182592            2 
 2268000   0.86990464   -7.6367468    629.13162  0.023116241  0.023175833            2 
 2269000   0.86812418   -7.6534311    629.63499  0.023124541  0.023169064            1 
 2270000   0.88313278   -7.6742084    629.49987  0.023109393  0.023162312            1 
 2271000   0.87805369   -7.6955297    628.31008  0.023055558  0.023155454            5 
 2272000     0.882414   -7.6791324    628.97431  0.023069774  0.023148588            2 
 2273000   0.87955592   -7.6568787    630.89803  0.023130152  0.023141773            2 
 2274000   0.90945745    -7.635637    631.84143  0.023154553  0.023135002            1 
 2275000   0.87229938   -7.6758252     629.8788  0.023072483  0.023128265            2 
 2276000   0.89141285   -7.6619226    630.08225  0.023069795  0.023121565            2 
 2277000   0.89858866   -7.6430106    630.96486  0.023091965  0.023114801            3 
 2278000    0.8784213   -7.6415259    630.41437  0.023061691  0.023108101            2 
 2279000   0.88534291   -7.6837663    628.98872  0.022999441  0.023101346            3 
 2280000   0.89491418   -7.6483345    630.43748  0.023042306  0.023094596            1 
 2281000   0.89085068    -7.649819    627.88018  0.022938776  0.023087828            2 
 2282000   0.87628102   -7.6541319    629.73976  0.022996632  0.023080999            1 
 2283000   0.88449524   -7.6846196    630.20469  0.023003529  0.023074198            2 
 2284000    0.8971235   -7.6684542     630.6451  0.023009526  0.023067358            2 
 2285000   0.89228805   -7.6928207    629.15466  0.022945101  0.023060539            1 
 2286000   0.86930013   -7.6824946    630.45414  0.022982435  0.023053701            3 
 2287000   0.87710954    -7.666407    630.20696  0.022963379   0.02304689            2 
 2288000   0.90761276   -7.7202855    630.34971  0.022958541  0.023040015            1 
 2289000   0.89838989   -7.6674088    630.14243  0.022940965  0.023033102            2 
 2290000   0.88277887   -7.6733065    630.64417  0.022949206   0.02302629            2 
 2291000   0.88440589     -7.66215    631.44051  0.022968155  0.023019442            1 
 2292000   0.88606339    -7.646734    631.83426   0.02297245  0.023012686            2 
 2293000   0.88865625   -7.6294604    630.45686  0.022912373  0.023005891            2 
 2294000    0.8964947   -7.6951287    630.74793  0.022912959  0.022999109            2 
 2295000   0.87683076    -7.678076    630.64132  0.022899104  0.022992306            2 
 2296000   0.89476945   -7.7166647    630.25016  0.022874933  0.022985435            2 
 2297000   0.88100596   -7.6733571    631.83302    0.0229224  0.022978617            2 
 2298000   0.87893505   -7.6626351    632.70922  0.022944199  0.022971804            2 
 2299000   0.89884097   -7.6720562    630.54956  0.022855936  0.022965006            3 
 2300000   0.88432748   -7.6908658    633.03859  0.022936181  0.022958241            1 
 2301000   0.88691914   -7.6985609     630.9645  0.022851097  0.022951435            1 
 2302000   0.87944401   -7.7005251     632.8319  0.022908771   0.02294459            2 
 2303000   0.87211113   -7.6506695     633.1471  0.022910229  0.022937755            3 
 2304000   0.87981471   -7.6314999    634.32902  0.022943035  0.022931017            4 
 2305000   0.88946898   -7.6568167     632.6287  0.022871609  0.022924306            1 
 2306000   0.87855751   -7.6687508    632.75709   0.02286633   0.02291756            2 
 2307000   0.88976224   -7.6913811    631.63037  0.022815719  0.022910753            3 
 2308000   0.89186047    -7.697104    631.47594  0.022800258   0.02290391            3 
 2309000   0.86073875   -7.7231796    631.15495  0.022778798  0.022897014            1 
 2310000   0.88401561   -7.6559741    633.78832  0.022863937  0.022890161            3 
 2311000   0.90321119   -7.6690825    633.10313  0.022829335  0.022883361            2 
 2312000   0.88560696   -7.6965698    632.27108  0.022789471  0.022876512            1 
 2313000   0.87543731   -7.6804045     632.4195  0.022784965  0.022869651            2 
 2314000   0.88906135   -7.7087788    632.66326  0.022783897  0.022862813            1 
 2315000   0.88708186    -7.679957    631.81409  0.022743488  0.022855959            1 
 2316000   0.88681031    -7.690459    632.73109  0.022766663  0.022849078            1 
 2317000   0.87811905   -7.6738075    632.14833  0.022735877  0.022842258            2 
 2318000   0.87061047   -7.6816267    633.82662  0.022786404  0.022835427            1 
 2319000   0.85845641   -7.6918121    633.31208  0.022758088  0.022828638            5 
 2320000   0.87312985   -7.6756505    632.50672  0.022719351  0.022821807            3 
 2321000   0.88757552    -7.673428    631.75998  0.022682751  0.022815055            2 
 2322000   0.85971522   -7.6930389    632.90592  0.022714108  0.022808232            1 
 2323000   0.87363254   -7.6943928    633.08627    0.0227108  0.022801403            4 
 2324000   0.87199569     -7.70466    632.64813  0.022685317  0.022794548            2 
 2325000   0.87466524   -7.6893695     634.2304  0.022732272  0.022787711            1 
 2326000   0.87884744   -7.6715658    635.23622  0.022758535  0.022780878            2 
 2327000   0.88630043   -7.6679331    633.77038   0.02269626  0.022774098            2 
 2328000   0.88964596   -7.6344494    636.17898   0.02277273  0.022767323            3 
 2329000   0.84049527   -7.6961433    634.33353   0.02269692  0.022760546            2 
 2330000   0.87126239   -7.6850091    635.00334  0.022711135  0.022753785            1 
 2331000   0.89465057   -7.7048887    635.02742  0.022702253  0.022746991            2 
 2332000   0.88406343   -7.7171289    634.17352  0.022662004  0.022740153            1 
 2333000   0.88041374   -7.6739229    634.50393  0.022664092  0.022733285            2 
 2334000   0.87940612   -7.6599342    635.19349  0.022679002  0.022726458            1 
 2335000   0.87849045   -7.6390149    636.08123  0.022700972  0.022719688            2 
 2336000   0.86412221   -7.6952268    636.01882  0.022689028  0.022712924            2 
 2337000   0.87294576   -7.6880238    634.94226  0.022640931   0.02270614            2 
 2338000   0.88843787   -7.6856472    634.42194  0.022612701   0.02269933            1 
 2339000   0.87792996   -7.6723613    635.67337  0.022647619  0.022692478            1 
 2340000   0.88392615   -7.6912863    634.29432  0.022588829  0.022685631            2 
 2341000   0.88476048   -7.6535297    636.77606  0.022667523  0.022678838            1 
 2342000   0.86830203    -7.658483    634.82611  0.022588461  0.022672046            2 
 2343000   0.87112681   -7.6803397    635.62734  0.022607317  0.022665224            3 
 2344000   0.87085453    -7.661644    635.50265   0.02259324  0.022658395            1 
 2345000   0.88767448   -7.6636544    634.58391  0.022550956  0.022651535            5 
 2346000   0.89124189    -7.668118    635.70939  0.022581323  0.022644689            4 
 2347000   0.88935608   -7.6646077    635.13943  0.022551464  0.022637871            2 
 2348000   0.87183045    -7.672331    636.44716  0.022588272  0.022631077            6 
 2349000   0.87258371    -7.740179    633.86708  0.022487125  0.022624253            2 
 2350000   0.86798808   -7.7353803    635.29593  0.022528224  0.022617381            2 
 2351000    0.8683183   -7.7104798    636.21058  0.022551063  0.022610545            1 
 2352000   0.88122196   -7.7233636    635.44109  0.022514211  0.022603749            2 
 2353000   0.87498257   -7.6964967    636.44005  0.022540022  0.022596936            6 
 2354000   0.87174277   -7.6872085     635.8587  0.022509866  0.022590201            2 
 2355000   0.86413002   -7.7152047    636.55543  0.022524962  0.022583476            3 
 2356000   0.88236582   -7.6761107    637.79283  0.022559169  0.022576761            2 
 2357000   0.86707831   -7.7107585     637.0215  0.022522327   0.02257008            2 
 2358000   0.86054673   -7.7062673    637.14391  0.022517102  0.022563368            3 
 2359000   0.86260504   -7.6872665    636.46765  0.022483667  0.022556632            3 
 2360000   0.86102024   -7.7243574    635.65232   0.02244535  0.022549871            3 
 2361000   0.89951772   -7.7062023    638.49764  0.022536271  0.022543132            1 
 2362000   0.88658526   -7.6641639    639.69974  0.022569141  0.022536443            1 
 2363000   0.87203391   -7.7051139    637.60934   0.02248587  0.022529744            2 
 2364000   0.88257211   -7.6759216    637.63306  0.022477195   0.02252304            2 
 2365000   0.86538762   -7.6973377    637.68366  0.022469473  0.022516352            1 
 2366000    0.8778149   -7.7045334    638.75679  0.022497774  0.022509588            3 
 2367000   0.88181682   -7.7134056    639.50973  0.022514777  0.022502841            5 
 2368000   0.88377229   -7.7111238    639.32656  0.022498823  0.022496111            1 
 2369000   0.88003369   -7.6764998    637.81215  0.022436054  0.022489395            1 
 2370000   0.86837156   -7.6605664    639.10504  0.022472048  0.022482653            3 
 2371000   0.88612589   -7.7009541    637.60696  0.022409917  0.022475912            4 
 2372000   0.87677477   -7.7356061    636.67923  0.022367876  0.022469109            3 
 2373000   0.86796502   -7.7692595    637.08684  0.022372764  0.022462293            2 
 2374000   0.87439773   -7.7224714    638.50671  0.022413181  0.022455518            1 
 2375000   0.87425637   -7.6704821    638.55669  0.022405498  0.022448791            3 
 2376000   0.86274479   -7.7241301    639.16026  0.022417237  0.022442029            3 
 2377000   0.88127693   -7.6634854    639.75118  0.022428523  0.022435262            2 
 2378000   0.86754884   -7.6996431    637.67243  0.022346245  0.022428503            2 
 2379000   0.87331478   -7.6826784    638.82219  0.022377126  0.022421778            3 
 2380000   0.86283518   -7.7129706    639.49373  0.022391237  0.022415082            3 
 2381000   0.85376026    -7.720963    640.86319  0.022429763  0.022408359            3 
 2382000   0.88014524   -7.7153704    639.97702  0.022389344  0.022401682            2 
 2383000    0.8491062   -7.6868763    641.72328  0.022441016  0.022394995            2 
 2384000   0.86113016   -7.7180971     640.9665  0.022405149  0.022388346            2 
 2385000   0.86233504   -7.7356694    639.84111  0.022356433  0.022381578            2 
 2386000   0.86871247   -7.7097198    639.05763  0.022319699  0.022374794            1 
 2387000   0.87232069   -7.6671973    641.53656  0.022396892  0.022368097            3 
 2388000    0.8897985   -7.6683516    641.08126  0.022371624  0.022361452            2 
 2389000   0.86598121   -7.7099906     639.7466  0.022315704  0.022354757            2 
 2390000   0.85334929   -7.6995108     640.3316  0.022326764   0.02234806            2 
 2391000   0.87325946   -7.7025015    640.04638  0.022307486  0.022341315            3 
 2392000    0.8638611   -7.7049201    640.22275  0.022304304  0.022334602            2 
 2393000   0.87232424   -7.7230758    640.68999  0.022311255   0.02232789            2 
 2394000   0.86263395   -7.6554522    641.23506  0.022320908  0.022321189            2 
 2395000   0.87544208   -7.7074797    640.71955  0.022293652  0.022314513            1 
 2396000   0.85743203     -7.70604     641.4432  0.022309516  0.022307808            5 
 2397000    0.8839877    -7.746675    641.93113  0.022317172  0.022301114            2 
 2398000   0.86921205   -7.7175339    639.64809  0.022228527   0.02229439            2 
 2399000   0.88117753   -7.6871445    639.85361    0.0222264   0.02228767            2 
 2400000   0.86325806   -7.6838825    640.15413  0.022227574  0.022280953            1 
 2401000   0.86747853   -7.7211703    641.70523  0.022272152   0.02227419            2 
 2402000   0.84677172   -7.7016866    641.53173   0.02225686  0.022267429            2 
 2403000   0.84925612   -7.7071143    640.42625  0.022209261  0.022260676            1 
 2404000   0.87523237   -7.7319798    640.42807  0.022200086  0.022253888            3 
 2405000   0.87095599    -7.720501    639.56495  0.022160948  0.022247111            4 
 2406000   0.85398442   -7.7033475    641.77684  0.022228347  0.022240386            3 
 2407000    0.8643028   -7.7117432    640.86363  0.022187496  0.022233614            1 
 2408000   0.84746665   -7.7459697    640.92834  0.022180521  0.022226851            3 
 2409000   0.86922165   -7.7068997    639.91919  0.022136405  0.022220129            2 
 2410000   0.85029449    -7.677644    641.92743  0.022196661  0.022213383            2 
 2411000   0.86068658   -7.7094408    640.88192  0.022151317  0.022206613            2 
 2412000   0.86999318   -7.6898959    642.25748  0.022189658  0.022199878            2 
 2413000   0.86621474   -7.7057792    641.00312  0.022137143  0.022193103            4 
 2414000   0.85304228   -7.7090704     640.7604  0.022119594  0.022186339            4 
 2415000    0.8661572    -7.702567       640.86  0.022113871  0.022179575            2 
 2416000   0.85725325   -7.7378823    639.78445  0.022067621  0.022172729            3 
 2417000   0.87621489   -7.7460984    640.55677  0.022085118  0.022165954            2 
 2418000   0.85762328   -7.6848043    641.62328  0.022112741  0.022159216            3 
 2419000   0.85567471   -7.7051794    642.38465  0.022129828   0.02215252            4 
 2420000   0.86673473   -7.7120785    642.49932  0.022124632  0.022145823            3 
 2421000   0.85593702   -7.7285547    643.04445  0.022134258  0.022139111            2 
 2422000   0.85479055   -7.7178342    643.12362  0.022127843    0.0221324            1 
 2423000   0.86356437   -7.7256071     642.7239  0.022104963  0.022125713            1 
 2424000   0.86081574   -7.7075143    642.21366  0.022078302  0.022119043            2 
 2425000   0.86745582   -7.7306101    642.42362  0.022076413  0.022112412            3 
 2426000   0.87356431   -7.7203888    643.24101  0.022095391  0.022105714            3 
 2427000   0.84935451   -7.7308097    642.54305  0.022062321  0.022099058            2 
 2428000     0.863917   -7.7144841    645.02767  0.022138511  0.022092382            3 
 2429000   0.87475796   -7.7503637     643.8813  0.022090068  0.022085727            3 
 2430000   0.86300657   -7.7424931    645.49658  0.022136371  0.022079053            1 
 2431000   0.85711805   -7.7424689    645.66396  0.022133003  0.022072404            1 
 2432000   0.87697111   -7.7173541    643.49577  0.022049608  0.022065816            2 
 2433000   0.85339653   -7.7105477    644.84374  0.022086715  0.022059234            3 
 2434000   0.85911123   -7.7005211    644.74414  0.022074231  0.022052619            1 
 2435000   0.86996433    -7.716292    645.58043  0.022093786  0.022046019            1 
 2436000   0.86976627   -7.7318873    644.62169  0.022051919  0.022039406            2 
 2437000   0.85402448   -7.7493613     643.8276  0.022015716  0.022032759            1 
 2438000   0.87439418   -7.7547848    644.24444  0.022020934  0.022026078            9 
 2439000   0.86572101   -7.7500228    645.95048  0.022070195  0.022019397            2 
 2440000   0.86066112   -7.7487101    643.20001  0.021967214  0.022012768            3 
 2441000   0.86236684   -7.7115116    645.63362  0.022041295  0.022006213            2 
 2442000   0.86723755   -7.7351575    643.95267  0.021974907  0.021999683            2 
 2443000   0.86733276   -7.7070164     647.2229  0.022077463  0.021993116            2 
 2444000   0.86493532   -7.7206431    646.23275  0.022034668  0.021986503            1 
 2445000   0.85038912   -7.6981351    645.93611  0.022015546  0.021979924            1 
 2446000   0.85314315   -7.7200873    647.00463  0.022042949  0.021973371            2 
 2447000   0.86925874    -7.730393    645.68777  0.021989095  0.021966775            2 
 2448000   0.86713878   -7.7241062    645.86809   0.02198625  0.021960176            1 
 2449000   0.83376301   -7.7388547    646.18221  0.021987961  0.021953593            2 
 2450000   0.83936067   -7.7707537     644.4289   0.02191935  0.021946939            2 
 2451000   0.84948798   -7.7441503    645.47011  0.021945808  0.021940271            4 
 2452000   0.84518256   -7.7035489    646.77217   0.02198111  0.021933661            4 
 2453000   0.87381514   -7.7293887    647.22946  0.021987684   0.02192703            4 
 2454000   0.85896158   -7.7493784     645.5129  0.021920433  0.021920424            2 
 2455000   0.84311154   -7.7195487    646.14626  0.021933003  0.021913814            3 
 2456000   0.85898497   -7.7424817    647.12901  0.021957418  0.021907215            2 
 2457000   0.86372862   -7.7182525    645.43808   0.02189113  0.021900592            3 
 2458000   0.86631602   -7.7365072    645.74135  0.021892506  0.021894004            2 
 2459000   0.86352198   -7.7452266     645.5449  0.021876945  0.021887427            3 
 2460000   0.85943547   -7.7555834    646.53962  0.021901749  0.021880834            3 
 2461000   0.84459674   -7.7563832    647.25738  0.021917154  0.021874262            2 
 2462000   0.86714776   -7.7189419    647.19306  0.021906074  0.021867714            2 
 2463000   0.87301121   -7.7295792    646.56177  0.021875821  0.021861141            2 
 2464000   0.87840927    -7.743303    645.07814  0.021816766  0.021854529            8 
 2465000   0.86583795   -7.7359042    647.25201  0.021881407  0.021847859            2 
 2466000    0.8445434   -7.7204055    647.78677  0.021890604   0.02184124            1 
 2467000   0.86283593   -7.7473094    646.43767  0.021836159   0.02183461            2 
 2468000   0.85896329   -7.7337121     647.9264   0.02187758  0.021827976            4 
 2469000   0.86261315   -7.7360317    646.43399  0.021818347  0.021821381            3 
 2470000   0.86516113   -7.7017921    648.98803  0.021895683  0.021814819            2 
 2471000    0.8797327   -7.7081821    649.57769  0.021906708  0.021808251            2 
 2472000   0.86496655   -7.7490969    646.73777  0.021802109  0.021801679            3 
 2473000   0.86836987   -7.7572598    646.36476  0.021780724  0.021795065            2 
 2474000    0.8565011   -7.7345174    648.07581  0.021829554  0.021788459            2 
 2475000    0.8544841   -7.7279185    646.35643  0.021762843  0.021781847            3 
 2476000   0.85712581    -7.724878    648.93798  0.021840939  0.021775194            2 
 2477000   0.85133599    -7.736562    647.15125  0.021772011  0.021768547            2 
 2478000   0.84664365   -7.7050584    648.77986  0.021817994  0.021761898            1 
 2479000   0.84117298   -7.7044295    648.77656  0.021809082  0.021755301            2 
 2480000   0.85258258   -7.7634698    647.06748  0.021742859  0.021748692            3 
 2481000    0.8637885   -7.7261283    647.02885  0.021732798  0.021742089            3 
 2482000   0.85380655   -7.7164223    647.16655  0.021728665  0.021735474            7 
 2483000   0.86117396   -7.7919598    646.19841  0.021687422  0.021728826            2 
 2484000   0.85277709    -7.731945    647.73046  0.021730088  0.021722154            2 
 2485000   0.85427009   -7.7414242    647.94889  0.021728668  0.021715523            3 
 2486000   0.84208379   -7.7423767    648.38202  0.021734447  0.021708882            3 
 2487000    0.8617885   -7.7377548    647.24421  0.021687582  0.021702234            3 
 2488000   0.85462197   -7.7029171    648.97962  0.021736991  0.021695636            2 
 2489000   0.83466108    -7.760677     648.2944  0.021705317   0.02168905            1 
 2490000   0.82680871   -7.7418109    647.64095  0.021674731  0.021682422            2 
 2491000    0.8488688   -7.7438162    647.63868  0.021665953  0.021675806            3 
 2492000   0.86007585    -7.721831    649.98756  0.021735807  0.021669188            2 
 2493000   0.85508706   -7.7244701    647.99121  0.021660356  0.021662596            2 
 2494000   0.85651925    -7.730204    650.07601  0.021721332  0.021656033            1 
 2495000   0.83533835   -7.7568242    649.05717  0.021678596  0.021649431            1 
 2496000   0.84926491      -7.7583    648.77835  0.021660602  0.021642837            2 
 2497000   0.85101061   -7.7439339    650.36026  0.021704721  0.021636256            3 
 2498000   0.85148907   -7.7541719    648.03141  0.021618342  0.021629657            2 
 2499000   0.83795381   -7.7383437    650.04685  0.021676899  0.021623044            3 
 2500000   0.83907527   -7.7761302     648.6163  0.021620543  0.021616438            2 
 2501000   0.87372307   -7.7461444    650.15471  0.021663158  0.021609839            3 
 2502000   0.85766524   -7.7507416    646.46445   0.02153159  0.021603221            4 
 2503000   0.84140016   -7.7820837    648.47447  0.021589908  0.021596592            3 
 2504000   0.85709417   -7.7505248    648.75609  0.021590658  0.021589945            2 
 2505000   0.87020313   -7.7573159    648.79313  0.021583271   0.02158329            2 
 2506000   0.83587147   -7.7552532    650.48239  0.021630832  0.021576641            3 
 2507000   0.85550342   -7.7776047    647.54985  0.021524726   0.02156999            2 
 2508000   0.86844288   -7.7497205    647.92911  0.021528745  0.021563317            1 
 2509000    0.8333643    -7.802776    647.58491  0.021508732   0.02155661            2 
 2510000   0.85137872   -7.7670538    652.38254  0.021659447  0.021549938            2 
 2511000   0.84968918   -7.7342648    650.36388  0.021583827  0.021543325            2 
 2512000   0.85004167   -7.7886651    649.27207  0.021539015  0.021536671            3 
 2513000   0.83683186   -7.7262036    650.11181   0.02155829  0.021530066            1 
 2514000   0.83270698   -7.7526556    649.80281  0.021539473  0.021523413            3 
 2515000   0.85889397   -7.7513921    650.26826  0.021546331  0.021516816            3 
 2516000   0.84880028   -7.7563045    649.92533  0.021526409  0.021510236            3 
 2517000   0.84138371   -7.7768497    649.80696  0.021513937  0.021503608            2 
 2518000   0.84496221   -7.7564368    650.79256  0.021538012   0.02149702            2 
 2519000   0.85109762   -7.7944497    650.34266  0.021514578   0.02149041            8 
 2520000   0.84033437   -7.7829497    648.78014   0.02145437  0.021483787            2 
 2521000   0.84825525   -7.7134183     652.2239  0.021559695  0.021477227            1 
 2522000   0.85634418   -7.7690137    651.32393  0.021521409   0.02147068            1 
 2523000   0.83438994   -7.7527023    651.29203  0.021511826  0.021464108            2 
 2524000   0.83335048   -7.7359731    652.14788   0.02153156  0.021457533            2 
 2525000   0.85105171   -7.7315655    651.30752  0.021495298  0.021450996            4 
 2526000   0.83853496   -7.7873979    651.47322  0.021492255  0.021444475            1 
 2527000   0.85593071   -7.7515904    651.75753  0.021493125  0.021437872            4 
 2528000   0.83632213    -7.767675    651.24864  0.021467848  0.021431265            2 
 2529000   0.83899315   -7.7655423    650.46655  0.021433589  0.021424689            2 
 2530000   0.84331893   -7.7386766    653.35152  0.021520142  0.021418177            3 
 2531000    0.8371336   -7.7236196    652.35131  0.021478708  0.021411651            3 
 2532000   0.84408233   -7.7328353     653.3924  0.021504489  0.021405115            3 
 2533000   0.84855439   -7.7702908    652.32502  0.021460884  0.021398619            3 
 2534000   0.85697087   -7.7600529    652.49571  0.021458028  0.021392111            2 
 2535000   0.83667458   -7.7609289     653.1501  0.021471075  0.021385594            2 
 2536000   0.84148519    -7.761587    651.81717  0.021418808  0.021379067            3 
 2537000   0.84421096   -7.7524895    653.97372  0.021481202  0.021372534            1 
 2538000   0.83110056   -7.7773223    652.14076  0.021412554  0.021366033            2 
 2539000   0.83367627   -7.7579991    652.94793  0.021430613  0.021359483            3 
 2540000    0.8355014   -7.7454327    653.70976   0.02144717  0.021352971            3 
 2541000   0.85594167   -7.7684586    653.07816  0.021418017  0.021346496            3 
 2542000   0.84065578   -7.7321478    655.02602  0.021473447  0.021339989            2 
 2543000   0.82953684   -7.7572611    651.89471   0.02136239   0.02133356            2 
 2544000   0.83486134   -7.7377439    652.90973  0.021387242  0.021327069            2 
 2545000   0.84258439   -7.7731924    651.54064  0.021334009  0.021320549            2 
 2546000   0.83630493   -7.7653785    651.24895  0.021316083  0.021313996            1 
 2547000   0.86633199   -7.7363424    653.14521  0.021369756  0.021307475            3 
 2548000   0.84126163   -7.7591952    653.42642  0.021370566  0.021300988            3 
 2549000    0.8393265   -7.7570575    653.47467  0.021363759  0.021294441            4 
 2550000   0.85812877    -7.779891    653.40156  0.021352992  0.021287902            4 
 2551000   0.82689547   -7.7556418    653.22893  0.021338982  0.021281384            1 
 2552000    0.8384013   -7.7644338    652.94287   0.02132128  0.021274868            1 
 2553000   0.84421463   -7.7647085     653.7667  0.021339819  0.021268356            1 
 2554000   0.86803982   -7.7583568    654.26224  0.021347633  0.021261852            4 
 2555000   0.85494371   -7.7514287    652.98379  0.021297579  0.021255334            2 
 2556000   0.82409584   -7.7750636    653.08259  0.021292468  0.021248784            1 
 2557000   0.83727867   -7.8091134    653.21705  0.021288523  0.021242248            1 
 2558000   0.85223067   -7.8013695    653.18069  0.021279016   0.02123572            3 
 2559000   0.81989911    -7.777055     653.2809  0.021273964  0.021229227            4 
 2560000   0.82826265   -7.7977508    653.79879  0.021282513  0.021222683            3 
 2561000   0.82848387   -7.8193163    652.87916  0.021244278  0.021216138            2 
 2562000   0.83869578   -7.8168109    652.40455  0.021220549  0.021209575            2 
 2563000   0.84298714   -7.7876599    654.97673  0.021295901  0.021203021            1 
 2564000   0.84564982   -7.7980234    652.91929  0.021220726  0.021196551            4 
 2565000   0.84596124   -7.7669225    653.00907  0.021215369  0.021190046            2 
 2566000   0.83513442   -7.7720956    654.18389  0.021245255  0.021183574            2 
 2567000   0.85228589   -7.7799634    655.58835  0.021282572  0.021177096            3 
 2568000   0.83346674    -7.779219    655.81531   0.02128165   0.02117066            2 
 2569000   0.84475016    -7.813843    654.41578  0.021227967  0.021164159            1 
 2570000   0.83709869   -7.7663381    654.81651  0.021232701  0.021157697            4 
 2571000   0.83278534   -7.7597438    655.57718  0.021249098  0.021151267            4 
 2572000   0.84675884   -7.7682391    656.03779  0.021255761  0.021144828            1 
 2573000   0.83851467   -7.7642487    655.73335  0.021237639  0.021138413            3 
 2574000   0.83008062   -7.7561068    655.97686  0.021237272  0.021132024            2 
 2575000   0.84413376   -7.7604994    656.65963  0.021251121  0.021125617            1 
 2576000   0.84323037   -7.7513904    655.99326  0.021221314  0.021119212            1 
 2577000   0.82457368   -7.7352562    656.44368  0.021227644   0.02111287            3 
 2578000   0.85146025   -7.7934712    654.63057  0.021160802  0.021106501            5 
 2579000   0.82678972   -7.7776707    656.17695  0.021202564  0.021100105            2 
 2580000   0.82689639    -7.773558    656.33687  0.021199511  0.021093687            3 
 2581000   0.82826572   -7.8010964    655.44649   0.02116255  0.021087314            2 
 2582000   0.85105515   -7.7899037    657.67246  0.021226196  0.021080919            2 
 2583000    0.8349069   -7.8136664     655.6739  0.021153501  0.021074537            2 
 2584000   0.84056417   -7.7709113    657.02583  0.021188913  0.021068147            1 
 2585000   0.82965818   -7.8076852    656.55924  0.021165675  0.021061771            2 
 2586000   0.83813039   -7.8292261    656.69633  0.021161908  0.021055392            2 
 2587000   0.82603981   -7.7621316    658.40858  0.021208883  0.021048986            2 
 2588000   0.85902368   -7.8101203    655.85882  0.021118587  0.021042668            2 
 2589000   0.84434058   -7.7683696    658.60815  0.021198923  0.021036334            2 
 2590000   0.82670487   -7.7681952    658.25627  0.021179417  0.021030008            3 
 2591000    0.8530506   -7.7831892     656.9021  0.021127689  0.021023656            1 
 2592000   0.81716162   -7.7892608    659.92799  0.021216821  0.021017329            2 
 2593000   0.84021107   -7.8040079    657.15346  0.021119471   0.02101099            2 
 2594000   0.83673898   -7.7664601    657.98484  0.021138038  0.021004633            1 
 2595000   0.83835652   -7.7844357    658.88375  0.021158759  0.020998317            2 
 2596000   0.83041648   -7.7882103    657.98764  0.021121843  0.020991982            4 
 2597000   0.85722862   -7.7895548    658.46183  0.021128925  0.020985637            2 
 2598000   0.82538974   -7.8043211    657.75433  0.021098099  0.020979296            2 
 2599000   0.83005006   -7.7895305    658.41274  0.021111092  0.020972992            1 
 2600000   0.83487288   -7.7909708    658.00622  0.021089943  0.020966679            2 
 2601000   0.84943932   -7.7734065    659.10374  0.021116998  0.020960348            1 
 2602000    0.8355497   -7.7856223    658.30305  0.021083239  0.020953998            4 
 2603000   0.84369181   -7.7907501    657.62136  0.021053315  0.020947654            1 
 2604000   0.85255891   -7.8078051    658.15023  0.021062155  0.020941308            2 
 2605000   0.84744677   -7.7830012    660.03095  0.021114234  0.020934976            1 
 2606000   0.84056548   -7.7807534    660.74165  0.021128858  0.020928647            2 
 2607000   0.83139113   -7.8241907    659.21533  0.021071964  0.020922305            2 
 2608000   0.83317304    -7.803442    658.78041  0.021049987  0.020915951            7 
 2609000   0.84991225   -7.7900575    659.66443  0.021070156  0.020909592            4 
 2610000   0.82971367   -7.7813177    658.59538   0.02102795  0.020903243            2 
 2611000   0.84729326   -7.7915801    657.31104  0.020978905  0.020896922            4 
 2612000   0.84253881   -7.7824888    660.07916  0.021059187   0.02089058            4 
 2613000   0.83491412   -7.7686224    660.09022  0.021051481  0.020884261            2 
 2614000   0.84703793   -7.7863728    657.55001  0.020962446  0.020877945            3 
 2615000   0.84699535   -7.7998478    658.10254  0.020972038  0.020871604            2 
 2616000   0.82763209   -7.7966996    659.11789  0.020996365  0.020865226            2 
 2617000   0.83644088   -7.8049349    660.85904  0.021043785  0.020858879            6 
 2618000   0.84771164   -7.7780686    659.53195  0.020993505  0.020852565            5 
 2619000   0.83383436   -7.8109604    659.19072  0.020974632   0.02084623            3 
 2620000   0.83893494   -7.7845023    659.51823  0.020977043  0.020839883            1 
 2621000   0.83013803   -7.7942339    659.93552  0.020982307  0.020833509            3 
 2622000   0.84873326   -7.7870569    659.76687  0.020968945  0.020827119            2 
 2623000   0.82669517   -7.7808958       658.94   0.02093468  0.020820764            2 
 2624000   0.83936418     -7.81908     658.5166  0.020913256  0.020814355            2 
 2625000   0.81366663   -7.7864371    658.27263  0.020897544  0.020807956            2 
 2626000   0.83763462   -7.8157718    659.07674  0.020915103   0.02080157            2 
 2627000   0.82408945   -7.8268363    658.59536  0.020891871  0.020795155            2 
 2628000    0.8274241   -7.8315733    656.24668  0.020809446  0.020788746            2 
 2629000   0.81756736   -7.8568075    657.11962  0.020829201  0.020782324            4 
 2630000   0.81556092   -7.8235892    659.36954  0.020892571  0.020775891            2 
 2631000   0.83426836   -7.8211922    659.06584  0.020875011  0.020769487            2 
 2632000   0.84685619   -7.7786144    660.53857  0.020913708  0.020763109            1 
 2633000   0.83252202   -7.8095335    660.21196  0.020895429   0.02075672            4 
 2634000   0.82925858   -7.8047392    660.28571  0.020889829  0.020750337            2 
 2635000    0.8152542   -7.8290576    658.45877  0.020824123  0.020743969            6 
 2636000    0.8193205   -7.7522538    661.24257  0.020904229  0.020737633            4 
 2637000   0.84691859   -7.7914332    658.61996  0.020813423  0.020731317            2 
 2638000    0.8396356   -7.7983111    660.02709  0.020849984  0.020724993            1 
 2639000   0.81641824   -7.7905102    662.44177  0.020918333  0.020718663            3 
 2640000   0.82271263   -7.8042653    660.70619  0.020855625  0.020712391            3 
 2641000   0.83738607   -7.8107358    660.85557  0.020852441  0.020706106            4 
 2642000   0.84061736   -7.8289388    659.22448  0.020793101  0.020699769            4 
 2643000   0.84352675   -7.8066146    660.81721  0.020835452  0.020693398            4 
 2644000   0.83749352   -7.8084438     660.4058  0.020814606  0.020687041            2 
 2645000   0.82278019   -7.8448523    661.28339  0.020834385  0.020680683            7 
 2646000   0.83490984   -7.8045419     662.2379  0.020856573  0.020674379            1 
 2647000   0.82948977   -7.7979344    661.82553  0.020835711   0.02066807            5 
 2648000   0.82831034   -7.7612634    662.93189   0.02086266  0.020661801            1 
 2649000   0.83665589   -7.8147821    661.09184  0.020796899  0.020655526            2 
 2650000   0.82641883   -7.8005562    661.72961  0.020809107   0.02064925            2 
 2651000   0.81927051   -7.8279896    662.41641  0.020822847  0.020642977            3 
 2652000   0.83338814   -7.7983425    662.96683  0.020832291   0.02063674            1 
 2653000   0.83401521   -7.8195089    662.81402  0.020819639  0.020630496            2 
 2654000   0.82953912   -7.7847897    664.75258  0.020872663  0.020624282            2 
 2655000   0.83520904   -7.8347425    663.72796  0.020832642  0.020618045            2 
 2656000   0.83551295   -7.8337734    661.64904  0.020759571  0.020611798            6 
 2657000   0.83493497   -7.8168325    662.98351  0.020793612  0.020605549            1 
 2658000   0.81268114    -7.812462    661.66876  0.020744569  0.020599299            1 
 2659000   0.82382918   -7.7989219    663.32485  0.020788669  0.020593063            2 
 2660000   0.80859949   -7.8231784    663.68054  0.020791997  0.020586837            1 
 2661000   0.82722921   -7.8181205    663.36557   0.02077432  0.020580588            3 
 2662000   0.83289671     -7.79371    663.68101   0.02077639  0.020574319            3 
 2663000   0.81109776   -7.7948178    664.01553  0.020779057  0.020568095            1 
 2664000   0.81025473   -7.8553073    663.77506  0.020763734  0.020561835            5 
 2665000   0.83494206   -7.8145774    662.84032  0.020726714  0.020555573            4 
 2666000   0.82842988   -7.8514387    663.29714  0.020733219  0.020549298            2 
 2667000   0.83345269   -7.8247418    663.44528  0.020730074  0.020543063            3 
 2668000   0.82770811   -7.8075416    662.75128  0.020700627  0.020536801            1 
 2669000   0.82946636   -7.8215623    662.60261  0.020688229  0.020530566            2 
 2670000   0.83390908   -7.8110029    662.66737  0.020682502  0.020524324            3 
 2671000   0.82767437   -7.8400911    664.22178  0.020723255  0.020518068            4 
 2672000   0.80231114   -7.8250521    662.20086  0.020652472  0.020511816            1 
 2673000   0.81970505   -7.8305798    662.59999  0.020657189  0.020505567            1 
 2674000   0.82507905   -7.8133764     664.4181  0.020706124  0.020499305            1 
 2675000   0.82174026   -7.7950789     664.1234  0.020689202  0.020493051            2 
 2676000    0.8293697   -7.8191181    663.67608  0.020667541  0.020486818            2 
 2677000   0.82367694   -7.8241883    663.92948  0.020667709  0.020480603            2 
 2678000   0.82305913   -7.8334564    663.68631  0.020652424  0.020474358            1 
 2679000   0.83022611     -7.79989    664.79058  0.020679065  0.020468117            2 
 2680000   0.83714458   -7.8166405    663.83008  0.020641483  0.020461906            3 
 2681000   0.83084023   -7.8237927    664.59362  0.020657516  0.020455683            1 
 2682000   0.80384729   -7.8327358    662.47769  0.020584069  0.020449415            3 
 2683000   0.82130328   -7.7887389    663.66356   0.02061323  0.020443158            2 
 2684000   0.82789682    -7.819793    662.97894  0.020584294  0.020436908            2 
 2685000   0.83548323   -7.8099543    664.74522  0.020631447  0.020430648            1 
 2686000   0.81902291   -7.8417439    662.49664  0.020554003  0.020424362            2 
 2687000    0.8069195    -7.821321    662.86021   0.02055763  0.020418072            3 
 2688000   0.82158993   -7.8212869    664.72559  0.020607812   0.02041179            6 
 2689000   0.83467093   -7.7976241    665.86267  0.020635387  0.020405581            4 
 2690000   0.82938919   -7.8261473    663.91229  0.020567295  0.020399334            2 
 2691000   0.82152176   -7.8494071    663.38896  0.020543446  0.020393074            3 
 2692000   0.82544238   -7.8110676    664.59519  0.020573155  0.020386845            3 
 2693000   0.83989471   -7.8518249    664.76839  0.020570875  0.020380625            2 
 2694000   0.82159011   -7.8068825     663.9542  0.020538054  0.020374399            3 
 2695000   0.82981842   -7.8122713    664.05255  0.020533474  0.020368158            1 
 2696000   0.81922246   -7.8031354    666.14554  0.020590552   0.02036195            2 
 2697000   0.83542363    -7.842823    665.44672  0.020561325  0.020355713            2 
 2698000   0.79708817   -7.8199575    664.45415  0.020523046  0.020349479            4 
 2699000   0.81056164   -7.8160315    665.67027  0.020552991  0.020343266            4 
 2700000   0.81509004   -7.8168051    664.86441  0.020520507  0.020337059            2 
 2701000     0.802897   -7.8334198    665.56403  0.020534494  0.020330824            3 
 2702000   0.81717003   -7.8387567    664.95113  0.020507992  0.020324571            2 
 2703000   0.82295086   -7.7910473    665.67209  0.020522632  0.020318332            1 
 2704000   0.83453563   -7.8190692    663.99339  0.020463307  0.020312093            1 
 2705000   0.81390699   -7.8218057    665.64724  0.020506693  0.020305868            2 
 2706000   0.81410318   -7.8116003     666.1441  0.020514416  0.020299666            7 
 2707000   0.80537901   -7.8263611    664.72197  0.020463058  0.020293393            2 
 2708000   0.80797868    -7.841389    663.79022  0.020426829  0.020287126            2 
 2709000   0.81413146   -7.8757966    665.32479  0.020466494   0.02028088            3 
 2710000   0.81903548    -7.827448    665.54667  0.020465765  0.020274613            1 
 2711000   0.80392882   -7.8317642    664.15039  0.020415295  0.020268351            1 
 2712000   0.80389715    -7.835172    665.35377  0.020444745  0.020262159            4 
 2713000   0.82035836   -7.8450988    665.24744  0.020433943  0.020255967            8 
 2714000   0.80732786   -7.8456223    664.92427  0.020416491  0.020249725            5 
 2715000   0.80594808   -7.8359532    666.17228  0.020447277   0.02024349            1 
 2716000   0.81165116   -7.8566696    665.57282  0.020421355  0.020237276            2 
 2717000   0.82270441   -7.8300739     665.9901  0.020426638  0.020231031            1 
 2718000   0.84055624   -7.8491651    663.95054   0.02035659  0.020224752            7 
 2719000   0.81052332   -7.8310035    665.92035  0.020409475  0.020218478            3 
 2720000     0.794481   -7.8242024    665.16432  0.020378809  0.020212229            1 
 2721000   0.82296206   -7.8365351    665.09163  0.020369093  0.020205996            2 
 2722000   0.81556067   -7.8221773    666.08674  0.020392075  0.020199756            1 
 2723000   0.83533216   -7.8406085    665.04483    0.0203527  0.020193534            2 
 2724000   0.82699775   -7.8197855    666.01812  0.020375004  0.020187354            2 
 2725000   0.80848399   -7.8355334     668.1974  0.020434171  0.020181159            3 
 2726000   0.81409747   -7.8609355    665.91563  0.020356922  0.020174954            2 
 2727000   0.82110117   -7.8377485    665.24675  0.020329017  0.020168716            2 
 2728000   0.82353227   -7.8670326    665.74573  0.020336808  0.020162455            2 
 2729000   0.82371146   -7.8565741    666.55365  0.020354026  0.020156187            2 
 2730000   0.82528728   -7.8342214    665.13305  0.020303207  0.020149959            2 
 2731000   0.82750338   -7.8336592    666.08031  0.020324677  0.020143747            2 
 2732000    0.8113054   -7.8278028    665.58556  0.020302146  0.020137548            2 
 2733000   0.82639522   -7.8514611    665.40373  0.020289173  0.020131334            3 
 2734000    0.8238862   -7.8353181    666.20703  0.020306237  0.020125142            5 
 2735000   0.80128078   -7.8185961    668.30965  0.020362878  0.020118935            4 
 2736000   0.79922735   -7.8409059    667.51462   0.02033122  0.020112743            3 
 2737000   0.81584805   -7.8421018    666.55786  0.020294662  0.020106562            4 
 2738000    0.8144914   -7.8502936    667.85899   0.02032685  0.020100371            2 
 2739000   0.82501022   -7.8470944    667.44008  0.020306684  0.020094153            3 
 2740000   0.80597471   -7.8088723    667.48746  0.020300714  0.020087967            2 
 2741000   0.81356572   -7.8597128    667.17721  0.020283875  0.020081765            3 
 2742000   0.81301455   -7.8123499    667.87483  0.020297679  0.020075602            2 
 2743000   0.80554701   -7.8182203    666.97568  0.020262963  0.020069455            3 
 2744000   0.80253793   -7.8433742    666.00504  0.020226101  0.020063293            2 
 2745000    0.8170612   -7.8475893    666.33962  0.020228889  0.020057122            2 
 2746000   0.83408839   -7.8485213    666.71053  0.020232779   0.02005095            1 
 2747000    0.8157217   -7.8281883    668.45692  0.020278392  0.020044822            2 
 2748000   0.80859514   -7.8471065    668.05564  0.020258844  0.020038696            2 
 2749000   0.79723816   -7.8318736    669.35264  0.020290792  0.020032603            2 
 2750000   0.81590845   -7.8175471    669.10413  0.020275883  0.020026482            2 
 2751000    0.8159293   -7.8437153    669.31161  0.020274797  0.020020352            2 
 2752000    0.8276222   -7.8719226    666.94535  0.020195777  0.020014187            3 
 2753000   0.81770538   -7.8884892    666.05116  0.020161374  0.020008001            2 
 2754000   0.82972716   -7.8563681    666.40297  0.020164699  0.020001824            1 
 2755000   0.81891571   -7.8484118    666.26539  0.020153218  0.019995632            2 
 2756000   0.80472957   -7.8832203     667.7577  0.020191029  0.019989449            2 
 2757000   0.81358711   -7.8714044    667.55846  0.020177683  0.019983278            2 
 2758000   0.78446015    -7.880243    668.75841  0.020206623   0.01997711            4 
 2759000   0.80517879   -7.8507841    668.68057  0.020196949  0.019970944            3 
 2760000   0.81402689   -7.8581951    668.43366  0.020182176  0.019964764            2 
 2761000    0.8036664   -7.8468412    668.76482  0.020184861  0.019958598            3 
 2762000   0.78663199    -7.876656     667.1512  0.020128868  0.019952422            4 
 2763000   0.82372819   -7.8841216    667.50357   0.02013221  0.019946229            1 
 2764000   0.81602814   -7.8866391    670.01181  0.020200549  0.019940061            2 
 2765000   0.81875933   -7.8569195    667.30289    0.0201116  0.019933892            3 
 2766000   0.81718252   -7.8941075    667.75257  0.020117877  0.019927689            4 
 2767000   0.81249501   -7.8378205    668.75591  0.020140824  0.019921532            4 
 2768000    0.8036618    -7.850081    669.86063  0.020166806  0.019915377            3 
 2769000     0.804321   -7.8134468    670.34984  0.020174246  0.019909266            5 
 2770000   0.80057154   -7.8509716    669.88263  0.020152907  0.019903159            2 
 2771000    0.7995092   -7.8571526    668.52513   0.02010481  0.019897067            3 
 2772000   0.78283952   -7.8455366    669.00018  0.020111838  0.019890949            3 
 2773000   0.80925629   -7.8800678    667.73346  0.020066518  0.019884825            2 
 2774000   0.81390748   -7.8519842    668.24364  0.020074611  0.019878654            2 
 2775000   0.80698761   -7.8472543    668.74507  0.020082435  0.019872509            5 
 2776000   0.80599515   -7.8627813    669.56611  0.020099847  0.019866363            2 
 2777000   0.80267676   -7.8690278    669.17369  0.020080833  0.019860233            4 
 2778000   0.81606868   -7.8604413    668.65976  0.020058188  0.019854104            2 
 2779000   0.80362267   -7.8367937    669.81053  0.020085478   0.01984797            3 
 2780000   0.81357085   -7.8568012    668.21638  0.020030467  0.019841824            2 
 2781000   0.80960445   -7.8802993    668.84936  0.020042232  0.019835693            2 
 2782000   0.81749754   -7.8956788    667.88174  0.020006043   0.01982953            3 
 2783000   0.80749245    -7.846002    670.02715  0.020063096  0.019823388            2 
 2784000   0.79198987    -7.875399    671.01115  0.020085343  0.019817287            4 
 2785000   0.81773387   -7.8419727    669.59528  0.020035765   0.01981121            3 
 2786000   0.82763918   -7.8810242    669.72901  0.020032574  0.019805125            2 
 2787000   0.80438765   -7.8444413     670.2003  0.020039478  0.019799037            2 
 2788000   0.81321158   -7.8486749    669.35154  0.020006921  0.019792931            1 
 2789000   0.80736146   -7.8612299    671.45994  0.020062745  0.019786816            2 
 2790000   0.81489431   -7.8845681    669.73534  0.020004042  0.019780718            3 
 2791000   0.79624178   -7.8687035    670.86625  0.020030642  0.019774608            4 
 2792000   0.82832824   -7.8571308     670.1304  0.020001504  0.019768501            3 
 2793000   0.82492098   -7.8836378    669.01206  0.019960976  0.019762399            2 
 2794000   0.80165868   -7.8671755    670.69403  0.020003998  0.019756337            6 
 2795000   0.80505985   -7.8621655    670.60367  0.019994146  0.019750281            2 
 2796000   0.81090556   -7.8574812    671.60352  0.020016795  0.019744203            2 
 2797000   0.81200642   -7.8292903    670.96215   0.01999053   0.01973821            2 
 2798000    0.7988704   -7.8648521    671.00846  0.019984765  0.019732183            5 
 2799000   0.78790309   -7.8813752    671.25163  0.019984865  0.019726135            2 
 2800000    0.8096619     -7.85879    670.58705  0.019957948  0.019720047            1 
 2801000   0.77702827   -7.8581285    672.03067  0.019993772  0.019714014            5 
 2802000   0.80425174   -7.8817528    672.88283  0.020011981  0.019707994            1 
 2803000   0.79201085   -7.8662564    671.94995  0.019977106  0.019701948            3 
 2804000   0.80611363   -7.8484665    672.27363  0.019979601  0.019695927            2 
 2805000   0.80153922   -7.8623664     672.0652  0.019966286  0.019689871            2 
 2806000   0.79561182   -7.8620059    673.14578  0.019991262  0.019683801            1 
 2807000   0.80977291   -7.8910994    672.43218  0.019962955  0.019677732            1 
 2808000   0.79726283   -7.8884579    671.05197  0.019914885  0.019671673            2 
 2809000   0.81279807   -7.9001536    669.99646  0.019876482  0.019665593            2 
 2810000   0.80137859   -7.8600222    671.43149  0.019911966  0.019659489            2 
 2811000    0.7895745   -7.8781267    669.39281  0.019844445   0.01965339            3 
 2812000   0.79748675   -7.8832429    671.32313  0.019894593  0.019647292            2 
 2813000   0.79510805    -7.861016    672.74671  0.019929693  0.019641237            2 
 2814000   0.79081071   -7.8396704    671.60468  0.019888791  0.019635208            4 
 2815000   0.79247452   -7.8553955    672.31179  0.019902658  0.019629166            1 
 2816000   0.80227424   -7.8715255    672.75203  0.019908618  0.019623149            2 
 2817000    0.8031553   -7.8866426    672.58936  0.019896739  0.019617098            1 
 2818000    0.7973751    -7.864875    672.68838  0.019892606  0.019611028            1 
 2819000   0.80253382   -7.8929108    671.95175  0.019863774  0.019604982            3 
 2820000   0.80537858    -7.870542    671.82019  0.019852842  0.019598957            3 
 2821000   0.80643551   -7.8413658    671.81258   0.01984558  0.019592939            3 
 2822000   0.80208273   -7.8822046    672.05964  0.019845843  0.019586903            1 
 2823000   0.79660535   -7.8344089     672.2526  0.019844509  0.019580838            4 
 2824000   0.80825624   -7.8798376    671.86843  0.019826146  0.019574776            1 
 2825000   0.78956765   -7.9102284    670.76363  0.019786538  0.019568686            3 
 2826000   0.81249205   -7.8979059     671.4353  0.019799342  0.019562625            1 
 2827000   0.78160729   -7.8480312    672.04601  0.019810341  0.019556549            3 
 2828000   0.78720499   -7.8862778    670.61867  0.019761276  0.019550454            2 
 2829000   0.79554445   -7.8832801    672.66935  0.019814698   0.01954437            3 
 2830000   0.80344603   -7.8851395    671.16266  0.019763329  0.019538275            1 
 2831000   0.81378599   -7.8760094    672.01406   0.01978141  0.019532225            1 
 2832000   0.80998701   -7.8835497    671.87572  0.019770354   0.01952619            2 
 2833000   0.79681886   -7.8755535    673.19862  0.019802289  0.019520135            3 
 2834000   0.79719773   -7.8923683    673.22312  0.019796022  0.019514077            3 
 2835000   0.79224286   -7.8350726    672.52863  0.019768625  0.019508064            2 
 2836000   0.80503274   -7.8678037    672.67705  0.019766016  0.019502035            3 
 2837000    0.8014357   -7.8997687    673.69745  0.019789022  0.019495992            1 
 2838000   0.81646992   -7.9241871    672.47826  0.019746249  0.019489932            3 
 2839000   0.79941997   -7.8653672    671.90804  0.019722556  0.019483867            4 
 2840000   0.79053733   -7.9302555    671.72944  0.019710371  0.019477782            2 
 2841000   0.79150023   -7.9237075    670.68336  0.019672749  0.019471679            3 
 2842000   0.78221967   -7.9127193    672.05715  0.019706109  0.019465592            3 
 2843000    0.8110381   -7.8779171    672.34126  0.019707506  0.019459514            2 
 2844000   0.80006984    -7.914952    672.20422  0.019696561  0.019453425            1 
 2845000   0.80032464   -7.8873651    673.44475  0.019725974  0.019447383            1 
 2846000   0.79466648   -7.9160266    672.85433  0.019701755  0.019441323            2 
 2847000    0.7819799   -7.8711906    671.15703  0.019645154  0.019435293            1 
 2848000   0.78921718   -7.8891643    672.72784  0.019684218   0.01942923            1 
 2849000   0.80622593   -7.8904279    672.37398  0.019666959  0.019423169            2 
 2850000   0.78412162   -7.9022033    672.76219  0.019671409   0.01941708            2 
 2851000   0.80200043   -7.8758201    671.83803  0.019637496  0.019410994            2 
 2852000     0.807987   -7.8845407    671.94974  0.019633875  0.019404945            2 
 2853000   0.79605014   -7.8866275    672.73967  0.019650066  0.019398861            1 
 2854000   0.77314345    -7.915517    672.61909   0.01963966  0.019392755            3 
 2855000    0.7830462   -7.8643551    673.60834  0.019661656  0.019386662            1 
 2856000   0.80711726   -7.8998015    672.17088  0.019612829  0.019380583            2 
 2857000   0.79506929   -7.8629597     672.7856  0.019623895  0.019374494            1 
 2858000   0.80796565   -7.9086388    672.08707  0.019596661  0.019368398            2 
 2859000    0.8059399   -7.8917639    671.66605  0.019577534  0.019362324            1 
 2860000   0.79594786   -7.9013604    673.63562  0.019628078  0.019356256            6 
 2861000   0.80555257   -7.9048576    672.96373  0.019601647  0.019350197            2 
 2862000   0.78420652   -7.9042887    673.88539  0.019621634  0.019344144            3 
 2863000   0.80701318   -7.8864072    674.16203  0.019622833  0.019338075            3 
 2864000   0.80260401   -7.9263156    672.49104   0.01956736  0.019332014            2 
 2865000   0.80831688   -7.9288387    672.60442  0.019563829  0.019325925            1 
 2866000   0.79342653   -7.8829952     673.3817  0.019579603  0.019319806            2 
 2867000   0.79788836   -7.8985122    673.52032  0.019576803  0.019313736            1 
 2868000   0.77909303   -7.8735469    674.27835  0.019592002  0.019307695            3 
 2869000   0.79744878   -7.8982636    673.88089  0.019573629  0.019301666            2 
 2870000    0.8025262   -7.9062244     673.9022  0.019567428  0.019295625            3 
 2871000    0.7935097   -7.9233112    672.84227  0.019529847  0.019289554            2 
 2872000   0.78750922   -7.9033754    672.47803  0.019512478  0.019283503            3 
 2873000   0.79166093   -7.8842722    673.59183  0.019537992  0.019277469            2 
 2874000   0.78194357   -7.8873552    673.47786   0.01952789  0.019271424            1 
 2875000   0.78225799   -7.8835946    672.05889  0.019479968   0.01926537            3 
 2876000    0.7773151   -7.8794316    672.78179  0.019494141  0.019259302            2 
 2877000   0.80970308   -7.9241539    674.61084  0.019540344  0.019253236            2 
 2878000    0.8072458   -7.9217076    671.09254  0.019431681  0.019247157            4 
 2879000   0.79450562   -7.9057495    673.17863  0.019485314  0.019241031            2 
 2880000   0.78137625   -7.9131621    673.30853  0.019482307   0.01923494            3 
 2881000   0.80721923   -7.9264195    672.95093  0.019465201  0.019228827            4 
 2882000   0.80270865   -7.9277286    673.21904  0.019466199  0.019222707            2 
 2883000   0.79742545   -7.8970026    674.12432  0.019485615  0.019216617            3 
 2884000    0.7895948   -7.8948793    674.00701  0.019475468  0.019210551            4 
 2885000   0.78977444   -7.9172717     672.3298  0.019420272  0.019204481            1 
 2886000   0.78316331   -7.9156251    673.88268  0.019458382  0.019198413            3 
 2887000   0.77485946   -7.8941869    673.39317  0.019437512   0.01919233            2 
 2888000    0.7932678   -7.9096195    673.14798  0.019423707  0.019186276            3 
 2889000   0.79785616   -7.9031097    673.18283  0.019417989  0.019180245            2 
 2890000   0.79433956   -7.8825313    673.81079  0.019429377   0.01917419            4 
 2891000   0.79483278   -7.8934219    673.01109  0.019399605  0.019168152            5 
 2892000   0.79150657   -7.9033718     673.6471  0.019411223  0.019162108            2 
 2893000   0.78441746   -7.8978691    672.92436  0.019383695  0.019156052            2 
 2894000   0.79435896   -7.9119223    673.94291  0.019406327  0.019150014            1 
 2895000   0.78265242   -7.9026011    675.05273   0.01943157   0.01914398            3 
 2896000   0.79945564   -7.9059348    673.64045  0.019384221  0.019137933            4 
 2897000   0.77913185   -7.8942481    674.20806  0.019393858  0.019131892            6 
 2898000   0.80426336   -7.9028409    673.88639  0.019377916  0.019125852            2 
 2899000   0.79223234   -7.9170292    674.15161  0.019378855  0.019119816            1 
 2900000    0.7937253   -7.8925273    674.69033  0.019387653  0.019113793            3 
 2901000   0.78638798   -7.9096799    673.41819  0.019344427  0.019107766            2 
 2902000   0.78783943   -7.9168635    674.08185  0.019356819  0.019101708            4 
 2903000   0.78084995   -7.8888807    672.37526  0.019301161  0.019095651            2 
 2904000    0.7823492   -7.9230213    674.83749  0.019365171  0.019089602            2 
 2905000   0.77194695   -7.9115148     674.9467  0.019361638   0.01908359            3 
 2906000   0.78003289   -7.9150758    674.01756  0.019328331  0.019077562            1 
 2907000   0.78987716   -7.9288846    673.16922  0.019297363  0.019071523            4 
 2908000   0.79807762   -7.9296212    674.30542  0.019323287  0.019065459            1 
 2909000   0.78661905   -7.9195403    672.66984   0.01926979   0.01905939            2 
 2910000   0.78860255   -7.9235184    674.98308  0.019329412  0.019053335            2 
 2911000   0.79203738   -7.9108886    673.99091  0.019294369  0.019047308            2 
 2912000   0.76779178   -7.9098646    675.21482  0.019322769  0.019041277            1 
 2913000   0.79937684   -7.9067259    674.98024  0.019309424  0.019035248            3 
 2914000   0.80261192   -7.9161114    674.49455  0.019288908  0.019029227            3 
 2915000     0.794505   -7.9195069    673.80683  0.019262631  0.019023227            3 
 2916000   0.77887847   -7.9089616    673.89856  0.019258646  0.019017211            2 
 2917000   0.76100663   -7.9344931    675.55007  0.019299225  0.019011187            5 
 2918000   0.77824048   -7.9201611    675.82028  0.019300328  0.019005157            2 
 2919000   0.77041654   -7.9203898    674.82237  0.019265227  0.018999131            3 
 2920000   0.78308553    -7.924915     673.3275  0.019215968  0.018993128            4 
 2921000   0.79315107   -7.8843826    676.41427  0.019297452  0.018987109            2 
 2922000   0.78529875   -7.8910302    673.33662  0.019203075  0.018981128            3 
 2923000   0.77922688   -7.9157638    674.49686  0.019229583  0.018975118            1 
 2924000   0.78300582   -7.9237693    674.99104  0.019237091  0.018969084            1 
 2925000   0.77654349   -7.9018885    675.41531  0.019242601   0.01896309            4 
 2926000   0.77141444   -7.9089392    675.04082  0.019225359  0.018957075            2 
 2927000   0.78565138   -7.9193027     673.9032  0.019186402  0.018951061            2 
 2928000   0.77516765   -7.9384494    673.89785  0.019179697  0.018945016            1 
 2929000   0.76919528   -7.9184759    673.00812  0.019147835  0.018938961            1 
 2930000   0.78570191   -7.9345794    674.55314  0.019185243  0.018932904            3 
 2931000   0.77911429   -7.9477718    673.81209  0.019157628  0.018926853            2 
 2932000   0.77622969   -7.9303554    673.08626  0.019130464  0.018920807            4 
 2933000   0.79165538   -7.9036338    674.79114  0.019172382  0.018914772            2 
 2934000   0.79016074   -7.9234691    675.00515  0.019171926  0.018908742            2 
 2935000   0.77434302   -7.9399612    674.05315  0.019138363  0.018902704            2 
 2936000   0.79054438   -7.9209345    673.90495  0.019127638   0.01889665            1 
 2937000   0.80892697   -7.9256271    673.83538  0.019119152  0.018890607            2 
 2938000   0.76817031    -7.877136    676.43748   0.01918645   0.01888459            2 
 2939000   0.78085569   -7.9434389    675.20688  0.019145029  0.018878588            1 
 2940000   0.77098491   -7.9362057    674.57005  0.019120466  0.018872571            2 
 2941000   0.78044163   -7.9257556    676.20971  0.019160425  0.018866558            3 
 2942000   0.78071779   -7.9355759    674.30646  0.019100002  0.018860557            5 
 2943000   0.78326177   -7.9485536    675.25982  0.019120507  0.018854544            2 
 2944000    0.7893566   -7.9645378    673.86296  0.019074472  0.018848532            1 
 2945000    0.7780333   -7.9484121    674.53323  0.019086962  0.018842507            2 
 2946000   0.78435252   -7.9251939    675.83797   0.01911739  0.018836487            2 
 2947000   0.77057109   -7.9261966    676.54879  0.019131003  0.018830502            2 
 2948000   0.77928867   -7.9067683     675.0505   0.01908216  0.018824506            2 
 2949000   0.78215438   -7.9457131    675.42281   0.01908621  0.018818522            2 
 2950000   0.78074088   -7.9386319    677.34411  0.019134014  0.018812526            1 
 2951000   0.80097006    -7.945694    674.48801  0.019046877  0.018806529            2 
 2952000    0.7773101   -7.9230478    676.28697  0.019091209  0.018800536            3 
 2953000   0.79733622   -7.9181251    675.37179  0.019058917  0.018794548            4 
 2954000   0.78039487   -7.9613062     674.6012  0.019030727  0.018788558            3 
 2955000   0.78847271   -7.9441273    675.13896  0.019039452  0.018782565            1 
 2956000   0.78077592   -7.9262559    677.66367  0.019104185  0.018776547            2 
 2957000   0.78336069   -7.9426685    675.09585  0.019025359  0.018770542            1 
 2958000   0.77000115   -7.9488114    675.34099  0.019025834  0.018764555            4 
 2959000   0.77845532   -7.9404801    676.32611  0.019047148  0.018758578            4 
 2960000   0.77773969   -7.9295961    676.17059  0.019036334  0.018752595            2 
 2961000   0.77723883   -7.9208135    676.76489  0.019046631   0.01874662            2 
 2962000   0.76620703   -7.9374942    674.79832  0.018984873  0.018740651            3 
 2963000   0.77213674   -7.9523375    676.42755  0.019024287  0.018734681            2 
 2964000   0.78820902   -7.9359067    676.44623  0.019018394   0.01872874            2 
 2965000    0.7846758    -7.924347    676.03959   0.01900055  0.018722782            2 
 2966000   0.78844577   -7.9098182    678.23184  0.019055738  0.018716824            1 
 2967000   0.76966601   -7.9272279    676.29506  0.018994918  0.018710882            2 
 2968000   0.77642082   -7.9425245    676.30693  0.018988851  0.018704917            2 
 2969000   0.77430378   -7.9496458    676.44329  0.018986283  0.018698942            2 
 2970000   0.77058455   -7.9556698    676.80368  0.018990002  0.018692956            2 
 2971000   0.78103349   -7.9565291    677.51744  0.019003631  0.018687004            2 
 2972000   0.78674605   -7.9111265    678.69528  0.019030262  0.018681048            3 
 2973000   0.76458944   -7.9401794    676.96271  0.018975298  0.018675105            3 
 2974000   0.79357032   -7.9224713    677.18986  0.018975282  0.018669155            2 
 2975000   0.78683226   -7.9554022    677.88752  0.018988446  0.018663231            3 
 2976000   0.77402023   -7.9691194    676.08789  0.018931672  0.018657268            2 
 2977000   0.78233433   -7.9279651     676.1664  0.018927511  0.018651312            1 
 2978000   0.75597408   -7.9342342    678.85438  0.018996373  0.018645339            3 
 2979000   0.76545206    -7.983944    675.16345  0.018886747   0.01863935            2 
 2980000   0.77401968   -7.9318505     676.3276  0.018912964  0.018633364            2 
 2981000   0.76654038   -7.9433382    677.91133  0.018950893  0.018627402            2 
 2982000   0.77702871   -7.9360311    677.05905   0.01892072  0.018621445            2 
 2983000   0.75254201   -7.9648782    676.71529  0.018904774  0.018615437            1 
 2984000   0.76090758    -7.941079    677.00882  0.018906636  0.018609441            3 
 2985000    0.7839133   -7.9171604    676.87991  0.018896703  0.018603464            4 
 2986000   0.78282483     -7.94322    676.06727  0.018867696  0.018597487            2 
 2987000   0.78648134    -7.962628     676.9187  0.018885133  0.018591524            4 
 2988000   0.76772225   -7.9459307    674.91916  0.018823047  0.018585567            1 
 2989000   0.77408043   -7.9320644    677.30935  0.018883388  0.018579619            4 
 2990000   0.76884402   -7.9407207    677.27588  0.018876139  0.018573676            2 
 2991000   0.76792088   -7.9952138    675.67453  0.018825212  0.018567698            2 
 2992000   0.78030675   -7.9457323    675.95783  0.018826811  0.018561705            5 
 2993000   0.77960278    -7.952541    677.45723  0.018862268  0.018555718            3 
 2994000   0.77891165   -7.9611771      676.964   0.01884224  0.018549755            2 
 2995000   0.78394091    -7.953929    678.10048  0.018867571  0.018543825            3 
 2996000   0.78977279    -7.942794    677.65621  0.018848916  0.018537894            3 
 2997000   0.77027476   -7.9320273    676.59412  0.018813094  0.018531971            6 
 2998000   0.76885759   -7.9399299    677.25861  0.018825289  0.018526045            2 
 2999000   0.77368268    -7.937023    676.84718   0.01880758  0.018520116            3 
 3000000   0.76721376   -7.9343602    678.22164   0.01883949  0.018514184            2 
 3001000   0.78779722   -7.9307091    679.28965  0.018862869  0.018508279            2 
 3002000   0.77023052   -7.9411684    678.57602  0.018836776  0.018502378            1 
 3003000   0.76073518   -7.9609819    678.38872  0.018825306  0.018496468            2 
 3004000   0.76427783   -7.9290415    678.68812  0.018827345  0.018490553            3 
 3005000   0.77052724   -7.9599508    678.87734  0.018826327  0.018484646            3 
 3006000    0.7941813   -7.9379712    677.73985   0.01878853  0.018478741            2 
 3007000   0.77886085   -7.9730155    677.53274  0.018776542  0.018472809            3 
 3008000    0.7749354   -7.9660297    675.80059  0.018722312  0.018466877            2 
 3009000   0.77764576   -7.9748206    678.20641  0.018782719  0.018460923            6 
 3010000   0.78180168   -7.9413705    677.04938  0.018744446  0.018454998            4 
 3011000   0.76829574   -7.9621614    678.53271  0.018779274  0.018449073            1 
 3012000   0.76837129   -7.9861053    676.97381  0.018729908  0.018443124            3 
 3013000   0.74645561    -7.976405    678.26076  0.018759286  0.018437197            4 
 3014000   0.78012762    -7.938844    679.04897  0.018774855  0.018431262            2 
 3015000   0.76570855   -7.9552706    677.38125  0.018722533  0.018425365            3 
 3016000   0.77720279    -7.962889    678.46484  0.018746265  0.018419467            1 
 3017000   0.77551171    -7.945978    679.00909  0.018755085  0.018413588            2 
 3018000   0.76982165   -7.9305875    679.95087  0.018774875  0.018407722            3 
 3019000   0.77520998   -7.9576284    678.56369  0.018730366  0.018401859            2 
 3020000   0.77035932   -7.9695203    678.34509  0.018718132  0.018395952            2 
 3021000   0.76037873   -7.9772769    676.48273  0.018660563  0.018390035            3 
 3022000   0.76335183    -7.945258     677.7871  0.018690357  0.018384127            5 
 3023000   0.78015388   -7.9648166    679.30161  0.018725924  0.018378233            1 
 3024000   0.74991732   -7.9306093    678.24951  0.018690738  0.018372347            2 
 3025000   0.75659632    -7.946577    677.99947  0.018677671  0.018366465            5 
 3026000   0.79713097   -7.9783265     677.7504   0.01866464  0.018360587            3 
 3027000   0.76486654   -7.9676109    678.42596  0.018677072  0.018354694            1 
 3028000   0.75617022   -7.9633828    678.48331  0.018672482  0.018348795            3 
 3029000   0.75973709   -7.9834844    678.30762  0.018661484  0.018342885            3 
 3030000   0.75890104   -7.9415287    677.35242  0.018629055  0.018336985            3 
 3031000   0.76670311   -7.9694045     677.9114  0.018638277  0.018331115            3 
 3032000     0.747065   -7.9695916     678.3057  0.018642967  0.018325223            1 
 3033000   0.75611083   -7.9717674    677.67674  0.018619539  0.018319323            3 
 3034000   0.76966815   -7.9438223    679.82157  0.018672313  0.018313423            3 
 3035000   0.76940862   -7.9445695    678.39915  0.018627105  0.018307568            2 
 3036000    0.7554469   -7.9539586    678.92224  0.018635327  0.018301701            2 
 3037000   0.78548429   -7.9327687    679.27619  0.018638903  0.018295811            3 
 3038000   0.77245219   -7.9536637    678.67543  0.018616289  0.018289961            3 
 3039000   0.77065256    -7.944245    679.10195  0.018621859  0.018284101            2 
 3040000     0.749933   -7.9836203    678.01762  0.018586009  0.018278213            3 
 3041000   0.77119755   -7.9807302      680.113  0.018637318  0.018272307            3 
 3042000   0.75383152   -7.9584702    678.34529  0.018582766  0.018266412            2 
 3043000   0.76672195   -7.9635754    679.29818  0.018602754  0.018260523            2 
 3044000   0.76540456   -7.9589334    679.33378  0.018597618  0.018254632            5 
 3045000    0.7745674   -7.9466157     679.5594  0.018597685  0.018248728            4 
 3046000    0.7659623    -7.957248    678.96675  0.018575365  0.018242819            3 
 3047000   0.75551826   -7.9797542    678.53817  0.018557548  0.018236929            1 
 3048000   0.76171768   -7.9411265    678.90586  0.018561512  0.018231031            1 
 3049000   0.76695548   -7.9644322    678.71592  0.018550233  0.018225128            3 
 3050000    0.7628094   -7.9701003    677.72019  0.018516945  0.018219226            2 
 3051000   0.75925556   -7.9703432    676.27342   0.01847136  0.018213318            2 
 3052000   0.78262908     -7.95353    679.15657   0.01854403  0.018207423            1 
 3053000   0.76369389   -7.9787676    677.34884  0.018488613  0.018201528            3 
 3054000   0.76351372   -7.9914371    677.24449  0.018479712  0.018195613            1 
 3055000   0.74458946   -8.0091669    677.02431  0.018467657  0.018189685            3 
 3056000   0.75654631   -8.0108334    677.81393  0.018483146  0.018183722            3 
 3057000    0.7455772   -7.9963059     677.2918  0.018462867  0.018177762            2 
 3058000   0.73730942   -7.9519056     679.3716  0.018513505  0.018171827            3 
 3059000    0.7718562   -7.9918155    676.41825  0.018426998  0.018165874            2 
 3060000   0.76244991   -7.9813254    677.57861  0.018452577  0.018159913            6 
 3061000   0.74260013   -7.9567717    677.64517   0.01844836  0.018153973            1 
 3062000   0.76205306   -7.9906481    677.44732  0.018436951  0.018148012            2 
 3063000   0.77224498   -7.9857943    678.23613  0.018452392  0.018142045            1 
 3064000   0.76706381   -7.9715753    678.44305  0.018451998  0.018136096            2 
 3065000   0.75265715   -7.9624845    678.39201   0.01844459  0.018130157            2 
 3066000   0.77175223   -7.9814004    677.51032   0.01841461    0.0181242            4 
 3067000   0.75753165   -8.0053007    677.93145  0.018420048  0.018118258            3 
 3068000   0.75968687   -7.9728272    677.35336  0.018398342  0.018112331            6 
 3069000    0.7714089   -7.9576798    678.72356  0.018429552  0.018106411            1 
 3070000   0.75736936    -7.964052    678.62362  0.018420836   0.01810049            2 
 3071000   0.76813819   -7.9888637    676.41937  0.018355025  0.018094564            2 
 3072000   0.75786295   -7.9568748    679.42619  0.018430615  0.018088661            1 
 3073000   0.78723104   -7.9974441    677.22778  0.018365001  0.018082738            2 
 3074000   0.79079003   -7.9653599    677.29606  0.018360878  0.018076817            2 
 3075000   0.77326564   -7.9706064    678.38368  0.018384382  0.018070905            3 
 3076000   0.77610684   -7.9917793    678.66898  0.018386134  0.018064986            2 
 3077000   0.73683727   -8.0113572    677.26248  0.018342067  0.018059062            2 
 3078000   0.73968415    -8.001206    675.98807  0.018301605  0.018053108            2 
 3079000   0.77582299   -7.9868559    675.53977  0.018283527  0.018047175            4 
 3080000   0.74724535   -7.9788424    677.73842  0.018337079  0.018041257            3 
 3081000   0.75993046   -7.9602451    678.44863  0.018350336  0.018035341            4 
 3082000   0.76027824   -7.9683892    679.15085  0.018363369  0.018029448            4 
 3083000    0.7693702   -7.9384467    680.10154   0.01838311  0.018023554            3 
 3084000   0.75222034    -7.962651    679.15423  0.018351552  0.018017662            3 
 3085000   0.73359295   -7.9883774    678.08149  0.018316626  0.018011757            2 
 3086000    0.7543302   -7.9754976    679.96847  0.018361646  0.018005858            3 
 3087000   0.76992838    -7.981478    678.58965  0.018318477  0.017999965            3 
 3088000   0.75267363   -8.0042666    677.35772  0.018279299  0.017994063            3 
 3089000   0.75082599   -7.9817293    678.44015  0.018302583  0.017988144            2 
 3090000   0.76035748   -7.9837224    676.41301  0.018241991  0.017982248            6 
 3091000   0.75336285   -7.9659306      677.574  0.018267389  0.017976339            2 
 3092000   0.76588954   -7.9816631       677.75  0.018266225  0.017970452            2 
 3093000   0.74216196   -7.9466181    678.08093  0.018269235  0.017964577            2 
 3094000   0.72803793   -7.9518123    676.12463   0.01821064  0.017958677            3 
 3095000    0.7663082   -7.9711267    678.54224   0.01826985  0.017952749            2 
 3096000   0.77338681   -7.9695574    678.47926  0.018262254  0.017946817            4 
 3097000   0.74929689   -7.9649013    678.15039  0.018247508   0.01794089            2 
 3098000    0.7229161   -7.9798132    678.11876  0.018240767  0.017934936            2 
 3099000   0.75638847   -7.9943226    676.95466  0.018203578  0.017928963            2 
 3100000   0.74963026   -7.9906086    675.30497  0.018153359  0.017922995           10 
 3101000   0.75541744   -8.0312262    675.52928  0.018153533  0.017917021            2 
 3102000   0.77424366   -8.0080044    677.60345  0.018203402  0.017911053            3 
 3103000   0.74224255   -7.9764879    676.50057  0.018167917  0.017905124            2 
 3104000   0.75961637   -7.9585931    676.41639  0.018159804  0.017899197            4 
 3105000   0.76455968   -7.9846714    677.42436  0.018181008  0.017893254            3 
 3106000   0.76260217   -7.9893002    677.27772   0.01817122   0.01788732            2 
 3107000     0.743256   -7.9781553    678.96376  0.018210593  0.017881398            1 
 3108000   0.76319881   -7.9905317    678.31072  0.018187224  0.017875477            2 
 3109000    0.7639058    -8.024563    676.91436  0.018143947  0.017869545            2 
 3110000   0.74848263   -7.9981993    677.08705   0.01814274  0.017863593            3 
 3111000   0.74993546   -7.9978754    678.45165  0.018173461  0.017857637            2 
 3112000   0.74973794   -7.9955671    678.38157  0.018165745  0.017851697            1 
 3113000   0.77610688   -8.0125102    678.13707  0.018153364  0.017845757            5 
 3114000   0.74786085    -7.987362     676.4829  0.018103267  0.017839848            2 
 3115000   0.75347504   -8.0328979    678.51752  0.018151887  0.017833934            3 
 3116000   0.76746095   -8.0232978    677.65786  0.018123071  0.017828001            2 
 3117000   0.74194058   -8.0231065    676.93845  0.018098023  0.017822064            2 
 3118000   0.75221852   -8.0069207    678.04503  0.018121794  0.017816137            2 
 3119000   0.74718447   -8.0167888    677.38741  0.018098413  0.017810211            2 
 3120000    0.7430134   -8.0027673    677.76553  0.018102712  0.017804284            2 
 3121000   0.75303024   -8.0263253    678.67974  0.018121322  0.017798388            2 
 3122000   0.73739629   -7.9922442    678.89925  0.018121377    0.0177925            2 
 3123000   0.76418635   -7.9962911    679.36451  0.018127989  0.017786638            9 
 3124000   0.74975581   -8.0207632    678.40533    0.0180966  0.017780761            2 
 3125000    0.7431247   -7.9866771    677.75172  0.018073379    0.0177749            6 
 3126000   0.76303743   -8.0167783    678.27874  0.018081647  0.017769015            1 
 3127000   0.74439763   -8.0217739    677.58167  0.018057288   0.01776312            2 
 3128000   0.73963131   -8.0000891    678.86475  0.018085698  0.017757257            2 
 3129000   0.73474758   -8.0437283    678.78009  0.018077663  0.017751389            3 
 3130000   0.75853686   -8.0369085    678.02922  0.018051896  0.017745497            2 
 3131000   0.74194359   -8.0250597    677.85755  0.018041561  0.017739599            6 
 3132000   0.74869493   -8.0252347    678.68978  0.018057944  0.017733715            2 
 3133000    0.7442528   -8.0330356    676.75862  0.018000814  0.017727836            4 
 3134000   0.76106975   -8.0179377    677.89276  0.018025228  0.017721947            3 
 3135000   0.74685199   -8.0006994    677.87815   0.01801909  0.017716072            2 
 3136000    0.7445981   -8.0305712    678.52564  0.018030549  0.017710216            3 
 3137000   0.74460402   -8.0073724    678.99452  0.018037257  0.017704372            1 
 3138000   0.74214168   -8.0042562    679.24006   0.01803803  0.017698537            1 
 3139000   0.75335819   -8.0129367    678.57782  0.018014703  0.017692718            3 
 3140000   0.74947541   -8.0288465    679.06282  0.018021837  0.017686885            5 
 3141000   0.76606815   -8.0091233    679.95375  0.018039736  0.017681052            4 
 3142000   0.73813581   -8.0025374    680.68637  0.018053426  0.017675236            8 
 3143000   0.75101196   -8.0008903    679.04409  0.018004138  0.017669423            2 
 3144000   0.75194506   -8.0017342    679.93157  0.018021935  0.017663621            2 
 3145000   0.73087186   -8.0194307    678.90932  0.017989118    0.0176578            1 
 3146000   0.74696802   -8.0219927     680.2797    0.0180197  0.017651976            2 
 3147000   0.74219968   -8.0196162    680.28659  0.018014156  0.017646155            2 
 3148000   0.76827535   -8.0258097    679.32385  0.017982948  0.017640326            6 
 3149000   0.74989289   -8.0104861    678.88158  0.017965534   0.01763451            1 
 3150000   0.73506504   -8.0330409    677.34237   0.01791911  0.017628679            2 
 3151000   0.74063616   -8.0154572    678.52094  0.017944593   0.01762285            3 
 3152000   0.75926124   -8.0432021     679.9825  0.017977541  0.017617029            1 
 3153000   0.74842857   -8.0059468    679.16553  0.017950247  0.017611214            2 
 3154000   0.74942667   -8.0321029    680.28527  0.017974141  0.017605394            3 
 3155000   0.73329412   -7.9932969     679.7306  0.017953793  0.017599585            2 
 3156000   0.73073713   -8.0134099    680.77817  0.017975765  0.017593768            1 
 3157000   0.74796966   -8.0302591    680.69703  0.017967929  0.017587965            1 
 3158000   0.74918284   -8.0308132     680.8613  0.017966574  0.017582148            2 
 3159000   0.74173708   -8.0280472     680.5876  0.017953667  0.017576325            2 
 3160000   0.74935788     -8.02462    679.04866  0.017907401  0.017570497            1 
 3161000   0.75456767     -8.04768      679.048  0.017901719  0.017564677            3 
 3162000   0.74010355   -8.0438512     679.7088  0.017913472  0.017558849            2 
 3163000   0.73113728   -8.0286405    680.13376  0.017919005  0.017553031            3 
 3164000   0.76204685   -8.0395626    678.83978  0.017879261  0.017547225            2 
 3165000   0.73904086   -8.0561806    679.11357  0.017880821  0.017541424            2 
 3166000    0.7596059   -8.0281419      680.499  0.017911639  0.017535611            2 
 3167000   0.73998231   -8.0756029    679.46573  0.017878795  0.017529783            3 
 3168000   0.72496073   -8.0334155    679.38441  0.017871012  0.017523944            1 
 3169000   0.73672165   -8.0202052    678.93476  0.017853549   0.01751813            2 
 3170000   0.76753666   -8.0446182    680.71446  0.017894702  0.017512336            2 
 3171000   0.74044991   -8.0500394    679.30024  0.017851893  0.017506548            2 
 3172000   0.71289486   -8.0252475    680.94489  0.017889473  0.017500762            1 
 3173000   0.75139366   -8.0152259     679.9288  0.017857149  0.017495003            3 
 3174000   0.74458366   -8.0141447    681.98855  0.017905602  0.017489215            7 
 3175000   0.72077568   -7.9881831    680.88403  0.017870972   0.01748343            1 
 3176000   0.74624095   -8.0343767    680.51107  0.017855559  0.017477672            3 
 3177000   0.72476303   -8.0038739    679.45402  0.017822212  0.017471899            5 
 3178000   0.73359983   -8.0028159    680.77953  0.017851362  0.017466144            3 
 3179000   0.75082985   -8.0120604    679.83806  0.017821067  0.017460378            4 
 3180000   0.73584691   -8.0139102    681.32213  0.017854353  0.017454601            3 
 3181000   0.75273747   -8.0492344     678.2412  0.017768029  0.017448827            3 
 3182000   0.74926026   -8.0425634    679.90453  0.017806006  0.017443052            1 
 3183000   0.73136348   -8.0322367     678.4595   0.01776258  0.017437263            3 
 3184000   0.73410601   -8.0387242     681.3072  0.017831533  0.017431476            1 
 3185000   0.73657613   -8.0100714    679.70859  0.017784108  0.017425706            2 
 3186000   0.74516547   -7.9883776    681.00796  0.017812512  0.017419939            2 
 3187000   0.76005333   -7.9949577     682.5208   0.01784648  0.017414219            7 
 3188000   0.74401323   -8.0257636    680.57763  0.017790088  0.017408495            3 
 3189000   0.73351516   -8.0098292    681.78711  0.017816116  0.017402769            2 
 3190000   0.76344062   -8.0033446    681.15283  0.017793961  0.017397053            2 
 3191000   0.74126989   -8.0212757    680.54244  0.017772444   0.01739133            3 
 3192000   0.74638003   -8.0190595    680.44785  0.017764407   0.01738559            1 
 3193000   0.74374903   -8.0303619    679.09512  0.017723539  0.017379849            2 
 3194000   0.74811473   -8.0021774    679.04804  0.017716762  0.017374112            1 
 3195000   0.72750791   -8.0369269    680.17703  0.017740663  0.017368358            4 
 3196000   0.74791796   -8.0446251    680.20457   0.01773583  0.017362595            3 
 3197000   0.75526963   -8.0370892    681.32381  0.017759457  0.017356835            5 
 3198000   0.74944423    -7.991153    680.56799  0.017734209  0.017351077            4 
 3199000   0.73702116   -8.0510731    679.89628  0.017711167   0.01734533            2 
 3200000   0.74506446   -8.0312333    680.66286  0.017725595  0.017339602            3 
 3201000   0.74141807   -8.0070163    683.02944  0.017781668  0.017333867            4 
 3202000   0.74252344   -8.0162876    681.29783  0.017731049   0.01732815            2 
 3203000   0.73872122   -8.0296752    680.67595  0.017709334   0.01732244            2 
 3204000   0.73652392   -8.0120859    678.37068  0.017643848  0.017316711            3 
 3205000    0.7584268   -8.0456867    681.07749  0.017708723  0.017310984            1 
 3206000   0.72547975   -8.0164972    680.29426  0.017682841  0.017305253            1 
 3207000   0.73367263   -8.0349024    680.19367  0.017674713  0.017299504            1 
 3208000   0.75108927   -8.0478768    679.70752  0.017656575  0.017293749            1 
 3209000   0.73293079   -8.0710357    680.15806  0.017662773  0.017287998            3 
 3210000   0.74023738   -8.0409646    679.71728  0.017645828  0.017282235            3 
 3211000   0.74693515   -8.0399896    679.76162  0.017641483  0.017276486            5 
 3212000    0.7447395   -8.0276992    680.15789  0.017646271  0.017270764            5 
 3213000   0.73970401   -8.0332845    680.40425  0.017647169  0.017265029            4 
 3214000   0.73725652   -8.0317643    681.20914  0.017662548  0.017259293            3 
 3215000   0.74529362   -8.0784762    679.51964  0.017613262  0.017253522            3 
 3216000   0.74458866   -8.0188349     679.6268  0.017610562  0.017247781            3 
 3217000   0.72654053   -8.0590312    679.46464  0.017600887  0.017242051            1 
 3218000   0.74447642   -8.0366856    680.41058  0.017619914  0.017236294            2 
 3219000   0.74811361    -8.036951    681.12056   0.01763282  0.017230556            1 
 3220000   0.73372392   -8.0385484    680.31943  0.017606611  0.017224833            4 
 3221000   0.74725582    -8.040374    679.99077  0.017592641  0.017219124            3 
 3222000   0.73097913   -8.0487688    680.07998  0.017589489  0.017213406            6 
 3223000   0.73002967   -8.0140065    683.00604  0.017659687  0.017207692            4 
 3224000   0.73756256   -8.0315987    681.39349  0.017612528  0.017201978            4 
 3225000   0.72602268   -8.0663658    680.38008   0.01758088  0.017196261            3 
 3226000   0.75673661   -8.0296287    680.65787  0.017582607  0.017190541            1 
 3227000   0.72292476   -8.0474848    681.19337  0.017590987  0.017184829            3 
 3228000   0.72927896   -8.0604973    680.86096  0.017576956  0.017179125            2 
 3229000   0.73384909   -8.0580429    680.75623   0.01756881  0.017173396            3 
 3230000   0.72117239   -8.0519341    680.93343  0.017567942  0.017167664            3 
 3231000   0.72375195   -8.0570721    681.13643   0.01756774  0.017161934           13 
 3232000   0.73496544   -8.0596207    680.58945  0.017548201  0.017156229            4 
 3233000   0.74279634   -8.0715887    680.93753  0.017551746   0.01715053            4 
 3234000   0.73181613   -8.0412305    680.50832  0.017535259  0.017144836            4 
 3235000   0.72881253   -8.0499532    680.90576  0.017540076   0.01713915            1 
 3236000   0.72542345   -8.0423042    681.12721  0.017540359  0.017133458            3 
 3237000   0.73449132    -8.053303    681.51881  0.017545021   0.01712778            2 
 3238000   0.73980984   -8.0353177    682.23362  0.017557999  0.017122092            2 
 3239000   0.73680722   -8.0318977    680.45271  0.017506759  0.017116419            2 
 3240000   0.73392247   -8.0377382    681.30231  0.017523208  0.017110766            2 
 3241000   0.74421294   -8.0438432    681.34256  0.017518836    0.0171051            4 
 3242000   0.74161805   -8.0530892    679.76834  0.017472968  0.017099427            4 
 3243000   0.73417331   -8.0300329    679.98326  0.017473102  0.017093748            1 
 3244000   0.72362175   -8.0271756    681.61881  0.017509731  0.017088064            4 
 3245000   0.74323045   -8.0347012    682.07945  0.017516165  0.017082399            1 
 3246000   0.72348084    -8.065218    680.64902  0.017474046   0.01707672            6 
 3247000   0.73285954   -8.0684511    679.09427  0.017428762  0.017071034            5 
 3248000   0.73847886   -8.0375695    680.31138  0.017454623  0.017065349            1 
 3249000   0.73439247   -8.0495766    682.21935  0.017498188   0.01705966            4 
 3250000   0.72055086   -8.0627601    681.28082  0.017468739  0.017053997            1 
 3251000   0.73227803   -8.0370651    684.06974  0.017534855  0.017048335            4 
 3252000   0.72950831   -8.0663536    682.77478  0.017496279  0.017042683            4 
 3253000   0.73181636   -8.0684999    680.77933  0.017439782   0.01703702            1 
 3254000   0.73163267   -8.0506873    683.23273  0.017497253  0.017031366            5 
 3255000   0.70678296   -8.0610667    680.23188  0.017415051  0.017025714            5 
 3256000   0.72308583   -8.0799678    681.10446  0.017432035  0.017020067            2 
 3257000     0.711798   -8.0490863    681.66594  0.017441048  0.017014422            1 
 3258000   0.72229601   -8.0574393    681.24199  0.017424851  0.017008791            2 
 3259000   0.75090327   -8.0483621    680.58201  0.017402629  0.017003161            3 
 3260000   0.73010785   -8.0283652    682.87943  0.017456018  0.016997534            3 
 3261000   0.73206197   -8.0512012    683.34527   0.01746257  0.016991909            3 
 3262000    0.7181438   -8.0625871    681.75954  0.017416706  0.016986263            4 
 3263000   0.70974008   -8.0444758    683.02956  0.017443803  0.016980628            2 
 3264000   0.73051536   -8.0579919    681.85457   0.01740846  0.016975007            5 
 3265000   0.74298165   -8.0433152    681.90526  0.017404422  0.016969378            1 
 3266000   0.72599586   -8.1124382    682.00634  0.017401672   0.01696374            2 
 3267000   0.71768773   -8.0478613    682.84347  0.017417699    0.0169581            5 
 3268000   0.74575352   -8.0665155    681.77583  0.017385145  0.016952463            2 
 3269000   0.72625257   -8.0519368    682.26543  0.017392307  0.016946843            1 
 3270000   0.74005633   -8.0576887    681.91342  0.017378018  0.016941219            4 
 3271000   0.73312196   -8.0630594    680.56867  0.017338446  0.016935596            3 
 3272000     0.720731   -8.0685542    681.08377  0.017346265  0.016929956            2 
 3273000   0.71154252   -8.0897611    682.26623  0.017371072  0.016924324            2 
 3274000   0.72549251   -8.0273257    682.88968  0.017381635   0.01691871            3 
 3275000   0.71044529    -8.059329    681.49613  0.017340869    0.0169131            2 
 3276000   0.73544252    -8.055512    680.99035  0.017322709  0.016907496            2 
 3277000   0.73242489   -8.0568757    681.14016  0.017321233  0.016901895            2 
 3278000   0.72290401    -8.035209    682.80173  0.017358189  0.016896301            3 
 3279000   0.71635047    -8.062706    682.32797  0.017340855  0.016890702            2 
 3280000   0.73533245   -8.0550884     683.8774  0.017374934  0.016885105            5 
 3281000   0.73055959   -8.0353362    682.41598   0.01733252  0.016879501            4 
 3282000   0.72460635   -8.0630154    682.63512  0.017332803  0.016873918            3 
 3283000   0.73530401   -8.0886934    682.28748  0.017318699  0.016868336            2 
 3284000   0.72841248   -8.0594265    682.56018  0.017320346  0.016862752            1 
 3285000   0.73439046   -8.0876848    682.86913   0.01732291  0.016857196            2 
 3286000    0.7270014   -8.0657589    682.78816  0.017315585  0.016851636            6 
 3287000   0.72662151   -8.0732941    682.35526  0.017299342  0.016846076            3 
 3288000   0.71751253   -8.0834182    683.54367  0.017324201  0.016840521            2 
 3289000   0.70607833   -8.0522048    683.32244  0.017313328  0.016834957            3 
 3290000   0.72364688   -8.0896614    683.77074  0.017319421  0.016829405            2 
 3291000   0.71910698   -8.0915446    681.24032  0.017250084  0.016823832            3 
 3292000   0.73754284   -8.0891877    682.20702  0.017269315  0.016818249            2 
 3293000   0.70642827   -8.0608745     683.6643  0.017300949  0.016812673            2 
 3294000   0.72790773   -8.0934071    683.52966   0.01729229  0.016807105            2 
 3295000   0.71924853   -8.0738791    682.12816  0.017251597  0.016801526            2 
 3296000   0.72144479   -8.0921462    681.36225  0.017226999  0.016795956            2 
 3297000   0.72804188   -8.0812829    683.58231  0.017277887  0.016790372            3 
 3298000   0.72126204   -8.0871552     681.8166  0.017228032  0.016784791            3 
 3299000   0.72270392    -8.089892    682.88322  0.017249753  0.016779228            1 
 3300000   0.70807534     -8.07711    682.38312  0.017231897  0.016773667            1 
 3301000   0.73966241   -8.0729175    682.86009  0.017238718   0.01676812            1 
 3302000   0.71283953   -8.0957543    683.46109  0.017248665  0.016762574            3 
 3303000   0.73461033   -8.0899729    683.35622  0.017240797  0.016757018            5 
 3304000   0.73352961   -8.0871582     683.5962  0.017241631  0.016751472            4 
 3305000   0.73144857   -8.0586962    682.02492  0.017196796   0.01674594            2 
 3306000   0.71879227   -8.0716789    684.27551  0.017248324  0.016740404            2 
 3307000   0.73416356   -8.0767357    682.71046   0.01720367  0.016734873            2 
 3308000   0.71426086   -8.0762404    683.10254  0.017208347  0.016729359            2 
 3309000   0.71843095   -8.0699485    683.13023  0.017203844  0.016723851            2 
 3310000   0.72509265   -8.0808376    684.33176  0.017228896  0.016718325            2 
 3311000   0.72897939   -8.0738363    682.90314  0.017187736  0.016712791            3 
 3312000    0.7214367   -8.0997931    682.56416  0.017174018  0.016707259            2 
 3313000   0.71974342   -8.0863164    682.26734  0.017161368   0.01670172            2 
 3314000   0.70903247   -8.1001206    683.37497  0.017184042  0.016696163            3 
 3315000   0.71726984   -8.0882568    683.51932  0.017182487  0.016690606            4 
 3316000   0.73371286   -8.1010657    684.15193  0.017193203  0.016685085            3 
 3317000   0.73075124   -8.0851193    685.09706  0.017211764  0.016679557            2 
 3318000   0.71491358   -8.0804068    684.29653  0.017186471  0.016674037            2 
 3319000   0.72264529   -8.0571966    684.34185  0.017182431  0.016668537            2 
 3320000   0.70745386   -8.0591692     684.0831  0.017170761  0.016663026            1 
 3321000   0.72573073   -8.0815288    684.72779  0.017181767  0.016657513            3 
 3322000   0.71948883   -8.0997134    683.97099  0.017157611  0.016651993            3 
 3323000   0.71831287   -8.0792739     683.7911  0.017147936   0.01664648            3 
 3324000   0.71388099   -8.0833082    684.84137  0.017169108  0.016640964            2 
 3325000   0.71492739   -8.0876625    683.55533  0.017131713  0.016635464            3 
 3326000   0.73112848   -8.1175614    683.00644  0.017112809   0.01662996            2 
 3327000   0.72962425   -8.0832028    684.07147  0.017134342  0.016624465            3 
 3328000   0.72386286   -8.0694835    684.64921   0.01714366  0.016618989            3 
 3329000   0.72040045   -8.0888566    683.53018  0.017110498    0.0166135            2 
 3330000   0.72071894   -8.1264727    683.37254  0.017101415  0.016607992            1 
 3331000   0.71234397   -8.1064595      682.508  0.017074652  0.016602484            4 
 3332000   0.73001507   -8.0861313    684.66937  0.017123584   0.01659699            3 
 3333000   0.70376925   -8.1045894    682.38386  0.017061303   0.01659149            2 
 3334000   0.71414002   -8.0743298    684.13756  0.017100019     0.016586            4 
 3335000    0.7161512   -8.1317048    683.54598   0.01708011  0.016580503            2 
 3336000   0.72707888   -8.1213304    683.43817  0.017072296  0.016574989            4 
 3337000   0.71156378   -8.1189706    684.10236  0.017083767  0.016569474            4 
 3338000    0.6955325   -8.1222922    682.52372  0.017039238  0.016563957            2 
 3339000   0.71618024   -8.1031463    683.89093  0.017068257  0.016558457            2 
 3340000   0.73622664   -8.1008573    682.69733  0.017033367  0.016552979            3 
 3341000   0.73119683   -8.0787877    684.46041  0.017072244  0.016547499            6 
 3342000   0.71919747   -8.1125912    683.75559  0.017049561  0.016542015            4 
 3343000   0.72569777   -8.0891116     682.8145  0.017021002  0.016536527            1 
 3344000   0.73436602   -8.0752794    682.28322  0.017002672  0.016531039            3 
 3345000    0.7022926   -8.1120453    682.63514  0.017006356  0.016525548            1 
 3346000   0.70972769   -8.0888322    684.37733  0.017044664  0.016520067            2 
 3347000   0.72682502   -8.1146524    683.98142  0.017029714  0.016514586            2 
 3348000   0.70012163   -8.0843919    682.67952  0.016992222  0.016509125            2 
 3349000   0.70700457   -8.0922958    685.88684  0.017066956  0.016503652            2 
 3350000   0.70813238   -8.1044125    683.92362  0.017013025  0.016498182            2 
 3351000   0.71000379   -8.0924138    684.70277  0.017027324  0.016492732            3 
 3352000   0.71914907   -8.0893783    683.34044  0.016988376  0.016487277            2 
 3353000   0.72203691   -8.1014241    684.17305  0.017004003  0.016481819            2 
 3354000    0.7077548   -8.1026481    682.51305  0.016957689   0.01647635            2 
 3355000   0.71799826   -8.1224191     684.0542  0.016990914  0.016470888           11 
 3356000   0.72623125   -8.1242007    683.51861  0.016972552  0.016465425            4 
 3357000   0.71336586   -8.0653306    684.97299  0.017003599  0.016459977            5 
 3358000   0.70064781    -8.106634    683.63822  0.016965411  0.016454528            8 
 3359000    0.7073566   -8.1198243    682.56141  0.016933646  0.016449081            2 
 3360000   0.70854441   -8.1282291    681.76165  0.016908771  0.016443622            5 
 3361000   0.71799635   -8.1191074    684.37538  0.016968545  0.016438165            3 
 3362000   0.71281339   -8.1058109    683.84905  0.016950452  0.016432711            1 
 3363000   0.71019315   -8.1115912    682.71024  0.016917193  0.016427259            4 
 3364000    0.7000572   -8.1044218    683.50508  0.016931854  0.016421826            2 
 3365000   0.70240185   -8.1144608    684.33632  0.016947408  0.016416374            5 
 3366000   0.71775629   -8.1022579    685.26507  0.016965366  0.016410931            2 
 3367000   0.71243008   -8.0967864    683.52352  0.016917224  0.016405496            2 
 3368000   0.71951546   -8.0853244    684.46191  0.016935419  0.016400042            3 
 3369000   0.70146174   -8.1161095    683.14188  0.016897741  0.016394594            2 
 3370000   0.71124003   -8.1148473    683.73684  0.016907439  0.016389139            2 
 3371000   0.71921624   -8.1016029    684.65627  0.016925152  0.016383704            3 
 3372000   0.71718488    -8.104159    682.49427  0.016866703  0.016378261            2 
 3373000    0.7230485   -8.1231973    684.23778  0.016904778  0.016372831            2 
 3374000   0.72038751   -8.0926477    684.89955  0.016916112   0.01636742            1 
 3375000   0.70015521    -8.122907    684.53258  0.016902039  0.016362011            3 
 3376000   0.72226586   -8.1213876    683.38119  0.016868611  0.016356591            2 
 3377000    0.7207699   -8.0923954    684.95625  0.016902484  0.016351167            4 
 3378000   0.71154912   -8.1073945    684.60672  0.016888857  0.016345761            3 
 3379000   0.72303192   -8.0823348    685.91662  0.016916164  0.016340354            2 
 3380000   0.71438321   -8.1015439    683.68399  0.016856114  0.016334951            4 
 3381000   0.70184761   -8.0939919    684.57335  0.016873049  0.016329543            1 
 3382000   0.71173933   -8.1163833    684.93659   0.01687701   0.01632414            2 
 3383000   0.71688757   -8.1041953    683.67045  0.016840833  0.016318739            3 
 3384000   0.71239299   -8.1102543    684.33873  0.016852313  0.016313326            5 
 3385000   0.73033366   -8.0995986    684.73792  0.016857162  0.016307923            3 
 3386000   0.70318037   -8.1075809    683.93482  0.016832418  0.016302512            2 
 3387000   0.70858851    -8.107385    684.80695  0.016848906  0.016297095            2 
 3388000   0.70904209   -8.1029518    682.66438  0.016791233  0.016291688            2 
 3389000   0.70848999   -8.1201659    684.36871  0.016828187  0.016286275            2 
 3390000   0.70713673   -8.1230759    683.41844  0.016799863  0.016280847            1 
 3391000   0.69913754   -8.1175812    684.57636  0.016823365   0.01627542            3 
 3392000   0.71699417   -8.1221344    684.34578   0.01681274  0.016269999            8 
 3393000   0.70200829    -8.125754    681.97191  0.016749482  0.016264573            6 
 3394000   0.69268287   -8.1452684    684.53732  0.016807536  0.016259144            2 
 3395000   0.70328536   -8.1243438    684.54934   0.01680288  0.016253723            3 
 3396000   0.70612877   -8.1353914    684.21159  0.016789644    0.0162483            1 
 3397000   0.71334814   -8.1254114    681.80379  0.016725635  0.016242866            3 
 3398000    0.7145461   -8.1162198    683.65679  0.016766156  0.016237445            2 
 3399000   0.69989656   -8.1379372    684.20403   0.01677464   0.01623203            3 
 3400000   0.70178693   -8.1076913    684.11249  0.016767463  0.016226616            3 
 3401000   0.69961754   -8.1365132     684.7153  0.016777303  0.016221217            3 
 3402000   0.69545957   -8.1424454    684.14195  0.016758327  0.016215821            3 
 3403000   0.71583537   -8.1032687    685.30809  0.016781959  0.016210427            4 
 3404000   0.70173029   -8.1105731     684.6323  0.016760485  0.016205053            8 
 3405000   0.69425575   -8.1225371    684.55533  0.016753679  0.016199664            3 
 3406000   0.71459842   -8.1292693    682.83974  0.016706786  0.016194289            5 
 3407000   0.71387733   -8.1220435    684.45324  0.016741347  0.016188914            4 
 3408000    0.6993823   -8.1354776    684.88812  0.016747069  0.016183541            3 
 3409000    0.7104527   -8.1344248    685.69381  0.016761851  0.016178158            3 
 3410000   0.69740333   -8.1254463    684.21947  0.016720906  0.016172792            2 
 3411000   0.71030267   -8.1164789     684.6317  0.016726075  0.016167428            1 
 3412000   0.71211993   -8.1185627    685.76128  0.016748761  0.016162066            1 
 3413000   0.71087795   -8.1518675    683.92184  0.016698941  0.016156684            5 
 3414000   0.69915523   -8.1328153    683.78094  0.016690611  0.016151302            2 
 3415000   0.69016147   -8.1381469    682.86987  0.016663491  0.016145905            2 
 3416000   0.71212917   -8.1408318    684.66042  0.016702294  0.016140522            2 
 3417000   0.70460242   -8.1315643    684.49712  0.016693423  0.016135125            1 
 3418000   0.70196967   -8.1285853    684.02736  0.016677086  0.016129729            3 
 3419000    0.7104125   -8.1519435    682.87575  0.016644139  0.016124325            3 
 3420000   0.72157695   -8.1655953    683.05232  0.016643575  0.016118937            1 
 3421000   0.68195888   -8.1522306    682.87355  0.016634355  0.016113549            2 
 3422000   0.70819815   -8.1296902    684.39362  0.016666511  0.016108179            3 
 3423000   0.70847209   -8.1430438     682.8805  0.016624805  0.016102801            2 
 3424000   0.70852944   -8.1537357    683.60677  0.016637626   0.01609742            3 
 3425000   0.69379131   -8.1419078    683.40485  0.016627855  0.016092067            1 
 3426000   0.70449433   -8.1281716    685.43577  0.016672401   0.01608671            2 
 3427000   0.68955115   -8.1373689    683.89484  0.016630066   0.01608137            1 
 3428000   0.69488228   -8.1251239    685.42266  0.016662356  0.016076029            1 
 3429000   0.71165937   -8.1468136    683.75256  0.016616909  0.016070688            3 
 3430000    0.7091002   -8.1138872    685.23908   0.01664818   0.01606535            6 
 3431000   0.71177699   -8.1425956    684.48535  0.016625021  0.016060009            2 
 3432000   0.70222848   -8.1058443    685.42827  0.016643072  0.016054673            1 
 3433000   0.69805284   -8.1413231    684.62498  0.016618725  0.016049335            1 
 3434000   0.70372533    -8.118675    685.71842   0.01664042  0.016043999            2 
 3435000    0.6878046    -8.136504    683.99929  0.016593869  0.016038675            3 
 3436000   0.71879051   -8.1392232    684.41739   0.01659918  0.016033342            2 
 3437000   0.70102366   -8.1511005    686.33136  0.016640756  0.016028008            1 
 3438000   0.68885878   -8.1443474    685.07117  0.016605371  0.016022671            1 
 3439000   0.70656486   -8.1461049    684.76347  0.016593086  0.016017351            2 
 3440000   0.70407053   -8.1479785    685.33512   0.01660211   0.01601202            2 
 3441000   0.69202201   -8.1480873     684.2784  0.016571694   0.01600669            2 
 3442000   0.70665473   -8.1528485     686.2406  0.016614386  0.016001362            1 
 3443000   0.68834417   -8.1256761    683.98001  0.016554846  0.015996033            3 
 3444000   0.72703502   -8.1670627    684.94476  0.016573383  0.015990698            2 
 3445000    0.7124201   -8.1254396    683.67545  0.016537868  0.015985364            5 
 3446000   0.71442618   -8.1295478    684.25905  0.016547181  0.015980053            3 
 3447000   0.71389294   -8.1553515    685.56545  0.016573964  0.015974738            2 
 3448000   0.69383185     -8.13749      684.561  0.016544881  0.015969428            2 
 3449000   0.69956305   -8.1589244    685.31135  0.016558214  0.015964108            2 
 3450000   0.68951356    -8.116545    686.54316  0.016583168  0.015958788            1 
 3451000   0.70076267    -8.158118    686.02982  0.016565967  0.015953468            1 
 3452000   0.69285678   -8.1445284    684.03518  0.016513016   0.01594814            2 
 3453000   0.70192934   -8.1657846    683.77546  0.016501966  0.015942819            6 
 3454000   0.69289651   -8.1476175    684.24185  0.016508441  0.015937491            1 
 3455000    0.6955514   -8.1677383    684.16046    0.0165017  0.015932176            4 
 3456000   0.70886691   -8.1684287    684.64011   0.01650849  0.015926841            4 
 3457000   0.69458918    -8.170865    684.55909  0.016501762  0.015921501            2 
 3458000   0.69965538   -8.1836179    684.37258  0.016492495  0.015916171            3 
 3459000    0.6970125   -8.1447608    684.09449  0.016481027  0.015910846            2 
 3460000   0.70254401   -8.1694465    684.29169  0.016481014  0.015905519            3 
 3461000   0.69992106   -8.1386197    684.58552  0.016483327  0.015900187            1 
 3462000   0.71001844   -8.1433476    684.78451  0.016483355  0.015894867            1 
 3463000   0.70002917   -8.1601885    684.58592  0.016473817  0.015889543            2 
 3464000   0.70447621   -8.1629768    683.41719  0.016440945  0.015884213            4 
 3465000   0.70117103   -8.1627607     683.2716  0.016432698  0.015878884            2 
 3466000    0.7115075    -8.169304    684.60307   0.01645997  0.015873571            2 
 3467000   0.68625932   -8.1216307    683.78066  0.016435455  0.015868266            3 
 3468000   0.70230368   -8.1250961    685.22584  0.016465442  0.015862975            2 
 3469000   0.69987778   -8.1667115    684.92399  0.016453445   0.01585768            5 
 3470000   0.69567735   -8.1479668    685.85924  0.016471163  0.015852371            1 
 3471000   0.70138022   -8.1451281    684.03671  0.016422662  0.015847079            2 
 3472000   0.69280733   -8.1368363    685.61433  0.016455797  0.015841781            2 
 3473000    0.6912868   -8.1404562    684.96843  0.016435561  0.015836491            1 
 3474000   0.70731792    -8.184051    684.97137    0.0164309  0.015831193            2 
 3475000   0.68563727     -8.12214    685.29705  0.016433982  0.015825908            1 
 3476000   0.69045009   -8.1483025    684.51844  0.016410588  0.015820643            3 
 3477000   0.70037449   -8.1197809    685.30717  0.016424772  0.015815372            2 
 3478000   0.70722806   -8.1521185    686.93091  0.016458954  0.015810108            2 
 3479000   0.67760158   -8.1489004    685.20867   0.01641297  0.015804848            1 
 3480000    0.6924761   -8.1869108    684.21241  0.016384397  0.015799583            2 
 3481000   0.68430307   -8.1555424    685.48901  0.016410251  0.015794325            2 
 3482000   0.68713077   -8.1465887    685.80199  0.016413029  0.015789064            2 
 3483000   0.71027452   -8.1425952     684.9354  0.016387583   0.01578382            3 
 3484000   0.69126375   -8.1453603    685.31852  0.016392043   0.01577855            2 
 3485000   0.68337067   -8.1672047     685.7022  0.016396514  0.015773285            2 
 3486000   0.68635978   -8.1233258    686.28822  0.016405819  0.015768032            2 
 3487000    0.6852237   -8.1626151    684.21694  0.016351614  0.015762768            4 
 3488000   0.69665819   -8.1394866    685.08647    0.0163677  0.015757499            4 
 3489000   0.69798175   -8.1376499    685.11013  0.016363574  0.015752259            3 
 3490000   0.70246596   -8.1476274    685.71602  0.016373353   0.01574703            2 
 3491000   0.67989468   -8.1707886    685.57579  0.016365315  0.015741782            3 
 3492000   0.70524582    -8.154226    685.07409  0.016348656   0.01573653            5 
 3493000   0.69857762   -8.1585378    684.97226  0.016341546  0.015731285            1 
 3494000    0.7070716   -8.1541072    686.16341  0.016365279  0.015726041            5 
 3495000   0.68770793   -8.1318673    684.21214  0.016314071  0.015720793            3 
 3496000    0.6847728   -8.1365943    686.21785  0.016357214  0.015715555            3 
 3497000   0.69900246   -8.1543482    685.72092  0.016340695  0.015710308            3 
 3498000   0.69559523   -8.1660644    684.94097  0.016317443  0.015705063            2 
 3499000   0.69716312   -8.1623788    686.70448  0.016354779  0.015699818            4 
 3500000   0.68901106   -8.1382874    685.33269  0.016317445  0.015694579            5 
 3501000     0.682758   -8.1631417     684.3494  0.016289379  0.015689341            3 
 3502000   0.69189223   -8.1539484    684.97123  0.016299525  0.015684109            3 
 3503000    0.6866113    -8.146428    684.97024  0.016294848  0.015678864            2 
 3504000   0.68178222   -8.1520627    685.79003  0.016309694  0.015673633            2 
 3505000   0.69338985   -8.1518625    686.28028  0.016316697  0.015668398            3 
 3506000    0.6881987   -8.1309176     684.5528  0.016270983  0.015663159            1 
 3507000   0.69372954    -8.156368    684.89877  0.016274564  0.015657931            3 
 3508000   0.68907533    -8.161547    686.06964   0.01629774  0.015652706            2 
 3509000   0.69786863   -8.1650413    685.51367  0.016279891   0.01564749            2 
 3510000   0.69893943   -8.1772705    685.80587  0.016282191   0.01564227            1 
 3511000   0.68624502   -8.1431869    686.04324  0.016283187  0.015637049            1 
 3512000   0.71048145   -8.1486963     684.8578  0.016250422   0.01563183            1 
 3513000   0.70189917   -8.1539294    685.25781  0.016255285  0.015626615            2 
 3514000   0.69411913   -8.1592504    684.16529  0.016224751  0.015621395            4 
 3515000   0.68943884    -8.167923     683.4065  0.016202145  0.015616151            1 
 3516000   0.68844861   -8.1687944    685.10409  0.016237772  0.015610902            2 
 3517000   0.69177338   -8.1791756    685.98531  0.016254035  0.015605659            3 
 3518000   0.69866984   -8.1570046    684.43261  0.016212635   0.01560041            2 
 3519000   0.68001915   -8.1706759    684.84041  0.016217685  0.015595181            2 
 3520000   0.68468956   -8.1737472    684.47927  0.016204528  0.015589943            2 
 3521000   0.68985559   -8.1889641    684.62725  0.016203428  0.015584714            4 
 3522000   0.68398025   -8.1461256    685.61087  0.016222101  0.015579491            2 
 3523000    0.6832731   -8.1560558    685.79179  0.016221776  0.015574287            2 
 3524000   0.69703715   -8.1860021     686.5645  0.016235445  0.015569068            4 
 3525000   0.67897957   -8.1432226    685.83642  0.016213627  0.015563847            2 
 3526000   0.67913152   -8.1581349    685.72513  0.016206398  0.015558633            3 
 3527000   0.68883645   -8.1690737    684.90441  0.016182412  0.015553412            2 
 3528000   0.68830579   -8.1657169    684.99205  0.016179895  0.015548198            3 
 3529000   0.69625392   -8.1334424    685.97854  0.016198605  0.015543002            3 
 3530000   0.69110471   -8.1642921    685.69387  0.016187296  0.015537801            2 
 3531000    0.6792263   -8.1669317    686.59884   0.01620407  0.015532602            6 
 3532000   0.68136808   -8.1679106    686.00541  0.016185481  0.015527408            4 
 3533000   0.68118243   -8.1731456    685.01766  0.016157601  0.015522212            3 
 3534000    0.6826249   -8.1808227    684.61151  0.016143452  0.015517017            3 
 3535000   0.68426558    -8.157109    685.53849  0.016160738  0.015511806            2 
 3536000   0.67605959   -8.2025227    685.58366  0.016157232  0.015506607            3 
 3537000   0.67222407   -8.1659719     684.7161  0.016132224  0.015501398            2 
 3538000   0.67998835   -8.1814623     685.6049  0.016148599  0.015496207            2 
 3539000   0.68210036   -8.1845025     686.3658  0.016161952  0.015491006            5 
 3540000   0.67303163   -8.1800235    686.32285  0.016156376  0.015485827            3 
 3541000   0.69052758   -8.1545162    684.23065  0.016102576  0.015480656            2 
 3542000   0.69167505   -8.1632195    684.97801  0.016115613  0.015475476            3 
 3543000   0.69549477   -8.1548903    685.02454  0.016112159  0.015470301            1 
 3544000   0.70010473   -8.1440817    686.71682  0.016147405  0.015465132            3 
 3545000   0.67461367   -8.1409192    685.86377  0.016122797  0.015459985            3 
 3546000   0.69302255   -8.1565298    687.05515  0.016146248  0.015454821            2 
 3547000   0.67291938   -8.1583886     685.7538  0.016111122   0.01544967            3 
 3548000   0.66950587   -8.1836203    686.82751    0.0161318  0.015444514            2 
 3549000   0.68419623   -8.1877999    686.00171  0.016107864  0.015439356            2 
 3550000   0.67969517   -8.1488629    685.45693  0.016090538  0.015434187            2 
 3551000    0.6863378   -8.1686854    685.13655  0.016078488  0.015429013            4 
 3552000   0.68303899   -8.1595555    685.03201  0.016071509  0.015423844            3 
 3553000   0.68313177    -8.170032    685.27998  0.016072802   0.01541868            2 
 3554000   0.69238355    -8.167173    684.22427  0.016043525  0.015413518            1 
 3555000   0.68509327   -8.1876383    684.57221  0.016047169  0.015408368            2 
 3556000   0.69010557   -8.1548641    685.85085   0.01607262  0.015403221            2 
 3557000   0.66895544   -8.1731171    685.62138  0.016062726  0.015398077            2 
 3558000   0.68265974   -8.1694279    683.90964   0.01601812   0.01539292            2 
 3559000    0.6889745   -8.1652341    685.57308  0.016052568  0.015387759            5 
 3560000   0.67464204   -8.1553468    686.12208   0.01606091  0.015382592            4 
 3561000   0.68530751    -8.189131    685.05934   0.01603153  0.015377418            2 
 3562000    0.6797979   -8.1796359    684.58939  0.016016035  0.015372247            4 
 3563000   0.66531091   -8.1837262    685.41767  0.016030912  0.015367086            4 
 3564000     0.673819   -8.1646201    685.26382  0.016022817  0.015361926            1 
 3565000   0.68885139   -8.1839663    684.85881  0.016008855  0.015356765            4 
 3566000   0.68506423   -8.1950302    684.77604  0.016002431  0.015351595            4 
 3567000   0.68024368   -8.1805788    683.43243  0.015966555  0.015346427            5 
 3568000   0.67002893   -8.1734133     684.1529  0.015978907   0.01534126            2 
 3569000   0.68280018   -8.1842106    685.35868  0.016002584  0.015336103            5 
 3570000   0.66342921   -8.1992306    684.99534   0.01598962  0.015330941            6 
 3571000   0.66573313   -8.1880612    684.80514  0.015980704  0.015325773            6 
 3572000   0.69532994   -8.1960127    686.52038  0.016016246  0.015320629            2 
 3573000   0.67626015   -8.1810235    686.15766  0.016003304  0.015315482            1 
 3574000   0.67070605   -8.1774683    685.49707  0.015983424  0.015310347            2 
 3575000   0.68876462   -8.1974418    685.82403  0.015986574  0.015305203            1 
 3576000   0.67098017   -8.1991432    685.44727  0.015973324  0.015300068            3 
 3577000   0.68691868   -8.2003365    685.28031  0.015964969  0.015294922            2 
 3578000   0.67487826   -8.1712732     685.9576  0.015976281  0.015289789            2 
 3579000   0.69349111   -8.1926082    685.39324  0.015958676  0.015284641            2 
 3580000   0.67508357   -8.1887192    685.15335  0.015948635  0.015279505            3 
 3581000   0.68885821   -8.1812446    684.58553  0.015930967  0.015274357            2 
 3582000   0.68051276   -8.1954135    686.67578  0.015975149  0.015269212            2 
 3583000   0.66674446   -8.2062637    684.72092  0.015925224  0.015264058            4 
 3584000    0.6952788   -8.1934983    685.14958  0.015930747  0.015258926            2 
 3585000    0.6674805   -8.2084579    685.42815  0.015932779  0.015253791            3 
 3586000   0.68939061   -8.2245307    684.92022  0.015916532  0.015248658            2 
 3587000   0.66937495   -8.2145138    685.72198  0.015930722  0.015243517            3 
 3588000   0.66154871   -8.2011667    685.63987  0.015924375  0.015238384            2 
 3589000   0.66833095   -8.2057587    686.13713  0.015931483  0.015233257            2 
 3590000    0.6738297   -8.1805328    685.71796  0.015917316  0.015228139            5 
 3591000   0.67461078   -8.1875074    684.29361   0.01587983  0.015223011            2 
 3592000    0.6833881   -8.2036721    686.32148  0.015922455  0.015217879            1 
 3593000   0.67527699   -8.2306175    683.79986  0.015859538  0.015212734            4 
 3594000   0.67893244   -8.2256735    685.64942  0.015898011  0.015207591            2 
 3595000   0.68016707   -8.2181394    683.95903  0.015854405  0.015202445            4 
 3596000   0.66653645   -8.2048632    684.60751  0.015865024  0.015197306            4 
 3597000    0.6694525    -8.213922    686.30854  0.015900022   0.01519219            7 
 3598000   0.68256999   -8.2035177    685.84167  0.015884789  0.015187082            2 
 3599000   0.66882388   -8.2397836    684.45156  0.015848188  0.015181951            3 
 3600000   0.67442939   -8.1971588    685.31844  0.015863853  0.015176832            5 
 3601000   0.67299781   -8.1939928    685.57183  0.015865311  0.015171711            2 
 3602000    0.6864864   -8.2261869    685.47459  0.015858657  0.015166595            4 
 3603000   0.68607374   -8.2063659    685.06219  0.015844717  0.015161487            1 
 3604000   0.68374689   -8.1997079    684.03427  0.015816553  0.015156365            5 
 3605000    0.6779672    -8.213105    684.72684  0.015828175  0.015151248            1 
 3606000   0.68610718   -8.2047439    685.06792  0.015831668  0.015146134            1 
 3607000   0.66728041   -8.2184301    683.13377  0.015782593  0.015141016            2 
 3608000   0.66161852   -8.2146963    685.15027  0.015824794  0.015135897            2 
 3609000   0.67842366   -8.2129371    683.12696   0.01577369  0.015130772            2 
 3610000   0.67274577   -8.2266039    683.84622  0.015785924  0.015125642            3 
 3611000   0.67819131   -8.2218379    685.17205  0.015812149  0.015120522            4 
 3612000   0.66873997    -8.235932     685.4797  0.015814869   0.01511541            2 
 3613000   0.66618099   -8.2293933    684.72211  0.015793018    0.0151103            3 
 3614000   0.67416212   -8.2356819    684.92091  0.015793233  0.015105183            3 
 3615000   0.68634562   -8.2048256    684.43978  0.015777773  0.015100062            2 
 3616000    0.6834331   -8.1948177    685.48601   0.01579752  0.015094946            3 
 3617000   0.65758257   -8.1884204    684.20483  0.015763635  0.015089838            3 
 3618000   0.66362155   -8.2074699    684.08741  0.015756574  0.015084736            3 
 3619000    0.6834498    -8.212196     684.6518  0.015765216  0.015079628            3 
 3620000   0.67149696    -8.186172    685.35062  0.015776948  0.015074529            3 
 3621000    0.6765018   -8.2132419    684.53188  0.015753749  0.015069427            4 
 3622000   0.67038373   -8.2237894    683.03138  0.015714876  0.015064332            3 
 3623000   0.67571061   -8.2179261     682.8659  0.015706732  0.015059232            3 
 3624000   0.67640209   -8.2094376    683.33903  0.015713278  0.015054142            5 
 3625000   0.65718895   -8.2083564    684.64601  0.015738989  0.015049045            3 
 3626000   0.67397391   -8.2259568    684.08175   0.01572168  0.015043955            4 
 3627000   0.67093024   -8.2143774    684.61067  0.015729498  0.015038854            2 
 3628000   0.67601056   -8.2340239    684.45428   0.01572157   0.01503376            1 
 3629000   0.68531632   -8.2099244    683.07656  0.015685601  0.015028677            1 
 3630000    0.6686666   -8.2207448    683.79211  0.015697707  0.015023582            2 
 3631000   0.66284646   -8.2179088    683.47326  0.015686066  0.015018479            2 
 3632000   0.66218614   -8.2358678    684.35678  0.015702019  0.015013372            1 
 3633000   0.66718017   -8.2044192    684.43656  0.015699527  0.015008271            2 
 3634000   0.66850245   -8.2194506    683.00085  0.015662283  0.015003178            3 
 3635000   0.68544907   -8.2230558    683.59046  0.015671491  0.014998071            1 
 3636000   0.67014014   -8.2399551    684.84314  0.015695891  0.014992973            4 
 3637000    0.6687931   -8.2346076    683.64584  0.015664143  0.014987872            1 
 3638000   0.67151496   -8.2180974    682.46718  0.015632838  0.014982768            2 
 3639000   0.66434626   -8.2127631    683.47155  0.015651542  0.014977672            2 
 3640000   0.66984442   -8.2316574    683.35113  0.015644486  0.014972574            2 
 3641000   0.67334921   -8.2325313    682.55333  0.015621929  0.014967484            2 
 3642000   0.67210917   -8.2287825     683.8141  0.015646488  0.014962386            2 
 3643000   0.66693283   -8.2542895    684.34639  0.015654369  0.014957286            6 
 3644000   0.67540926   -8.2162398    682.41106  0.015605815  0.014952185            2 
 3645000   0.68028105    -8.237495    683.57706  0.015628191  0.014947092            5 
 3646000   0.68004495   -8.2562777    683.31259  0.015617859  0.014941992            2 
 3647000   0.68137039   -8.2295792    684.59322  0.015642839  0.014936898            5 
 3648000   0.66560197   -8.2259025    683.64574  0.015616907  0.014931811            3 
 3649000    0.6698289   -8.2225286    683.61076  0.015611829  0.014926733            1 
 3650000   0.65641674   -8.2278038    684.23413  0.015621784  0.014921658            3 
 3651000   0.67260182    -8.237179    684.51638  0.015623947   0.01491659            1 
 3652000   0.68612689   -8.2385654    684.39343  0.015616864  0.014911514            3 
 3653000   0.66028527   -8.2579498    685.41178  0.015635819  0.014906449            2 
 3654000   0.66010403    -8.243226    684.92502  0.015620439  0.014901383            2 
 3655000   0.67303557   -8.2542228    686.29798  0.015647469  0.014896308            1 
 3656000   0.66530415   -8.2421095    683.88823  0.015588262  0.014891234            6 
 3657000   0.66595636   -8.2268831    684.21037   0.01559134  0.014886174            3 
 3658000   0.65644891   -8.2483157    683.12895  0.015562442   0.01488111            2 
 3659000   0.66830381   -8.2396967    683.28505  0.015561744  0.014876039            3 
 3660000   0.67237085   -8.2411495    684.85287  0.015593189   0.01487097            2 
 3661000   0.66054128   -8.2466791    683.85088  0.015566122  0.014865917            4 
 3662000   0.68225302    -8.227692     683.9207   0.01556346  0.014860862            3 
 3663000   0.66115362   -8.2339072    681.80792  0.015511146  0.014855811            3 
 3664000   0.67102142   -8.2287566    683.47866  0.015544911  0.014850761            2 
 3665000   0.66836972   -8.2614387    683.61603  0.015543793  0.014845707            3 
 3666000   0.66009453   -8.2674404    684.17713  0.015552308  0.014840652            7 
 3667000   0.66795631   -8.2637459    683.52015  0.015533137  0.014835593            1 
 3668000   0.66280031   -8.2348828    683.14334  0.015520341  0.014830544            3 
 3669000    0.6617391   -8.2551982    683.76103  0.015530141  0.014825495            2 
 3670000   0.66091107   -8.2362712    683.27661  0.015514909  0.014820451            1 
 3671000   0.66835726   -8.2505625     682.7757  0.015499312  0.014815408            2 
 3672000   0.66452166   -8.2696625    682.20784  0.015482204  0.014810355            1 
 3673000   0.67511907    -8.247671    683.85862  0.015515442  0.014805313            2 
 3674000   0.66290452   -8.2553932    683.37018   0.01550014  0.014800281            2 
 3675000   0.68214511   -8.2380714    685.31192  0.015539953  0.014795253            2 
 3676000   0.66106338   -8.2208739    684.31836  0.015513202   0.01479022            2 
 3677000   0.66490076   -8.2530055    684.45245  0.015512022  0.014785188            3 
 3678000   0.66123692   -8.2329091    684.63901  0.015512031  0.014780149            2 
 3679000   0.66492354   -8.2540911    684.29521  0.015500027   0.01477512            3 
 3680000   0.66743211   -8.2469791    683.53036  0.015478496  0.014770094            2 
 3681000   0.66572015   -8.2449714    685.07163  0.015509183  0.014765071            2 
 3682000   0.66172136   -8.2629256    684.51408  0.015492352  0.014760046            2 
 3683000    0.6646737    -8.265788    683.53563  0.015466007  0.014755011            4 
 3684000    0.6719057   -8.2546909    684.47904  0.015483149  0.014749981            2 
 3685000   0.67031791   -8.2422574    683.86035  0.015464956  0.014744954            6 
 3686000   0.66503405   -8.2340097    683.93914  0.015462542  0.014739925            2 
 3687000   0.65508229   -8.2553593    683.35729  0.015445197   0.01473491            2 
 3688000   0.66659574   -8.2572087    683.43354  0.015442732  0.014729892            2 
 3689000   0.66019801   -8.2308904    684.21732  0.015456251  0.014724869            3 
 3690000   0.67748588   -8.2303835    683.09566  0.015426731  0.014719856            5 
 3691000   0.65418484   -8.2624613    683.34726  0.015428232  0.014714833            2 
 3692000   0.67516649   -8.2373129    684.21838  0.015443716  0.014709814            2 
 3693000    0.6567892   -8.2418461    683.67564  0.015427287  0.014704798            3 
 3694000   0.66501201   -8.2681795     683.4157  0.015417246  0.014699784            4 
 3695000   0.66005782   -8.2529031    684.08786  0.015428233  0.014694761            2 
 3696000    0.6667514   -8.2433915     683.6434  0.015414038  0.014689759            2 
 3697000   0.64988115   -8.2606321    682.97728  0.015394854  0.014684758            1 
 3698000   0.65673502   -8.2581229    683.43604  0.015401028  0.014679744            4 
 3699000   0.65784462   -8.2381781    683.32961  0.015394467  0.014674744            2 
 3700000   0.66020389   -8.2515784    683.97033  0.015404737  0.014669746            2 
 3701000   0.66142435   -8.2652188    684.11601  0.015403855  0.014664748            3 
 3702000   0.66788431   -8.2343857    684.26807  0.015403117   0.01465975            3 
 3703000   0.66343026   -8.2649368    683.48188  0.015381265  0.014654754            3 
 3704000    0.6713345   -8.2678451    685.32256  0.015418524  0.014649765            4 
 3705000    0.6612544   -8.2124677    684.03672  0.015385441  0.014644778            4 
 3706000   0.66012304   -8.2327011     683.5901  0.015371247    0.0146398            3 
 3707000     0.663105   -8.2391689    685.16516  0.015402508  0.014634816            1 
 3708000   0.65534492   -8.2509864    684.57781  0.015385154  0.014629838            2 
 3709000   0.67030018    -8.258892     683.6815  0.015360868  0.014624866            1 
 3710000   0.66561995   -8.2680253     684.5028  0.015375175  0.014619887            3 
 3711000   0.67078268   -8.2409521    685.73287  0.015398654   0.01461491            1 
 3712000   0.65789401   -8.2331067     683.8335  0.015351865  0.014609932            2 
 3713000   0.65097125   -8.2359968    684.63094  0.015365628  0.014604961            2 
 3714000   0.65157843   -8.2347119    684.25281  0.015353007  0.014600002            2 
 3715000   0.65413757   -8.2563653    685.31007   0.01537259  0.014595039            1 
 3716000   0.66286958   -8.2289111    684.07566  0.015340771  0.014590075            8 
 3717000   0.65108861   -8.2575109    683.08275  0.015314383  0.014585107            2 
 3718000   0.65817096   -8.2279323    683.83107  0.015327037  0.014580148            4 
 3719000   0.65094894   -8.2308555    684.95403  0.015348078  0.014575191            3 
 3720000   0.66435189   -8.2333831    683.50209  0.015311427  0.014570246            4 
 3721000   0.66372001   -8.2436379    684.07469  0.015320135  0.014565302            2 
 3722000   0.65292361   -8.2210665    683.21756  0.015296829  0.014560362            4 
 3723000   0.65375778   -8.2685409    684.28374  0.015316585  0.014555419            4 
 3724000   0.65938451   -8.2368493    684.79307  0.015323869  0.014550473            2 
 3725000   0.65149034   -8.2509594    685.96111  0.015345886  0.014545526            3 
 3726000   0.64813139    -8.250176    684.08144  0.015299728  0.014540588            6 
 3727000   0.65126995   -8.2327369     683.8184  0.015289741  0.014535652            1 
 3728000    0.6516817   -8.2301927    684.59956  0.015303102  0.014530724            4 
 3729000   0.65068136    -8.243223    683.82129  0.015281606  0.014525801            4 
 3730000   0.64999739   -8.2288971    684.72834  0.015297773  0.014520887            3 
 3731000   0.64693922   -8.2546193    684.51207  0.015288843  0.014515972            3 
 3732000   0.65289988    -8.255675     684.2854  0.015279685  0.014511054            4 
 3733000   0.64953061   -8.2467103    684.46955  0.015279702  0.014506135            6 
 3734000   0.64146846   -8.2537506    685.24893  0.015293004  0.014501226            3 
 3735000    0.6637558   -8.2457506    684.05104  0.015262183   0.01449633            5 
 3736000   0.64904755   -8.2571351    685.20746  0.015283892  0.014491425            1 
 3737000   0.64686557   -8.2490861    685.47738  0.015285822  0.014486512            2 
 3738000   0.66954175   -8.2559065    685.01117  0.015271339   0.01448159            3 
 3739000   0.64534292   -8.2222308    684.11898   0.01524737  0.014476676            3 
 3740000   0.65242873   -8.2476526    685.16606  0.015266624   0.01447178            1 
 3741000   0.66215131   -8.2323795    686.97069  0.015302742  0.014466885            3 
 3742000   0.66063153   -8.2508558    685.60924  0.015268333  0.014461992            2 
 3743000   0.64079726   -8.2278505    685.50799     0.015262  0.014457097            3 
 3744000   0.64232926   -8.2448836    685.68035   0.01526176  0.014452203            2 
 3745000   0.66412283   -8.2460418     684.4205  0.015229651  0.014447314            1 
 3746000   0.64600737   -8.2500435    685.42712  0.015247978  0.014442422            1 
 3747000   0.65856972   -8.2625596    685.06991  0.015235964  0.014437523            2 
 3748000   0.64431798   -8.2695776    683.43133  0.015195467   0.01443263            3 
 3749000   0.65870062   -8.2472248    685.87406  0.015245711  0.014427741            2 
 3750000   0.63495638   -8.2684893    684.30958   0.01520688  0.014422846            2 
 3751000   0.65450445   -8.2518246    685.84894  0.015237024  0.014417953            2 
 3752000   0.64028159   -8.2607191     683.9763  0.015191371  0.014413067            2 
 3753000   0.63722382    -8.266064    684.82709  0.015206215  0.014408183            3 
 3754000   0.65662023   -8.2806934     683.1708  0.015165397  0.014403295            4 
 3755000   0.65405052   -8.2503474    684.64072  0.015193979  0.014398408            4 
 3756000   0.65651866   -8.2584027    686.65852  0.015234703  0.014393534            3 
 3757000   0.66271317   -8.2491858    684.73127    0.0151879  0.014388657            6 
 3758000   0.64762932   -8.2509143    683.84974   0.01516431  0.014383781            2 
 3759000   0.65514003   -8.2558837    683.94428  0.015162372  0.014378913            3 
 3760000   0.65682578   -8.2642542     684.4061  0.015168575  0.014374042            3 
 3761000   0.64811328   -8.2420684    684.33602  0.015162989  0.014369171            2 
 3762000    0.6418508   -8.2654519    685.08281  0.015175501  0.014364302            3 
 3763000    0.6527547   -8.2681593    683.53074  0.015137097  0.014359418            2 
 3764000   0.63630358   -8.2737775    684.90156  0.015163425   0.01435453            2 
 3765000   0.65628856   -8.2679341    684.44963  0.015149394  0.014349644            2 
 3766000   0.65757091   -8.2773124    682.60711  0.015104601  0.014344762            3 
 3767000   0.63284038   -8.2503421    683.92006  0.015129636  0.014339873            3 
 3768000   0.63450745   -8.2679862    684.38598  0.015135925  0.014334994            3 
 3769000   0.64143833   -8.2633546    682.28896  0.015085543  0.014330123            7 
 3770000   0.65250272   -8.2622023    683.92374  0.015117678  0.014325254            3 
 3771000   0.64550347   -8.2943579    683.88623   0.01511284   0.01432038            3 
 3772000   0.64152731   -8.2353775    683.96413  0.015110554  0.014315507            1 
 3773000    0.6551397   -8.2747829    684.40657  0.015116322  0.014310633            2 
 3774000   0.66419151   -8.2873027    683.59802  0.015094462  0.014305762            3 
 3775000    0.6517154   -8.2522293    686.01424  0.015143802  0.014300887            2 
 3776000   0.64778177   -8.2683367    684.05534   0.01509656  0.014296017            4 
 3777000   0.63394541   -8.2740475    683.14867  0.015072559  0.014291146            1 
 3778000   0.64242343   -8.2602944    683.42485  0.015074661  0.014286276            5 
 3779000   0.64350244   -8.2757274    683.81828  0.015079348  0.014281417            2 
 3780000   0.65379636   -8.2725551    684.18601  0.015083466  0.014276568            2 
 3781000   0.65889652   -8.2783756    683.46658   0.01506362  0.014271722            3 
 3782000    0.6552222   -8.2817694    683.97659  0.015070875   0.01426686            5 
 3783000   0.66347509   -8.2763012    685.46025  0.015099574     0.014262            2 
 3784000    0.6550084   -8.2768831    683.25028  0.015046914  0.014257157            5 
 3785000   0.65932758   -8.2620385    685.01477  0.015081787  0.014252308            6 
 3786000   0.64339374    -8.279597    684.45451  0.015065472  0.014247455            2 
 3787000    0.6384742   -8.2655751    684.25806  0.015057171  0.014242619            2 
 3788000   0.63963761   -8.2900581    684.32918   0.01505476  0.014237781            7 
 3789000   0.63987419   -8.2667116    684.39031  0.015052131  0.014232944            7 
 3790000   0.63470279   -8.2723571    684.53508  0.015051343  0.014228102            7 
 3791000    0.6404173   -8.2759052     684.4201  0.015044845  0.014223265            2 
 3792000   0.64090386   -8.2667839    682.44542  0.014997482  0.014218415            4 
 3793000   0.65298003   -8.2740622    684.62426  0.015041398  0.014213575            2 
 3794000   0.62292335   -8.2748064    683.46128  0.015011889  0.014208724            2 
 3795000   0.64611047   -8.2864735    683.02705  0.014998398  0.014203876            2 
 3796000   0.65484119   -8.2551202    685.77732  0.015054824  0.014199039            4 
 3797000   0.64680236   -8.2705312     684.3638  0.015019836  0.014194201            3 
 3798000   0.65633422   -8.2704773    684.03387  0.015008642   0.01418936            4 
 3799000   0.64587606   -8.2807469    682.19993  0.014964463  0.014184527            2 
 3800000   0.64272677   -8.2767722    683.27115  0.014984017  0.014179688            2 
 3801000   0.63843616    -8.293139    683.13798  0.014977155  0.014174852            1 
 3802000   0.65977112   -8.2922471    684.49505   0.01500296  0.014170015            1 
 3803000   0.63868758   -8.2964645    683.76531  0.014983025  0.014165188            2 
 3804000   0.64652566   -8.2851897    683.32996  0.014969549  0.014160356            2 
 3805000   0.65979877   -8.2964535    683.66358  0.014972921  0.014155527            6 
 3806000   0.64279102   -8.2878732      684.954  0.014997241    0.0141507            2 
 3807000   0.64697011    -8.272844    683.79963  0.014968033  0.014145881            3 
 3808000   0.65071065   -8.2874452    684.07436  0.014970115  0.014141056            2 
 3809000    0.6418686   -8.2820321    684.40914  0.014973509  0.014136239            1 
 3810000   0.64173293   -8.2820594    684.04746  0.014961668  0.014131422            3 
 3811000   0.63583687   -8.2777515    684.36671  0.014964723  0.014126621            3 
 3812000   0.64871011   -8.2756097    683.44818  0.014940717  0.014121811            2 
 3813000   0.64929985   -8.2920798    682.00012  0.014905152  0.014116999            2 
 3814000   0.64062905   -8.2779624    683.21526  0.014927794  0.014112197            3 
 3815000    0.6391308   -8.3001945    684.08315  0.014942839  0.014107394            6 
 3816000   0.64256137    -8.279783    683.83601  0.014933526  0.014102594            3 
 3817000    0.6533838   -8.2951438     684.1567  0.014936615   0.01409779            2 
 3818000   0.65182706   -8.3067886    685.58155  0.014963802  0.014092992            4 
 3819000   0.63800296   -8.3197019    684.64793  0.014939511  0.014088192            2 
 3820000   0.65127419   -8.3062508    684.59443  0.014934433  0.014083397            4 
 3821000    0.6443595    -8.295177    684.26131   0.01492326  0.014078616            5 
 3822000   0.63903619   -8.2853141    685.06202  0.014936814  0.014073829            2 
 3823000   0.65145332   -8.2921283    684.90108  0.014929398   0.01406904            2 
 3824000   0.64810976   -8.2818989    683.86329  0.014902879   0.01406426            1 
 3825000   0.62696856    -8.290985    683.86258  0.014898967  0.014059467            1 
 3826000   0.63096454   -8.3027068    684.04071  0.014898952  0.014054679            2 
 3827000   0.64374522   -8.2692331    685.30717  0.014922637  0.014049902            2 
 3828000   0.63911451   -8.2771751    682.77256  0.014863561  0.014045126            3 
 3829000   0.63722207   -8.2961723    683.25218  0.014870118  0.014040341            5 
 3830000    0.6316379   -8.2798018    684.94293  0.014903023  0.014035561            2 
 3831000   0.63680076   -8.2991798    685.38749  0.014908803  0.014030784            6 
 3832000   0.63279708   -8.2943558    685.11534  0.014898994  0.014026009            6 
 3833000   0.64958813   -8.2899038    685.03995  0.014893468  0.014021232            3 
 3834000   0.64251214   -8.2825668     684.0416  0.014867884  0.014016458            3 
 3835000    0.6302054   -8.3037283    683.31602   0.01484824  0.014011678            2 
 3836000   0.63872847   -8.3005378    683.99203  0.014859055  0.014006903            3 
 3837000   0.63655637   -8.3285359    684.36262  0.014863231  0.014002126            5 
 3838000   0.63081983   -8.3088666    683.42765  0.014839058  0.013997338            5 
 3839000   0.65173938   -8.3121882    682.96001  0.014825041  0.013992561            2 
 3840000    0.6255873   -8.3016142     683.5466  0.014833911  0.013987784            2 
 3841000   0.62262232   -8.2981691    684.56422  0.014852127  0.013983014            5 
 3842000   0.64867121   -8.3045928    684.06631  0.014837461  0.013978245            2 
 3843000   0.65140384   -8.3142628    683.82412  0.014828348  0.013973475            1 
 3844000    0.6360329   -8.3014615    684.16754  0.014831936  0.013968723            4 
 3845000   0.63175506   -8.3005899    684.52235  0.014835768  0.013963959            3 
 3846000    0.6279429   -8.3329915    684.33923  0.014827943  0.013959201            3 
 3847000   0.62767165   -8.3143264    683.55039  0.014807001  0.013954445            2 
 3848000   0.62614717   -8.3178022    684.91995  0.014832813   0.01394969            2 
 3849000   0.62576324   -8.2986055    684.84949  0.014827433  0.013944935            2 
 3850000   0.61719917   -8.3212569      683.105  0.014785823  0.013940174            4 
 3851000   0.64436024   -8.2998829    684.17339  0.014805102  0.013935421            5 
 3852000   0.63550497   -8.3142659    683.80062  0.014793194  0.013930679            3 
 3853000   0.63680441    -8.305865     683.9379  0.014792324  0.013925941            1 
 3854000   0.63395268   -8.3075144    683.94556  0.014788652  0.013921199            6 
 3855000   0.63166282   -8.2993541    683.21017  0.014768918  0.013916461            3 
 3856000   0.62858001   -8.3030546    685.36277  0.014811609  0.013911728            2 
 3857000   0.63168605   -8.3132838    683.62965  0.014770323   0.01390699            3 
 3858000   0.62193683   -8.3041965    684.87148  0.014793319  0.013902249            4 
 3859000   0.63234239   -8.3222583    683.95174  0.014769624  0.013897513            2 
 3860000   0.63311757   -8.3075278    683.81314  0.014762805  0.013892777            3 
 3861000   0.62475024   -8.3291407    684.46703  0.014773095  0.013888049            1 
 3862000   0.63480257   -8.3056649    685.06606  0.014782195  0.013883326            2 
 3863000   0.64182609   -8.3031806    683.08347    0.0147356  0.013878599            3 
 3864000   0.63102565    -8.304792    683.42083  0.014739062  0.013873877            1 
 3865000   0.63696218    -8.305104    684.53872  0.014759352  0.013869154            5 
 3866000    0.6373774   -8.3140299     683.6423  0.014736211  0.013864435            2 
 3867000   0.63878885   -8.3091575    685.55618  0.014773644  0.013859718            2 
 3868000   0.64505825   -8.3268289    683.94107  0.014735028  0.013855002            2 
 3869000   0.63467832   -8.3267312    683.70775  0.014726194  0.013850294            2 
 3870000   0.64079046   -8.3142307    683.53647  0.014718701  0.013845578            1 
 3871000   0.63546781   -8.3012124    683.30759  0.014709971   0.01384086            5 
 3872000   0.64262618   -8.3422105    683.86585  0.014718187  0.013836142            3 
 3873000   0.62455886   -8.3334777    683.33927  0.014703057  0.013831421            2 
 3874000   0.61853131   -8.3399323    683.12918  0.014694742  0.013826701            2 
 3875000   0.63072139   -8.3331124    682.56753  0.014678872  0.013821978            1 
 3876000   0.62566533   -8.3412881    683.23172  0.014689364  0.013817258            2 
 3877000    0.6188892   -8.3097223    683.49622  0.014691261  0.013812542            2 
 3878000   0.62624765   -8.3282259    683.83487   0.01469475  0.013807832            3 
 3879000   0.63273279   -8.3078251     684.6232  0.014707897  0.013803129            5 
 3880000   0.62595944   -8.3201846    682.73352  0.014663521  0.013798417            4 
 3881000   0.63666574   -8.3205819    683.26164  0.014671082  0.013793702            3 
 3882000   0.64098553   -8.3421683    683.07895  0.014663381  0.013788994            1 
 3883000   0.62439273   -8.3316248    683.38296  0.014666129  0.013784284            1 
 3884000   0.63414891   -8.3232042    681.51273  0.014622226  0.013779571            4 
 3885000   0.62574362    -8.327822    683.60422  0.014663325  0.013774869            5 
 3886000   0.64666307    -8.325019     682.1516  0.014628401  0.013770165            5 
 3887000    0.6163444   -8.3320193    683.48116  0.014653142   0.01376547            2 
 3888000    0.6378438   -8.3108844    682.99754  0.014639008  0.013760769            3 
 3889000   0.63030521    -8.311045    684.13582  0.014659634  0.013756075            3 
 3890000   0.62558583   -8.3387385    683.06874  0.014633006  0.013751384            3 
 3891000   0.64764216   -8.3353396    684.12069  0.014651775  0.013746693            3 
 3892000   0.63163315   -8.3231675    682.60822  0.014615626     0.013742            3 
 3893000   0.64456983   -8.3279349    683.86665   0.01463881  0.013737308            1 
 3894000    0.6269851   -8.3216491    683.05468  0.014617674  0.013732625            6 
 3895000   0.62217807   -8.2925553    683.66483  0.014626975  0.013727946            3 
 3896000   0.63193483   -8.3159428    684.19337  0.014634526  0.013723262            2 
 3897000   0.60922211   -8.3187479    683.04434    0.0146062  0.013718582            2 
 3898000   0.62697134   -8.3382051    683.12375  0.014604151   0.01371391            3 
 3899000   0.62018735   -8.3225193    684.29068  0.014625346  0.013709232            2 
 3900000   0.62512294   -8.3304367    683.53719  0.014605496  0.013704555            1 
 3901000   0.62070227    -8.302231    683.48821  0.014600705  0.013699876            3 
 3902000   0.62205755   -8.3261564    682.90065  0.014584415  0.013695206            3 
 3903000   0.62187659   -8.3325472    684.71802  0.014619481  0.013690537            5 
 3904000   0.62069208   -8.3234629    683.89371  0.014598141  0.013685861            2 
 3905000   0.62723352   -8.3284687    683.93628  0.014595311  0.013681188            1 
 3906000   0.64544376   -8.3405069    682.03898  0.014551096  0.013676521            2 
 3907000     0.619331   -8.3417841    683.05493  0.014569041  0.013671851            4 
 3908000   0.62643755    -8.344467    682.96074  0.014563305  0.013667181            2 
 3909000   0.62848748   -8.3208908    682.48586  0.014549456  0.013662519            1 
 3910000   0.62331899   -8.3251496    683.81308  0.014574021  0.013657855            2 
 3911000   0.62996765   -8.3158492    684.87014  0.014592818  0.013653195            2 
 3912000   0.62495514   -8.3213665    682.23498  0.014532954   0.01364854            2 
 3913000   0.63151954   -8.3213794    682.89376  0.014543269   0.01364389            2 
 3914000   0.61133425   -8.3256809    681.94997  0.014519459  0.013639234            1 
 3915000   0.61980929   -8.3063792     682.5532  0.014528591  0.013634579            2 
 3916000   0.61937928   -8.3293016     682.5633  0.014525096  0.013629934            4 
 3917000   0.63166382   -8.3198954    683.00376  0.014530758  0.013625287           10 
 3918000   0.62876287   -8.3195929    683.10179  0.014529134  0.013620643            3 
 3919000   0.62345716   -8.3156432    683.89821  0.014542362  0.013616005            2 
 3920000   0.63080647   -8.3310012    683.87494  0.014538158  0.013611364            4 
 3921000    0.6279516   -8.3279245     682.5133  0.014505511  0.013606729            2 
 3922000   0.62816942    -8.328762    684.03446  0.014534134  0.013602091            1 
 3923000   0.63383388   -8.3321351    683.46251  0.014518279  0.013597443            2 
 3924000   0.62847451   -8.3441149    682.71213  0.014498644  0.013592802            3 
 3925000   0.61368433   -8.3334379    683.13446  0.014503916  0.013588165            5 
 3926000   0.61607987   -8.3241458    683.17602  0.014501104  0.013583515            3 
 3927000   0.61550674   -8.3430402    682.55795  0.014484296  0.013578876            3 
 3928000   0.62587762   -8.3180998    681.95881  0.014467897  0.013574238            4 
 3929000   0.62414832   -8.3579188    681.94921  0.014464011  0.013569587            5 
 3930000   0.61528066   -8.3592094    681.10188  0.014442364  0.013564945            2 
 3931000   0.63010221   -8.3481474    682.98282  0.014478564  0.013560303            2 
 3932000   0.61722988   -8.3437434    680.81736  0.014428988  0.013555662            3 
 3933000   0.62576164   -8.3325732    683.15415  0.014474832  0.013551024            4 
 3934000   0.61594579   -8.3447323    683.22477  0.014472648   0.01354639            3 
 3935000   0.62554426   -8.3452136    682.76016  0.014459131  0.013541751            3 
 3936000   0.61098313    -8.340664    683.09694  0.014462588  0.013537119            3 
 3937000   0.62640763   -8.3436717    682.66336  0.014449737  0.013532488            3 
 3938000   0.61868256   -8.3584842    682.76887    0.0144483  0.013527857            2 
 3939000   0.62811786   -8.3530209    682.51278  0.014439214  0.013523226            4 
 3940000    0.6175634   -8.3597435    683.63513  0.014459288  0.013518596            2 
 3941000   0.61600985   -8.3512772    682.96168  0.014441379  0.013513971            2 
 3942000   0.62084413   -8.3426057    684.14238  0.014462675  0.013509343            1 
 3943000   0.61931203   -8.3267328    682.22835  0.014418555  0.013504719            2 
 3944000   0.60823374   -8.3488867    682.22681  0.014414867  0.013500094            1 
 3945000   0.61899348    -8.349594    681.31922  0.014392041  0.013495469            3 
 3946000   0.61490814     -8.36348    682.11412  0.014405181  0.013490848            3 
 3947000   0.60513635   -8.3666849    682.55257  0.014410788  0.013486235            2 
 3948000   0.62555908   -8.3608371    683.08065  0.014418285  0.013481613            1 
 3949000   0.62007336   -8.3434158    682.61638  0.014404836  0.013477003            2 
 3950000   0.62786438    -8.363015    682.06063  0.014389465  0.013472397            2 
 3951000   0.62040375    -8.350555    683.32814  0.014412557  0.013467803            2 
 3952000   0.62008718   -8.3508968    682.69306  0.014395518  0.013463202            5 
 3953000   0.62938272   -8.3344044     683.5435  0.014409805  0.013458606            1 
 3954000   0.63494663   -8.3709823    682.29216  0.014379788  0.013454008            3 
 3955000   0.62518362   -8.3365837    682.93363  0.014389668  0.013449407            4 
 3956000   0.61675009   -8.3516794    683.26435  0.014392997  0.013444811            2 
 3957000    0.6194888   -8.3603556     683.3645  0.014391469   0.01344021            2 
 3958000   0.61069347   -8.3429586    682.37295  0.014366956  0.013435615            2 
 3959000    0.6157933   -8.3770021    682.91581  0.014374754  0.013431025            5 
 3960000   0.61520448   -8.3573799    682.13441   0.01435468  0.013426427            5 
 3961000   0.62808296   -8.3650962     683.0935  0.014371234  0.013421831            2 
 3962000   0.60965317   -8.3470618    682.05104  0.014345681  0.013417231            1 
 3963000   0.61550473   -8.3607021    683.00727  0.014362168  0.013412631            4 
 3964000   0.63066653    -8.338545    681.63497  0.014329696  0.013408038            4 
 3965000   0.62094104   -8.3621549     682.6283  0.014346959  0.013403456            2 
 3966000   0.61811842    -8.360833    682.12295  0.014332723  0.013398874            3 
 3967000   0.62130924   -8.3565509    683.72114  0.014362683  0.013394294            5 
 3968000    0.6153924    -8.370824    682.18363  0.014326773  0.013389714            3 
 3969000   0.61148593   -8.3679394    682.89938  0.014338191  0.013385137            6 
 3970000   0.61151089   -8.3737633    681.35044  0.014302066   0.01338056            5 
 3971000   0.62662231   -8.3633073     681.9331  0.014310692  0.013375984            7 
 3972000    0.6122388   -8.3389814    682.55544  0.014320146  0.013371414            4 
 3973000   0.61900849   -8.3665965    681.96277   0.01430411  0.013366846            3 
 3974000     0.617364   -8.3584863    682.69044   0.01431577  0.013362274            3 
 3975000   0.61805116   -8.3774591    681.74144  0.014292273  0.013357704            8 
 3976000   0.61656853   -8.3630162    682.00032  0.014294105  0.013353134            6 
 3977000    0.6143331   -8.3781128    681.82214  0.014286777  0.013348573            2 
 3978000    0.6136985   -8.3536862    682.91681  0.014306117  0.013344015            4 
 3979000   0.61674739   -8.3542516    682.74891  0.014299005  0.013339456            6 
 3980000   0.61312114   -8.3437891    682.06289  0.014281049  0.013334901            4 
 3981000   0.61130236   -8.3508085    681.54929   0.01426671  0.013330347            2 
 3982000   0.62066014   -8.3728734    680.73079  0.014245998  0.013325788            4 
 3983000   0.63331942   -8.3735006    682.03039  0.014269612   0.01332124            5 
 3984000   0.60801311   -8.3880047    680.75991  0.014239456  0.013316684            6 
 3985000   0.60480905   -8.3749193    682.73364  0.014277157  0.013312131            4 
 3986000   0.60716973   -8.3742516    682.17575  0.014261911  0.013307582            6 
 3987000   0.60073576    -8.357474    682.54015  0.014265951  0.013303035            8 
 3988000   0.61160306   -8.3678586     682.1312  0.014253828   0.01329849            8 
 3989000   0.61240783   -8.3547326    681.91459   0.01424573  0.013293955            5 
 3990000   0.62801483   -8.3834043    682.73683  0.014259332  0.013289416            5 
 3991000   0.62142539   -8.3557447     682.7953   0.01425698   0.01328488           10 
 3992000   0.61103405   -8.3419346    683.41122  0.014266266  0.013280346            6 
 3993000   0.60807605   -8.3686167    682.63087  0.014246408  0.013275814            8 
 3994000   0.59663013   -8.3731644    682.63039  0.014242831  0.013271279            8 
 3995000   0.60550524   -8.3713606     682.3543  0.014233506  0.013266743           11 
 3996000    0.6056883   -8.3808072    680.22008  0.014185437  0.013262215            2 
 3997000   0.62154768   -8.3557379    683.03034  0.014240479  0.013257693            2 
 3998000   0.61476756   -8.3398339    683.09967  0.014238362   0.01325318            4 
 3999000   0.62070689   -8.3750093    683.42001  0.014241477  0.013248654            3 
 4000000   0.61207917   -8.3739082    682.74765  0.014223909   0.01324413            2 
 4001000   0.60397925   -8.3878085    682.58748  0.014217018  0.013239611            3 
 4002000   0.61182243   -8.3848433    681.38131   0.01418835  0.013235089            4 
 4003000   0.58445523   -8.3653858    682.08353  0.014199424  0.013230565            3 
 4004000   0.60832178     -8.38609    681.46106  0.014182922  0.013226038            2 
 4005000    0.6047235   -8.3621055    682.22558  0.014195289  0.013221522            2 
 4006000   0.61913702   -8.3809637    682.79493  0.014203589  0.013217014            2 
 4007000   0.61859945   -8.3695717    684.01721  0.014225464  0.013212508            2 
 4008000   0.61113635   -8.3636171    683.07494  0.014202323  0.013208005            2 
 4009000   0.61758574   -8.3770408     683.7361  0.014212524  0.013203505            3 
 4010000   0.61573283   -8.3737343    682.13957  0.014175801  0.013199004            3 
 4011000   0.62109128   -8.3387182    682.98105   0.01418975  0.013194512            3 
 4012000   0.62583034   -8.3550524    683.61794  0.014199442  0.013190025            2 
 4013000   0.61318913   -8.3475522    682.59402  0.014174641  0.013185542            3 
 4014000   0.60001004   -8.3641292    682.72711  0.014173873  0.013181053            2 
 4015000   0.62529237   -8.3566677    682.88478  0.014173615  0.013176562            2 
 4016000   0.59917747   -8.3785505    682.62032  0.014164598  0.013172072            3 
 4017000   0.60127173   -8.3618666    681.87379  0.014145585  0.013167575            2 
 4018000   0.61062089   -8.3659077     683.6286  0.014178459  0.013163086            2 
 4019000   0.59815525   -8.3711831    681.86864  0.014138439  0.013158598            3 
 4020000    0.6083427   -8.3621806    682.46857  0.014147358  0.013154115            2 
 4021000   0.60055624   -8.3726734    681.62063  0.014126267  0.013149625            2 
 4022000   0.61614944   -8.3683623    683.06666  0.014152715   0.01314514            4 
 4023000   0.60860452   -8.3771272    681.57341  0.014118266  0.013140655            2 
 4024000   0.61348599   -8.3698523    682.84899  0.014141174  0.013136169            3 
 4025000   0.60374486   -8.3704825    682.99389   0.01414066  0.013131692            1 
 4026000   0.60065605   -8.3727402    682.34364  0.014123689  0.013127216            2 
 4027000   0.61196176   -8.3564221    681.44201  0.014101523  0.013122741            2 
 4028000   0.59692544   -8.3582957    683.25262  0.014135481  0.013118268            2 
 4029000    0.6054724   -8.3675214    682.07051  0.014107523  0.013113794            1 
 4030000   0.63029487   -8.3800015    682.40187  0.014110874  0.013109323            2 
 4031000   0.60575946   -8.3765047    682.98472  0.014119423  0.013104852            3 
 4032000   0.59833687   -8.3626305    682.28433  0.014101445  0.013100385            2 
 4033000   0.61978366    -8.385422    682.17819  0.014095756  0.013095913            1 
 4034000    0.6092049   -8.3835817    683.29078  0.014115245  0.013091449            2 
 4035000   0.61043217     -8.37335    682.57874  0.014097041  0.013086993            2 
 4036000   0.59709234   -8.3912445    683.23235  0.014107044  0.013082534            2 
 4037000    0.6103252   -8.3759454    682.75842  0.014093766  0.013078075            2 
 4038000   0.60045422   -8.3809977    682.24791  0.014079741  0.013073617            2 
 4039000   0.59904217   -8.3839055    682.84105  0.014088492  0.013069166            1 
 4040000   0.59735866   -8.3804004    683.39811  0.014096496  0.013064713            2 
 4041000   0.59363328   -8.3950897    682.28978  0.014070151  0.013060255            2 
 4042000   0.61400086   -8.3791176     683.0786  0.014082933  0.013055794            2 
 4043000     0.604659   -8.3694864    682.32523  0.014063922  0.013051335            3 
 4044000   0.59287202   -8.3745095     681.6762   0.01404707  0.013046886            1 
 4045000   0.59806286   -8.3910377    682.21084  0.014054612  0.013042436            2 
 4046000   0.60530126   -8.3834988    681.58425  0.014038232  0.013037983            2 
 4047000   0.60547739   -8.3841156    682.11948  0.014045785  0.013033537            1 
 4048000   0.59777071   -8.3821177    682.48268  0.014049792  0.013029099            1 
 4049000   0.61367937   -8.3795863    683.53975  0.014068078  0.013024663            1 
 4050000   0.59672614   -8.3669995    681.71261  0.014027009  0.013020227            3 
 4051000   0.61338798    -8.397236    682.32096   0.01403606  0.013015784            1 
 4052000   0.60938941   -8.3829726    682.00464  0.014026091  0.013011355            2 
 4053000   0.60657627   -8.3923785    682.91677  0.014041384  0.013006918            1 
 4054000   0.60107304   -8.3749586    681.76012  0.014014145  0.013002479            1 
 4055000    0.6058056   -8.3726705    682.74547  0.014030939  0.012998048            2 
 4056000   0.59780772   -8.3839529    682.62686  0.014025042  0.012993616            2 
 4057000   0.59184645   -8.3901725    681.73213  0.014003207  0.012989185            2 
 4058000   0.59644521   -8.3787418    682.00147  0.014005287  0.012984754            3 
 4059000   0.61289651   -8.4012116    681.15713  0.013984502  0.012980328            3 
 4060000   0.61698372   -8.3844143    682.03699  0.013999117  0.012975898            2 
 4061000   0.59948882   -8.3753989     681.8349  0.013991523   0.01297147            3 
 4062000   0.59666141   -8.3810019    682.44149  0.014000523  0.012967039            3 
 4063000   0.59816068   -8.3921717     681.1012  0.013969587  0.012962607            2 
 4064000   0.60211236   -8.4043303    681.73784  0.013979204   0.01295818            2 
 4065000   0.58889441   -8.3908082    682.21658   0.01398558  0.012953755            2 
 4066000   0.60700794   -8.3905385    681.62776  0.013970072  0.012949334            2 
 4067000   0.59930205   -8.3838895    682.13202  0.013976969  0.012944909            2 
 4068000   0.61271137   -8.3785745    683.41613  0.013999839  0.012940488            1 
 4069000   0.58820126   -8.3868725    682.08888  0.013969216   0.01293607            2 
 4070000   0.60034013   -8.3897085    682.32495  0.013970617  0.012931655            2 
 4071000   0.61107466   -8.3831899    681.59422  0.013952228  0.012927232            1 
 4072000   0.58167302   -8.3822132    681.20271  0.013940789  0.012922813            2 
 4073000   0.60376614   -8.3909625    682.79877  0.013970022  0.012918397            1 
 4074000   0.59726335   -8.3992549    681.01031   0.01393001  0.012913982            2 
 4075000   0.60180861   -8.3922274    681.62273  0.013939115  0.012909567            3 
 4076000   0.61080454   -8.3872087    682.53328  0.013954311   0.01290516            3 
 4077000   0.59614701   -8.3661317    682.08709  0.013941769  0.012900754            3 
 4078000   0.59097393   -8.3847083    681.83848   0.01393327  0.012896351            2 
 4079000   0.59596395   -8.3789096    681.82217  0.013929521  0.012891948            5 
 4080000   0.59497839   -8.3784511    681.85943  0.013926867  0.012887548            4 
 4081000   0.61005106    -8.423501    680.04888  0.013886484  0.012883145            3 
 4082000   0.59855192   -8.3952373     680.6431  0.013895213  0.012878739            3 
 4083000   0.58626593   -8.3843446    679.75201  0.013873623  0.012874336            2 
 4084000   0.59444133   -8.3890191    681.94851  0.013915045  0.012869944            1 
 4085000    0.6020806   -8.3630448     681.6459  0.013905465  0.012865551            3 
 4086000   0.60555453   -8.3949877    682.27542  0.013914901   0.01286116            2 
 4087000    0.5850916   -8.3940794    680.88193  0.013883083  0.012856764            2 
 4088000   0.59916816   -8.3613751    681.21942  0.013886567  0.012852377            2 
 4089000   0.59555193   -8.3824334    681.52371  0.013889372  0.012847984            1 
 4090000    0.5917116   -8.3881454    680.59737  0.013867102  0.012843597            1 
 4091000   0.60420584     -8.39393    682.62898  0.013905096  0.012839209            1 
 4092000   0.59517571   -8.3797567    681.54084  0.013879538  0.012834823            3 
 4093000   0.59278042   -8.3833623     681.7537  0.013880481   0.01283044            2 
 4094000   0.59778783   -8.3945614    681.89687  0.013880005  0.012826052            3 
 4095000   0.59548592   -8.4002606    681.59908  0.013870555  0.012821663            2 
 4096000   0.60328299   -8.4158135    680.47616  0.013844323  0.012817279            3 
 4097000    0.5923017   -8.4195448    681.85558  0.013869001  0.012812894            2 
 4098000   0.59823977   -8.4110417    681.97012  0.013867946  0.012808506            1 
 4099000   0.60439796   -8.4095751    680.78851  0.013840541  0.012804119            2 
 4100000   0.59225487   -8.4017893     680.8936  0.013839301  0.012799733            2 
 4101000   0.60493974   -8.4025889    680.84072  0.013834852   0.01279535            2 
 4102000   0.59568397   -8.4096796    679.82543  0.013810853  0.012790971            3 
 4103000   0.58877629   -8.3934439    681.97962  0.013851239  0.012786591            2 
 4104000   0.58586479   -8.4127632    680.61911  0.013820239   0.01278221            3 
 4105000   0.59280712   -8.4107924    681.43533  0.013833442  0.012777837            2 
 4106000   0.58913452   -8.4089024    682.08807   0.01384332  0.012773462            1 
 4107000   0.59627682   -8.3849195    682.35361  0.013845337  0.012769099            3 
 4108000   0.60224834   -8.4145135    681.09457  0.013816427  0.012764731            5 
 4109000   0.60173532   -8.4106075    681.64855  0.013824299  0.012760366            1 
 4110000   0.59484155   -8.4139462    681.99159  0.013827891  0.012755999            2 
 4111000   0.59146119   -8.3835234    680.91196  0.013802642  0.012751633            4 
 4112000   0.59894133   -8.4068485     680.2677  0.013786229  0.012747271            2 
 4113000   0.60296063   -8.4110683    680.34495  0.013784443  0.012742912            1 
 4114000   0.59766706   -8.3854697      681.298  0.013800397  0.012738552            3 
 4115000   0.60724997   -8.3939079    680.80654  0.013787091  0.012734194            3 
 4116000   0.58999199   -8.3931951    681.87553  0.013805384  0.012729839            2 
 4117000   0.58279098   -8.4147473    680.89034  0.013782089  0.012725485            3 
 4118000   0.60001778   -8.3939627    682.24141  0.013806083   0.01272114            2 
 4119000   0.58546138   -8.4153822    681.31268  0.013783942  0.012716788            1 
 4120000   0.60039089   -8.4118364    681.35624  0.013781477  0.012712441            1 
 4121000   0.58524281   -8.4053869     681.4729  0.013780492  0.012708095            1 
 4122000   0.61362981   -8.3941058    682.30609  0.013793993   0.01270376            4 
 4123000    0.5945896   -8.3909225    680.26637  0.013749421  0.012699421            2 
 4124000   0.58628248   -8.4048623    679.75529   0.01373576  0.012695087            2 
 4125000   0.58843192   -8.3894144    681.52921  0.013768267  0.012690754            1 
 4126000   0.59867594   -8.4168631    681.77617  0.013769918  0.012686419            2 
 4127000   0.58490426   -8.3911016    681.42307  0.013759451  0.012682087            3 
 4128000    0.5876913   -8.3991427    682.13627  0.013770516  0.012677759            3 
 4129000   0.59571688   -8.4175588    681.89746  0.013762361  0.012673423            4 
 4130000   0.58551259   -8.4031117    680.86348  0.013738166  0.012669096            3 
 4131000   0.58733555   -8.4178566     680.0252  0.013717929  0.012664763            4 
 4132000    0.5874217   -8.4209495    680.98265  0.013733919  0.012660436            3 
 4133000   0.58308102   -8.3930569    680.47448   0.01372035  0.012656107            3 
 4134000   0.59656917   -8.4140366     680.9967  0.013727558  0.012651777            2 
 4135000   0.59037338   -8.4031777    681.05487   0.01372541   0.01264745            2 
 4136000   0.59112309    -8.427124     680.9866  0.013720716  0.012643122            4 
 4137000   0.58452204   -8.3853421    680.51389  0.013707878  0.012638802            3 
 4138000   0.59342873   -8.3821048    680.44718  0.013703222  0.012634482            3 
 4139000    0.5785089   -8.4107888    680.31408  0.013697231  0.012630168            1 
 4140000   0.58538339   -8.4157319    681.02918  0.013708317  0.012625844            2 
 4141000   0.59197446   -8.4032969    680.71946  0.013698774  0.012621527            3 
 4142000   0.59293745   -8.4070559    680.29779  0.013686983  0.012617201            2 
 4143000   0.58713585   -8.4178208    680.31598  0.013684045  0.012612882            7 
 4144000   0.59714492   -8.4008472    680.75154  0.013689502  0.012608576            2 
 4145000    0.5935775   -8.4242967    680.92881  0.013689763  0.012604262            3 
 4146000   0.59333747   -8.4173831    679.96843  0.013667158  0.012599951            3 
 4147000   0.59277202   -8.4376074    681.81248  0.013700918  0.012595639            2 
 4148000   0.58442836   -8.4227521    680.67807  0.013674825  0.012591329            3 
 4149000   0.59138313   -8.4068813    681.30989  0.013684219  0.012587021            2 
 4150000   0.59175016   -8.4054087    679.95394  0.013653694  0.012582717            1 
 4151000   0.58297275    -8.415281    680.10629  0.013653463  0.012578405            1 
 4152000    0.5917289   -8.4229477    680.73788  0.013662851  0.012574102            4 
 4153000   0.59040455   -8.4139228    680.06525  0.013646064  0.012569805            2 
 4154000   0.58725949   -8.4173597    680.90939  0.013659713  0.012565502            1 
 4155000   0.59172843   -8.4098806    680.85898  0.013655415  0.012561204            4 
 4156000   0.57784415   -8.4024938    680.66324  0.013648204  0.012556914            2 
 4157000    0.6119518   -8.4195114     680.5071  0.013641791  0.012552619            2 
 4158000   0.58714065   -8.4304429    680.46649  0.013637696  0.012548324            1 
 4159000   0.57956718   -8.4018229    680.54042  0.013635898  0.012544035            2 
 4160000   0.58548654   -8.3957757    681.08904  0.013643611  0.012539748            2 
 4161000   0.59151915   -8.4063131    681.61253  0.013650816  0.012535468            3 
 4162000   0.57939767   -8.4172401    680.92184  0.013633707  0.012531189            3 
 4163000   0.57856245   -8.4353192    680.73324  0.013626656  0.012526906            1 
 4164000   0.58369086   -8.4215897    679.96791  0.013608067  0.012522628            2 
 4165000   0.59111341   -8.4029033    680.99072  0.013625264   0.01251835            2 
 4166000   0.57663389   -8.4232175    680.37757  0.013609729  0.012514075            2 
 4167000   0.58253388   -8.4168596     681.0523  0.013619956  0.012509797            2 
 4168000   0.57623137   -8.4206416    680.74457  0.013610536  0.012505525            3 
 4169000   0.58777005   -8.4210934    681.13262  0.013615028  0.012501252            1 
 4170000   0.59016135   -8.4023697    679.89242  0.013586979  0.012496983            2 
 4171000   0.59433676   -8.4101866    679.27609  0.013571408  0.012492717            3 
 4172000   0.58078574   -8.4299868    680.20294  0.013586668  0.012488452            2 
 4173000   0.58500479   -8.4027984    681.48115  0.013608937  0.012484185            2 
 4174000    0.5909446   -8.4283091     681.0513  0.013597095  0.012479923            2 
 4175000    0.5891666   -8.4203313    680.12175  0.013575284  0.012475655            4 
 4176000   0.58010889   -8.4447629    679.62353  0.013562091  0.012471389            1 
 4177000    0.5792734   -8.4225524    680.03126  0.013566979  0.012467124            3 
 4178000   0.58938447   -8.4131279    679.29055  0.013548958  0.012462856            1 
 4179000   0.57378344    -8.425732    680.32258  0.013566295  0.012458593            1 
 4180000   0.59132966   -8.4292644    679.65841  0.013549809   0.01245433            2 
 4181000   0.58207694   -8.4229403    680.69102  0.013567149  0.012450069            1 
 4182000   0.57630968   -8.4393738     680.2388  0.013554894  0.012445809            2 
 4183000   0.56765038   -8.4127737    679.77099  0.013542334  0.012441551            4 
 4184000   0.58424173   -8.4301102     679.9725  0.013543111  0.012437299            1 
 4185000   0.59462399   -8.4453498    680.47602  0.013549901  0.012433047            2 
 4186000   0.59036099   -8.4477008     679.5507  0.013528243  0.012428788            2 
 4187000   0.58866835   -8.4327937    680.03024  0.013534556  0.012424543            1 
 4188000   0.58461375   -8.4376462    680.48392  0.013540352  0.012420297            2 
 4189000   0.59200095   -8.4296505    680.24929  0.013532452  0.012416048            2 
 4190000   0.57634554    -8.421079    680.95329  0.013543224  0.012411802       -1e+20 
 4191000   0.58488951   -8.4192807    680.77319  0.013536411  0.012407562            1 
 4192000   0.57391502   -8.4282635    680.19899  0.013521767  0.012403317            2 
 4193000     0.566117   -8.4335594    680.70853  0.013528669  0.012399076            2 
 4194000     0.587344   -8.4236209     679.8067  0.013507525   0.01239484            1 
 4195000   0.58502718   -8.4344741     680.4119  0.013516327   0.01239061            1 
 4196000   0.58666209   -8.4346259    679.71943  0.013499353  0.012386377            2 
 4197000   0.57762978   -8.4060468    679.44031  0.013490595  0.012382148            1 
 4198000   0.57997171   -8.4254104    679.51314  0.013488827  0.012377916            2 
 4199000   0.58785921   -8.4300209      680.447  0.013504148  0.012373687            2 
 4200000   0.57709027   -8.4170497    679.63832  0.013484887  0.012369457            2 
 4201000   0.57130547   -8.4213713    678.97629  0.013468545  0.012365225            1 
 4202000   0.58885368   -8.4244032    679.65492  0.013478798  0.012360996            1 
 4203000   0.56872134   -8.4232052    679.93654  0.013481175  0.012356772            3 
 4204000   0.57401082   -8.4408758    679.89811  0.013477206  0.012352545            2 
 4205000   0.59639598    -8.457061    679.66185  0.013469319  0.012348316            3 
 4206000   0.57914176   -8.4406921    680.06039  0.013474013  0.012344091            1 
 4207000   0.57593149    -8.428274     678.8828  0.013447484  0.012339871            1 
 4208000   0.57809678   -8.4487416    679.47412  0.013455999  0.012335649            4 
 4209000    0.5783064   -8.4304757    679.99601  0.013463135  0.012331431            2 
 4210000   0.58580536   -8.4463961    680.57704  0.013471438  0.012327212            4 
 4211000   0.58391476   -8.4111643    680.56275  0.013467956  0.012322997            1 
 4212000   0.57165298   -8.4408186    679.19271  0.013437653  0.012318784            2 
 4213000   0.58337327   -8.4133023    680.05743  0.013451567  0.012314576            3 
 4214000   0.57909391   -8.4335153    679.29619  0.013433321  0.012310368            2 
 4215000   0.56771821   -8.4358936    679.43621  0.013432903  0.012306152            2 
 4216000   0.58420865   -8.4108703    681.15171  0.013463625   0.01230195            2 
 4217000   0.56979256   -8.4382552    680.50518  0.013447656  0.012297751            2 
 4218000   0.57706022   -8.4304163    680.16512  0.013437749  0.012293547            1 
 4219000   0.58167406   -8.4267964    679.84887  0.013428318  0.012289345            3 
 4220000   0.58608387   -8.4455839     680.0567   0.01342924  0.012285142            3 
 4221000   0.57486467   -8.4462491    679.79434  0.013420878  0.012280938            3 
 4222000   0.57946689   -8.4419435     680.0899  0.013423533  0.012276739            2 
 4223000   0.58517144   -8.4398997    680.43425   0.01342715  0.012272547            1 
 4224000   0.56805241   -8.4353992     679.1841  0.013399308   0.01226835            2 
 4225000   0.57775384    -8.439273     680.0808  0.013413823  0.012264157            3 
 4226000   0.58153301   -8.4363181    680.83229  0.013425467  0.012259962            3 
 4227000   0.56841295   -8.4436228    680.70923  0.013419865  0.012255776            3 
 4228000   0.58062438   -8.4547307    679.23589  0.013387652  0.012251583            3 
 4229000   0.58210041   -8.4482472     679.0948  0.013381706  0.012247405            2 
 4230000   0.57943577   -8.4150791    679.48749  0.013386278  0.012243221            3 
 4231000   0.57308304    -8.428024    679.58278  0.013384991  0.012239036            1 
 4232000   0.56088894   -8.4548265    679.00594   0.01337047  0.012234859            3 
 4233000   0.57703721   -8.4532619    680.08248  0.013388505  0.012230677            3 
 4234000   0.55943935   -8.4496948    679.87487  0.013381256  0.012226499            1 
 4235000   0.57253416   -8.4406472    679.26964  0.013366187  0.012222318            2 
 4236000   0.56909507   -8.4495901    679.55789  0.013368703   0.01221814            2 
 4237000   0.56980635   -8.4568391    679.46037  0.013363629  0.012213961            3 
 4238000   0.58017887    -8.463117    679.93282  0.013369766  0.012209785            5 
 4239000    0.5819109   -8.4426715    679.21314  0.013352464  0.012205613            1 
 4240000   0.58105641   -8.4542262    679.55636  0.013356061  0.012201435            2 
 4241000   0.58828003   -8.4438132    679.62477  0.013354256  0.012197261            2 
 4242000   0.56974127   -8.4518893    679.76666  0.013353895  0.012193091            3 
 4243000   0.56857036   -8.4441739    680.03023  0.013355924  0.012188921            2 
 4244000   0.57493531    -8.473706    679.12144  0.013334933  0.012184748            1 
 4245000   0.57713036    -8.471909    678.75599  0.013324617  0.012180579            2 
 4246000   0.57753389   -8.4548634    679.16992  0.013329603   0.01217641            2 
 4247000   0.58160486   -8.4597357    678.96548  0.013322453  0.012172243            5 
 4248000     0.574391   -8.4211271    679.57933  0.013331358  0.012168084            3 
 4249000   0.57828611    -8.452789    678.72083  0.013311384  0.012163927            3 
 4250000   0.57217256    -8.458604    679.75815  0.013328591  0.012159768            1 
 4251000   0.57898057   -8.4516806    679.66693  0.013323668  0.012155611            1 
 4252000   0.57646732   -8.4429538    680.27419  0.013332435  0.012151457            2 
 4253000   0.57045957   -8.4694395    679.72143   0.01331847   0.01214731            3 
 4254000   0.57089893   -8.4528461    680.08165  0.013322396  0.012143164            1 
 4255000   0.57326345   -8.4584038    679.98138  0.013317301  0.012139022            3 
 4256000    0.5681678   -8.4557246    679.32322  0.013301285   0.01213488            2 
 4257000   0.57182639   -8.4499641    678.67525  0.013285476  0.012130737            3 
 4258000   0.56628496   -8.4636452    679.65823  0.013301594  0.012126604            4 
 4259000   0.57034472   -8.4360544    680.13717  0.013307842  0.012122469            2 
 4260000   0.56167181   -8.4390913    679.17004  0.013285799  0.012118332            2 
 4261000   0.57860356    -8.453841    679.14454  0.013282182  0.012114193            2 
 4262000   0.57949928   -8.4575792     679.1465  0.013279104  0.012110058            3 
 4263000   0.58721676   -8.4401494    679.16305  0.013276313  0.012105926            2 
 4264000   0.56884865   -8.4510794    679.43899  0.013278592  0.012101799            2 
 4265000   0.57384207   -8.4593557    678.12986  0.013249899  0.012097668            3 
 4266000   0.55992548   -8.4460807    679.20518  0.013267799  0.012093541            2 
 4267000   0.57664751   -8.4591382    679.07711  0.013262189  0.012089408            1 
 4268000   0.56204634    -8.451662     679.3006  0.013263445  0.012085283            1 
 4269000   0.57108637   -8.4657846    679.25615   0.01325947  0.012081157            2 
 4270000   0.56987255   -8.4486135    678.37363  0.013239142  0.012077029            2 
 4271000   0.58323672   -8.4461861    679.41772  0.013256414  0.012072908            3 
 4272000   0.56836834   -8.4503256    679.65203  0.013257881  0.012068786            1 
 4273000   0.57783454      -8.4531    680.86437  0.013278422   0.01206467            5 
 4274000    0.5733754   -8.4585448    680.68622  0.013271842  0.012060553            2 
 4275000    0.5723992   -8.4483955    679.82843  0.013252016  0.012056435            3 
 4276000   0.56647279   -8.4440585    679.26342  0.013237906  0.012052327            3 
 4277000   0.56205729      -8.4598    680.24074  0.013253853   0.01204822            1 
 4278000   0.55350838   -8.4705945    679.15859  0.013229675  0.012044112            1 
 4279000   0.57049757   -8.4482717    680.36335  0.013250046  0.012040007            2 
 4280000   0.57556831   -8.4663073    678.37568  0.013208249  0.012035904            3 
 4281000   0.57071586   -8.4675079    679.03569  0.013218012  0.012031794            3 
 4282000   0.56855994   -8.4628379    678.92455  0.013212762  0.012027693            2 
 4283000   0.55604351   -8.4627952      680.071  0.013231983  0.012023597            3 
 4284000   0.56655621    -8.461742    678.99328   0.01320793  0.012019504            2 
 4285000   0.56150136   -8.4599246    680.17616  0.013227852  0.012015408            2 
 4286000   0.56594997   -8.4613303    678.50175   0.01319221  0.012011314            2 
 4287000   0.56720064    -8.465522    680.57297  0.013229394  0.012007221            2 
 4288000    0.5678634   -8.4564294     679.9983  0.013215141  0.012003132            3 
 4289000   0.55728988   -8.4581004    679.89246  0.013210004  0.011999045            3 
 4290000   0.56936975   -8.4537877    678.41761  0.013178275  0.011994954            2 
 4291000   0.56683236   -8.4623397    678.44035  0.013175646  0.011990867            1 
 4292000   0.57605448   -8.4755239    679.61097  0.013195305  0.011986786            3 
 4293000   0.56538428    -8.458166      680.492  0.013209333  0.011982703            2 
 4294000   0.57356822     -8.46131    680.20776  0.013200741  0.011978622            1 
 4295000   0.56346966   -8.4602612      680.758  0.013208343  0.011974545            1 
 4296000   0.56953031   -8.4715039    678.41475  0.013159814  0.011970468            3 
 4297000   0.57426518   -8.4637663    678.97877   0.01316769  0.011966388            2 
 4298000   0.55890193   -8.4595065    679.36368  0.013172089  0.011962313            2 
 4299000    0.5608055   -8.4493531    678.61711  0.013154554  0.011958241            2 
 4300000   0.57567961   -8.4774252    679.54448  0.013169467  0.011954171            1 
 4301000   0.56220049   -8.4504462    678.98315  0.013155529  0.011950101            2 
 4302000   0.57550562   -8.4782078    679.26791  0.013157987  0.011946027            2 
 4303000   0.54368319   -8.4720888    678.26542  0.013135514  0.011941956            2 
 4304000   0.56467997   -8.4600919    679.72663  0.013160754  0.011937888            2 
 4305000   0.57751943   -8.4744544    678.26887  0.013129479  0.011933822            2 
 4306000   0.56997448   -8.4473354    679.77104  0.013155501  0.011929763            2 
 4307000   0.56683381   -8.4618656    678.79787  0.013133617  0.011925706            1 
 4308000    0.5726959   -8.4762752    678.26543  0.013120269  0.011921647            4 
 4309000   0.56836714   -8.4743888    679.03061  0.013132022  0.011917585            2 
 4310000   0.56065579   -8.4861656    679.74939  0.013142873  0.011913527            2 
 4311000   0.55886531   -8.4685554    678.67831   0.01311912  0.011909471            1 
 4312000   0.55722324   -8.4733595    678.77571   0.01311796  0.011905413            2 
 4313000   0.56384411   -8.4468147    679.97248  0.013138042  0.011901362            1 
 4314000   0.56587325   -8.4781432    679.56283  0.013127083  0.011897314            1 
 4315000   0.56368893   -8.4813296    679.64045   0.01312554  0.011893267            2 
 4316000   0.56871095   -8.4714439    678.83291  0.013106907  0.011889222            3 
 4317000   0.55761692   -8.4750713    679.01835   0.01310745  0.011885177            3 
 4318000    0.5592741     -8.48115    678.46486  0.013093733  0.011881133            3 
 4319000   0.56355756   -8.4725746    678.66402  0.013094544  0.011877092            3 
 4320000   0.56011915   -8.4760319    679.03655  0.013098699  0.011873051            3 
 4321000   0.55466426   -8.4731467    678.47177  0.013084775  0.011869009            4 
 4322000   0.55627876   -8.4963322    679.49434  0.013101464  0.011864968            2 
 4323000   0.55539973   -8.4790738    677.79781   0.01306573  0.011860929            3 
 4324000   0.55766782   -8.4719423    679.32346  0.013092111  0.011856886            1 
 4325000   0.56099648   -8.4833432    678.93194   0.01308154  0.011852847            2 
 4326000   0.55869595   -8.4693974    678.11448  0.013062769  0.011848805            2 
 4327000   0.57689723   -8.4705743    679.28216  0.013082239  0.011844772            2 
 4328000   0.54169691   -8.4817564    678.76082  0.013069178  0.011840737            6 
 4329000   0.54447443   -8.4866596    678.87781  0.013068411  0.011836701            3 
 4330000   0.54710858   -8.4925263    678.56579  0.013059388  0.011832668            2 
 4331000   0.55948613   -8.4912528    678.60057  0.013057042  0.011828643            3 
 4332000   0.56779375   -8.4910659    679.95214  0.013080027  0.011824622            2 
 4333000   0.57824429   -8.4619822     678.4368  0.013047865    0.0118206            1 
 4334000   0.56257885   -8.4795217    678.50556  0.013046177  0.011816581            3 
 4335000   0.55115132   -8.4644047    679.15553  0.013055662  0.011812564            4 
 4336000    0.5519932      -8.4562    678.46862  0.013039449  0.011808544            6 
 4337000   0.56508236   -8.4904091    678.10329  0.013029423  0.011804529            2 
 4338000   0.55190093     -8.48512    679.12606  0.013046067  0.011800516            3 
 4339000   0.56399799   -8.4727957    680.30902   0.01306578  0.011796503            3 
 4340000   0.56060449   -8.4838643    679.07707  0.013039114  0.011792493            2 
 4341000   0.56461433    -8.468097    679.37474  0.013041825  0.011788486            3 
 4342000   0.54762508   -8.4678264    678.46315  0.013021326  0.011784478            3 
 4343000   0.56359174   -8.4884815    679.59035  0.013039956  0.011780472            1 
 4344000   0.55684519    -8.488223    679.65119  0.013038121   0.01177647            5 
 4345000    0.5545808   -8.4848155    678.77453  0.013018307  0.011772465            2 
 4346000   0.55567313   -8.4711226    679.42751  0.013027832  0.011768466            2 
 4347000   0.55814713   -8.4873721    677.54407  0.012988729  0.011764464            4 
 4348000   0.55917167   -8.4708796    678.98924   0.01301344  0.011760469            2 
 4349000   0.55664985   -8.4758397    678.68158  0.013004552  0.011756468            3 
 4350000   0.54423972   -8.4674121    678.54233  0.012998895  0.011752471            4 
 4351000     0.561209   -8.4716639    679.28014  0.013010039  0.011748474            2 
 4352000   0.54979198   -8.4976314    678.94087  0.013000553  0.011744478            1 
 4353000   0.55343338   -8.4816884    677.81283  0.012975971  0.011740479            6 
 4354000   0.56343677   -8.4845255    680.31793  0.013020937  0.011736487            1 
 4355000   0.55333376   -8.4830477    677.88999  0.012971489  0.011732498            3 
 4356000   0.54935133   -8.4547634    678.62959   0.01298266  0.011728506            4 
 4357000   0.56385773   -8.4782029    679.31843  0.012992855  0.011724521            9 
 4358000   0.55338252   -8.4979028    679.10134  0.012985722  0.011720538            5 
 4359000   0.55685008   -8.5005773    678.91155  0.012979115  0.011716555            2 
 4360000   0.55767782   -8.4821003    679.06595  0.012979089  0.011712566            4 
 4361000   0.55016588   -8.4872912     678.6339  0.012967857  0.011708583            2 
 4362000   0.55868859   -8.5056958     678.5105  0.012962527  0.011704601            5 
 4363000   0.56433826    -8.506225    677.82025  0.012946372  0.011700618            3 
 4364000   0.54596496   -8.5000065    678.83825  0.012962845  0.011696643            3 
 4365000   0.54985097   -8.4878166    677.47343  0.012933819  0.011692667            4 
 4366000   0.55535578   -8.4962517    678.24943  0.012945668  0.011688691            2 
 4367000   0.56258758   -8.4916768    679.83227  0.012972908  0.011684719            3 
 4368000    0.5496453   -8.4911788    678.41759  0.012942948  0.011680746            1 
 4369000   0.56687991   -8.5082195    677.36825  0.012919971  0.011676777            3 
 4370000    0.5483498   -8.4799844    678.27484  0.012934303   0.01167281            2 
 4371000    0.5571513   -8.4714829    677.39613  0.012914591  0.011668842            1 
 4372000   0.55107684   -8.4978214    679.26838  0.012947324  0.011664879            2 
 4373000   0.54550236   -8.5016282    679.29711   0.01294491  0.011660915            5 
 4374000   0.53881303    -8.481105    678.00178  0.012917272  0.011656955            2 
 4375000   0.55112289   -8.4908736    678.25652  0.012919172  0.011652997            1 
 4376000   0.55667496   -8.5010407    678.14205   0.01291404  0.011649046            1 
 4377000   0.55044086   -8.5027465    678.72683  0.012922223  0.011645089            6 
 4378000   0.54955391   -8.4956312    678.22234  0.012909668  0.011641139            1 
 4379000   0.56206584   -8.4968798    677.82661  0.012899189  0.011637193            1 
 4380000   0.55175885    -8.506926    678.49636  0.012908987  0.011633245            2 
 4381000     0.561578   -8.4736684    677.56428  0.012888311  0.011629296            1 
 4382000   0.54606163   -8.4979119    678.42014  0.012901646  0.011625351            1 
 4383000   0.55971018    -8.513253    677.57478   0.01288263  0.011621397            2 
 4384000   0.54822396   -8.4824847    678.57856  0.012898771  0.011617446            2 
 4385000   0.56032914   -8.5100064    679.73786  0.012917861  0.011613501            4 
 4386000   0.55021007   -8.4946006    678.43747  0.012890209  0.011609555            1 
 4387000   0.55521397   -8.5080104    678.46636  0.012887819  0.011605617            3 
 4388000   0.55385555   -8.4822366    678.51532  0.012885812  0.011601673            5 
 4389000   0.54450485   -8.4955963    678.08351  0.012874677  0.011597732            2 
 4390000   0.54108902   -8.4967569    678.54146  0.012880438  0.011593792            4 
 4391000   0.54827071   -8.4931358    677.88026  0.012864956   0.01158986            3 
 4392000   0.54827167   -8.4822409    679.06077  0.012884426  0.011585925            1 
 4393000   0.54099883   -8.4815054    678.81344  0.012876801  0.011581995            1 
 4394000   0.55640026    -8.497878    678.12277  0.012860772  0.011578071            1 
 4395000   0.55418371   -8.4803302    678.35697  0.012862286  0.011574146            1 
 4396000   0.54002599   -8.4907073    678.13497  0.012855152  0.011570219            3 
 4397000   0.54990328   -8.5056588    678.82447  0.012865296    0.0115663            2 
 4398000   0.55656355   -8.4910149    679.31561  0.012871677  0.011562378            2 
 4399000   0.54746192   -8.4935759    676.89189  0.012822836  0.011558461            2 
 4400000   0.54288553   -8.4987029    677.09403   0.01282375  0.011554541            1 
 4401000    0.5443312   -8.5036811     678.6648  0.012850579  0.011550625            2 
 4402000   0.55954016   -8.4948197    677.80387  0.012831362   0.01154671            3 
 4403000   0.53661364    -8.491855    677.69939   0.01282647  0.011542795            3 
 4404000   0.54829007   -8.4975598    677.87656   0.01282691  0.011538881            3 
 4405000   0.55586807    -8.490786    678.97569  0.012844792  0.011534973            1 
 4406000   0.54961462   -8.5078972    677.88949  0.012821333  0.011531062            2 
 4407000   0.53650304   -8.4834747    677.36779  0.012808558  0.011527154            2 
 4408000   0.53650511   -8.5095943     677.8956  0.012815631  0.011523245            1 
 4409000   0.54788522   -8.5081239    678.02028   0.01281508  0.011519339            1 
 4410000   0.54159183   -8.4999718    678.51922  0.012821603  0.011515439            3 
 4411000   0.54414307    -8.482857    676.20503  0.012774976  0.011511535            2 
 4412000   0.54670553   -8.4980369    678.44072  0.012814308  0.011507631            2 
 4413000    0.5369151    -8.513281    677.10047  0.012786095  0.011503736            5 
 4414000   0.56007389   -8.5134847    677.79017   0.01279622  0.011499839            2 
 4415000    0.5495714   -8.5183937    678.07782  0.012798751  0.011495942            1 
 4416000   0.54425413   -8.4958862    677.53941  0.012785692  0.011492049            4 
 4417000   0.55270044   -8.5243689    678.78398  0.012806278  0.011488156            2 
 4418000   0.55275423   -8.5008182    678.75081  0.012802754  0.011484269            2 
 4419000   0.54111659   -8.4981374    677.89148  0.012783652  0.011480377            2 
 4420000   0.54387753   -8.4928836    677.38334  0.012771179  0.011476487            2 
 4421000   0.54152046   -8.5110412    678.93813  0.012797597  0.011472601            3 
 4422000   0.54678825    -8.492749    677.92423  0.012775596  0.011468714            3 
 4423000   0.54330659   -8.4998674    677.89604  0.012772176  0.011464827            2 
 4424000   0.54744448   -8.4964993    677.25439  0.012757203  0.011460947            1 
 4425000   0.54000826   -8.5007054    678.63731  0.012780364  0.011457067            1 
 4426000   0.54224667   -8.4864054    677.83427  0.012762356  0.011453192            2 
 4427000   0.55555187   -8.5252067    677.81559  0.012759122  0.011449313            4 
 4428000   0.54152632   -8.4891517    677.10901  0.012742943  0.011445436            1 
 4429000   0.54184663   -8.5070344    678.90149  0.012773792  0.011441565            1 
 4430000   0.55115255   -8.5001627    678.78003  0.012768624  0.011437692            1 
 4431000   0.54275176   -8.4859298     678.4183  0.012758939  0.011433821            1 
 4432000   0.53411457   -8.5114676     678.5921  0.012759328  0.011429957            1 
 4433000   0.54604223   -8.5153016    677.51581  0.012736217   0.01142609            5 
 4434000   0.52878205   -8.5026272    677.28397  0.012728988  0.011422223            3 
 4435000   0.53967891   -8.5225498    677.36007  0.012727547  0.011418357            2 
 4436000   0.54843651   -8.5009355    677.83325  0.012733567  0.011414496            2 
 4437000   0.54433137    -8.503415    679.10711  0.012754622  0.011410632            2 
 4438000   0.53612778   -8.5002297    677.23009  0.012716503  0.011406769            4 
 4439000   0.52423922   -8.5118518    677.02733  0.012709832  0.011402906            3 
 4440000   0.53527019   -8.5179695    678.27695  0.012730423  0.011399043            1 
 4441000   0.54585797   -8.5101741    677.75042  0.012717677  0.011395188            1 
 4442000   0.53630329   -8.5141102    677.67037  0.012713312  0.011391329            2 
 4443000   0.54301026   -8.5030172    677.99104  0.012716465  0.011387472            2 
 4444000   0.54341434   -8.5080208    678.68106  0.012726542  0.011383613            2 
 4445000   0.54991674   -8.5205168    678.55783  0.012721369  0.011379763            3 
 4446000   0.54086402   -8.5024926    678.68391  0.012720871   0.01137591            3 
 4447000   0.54260017   -8.5158775      677.717  0.012699891  0.011372057            2 
 4448000   0.53917512   -8.5097719    677.89588  0.012700388  0.011368203            2 
 4449000   0.53857335    -8.524916    678.42166  0.012707381  0.011364355            2 
 4450000   0.53906115    -8.521663    677.58658  0.012688887  0.011360506            1 
 4451000   0.53101728   -8.5112141    677.88122  0.012691553   0.01135666            3 
 4452000   0.53699165    -8.523823    677.81051  0.012687379  0.011352816            2 
 4453000   0.53659214   -8.5182641    677.51534  0.012679006  0.011348975            1 
 4454000   0.53504848   -8.5112671    677.75138  0.012680575  0.011345134            1 
 4455000   0.54596651   -8.5244525    676.51504  0.012654602  0.011341295            2 
 4456000   0.53803651   -8.5079446     678.0847  0.012681117  0.011337455            2 
 4457000   0.54276677   -8.5043411    676.51527  0.012648928  0.011333622            3 
 4458000   0.54689141   -8.4928897    678.65221  0.012686037  0.011329788            2 
 4459000   0.53336615   -8.5134853    677.27298  0.012657415  0.011325956            1 
 4460000   0.52486929   -8.5170232    677.32009  0.012655458  0.011322122            4 
 4461000   0.53985003   -8.5204834    676.86359  0.012644093  0.011318294            2 
 4462000   0.52997758   -8.5185642    678.06594  0.012663715  0.011314464            3 
 4463000   0.53760849   -8.5077886    677.62218  0.012652591  0.011310632            3 
 4464000   0.52876593   -8.5069112     677.5475  0.012648363  0.011306806            2 
 4465000   0.53458411   -8.5244973    677.58519  0.012646234  0.011302978            2 
 4466000   0.54558794   -8.5126502    677.01158  0.012632698  0.011299152            3 
 4467000    0.5365319   -8.5380552    677.72677  0.012643213  0.011295331            1 
 4468000   0.52736269   -8.5236405     676.6485  0.012620272  0.011291509            1 
 4469000   0.53665418   -8.5404825    677.11783    0.0126262  0.011287692            2 
 4470000   0.54236042    -8.509848    677.55202   0.01263147  0.011283874            2 
 4471000    0.5469249   -8.5167204    676.82495  0.012615093  0.011280058            3 
 4472000   0.53298297   -8.5306001    678.83119  0.012649657  0.011276241            2 
 4473000   0.54350447   -8.5321896    677.06832  0.012613986  0.011272429            2 
 4474000   0.53174032   -8.5231905    677.54515  0.012620048  0.011268613            1 
 4475000   0.53593749   -8.5341397    677.22877  0.012611337    0.0112648            3 
 4476000   0.52990075   -8.5015031    677.76982  0.012618592  0.011260988            3 
 4477000    0.5327064   -8.5194121     677.5136  0.012611004  0.011257177            2 
 4478000   0.54291857   -8.5321378    676.63461  0.012591831  0.011253371            2 
 4479000   0.52988058    -8.538575    676.78593  0.012591835  0.011249563            2 
 4480000   0.55326757   -8.5184617    678.09613  0.012613395  0.011245763            1 
 4481000   0.53671225   -8.5271636    677.80045  0.012605082  0.011241964            2 
 4482000   0.54205047   -8.5256313    678.10377  0.012607909  0.011238165            1 
 4483000   0.52912965   -8.5200057    678.21382  0.012607142  0.011234371            3 
 4484000   0.53831698   -8.5267753    678.06167  0.012601503  0.011230573            2 
 4485000   0.53839159   -8.5191381    676.76746  0.012574646  0.011226781            3 
 4486000   0.54040154   -8.5283009    677.96558    0.0125941  0.011222984            3 
 4487000   0.53130195   -8.5257125     676.8243  0.012570097  0.011219192            3 
 4488000    0.5366207   -8.5244852    676.83297  0.012567457  0.011215404            1 
 4489000   0.53416695   -8.5287701    677.56604  0.012578266  0.011211618            2 
 4490000    0.5354244   -8.5040944    676.85825  0.012562328  0.011207831            2 
 4491000   0.54119089    -8.509962    677.81794  0.012577339  0.011204048            2 
 4492000   0.54490947   -8.5187797    676.62602  0.012552427  0.011200262            2 
 4493000    0.5337199   -8.5163026    676.58572  0.012548886  0.011196478            3 
 4494000   0.53618918   -8.5323046    676.82082  0.012550453  0.011192698            4 
 4495000    0.5276044   -8.5398588    677.31751  0.012556869  0.011188917            2 
 4496000   0.53287252   -8.5298842    676.20782  0.012533508  0.011185138            3 
 4497000   0.52916309   -8.5406605    676.71424  0.012540105  0.011181355            2 
 4498000   0.53905558   -8.5277671     677.4562  0.012551063  0.011177573            4 
 4499000   0.53450885   -8.5280833    677.06072  0.012540948  0.011173795            5 
 4500000   0.53215171   -8.5191987    676.51103  0.012527982  0.011170022            1 
 4501000    0.5351083   -8.5200274    676.98561  0.012533985  0.011166254            3 
 4502000   0.53212172   -8.5271525    677.52247  0.012541139  0.011162482            2 
 4503000   0.53160476   -8.5328551    677.89631  0.012545272   0.01115871            4 
 4504000   0.53241072   -8.4993199    677.30369  0.012531522  0.011154944            2 
 4505000   0.53074241   -8.5220056    677.84049   0.01253867  0.011151182            2 
 4506000    0.5353933   -8.5380018    676.62442  0.012513397  0.011147419            2 
 4507000   0.53469033   -8.5385943    677.32936  0.012523655  0.011143659            3 
 4508000   0.52959337   -8.5423142    676.94426  0.012513758  0.011139903            2 
 4509000   0.52390824   -8.5344415    675.93508  0.012492332  0.011136145            4 
 4510000   0.53668384   -8.5225948    676.99603  0.012509165  0.011132392            4 
 4511000   0.52820265   -8.5387409    676.69768  0.012500881  0.011128635            2 
 4512000   0.53542375   -8.5231767    676.69379  0.012498038  0.011124881            3 
 4513000   0.52855266   -8.5367509    676.00428  0.012482537  0.011121128            2 
 4514000   0.53046504   -8.5126092    677.93174  0.012515355  0.011117379            2 
 4515000   0.53018273   -8.5272656    677.41665  0.012503076  0.011113633            4 
 4516000   0.51655337   -8.5320832    677.59243  0.012503551  0.011109882            1 
 4517000   0.54225069   -8.5209254    676.43008  0.012479339  0.011106137            5 
 4518000   0.53252713   -8.5199717    678.05806  0.012506604  0.011102395            1 
 4519000   0.53505057   -8.5331886    677.57656  0.012494958  0.011098655            5 
 4520000   0.51732626   -8.5317427    677.01611   0.01248186  0.011094913            2 
 4521000   0.52509763   -8.5419668    676.53222   0.01247018  0.011091176            3 
 4522000   0.53241846   -8.5183177    677.25179  0.012480683  0.011087437            2 
 4523000   0.53356069     -8.51655    677.50375  0.012482566  0.011083698            2 
 4524000   0.53499311   -8.5496418    677.63085  0.012482148  0.011079962            4 
 4525000   0.52701585   -8.5345631    676.51082  0.012458763  0.011076225            2 
 4526000   0.52167737   -8.5358026    677.33856  0.012471251  0.011072496            3 
 4527000    0.5254803   -8.5510224    676.22493  0.012447996  0.011068764            2 
 4528000   0.52722668   -8.5485216    676.03045  0.012441668  0.011065033            2 
 4529000   0.53049151   -8.5335759    677.21678  0.012460749  0.011061303            2 
 4530000   0.53571867    -8.529598     677.3757  0.012460922  0.011057577            2 
 4531000   0.53139072   -8.5312585    675.40389  0.012421906  0.011053853            2 
 4532000   0.53696967   -8.5375682    676.93965  0.012447405  0.011050134            1 
 4533000    0.5084325   -8.5413966    677.07594  0.012447164  0.011046412            3 
 4534000   0.51813514   -8.5301193    677.27827  0.012448138  0.011042693            3 
 4535000   0.51785892   -8.5407269    677.78101  0.012454631  0.011038978            1 
 4536000   0.52380777    -8.532169    677.09035  0.012439197  0.011035261            3 
 4537000   0.52765889   -8.5213476    677.91826  0.012451662  0.011031548            1 
 4538000   0.51896397   -8.5345598    676.74855  0.012427438  0.011027836            2 
 4539000   0.52783006   -8.5494123    676.82298  0.012426066  0.011024125            4 
 4540000   0.52852098   -8.5578196    677.41577   0.01243421  0.011020416            3 
 4541000   0.51410081   -8.5545326    677.68019  0.012436324  0.011016708            2 
 4542000   0.52309364     -8.53604    676.97053  0.012420566  0.011013001            2 
 4543000   0.51295261    -8.555867    677.27601  0.012423436  0.011009292            1 
 4544000   0.52227753   -8.5468816    677.14748  0.012418344  0.011005587            2 
 4545000   0.52287299   -8.5431723    677.05669  0.012413947  0.011001879            2 
 4546000     0.510635   -8.5326927     677.0786  0.012411618  0.010998171            5 
 4547000   0.53651725   -8.5477085    675.61023  0.012381978  0.010994469            2 
 4548000   0.52656233    -8.551386    677.21025  0.012408572  0.010990767            3 
 4549000   0.52742322   -8.5474864      675.876  0.012381403  0.010987069            5 
 4550000   0.52467427   -8.5322072    677.44201  0.012407363  0.010983372            2 
 4551000   0.52913339   -8.5527665    675.49483  0.012368982  0.010979672            2 
 4552000   0.51899878   -8.5434561    676.43083    0.0123834  0.010975975            2 
 4553000   0.52269654    -8.561144    676.75319   0.01238658  0.010972281            2 
 4554000   0.52670211   -8.5559966    676.21868  0.012374079  0.010968589            2 
 4555000   0.52471361   -8.5354451    675.69098  0.012361708  0.010964898            1 
 4556000    0.5221251   -8.5431407    677.18514  0.012386325  0.010961213            3 
 4557000   0.52077359   -8.5386038    677.39235  0.012387396  0.010957525            3 
 4558000   0.52454045    -8.545282    676.31807  0.012365037  0.010953841            2 
 4559000   0.52503289   -8.5327014    676.14758  0.012359209  0.010950159            2 
 4560000   0.51892772    -8.553788    677.94339  0.012389316  0.010946478            2 
 4561000   0.51909459   -8.5414432    676.62527  0.012362517  0.010942798            3 
 4562000   0.52561911   -8.5550376    676.97073  0.012366117  0.010939119            3 
 4563000   0.51762394    -8.559541    677.00037  0.012363949  0.010935446            2 
 4564000   0.51132233   -8.5447412    677.19223  0.012364743  0.010931774            5 
 4565000   0.51893202   -8.5389155    676.33806  0.012346441  0.010928102            2 
 4566000   0.52381376   -8.5416545    676.45328   0.01234584  0.010924432            2 
 4567000   0.52054495   -8.5418718    677.34018   0.01235932  0.010920763            6 
 4568000   0.51905845   -8.5498394    677.81345  0.012365248  0.010917092            1 
 4569000   0.52316473   -8.5432836    676.01263  0.012329697  0.010913424            3 
 4570000    0.5146485   -8.5459933    676.96571  0.012344378  0.010909756            2 
 4571000   0.52849182   -8.5419652    676.46444  0.012332539  0.010906092            1 
 4572000   0.54055625   -8.5303708    677.49656  0.012348654  0.010902429            2 
 4573000   0.52924668   -8.5444811    676.04754  0.012319548   0.01089877            3 
 4574000   0.52398796   -8.5589143    676.49461     0.012325  0.010895109            3 
 4575000   0.53363885   -8.5448306     676.7544  0.012327038   0.01089145            3 
 4576000   0.52344328    -8.537223    676.45887  0.012318963  0.010887793            1 
 4577000    0.5300098   -8.5504254    676.86865  0.012323732  0.010884136            1 
 4578000   0.50967319   -8.5355015    677.37209  0.012330204  0.010880479            1 
 4579000    0.5094784   -8.5477211    676.72622  0.012315757  0.010876824            3 
 4580000   0.51537665   -8.5489138     676.2797  0.012304944  0.010873172            2 
 4581000   0.51822971   -8.5604848    676.49122  0.012306105  0.010869521            3 
 4582000   0.52453028   -8.5434338    675.71335  0.012289272   0.01086587            2 
 4583000   0.52793355    -8.536596    675.35358  0.012280049  0.010862222            1 
 4584000   0.51844471   -8.5592949    676.54681  0.012299062  0.010858578            1 
 4585000     0.511992   -8.5478383    675.66736  0.012280395   0.01085493            2 
 4586000   0.52037106   -8.5602584    676.85462  0.012299292  0.010851285            2 
 4587000   0.51789322   -8.5516395    675.97524  0.012280634  0.010847638            2 
 4588000   0.52773739   -8.5598097    676.11966  0.012280581  0.010843994            3 
 4589000   0.51991201   -8.5618154    677.11386  0.012295959  0.010840352            3 
 4590000   0.51224182   -8.5503842    676.09416  0.012274767  0.010836714            1 
 4591000   0.51479441   -8.5426536     676.5441   0.01228026  0.010833078            2 
 4592000    0.5214678   -8.5523166    676.15422  0.012270511  0.010829444            2 
 4593000   0.51273594   -8.5396215     676.6689  0.012277177  0.010825812            2 
 4594000   0.50929386   -8.5595325    675.27669  0.012249251  0.010822177            5 
 4595000   0.52408639   -8.5456642    675.13386  0.012243995  0.010818546            4 
 4596000   0.52529173   -8.5693449     675.3812  0.012245815  0.010814913            1 
 4597000   0.51944637   -8.5564928    675.68661  0.012248688  0.010811281            1 
 4598000   0.51693644   -8.5639184    677.46424  0.012278241  0.010807656            2 
 4599000   0.51530541   -8.5541178    676.46332  0.012257435  0.010804028            2 
 4600000   0.50788745   -8.5395719    677.79116  0.012278825  0.010800402            3 
 4601000   0.51069156   -8.5522632    677.31165  0.012267472  0.010796778            3 
 4602000   0.51005363   -8.5671052    676.54697  0.012250959  0.010793152            3 
 4603000   0.50833705   -8.5499444    676.11166  0.012240417  0.010789531            2 
 4604000   0.50686185   -8.5385936    676.98763  0.012253613  0.010785912            2 
 4605000   0.51700061   -8.5391479    676.18239   0.01223638  0.010782295            3 
 4606000   0.52099779    -8.572063    675.63658  0.012223849  0.010778678            3 
 4607000   0.50204945   -8.5535803    676.02108  0.012228151   0.01077506            2 
 4608000   0.50684698   -8.5429293    676.18606  0.012228481  0.010771447            2 
 4609000   0.49581669   -8.5413297    677.10016  0.012242355  0.010767835            2 
 4610000   0.52297744   -8.5329229    676.58892  0.012230458  0.010764224            2 
 4611000   0.51183129    -8.566664    677.01807  0.012235561  0.010760612            2 
 4612000     0.513219   -8.5676039    675.95288  0.012213662     0.010757            2 
 4613000   0.52287198   -8.5757012    675.51255  0.012203059  0.010753391            5 
 4614000   0.50633663    -8.556026     677.0903   0.01222891  0.010749781            4 
 4615000   0.50078523   -8.5571502    676.32157  0.012212379  0.010746177            4 
 4616000   0.49916544   -8.5561995    676.34366  0.012210132   0.01074257            2 
 4617000   0.51243079   -8.5697483    675.43483  0.012191084  0.010738966            1 
 4618000   0.51684486   -8.5611208     675.5716  0.012190912  0.010735366            2 
 4619000    0.5143351   -8.5578042    675.29975  0.012183368  0.010731766            5 
 4620000   0.51654903    -8.558084    674.79554  0.012171637  0.010728164            5 
 4621000   0.50985221   -8.5655763    676.86895  0.012206394   0.01072457            3 
 4622000   0.51084522   -8.5585541    675.65479  0.012181862  0.010720976            2 
 4623000   0.50996644    -8.555156    676.29009  0.012190679  0.010717383            2 
 4624000   0.51303243   -8.5699513    675.97236  0.012182316  0.010713793            3 
 4625000    0.5131528    -8.576605    674.83162  0.012159128  0.010710201            3 
 4626000    0.5132179   -8.5427179    676.24758  0.012182007  0.010706615            2 
 4627000   0.51351059   -8.5521232    677.97462  0.012210479   0.01070303            3 
 4628000   0.49718249   -8.5568627    676.22428  0.012176323  0.010699447            3 
 4629000   0.52152525   -8.5553009     675.9832  0.012169353  0.010695868            4 
 4630000   0.52104456   -8.5616641    676.64943  0.012178715  0.010692287            3 
 4631000   0.51705681    -8.573164    676.48989  0.012173215  0.010688704            2 
 4632000   0.50818642   -8.5580132    675.75566  0.012157377  0.010685125            3 
 4633000   0.51631852   -8.5717673    676.11916  0.012161291  0.010681549            3 
 4634000   0.51246319   -8.5526352    676.82485  0.012171358  0.010677971            3 
 4635000   0.51072092   -8.5749728    676.73638  0.012167141  0.010674398            2 
 4636000   0.52085643   -8.5685016    675.57029  0.012143556  0.010670825            2 
 4637000   0.50131181   -8.5476513    676.50212  0.012157683  0.010667256            2 
 4638000   0.51245382    -8.577853    676.97357  0.012163533  0.010663687            5 
 4639000   0.49846186   -8.5739558    677.12893  0.012163701  0.010660119            3 
 4640000   0.50563104    -8.560431    676.00848  0.012140957  0.010656553            4 
 4641000   0.51085338   -8.5807146    675.82485  0.012135044   0.01065299            1 
 4642000   0.51220093   -8.5560626    676.87085  0.012151207   0.01064943            1 
 4643000   0.51010971   -8.5847299    676.26338  0.012137687  0.010645873            3 
 4644000   0.51588806   -8.5743331     678.0195  0.012166586  0.010642311            1 
 4645000   0.50652326   -8.5661052    676.48706  0.012136474  0.010638755            3 
 4646000   0.50653015   -8.5630428    675.72817   0.01212025  0.010635198            3 
 4647000   0.51831711   -8.5746708     676.1484  0.012125178  0.010631644            1 
 4648000   0.50969834    -8.560951    675.38292  0.012108845  0.010628091            3 
 4649000    0.5098647   -8.5859605       674.89  0.012097404  0.010624533            2 
 4650000   0.51590436   -8.5487392     675.6684  0.012108753  0.010620976            4 
 4651000   0.51649098   -8.5789026    674.98985  0.012093991  0.010617423            2 
 4652000   0.51713925   -8.5886428    676.45867  0.012117703  0.010613875            1 
 4653000   0.51025143   -8.5736155    677.02535  0.012125248  0.010610329            4 
 4654000   0.51111934   -8.5566485    676.55043  0.012114139  0.010606784            5 
 4655000   0.51557528   -8.5828793    676.41115  0.012109043  0.010603241            5 
 4656000    0.5187731   -8.5597915    676.25134  0.012103582  0.010599698            3 
 4657000   0.50427355   -8.5444842     676.2927  0.012101723  0.010596158            2 
 4658000   0.50508089   -8.5767155    676.46986  0.012102295  0.010592619            4 
 4659000   0.50848181   -8.5700395    675.58232  0.012083822  0.010589077            3 
 4660000   0.50944204   -8.5713189    676.01195  0.012088912   0.01058554            2 
 4661000   0.50794588   -8.5788822     675.6836  0.012080448  0.010582003            2 
 4662000   0.49518615   -8.5565277    675.87858  0.012081342   0.01057847            2 
 4663000   0.49209971   -8.5551604    675.98951  0.012080733  0.010574936            2 
 4664000   0.50382641   -8.5615261    675.81277  0.012074985  0.010571403            4 
 4665000   0.50623435   -8.5759107    675.08862  0.012059461  0.010567874            2 
 4666000   0.51004766   -8.5693045    675.15741  0.012058105  0.010564348            2 
 4667000   0.51180692   -8.5676325    675.63912  0.012064122  0.010560819            2 
 4668000   0.50570684     -8.56737    676.02348    0.0120684  0.010557288            2 
 4669000   0.50514943   -8.5698678    676.71456   0.01207815  0.010553765            3 
 4670000   0.50139814   -8.5678899    675.74476  0.012058258  0.010550243            3 
 4671000   0.50884775    -8.572176    675.36501  0.012048901  0.010546721            1 
 4672000     0.501756   -8.5806223    675.76208  0.012053405  0.010543205            3 
 4673000   0.49671737     -8.56627    674.81194  0.012033882  0.010539687            3 
 4674000   0.50879741   -8.5662692    675.67368  0.012046671   0.01053617            1 
 4675000   0.49703619   -8.5728747    675.58972  0.012042597  0.010532659            3 
 4676000   0.50267535   -8.5716359    675.95807  0.012046587  0.010529147            2 
 4677000   0.50235241   -8.5559853     674.5544  0.012019001  0.010525637            1 
 4678000   0.50549444   -8.5711022    675.75798  0.012037872  0.010522124            2 
 4679000   0.49169179   -8.5564506    676.01471  0.012039872  0.010518614            2 
 4680000   0.49596832   -8.5910368    675.59564  0.012029837  0.010515106            3 
 4681000    0.5013085   -8.5548998    675.80118  0.012030926  0.010511599            2 
 4682000   0.51235694   -8.5682826    675.69151  0.012026404  0.010508091            2 
 4683000   0.50031048   -8.5735731    676.78948  0.012043375  0.010504585            3 
 4684000   0.50899665    -8.582526     676.7279  0.012039708   0.01050108            5 
 4685000   0.50890597   -8.5631054    675.54728  0.012016138   0.01049758            4 
 4686000   0.50444129   -8.5627035    675.31097  0.012009371  0.010494077            3 
 4687000   0.50302126   -8.5795326    674.94216  0.012000252  0.010490576            3 
 4688000   0.50557967   -8.5828083    675.52364  0.012008028   0.01048708            1 
 4689000   0.47382047   -8.5699365    675.56364  0.012006178  0.010483581            2 
 4690000    0.5062924   -8.5735354    675.58078  0.012003923  0.010480082            3 
 4691000   0.50873557   -8.5916538    675.93709  0.012007694  0.010476583            2 
 4692000   0.49527319   -8.5823646    675.88685  0.012004242  0.010473087            2 
 4693000   0.50567635   -8.5731249    675.21709  0.011989791  0.010469594            2 
 4694000   0.51737277   -8.5941367    675.54817  0.011993115  0.010466101            1 
 4695000    0.5160772   -8.5709403    674.35591  0.011969399  0.010462613            2 
 4696000   0.50198285     -8.57941    675.55698  0.011988163  0.010459122            2 
 4697000   0.51013678   -8.5788609     675.5686  0.011985817  0.010455634            2 
 4698000   0.49982967    -8.574451    675.29441  0.011978402  0.010452149            1 
 4699000   0.50279784   -8.5558896    674.39675  0.011959934  0.010448663            1 
 4700000    0.5028932    -8.577836    676.01041     0.011986  0.010445182            2 
 4701000   0.49416953   -8.5828623    675.69138  0.011977795  0.010441699            2 
 4702000    0.4999175   -8.5761728    676.08082   0.01198215  0.010438222            2 
 4703000   0.49478217   -8.5772883    674.29951  0.011948039  0.010434744            2 
 4704000   0.50745176   -8.5750107    675.74913  0.011971179  0.010431268            3 
 4705000   0.49911507   -8.5784676     675.7959  0.011969463   0.01042779            3 
 4706000   0.50047601    -8.574667     675.9244  0.011969195  0.010424318            2 
 4707000   0.50471569   -8.5915439    676.00166   0.01196802  0.010420848            3 
 4708000   0.50242545   -8.5842642    675.54981   0.01195748  0.010417377           10 
 4709000   0.49690755   -8.5790087    673.92512   0.01192619   0.01041391            2 
 4710000   0.49482316   -8.5918562    674.89775  0.011940866  0.010410442            3 
 4711000   0.49689118    -8.588682    675.88032  0.011955712  0.010406976            5 
 4712000   0.50920065   -8.5727352    676.13959   0.01195776  0.010403513            1 
 4713000   0.47980772   -8.5862401    675.32852  0.011940882   0.01040005            3 
 4714000   0.49044059   -8.5911439    674.76542  0.011928394  0.010396587            4 
 4715000   0.50580741   -8.5795322    675.47619  0.011938427  0.010393124            2 
 4716000   0.48993574    -8.589608    674.94957   0.01192659  0.010389661            3 
 4717000   0.49149691   -8.5947864    675.39574  0.011931944  0.010386199            2 
 4718000   0.50287369   -8.5830953    675.18765  0.011925739  0.010382742            4 
 4719000   0.49072301   -8.5828453    675.30292  0.011925248  0.010379284            2 
 4720000   0.49181826   -8.5797306    674.58034  0.011909964  0.010375829            3 
 4721000   0.49064818   -8.5922135    675.68053  0.011926861  0.010372375            1 
 4722000   0.49974279   -8.5599395    675.67033  0.011924155  0.010368925            2 
 4723000   0.50733925   -8.5808854    675.29376  0.011914986  0.010365476            3 
 4724000   0.50045823    -8.583412     675.7609  0.011920705  0.010362026            2 
 4725000   0.50454206   -8.5908255    675.17584  0.011907863  0.010358578            2 
 4726000   0.50055419   -8.5830867     675.1474  0.011904842  0.010355133            3 
 4727000   0.48873007   -8.5814719     675.7289  0.011912575  0.010351685            2 
 4728000   0.49709027   -8.5675372    673.79628  0.011875992  0.010348241            5 
 4729000   0.48578583   -8.5670829     676.2687  0.011917049    0.0103448            4 
 4730000   0.49793326   -8.5856875    675.60715  0.011902874  0.010341358            2 
 4731000   0.50191506   -8.5820106    675.47926  0.011898106  0.010337921            3 
 4732000   0.49809255   -8.5935726    675.55875  0.011896991  0.010334481            4 
 4733000   0.49070473   -8.6086702    674.05732  0.011868042  0.010331041            2 
 4734000   0.49610581   -8.5958726    674.86162  0.011879693  0.010327604            3 
 4735000   0.48780248   -8.5819441    674.93265  0.011878435  0.010324169            3 
 4736000   0.48624656   -8.5823489    675.03681  0.011877759  0.010320736            2 
 4737000   0.48760089    -8.587432    675.44034  0.011882351  0.010317305            1 
 4738000   0.49191747   -8.5776902    673.67666  0.011848823  0.010313874            2 
 4739000   0.49342965   -8.5850616    674.72859   0.01186482  0.010310443            2 
 4740000    0.4861455   -8.5831637    674.81935  0.011863913  0.010307018            1 
 4741000   0.49373495   -8.5912584    675.26741  0.011869286  0.010303589            2 
 4742000    0.4967185   -8.5946094    674.41048  0.011851724  0.010300164            2 
 4743000   0.48439189   -8.5987568    675.94181   0.01187613  0.010296742            3 
 4744000   0.49927021   -8.5889218    674.58396  0.011849775  0.010293319            4 
 4745000   0.49664196    -8.569119    675.28906   0.01185966  0.010289898            2 
 4746000   0.49595751   -8.5992096    674.91376  0.011850572  0.010286475            2 
 4747000   0.49242703   -8.5772293    675.82815  0.011864127  0.010283057            2 
 4748000   0.48894882   -8.6045749    674.90823  0.011845483  0.010279639            3 
 4749000    0.4976181   -8.5794533    675.40798  0.011851758  0.010276228            2 
 4750000   0.48516751   -8.6078969    675.40683  0.011849243  0.010272815            1 
 4751000    0.4893969   -8.5844258    675.66734  0.011851318  0.010269403            1 
 4752000   0.48878542   -8.5737338    674.58563  0.011829855  0.010265992            1 
 4753000   0.49380161   -8.5821395    676.01207  0.011852375  0.010262585            2 
 4754000   0.49055967   -8.6058889    675.44982  0.011840026  0.010259178            2 
 4755000   0.50641764    -8.600639    675.20738  0.011833287  0.010255772            3 
 4756000   0.48353942   -8.5776401    674.13829  0.011812067  0.010252368            2 
 4757000   0.47954979   -8.5973669    674.51157  0.011816123  0.010248966            2 
 4758000   0.48964503   -8.5890907    675.43329  0.011829783  0.010245565            2 
 4759000   0.49142449   -8.5944161    675.10825  0.011821606  0.010242168            2 
 4760000   0.49540483   -8.5788493    676.45629  0.011842722  0.010238771            2 
 4761000   0.48906538   -8.5840517    675.50625  0.011823606  0.010235374            2 
 4762000   0.48642927   -8.5939911    674.84077  0.011809477  0.010231981            1 
 4763000   0.48911624   -8.5818657    675.17864  0.011812909  0.010228588            2 
 4764000   0.49661685   -8.6080357    675.97495  0.011824359  0.010225196            3 
 4765000   0.49092708   -8.6017899    674.26702  0.011792008  0.010221806            2 
 4766000   0.50737073   -8.5716815    673.61651   0.01177816  0.010218418            2 
 4767000   0.48519491   -8.5992865    675.45755  0.011807873  0.010215031            2 
 4768000   0.49052152   -8.6106131    674.70745  0.011792286  0.010211641            1 
 4769000     0.488648   -8.6055441    674.78465  0.011791162  0.010208254            2 
 4770000   0.47545104   -8.5921373    675.17282  0.011795472  0.010204865            5 
 4771000   0.48887069   -8.5861948    674.85179  0.011787392  0.010201477            4 
 4772000   0.48620365   -8.6114295    675.06841  0.011788705  0.010198093            2 
 4773000   0.49337797   -8.5939728    674.07161  0.011768832  0.010194713            2 
 4774000    0.4956314   -8.6065669    674.30238  0.011770395  0.010191331            2 
 4775000   0.49762688   -8.6049642    675.31284  0.011785564   0.01018795            1 
 4776000   0.48844306     -8.59478    673.51369  0.011751704  0.010184575            2 
 4777000   0.49331916   -8.6021897    675.36663  0.011781568  0.010181199            3 
 4778000   0.47666188   -8.5852756    673.42378  0.011745217  0.010177821            2 
 4779000   0.49953963    -8.602571    674.64695  0.011764089  0.010174447            2 
 4780000   0.49101151   -8.5986029    674.58946  0.011760625  0.010171073            3 
 4781000   0.49676785   -8.5949805    674.93881  0.011764255  0.010167701            4 
 4782000    0.4962315   -8.6053814    674.62625  0.011756348  0.010164331            6 
 4783000   0.48907651   -8.6133758    673.39269  0.011732398  0.010160963            5 
 4784000   0.49254543   -8.6067921    675.61934  0.011768732  0.010157599            3 
 4785000   0.48276244   -8.6114531    674.13955  0.011740501  0.010154234            2 
 4786000   0.49191016   -8.6069587    673.72836  0.011730888   0.01015087            2 
 4787000   0.48392475    -8.611348     674.3198  0.011738733  0.010147507            4 
 4788000   0.47382071    -8.611823    674.10279  0.011732505  0.010144145            1 
 4789000   0.48961082   -8.5914347    674.37415  0.011734777  0.010140783            2 
 4790000   0.48112708   -8.6045583    674.99748  0.011743171  0.010137425            2 
 4791000   0.49195023   -8.5814243    674.25505  0.011727807  0.010134067            2 
 4792000    0.4857838   -8.5958387     674.2137   0.01172464  0.010130712            2 
 4793000   0.47829159   -8.5971913    675.10928  0.011737765  0.010127357            2 
 4794000   0.47835634    -8.612361     673.9364  0.011714928  0.010124003            1 
 4795000   0.47840162   -8.6136536    675.37942  0.011737564  0.010120652            1 
 4796000   0.49157648   -8.5896603    675.00036   0.01172853  0.010117303            3 
 4797000   0.49378555   -8.6100699    674.23394  0.011712771  0.010113953            2 
 4798000   0.48376778   -8.5990866    674.51324  0.011715181  0.010110604            1 
 4799000   0.47734305   -8.6029208    675.00705  0.011721314  0.010107258            1 
 4800000   0.48662063   -8.5959043     674.6296   0.01171232  0.010103912            3 
 4801000   0.48372927    -8.594434     674.8904  0.011714407  0.010100569            4 
 4802000   0.48450431   -8.5985545    674.90996  0.011712307  0.010097227            2 
 4803000   0.48987785   -8.6180133     675.4867  0.011719875  0.010093885            2 
 4804000   0.47618059   -8.6045876    674.11754  0.011693685  0.010090544            3 
 4805000   0.48341151   -8.6060746    674.05621  0.011690187  0.010087202            3 
 4806000   0.48725189   -8.5929236    675.09847  0.011705827  0.010083865            2 
 4807000   0.49186287   -8.6060351    674.12865   0.01168658   0.01008053            3 
 4808000   0.47622371   -8.6066888    674.94452   0.01169829  0.010077194            3 
 4809000   0.47137644    -8.597991    674.39715  0.011686372   0.01007386            2 
 4810000   0.49313578    -8.617667    674.72501  0.011689623  0.010070528            2 
 4811000   0.48091466   -8.5910586    674.48547  0.011683044  0.010067195            1 
 4812000   0.48540614   -8.6219643    674.17427  0.011675226  0.010063862            2 
 4813000   0.48058054   -8.6052763    674.38032  0.011676368  0.010060532            3 
 4814000   0.48944296   -8.6051837    673.52052  0.011659059  0.010057203            2 
 4815000   0.49177673    -8.600409    675.86082  0.011697141  0.010053877            2 
 4816000    0.4744566   -8.6082413    673.71003  0.011657496  0.010050551            2 
 4817000   0.48626235   -8.6271504    674.43963  0.011667698  0.010047229            2 
 4818000   0.47906955   -8.6132142    673.89686  0.011655889  0.010043907            1 
 4819000   0.48130591   -8.6018482    674.74129  0.011668072  0.010040585            3 
 4820000   0.48722069    -8.608512    674.07279  0.011654094  0.010037267            1 
 4821000   0.48128279   -8.6201663    674.19008  0.011653704  0.010033952            2 
 4822000   0.47692443   -8.6111161    673.95077  0.011647151  0.010030633            3 
 4823000   0.48341811   -8.6398584    673.96791  0.011645033  0.010027315            2 
 4824000   0.48944991   -8.6105289    673.36162  0.011632145     0.010024            2 
 4825000   0.47845356   -8.6167931    674.04078  0.011641464   0.01002069            1 
 4826000   0.48360634   -8.6165533    674.48433  0.011646711  0.010017383            2 
 4827000   0.48925614   -8.6136997    673.41479  0.011625834  0.010014077            1 
 4828000   0.48962525   -8.6059829    673.95131  0.011632686   0.01001077            2 
 4829000   0.48327131   -8.6095854    674.06646  0.011632264  0.010007462            2 
 4830000   0.48992182    -8.607342    674.65692  0.011640043  0.010004153            3 
 4831000   0.46624551   -8.6289823    674.27741  0.011631088   0.01000085            3 
 4832000   0.47996099   -8.6089495    673.94163   0.01162289 0.0099975451            3 
 4833000   0.47655966   -8.6029814    673.73742  0.011616964 0.0099942433            1 
 4834000   0.47200975   -8.6270942    673.25505  0.011606245 0.0099909426            2 
 4835000   0.47861383   -8.6312476    673.14443  0.011601938 0.0099876391            2 
 4836000   0.47495887   -8.5961994    674.67278  0.011625875 0.0099843415            2 
 4837000   0.48483259   -8.6012152    674.08451  0.011613337 0.0099810473            2 
 4838000   0.49105893   -8.6088959    674.31195  0.011614854 0.0099777555            3 
 4839000   0.47291237   -8.6250738    673.97466  0.011606645 0.0099744619            1 
 4840000   0.48262797    -8.597591    674.43956  0.011612251 0.0099711713            3 
 4841000    0.4802377   -8.6013677    673.52741  0.011594151 0.0099678804            4 
 4842000   0.47926525   -8.6107177     673.4272  0.011590032  0.009964591            3 
 4843000   0.46857278   -8.6089837    673.97681  0.011597096 0.0099613046            3 
 4844000   0.46347381   -8.6130946    674.82128  0.011609229 0.0099580206            1 
 4845000   0.47883436   -8.6097757    673.18635  0.011578713 0.0099547378            3 
 4846000   0.46852505   -8.6288791    673.57264  0.011582966  0.009951451            2 
 4847000   0.47402248   -8.6188368    673.71427  0.011583011 0.0099481686            2 
 4848000   0.47285263    -8.619342     674.2251  0.011589403 0.0099448895            2 
 4849000   0.47075581   -8.6079041      674.108     0.011585  0.009941611            4 
 4850000   0.47230238    -8.620427    673.73903  0.011576272 0.0099383321            2 
 4851000    0.4738425    -8.623476    674.43906  0.011585911 0.0099350542            2 
 4852000   0.45718256   -8.5874478    673.66447   0.01157022 0.0099317777            2 
 4853000   0.47569734   -8.6219002    674.18618  0.011576794 0.0099285015            8 
 4854000   0.47010875   -8.6123684    673.96957   0.01157069 0.0099252299            5 
 4855000   0.47261963     -8.60826    673.92467  0.011567536 0.0099219565            3 
 4856000   0.47952389   -8.6012313    674.21323  0.011570106  0.009918688            2 
 4857000   0.47916884   -8.6087378    674.13536  0.011566388 0.0099154191            2 
 4858000   0.48068182   -8.6095761    673.45991  0.011552421 0.0099121508            1 
 4859000   0.47033345    -8.620999    674.24805   0.01156356 0.0099088869            2 
 4860000   0.47858773   -8.6042177    673.68978  0.011551608  0.009905622            2 
 4861000   0.47746427   -8.6303836    674.20178  0.011558009   0.00990236            3 
 4862000   0.47455721   -8.6144461    673.81556  0.011549012 0.0098990977            1 
 4863000   0.47723046    -8.632491    674.05963   0.01155082 0.0098958375            3 
 4864000   0.47890895   -8.6194877    673.90124  0.011545731 0.0098925783            2 
 4865000   0.46774974   -8.6185726    674.84854  0.011559584  0.009889319            1 
 4866000   0.48784074   -8.6122273    673.90465  0.011541044  0.009886061            2 
 4867000   0.47094466   -8.6181806    673.72663  0.011535625 0.0098828074            4 
 4868000   0.47112098   -8.6204537    672.73141  0.011516218 0.0098795505            1 
 4869000   0.47149774   -8.6041228    672.83001  0.011515541 0.0098762978            1 
 4870000   0.47545681   -8.6441756    673.60998  0.011526523 0.0098730464            1 
 4871000   0.47840907   -8.6138234    673.74011  0.011526382  0.009869798            3 
 4872000    0.4733975   -8.6163325    674.35608  0.011534553 0.0098665474            3 
 4873000    0.4758962   -8.5912105    674.45719  0.011533915 0.0098633004            4 
 4874000   0.47507749   -8.6147988    674.14116  0.011526145 0.0098600538            4 
 4875000    0.4690263   -8.6199404     674.3608  0.011527535 0.0098568095            3 
 4876000   0.47218013    -8.609108    673.37008  0.011508239 0.0098535647            3 
 4877000    0.4733199   -8.6156391     673.3165  0.011504964 0.0098503213            2 
 4878000   0.47813483   -8.6236658    672.80488  0.011493865 0.0098470787            2 
 4879000   0.46237774    -8.613064    673.95394  0.011511135  0.009843839            2 
 4880000   0.48177276   -8.6253348    673.34809  0.011498431 0.0098406011            3 
 4881000   0.46643128    -8.629497    672.81003  0.011486888  0.009837364            2 
 4882000   0.45684755     -8.61403    674.08998  0.011506384  0.009834129            4 
 4883000   0.47782467   -8.6271621    673.92553  0.011501221 0.0098308954            3 
 4884000   0.46743052   -8.6256238    672.69696  0.011477903 0.0098276592            1 
 4885000   0.47963948   -8.6413868    674.25406  0.011502116 0.0098244296            1 
 4886000   0.47688529   -8.6255312     674.0718  0.011496654 0.0098211993            1 
 4887000   0.47425839   -8.6201921    673.61993  0.011486596 0.0098179703            1 
 4888000   0.46812674   -8.6372273    673.71887  0.011485933 0.0098147409            3 
 4889000    0.4637948   -8.6264432    674.87939  0.011503364 0.0098115113            1 
 4890000   0.46106786    -8.640112    673.28648  0.011473866 0.0098082837            2 
 4891000   0.46740382   -8.6337549    674.26804  0.011488244 0.0098050604            2 
 4892000   0.45480789   -8.6395254    672.67666  0.011458788 0.0098018358            3 
 4893000   0.47157898   -8.6279758    673.57375  0.011471724 0.0097986149            7 
 4894000   0.46903098   -8.6252251    673.54205   0.01146884 0.0097953937            2 
 4895000    0.4718865   -8.6204047    674.68621  0.011485976 0.0097921751            3 
 4896000   0.46705799   -8.6202658    673.42302  0.011462129  0.009788958            5 
 4897000   0.45610281   -8.6304307    673.77773  0.011465825 0.0097857402            2 
 4898000    0.4599866   -8.6410915    673.17754  0.011453272 0.0097825233            2 
 4899000   0.46238269   -8.6167518    672.92192  0.011446586   0.00977931            3 
 4900000    0.4633116   -8.6371584    674.16917  0.011465462 0.0097760988            2 
 4901000   0.45556202   -8.6205961    672.76507  0.011439248 0.0097728861            2 
 4902000   0.47478153    -8.621129    673.16522  0.011443717 0.0097696744            3 
 4903000   0.46403349   -8.6381957    672.79351  0.011435065 0.0097664634            4 
 4904000   0.46286815   -8.6367009    674.39198  0.011459896 0.0097632571            3 
 4905000   0.46754331   -8.6359551    673.13286  0.011436168  0.009760048            2 
 4906000   0.46513068   -8.6229216    672.41487  0.011421641 0.0097568402            3 
 4907000    0.4664986   -8.6379306    672.71958  0.011424488 0.0097536363            2 
 4908000   0.46259103   -8.6333998     673.3682  0.011433174 0.0097504314            2 
 4909000   0.46722399   -8.6255967     673.2623  0.011429047 0.0097472279            2 
 4910000   0.46736578   -8.6213509    672.77211    0.0114184 0.0097440257            2 
 4911000   0.46825302   -8.6303014    673.54998  0.011429274 0.0097408257            6 
 4912000   0.47059753   -8.6161603    673.19522  0.011420929 0.0097376269            2 
 4913000   0.46606977   -8.6444409    672.77463   0.01141147  0.009734429            2 
 4914000   0.46683887   -8.6369164    673.13267   0.01141522 0.0097312339            2 
 4915000   0.46666553   -8.6319778    673.63719  0.011421451 0.0097280367            2 
 4916000   0.46410991   -8.6338551     673.9275  0.011424049 0.0097248411            5 
 4917000   0.47149933   -8.6111857    673.27566  0.011410678 0.0097216471            2 
 4918000   0.47046002    -8.630993    673.90971  0.011419102 0.0097184553            2 
 4919000   0.46542536    -8.646015    673.09814  0.011403031 0.0097152649            2 
 4920000   0.46993227   -8.6298242    672.99301  0.011398933 0.0097120758            2 
 4921000   0.46749459   -8.6321756    672.99938  0.011396725 0.0097088894            2 
 4922000   0.46386817   -8.6436838    674.68819  0.011423002 0.0097057032            2 
 4923000   0.46141316   -8.6396135    673.48677  0.011400345 0.0097025171            2 
 4924000   0.47446124   -8.6244598    673.87443   0.01140459 0.0096993347            7 
 4925000   0.46146859   -8.6349863    674.32077  0.011409827 0.0096961522            4 
 4926000   0.46309027   -8.6197187    674.29152  0.011407016 0.0096929734            4 
 4927000   0.46183356   -8.6292337    673.88336  0.011397797 0.0096897953            2 
 4928000   0.46791047   -8.6176694    673.55795  0.011389982 0.0096866173            3 
 4929000   0.46989652   -8.6243049    672.29239  0.011366274 0.0096834406            2 
 4930000   0.45255453   -8.6182905    672.85279  0.011373441 0.0096802688            4 
 4931000   0.46845295   -8.6250747     673.7595  0.011386458  0.009677099            1 
 4932000   0.45784783   -8.6454116    672.14625  0.011356891 0.0096739259            3 
 4933000     0.463309   -8.6384785    674.23161  0.011389817 0.0096707554            1 
 4934000   0.46082359   -8.6340454    674.52998  0.011392548 0.0096675841            3 
 4935000   0.46640568   -8.6420681    673.25326  0.011368681 0.0096644183            3 
 4936000     0.473667   -8.6292101    672.12235  0.011347284 0.0096612495            5 
 4937000   0.46657853    -8.639725    674.10724   0.01137849 0.0096580828            2 
 4938000   0.44326456   -8.6279141    672.72924   0.01135293 0.0096549184            2 
 4939000   0.45845553   -8.6509388    672.34085  0.011344079 0.0096517578            2 
 4940000   0.45842266   -8.6311433    673.25696  0.011357236 0.0096485955            3 
 4941000   0.45810087   -8.6404636    672.75931  0.011346544 0.0096454373            2 
 4942000    0.4626804   -8.6350311    673.60158  0.011358451 0.0096422789            2 
 4943000    0.4516335   -8.6285441    672.71831  0.011341262 0.0096391215            3 
 4944000    0.4549111   -8.6338263    672.87759  0.011341653 0.0096359656            3 
 4945000   0.46691252   -8.6435642    673.95715  0.011357552 0.0096328104            2 
 4946000   0.45641926   -8.6326458     672.4979   0.01133067 0.0096296557            2 
 4947000   0.45763639   -8.6270299     673.1416  0.011339223 0.0096265025            2 
 4948000   0.46678471   -8.6352578    672.72489  0.011329913 0.0096233496            4 
 4949000   0.45016832   -8.6439103    673.27654  0.011336912 0.0096201981            5 
 4950000   0.46435086   -8.6619305    673.46873  0.011337857  0.009617047            2 
 4951000   0.46006321   -8.6555437    673.15326  0.011330257  0.009613898            4 
 4952000   0.46551693   -8.6362947    672.59171   0.01131852 0.0096107502            4 
 4953000   0.46671683    -8.628823    673.98768  0.011339721 0.0096076036            3 
 4954000   0.46269041   -8.6417668    672.82362  0.011317851 0.0096044604            3 
 4955000   0.46119208   -8.6455607     672.9455  0.011317617 0.0096013186            2 
 4956000   0.45817859   -8.6546567    673.94728  0.011332178 0.0095981776            2 
 4957000   0.46222717   -8.6400732    672.55469  0.011306481 0.0095950366            3 
 4958000   0.45714982   -8.6357225    673.24029  0.011315724 0.0095918948            1 
 4959000   0.45868837   -8.6379977    673.79959   0.01132284 0.0095887559            2 
 4960000   0.45587651   -8.6215522    672.42396  0.011297445 0.0095856173            2 
 4961000   0.45395908   -8.6441084    672.71372  0.011300036 0.0095824815            2 
 4962000    0.4589532   -8.6529007    673.10187  0.011304277 0.0095793471            6 
 4963000   0.45656417   -8.6364747    673.39211  0.011306873 0.0095762139            1 
 4964000    0.4518552   -8.6400651     673.5591  0.011307398 0.0095730818            3 
 4965000   0.45688768   -8.6380031    673.65963  0.011306808 0.0095699535            3 
 4966000   0.45225551   -8.6364822    672.95603  0.011292724 0.0095668234            2 
 4967000   0.45887035   -8.6561534    674.51895  0.011316673 0.0095636945            3 
 4968000   0.46304446    -8.637056    673.07258  0.011290133 0.0095605656            2 
 4969000   0.46140722   -8.6426196     673.6364  0.011297317 0.0095574411            3 
 4970000   0.44944276    -8.639426    672.05026  0.011268448 0.0095543158            3 
 4971000   0.45098184   -8.6483613    673.67869   0.01129348 0.0095511932            5 
 4972000   0.46504835   -8.6448726    672.88082  0.011277836 0.0095480701            2 
 4973000   0.45990959    -8.653384    672.87033  0.011275393 0.0095449488            2 
 4974000    0.4546539   -8.6554578    672.29691  0.011263519 0.0095418293            2 
 4975000    0.4515713   -8.6351788    672.37759  0.011262606 0.0095387143            4 
 4976000   0.46223864   -8.6463956    672.80629  0.011267522 0.0095355973            3 
 4977000   0.44966395   -8.6669874    672.71427  0.011263718 0.0095324813            3 
 4978000   0.45956645   -8.6489977    672.57423  0.011259111 0.0095293678            2 
 4979000   0.45826261   -8.6513904    672.44594  0.011254702  0.009526251            2 
 4980000   0.45793344   -8.6322577    672.30978  0.011250164 0.0095231388            3 
 4981000   0.46644928   -8.6664338    672.88289  0.011257493 0.0095200281            3 
 4982000   0.45156334   -8.6439911     671.8188  0.011237435 0.0095169179            4 
 4983000   0.45962936   -8.6589561    672.71541  0.011250174 0.0095138108            3 
 4984000   0.45500911   -8.6483714    672.64809  0.011246791 0.0095107046            4 
 4985000   0.45519229   -8.6462538    672.38402  0.011240121  0.009507597            2 
 4986000    0.4541458   -8.6426422    672.97377  0.011247723 0.0095044942            2 
 4987000   0.45918975   -8.6517182    673.04076  0.011246587 0.0095013915            4 
 4988000   0.45825753   -8.6442402    673.07579  0.011244918 0.0094982885            1 
 4989000   0.45466173   -8.6459165    672.40768  0.011231504 0.0094951861            3 
 4990000   0.44977586   -8.6354295    672.63843  0.011233107 0.0094920849            1 
 4991000   0.45387055   -8.6545449    672.83765  0.011234182 0.0094889858            3 
 4992000   0.45009894   -8.6424493    672.24714  0.011222074 0.0094858872            5 
 4993000   0.44618718   -8.6505036    671.74605  0.011211463 0.0094827914            4 
 4994000   0.45481488   -8.6513874    672.91949  0.011228799  0.009479695            2 
 4995000   0.44866409   -8.6644795    673.39013  0.011234403 0.0094766022            2 
 4996000   0.45251032   -8.6457267    672.63965  0.011219637 0.0094735107            3 
 4997000   0.44712348   -8.6441382     673.2377  0.011227365 0.0094704162            2 
 4998000   0.45386305   -8.6535736    673.37054  0.011227333 0.0094673267            2 
 4999000    0.4493793   -8.6693281    672.86797  0.011216709 0.0094642372            4 
 5000000   0.44421212    -8.661101    672.71453  0.011211909 0.0094611476            2 
 5001000   0.44508168   -8.6570518    672.65906  0.011208743 0.0094580597            5 
 5002000   0.44636814   -8.6539541    672.65863  0.011206495 0.0094549744            1 
 5003000    0.4449064   -8.6526413    672.39237   0.01119982 0.0094518897            3 
 5004000   0.44461974   -8.6526401    672.39809  0.011197677 0.0094488081            6 
 5005000    0.4438722   -8.6442857    672.88377  0.011203526 0.0094457258            2 
 5006000   0.45116983   -8.6613739    671.70702  0.011181699 0.0094426456            2 
 5007000   0.45349219   -8.6457646      672.348  0.011190134 0.0094395665            3 
 5008000   0.44205024   -8.6667488    672.53382  0.011190991 0.0094364904            3 
 5009000   0.44725476   -8.6610473     671.7274  0.011175341 0.0094334144            3 
 5010000   0.44663229   -8.6305843    672.68342  0.011189012 0.0094303376            5 
 5011000   0.45080086   -8.6601076    672.76548  0.011188144 0.0094272664            5 
 5012000   0.45017886   -8.6600369    672.27972  0.011177835  0.009424194            2 
Loop time of 12071.7 on 48 procs for 5000000 steps with 4000 atoms

Performance: 71572.647 tau/day, 414.194 timesteps/s
99.4% CPU use with 48 MPI tasks x no OpenMP threads

MPI task timing breakdown:
Section |  min time  |  avg time  |  max time  |%varavg| %total
---------------------------------------------------------------
Pair    | 761.73     | 819.72     | 873.89     | 104.5 |  6.79
Neigh   | 78.453     | 81.94      | 87.038     |  20.4 |  0.68
Comm    | 748.77     | 800.86     | 865.27     | 106.3 |  6.63
Output  | 18.199     | 18.204     | 18.294     |   0.3 |  0.15
Modify  | 10213      | 10242      | 10272      |  14.1 | 84.84
Other   |            | 109.1      |            |       |  0.90

Nlocal:        83.3333 ave          91 max          77 min
Histogram: 6 2 7 2 7 12 5 3 2 2
Nghost:        2058.60 ave        2079 max        2030 min
Histogram: 2 0 3 4 5 10 11 5 7 1
Neighs:        13308.4 ave       14801 max       11773 min
Histogram: 2 5 6 3 5 8 7 8 2 2
FullNghs:      26616.5 ave       29047 max       24520 min
Histogram: 5 4 6 4 6 8 8 3 2 2

Total # of neighbors = 1277593
Ave neighs/atom = 319.39825
Neighbor list builds = 267878
Dangerous builds = 1

#clear
#
#next RN
#
#jump SELF
Total wall time: 3:21:14
