
units lj                  # Use reduced LJ style units
atom_style atomic         # Uncharged point particles
atom_modify map hash      # Needed for indexing of clusters etc
                          # Used to be able to find where atoms are in relation to each other.

lattice fcc 1.0 spacing 1 1 1
Lattice spacing in x,y,z = 1.5874011 1.5874011 1.5874011
region box block 0 10 0 10 0 10 units lattice
create_box 2 box
Created orthogonal box = (0.0000000 0.0000000 0.0000000) to (15.874011 15.874011 15.874011)
  3 by 4 by 4 MPI processor grid
create_atoms 1 box
Created 4000 atoms
  using lattice units in orthogonal box = (0.0000000 0.0000000 0.0000000) to (15.874011 15.874011 15.874011)
  create_atoms CPU = 0.003 seconds
set type 1 type/fraction 2 0.71 78393
Setting atom values ...
  2865 settings made for type/fraction
mass 1 1.0
mass 2 1.0
pair_style lj/cut  3.5
pair_modify tail  yes
pair_coeff 1  1  1.0  1.0   # Intearaction between 1 and 1 set with epsilon = 1 and sigma = 1
pair_coeff 1  2  1.5  0.8
pair_coeff 2  2  0.5  0.88

write_data data.0
System init for write_data ...
Neighbor list info ...
  update every 1 steps, delay 10 steps, check yes
  max neighbors/atom: 2000, page size: 100000
  master list distance cutoff = 3.8
  ghost atom cutoff = 3.8
  binsize = 1.9, bins = 9 9 9
  1 neighbor lists, perpetual/occasional/extra = 1 0 0
  (1) pair lj/cut, perpetual
      attributes: half, newton on
      pair build: half/bin/atomonly/newton
      stencil: half/bin/3d
      bin: standard
WARNING: Not all mixed pair coeffs generated from mixing. Use write_data with 'pair ij' option to store all pair coeffs. (../write_data.cpp:312)


#############################
#   M E L T   S Y S T E M   #
#############################

velocity all create 2.4 2750902 mom yes dist gaussian # Assign velocities
                                                    # Temperature 2.4, random number seed, zero linear momentum
                                                                                # Gaussian distribution

timestep 0.002   # simulation timestep
thermo 1000       # output thermodynamic data every 1000 steps bf 100

# Define a fix  in this case with index 1 applied to all
# particles in the simulation. This fix is for simulations
# in the anisotropic NPT ensemble. Note that we use the MTK
# correction.
fix 1 all npt temp 2.4 2.4 0.1 iso 5.68 5.68 0.5 mtk yes tchain 5 pchain 5 # Use NPT ensemble
                                                                         # Set temperature and pressure and damping
                                                                         # Numbers of thermostats in chain and in barostat
run 10000          # run for 10000 steps
Per MPI rank memory allocation (min/avg/max) = 3.642 | 3.644 | 3.648 Mbytes
Step Temp E_pair E_mol TotEng Press Volume 
       0          2.4   -4.1166387            0   -0.5175387   -3.7043072         4000 
    1000    2.3976888   -3.6987348            0  -0.10310066    5.7865743     3658.738 
    2000    2.3888042   -3.6860558            0  -0.10374538    5.5306723    3697.6785 
    3000    2.4047428   -3.6973418            0 -0.091129377    6.1582223    3632.7783 
    4000    2.3763301   -3.7109236            0  -0.14731953    5.4260012    3703.7457 
    5000    2.3360697   -3.7319988            0  -0.22877029    5.8565805    3641.6335 
    6000    2.4024531   -3.7015443            0 -0.098765576    5.6513656     3668.499 
    7000    2.4233592   -3.7048658            0 -0.070735789    5.7301156    3670.7432 
    8000    2.4366518   -3.6846459            0    -0.030582    5.6681181    3691.9082 
    9000    2.3472486   -3.7262294            0  -0.20623673    5.3981604    3661.4674 
   10000    2.4250789   -3.7501989            0  -0.11348993    5.8553365    3643.0935 
Loop time of 2.80205 on 48 procs for 10000 steps with 4000 atoms

Performance: 616690.257 tau/day, 3568.809 timesteps/s
99.5% CPU use with 48 MPI tasks x no OpenMP threads

MPI task timing breakdown:
Section |  min time  |  avg time  |  max time  |%varavg| %total
---------------------------------------------------------------
Pair    | 1.1659     | 1.252      | 1.3449     |   3.5 | 44.68
Neigh   | 0.21366    | 0.22103    | 0.24743    |   1.1 |  7.89
Comm    | 0.77262    | 0.94787    | 1.0802     |   8.1 | 33.83
Output  | 0.00024869 | 0.00025437 | 0.00031539 |   0.0 |  0.01
Modify  | 0.26929    | 0.3654     | 0.46983    |  10.4 | 13.04
Other   |            | 0.01555    |            |       |  0.56

Nlocal:        83.3333 ave          95 max          74 min
Histogram: 2 7 9 6 5 5 5 3 4 2
Nghost:        1749.79 ave        1790 max        1706 min
Histogram: 2 2 7 8 7 3 2 8 7 2
Neighs:        10486.2 ave       12537 max        9262 min
Histogram: 4 9 10 5 7 3 2 7 0 1

Total # of neighbors = 503340
Ave neighs/atom = 125.83500
Neighbor list builds = 902
Dangerous builds = 172

# Equilibrate just above the melting temperature to avoid step fn in T

fix 1 all npt temp 1.25 1.25 0.1 iso 5.68 5.68 0.5 mtk yes tchain 5 pchain 5
run 2000
Per MPI rank memory allocation (min/avg/max) = 3.644 | 3.646 | 3.649 Mbytes
Step Temp E_pair E_mol TotEng Press Volume 
   10000    2.4250789   -3.7501989            0  -0.11348993    5.8553365    3643.0935 
   11000    1.2250165   -5.4575982            0   -3.6205328    5.4827209    2811.5908 
   12000    1.2713967   -5.4975157            0   -3.5908974    5.9570144     2781.428 
Loop time of 0.64709 on 48 procs for 2000 steps with 4000 atoms

Performance: 534083.529 tau/day, 3090.761 timesteps/s
99.6% CPU use with 48 MPI tasks x no OpenMP threads

MPI task timing breakdown:
Section |  min time  |  avg time  |  max time  |%varavg| %total
---------------------------------------------------------------
Pair    | 0.2907     | 0.31813    | 0.34794    |   2.1 | 49.16
Neigh   | 0.040877   | 0.043543   | 0.048771   |   0.7 |  6.73
Comm    | 0.20157    | 0.23646    | 0.2648     |   2.8 | 36.54
Output  | 5.2082e-05 | 5.4626e-05 | 7.058e-05  |   0.0 |  0.01
Modify  | 0.040613   | 0.044027   | 0.048686   |   1.1 |  6.80
Other   |            | 0.004876   |            |       |  0.75

Nlocal:        83.3333 ave          90 max          75 min
Histogram: 2 1 4 3 8 8 9 2 7 4
Nghost:        2098.96 ave        2123 max        2080 min
Histogram: 2 4 7 8 11 4 5 4 0 3
Neighs:        13729.2 ave       15116 max       12250 min
Histogram: 2 4 4 7 8 4 6 7 2 4

Total # of neighbors = 659002
Ave neighs/atom = 164.75050
Neighbor list builds = 144
Dangerous builds = 7

#############################
# L I N E A R  Q U E N C H  #
#############################

# Define solid atoms. This closely follows ten Wolde  Ruiz-Montero and Frenkel  Faraday Discuss  1996  104  93-110
# Compute components of the per-atom q6 vector
compute q6 all orientorder/atom degrees 1 6 components 6 nnn NULL cutoff 1.3 # compute the Q6 parameter.
                                                                             # Use all neighbours within 1.3 unit cell.

# get number of connections
compute coord_number all coord/atom orientorder q6 0.5

# An atom is solid if it has 8 or more connections (of a possible 14)
variable is_solid atom c_coord_number>=8
group solid dynamic all var is_solid    # Must be dynamic to update
dynamic group solid defined

# do clustering
compute cluster solid cluster/atom 1.3 # Create a cluster where all atoms within are solid and max 1.3 units from another member

# define chunks one chunk per cluster
compute clus_chunks solid chunk/atom c_cluster nchunk every compress yes  # Says which atoms are in which chunk

# count the size of each chunk
compute size_chunks solid property/chunk clus_chunks count


# Find the maximum entry in the vector of chunk sizes
variable max_n equal max(c_size_chunks)


# Thermo style which includes this variable
# thermo_style custom step temp pe vol v_max_n

thermo ${N}  # Print the thermo information every 100 steps
thermo 1000  

# Reset the npt fix at a lower temperature (below freezing)
fix 1  all npt temp  ${temp} ${temp}  0.1  iso  5.68  5.68  0.5  mtk yes tchain  5  pchain  5
fix 1  all npt temp  0.45 ${temp}  0.1  iso  5.68  5.68  0.5  mtk yes tchain  5  pchain  5
fix 1  all npt temp  0.45 0.45  0.1  iso  5.68  5.68  0.5  mtk yes tchain  5  pchain  5

dump dmp2 all dcd ${N} traj.dcd
dump dmp2 all dcd 1000 traj.dcd


compute msd all msd com yes
variable twopoint equal c_msd[4]/6/(step*dt+1.0e-6)
fix 9 all vector 10 c_msd[4]
variable fit equal slope(f_9)/6/(10*dt)
thermo_style custom step temp pe c_msd[4] v_twopoint v_fit v_max_n

fix 1 all npt temp 1.25 ${temp} 0.1 iso 5.68 5.68 0.5 mtk yes tchain 5 pchain 5
fix 1 all npt temp 1.25 0.45 0.1 iso 5.68 5.68 0.5 mtk yes tchain 5 pchain 5
run 5000000 # 5000000  # Run for this many steps
Neighbor list info ...
  update every 1 steps, delay 10 steps, check yes
  max neighbors/atom: 2000, page size: 100000
  master list distance cutoff = 3.8
  ghost atom cutoff = 3.8
  binsize = 1.9, bins = 8 8 8
  4 neighbor lists, perpetual/occasional/extra = 1 3 0
  (1) pair lj/cut, perpetual
      attributes: half, newton on
      pair build: half/bin/atomonly/newton
      stencil: half/bin/3d
      bin: standard
  (2) compute orientorder/atom, occasional
      attributes: full, newton on
      pair build: full/bin/atomonly
      stencil: full/bin/3d
      bin: standard
  (3) compute coord/atom, occasional
      attributes: full, newton on
      pair build: full/bin/atomonly
      stencil: full/bin/3d
      bin: standard
  (4) compute cluster/atom, occasional
      attributes: full, newton on
      pair build: full/bin/atomonly
      stencil: full/bin/3d
      bin: standard
Per MPI rank memory allocation (min/avg/max) = 9.843 | 9.850 | 9.855 Mbytes
Step Temp PotEng c_msd[4] v_twopoint v_fit v_max_n 
   12000    1.2713967   -5.4975157 1.8273963e-30 1.2690251e-32 8.3333333e+20            1 
   13000    1.2421115   -5.4980981   0.63169022 0.0040492961   0.05219311            4 
   14000    1.2524038   -5.4944942     1.215687  0.007236232  0.050911438            3 
   15000      1.27863   -5.5222868    1.8535105   0.01029728  0.050764584            3 
   16000    1.2589144   -5.5099891    2.4794732  0.012913923  0.051198609            2 
   17000    1.2476864   -5.4233454    3.1503566  0.015442924  0.051867592            1 
   18000    1.2840141   -5.4744213    3.8327636  0.017744276  0.052878822            3 
   19000    1.2618907   -5.4816162    4.5107017  0.019783779  0.053473821            4 
   20000    1.2689048   -5.5243891    5.1320805  0.021383668  0.053877066            2 
   21000    1.2381697   -5.4965155    5.7271568  0.022726812  0.053815269            5 
   22000    1.2669869   -5.5133602    6.3323753   0.02398627    0.0535197            3 
   23000    1.2233371   -5.5041646    6.9458462  0.025166109  0.053322306            3 
   24000      1.25047   -5.5075508    7.5973661  0.026379743  0.053050111            1 
   25000    1.2720039   -5.4918384    8.3691203  0.027897067  0.053142451            1 
   26000    1.2511671   -5.4798007    9.0498266  0.029005854  0.053435829            3 
   27000     1.251789     -5.55147    9.6826875  0.029884837  0.053651253            2 
   28000    1.2371318   -5.4723738    10.237717  0.030469394  0.053641469            2 
   29000    1.2280758   -5.5019318    10.931663  0.031412825  0.053648056            2 
   30000    1.2549307    -5.476489    11.648659  0.032357386  0.053750706            2 
   31000    1.2574087   -5.5279107     12.23075  0.032878359  0.053837556            1 
   32000    1.2483354    -5.489498    12.834939  0.033424319  0.053870168            2 
   33000    1.2652486   -5.5303605     13.32901  0.033659117  0.053811427            3 
   34000    1.2576085   -5.5495786    13.996272  0.034304588   0.05367255            2 
   35000    1.2341205   -5.5511464    14.491318  0.034503138  0.053527814            3 
   36000    1.2582045   -5.4946518    15.304491  0.035427063  0.053401284            5 
   37000    1.2666751   -5.5297156    15.874108  0.035752495  0.053292007            4 
   38000    1.2344108   -5.5359782    16.534941  0.036260836  0.053249433            2 
   39000    1.2248676   -5.5558143    17.092126  0.036521637  0.053238343            2 
   40000    1.2514584   -5.5026409    17.942203  0.037379589  0.053190589            3 
   41000    1.2490013   -5.5426177    18.535491  0.037673762  0.053200061            2 
   42000    1.2652017   -5.5370704    19.111943  0.037920521   0.05319054            2 
   43000    1.2339631   -5.4681486    19.883525  0.038533962  0.053205121            6 
   44000    1.2708699    -5.552891     20.44985  0.038730776  0.053260502            6 
   45000    1.2671321   -5.5141176    21.064223  0.039007819  0.053280366            2 
   46000    1.2338072   -5.5424362     21.52146  0.038988152  0.053225386            2 
   47000    1.2487989   -5.4701084    22.389076  0.039696942  0.053198162            1 
   48000    1.2320854   -5.4971483    22.912793  0.039779155  0.053180844            2 
   49000    1.2283483   -5.5500369    23.388391  0.039776175  0.053108484            5 
   50000    1.2463031   -5.5398343    24.104823  0.040174705   0.05305946            1 
   51000    1.2043112   -5.5234794    24.636623  0.040255919  0.053011686            3 
   52000    1.2623919   -5.5288071    25.269806  0.040496484  0.052946119            2 
   53000    1.2621906   -5.5079987    26.034653  0.040934988   0.05293138            1 
   54000    1.2361652   -5.5464365     26.57166  0.041005647  0.052906063            2 
   55000    1.2504181   -5.4838585    27.191132  0.041198684  0.052871817            1 
   56000    1.2630883   -5.5205564    27.690652  0.041206328  0.052830381            2 
   57000    1.2238589    -5.538057    28.368215  0.041473998  0.052763247            3 
   58000    1.2627732   -5.4951129    29.071833  0.041769875  0.052724683            2 
   59000    1.2550036   -5.4882184     29.58503  0.041786765   0.05268514            7 
   60000    1.2425789   -5.5022092    30.280496  0.042056244  0.052658137            4 
   61000    1.2222085    -5.527652    30.873207  0.042176512  0.052641659            5 
   62000    1.2493466   -5.5222776    31.610862  0.042487718  0.052626644            2 
   63000    1.2364162   -5.5325774    32.058137  0.042404943  0.052607588            3 
   64000    1.2526824   -5.4941091    32.728256  0.042614917  0.052563523            2 
   65000    1.2232368   -5.4905592    33.314969  0.042711499  0.052524913            3 
   66000    1.2340668   -5.5083665    33.921874  0.042830649  0.052480037            3 
   67000    1.2377212   -5.5068666    34.572407  0.043000506  0.052438011            1 
   68000    1.2068163   -5.5290981    35.015491   0.04291114   0.05237838            2 
   69000    1.2425213   -5.5614299    35.683067  0.043095491   0.05233695            2 
   70000    1.2102616   -5.4959589    36.196366  0.043090911  0.052289137            2 
   71000    1.2295516   -5.5304418    36.754997  0.043139667  0.052221399            2 
   72000    1.2644002   -5.5183694    37.486902  0.043387618  0.052168988            2 
   73000    1.2428344   -5.5329912    38.053134  0.043439651  0.052124682            1 
   74000    1.2446736    -5.553211    38.528221  0.043387635  0.052062929            2 
   75000    1.2362157   -5.5411324     38.95214  0.043280156  0.051989721            3 
   76000    1.2268226   -5.5422383    39.713516  0.043545522  0.051937151            2 
   77000    1.2565703   -5.5571425    40.276264   0.04358903  0.051894825            3 
   78000    1.2638918   -5.5248282    40.959318  0.043759955  0.051879705            2 
   79000    1.2623169   -5.5078211    41.667682  0.043953251  0.051844179            2 
   80000    1.2421634   -5.5129709    42.271775  0.044033099  0.051800855            2 
   81000    1.2596292   -5.5165655     42.71339  0.043943817  0.051766367            3 
   82000    1.2586114   -5.5179963    43.377648  0.044082975  0.051727078            2 
   83000    1.2348096   -5.5346927    43.945805  0.044122294   0.05168942            2 
   84000    1.2457898   -5.5409887    44.242572   0.04389144  0.051631604            2 
   85000      1.23676   -5.4710098    45.115069   0.04423046  0.051575292            2 
   86000    1.2126256   -5.5403011    45.488143  0.044077658  0.051519715            4 
   87000    1.2307569   -5.5422966    45.929621  0.043993889  0.051462012            3 
   88000    1.2423646   -5.5252699    47.066021  0.044570096  0.051418801            2 
   89000    1.2442897   -5.5225814    47.681827  0.044645905  0.051391294            2 
   90000    1.2278245   -5.5323679    48.103053  0.044539864  0.051360367            2 
   91000    1.2301011   -5.5581457    49.035069  0.044903909  0.051341961            2 
   92000    1.2440581   -5.5550828    49.364036    0.0447138  0.051333116            1 
   93000    1.2399967   -5.5511444    49.995348  0.044798698  0.051313498            2 
   94000    1.2559763   -5.5466799     50.51994  0.044787181  0.051288793            4 
   95000    1.2581958   -5.5248408    51.038526  0.044770637  0.051259656            2 
   96000    1.2397025   -5.5837513    51.455117    0.0446659   0.05122121            1 
   97000    1.2463377   -5.5408994    52.683239  0.045260514  0.051202039            2 
   98000    1.2497319   -5.5311231     53.09193  0.045146199  0.051191954            4 
   99000    1.2326221      -5.5365    53.469588  0.045008071  0.051170867            3 
  100000    1.2290194   -5.5479361    53.904737  0.044920614  0.051139522            4 
  101000    1.2178493    -5.524532    54.417175  0.044898659  0.051100122            2 
  102000    1.2811141   -5.5128865    55.390202  0.045253432  0.051065304            1 
  103000    1.2332164   -5.5413092    55.744765  0.045100942  0.051038627            5 
  104000    1.2313109   -5.5656205    56.403603  0.045195195  0.051020497            3 
  105000    1.2179108   -5.5246403    56.951815  0.045199853  0.050995293            3 
  106000    1.2225982   -5.5573775    57.649987  0.045322317  0.050971884            1 
  107000    1.2347479   -5.5745229    57.830652  0.045039448  0.050938441            1 
  108000    1.2266889   -5.5519525    58.797692   0.04536859  0.050906317            6 
  109000    1.2381676   -5.5534496     59.61442  0.045576774  0.050885441            3 
  110000     1.214248   -5.5085952    60.589178  0.045900892  0.050875712            1 
  111000    1.2287582   -5.5608265    60.722189  0.045587229  0.050867952            1 
  112000    1.2572649   -5.5426129    61.789987  0.045974692   0.05087425            4 
  113000    1.2444164   -5.4610651    62.985755  0.046449672  0.050895837            3 
  114000    1.2509865   -5.5666757    63.156192  0.046166807  0.050912533            2 
  115000    1.2056229   -5.5508719    63.969797  0.046354925  0.050933739            3 
  116000    1.2633086    -5.540772    64.447535  0.046298517  0.050950843            1 
  117000    1.2278942   -5.5645242    64.911835  0.046233501  0.050963518            2 
  118000    1.2539241   -5.5565276    65.271961  0.046096018  0.050967268            6 
  119000    1.2433479   -5.4957332     66.05526  0.046257185  0.050966656            2 
  120000    1.2454415   -5.5681859    66.263093  0.046016037  0.050959951            3 
  121000    1.2558536   -5.5434212     66.78905  0.045997968   0.05095331            3 
  122000    1.2336975    -5.551768     67.48239  0.046094529  0.050942487            1 
  123000    1.2495667   -5.5355092     68.19794  0.046204567  0.050937558            2 
  124000    1.1861381   -5.5137961      69.1178  0.046450134  0.050936281            1 
  125000    1.2670879   -5.5475326    69.521859  0.046347906  0.050934824            4 
  126000    1.2416833   -5.5834481    69.633543   0.04605393  0.050923301            3 
  127000    1.2178703   -5.5146354    70.621463  0.046339542  0.050913143            2 
  128000    1.2288053   -5.5300167    71.222105  0.046368558  0.050905352            3 
  129000    1.2222732   -5.5205681    71.858941  0.046420504  0.050901776            1 
  130000    1.2107249   -5.5656884    72.471886  0.046456337   0.05089899            3 
  131000    1.2265153    -5.539101     73.05216  0.046470839  0.050886071            1 
  132000    1.2175616   -5.5714716    73.111424  0.046156202  0.050878185            2 
  133000    1.2299854   -5.5527088    74.165375  0.046469533  0.050867681            3 
  134000    1.2413309   -5.5178829    74.734777  0.046476851  0.050856957            2 
  135000    1.2598687   -5.5701703    75.208392  0.046424933  0.050850877            4 
  136000    1.2343486   -5.5280689    75.946671   0.04653595   0.05084119            3 
  137000    1.2328094   -5.5565187    76.951754  0.046807636  0.050840536            1 
  138000    1.2397936   -5.5312161    77.672772  0.046903848  0.050845777            6 
  139000    1.2280279   -5.5613559    78.366613  0.046982382  0.050851508            2 
  140000     1.238182   -5.5299287    78.877445   0.04695086  0.050859696            2 
  141000    1.2326818    -5.547007    79.502043  0.046987023  0.050867396            3 
  142000     1.234071   -5.5314978    80.584417  0.047291325  0.050879413            4 
  143000    1.2256613   -5.5719235    80.721885  0.047040725  0.050890666            2 
  144000    1.2304076   -5.5423153    81.415267  0.047115316  0.050895739            2 
  145000    1.2291851   -5.4990991    82.016688  0.047136027  0.050902796            2 
  146000    1.2381069   -5.5458041     82.63735  0.047167437  0.050905244            2 
  147000    1.2056543   -5.5611865    83.063634  0.047088228  0.050901303            2 
  148000    1.2293861   -5.5734089    83.262586  0.046882086  0.050899824            1 
  149000    1.2096693   -5.5406943    84.565837  0.047296329  0.050901645            2 
  150000     1.233416   -5.5649373    84.995415  0.047219675  0.050905288            3 
  151000    1.2286122   -5.5012619    86.552972  0.047766541  0.050916663            1 
  152000    1.2181218   -5.5488458    86.067048  0.047185881  0.050920831            5 
  153000    1.2322019     -5.56781    86.460893   0.04709199  0.050919057            2 
  154000    1.2225618   -5.5454836     86.66174  0.046894881  0.050909557            2 
  155000    1.1843744   -5.5526133    87.164686  0.046862734  0.050895836            1 
  156000    1.2409666   -5.5185189    87.673177  0.046833962  0.050878216            2 
  157000    1.2442287   -5.5704246    88.389473  0.046915856  0.050858704            2 
  158000    1.2127799   -5.5775828    88.997793  0.046939764  0.050839179            3 
  159000     1.205366   -5.5766811     89.14329  0.046720802  0.050813811            2 
  160000    1.1959611   -5.5334971    89.903441  0.046824708  0.050788621            4 
  161000     1.216594   -5.5635909    90.505791  0.046845648  0.050775397            2 
  162000     1.208008   -5.5934948    91.053424  0.046838181  0.050755396            2 
  163000    1.2391892   -5.5442635    92.798857  0.047443178  0.050744504            2 
  164000    1.2178256   -5.5679723    92.898723  0.047204635  0.050740835            3 
  165000     1.211094   -5.5432185    93.760342  0.047353708  0.050736287            3 
  166000    1.2516408   -5.5778759    94.149879  0.047263995  0.050732772            2 
  167000    1.2012221   -5.5329577    94.990403  0.047400401  0.050730588            3 
  168000    1.2259436   -5.5677548    95.539126  0.047390439  0.050729021            2 
  169000     1.243816    -5.533135    96.103578  0.047388352   0.05072948            1 
  170000     1.229382   -5.5957226    96.422937  0.047266145  0.050726663            3 
  171000    1.2066081   -5.5607169     97.64877   0.04758712  0.050724515            2 
  172000    1.2368361   -5.6024946    97.628835  0.047300792   0.05072394            3 
  173000    1.2095014   -5.6121111    97.820026  0.047119473  0.050715036            2 
  174000    1.2115272   -5.5869067      98.5695  0.047207615  0.050704677            2 
  175000      1.24262   -5.5387394    99.372109  0.047320052  0.050697515            4 
  176000    1.2249131    -5.577615    99.958471  0.047328821   0.05068953            4 
  177000    1.2001358   -5.5774196    100.79359  0.047454608  0.050685858            2 
  178000    1.2013915   -5.6117781    100.88721  0.047231841  0.050677603            3 
  179000    1.2262374   -5.5616914    101.64011  0.047318488  0.050665377            6 
  180000    1.2337703   -5.5538342    102.34177  0.047380448  0.050650836            8 
  181000    1.2198655   -5.5631091     102.4845  0.047184393  0.050636046            1 
  182000    1.2382826   -5.5064084    103.67998  0.047472519  0.050626618            2 
  183000    1.2314554   -5.5400766    104.48574  0.047580026   0.05061281            2 
  184000    1.1876817   -5.5357141    104.48678  0.047321913  0.050598595            3 
  185000    1.2161368   -5.5613914    105.17005  0.047373897  0.050585627            3 
  186000    1.1944146   -5.5546862    105.62086  0.047321174  0.050576544            2 
  187000    1.2342937     -5.55424    106.42436  0.047426187  0.050565223            3 
  188000    1.2248652   -5.5602632    106.70056  0.047296346  0.050553512            1 
  189000    1.2124098   -5.5715851    107.23869  0.047283373  0.050540927            4 
  190000    1.2307498   -5.5661857    108.19788  0.047455211  0.050526817            2 
  191000    1.2451998   -5.5394006    108.05138  0.047142836  0.050515316            3 
  192000    1.2097172   -5.5624659     108.9668  0.047294617  0.050500959            2 
  193000    1.2262719   -5.5782297    109.49685  0.047278434  0.050488822            5 
  194000    1.2269244   -5.5624029    110.01387  0.047256816  0.050473442            2 
  195000    1.2210158   -5.6021487    110.97217  0.047424006  0.050457911            3 
  196000    1.2331922   -5.5268835    111.38901  0.047359272  0.050442582            3 
  197000    1.2433484   -5.5293926     112.3943  0.047544121  0.050427768            4 
  198000     1.230861   -5.5688912    112.23748  0.047237995   0.05041106            2 
  199000    1.2030488   -5.5917057    112.46799  0.047097149  0.050391301            3 
  200000    1.2409242   -5.5879688    112.88422   0.04703509  0.050368834            3 
  201000    1.2254387   -5.5706503    113.31927  0.046981457  0.050343989            4 
  202000    1.2268478   -5.6148351    113.65072  0.046885609  0.050315555            4 
  203000    1.1983654   -5.5607955    114.48268  0.046996176  0.050288955            2 
  204000    1.2338616   -5.5582408    114.96439  0.046962576  0.050262724            3 
  205000    1.2128505   -5.5267428    115.85262  0.047094563  0.050236605            3 
  206000    1.2029771   -5.5687978    115.37526   0.04667284  0.050211168            3 
  207000    1.1948149   -5.5547857    116.27011  0.046807611  0.050180113            5 
  208000    1.2286557   -5.5553406    117.54951  0.047095157  0.050154968            2 
  209000    1.2046171   -5.5728784    117.38989  0.046806176   0.05013132            2 
  210000    1.2372347   -5.5565964    117.71918  0.046713959  0.050105976            3 
  211000    1.1946923   -5.5610826    118.98552  0.046992703  0.050080466            2 
  212000    1.2163282   -5.5973716    119.17225  0.046844438  0.050054295            1 
  213000    1.2082476   -5.5603256     120.0738  0.046977231  0.050026969            3 
  214000    1.2238894   -5.5718279    120.47266  0.046913031  0.049998931            1 
  215000    1.2371837   -5.6160164    120.63091  0.046756167  0.049974024            5 
  216000    1.2422472   -5.6086917     121.1967  0.046757987  0.049951569            4 
  217000    1.2298563   -5.5826965    121.84337  0.046790848  0.049926533            3 
  218000    1.2274545    -5.586853    122.15186  0.046694134  0.049898881            5 
  219000    1.1901117   -5.6106753    122.64478  0.046668487  0.049869961            2 
  220000    1.1989059   -5.5960602    122.96987  0.046579497  0.049843395            2 
  221000    1.1979505   -5.5789147    124.03039  0.046768623  0.049819617            7 
  222000    1.1852768   -5.5513449    124.53718   0.04674819  0.049794817            4 
  223000    1.2191515   -5.6556671    124.13492  0.046388235  0.049767094            4 
  224000    1.2328495   -5.6042212    125.48515  0.046683465  0.049738089            3 
  225000    1.1912848   -5.6117732    126.15156    0.0467228  0.049712896            2 
  226000    1.2182217   -5.5175798    127.21145  0.046906876  0.049693188            2 
  227000    1.2201996   -5.5597105    128.09327  0.047023961  0.049674355            3 
  228000    1.2180609   -5.6134174     128.5071  0.046968969  0.049654267            5 
  229000    1.2021144   -5.5871834    129.69159  0.047194902  0.049641228            2 
  230000     1.223188   -5.5515137     130.3534  0.047229491  0.049628341            2 
  231000    1.2072698   -5.5456528    130.87695  0.047213906  0.049615764            1 
  232000    1.2058216   -5.5632009    130.93411  0.047030931  0.049603007            3 
  233000    1.1944814   -5.6232606    131.11342   0.04689321  0.049585406            2 
  234000    1.2361265   -5.6583941    132.15589  0.047064062   0.04956808            1 
  235000    1.2383891   -5.5927967    132.83244  0.047103701  0.049553127            4 
  236000    1.2220324   -5.5707609    133.38125  0.047097897  0.049540247            2 
  237000    1.2236073   -5.5640436    134.29049  0.047218878  0.049526495            3 
  238000    1.1922645   -5.6168542    133.64278  0.046793689  0.049510283            4 
  239000     1.233436   -5.6304046    134.30293  0.046828077  0.049490632            3 
  240000     1.212585   -5.5935469    135.16985  0.046933977  0.049472375            3 
  241000    1.2307569   -5.6244889    135.68703   0.04691806  0.049453654            3 
  242000    1.2257758    -5.612959    136.27155  0.046925464  0.049436804            2 
  243000    1.2016699   -5.5507222    137.24987  0.047067858  0.049423586            5 
  244000    1.2029596   -5.5943903    137.33397  0.046903678  0.049408628            6 
  245000    1.2022518   -5.5979109    138.20108   0.04700717  0.049393699            2 
  246000    1.2298482   -5.5548197    138.72207   0.04699257  0.049377212            2 
  247000    1.2451862   -5.5589949    139.26341  0.046984958  0.049363458            3 
  248000    1.1941792   -5.6130831    139.70726  0.046944644  0.049345349            2 
  249000    1.2135547   -5.5765898    140.18648  0.046916494  0.049328307            2 
  250000    1.1878744   -5.5834583    140.88064  0.046960214  0.049310666            3 
  251000    1.1858952    -5.583892    140.91813  0.046785567  0.049294303            5 
  252000     1.214193   -5.5827355    141.69606  0.046857163  0.049276851            4 
  253000    1.2086127   -5.5994015     142.2535  0.046855565   0.04926145            5 
  254000    1.2199093   -5.5616865    143.79583  0.047177108  0.049247331            2 
  255000     1.223519   -5.6016461    143.77247  0.046984469  0.049234308            4 
  256000    1.2132126   -5.6102548     144.6244  0.047078255  0.049222194            2 
  257000    1.1975318   -5.5631482    145.30712  0.047116447  0.049209525            1 
  258000      1.22406   -5.6405456      144.873  0.046793603   0.04919567            2 
  259000    1.2182314   -5.6021898    146.20096  0.047040207  0.049181032            6 
  260000     1.220073   -5.5282822    147.41569  0.047248619  0.049166592            2 
  261000    1.1863227     -5.57415    146.91801  0.046908688   0.04915237            4 
  262000    1.1864244   -5.5835493    147.29829  0.046850603  0.049133912            4 
  263000    1.2030989   -5.5842961    148.09425  0.046924668   0.04911544            4 
  264000    1.2025052   -5.6350716    147.88547  0.046681019  0.049097555            2 
  265000    1.1973182   -5.5920918    148.34291  0.046648714  0.049079235            3 
  266000    1.2122352   -5.6340013    148.97609  0.046671708  0.049060039            4 
  267000    1.2033051   -5.5708409    150.45177  0.046957481  0.049043072            3 
  268000    1.2142572   -5.6325024    150.24899  0.046719212  0.049026524            3 
  269000     1.193303   -5.5985481     151.1106  0.046812452  0.049011153            3 
  270000    1.2119999   -5.5838862    151.93969  0.046894967  0.048996654            6 
  271000    1.1991966   -5.5820656    152.69617  0.046954543  0.048984412            1 
  272000    1.2083118   -5.6247145    153.21816  0.046941839  0.048971739            3 
  273000    1.2225608   -5.5660592    154.20115  0.047069947  0.048958879            4 
  274000    1.2458583   -5.5992702    154.39179  0.046956139  0.048946471            3 
  275000     1.215696   -5.6166407    154.16455   0.04671653  0.048931395            1 
  276000     1.206302   -5.5902515    155.27299  0.046881942  0.048916806            2 
  277000    1.1983945   -5.5969856    155.70991  0.046844136  0.048904136            1 
  278000    1.2231462   -5.5701383    156.58403  0.046937659  0.048891212            3 
  279000    1.1946631    -5.608197    156.73619  0.046814872  0.048877216            2 
  280000    1.2012285   -5.6304003    156.64811  0.046621461  0.048863529            6 
  281000    1.2322908   -5.5767813    158.81985  0.047099598  0.048851439            2 
  282000    1.1869255   -5.6182284    159.31719  0.047079547  0.048839698            3 
  283000    1.2071504   -5.5955604    159.61227  0.047000079  0.048831038            2 
  284000    1.2042595   -5.6256018    159.90443  0.046920312  0.048821442            4 
  285000    1.1841912   -5.5844265    161.40865  0.047195511  0.048811733            2 
  286000    1.1830752   -5.6202314    160.87174  0.046874051  0.048800977            4 
  287000    1.2033926   -5.5926107    160.75991  0.046678254   0.04878896            4 
  288000    1.2300112   -5.6312913    161.35331  0.046687879  0.048775693            4 
  289000    1.1992928   -5.5820579     163.4884  0.047141985  0.048764009            2 
  290000    1.1974302   -5.6374097    163.40909  0.046956635  0.048752924            2 
  291000    1.2108062   -5.6092717    163.66452  0.046868419  0.048740667            2 
  292000    1.2104516   -5.6384743    163.33989  0.046615266  0.048726923            3 
  293000    1.2088894    -5.577818    165.45549  0.047057875  0.048716258            2 
  294000    1.1854337   -5.5973297    165.55663  0.046926481  0.048706929            3 
  295000    1.2110987    -5.651737    165.77054  0.046827836  0.048694122            2 
  296000    1.1812181   -5.6126041    166.31046   0.04682164  0.048680154            4 
  297000    1.1844354   -5.6302912    167.05622  0.046873238  0.048667234            2 
  298000    1.2205076   -5.5946744    168.12516  0.047014867  0.048656362            1 
  299000    1.2109116   -5.6068068    168.17587  0.046871759   0.04864668            4 
  300000    1.2025934   -5.5678585    169.72908  0.047146968  0.048639782            2 
  301000    1.1918128   -5.6174004    169.82076  0.047015714  0.048632854            3 
  302000    1.2109884   -5.6268773    170.39172  0.047017582  0.048626199            3 
  303000    1.1977548   -5.6165469    170.39321   0.04686282  0.048618126            2 
  304000    1.1946966   -5.6304947    171.05903  0.046891182  0.048608421            2 
  305000    1.1795294   -5.6168847    171.90541  0.046968692  0.048599358            2 
  306000    1.1988061   -5.5689872    172.49531  0.046975847  0.048589259            5 
  307000    1.2177326   -5.5720616    172.92214  0.046938693  0.048581186            1 
  308000    1.1836105   -5.6152781    173.79655  0.047022875   0.04857276            2 
  309000    1.2177533   -5.5942634    173.79449  0.046870142  0.048563877            7 
  310000    1.1873716   -5.6272655    174.45376  0.046896173   0.04855469            4 
  311000     1.206222   -5.5721712    176.31266  0.047243477  0.048546033            2 
  312000    1.1665493   -5.6220289    175.99395  0.047006932  0.048539594            3 
  313000    1.1799199   -5.5962451    176.82593  0.047078257  0.048531934            2 
  314000    1.2237042   -5.6293575    176.70738  0.046896862  0.048526438            2 
  315000    1.2063335   -5.5758627    178.76677  0.047292797  0.048520491            3 
  316000    1.1893667    -5.606521    178.55834  0.047088169   0.04851631            3 
  317000    1.2046886   -5.6146319    179.15051  0.047095298  0.048510397            2 
  318000    1.1948852   -5.6218168    179.41275  0.047015919  0.048504445            2 
  319000    1.2227977   -5.5855587    180.73897  0.047214987  0.048501745            3 
  320000    1.2039704   -5.6022504    181.70225  0.047318294  0.048499797            2 
  321000    1.2034338   -5.5651123    181.88228  0.047217622  0.048495732            3 
  322000    1.1980781   -5.6059062    181.64954   0.04701075  0.048490272            3 
  323000    1.1963641   -5.5997615    182.77838  0.047156446  0.048485069            2 
  324000     1.160039   -5.6490949     183.1008  0.047093828  0.048478545            4 
  325000    1.1730475   -5.6039429    183.40939  0.047028049  0.048469322            6 
  326000    1.2075489   -5.5909124    184.32754  0.047118491   0.04846394            1 
  327000     1.198167   -5.5955112      185.075  0.047164884  0.048457484            2 
  328000    1.2039207   -5.6314298    184.14437  0.046784647  0.048449422            3 
  329000     1.205567   -5.6286495     184.9947  0.046857826  0.048438835            1 
  330000    1.1695938   -5.6065841    184.96391  0.046708059  0.048427572            3 
  331000    1.1935315   -5.6127396    185.97169  0.046820667  0.048417292            5 
  332000    1.1905613   -5.6503202    185.92005   0.04666668  0.048406335            7 
  333000    1.1982081   -5.6337448    186.01857  0.046551193  0.048394826            2 
  334000    1.2046895   -5.5623333     187.4453  0.046767789  0.048384699            1 
  335000     1.171968   -5.6105308    188.65445  0.046928966  0.048374429            2 
  336000     1.190676   -5.6094085    188.74872  0.046812678  0.048364044            2 
  337000    1.1947289   -5.6669275    189.95063  0.046970976   0.04835617            2 
  338000    1.1784753   -5.6152124    190.90899  0.047068292  0.048350639            3 
  339000    1.2046702   -5.6175266    192.31915  0.047276094  0.048347478            2 
  340000    1.1725559   -5.6323824    192.62403  0.047211771  0.048346272            2 
  341000    1.1848227   -5.5929292    192.94382  0.047151471  0.048343877            4 
  342000     1.197305   -5.6263395    193.59897  0.047173238  0.048342208            4 
  343000    1.1869028   -5.6139405    194.11518  0.047161122  0.048338738            2 
  344000    1.1919008   -5.5657837    195.41778  0.047339578  0.048335653            2 
  345000     1.198576   -5.6417615     195.1622  0.047140628  0.048332882            2 
  346000    1.1926933   -5.6199336    196.47949  0.047321651  0.048330626            5 
  347000    1.2022365    -5.612406    196.22941  0.047125219  0.048327585            3 
  348000    1.1913461   -5.6225593    197.68877  0.047339265  0.048324512            2 
  349000    1.2161644   -5.6204099    197.66946  0.047199012  0.048321013            3 
  350000    1.1752513   -5.6632759    198.18325  0.047186488  0.048318048            2 
  351000    1.2278714   -5.5920549    199.59201  0.047386517  0.048314404            2 
  352000    1.2065374   -5.6440332    200.51894  0.047471341  0.048312783            3 
  353000    1.1913127   -5.6134013     200.2656  0.047277054  0.048310999            2 
  354000    1.1756522   -5.6858691    200.35026  0.047163432  0.048309555            2 
  355000    1.1889148   -5.6659052    200.55221  0.047077982  0.048307689            2 
  356000    1.1887972   -5.6663571    202.36649  0.047370433  0.048306911            3 
  357000     1.205816   -5.5777196    203.06907  0.047401743  0.048305637            1 
  358000    1.1918222   -5.6087086    203.23775  0.047308601   0.04830394            2 
  359000    1.1863454   -5.6340671    203.60897  0.047262993  0.048303841            2 
  360000    1.1718745   -5.6451856    203.96143  0.047213294  0.048302909            2 
  361000    1.2180108   -5.6455286    204.35836  0.047174137  0.048300632            2 
  362000    1.1965869   -5.6422235    205.35125  0.047272387  0.048296698            4 
  363000     1.163626    -5.597953    205.70104   0.04722246  0.048295094            3 
  364000    1.2200251   -5.6158095    207.29829    0.0474584  0.048295775            3 
  365000    1.2106247   -5.6261331    207.57983  0.047392656  0.048296433            3 
  366000    1.2074972   -5.6125318    209.04292  0.047596293   0.04829669            3 
  367000    1.1705001   -5.6392111      208.638  0.047374659  0.048297886            3 
  368000    1.2096315   -5.6530685    208.70088  0.047260163  0.048297469            2 
  369000    1.2149739   -5.6206243    210.70175  0.047583955  0.048299336            2 
  370000     1.206418   -5.6091087    210.94553  0.047510256  0.048300757            2 
  371000    1.1638986   -5.5981165    211.86188  0.047588023  0.048303257            3 
  372000    1.1882558   -5.6455889    211.59709  0.047400782    0.0483047            5 
  373000    1.1880487   -5.6309655    212.40953  0.047455213  0.048306458            5 
  374000    1.2073897   -5.6313168    212.66623  0.047385523  0.048307597            3 
  375000    1.1900935   -5.5912939    213.21239  0.047380531  0.048308212            3 
  376000     1.208558   -5.6740115    213.04685   0.04721783  0.048307268            2 
  377000    1.1889323   -5.6337649    214.14566  0.047335469  0.048305783            2 
  378000    1.1944703   -5.5981506    214.96015  0.047389804  0.048303834            2 
  379000    1.1800816   -5.6053548    215.43852  0.047369946  0.048301796            2 
  380000    1.1964591   -5.5886301    216.07922  0.047385794  0.048299415            2 
  381000    1.2140107    -5.639147    215.84107  0.047209332  0.048297584            3 
  382000     1.211748   -5.5812379    216.57796  0.047246501  0.048295102            3 
  383000    1.1701583   -5.6210519    217.90024  0.047410844  0.048291805            1 
  384000    1.2064447   -5.6086366    217.74344   0.04725335  0.048289311            2 
  385000    1.1938159   -5.6683157    217.17342  0.047007234  0.048284293            4 
  386000    1.1824527   -5.6743273    217.80236  0.047021236   0.04827937            4 
  387000    1.1851445    -5.663197    217.89741  0.046920201  0.048271484            4 
  388000    1.1852669    -5.587857    219.73027  0.047192927  0.048264229            5 
  389000    1.1937672   -5.6606332    219.50401  0.047023139  0.048259035            2 
  390000    1.1728238   -5.6254636     220.0571  0.047020749  0.048252629            2 
  391000    1.2075019   -5.6391932    221.10471  0.047123767  0.048248127            1 
  392000    1.1910395   -5.5990018     221.9859  0.047190881  0.048243729            3 
  393000    1.1754079   -5.5880643    222.94155  0.047273441  0.048239856            2 
  394000    1.1512145   -5.6462746    222.77298  0.047117805  0.048235136            3 
  395000    1.2124959   -5.6255126    223.46314  0.047144123  0.048230095            2 
  396000    1.1974807   -5.6877629    223.72152  0.047079445  0.048224733            4 
  397000    1.2141345   -5.6825533    224.74384  0.047175449  0.048218785            2 
  398000    1.1784829   -5.6498526    224.77994  0.047064477  0.048214832            3 
  399000    1.2058561   -5.6273258    226.30417  0.047264863  0.048211933            2 
  400000    1.1967478   -5.6011682    226.06574  0.047097029  0.048207413            3 
  401000    1.1901437   -5.6223092    227.38968  0.047254713  0.048204609            2 
  402000    1.2035937   -5.6679378    227.29716  0.047117986  0.048201158            3 
  403000    1.1836724   -5.6441942    228.39063  0.047227177  0.048198353            1 
  404000    1.1903854   -5.6329472    229.05788  0.047247913  0.048194524            3 
  405000    1.1738203    -5.630249    229.65453  0.047254018  0.048190946            1 
  406000    1.2017704   -5.6453482    230.69541  0.047351274  0.048187857            2 
  407000    1.1830309   -5.6622857    229.89121  0.047070271  0.048183756            7 
  408000    1.1618707   -5.6192112    230.71247  0.047122644  0.048178679            5 
  409000    1.1975861   -5.6912825    230.52181  0.046968585  0.048174479            3 
  410000    1.1784024     -5.61292    232.07218  0.047169141  0.048171298            2 
  411000    1.2090678    -5.687342    232.28973  0.047098486   0.04816825            3 
  412000    1.1765879   -5.6337941    232.93538  0.047114762  0.048164699            2 
  413000    1.1856028   -5.6191282     234.0312  0.047221792  0.048161431            5 
  414000    1.1862772   -5.6291675    233.43497  0.046987716  0.048156908            2 
  415000    1.1892223   -5.6449749     234.5116  0.047090683  0.048151773            2 
  416000    1.1610662   -5.6109789    235.21606  0.047118602  0.048146709            2 
  417000    1.1975331   -5.6682281    235.27921  0.047018227  0.048142633            2 
  418000    1.1711779   -5.6571524    236.96536  0.047241899  0.048138674            2 
  419000    1.1782711   -5.6982074    235.62006  0.046861587  0.048134024            6 
  420000    1.1920497   -5.6227046    237.86595  0.047195625  0.048128893            1 
  421000    1.1664829   -5.6268434    238.14495  0.047138747  0.048125336            1 
  422000    1.1650319   -5.6759346    237.37452  0.046874906   0.04812039            5 
  423000    1.1818574   -5.6604813    238.50442  0.046986686  0.048114994            3 
  424000    1.1824138    -5.663917    238.59517  0.046893705  0.048108843            3 
  425000    1.1649042   -5.6577128     238.9022  0.046843569  0.048101731            1 
  426000     1.195545   -5.6286048    240.31397  0.047009775   0.04809605            2 
  427000    1.1692803   -5.6281265    240.99888   0.04703335  0.048090886            4 
  428000    1.1934544   -5.6242453    241.84663  0.047088519  0.048084371            2 
  429000    1.1798971   -5.6529306    241.63422  0.046937494  0.048078434            2 
  430000    1.1834546   -5.6560539    241.87511  0.046875021  0.048071638            2 
  431000    1.1953956   -5.6213269    243.56763  0.047093509   0.04806567            1 
  432000    1.1548378   -5.6456683    243.32241  0.046937192   0.04805942            2 
  433000    1.1471507   -5.6818906     243.1977  0.046804792  0.048052345            2 
  434000    1.1741027   -5.6114435    244.62434  0.046970879  0.048044157            2 
  435000    1.1796904   -5.6391594    243.43175  0.046634435  0.048035672            2 
  436000    1.1817797   -5.6335494    244.58129  0.046747189  0.048027223            3 
  437000    1.1966661   -5.6432976     244.8869  0.046698493  0.048019407            2 
  438000    1.1855686   -5.6368136    245.75361  0.046756775  0.048011003            1 
  439000    1.1686284   -5.6198808    245.94531  0.046686657  0.048001512            2 
  440000    1.1704203   -5.7017675    245.16477  0.046432722  0.047991163            2 
  441000     1.170695   -5.6301416    248.45175  0.046948553    0.0479817            2 
  442000    1.2141896   -5.6586147     247.5412  0.046670664  0.047973427            1 
  443000     1.172365   -5.7114036    247.17332   0.04649611  0.047963792            5 
  444000    1.1533954   -5.6643661    249.58035  0.046843158  0.047954606            4 
  445000    1.1822983    -5.647407     249.0986  0.046647677  0.047944851            3 
  446000    1.2007363   -5.6352787     250.1486  0.046739274  0.047934943            4 
  447000    1.1756585   -5.6669787    250.20798  0.046645783  0.047924787            4 
  448000    1.1973612   -5.6709882    250.93609  0.046677101  0.047915278            1 
  449000    1.1967016    -5.662531    251.21277  0.046624493  0.047906559            2 
  450000       1.2025   -5.6501778    251.36795  0.046549621  0.047897695            3 
  451000    1.1939947   -5.6575294    252.55856  0.046666401  0.047888004            3 
  452000     1.201978   -5.6765255    252.34319   0.04652345  0.047877518            2 
  453000    1.1565737   -5.6497631    252.24004  0.046401773  0.047867256            1 
  454000    1.1681266   -5.6742304    252.65948  0.046376557  0.047856674            3 
  455000    1.1684659   -5.6650807    253.38386    0.0464073  0.047845344            2 
  456000    1.1839614   -5.6304896    253.93369   0.04640601  0.047833519            3 
  457000    1.1656368   -5.6422069    254.73239  0.046450108  0.047821432            3 
  458000    1.1836681   -5.6787806     253.7163   0.04616381  0.047807862            3 
  459000     1.186636   -5.7038249    254.22609   0.04615579  0.047793974            2 
  460000    1.1987866   -5.6730704    254.85046  0.046168562  0.047780252            2 
  461000    1.1681114    -5.690507    255.17578   0.04612722  0.047766741            2 
  462000    1.1702892   -5.6770588    255.59326   0.04610268  0.047752014            2 
  463000    1.1542272   -5.6670663    255.62956   0.04600964  0.047736153            2 
  464000    1.1554996     -5.65217    257.22154  0.046196398  0.047720685            2 
  465000    1.1873788   -5.6795265    256.28672  0.045929519  0.047705364            2 
  466000    1.1676194   -5.6331035    258.72458  0.046266914  0.047690891            5 
  467000    1.1754797   -5.6755682    258.46217  0.046121015  0.047677879            3 
  468000     1.183032   -5.6839562     258.2926  0.045992271  0.047663889            2 
  469000    1.2102181    -5.668154    260.32633  0.046255567  0.047649728            3 
  470000    1.1621814   -5.6463238    260.20313  0.046135308  0.047635422            2 
  471000    1.1536062   -5.6622118    259.37269  0.045890426  0.047620674            3 
  472000    1.1529176   -5.6673565    259.96757   0.04589823  0.047604738            1 
  473000    1.2037153    -5.670849    260.67018  0.045924979  0.047589146            3 
  474000    1.1740181   -5.6289051    261.80059  0.046026827  0.047574688            2 
  475000    1.1666286   -5.6444052    262.30455  0.046018343  0.047560415            2 
  476000    1.1793053   -5.6326156    262.81278  0.046010641  0.047545553            4 
  477000    1.1913115   -5.6580945    262.51813  0.045862707   0.04752966            4 
  478000    1.1900499   -5.6416052    263.30429  0.045903816  0.047515002            4 
  479000    1.1844801   -5.6698016    262.93423  0.045743602  0.047499333            3 
  480000    1.1602755   -5.7087075    264.29863   0.04588518  0.047482534            4 
  481000      1.20879   -5.6386712    265.61671  0.046018141  0.047466134            5 
  482000    1.1703691   -5.6675143    265.65146  0.045928675  0.047451896            3 
  483000    1.1888072   -5.6602349    266.26735  0.045939847  0.047437001            2 
  484000    1.1822263   -5.6514461    266.07341  0.045811537   0.04742304            3 
  485000    1.1584213   -5.6519054     266.7649  0.045835893  0.047408197            2 
  486000    1.1762509   -5.6643905    267.22901   0.04582116  0.047393649            4 
  487000    1.1782922   -5.7147194    267.66854  0.045802283  0.047378602            3 
  488000    1.1679086   -5.6592588    268.94081  0.045925685  0.047364084            2 
  489000     1.169748    -5.714513    269.70871   0.04596263  0.047350691            1 
  490000    1.1843873   -5.6468507    271.29085  0.046137899  0.047338208            1 
  491000    1.1549279   -5.6706178    271.73951  0.046120079  0.047325604            4 
  492000    1.1421865   -5.6828236    271.34363  0.045959287  0.047313368            3 
  493000    1.1529641   -5.7241336    272.15097   0.04600253  0.047301031            2 
  494000    1.1719376   -5.6987334    273.27262  0.046098619  0.047289759            3 
  495000    1.1551881   -5.6808642    273.95216  0.046119893  0.047278115            3 
  496000     1.166589   -5.6471415    273.90646   0.04601923  0.047266893            3 
  497000    1.1903621   -5.6497966    273.92765   0.04593019  0.047255883            3 
  498000    1.2172748   -5.6600936    274.74576  0.045974859  0.047244723            6 
  499000    1.1835164   -5.6640359    275.01801  0.045928191  0.047231966            1 
  500000    1.1749087   -5.6643333    275.18245  0.045863741  0.047219907            4 
  501000    1.1791951   -5.6330151    276.99617   0.04607388  0.047207141            7 
  502000    1.1449708   -5.6446767    277.32718  0.046037049  0.047194002            4 
  503000      1.16265   -5.6782317    275.64318  0.045666531  0.047181196            5 
  504000     1.161198    -5.729288    275.50616  0.045553267  0.047166361            2 
  505000    1.1655795   -5.6693743    276.82584  0.045680831  0.047151526            3 
  506000    1.1832503   -5.6891585    276.52854  0.045541591  0.047137452            3 
  507000    1.1771745   -5.6742742    279.07953   0.04587106  0.047123903            6 
  508000    1.1525247   -5.6977261    279.23713  0.045806616  0.047110143            1 
  509000    1.1596813   -5.6762354    279.28287  0.045724112  0.047097201            2 
  510000    1.1869007    -5.665141    280.35614  0.045809827  0.047083483            5 
  511000    1.1643059   -5.6474545    280.17396   0.04569047  0.047070055            3 
  512000    1.1526505    -5.640656    281.84569  0.045873322  0.047056884            3 
  513000    1.1654635   -5.6622251    282.31222  0.045859685   0.04704353            2 
  514000     1.181334   -5.6548217    283.22827   0.04591898  0.047029933            5 
  515000    1.1434546   -5.6571097    281.96547  0.045625481  0.047018077            6 
  516000    1.1485248   -5.6557915    283.74323  0.045824165  0.047005876            1 
  517000    1.1663682   -5.6629725    283.60214  0.045712788  0.046993031            2 
  518000    1.1582789   -5.6910294    284.39701  0.045752415  0.046980941            4 
  519000    1.1453797   -5.6789066    284.73255  0.045718137  0.046968725            3 
  520000    1.1454089   -5.7235165    284.95192  0.045665371  0.046955429            3 
  521000    1.1895254   -5.6773744    286.45856  0.045818708  0.046942469            2 
  522000    1.1658942   -5.6957865    286.21363  0.045691831  0.046929082            3 
  523000    1.1672724   -5.6827485    286.36784  0.045629037  0.046915771            4 
  524000    1.1558207   -5.6771746      285.711  0.045437499  0.046902276            4 
  525000    1.1621805   -5.6388078    287.39059  0.045617555  0.046887891            5 
  526000    1.1831008   -5.6932867    288.70572  0.045739183  0.046874688            2 
  527000    1.1766586   -5.6984589    288.33887  0.045594382  0.046861939            2 
  528000    1.1648585   -5.6878661    288.96118  0.045606247  0.046848698            3 
  529000    1.1747793   -5.7020069     289.3915  0.045587823  0.046835777            3 
  530000    1.1705565   -5.6799076    290.27851  0.045641276  0.046824105            3 
  531000    1.1958432   -5.6548091    291.90874  0.045811164  0.046812425            3 
  532000    1.1606235   -5.6929768    290.53086   0.04550922  0.046801215            3 
  533000    1.1720877   -5.6721566    291.26198  0.045538146  0.046789286            3 
  534000    1.1637061    -5.703112    291.54091  0.045496397  0.046778199            3 
  535000    1.1789101   -5.6832583    294.08545  0.045807702   0.04676744            2 
  536000    1.1702515   -5.7060679    292.40383  0.045460794  0.046755729            4 
  537000       1.1435   -5.6986514    292.51702  0.045393703  0.046743957            3 
  538000    1.1766854   -5.6722834    294.98984  0.045692354  0.046731931            9 
  539000    1.1900506   -5.7150153    294.18128  0.045482573  0.046720571            1 
  540000    1.1578073   -5.6847828    295.52201  0.045605248  0.046710286            2 
  541000    1.1552912   -5.6959355    296.45847  0.045665198  0.046699815            3 
  542000    1.1523643   -5.6642115    297.33941  0.045716391  0.046689982            4 
  543000    1.1656329   -5.6959543    297.06891  0.045590686  0.046679214            4 
  544000    1.1550278   -5.6830862    298.34397  0.045702202  0.046668744            2 
  545000    1.1384852   -5.6530725    298.89933  0.045703261  0.046658844            4 
  546000    1.1593365   -5.6879954     298.4028  0.045543773  0.046648062            3 
  547000    1.1628555    -5.660207    299.08768   0.04556485  0.046637937            3 
  548000    1.1259966   -5.6919363    300.40778  0.045682448  0.046627834            1 
  549000    1.1536636   -5.6870545    299.55036   0.04546909    0.0466169            3 
  550000    1.1745912   -5.6785757    300.76842  0.045570972  0.046605684            2 
  551000    1.1986374   -5.6795311    301.33461  0.045573898  0.046594703            7 
  552000    1.1650038   -5.6987029    302.24624  0.045628961  0.046583709            3 
  553000    1.1826071   -5.6974019    302.72806  0.045619056  0.046573457            8 
  554000    1.1717389    -5.661373    303.45493  0.045646048  0.046563554            3 
  555000    1.1629129   -5.7125569    303.26661  0.045535527  0.046552895            2 
  556000    1.1479528   -5.6634273    305.78623  0.045831269  0.046542991            3 
  557000    1.1483805   -5.7073847    303.42325   0.04539546  0.046532486            3 
  558000    1.1618496   -5.7339073    304.06986  0.045410672  0.046522229            2 
  559000    1.1611075   -5.6815302    305.38357  0.045525279  0.046511897            2 
  560000    1.1752445   -5.7422947    303.70514  0.045194217  0.046500971            2 
  561000    1.1604837   -5.7011978    303.93491  0.045147789  0.046489397            2 
  562000    1.1264587   -5.6979299    307.03428  0.045527029  0.046478025            3 
  563000    1.1716218   -5.6979393    306.40095   0.04535242  0.046466683            7 
  564000    1.1297822   -5.7393254    306.33073  0.045261632  0.046455784            2 
  565000    1.1783619    -5.711049    306.71799  0.045238642  0.046443662            2 
  566000    1.1656916   -5.7296602    306.93885  0.045191233  0.046431701            2 
  567000    1.1539092   -5.6958318    307.73766  0.045228933   0.04641868            5 
  568000    1.1652393   -5.6935497    308.12304  0.045205845  0.046405445            4 
  569000    1.1377123   -5.7236882    309.34019  0.045304655  0.046392867            1 
  570000    1.1509184   -5.6736312    309.12964  0.045194392  0.046380529            1 
  571000    1.1497825   -5.6875823    310.07057  0.045252564  0.046368418            3 
  572000    1.1669982   -5.6357034    310.20235   0.04519265  0.046355116            2 
  573000    1.1681688   -5.6842579    310.55453  0.045164999  0.046342232            5 
  574000    1.1762704   -5.7145463    310.50594  0.045079259  0.046328617            6 
  575000     1.148722   -5.7063359    310.86329   0.04505265  0.046314854            8 
  576000    1.1503869   -5.6813449    311.58589  0.045078977  0.046301789            3 
  577000    1.1650277   -5.6911901    311.82899   0.04503596  0.046287507            2 
  578000    1.1461315    -5.735844    310.88043  0.044821285  0.046273185            4 
  579000     1.166136   -5.6694539    312.93701   0.04503987  0.046258447            3 
  580000    1.1644102   -5.7157467    314.45441  0.045180232  0.046244882            4 
  581000    1.1688148   -5.7108326    312.79426  0.044864352  0.046229832            2 
  582000    1.1674659   -5.6973086    313.80291  0.044931688  0.046214154            5 
  583000    1.1428605   -5.7102335     313.0198  0.044742682  0.046197789            3 
  584000    1.1494711   -5.7448355    312.07341  0.044531022  0.046181477            3 
  585000    1.1962607   -5.7807565    312.12159  0.044461765   0.04616378            2 
  586000    1.1686473   -5.7237484    314.30421  0.044696275  0.046145746            3 
  587000     1.160999   -5.7549493    314.86785  0.044700149  0.046128219            2 
  588000    1.1413601   -5.7228646    314.16837  0.044524995  0.046111476            2 
  589000     1.173655   -5.7043834    315.00114  0.044567224  0.046094451            2 
  590000    1.1698335   -5.6951578    316.36149  0.044683826  0.046078059            3 
  591000    1.1659691   -5.7363276    315.48346  0.044484413  0.046061812            4 
  592000    1.1654621   -5.7162288    315.81455  0.044455877  0.046044331            3 
  593000    1.1791486   -5.7066468    316.61539   0.04449345  0.046028728            2 
  594000    1.1413447   -5.6866553    317.96167  0.044607417  0.046012636            3 
  595000    1.1821782   -5.6768514    318.34175   0.04458568  0.045995941            1 
  596000    1.1595281   -5.6742956    319.18845  0.044629257  0.045979728            4 
  597000    1.1703909   -5.7192455    318.47205  0.044454501  0.045963081            2 
  598000    1.1810424   -5.7014738    319.62358  0.044540632   0.04594693            2 
  599000    1.1535758   -5.6895128    319.51149   0.04445068  0.045930491            2 
  600000    1.1399051   -5.7185867    320.77885  0.044552618  0.045913747            3 
  601000    1.1665549   -5.6809202    321.55995  0.044586793  0.045897751            6 
  602000    1.1276773   -5.7236464    321.45712  0.044498494  0.045881592            2 
  603000    1.1407657   -5.7079255    320.95428  0.044355208  0.045864762            2 
  604000    1.1588025   -5.7585257    320.50953   0.04422041  0.045848129            1 
  605000    1.1737743   -5.7199214    323.19635  0.044517403  0.045831623            9 
  606000    1.1509284   -5.7345978    322.34876  0.044327387  0.045815413            3 
  607000    1.1405037   -5.6917843    322.86601  0.044325372  0.045799039            3 
  608000    1.1476773   -5.6721678    324.80919  0.044518803  0.045782997            2 
  609000     1.159848   -5.7218511    323.84775  0.044314143  0.045767728            5 
  610000    1.1361784   -5.7010517    323.94123  0.044254267  0.045751731            3 
  611000    1.1361036   -5.7025469    326.36229  0.044512041  0.045736202            3 
  612000    1.1556276   -5.7407323    323.98824  0.044116046  0.045720157            2 
  613000    1.1728829   -5.7160623    325.61994  0.044265897  0.045703125            5 
  614000    1.1557034   -5.6656974     325.5921  0.044190024  0.045686197            3 
  615000    1.1567294   -5.6775086      328.299  0.044484959  0.045670837            3 
  616000    1.1589794   -5.6452999    329.91412  0.044631239  0.045655091            4 
  617000    1.1291002   -5.7174778    327.71445  0.044261812  0.045640337            4 
  618000    1.1731181   -5.6646927    329.05147  0.044370479  0.045625246            2 
  619000    1.1513009   -5.7206556    329.56051  0.044367328  0.045609879            3 
  620000    1.1414185   -5.7191782    330.09364  0.044367425  0.045595228            2 
  621000    1.1387603   -5.7034042    330.70125  0.044377516  0.045580369            2 
  622000    1.1490791   -5.7347955    330.91143  0.044334328  0.045566165            3 
  623000    1.1464951   -5.7285027    331.86324  0.044390481  0.045552339            5 
  624000     1.148047    -5.688597    332.42861  0.044394846  0.045538383            4 
  625000    1.1160276   -5.6748295    333.32482   0.04444331  0.045524129            1 
  626000    1.1629426   -5.7106104    332.47743  0.044259509  0.045510136            6 
  627000    1.1439225   -5.6878519    334.36251  0.044439462  0.045495823            1 
  628000    1.1427155   -5.7269184    334.45144  0.044380499  0.045481603            5 
  629000     1.150143   -5.7098958    335.38406    0.0444335  0.045468056            2 
  630000    1.1344474   -5.7220439    335.63813  0.044396578  0.045455697            4 
  631000    1.1599705   -5.7010386    337.11773  0.044521624  0.045443004            3 
  632000    1.1440173    -5.710452    338.48679  0.044631697  0.045429988            3 
  633000    1.1560661   -5.7382901    336.20649  0.044260991  0.045417375            3 
  634000    1.1780797   -5.7406098       337.27  0.044330967   0.04540441            4 
  635000    1.1563069   -5.7459811    337.20677  0.044252857  0.045390677            2 
  636000    1.1597009   -5.7174244    336.75153  0.044123627  0.045377075            2 
  637000    1.1568149   -5.7181595    339.27838  0.044384927  0.045363842            2 
  638000    1.1347479   -5.7226993    339.46327  0.044339508  0.045350144            4 
  639000    1.1387988   -5.7212714    338.61803  0.044159889  0.045336785            5 
  640000    1.1702194   -5.6932135     340.9592  0.044395729  0.045323502            3 
  641000     1.157713   -5.7098851    340.99341  0.044330917  0.045310492            5 
  642000    1.1434776   -5.7257135    340.93045  0.044253692   0.04529765            2 
  643000    1.1492445   -5.6952685    342.23484  0.044353918  0.045284351            3 
  644000    1.1359843    -5.718981    341.92266  0.044244651   0.04527164            2 
  645000    1.1469687   -5.7046206     343.8603  0.044426395  0.045259256            3 
  646000    1.1608633   -5.7284177    343.06619  0.044255184  0.045246256            3 
  647000     1.156086   -5.7300002    343.07765   0.04418826  0.045233273            2 
  648000    1.1369233   -5.7426593    345.07044  0.044376342    0.0452205            4 
  649000    1.1834611   -5.7082212    345.22119  0.044327322   0.04520803            2 
  650000    1.1528253   -5.7147549    344.89743   0.04421762  0.045194896            3 
  651000    1.1636693   -5.7247691    346.00798  0.044291856  0.045181838            2 
  652000    1.1477502   -5.6731724    346.20465   0.04424906  0.045168828            2 
  653000    1.1492516   -5.7181481    346.74512   0.04425027   0.04515667            1 
  654000    1.1334097   -5.7056724    346.39285  0.044137723  0.045144141            2 
  655000    1.1370935   -5.7543799    346.91299  0.044136513  0.045131192            2 
  656000    1.1312254   -5.7293918    347.57496  0.044153323  0.045118455            2 
  657000    1.1511069   -5.7214455    347.48712  0.044074977  0.045105697            3 
  658000    1.1263778   -5.6934344    348.56132  0.044144038  0.045092877            1 
  659000    1.1864283   -5.7224715     348.7062  0.044095372  0.045079613            4 
  660000    1.1387638   -5.7269932    350.20886  0.044218291  0.045067527            2 
  661000    1.1549596   -5.7175959    349.51482  0.044063896   0.04505451            2 
  662000     1.131696   -5.7072396    350.84106  0.044164282  0.045041409            1 
  663000    1.1684455   -5.7041901    350.69509  0.044079323  0.045028681            2 
  664000    1.1270239   -5.7189442    352.74356  0.044270025   0.04501637            2 
  665000    1.1560416   -5.7652293    351.06388  0.043992967  0.045003794            5 
  666000    1.1522876   -5.7095164    351.35408  0.043963224  0.044990238            1 
  667000    1.1119342   -5.7255721    351.81064  0.043954352  0.044976919            2 
  668000    1.1407639   -5.6965525    353.86266  0.044144543  0.044963799            3 
  669000      1.14675   -5.7543848    353.94162  0.044088393  0.044951219            3 
  670000    1.1898952   -5.7572431      353.608  0.043981095  0.044938649            2 
  671000    1.1330457   -5.7383799    354.11027  0.043977927  0.044925326            4 
  672000    1.1728928   -5.6889156    355.29799   0.04405977  0.044912458            2 
  673000     1.132127   -5.7319576    355.19692  0.043981788  0.044899757            5 
  674000    1.1488672    -5.707902    357.35936  0.044183897  0.044887414            2 
  675000    1.1321174   -5.7667368    356.09228   0.04396201  0.044875044            1 
  676000    1.1342143   -5.6850184     358.2766  0.044166248  0.044862837            5 
  677000    1.1497541   -5.7226628    356.66691  0.043902869  0.044850876            3 
  678000    1.1460334   -5.7107316    358.21945  0.044028939  0.044838629            2 
  679000      1.15289    -5.670166    361.25718  0.044336915  0.044827615            4 
  680000    1.1573085   -5.7094983     358.3624  0.043916961  0.044816183            2 
  681000    1.1034254   -5.7460168      360.535  0.044118331  0.044804204            3 
  682000    1.1247584   -5.7698891    359.82832  0.043967292  0.044792243            5 
  683000    1.1531656   -5.7162245     360.4407  0.043977635  0.044780094            3 
  684000    1.1323731   -5.7258259    361.65349  0.044061098  0.044767952            5 
  685000    1.1480545   -5.7241975    361.77576  0.044011649  0.044756017            2 
  686000    1.1607873     -5.75693    362.18389  0.043997071  0.044743389            1 
  687000    1.1509989   -5.7215915    361.93812  0.043903217  0.044731173            2 
  688000    1.1295328   -5.7436035    361.77816  0.043820029  0.044719041            4 
  689000    1.1415968   -5.7870211    362.59049  0.043854679  0.044706494            5 
  690000    1.1612487   -5.7236511    363.03877  0.043845262  0.044694358            3 
  691000    1.1553318   -5.7389073    363.81047  0.043874875  0.044682449            2 
  692000    1.1341617   -5.7245757    363.84414  0.043815527  0.044670722            2 
  693000    1.1579211   -5.7686978    363.19959  0.043674795  0.044658855            2 
  694000    1.1640937   -5.6947484    367.01304   0.04406977  0.044646816            3 
  695000    1.1420047   -5.7305771    365.12613  0.043780111  0.044635586            2 
  696000    1.1577242   -5.7461615    364.84842  0.043683959  0.044624713            2 
  697000    1.1528785   -5.7404346    366.81773  0.043856734  0.044613341            4 
  698000     1.150992   -5.7592189    367.97156  0.043931657   0.04460274            3 
  699000    1.1398709   -5.7364427     367.4508  0.043806724  0.044591364            2 
  700000    1.1260018     -5.73347    368.40293  0.043857491  0.044579726            3 
  701000    1.1558672   -5.7730938    369.01666  0.043867886  0.044567903            2 
  702000    1.1533875   -5.7224746    369.04242  0.043808454  0.044556695            2 
  703000    1.1581664   -5.7431164    370.59723  0.043930444  0.044545718            9 
  704000    1.1192279    -5.741745    369.70448  0.043762368  0.044534472            2 
  705000    1.1376884   -5.7626365    371.18861  0.043875722  0.044523383            2 
  706000    1.1267767   -5.7468779    371.81545  0.043887565   0.04451261            3 
  707000    1.1515504   -5.7606595    372.31755  0.043884671  0.044501224            2 
  708000    1.1402676   -5.7060949    372.22375  0.043811646  0.044490364            4 
  709000    1.1279206   -5.7526397    372.72803  0.043809125  0.044479847            4 
  710000    1.1474109   -5.7336764    373.61927  0.043852027  0.044469534            3 
  711000    1.1541331   -5.7870661    373.92241  0.043825881   0.04445873            3 
  712000    1.1369144   -5.7354482    375.97873  0.044005001  0.044448987            3 
  713000    1.1367015   -5.7544124    376.93878  0.044055491  0.044439791            2 
  714000    1.1202793   -5.7568796    377.23375  0.044028216  0.044431369            5 
  715000    1.1396917   -5.7320571    378.56812  0.044122158  0.044423023            2 
  716000    1.1014714   -5.8017004    377.36057  0.043919992  0.044414164            2 
  717000    1.1236792   -5.7565925    377.90435  0.043921938  0.044405331            2 
  718000    1.1248751   -5.7678405    378.40327  0.043918671  0.044396268            2 
  719000    1.1440953   -5.7901247    378.85473  0.043909913  0.044387313            5 
  720000    1.1528972   -5.7136311    380.65323  0.044057087  0.044378329            2 
  721000    1.1507658   -5.7272113    379.68226  0.043883756  0.044369306            3 
  722000    1.1540226    -5.725017    380.51514  0.043919107  0.044360106            2 
  723000    1.1459297   -5.7369103    380.62032  0.043870484  0.044350245            2 
  724000    1.1563345   -5.7307455    381.32389  0.043890871  0.044340999            4 
  725000    1.1517983   -5.7658233    382.69966  0.043988467   0.04433172            1 
  726000    1.1365519   -5.7590102    382.19887  0.043870394  0.044322426            2 
  727000     1.135055   -5.7470881    382.99856  0.043901714  0.044312915            6 
  728000     1.133164   -5.7539736    384.19865  0.043978783  0.044303854            5 
  729000    1.1357275   -5.7438944    383.95505   0.04389061  0.044294272            6 
  730000    1.1197533   -5.7630232    383.53441  0.043782466   0.04428494            5 
  731000    1.1463287   -5.7161233    385.03885  0.043894078  0.044275101            4 
  732000    1.1165295   -5.7560762    385.09977  0.043841048  0.044266267            4 
  733000    1.1535804   -5.7376842    385.89328   0.04387145   0.04425706            2 
  734000     1.151754   -5.7366573     385.3674  0.043751976  0.044247588            2 
  735000    1.1470743   -5.7761944    385.78998  0.043740361  0.044237629            3 
  736000    1.1354982   -5.7536539    386.00395  0.043705157  0.044227456            2 
  737000    1.1501624   -5.7505848     387.3259   0.04379533  0.044217652            6 
  738000    1.1480769   -5.7222201    387.17012  0.043718396  0.044208215            2 
  739000    1.1328517   -5.7267654    387.68582   0.04371739  0.044198026            2 
  740000    1.1282016   -5.7926732    387.17397  0.043600672  0.044187504            2 
  741000    1.1419771   -5.7825095    386.23146  0.043435836  0.044176876            5 
  742000    1.1698915   -5.7933229    387.37705  0.043505958  0.044166649            3 
  743000    1.1461903   -5.7775688    387.60025  0.043472437  0.044156405            5 
  744000    1.1212726   -5.7301514    389.96529  0.043678907  0.044145646           10 
  745000    1.1453927   -5.7516147    390.18151  0.043644465  0.044135451            1 
  746000    1.1394273   -5.7309675    391.42647   0.04372503   0.04412507            2 
  747000    1.1482707   -5.7481635    388.77768  0.043371004  0.044114714            2 
  748000    1.1466048   -5.7581938    390.01609  0.043450991   0.04410357            4 
  749000    1.1511529   -5.7400545    388.50225   0.04322455  0.044092806           11 
  750000    1.1249125   -5.7388904    390.37233  0.043374703   0.04408203            3 
  751000    1.1560027   -5.7382543    391.15443  0.043403732  0.044070423            5 
  752000    1.1288758   -5.7981886    390.34694  0.043256531   0.04405837            3 
  753000    1.1232463   -5.7551062    390.49917  0.043215933   0.04404591            5 
  754000    1.1315081   -5.7571406    393.06154  0.043441814  0.044034702            2 
  755000    1.1345397   -5.7576207    393.35036  0.043416155  0.044023724            4 
  756000    1.1446642   -5.8045337    391.44931  0.043149174   0.04401221            3 
  757000    1.1266948   -5.7751762    392.83351  0.043244551  0.044000422            5 
  758000    1.1241931   -5.7744503     393.1702  0.043224516  0.043988689            2 
  759000    1.1248547   -5.7946514    394.47128  0.043310417  0.043976951            6 
  760000    1.1165979   -5.7395978    395.80756  0.043399952  0.043965971            3 
  761000    1.1187348   -5.7712168    395.66755   0.04332759  0.043954779            2 
  762000    1.1386435    -5.785493    396.16341  0.043324958  0.043943172            1 
  763000    1.1404443   -5.7575403    396.50375  0.043305346  0.043932037            2 
  764000    1.1294239   -5.7308242      397.924  0.043403578  0.043920766            8 
  765000    1.1383355   -5.7537937    397.33286  0.043282447  0.043909476            3 
  766000    1.1359432   -5.8040033    397.11298  0.043202021  0.043898731            2 
  767000    1.1536001   -5.7842077    395.88767  0.043012567  0.043886825            5 
  768000    1.1425463   -5.7641396    398.55148  0.043245603  0.043875797            4 
  769000    1.1297691   -5.8189028    398.62652  0.043197499  0.043865051            6 
  770000    1.1268917   -5.8007914    398.95886  0.043177366  0.043853583            4 
  771000     1.151128   -5.7751041    398.88689  0.043113585  0.043842292            2 
  772000    1.1335903   -5.7558729    401.07418  0.043293845  0.043831341            3 
  773000    1.1301179   -5.7594597    400.63493  0.043190484  0.043820631            3 
  774000    1.1399829   -5.7453156    401.67688  0.043246865  0.043810041            3 
  775000    1.1282324   -5.7829083    401.24777  0.043144922  0.043799211            3 
  776000    1.1204542   -5.7534438     403.7412  0.043357088   0.04378859            2 
  777000    1.1166998   -5.7629457    404.07157  0.043336719   0.04377807            2 
  778000    1.1272432   -5.7327801    404.21508  0.043296388  0.043767837            2 
  779000    1.1298927    -5.748089    404.95602  0.043320071  0.043756737            1 
  780000    1.1462011   -5.7631698    402.82281  0.043036625  0.043745641            3 
  781000    1.1178518   -5.7976977    404.53343  0.043164045  0.043734993            5 
  782000     1.128573   -5.7522854    404.86762   0.04314446  0.043724061            6 
  783000    1.1260178   -5.7729205    405.25092  0.043130154  0.043713279            4 
  784000    1.1098905   -5.8514521    403.46925  0.042885762  0.043702572            3 
  785000    1.1282996   -5.8243534    406.42736  0.043145155  0.043691753            3 
  786000    1.1437332   -5.8089135    405.92344  0.043036836  0.043681112            2 
  787000    1.0993721   -5.7506312    407.50459  0.043149576  0.043670443            1 
  788000    1.1269228   -5.7400285    407.97905  0.043144993  0.043660597            2 
  789000    1.1220876   -5.7741206    407.32445  0.043021171  0.043650082            3 
  790000     1.116139   -5.7740778    408.08104  0.043046523  0.043639549            2 
  791000    1.1332951   -5.7522583     409.9659  0.043190677  0.043629174            2 
  792000    1.1172891   -5.7818361    410.06249  0.043146306  0.043618506            7 
  793000    1.1496677   -5.7804694    409.51845  0.043034726  0.043607927            4 
  794000    1.1053534   -5.8160379    409.34049  0.042961848  0.043597167            2 
  795000    1.1444885   -5.7794994    411.37835   0.04312142  0.043586986            4 
  796000    1.1107044   -5.8009629    410.71289  0.042997581   0.04357613            5 
  797000    1.1298603   -5.8009373    411.49906  0.043025833   0.04356542            4 
  798000    1.1194541   -5.7639356    412.91793  0.043120084  0.043554894            1 
  799000    1.1226531   -5.8209218    411.02321  0.042868503  0.043544372            2 
  800000    1.1319721   -5.7743834    412.98441  0.043019209  0.043533491            3 
  801000    1.1452394   -5.8110575    413.00921  0.042968083  0.043522802            1 
  802000     1.112925   -5.8125114    411.78635  0.042787443  0.043512051            3 
  803000    1.1271126   -5.8112399    412.53545  0.042811898  0.043501301            6 
  804000    1.1122043   -5.8188396    414.49503  0.042961756  0.043490821            3 
  805000    1.1204799   -5.7481589    416.03063  0.043067353  0.043479985            3 
  806000     1.119255   -5.7468212    415.41631  0.042950404  0.043469872            3 
  807000    1.1583857   -5.7848174    416.59318  0.043018709  0.043459756            2 
  808000    1.1210089   -5.7869631    415.93948  0.042898048  0.043449592            2 
  809000    1.1225215   -5.7893273    416.24449  0.042876442  0.043438913            4 
  810000    1.1254234    -5.811521    416.63454  0.042863636  0.043428408            4 
  811000    1.1365615   -5.7441776    418.62977    0.0430158  0.043418439            1 
  812000    1.1318379   -5.8495191    416.57567  0.042752019  0.043407997            3 
  813000    1.1021917   -5.7839581     418.1604  0.042861869  0.043397345            2 
  814000    1.1118165   -5.7704301    419.12451  0.042907915  0.043386581            3 
  815000    1.1332125   -5.7711231    418.62889   0.04280459  0.043376087            5 
  816000    1.1201916   -5.7341994     419.2466  0.042815217  0.043365672            4 
  817000    1.1267777   -5.7639185    420.61426  0.042902311  0.043355131            7 
  818000    1.1124884    -5.782267    420.02233  0.042789561  0.043344544            2 
  819000    1.1180041   -5.7953809    420.19475  0.042754859  0.043333559            3 
  820000     1.135995   -5.8076266    418.03818  0.042483554  0.043322398            4 
  821000    1.1167305   -5.8072238    419.43273  0.042573359  0.043311036            4 
  822000    1.0897067   -5.7501534    422.12795  0.042794804  0.043299364            4 
  823000    1.1307185   -5.7662472    422.65139  0.042795807  0.043288374            2 
  824000     1.105409   -5.7694095    422.43043  0.042721524  0.043277106            6 
  825000    1.1359534   -5.8294853    421.46833  0.042572559  0.043266115            5 
  826000    1.0832776   -5.7979853    422.41226  0.042616249  0.043254724            3 
  827000    1.1264037   -5.8219259    421.31016  0.042453664  0.043243107            2 
  828000    1.1258744   -5.7863316    422.34218  0.042506258  0.043231026            2 
  829000    1.1233204    -5.777248    423.11404  0.042532573  0.043219869            3 
  830000    1.1267814   -5.7880156    422.54803  0.042424501  0.043208282            2 
  831000    1.1309085   -5.8142924     424.3461   0.04255376  0.043196804            2 
  832000    1.0986245   -5.7516998    425.43817  0.042611996   0.04318556            3 
  833000    1.1151759   -5.8183772    425.16411  0.042533425   0.04317448            4 
  834000    1.1312858   -5.7896715    426.92133  0.042658006  0.043163539            2 
  835000     1.145145   -5.7568587    426.86821  0.042601617  0.043153043            4 
  836000    1.1207616   -5.7604904    426.86567  0.042550405  0.043142129            4 
  837000    1.1306882    -5.812957    426.42866  0.042456059  0.043130989            4 
  838000    1.1150211   -5.7848741    426.42853  0.042405383  0.043120045            3 
  839000    1.1102523   -5.7560112    429.35582  0.042645592  0.043109377            3 
  840000    1.1350573   -5.7977023    426.47947  0.042309472  0.043097691            2 
  841000    1.1015249   -5.7892204    428.49159   0.04245854  0.043086372            5 
  842000    1.1121082   -5.8297414    427.61494  0.042321351  0.043074989            3 
  843000    1.0904601   -5.8099396    428.77487  0.042385812  0.043062893            2 
  844000    1.1158641   -5.7928021    429.53841  0.042410981  0.043050805            2 
  845000    1.1291805   -5.7918267    431.02078   0.04250698  0.043038811            3 
  846000    1.1004394   -5.7868928    430.54001  0.042409378  0.043027255            2 
  847000    1.1173175   -5.7772778    431.31244  0.042435305  0.043016219            3 
  848000    1.1239252   -5.7930061    432.72233  0.042523814   0.04300511            3 
  849000    1.1164949   -5.8065693    432.35116  0.042437294  0.042993967            3 
  850000    1.1170458   -5.7570464     434.4029   0.04258852  0.042982875            4 
  851000    1.1157276   -5.7838403     432.9815  0.042399285  0.042972122            6 
  852000    1.0973397   -5.7863979    433.45763  0.042396091  0.042960983            3 
  853000    1.0946805   -5.7793117    432.73406  0.042275699  0.042950065            2 
  854000    1.1083929   -5.8293576    434.29046   0.04237807  0.042938572            3 
  855000    1.1198822   -5.7926931    435.98993  0.042494145  0.042927242            3 
  856000    1.1106197   -5.8213021    434.98387   0.04234656  0.042915926            4 
  857000    1.1255629   -5.8263718    433.82686  0.042184642  0.042905049            5 
  858000    1.1114466   -5.8501638    433.79906  0.042132775  0.042893647            4 
  859000     1.118748    -5.774001    437.03849  0.042397991   0.04288259            3 
  860000    1.1089544   -5.7947794      436.885  0.042333818  0.042871789            4 
  861000    1.1194502   -5.8083738    437.06316  0.042301893   0.04286114            2 
  862000    1.1053516   -5.8104291    437.55128  0.042300008  0.042850084            2 
  863000    1.1099564   -5.8126665    437.32339  0.042228987  0.042839168            4 
  864000    1.1148134   -5.8163428    437.61906  0.042208629  0.042828205            3 
  865000       1.1037   -5.8185446    439.01033  0.042293866  0.042817143            2 
  866000    1.1144908   -5.7980541    439.89782  0.042330429   0.04280662            6 
  867000    1.0863247   -5.7905641    440.23293  0.042313815  0.042796026            2 
  868000    1.1213842   -5.7595693    441.51285  0.042387947  0.042785579            3 
  869000    1.1161899    -5.815353    440.11103   0.04220474  0.042775173            2 
  870000    1.1578047   -5.8528324    440.26979  0.042171435  0.042764205            2 
  871000    1.1276429   -5.7792507    441.87647  0.042276738  0.042753299            5 
  872000    1.1224024   -5.7963113     442.4152   0.04227974  0.042742538            3 
  873000    1.1087401   -5.8613498    442.01898  0.042193488  0.042731875            2 
  874000    1.1153286   -5.7863322    443.05824  0.042244302  0.042720979            3 
  875000    1.1054881   -5.8520709    441.77949  0.042074237  0.042709964            4 
  876000    1.0976695   -5.7852403    444.90668  0.042323695  0.042699555            2 
  877000    1.1190222   -5.7650515     444.5576  0.042242265  0.042688919            4 
  878000    1.1166504   -5.8377189    446.18864   0.04234896  0.042678995            4 
  879000     1.096677   -5.8064112    445.97436  0.042280466  0.042669125            3 
  880000    1.0996307   -5.7858096    448.29018  0.042451722  0.042659543            1 
  881000    1.1057005   -5.8221491    448.65855   0.04243838  0.042649876            2 
  882000    1.0957195   -5.8145332    446.40311  0.042177164  0.042639834            3 
  883000    1.1165739   -5.8246125    447.43619  0.042226896  0.042629917            4 
  884000    1.1127663   -5.8251256    448.90302  0.042317403  0.042619849            5 
  885000    1.0820386   -5.8595808    446.39199  0.042033144  0.042609509            8 
  886000    1.1050888   -5.8122144    449.19143  0.042249006  0.042599552            3 
  887000    1.0886706   -5.8483562    448.94646  0.042178359  0.042589529            2 
  888000    1.1247126   -5.8429861    448.18203  0.042059124  0.042579703            3 
  889000    1.1023109   -5.8226318    449.28774  0.042115461  0.042569653            6 
  890000    1.1300671   -5.7921627    451.64641   0.04228899  0.042560318            4 
  891000    1.1262209   -5.7773296    452.55284  0.042326303  0.042551002            2 
  892000    1.1158566   -5.8139327    452.31977  0.042257079  0.042541732            5 
  893000    1.1075954   -5.7995401    453.16021  0.042288187  0.042532203            3 
  894000    1.1363372   -5.8249921    453.46229  0.042269042  0.042523096            3 
  895000    1.0733322   -5.8461044    450.78328  0.041972372  0.042513309            3 
  896000    1.1166304   -5.8286935    452.62039   0.04209639  0.042503408            3 
  897000    1.1112957   -5.8414369    452.35997  0.042025266  0.042493464            3 
  898000    1.1020969   -5.8253661    454.70547  0.042196127  0.042483823            4 
  899000    1.1074604   -5.8519427    455.03371  0.042179617  0.042473929            3 
  900000    1.0764513   -5.8330418    456.14575  0.042235717  0.042464177            5 
  901000    1.1246192   -5.8476646    454.17874  0.042006913  0.042454696            3 
  902000    1.1085965   -5.7805165    457.57978  0.042274554  0.042445224            2 
  903000    1.1053676   -5.8237684     456.2834  0.042108103  0.042435537            3 
  904000    1.1270098   -5.8303775    456.05719   0.04204067  0.042425168            2 
  905000    1.0919774   -5.8009719    456.95545  0.042076929  0.042415133            6 
  906000    1.1097551   -5.7631725    458.14071  0.042139506   0.04240495            4 
  907000    1.1040219   -5.7834894    456.37613  0.041930919  0.042394887            5 
  908000     1.116039   -5.7750709     457.0588  0.041947393   0.04238434            3 
  909000    1.0975447   -5.8116256    455.81391  0.041787121  0.042373797            2 
  910000    1.1017602   -5.8355677    456.83722   0.04183491  0.042362904            5 
  911000     1.120051    -5.821348    457.43054  0.041843262  0.042351614            2 
  912000    1.1193737   -5.8101806    458.26797  0.041873901  0.042340776            3 
  913000    1.0816099   -5.8232783    456.88831  0.041702109   0.04232975            3 
  914000    1.1048113   -5.8762771     456.7316  0.041642195  0.042318113            2 
  915000    1.1008752   -5.8279442    457.11005  0.041631153  0.042307092            2 
  916000    1.0976848   -5.8141697    458.66695  0.041727342  0.042295556            3 
  917000     1.089514    -5.829275    459.04974  0.041716624  0.042284262            3 
  918000    1.1183133   -5.8117353    460.37739  0.041791702  0.042273387            3 
  919000    1.0841778   -5.8077664    458.56777  0.041582133  0.042262006            6 
  920000    1.0856573    -5.826729     460.0157  0.041668089  0.042250456            2 
  921000    1.1156313   -5.8098396    460.90865  0.041703642  0.042238793            3 
  922000    1.1088535   -5.8453177    460.28926  0.041602428  0.042227616            3 
  923000    1.1166099    -5.796554    461.85186  0.041698434  0.042216273            4 
  924000    1.1122864    -5.810747    462.81581  0.041740242    0.0422053            6 
  925000    1.1227028   -5.8180139    461.63096  0.041588375  0.042194339            2 
  926000    1.1146125   -5.7886344    461.32429  0.041515865  0.042183223            2 
  927000    1.0804282   -5.8219246    463.18614  0.041638452  0.042171858            2 
  928000    1.1191282   -5.7853627    462.75508  0.041554875  0.042160431            3 
  929000    1.0893148   -5.8342556    463.69983   0.04159489  0.042148819            2 
  930000    1.1169598    -5.834643    463.39132   0.04152252  0.042137324            3 
  931000    1.1336779   -5.8067199    464.74592  0.041599169  0.042125494            5 
  932000    1.0924371   -5.7884268    464.01804  0.041489453  0.042113542            3 
  933000    1.0890777   -5.8557507    464.60837  0.041497711  0.042101645            3 
  934000    1.1039482   -5.8069686    465.70777  0.041551372  0.042089723            3 
  935000    1.1005956   -5.8179209    466.86591  0.041610152  0.042077935            6 
  936000    1.1180611   -5.8046729    466.80174  0.041559984  0.042066717            2 
  937000    1.0814839   -5.8272073    466.80401  0.041515832  0.042055248            3 
  938000     1.090801   -5.7860863    468.62882  0.041633691  0.042044227            1 
  939000    1.0977301    -5.816101     468.0988  0.041542315    0.0420333            4 
  940000    1.0753091   -5.8241887    468.42722  0.041527235  0.042021969            2 
  941000    1.1181711   -5.8254425    468.41319  0.041481862  0.042010983            2 
  942000    1.0920961   -5.8279217      468.501  0.041445595  0.041999569            4 
  943000    1.1179985   -5.8078479    470.60999  0.041588016  0.041988603            4 
  944000    1.1107342   -5.8378963    468.89487  0.041392556  0.041977365            2 
  945000    1.0876637   -5.8000265    470.39094  0.041480683  0.041966472            5 
  946000    1.1089078   -5.8262323    469.23298  0.041334829  0.041955142            3 
  947000    1.1359057   -5.8135415    470.00772  0.041359356  0.041944071            1 
  948000    1.0823128   -5.8394629    470.72432   0.04137872  0.041932693            4 
  949000    1.0953016    -5.815745     471.2005  0.041376932  0.041920998            4 
  950000    1.0981263    -5.806177     472.5951   0.04145571  0.041909946            5 
  951000    1.1010736   -5.8073608    473.86777  0.041523639  0.041899111            4 
  952000    1.1004701   -5.7982058     474.5068  0.041535959  0.041888092            2 
  953000    1.0678601   -5.8038798    473.82431  0.041432696  0.041876766            2 
  954000    1.0958085   -5.8466415    473.33299  0.041346348  0.041865515            3 
  955000    1.1226786   -5.8112533    475.23097  0.041468671  0.041854636            7 
  956000    1.1055634   -5.8189577    473.29464  0.041256506  0.041843737            2 
  957000      1.08917   -5.8182589    475.85491  0.041436338  0.041833391            7 
  958000    1.0947911   -5.8728993    473.19805  0.041161974  0.041822477            3 
  959000    1.0987448    -5.865364    475.03784  0.041278922  0.041811338            5 
  960000    1.0851474   -5.8537241    477.49578  0.041449287  0.041800564            2 
  961000    1.1051263   -5.8388111    477.40848  0.041398585  0.041790137            1 
  962000    1.0925378   -5.8240078    478.71743  0.041468939  0.041779881            6 
  963000    1.0995405   -5.8463481    477.27614  0.041301154  0.041769465            2 
  964000    1.0828959   -5.8144322     478.1543  0.041334224   0.04175881            4 
  965000    1.0877868   -5.7781166    478.81688  0.041348608  0.041748472            4 
  966000    1.0814326   -5.8229928    478.25667  0.041257477  0.041737512            2 
  967000    1.0901618    -5.829455    480.21897  0.041383916  0.041726866            3 
  968000    1.1127221   -5.7996688    481.12263   0.04141896   0.04171665            5 
  969000    1.0969157   -5.8568394    479.95126  0.041275478  0.041706391            3 
  970000    1.0779687   -5.8594921    479.33485   0.04117997   0.04169621            3 
  971000    1.0939004   -5.8654856    480.31248  0.041221463  0.041685978            7 
  972000    1.0846208   -5.8202175    482.34626  0.041353417  0.041675407            8 
  973000    1.0803491   -5.8251166    483.36013   0.04139775   0.04166538            3 
  974000    1.0834005   -5.8302887    483.12112  0.041334798  0.041655014            6 
  975000    1.0830536   -5.8096342    482.15896  0.041210167  0.041644782            3 
  976000    1.1020081   -5.8165012    482.85196  0.041227114  0.041634509            5 
  977000    1.0950691   -5.7976453      484.517  0.041326936  0.041624309            3 
  978000    1.0826839   -5.8390911    485.37042  0.041357398  0.041614426            2 
  979000    1.0966382   -5.8000051    486.69895  0.041428239  0.041604821            3 
  980000    1.0892093   -5.8219982    485.29358  0.041266461  0.041594677            3 
  981000     1.095011   -5.8974488    484.97956   0.04119772  0.041584642            3 
  982000    1.0753574   -5.8555514    486.97929  0.041325466  0.041574696            3 
  983000    1.1006141   -5.8688866    486.13221  0.041211615   0.04156475            3 
  984000    1.0887115   -5.8319071    484.78062  0.041055269  0.041554947            2 
  985000    1.0684567   -5.8374463    489.72452  0.041431855  0.041545277            4 
  986000    1.0946894   -5.8030664     490.1878  0.041428989  0.041536169            4 
  987000     1.113562   -5.8383446    487.74772  0.041180996  0.041527019            4 
  988000    1.0711441   -5.8253242    489.15203  0.041257763  0.041517418            5 
  989000    1.0865985   -5.8357974    490.46688  0.041326835  0.041508169            5 
  990000    1.0849592   -5.8304694    491.07792  0.041336525  0.041499097            3 
  991000    1.1124439   -5.8496238    489.33195  0.041147994  0.041489807            3 
  992000    1.0827596   -5.8744782    490.25242  0.041183839  0.041480541            3 
  993000    1.0955096   -5.8580147     491.4633  0.041243983  0.041471044            2 
  994000    1.0884864    -5.851922    491.73417  0.041225199  0.041461846            2 
  995000    1.0936185   -5.8646394    492.38761  0.041238493  0.041452732            4 
  996000    1.0982882   -5.8912297    490.44696  0.041034719  0.041443414            3 
  997000    1.0915621   -5.8383971    493.36077  0.041237109  0.041434095            2 
  998000      1.07612   -5.8421467    495.05764  0.041337478  0.041424987            2 
  999000    1.0838995   -5.8227589    494.40508  0.041241665  0.041415735            1 
 1000000    1.0862543   -5.8444342    494.80732  0.041233943  0.041406616            6 
 1001000    1.1120942   -5.8640268    496.13436  0.041303227  0.041397232            2 
 1002000     1.099385   -5.8526252    493.68075  0.041057947  0.041388282            4 
 1003000    1.0811027   -5.8535784    495.27461  0.041149436  0.041379129            5 
 1004000     1.070879   -5.8394229     495.9066  0.041160906  0.041370047            8 
 1005000    1.0989706    -5.839159     497.6099  0.041261186  0.041361208            5 
 1006000    1.0819592   -5.8609516    497.22396  0.041188201  0.041352406            2 
 1007000    1.0793425   -5.8509083    497.91277  0.041204301  0.041343385            4 
 1008000    1.0924369    -5.854675    498.88673  0.041243943  0.041334145            4 
 1009000    1.0831892   -5.8582334    498.65013  0.041183526  0.041324875            3 
 1010000    1.0648514   -5.8427687     498.3224  0.041115709  0.041315856            4 
 1011000    1.0892174   -5.8312527    500.29539  0.041237668  0.041306781            3 
 1012000    1.0739477   -5.8533659    499.26914  0.041112413  0.041297624            5 
 1013000    1.1013843   -5.8885322    499.79314  0.041114934  0.041288287            3 
 1014000    1.0923608   -5.8634866     501.0939  0.041181287  0.041279261            2 
 1015000    1.0852462   -5.8711762    500.37912   0.04108203  0.041270231            2 
 1016000    1.0770275   -5.8305491    503.65096  0.041309954  0.041261361            7 
 1017000    1.0839619   -5.8932218    502.47342  0.041172846  0.041252632            5 
 1018000    1.0666555   -5.8191835    503.66712  0.041230118  0.041243961            3 
 1019000    1.0854032   -5.8874343    501.42348  0.041006173  0.041235291            2 
 1020000     1.086896   -5.8819197    503.44932   0.04113148  0.041226515            4 
 1021000    1.0908074   -5.8830029    503.20561  0.041071304  0.041217989            3 
 1022000     1.070855   -5.8367373    503.78588  0.041078432  0.041209429            2 
 1023000    1.0997277   -5.8280881    505.54426  0.041181513  0.041200738            3 
 1024000    1.0863982   -5.8278159     505.2853  0.041120223  0.041192463            7 
 1025000    1.0932376   -5.8788877    506.72756  0.041197362  0.041183809            2 
 1026000    1.0867677   -5.8232848    505.92721  0.041092204  0.041175728            5 
 1027000    1.0888956   -5.8422917    506.26714  0.041079774  0.041167035            4 
 1028000    1.0784699    -5.820392    510.14899   0.04135449  0.041158294            2 
 1029000    1.1218308   -5.8324962    507.24914  0.041079458  0.041150108            6 
 1030000    1.0868429   -5.8481602    508.46425  0.041137884  0.041141683            3 
 1031000    1.0532897   -5.8609119    508.18589  0.041075484  0.041133309            1 
 1032000    1.0869437   -5.8885149    507.29443  0.040963697  0.041124383            6 
 1033000    1.0868686   -5.8540097    508.37308  0.041011058  0.041115678            3 
 1034000    1.0884119   -5.8890299    507.82523  0.040927243  0.041106899            2 
 1035000    1.0937512   -5.8771917     506.9464  0.040816941  0.041097895            9 
 1036000     1.091896   -5.8713655    509.36499  0.040972087  0.041089223            4 
 1037000     1.078783   -5.8816956     508.5432  0.040866538   0.04108021            2 
 1038000    1.0816778   -5.8402523    511.03257  0.041027021  0.041071208            3 
 1039000    1.1076524   -5.8704618    508.93953   0.04081966   0.04106218            4 
 1040000    1.0868286   -5.8621084    510.26943  0.040886974  0.041053094            4 
 1041000    1.0873304   -5.8700339    508.20565  0.040682489  0.041044033            5 
 1042000    1.0770913   -5.8876725    512.39672  0.040978624   0.04103483            3 
 1043000     1.097895    -5.855008    512.58567  0.040954432  0.041026142            2 
 1044000    1.0904394   -5.8728213     510.3858  0.040739607   0.04101737            1 
 1045000    1.0752586   -5.8611251    513.42771  0.040943199  0.041008634            2 
 1046000    1.0682397   -5.8579769    513.19579  0.040885579  0.040999922            2 
 1047000    1.0871967   -5.8702207    513.64478  0.040882265   0.04099082            4 
 1048000    1.0790851   -5.8645772     511.8851  0.040703332  0.040981681            2 
 1049000    1.0946047   -5.8639491    513.74754  0.040812484  0.040972647            4 
 1050000    1.0761418   -5.8578091    515.20316   0.04088914  0.040963659            4 
 1051000    1.0990083   -5.8258605    515.94983  0.040909438  0.040954818            3 
 1052000    1.0810101   -5.8898745    514.01101  0.040716969  0.040946101            2 
 1053000    1.0960916   -5.8436219    515.61713  0.040805408  0.040936925            4 
 1054000    1.0543453   -5.8902423    515.46345  0.040754542   0.04092765            3 
 1055000    1.0747911   -5.8738846    515.71668  0.040735915  0.040918475            5 
 1056000    1.0955865    -5.894603    516.77746   0.04078105  0.040909524            6 
 1057000    1.0726147   -5.9032517    515.68767  0.040656549   0.04090055            4 
 1058000    1.0880572   -5.8977648    517.01438  0.040722619  0.040891453            4 
 1059000    1.0638461   -5.8946277    516.73082  0.040661852  0.040882157            5 
 1060000    1.0861937   -5.8185003    519.21869   0.04081908  0.040873403            4 
 1061000    1.0779598   -5.8504373    519.43526  0.040797617  0.040864803            3 
 1062000    1.0989682   -5.8385168     520.0343  0.040806207  0.040856261            2 
 1063000    1.0879625   -5.9079755    519.72917  0.040743898   0.04084803            4 
 1064000    1.0635567   -5.8855892    519.45265  0.040683948   0.04083899            3 
 1065000    1.0663966   -5.8546092     521.3526  0.040794413  0.040830021            7 
 1066000    1.0827223   -5.8896649    519.23859  0.040590884  0.040821037            3 
 1067000    1.1027056    -5.861504    521.31097  0.040714696  0.040812191            2 
 1068000    1.0959712   -5.8863694    521.35206   0.04067978  0.040803361            5 
 1069000    1.0752189   -5.8527151    522.49606  0.040730906  0.040794125            2 
 1070000    1.0766684   -5.9056523    522.68217  0.040707334  0.040784915            9 
 1071000    1.0661209   -5.8715157    523.01381   0.04069513  0.040775776            4 
 1072000    1.0673964   -5.8572363    522.41411  0.040610549  0.040767014            5 
 1073000    1.1071172   -5.8531309    524.82743  0.040760129  0.040758131            4 
 1074000    1.0768419   -5.8911788    522.34246  0.040529365  0.040749375            4 
 1075000     1.068344   -5.8559508    524.60673  0.040667188   0.04074041            4 
 1076000    1.0756113   -5.9115087    524.03316  0.040584972  0.040731647            3 
 1077000    1.0674027   -5.8885859    524.33456   0.04057061  0.040722454            5 
 1078000    1.0614382    -5.883231    523.52839  0.040470655  0.040713409            3 
 1079000    1.0872747   -5.8446093    526.98573  0.040700165  0.040704458            2 
 1080000    1.0844444   -5.8782502    525.59331  0.040555039    0.0406958            4 
 1081000    1.0968155   -5.8877728    526.37632  0.040577885  0.040687021            5 
 1082000    1.0570706   -5.9148967    525.79388  0.040495524  0.040677977            3 
 1083000    1.0640044   -5.8678223    528.21642  0.040644538  0.040668912            2 
 1084000    1.0573387   -5.8724785    526.24179  0.040455242  0.040659761            3 
 1085000    1.0780582   -5.8827808    526.56577   0.04044284  0.040650501            5 
 1086000    1.0776249   -5.8528171    531.62947  0.040794158  0.040641347            5 
 1087000    1.0875541   -5.8471484    530.07542   0.04063749  0.040632623            1 
 1088000    1.0776402   -5.8887731    528.49605  0.040479171   0.04062343            2 
 1089000    1.0791622   -5.9007365    527.16331  0.040340014  0.040614156            3 
 1090000     1.066679   -5.8546917    529.25324  0.040462786  0.040604816            2 
 1091000    1.0844511   -5.9063653    527.71125  0.040307917  0.040595298            3 
 1092000     1.084056   -5.8849472    528.01291  0.040294026  0.040585768            4 
 1093000    1.0796231    -5.883758    528.55846  0.040298754  0.040575703            2 
 1094000    1.0878239   -5.9042693    528.43652  0.040252629  0.040565989            3 
 1095000    1.0836125   -5.8588216    529.99736  0.040334654  0.040556414            4 
 1096000    1.0832747   -5.8594368    531.18063  0.040387821  0.040547022            2 
 1097000    1.0712101   -5.9107552    530.12011  0.040270443  0.040537757            2 
 1098000     1.042853   -5.8512682    531.07326  0.040306107  0.040528268            4 
 1099000    1.0866484   -5.9070068    531.51842  0.040303186  0.040518722            3 
 1100000    1.0496012   -5.9016319    530.77957  0.040210574  0.040509288            6 
 1101000    1.0779265   -5.8535797    533.47626  0.040378161  0.040499785            3 
 1102000    1.0574945   -5.8742859    532.74244  0.040286028  0.040490325            1 
 1103000    1.0616927   -5.8795227    532.53284  0.040233669  0.040481073            4 
 1104000    1.0927869     -5.88116    536.01985  0.040460435  0.040471876            3 
 1105000    1.0805737   -5.9047254    532.85303  0.040184994  0.040462466            3 
 1106000    1.0693979   -5.9042243    533.86062   0.04022458  0.040453152            3 
 1107000    1.0768749   -5.9070639    533.92188  0.040192854  0.040443673            4 
 1108000    1.0580185   -5.8710756    536.45626  0.040347192  0.040434282            4 
 1109000    1.0824936   -5.8893079    535.19219  0.040215824  0.040424999            3 
 1110000    1.0793843   -5.9240662    533.90757  0.040083151  0.040415693            4 
 1111000    1.0552932   -5.8714799    538.06935  0.040359237  0.040406541           16 
 1112000    1.0702868   -5.8789616    537.73164  0.040297635  0.040397589            4 
 1113000    1.0838451   -5.9223121     536.1512  0.040143096  0.040388658            7 
 1114000     1.059363   -5.9033829    537.86622  0.040235354  0.040379431            3 
 1115000    1.0764247   -5.9111459     537.9504  0.040205561  0.040370343            5 
 1116000    1.0822938   -5.9177791    538.93655  0.040243171  0.040361379            3 
 1117000    1.0527799   -5.9067751    539.98017  0.040285002  0.040352577           10 
 1118000    1.0748153   -5.8918986    541.68596  0.040376115   0.04034385            3 
 1119000    1.0943739   -5.8826804    540.36487   0.04024165   0.04033495            6 
 1120000    1.0622501   -5.9103378    540.50594  0.040216216  0.040326337            3 
 1121000    1.0634797   -5.8871553    542.29847  0.040313594  0.040317784            4 
 1122000    1.0836405   -5.8868503    542.64313  0.040303263   0.04030917            3 
 1123000    1.0798399   -5.8547005    543.71705  0.040347065   0.04030072            4 
 1124000    1.0804219   -5.8797562    543.79422   0.04031689  0.040292418            2 
 1125000    1.0556913    -5.904555     542.7342  0.040202533  0.040284258            3 
 1126000    1.0743698   -5.8795175    544.58613  0.040303887  0.040275889            7 
 1127000     1.079798   -5.9064452    544.42292  0.040256057  0.040267621            5 
 1128000    1.0727388    -5.947694    543.07279  0.040120626  0.040259105            3 
 1129000    1.0686809   -5.8810236    545.22942  0.040244274   0.04025062            4 
 1130000    1.0862021   -5.9224501    545.10066  0.040199164  0.040242526            3 
 1131000    1.0663263   -5.9252634    544.05761  0.040086767  0.040234245            7 
 1132000      1.06505   -5.8710739    547.11146  0.040276168  0.040226024            2 
 1133000    1.0780942   -5.9326059      547.308  0.040255075  0.040217688            3 
 1134000    1.0694209   -5.8963481    549.09814  0.040351127  0.040209343            3 
 1135000    1.0805335   -5.9299825    545.26842  0.040034392  0.040200904            3 
 1136000     1.050856   -5.8854996    550.36589  0.040373085  0.040192487            1 
 1137000    1.0684355   -5.9290474    548.59857  0.040208045  0.040184584            5 
 1138000    1.0985491   -5.8905006    549.30118  0.040224164  0.040176589            6 
 1139000    1.0504447   -5.9244104    549.25172   0.04018523  0.040168235            2 
 1140000     1.080323   -5.9338135    547.92614   0.04005308  0.040160307            3 
 1141000    1.0665883   -5.8729341    551.10229  0.040249948  0.040151937            4 
 1142000    1.0570799   -5.8972003    549.25905  0.040080199  0.040143625            4 
 1143000    1.0741678   -5.8494622     552.6274  0.040290712  0.040135147            4 
 1144000     1.079379   -5.8669692    550.53918  0.040103378  0.040127173            2 
 1145000    1.0752749   -5.8883224      552.426  0.040205677  0.040118907            4 
 1146000    1.0686744   -5.8923526    551.80685  0.040125571  0.040111189            3 
 1147000    1.0733981   -5.9007944    551.87191  0.040095314  0.040103096            1 
 1148000    1.0784138   -5.9402354    551.28656  0.040017898  0.040094814            6 
 1149000    1.0844613   -5.9025062    552.72567  0.040087444  0.040086154            2 
 1150000    1.0813607   -5.9114649    551.81324  0.039986467  0.040077294            3 
 1151000     1.078524   -5.9328138    550.31746  0.039843431   0.04006837            3 
 1152000    1.0763548    -5.937554    552.26986  0.039950076  0.040059157            4 
 1153000    1.0799334   -5.8602831    553.67131  0.040016718  0.040050125            3 
 1154000    1.0682498   -5.8690413    555.78866  0.040134941  0.040041339            1 
 1155000    1.0693568   -5.8966151    552.23676  0.039843922  0.040032444            4 
 1156000    1.0626207   -5.8915807    554.62144  0.039981361  0.040023528            6 
 1157000    1.0710136   -5.8953089    554.22843  0.039918498  0.040014271            4 
 1158000    1.0734525   -5.9437643    553.27771  0.039815609  0.040004974            8 
 1159000    1.0847249    -5.928079    554.52522  0.039870953  0.039995734            3 
 1160000    1.0380248   -5.9339849    553.23706  0.039744042  0.039986298            3 
 1161000    1.0705009   -5.9159983    553.58277  0.039734623  0.039977245            2 
 1162000    1.0607887   -5.9146156    554.45782  0.039763183  0.039967882            2 
 1163000    1.0785809   -5.9232324    555.25312  0.039785979  0.039958304            2 
 1164000     1.058838   -5.8937492    553.15746  0.039601765  0.039948841            6 
 1165000    1.0619137   -5.9264919    554.90969  0.039693111  0.039939422            8 
 1166000    1.0592339   -5.9129774    555.49719  0.039701057  0.039930076            3 
 1167000    1.0417523   -5.9458355    554.58792  0.039602108  0.039920629            4 
 1168000    1.0613822   -5.8603917    558.09207  0.039818213  0.039911251            2 
 1169000    1.0461189   -5.9053292    557.40884  0.039735447  0.039902117            2 
 1170000    1.0805829   -5.9180579    556.67716   0.03964937  0.039892942            4 
 1171000    1.0402676   -5.9297574    558.57399  0.039750497  0.039884175            4 
 1172000    1.0706682   -5.9381313    557.29893   0.03962592  0.039874682            4 
 1173000     1.075902   -5.9121171    558.61249  0.039685457  0.039865166            1 
 1174000    1.0451049   -5.8769912    559.97232  0.039748177  0.039855858            3 
 1175000    1.0541706   -5.9215543    559.19634  0.039659315  0.039846814            3 
 1176000    1.0454603   -5.9321562    560.69997   0.03973214  0.039837883            3 
 1177000    1.0627652   -5.8803653    561.59799  0.039761965  0.039828916            3 
 1178000    1.0725858   -5.9037525    563.55681  0.039866781  0.039820766            5 
 1179000    1.0524005    -5.913376    562.85586  0.039783422  0.039811968            2 
 1180000     1.094317   -5.8988972    561.74228  0.039671065  0.039803335            2 
 1181000    1.0766173   -5.8867042    563.65947  0.039772754  0.039794743            2 
 1182000    1.0613068   -5.9324996    561.63809  0.039596594  0.039785912            5 
 1183000    1.0844291   -5.9149968    562.14219  0.039598632  0.039777147            3 
 1184000    1.0654422   -5.9259553    564.75862   0.03974934  0.039768264            6 
 1185000    1.0424687   -5.8927525    565.58175  0.039773681  0.039759467            2 
 1186000    1.0635439   -5.9006837    564.39678  0.039656885   0.03975063            6 
 1187000    1.0688654    -5.884169    567.08687  0.039812333  0.039741952            5 
 1188000    1.0546208   -5.9245668    565.64996  0.039678028  0.039733141            2 
 1189000    1.0739294    -5.927775    565.59228  0.039640614  0.039724578            4 
 1190000    1.0708829   -5.9273396    565.51885   0.03960216  0.039715663            3 
 1191000    1.0613488   -5.8893325    567.76618  0.039726153  0.039707001            4 
 1192000    1.0453835   -5.9140661    566.97118  0.039637247  0.039698669            4 
 1193000    1.0739463   -5.9235889    569.21871  0.039761016   0.03969025            3 
 1194000    1.0606639   -5.9296672    567.57878   0.03961326  0.039681926            7 
 1195000    1.0757053   -5.9072162    570.01546  0.039750032  0.039673448            4 
 1196000    1.0583404   -5.9434833    568.01086  0.039577122   0.03966529            6 
 1197000    1.0599736   -5.9069515    569.82273  0.039670199  0.039656952            2 
 1198000    1.0530925   -5.8992986    573.45652  0.039889852  0.039648773            4 
 1199000    1.0425031   -5.9590833    569.19796  0.039560604  0.039640357            5 
 1200000    1.0669958   -5.9172803    572.25935  0.039740233  0.039631935            7 
 1201000    1.0556359   -5.8940066    571.33455  0.039642974  0.039623653            5 
 1202000    1.0239307   -5.8947883     572.9487  0.039721901  0.039615504            6 
 1203000    1.0668115   -5.8943868    571.42566  0.039583379  0.039607383            8 
 1204000    1.0629408   -5.9429771     571.2251  0.039536621  0.039599057            4 
 1205000    1.0479162   -5.8996047    574.20785  0.039710086  0.039591024            5 
 1206000    1.0616773   -5.8766693    574.81788  0.039719312  0.039583146            3 
 1207000    1.0495439   -5.8813515     576.3651  0.039793227  0.039575161            6 
 1208000     1.099186   -5.8950366    575.13128  0.039675171  0.039566833            1 
 1209000     1.050723   -5.8892731    574.54641  0.039602041  0.039558898            4 
 1210000    1.0529347   -5.9187364    574.79265  0.039586271  0.039550542            3 
 1211000    1.0505965   -5.9493794    575.22753  0.039583507  0.039542149            7 
 1212000    1.0337481   -5.9300086    575.88151  0.039595813  0.039533825            3 
 1213000    1.0436938   -5.9487488     573.4756  0.039397884  0.039525313            4 
 1214000    1.0617706   -5.9580892    576.76351  0.039591125  0.039516872            2 
 1215000    1.0452949   -5.8847082    577.63171  0.039618087  0.039508515            3 
 1216000    1.0588278   -5.8857607    579.53507  0.039715945  0.039500418            1 
 1217000    1.0424571   -5.9297461    577.20282  0.039523612  0.039492416            2 
 1218000    1.0770945   -5.9354341    575.87531  0.039400336  0.039484231            2 
 1219000    1.0580228   -5.9452421    576.20071  0.039390259  0.039475852            4 
 1220000    1.0550273   -5.9506605    578.53563  0.039517461  0.039467548            3 
 1221000    1.0531678   -5.9248431    580.16259  0.039596136  0.039459283            2 
 1222000    1.0732021   -5.9443883    578.59233  0.039456651  0.039451051            2 
 1223000    1.0434391   -5.9459097    578.53694  0.039420614  0.039442863            4 
 1224000    1.0490216   -5.9167426    580.53078  0.039524155  0.039434566            1 
 1225000    1.0583599   -5.9558538    578.18213  0.039332118  0.039426257            3 
 1226000    1.0563844   -5.9473406    580.07823  0.039428917  0.039418008            2 
 1227000    1.0561742   -5.9196131    580.55609  0.039429237    0.0394098            1 
 1228000    1.0596069   -5.9023021    581.38251   0.03945321  0.039401328            6 
 1229000    1.0603252    -5.951648    579.62105  0.039301671  0.039392863            4 
 1230000    1.0554531   -5.9413462    581.29617  0.039383209  0.039384107            3 
 1231000    1.0551051   -5.9223108     582.4056   0.03942632  0.039375842           10 
 1232000    1.0693917   -5.9761263     580.3117  0.039252686   0.03936748            3 
 1233000    1.0713044   -5.9080273    583.12972  0.039411309  0.039359312            6 
 1234000    1.0664559   -5.9369817    583.64546  0.039414199  0.039351107            3 
 1235000    1.0289795   -5.9477282    584.75435  0.039457108  0.039343058            6 
 1236000    1.0637277   -5.9259737    586.53647  0.039545339  0.039335024            5 
 1237000    1.0699877   -5.9428185    585.86375  0.039468051  0.039327062            4 
 1238000     1.030839   -5.8871736    589.33352  0.039669731  0.039319262            2 
 1239000    1.0792035   -5.9208399    584.81961  0.039334114  0.039311568            6 
 1240000    1.0491667   -5.9390622    586.87749  0.039440691  0.039303987            4 
 1241000    1.0451926   -5.9102926    588.99639  0.039551194  0.039296494            6 
 1242000    1.0703953   -5.9584516    587.64476  0.039428661  0.039288721            2 
 1243000    1.0244017   -5.9598414    587.13672   0.03936288  0.039281021            3 
 1244000    1.0666869    -5.959926    589.47242  0.039487703  0.039273182            2 
 1245000    1.0444721   -5.9239977    591.66472  0.039602726  0.039265365            3 
 1246000    1.0360285   -5.9641768    587.98073  0.039324554  0.039257695            7 
 1247000    1.0459586   -5.9401097    589.69315  0.039407455  0.039249884            4 
 1248000    1.0497527   -5.9146608    588.97035  0.039327614  0.039241988            5 
 1249000    1.0651355   -5.9335087    589.54485  0.039334458  0.039234209            3 
 1250000    1.0627113   -5.9567864    590.19888  0.039346592  0.039226554            2 
 1251000    1.0315039   -5.9206549    591.73894  0.039417729  0.039218943            2 
 1252000     1.057846   -5.9341922    590.20247  0.039283977  0.039211064            2 
 1253000    1.0476587    -5.939993    589.66978  0.039217197  0.039203097            3 
 1254000    1.0199837   -5.9440432    590.58232  0.039246566  0.039195091            3 
 1255000    1.0549128   -5.9126523    591.31191  0.039263739  0.039186744            3 
 1256000    1.0487721   -5.9449574    588.78827  0.039065039  0.039178596            4 
 1257000    1.0596682   -5.9139668    592.04855  0.039250103  0.039170472            3 
 1258000    1.0648088   -5.9158517    592.42348  0.039243738  0.039162416            3 
 1259000    1.0471798   -5.9339714    592.32161  0.039205825  0.039154533            3 
 1260000    1.0422288   -5.9428054    593.10945  0.039226816  0.039146145            4 
 1261000    1.0360762   -5.9641693    592.56516  0.039159738   0.03913767            6 
 1262000    1.0329734   -5.9936165    590.42342  0.038987284  0.039128967            2 
 1263000    1.0765289   -5.9227949     592.0049  0.039060761  0.039120495           10 
 1264000    1.0460076   -5.9385743     594.9602  0.039224697  0.039112298            4 
 1265000    1.0555834   -5.9571185    594.19617  0.039143358  0.039104189            5 
 1266000    1.0495604   -5.9427131    592.89489  0.039026783  0.039095829            3 
 1267000    1.0411438   -5.9401457    595.60703  0.039174364  0.039087839            5 
 1268000    1.0882815    -5.975517    594.91427  0.039097941  0.039079844            6 
 1269000    1.0415706   -5.9393604    596.04199  0.039141187  0.039071564            5 
 1270000    1.0414461   -5.9631602    594.72897   0.03902421  0.039063256            7 
 1271000    1.0381191   -5.9917818    592.96277  0.038877706  0.039054572            2 
 1272000    1.0463475   -5.9372146    596.50979   0.03907952  0.039046175            4 
 1273000    1.0426605   -5.9654743    594.62571  0.038925485  0.039037826            6 
 1274000    1.0347817   -5.9811677    596.08301  0.038990254  0.039029464            3 
 1275000     1.051476    -5.926415     599.5318  0.039185085  0.039021325            2 
 1276000    1.0331018   -5.9123422      599.837  0.039174308  0.039013302            4 
 1277000    1.0275507   -5.9775917    598.61969  0.039064193   0.03900529            2 
 1278000    1.0551261   -5.9182931    600.26278  0.039140766  0.038997467            3 
 1279000    1.0098809   -5.9541477    600.67239  0.039136851  0.038989478            5 
 1280000    1.0545989   -5.9750399    596.96146  0.038864679  0.038981444            2 
 1281000    1.0353813    -5.961267    597.92771  0.038897197  0.038973232            3 
 1282000    1.0584861   -5.9668602    599.98098  0.039000324  0.038964989            3 
 1283000    1.0506556   -5.9766101    599.64586  0.038948159  0.038956531            3 
 1284000    1.0287422   -5.9844805    598.95817  0.038873194  0.038947894            4 
 1285000    1.0353856   -5.9664299    599.03421  0.038847873  0.038939229            5 
 1286000    1.0535613   -5.9271284     602.7891  0.039060983  0.038930685            3 
 1287000    1.0243457   -5.9450056    600.92138  0.038909698  0.038922241            3 
 1288000    1.0484564    -5.953581    600.34079  0.038841925  0.038913738            2 
 1289000     1.023813   -5.9767167    599.73255  0.038772469  0.038905133            2 
 1290000    1.0455725   -5.9421154    601.29554  0.038843381  0.038896296            2 
 1291000     1.048701   -5.9913448    601.17628  0.038805595  0.038887738            3 
 1292000     1.053501   -5.9574518    602.45195   0.03885784  0.038879022            3 
 1293000    1.0369708   -5.9464343    601.79172  0.038785236  0.038870239            4 
 1294000    1.0356012    -5.909497    604.54382  0.038932498  0.038861555            5 
 1295000    1.0376114    -5.936918    605.55772  0.038967678  0.038853167            6 
 1296000    1.0649744   -5.9725722    602.90251  0.038766879  0.038844761            3 
 1297000    1.0500545   -5.9402489    604.47282  0.038837883   0.03883628            6 
 1298000    1.0508929   -5.9384287    606.14928  0.038915593  0.038827783            7 
 1299000    1.0282318   -5.9664414    606.00915  0.038876646  0.038819382            2 
 1300000    1.0356265   -5.9956062     604.4455  0.038746506  0.038810746            5 
 1301000    1.0342384   -5.9461299    605.09048  0.038758037  0.038802322            4 
 1302000    1.0557954   -5.9524671    605.76434  0.038771399  0.038793843            3 
 1303000    1.0603799   -5.9769902    605.78838  0.038743181  0.038785456            3 
 1304000    1.0240216   -5.9903381    606.68256  0.038770613  0.038777035            3 
 1305000    1.0630232   -5.9499759    609.48218  0.038919679  0.038768562            4 
 1306000    1.0375743   -5.9690474    607.77824  0.038781154  0.038760115            4 
 1307000    1.0620459   -5.9794315     606.1539  0.038647915  0.038751359            3 
 1308000    1.0317033   -5.9180013     609.1849  0.038811474  0.038742638            3 
 1309000    1.0393098    -5.933503     607.5236  0.038676063  0.038734087            2 
 1310000    1.0372985   -5.9787984    608.01158  0.038677582  0.038725623            4 
 1311000    1.0382119    -5.975645    608.96623  0.038708761  0.038717326            2 
 1312000    1.0619906    -5.987573    609.45959  0.038710594   0.03870887            4 
 1313000    1.0547038   -5.9698866    610.43959   0.03874331  0.038700476            2 
 1314000    1.0362145   -5.9712565    610.33104  0.038706941  0.038692309            3 
 1315000    1.0449321   -5.9813966    611.78898  0.038769897   0.03868381            3 
 1316000    1.0292747   -5.9643713    610.61707  0.038666228  0.038675266            2 
 1317000    1.0468631   -5.9434934    612.02947  0.038726238  0.038666908            2 
 1318000    1.0508126   -5.9417947    613.07104  0.038762711    0.0386585            3 
 1319000    1.0459642   -5.9630952    611.50353  0.038634289  0.038649924            1 
 1320000    1.0359888    -5.968437     611.8421  0.038626395  0.038641152            2 
 1321000    1.0230776   -5.9725039    608.95205  0.038414841  0.038632608            2 
 1322000    1.0213366   -5.9941577    609.69599  0.038432677   0.03862371            4 
 1323000    1.0661229    -5.994658     610.3382  0.038444079  0.038614972            4 
 1324000    1.0234102   -6.0080242    610.02175  0.038395125  0.038605967            5 
 1325000    1.0322444   -5.9895517    613.66527    0.0385953  0.038597107            3 
 1326000    1.0158343   -5.9309994    614.42564  0.038613979  0.038588332            3 
 1327000     1.051168   -5.9227442     613.8161  0.038546603  0.038579767            2 
 1328000     1.059762   -6.0028598    611.01631  0.038341887  0.038570813            4 
 1329000    1.0520803   -5.9505576    616.21363  0.038638928  0.038561902            3 
 1330000    1.0427479   -5.9935667    611.56853   0.03831883  0.038552787            3 
 1331000    1.0346735   -5.9431165    615.36177  0.038527534  0.038543635            4 
 1332000    1.0479686   -5.9496523    615.92192  0.038533654  0.038534617            7 
 1333000    1.0504315   -5.9722349    613.61033  0.038360236  0.038525726            2 
 1334000    1.0324954    -5.989032    612.46187  0.038259737  0.038516646            4 
 1335000    1.0456673   -5.9902037    613.68401  0.038307366  0.038507681            4 
 1336000    1.0602063   -6.0075737    614.07941  0.038303356  0.038498587            5 
 1337000    1.0473847    -5.981097    614.74982  0.038316494  0.038489679            4 
 1338000    1.0408767   -5.9974152    615.13321  0.038311735  0.038480281            4 
 1339000    1.0280403   -5.9630817    614.73715  0.038258473  0.038471176            5 
 1340000    1.0351947   -6.0137585    614.79292  0.038233391  0.038461917            6 
 1341000    1.0560178   -5.9472499    615.99041  0.038279295  0.038452613            4 
 1342000    1.0366397   -5.9468803    615.34989  0.038210997  0.038443358            3 
 1343000    1.0073842   -5.9588248    617.79935  0.038334534  0.038434265            3 
 1344000    1.0482165    -5.977115    617.70962  0.038300448  0.038425007            3 
 1345000    1.0528382   -5.9840879    618.70069  0.038333376  0.038415893            2 
 1346000    1.0113698   -5.9612533    619.28181  0.038340875  0.038406853            3 
 1347000    1.0545963    -5.984984    619.44063  0.038322237  0.038398048            2 
 1348000    1.0036979   -6.0507049    616.97703  0.038141508  0.038389001            2 
 1349000    1.0343977   -5.9842282    618.87264  0.038230334  0.038379976            4 
 1350000    1.0007015   -5.9517023    620.54463  0.038305224  0.038370836            2 
 1351000    1.0331476   -6.0091984    619.77659  0.038229496  0.038361633            9 
 1352000    1.0370258    -5.925514    620.74542  0.038260935  0.038352558            2 
 1353000    1.0502099   -5.9495237    621.50999  0.038279748  0.038343419            4 
 1354000    1.0320526   -5.9614767    619.37427  0.038120031  0.038334142            5 
 1355000    1.0548538    -5.981079     622.4614  0.038281759  0.038325008            2 
 1356000    1.0227386   -5.9653486    622.41953  0.038250954  0.038315954            3 
 1357000     1.030537     -5.97589    621.42422  0.038161644   0.03830699            3 
 1358000    1.0209998   -5.9780986    620.86319  0.038099116  0.038297899            3 
 1359000    1.0338797   -5.9676136    622.63184  0.038179534  0.038288695            2 
 1360000     1.002877   -5.9808571    623.93563   0.03823135  0.038279711            3 
 1361000     1.061275   -5.9519471    623.44472  0.038173201  0.038270666            3 
 1362000    1.0263041   -5.9668279    622.44904  0.038084254  0.038261454            6 
 1363000    1.0624628   -6.0219988    620.55782  0.037940684  0.038252096            3 
 1364000    1.0185315   -5.9754449    623.64134  0.038101255   0.03824271            1 
 1365000    1.0590952   -5.9651658    624.06905  0.038099454  0.038233441            5 
 1366000    1.0207729   -6.0363116    620.49079  0.037853269  0.038224069            6 
 1367000    1.0194968   -6.0156969    621.14962  0.037865741  0.038214441            5 
 1368000    1.0266869   -5.9778082    625.11682  0.038079729  0.038205208            3 
 1369000    1.0232248   -5.9484703    626.74727  0.038151161  0.038195914            2 
 1370000    1.0400298    -5.978228    624.33646   0.03797667  0.038186527            2 
 1371000    1.0496112   -6.0159136     624.1325  0.037936573  0.038177103            5 
 1372000    1.0159665   -5.9708071    626.24257  0.038037085  0.038167759            2 
 1373000    1.0237132   -5.9799953    627.60527  0.038092089  0.038158778            6 
 1374000    1.0262208   -5.9861879    625.70356  0.037949027  0.038149715            4 
 1375000    1.0352689   -5.9689994    628.45991   0.03808848  0.038140537            6 
 1376000    1.0332684   -5.9878434    626.39429  0.037935701  0.038131373            3 
 1377000    1.0460128   -6.0155233     627.5336    0.0379771  0.038122298            6 
 1378000    1.0126961   -5.9946762     628.5608  0.038011659  0.038113102            2 
 1379000    1.0184908   -5.9999415    628.25146  0.037965401  0.038104154            3 
 1380000    1.0153873   -6.0062448    628.00973  0.037923293  0.038095112            3 
 1381000     1.027206   -5.9821684    629.00151  0.037955679  0.038085865            6 
 1382000    1.0289558   -5.9755684    628.46211  0.037895689  0.038076551            2 
 1383000    1.0450602   -5.9518696    629.31687  0.037919792  0.038067502            6 
 1384000    1.0228838   -5.9971818     630.9412  0.037990198  0.038058531            2 
 1385000     1.037516    -5.997028    629.19058  0.037857436  0.038049537            5 
 1386000    1.0329934   -5.9587779    632.05496  0.038002342  0.038040528            9 
 1387000    1.0337724   -5.9966448    631.85019   0.03796264  0.038031608            4 
 1388000    1.0103618   -5.9747638    632.57497  0.037978805  0.038022587            3 
 1389000    1.0305987   -5.9699862    632.93043  0.037972788  0.038013829            4 
 1390000    1.0440683   -5.9645749     632.8409  0.037940102   0.03800499            2 
 1391000     1.022685   -6.0122196    633.07201  0.037926672  0.037996004            3 
 1392000    1.0160215   -6.0202856    631.54212  0.037807838  0.037987073            3 
 1393000    1.0419186   -5.9814989    634.72716  0.037971234  0.037978267            4 
 1394000    1.0156924   -5.9613868    633.85789  0.037892031  0.037969751            4 
 1395000    1.0151754   -5.9924046    633.78909  0.037860758  0.037961021            6 
 1396000    1.0235554   -5.9939526     633.9483  0.037843141  0.037952083            2 
 1397000    1.0132777   -6.0051275     634.5662  0.037852911  0.037943398            5 
 1398000    1.0373153   -5.9879876    636.01653  0.037912287  0.037934937            2 
 1399000     1.012598   -5.9791416    635.74922  0.037869265  0.037926337            5 
 1400000    1.0372074   -6.0099029    635.67669  0.037837898  0.037917484            5 
 1401000    1.0272911   -6.0367211    635.67574  0.037810834  0.037908593            1 
 1402000    1.0106142   -5.9772106    637.15609  0.037871855  0.037900047            3 
 1403000    1.0068313   -6.0117667    634.95452  0.037714096  0.037891546            4 
 1404000    1.0288601   -5.9885929    638.71173   0.03791024  0.037882854            6 
 1405000    1.0343545   -5.9898926    636.49626  0.037751854  0.037874103            4 
 1406000    1.0156812   -6.0032541    637.73628  0.037798499  0.037865256            3 
 1407000    1.0310358   -6.0194839    636.08303  0.037673717   0.03785629            5 
 1408000    1.0317448   -5.9576377    640.00144  0.037878873  0.037847439            5 
 1409000    1.0462993   -6.0101581    638.37004  0.037755503  0.037838629            4 
 1410000    1.0411083   -6.0003368    638.66493  0.037746154  0.037829738            2 
 1411000    1.0441514   -6.0226589    636.78214  0.037608205  0.037820865            5 
 1412000    1.0372971    -6.016499    637.75239  0.037638833  0.037811904            4 
 1413000    1.0041697   -6.0249192     638.0602  0.037630349  0.037802966            2 
 1414000    1.0329472   -6.0625797     636.3887  0.037505227  0.037793821            3 
 1415000    1.0362522   -6.0205834    640.25199  0.037706242  0.037784687            4 
 1416000    1.0136783   -6.0011632    640.76265  0.037709666  0.037775924            3 
 1417000    1.0249124   -6.0129872    642.61779  0.037792154  0.037767353            4 
 1418000    1.0276274    -5.990832    642.05141  0.037732218  0.037758629            3 
 1419000    1.0122727   -5.9878322    640.94589  0.037640703  0.037749829            4 
 1420000    1.0093957   -5.9478293     644.2185   0.03780625  0.037741094            2 
 1421000     1.029594   -6.0450266    640.41779  0.037556755  0.037732303            5 
 1422000    1.0204469   -6.0048008    641.44208   0.03759037  0.037723365            8 
 1423000     1.024217   -5.9986112    642.81251  0.037644209  0.037714285            2 
 1424000    1.0036849   -6.0375927    640.51483  0.037483312  0.037705255            3 
 1425000    1.0254452   -6.0093797    642.68399  0.037583859  0.037696283            2 
 1426000    1.0501547   -5.9688488    643.36673  0.037597401  0.037687248            4 
 1427000    1.0131027   -6.0109727    642.06715  0.037495162  0.037678178            4 
 1428000    1.0057989   -6.0563251    641.63002  0.037443395  0.037669217            6 
 1429000    1.0288012    -5.996609    644.45205  0.037581762  0.037660229            4 
 1430000    1.0081209   -6.0091605    644.39709  0.037552278  0.037651344            3 
 1431000    1.0356164   -6.0022691    646.10174  0.037625305  0.037642702            1 
 1432000    1.0260493   -6.0075399    646.02196  0.037594388  0.037634016            4 
 1433000     1.007358   -6.0054193    645.76032  0.037552938  0.037625348            2 
 1434000     1.052949   -5.9827993    648.30322  0.037674524  0.037616495            3 
 1435000    1.0104463   -6.0148107    647.74119  0.037615632  0.037607756            5 
 1436000    1.0186175   -6.0138978    648.10316  0.037610444  0.037598939            4 
 1437000    1.0285367   -5.9730017     646.4919  0.037490832  0.037590383            6 
 1438000    1.0189251   -6.0187793    648.13933   0.03756023  0.037581715            3 
 1439000    1.0038379   -6.0156985    645.85063  0.037401589  0.037572875            6 
 1440000     1.018248    -6.014293     648.6742  0.037539016  0.037564102            2 
 1441000    1.0250138   -6.0089872    649.80746  0.037578502   0.03755538            6 
 1442000     1.017117   -5.9978723    650.15587  0.037572577  0.037546364            5 
 1443000    1.0437032   -5.9585262    652.22433  0.037665993  0.037537717            6 
 1444000   0.99305115   -6.0443032    648.09566  0.037401642  0.037529043            2 
 1445000    1.0157161   -6.0041498      648.182  0.037380738  0.037520439            3 
 1446000     1.003715   -5.9934422    652.25498  0.037589614  0.037511853            3 
 1447000    1.0320363   -6.0394633    649.67767  0.037415208  0.037503058            4 
 1448000    1.0229045    -6.030518    648.42457  0.037317252  0.037494052            4 
 1449000    1.0270025    -6.037663    648.96131  0.037322367  0.037485115            2 
 1450000    1.0087127    -6.015355     650.8633  0.037405937  0.037476204            3 
 1451000    1.0153069   -6.0363911    650.37619  0.037352182  0.037467144            3 
 1452000    1.0231978   -6.0222442    652.07424  0.037423912  0.037458414            2 
 1453000    1.0435023   -6.0151992    652.62879   0.03742996  0.037449532            3 
 1454000    1.0327761   -6.0099018    652.30657   0.03738575   0.03744061            3 
 1455000    1.0263728   -5.9917466    652.26904  0.037357906  0.037431607            3 
 1456000    1.0149915   -6.0048844     653.5201  0.037403852  0.037422459            4 
 1457000    1.0080366   -6.0173063    650.29691  0.037193829  0.037413408            5 
 1458000    1.0323644   -6.0360187    652.30815  0.037283273  0.037404247            5 
 1459000   0.99382023   -6.0097086    652.33651  0.037259339  0.037395073            5 
 1460000    1.0070098   -6.0288692    654.82855  0.037376059  0.037386176            2 
 1461000    1.0176851   -6.0296539    653.32933  0.037264963  0.037377413            3 
 1462000    1.0185646   -6.0140471    656.06802  0.037395578  0.037368533            5 
 1463000    1.0288419   -5.9897531    655.23888  0.037322789  0.037359786            5 
 1464000    1.0281032   -6.0251038    653.58822  0.037203337   0.03735084            7 
 1465000    1.0101631    -5.989945    655.35478  0.037278429  0.037342092            6 
 1466000    1.0350208   -6.0416013    655.44162  0.037257937  0.037333415            3 
 1467000    1.0275531   -6.0218514    655.48142    0.0372348  0.037324821            4 
 1468000    0.9946567   -6.0236149    655.51086  0.037211107  0.037315871            7 
 1469000    1.0160799   -6.0186329    656.17416  0.037223404  0.037306657            3 
 1470000    1.0142519   -6.0227084    654.67462  0.037113073  0.037297594            2 
 1471000    1.0099376   -6.0344462    655.69648  0.037145733  0.037288497            2 
 1472000   0.99525601   -5.9959536    656.39561  0.037160078  0.037279467            5 
 1473000    1.0143935   -6.0284498     655.5182  0.037085211  0.037270404            4 
 1474000   0.99041805   -6.0578465     654.9131  0.037025842  0.037261196            3 
 1475000   0.99972645   -6.0286745    656.59521  0.037095774  0.037252013            8 
 1476000    1.0128362   -6.0526366    656.70696  0.037076951  0.037242863            6 
 1477000     1.011259   -6.0194372    657.98414  0.037123908  0.037233623            7 
 1478000    1.0232823   -6.0279305    656.95932  0.037041008  0.037224401            3 
 1479000    1.0221085   -6.0670438    656.65217  0.036998657  0.037215336            2 
 1480000    1.0038465   -5.9969894    659.97226    0.0371606  0.037206309            2 
 1481000    1.0135931   -5.9948395    660.66747  0.037174627  0.037197337            2 
 1482000    1.0229895    -6.029473    660.71969  0.037152479  0.037188337            4 
 1483000    1.0252422   -5.9973015    661.98227  0.037198375  0.037179737            3 
 1484000    1.0243442   -6.0328053    658.61082  0.036983986  0.037170781            4 
 1485000    1.0193267   -6.0503031    660.07775    0.0370414  0.037161878            3 
 1486000    1.0298604   -6.0345092    663.20895  0.037192068  0.037153047            2 
 1487000    1.0212693    -6.041831    661.41132  0.037066315  0.037144308            5 
 1488000    1.0191482   -6.0083499    661.35635  0.037038326   0.03713557            7 
 1489000    1.0212238   -6.0272651    662.56971  0.037081358  0.037126683            3 
 1490000    1.0145711   -6.0262704    662.29245  0.037040965  0.037117882            5 
 1491000    1.0095255   -6.0095491    663.49711  0.037083451  0.037109089           11 
 1492000    1.0041861   -6.0438644    662.83835  0.037021803  0.037100222            3 
 1493000    1.0059905    -6.040511    662.64195  0.036986043  0.037091478            4 
 1494000   0.98786829   -6.0215411    663.87887   0.03703028  0.037082632            5 
 1495000    1.0039741   -6.0551379     660.1377  0.036796973  0.037073747            3 
 1496000   0.98512718   -6.0207548    664.55857  0.037018637  0.037064849            3 
 1497000    1.0320781   -6.0365222     664.3454  0.036982042  0.037056158            7 
 1498000     1.014565   -6.0130425    664.91865  0.036989244  0.037047354            3 
 1499000   0.99756609   -6.0225998    664.45007  0.036938519   0.03703843            4 
 1500000    1.0210341   -6.0500885    663.32335  0.036851297  0.037029692            6 
 1501000    1.0077387   -6.0270612    667.22986   0.03704363  0.037020957            2 
 1502000    1.0105968   -6.0355556    666.08863   0.03695565  0.037012275            3 
 1503000     1.008919   -6.0440813    667.21402  0.036993459  0.037003551            2 
 1504000    1.0104552   -6.0173764    670.29476  0.037139559  0.036995055            5 
 1505000    1.0194311   -6.0184095    667.34352  0.036951468  0.036986445            3 
 1506000     1.004474   -6.0784833     666.4647  0.036878304   0.03697764            5 
 1507000    1.0270809   -6.0317969    666.61154  0.036861952  0.036968713            7 
 1508000    0.9982105   -6.0543991    670.10352  0.037030478  0.036960004            2 
 1509000    1.0073652   -6.0168199     667.8422  0.036881058  0.036951254            5 
 1510000    1.0043477   -6.0505006    668.09259  0.036870452  0.036942304            4 
 1511000    1.0261274   -6.0326387    666.96223   0.03678371  0.036933373            5 
 1512000    1.0133479   -6.0478516    669.55599  0.036902336  0.036924371            5 
 1513000    1.0091094    -6.043505    670.33321  0.036920754  0.036915369            3 
 1514000    1.0105293   -6.0311658    670.95679  0.036930691  0.036906771           11 
 1515000    1.0209159   -6.0773751    668.97951  0.036797553  0.036898023            2 
 1516000    1.0100826   -6.0317333    673.19042  0.037004751    0.0368894            3 
 1517000    1.0159102   -6.0438363    672.57976  0.036946812  0.036880753            3 
 1518000    1.0186075   -6.0166795    671.00324  0.036835927  0.036872194            3 
 1519000    1.0122086   -6.0908416    670.90453  0.036806261  0.036863564            5 
 1520000    0.9958924   -6.0562806    671.91618   0.03683751  0.036854838            2 
 1521000    1.0110058    -6.059951    672.14409  0.036825777  0.036846364            3 
 1522000   0.99199087   -6.0445039    670.58836  0.036716402  0.036837878            4 
 1523000    1.0330103   -6.0457381    673.53874  0.036853729  0.036829444            2 
 1524000    1.0039572    -6.045401    674.58029  0.036886499  0.036820878            2 
 1525000    1.0171182   -6.0426783    671.77896  0.036709233  0.036812261            2 
 1526000     1.012173   -6.0751084    671.76838  0.036684599  0.036803414            6 
 1527000   0.98041188   -6.0208452    674.89992  0.036831473  0.036794836            7 
 1528000   0.99053428   -6.0143672    675.15367  0.036821208  0.036786305            3 
 1529000    1.0051241   -6.0243106    675.21253  0.036800334  0.036777826            3 
 1530000   0.99112751   -6.0475482    674.64114   0.03674516  0.036769142            3 
 1531000    1.0118424   -6.0542485    674.80709  0.036730192  0.036760397            5 
 1532000   0.98604593   -6.0330867    675.93534  0.036767588  0.036751828            6 
 1533000    1.0085281   -6.0450787     676.0334  0.036748935  0.036743153            4 
 1534000   0.99230732   -6.0498863    679.32997  0.036904062   0.03673464            3 
 1535000    1.0091415   -6.0328188    676.62282  0.036733052  0.036725998            2 
 1536000   0.99290981     -6.03582     677.0703  0.036733414  0.036717281            3 
 1537000    1.0189062   -6.0738166    674.30077  0.036559356   0.03670873            5 
 1538000    1.0236434   -6.0622563    677.02394  0.036683135  0.036699989            6 
 1539000   0.99212209   -6.0248997    676.49743   0.03663079  0.036691104            6 
 1540000     1.015739   -6.0533734    675.22434  0.036538114  0.036682529            3 
 1541000    1.0127752   -6.0513355    679.77937  0.036760727  0.036673678            6 
 1542000    0.9798177   -6.0334275     677.7903  0.036629394  0.036664881            3 
 1543000     1.017663    -6.056513    677.72203  0.036601968  0.036656005            2 
 1544000     1.014302   -6.0381724    677.12838  0.036546221  0.036647306            6 
 1545000    1.0028448   -6.0355715    677.73166  0.036555106  0.036638348           13 
 1546000   0.98302495   -6.0321714    678.72423  0.036584963  0.036629645            3 
 1547000   0.98630136   -6.0101322    680.39376  0.036651247  0.036621119            7 
 1548000   0.96215711   -6.0856019    676.99215  0.036444452  0.036612397            3 
 1549000    1.0254812   -6.0389022    678.61856  0.036508423  0.036603649            2 
 1550000    1.0252422   -6.0167923     681.3996  0.036634387  0.036595129            3 
 1551000    1.0151126   -6.0926061    677.22895  0.036386683   0.03658641            5 
 1552000    1.0136316   -6.0617356    681.04092  0.036567919  0.036577609            3 
 1553000    1.0042978   -6.0473664    682.93845  0.036646193  0.036568813            2 
 1554000   0.99318736   -6.0459245    682.83705  0.036617173  0.036560113            2 
 1555000   0.99545608   -6.0178283    680.94848  0.036492416  0.036551515            3 
 1556000    1.0116225   -6.0540991    684.58665  0.036663809  0.036543016            5 
 1557000   0.99477217   -6.0700172    682.30569  0.036518181  0.036534345            5 
 1558000   0.99230784   -6.0357755    682.03582  0.036480307  0.036525737            6 
 1559000   0.99135529   -6.0545281     685.9747  0.036667452  0.036517223            2 
 1560000    1.0008069   -6.0616141    684.23464  0.036550995  0.036508716            3 
 1561000    1.0060187   -6.0329454    683.71075  0.036499613  0.036500091            2 
 1562000   0.98264904   -6.0484068    685.08878  0.036549764  0.036491634            5 
 1563000   0.99612002   -6.0530096    684.68705  0.036504961   0.03648334            4 
 1564000   0.97496485   -6.0653224    686.35531  0.036570509  0.036474765            3 
 1565000    1.0097538   -6.0817144    685.04834  0.036477548  0.036466176            6 
 1566000    1.0060146   -6.0826279    685.01749  0.036452612  0.036457578            3 
 1567000    1.0202796   -6.0867403    683.53456  0.036350487  0.036448847            8 
 1568000   0.98164078   -6.0562989      686.058  0.036461416  0.036440188            4 
 1569000    1.0332093   -6.0533019    687.37699  0.036508232  0.036431558            4 
 1570000    1.0156307   -6.0496938     686.6766  0.036447802   0.03642314            5 
 1571000   0.99114202   -5.9857776    689.09236  0.036552746  0.036414742            5 
 1572000   0.99452375   -6.0550873    686.50521  0.036392346  0.036406252            7 
 1573000   0.99617815   -6.0762929     686.3258  0.036359705  0.036397513            5 
 1574000    1.0135254    -6.113776    685.49615   0.03629268  0.036388918            4 
 1575000   0.99488993   -6.0696667    686.59358  0.036327703  0.036380159            9 
 1576000   0.97550598   -6.0373602    687.98019  0.036377971  0.036371325            6 
 1577000    1.0173289    -6.053535    686.53341  0.036278451  0.036362784            2 
 1578000   0.99590715   -6.0328505    691.13569  0.036498505  0.036354385            3 
 1579000   0.98186622   -6.0602407    685.73117  0.036190161  0.036345744            6 
 1580000   0.95772603   -6.0374888    689.53681  0.036367975  0.036337003            2 
 1581000   0.98924151   -6.0361557     691.5051  0.036448719  0.036328451            4 
 1582000   0.99673825   -6.0253668    692.42455  0.036474112  0.036319857            5 
 1583000   0.99657593   -6.0454203    690.52086  0.036350856  0.036311297            3 
 1584000    1.0067576   -6.0679584    690.17372  0.036309645  0.036302747            3 
 1585000    1.0059066   -6.0912151    689.25961  0.036238675  0.036294068            3 
 1586000   0.96578124   -6.0151807    692.21192   0.03637095  0.036285541            3 
 1587000    1.0045125    -6.053444    691.48718  0.036309976  0.036276936            3 
 1588000    0.9838291   -6.0639324    690.38265  0.036229148  0.036268182            5 
 1589000    1.0065946    -6.070047    689.73377  0.036172319  0.036259439           13 
 1590000    1.0078618   -6.0681591      691.884  0.036262264   0.03625083            3 
 1591000    1.0078537   -6.0539752    691.29746  0.036208751  0.036242139            2 
 1592000    1.0046542   -6.0479315    693.21709  0.036286489  0.036233464            4 
 1593000   0.99146419    -6.048564    691.41413  0.036169394  0.036224881            4 
 1594000     1.006822   -6.0346949    695.10685  0.036339756  0.036216431            3 
 1595000   0.99485329   -6.0917089    691.29739  0.036117941  0.036207864            5 
 1596000    1.0050004   -6.0424798    694.63109  0.036269376  0.036199262            2 
 1597000    1.0173464   -6.1011893    692.88675  0.036155643  0.036190853            3 
 1598000    1.0089343   -6.0993299    692.39655  0.036107454   0.03618232            3 
 1599000   0.97921787     -6.07803    694.58218   0.03619878  0.036173725            3 
 1600000   0.99966827   -6.1038957    695.26039  0.036211479  0.036165375            5 
 1601000    1.0089148   -6.0517535    695.21575  0.036186537  0.036156796            2 
 1602000   0.98671574   -6.0685879    695.77652  0.036193119  0.036148218            4 
 1603000    1.0117055   -6.1018919    693.93375  0.036074742  0.036139573            7 
 1604000   0.99677873   -6.0909321    695.87518  0.036153116  0.036130958            6 
 1605000   0.99748818   -6.0440683    697.87995  0.036234681  0.036122314            2 
 1606000   0.97525839   -6.0903494     697.7405  0.036204883  0.036113798            3 
 1607000   0.97079403   -6.1167698    694.14159  0.035995726  0.036105206            4 
 1608000   0.97642548   -6.0803242    696.26582  0.036083427  0.036096533            5 
 1609000   0.96754929   -6.0842805    696.20478   0.03605784  0.036087824            4 
 1610000    1.0109855   -6.0643201    698.02787  0.036129807  0.036079278            3 
 1611000    1.0078822   -6.0482426    699.14776  0.036165309   0.03607066            7 
 1612000    0.9959668   -6.0490288    698.66303  0.036117816  0.036062183            4 
 1613000   0.98114976   -6.0631427    697.22105  0.036020926  0.036053644            3 
 1614000    0.9927668   -6.0804269    698.25367  0.036051924  0.036045009            6 
 1615000    1.0054492   -6.0975841     695.6234  0.035893881  0.036036289            4 
 1616000    0.9958261   -6.0789166    698.64251  0.036027357  0.036027577            4 
 1617000    1.0123384   -6.0901806    698.16694  0.035980568  0.036018811            3 
 1618000   0.99965967    -6.100498     697.4766  0.035922775  0.036009884            2 
 1619000   0.99426043   -6.1142861    698.37408  0.035946782  0.036001138            3 
 1620000   0.98454065   -6.0730256    700.64252  0.036041282  0.035992549            2 
 1621000    1.0002559   -6.0766656     700.5384  0.036013695  0.035983825            3 
 1622000     1.006414   -6.0851655    698.72141  0.035898141  0.035975224            4 
 1623000   0.98116773    -6.045949    701.86684  0.036037525  0.035966581            3 
 1624000    1.0139245   -6.0599776    701.90204  0.036017141  0.035958087            4 
 1625000     1.001061   -6.0866503    697.96195   0.03579292  0.035949469            9 
 1626000   0.97894427   -6.0284354    701.40028  0.035947124  0.035940787            4 
 1627000   0.99738327   -6.0824985    701.92751  0.035952034  0.035932026            5 
 1628000   0.97243984   -6.0923981      699.291  0.035794994  0.035923214            2 
 1629000     0.987608    -6.065582    700.11742  0.035815297  0.035914354            4 
 1630000    1.0055874   -6.1159374    698.55346  0.035713367  0.035905375            5 
 1631000   0.96737926   -6.0728765    701.10141  0.035821654  0.035896316            2 
 1632000   0.98932337    -6.096868    702.13584  0.035852525  0.035887522            3 
 1633000   0.96929406   -6.0770686    703.05867  0.035877663  0.035878865            4 
 1634000   0.98875029   -6.0506029    703.14046  0.035859877  0.035870279            4 
 1635000   0.97133882   -6.0638278    704.06212   0.03588492   0.03586187            3 
 1636000   0.95721212   -6.1122029    700.77063  0.035695325  0.035852947            6 
 1637000   0.99502698   -6.0773674    705.18261  0.035898117  0.035844184            4 
 1638000   0.97906139   -6.0840724    704.87223   0.03586041  0.035835613            2 
 1639000    0.9871412   -6.0874784    702.78775  0.035732548   0.03582676            6 
 1640000   0.96427086   -6.0875499    703.35926    0.0357398  0.035817926            2 
 1641000   0.98703648   -6.0825879    706.46118  0.035875542  0.035809233            3 
 1642000   0.99241575   -6.0993895    704.18123  0.035737984  0.035800434            4 
 1643000   0.98988479    -6.081585    703.96119  0.035705072  0.035791667            2 
 1644000   0.97596159   -6.0821511    706.70406  0.035822387  0.035782781            5 
 1645000    1.0037379   -6.1250512    703.46272  0.035636409  0.035774078            3 
 1646000    1.0025248   -6.0717916    705.79381  0.035732777  0.035765392            7 
 1647000   0.98463235   -6.1117888    706.85975  0.035765015  0.035756646            6 
 1648000    1.0069042   -6.0949369    706.65528  0.035732973  0.035747959            3 
 1649000    1.0036591   -6.0557782    704.70231  0.035612609   0.03573911            6 
 1650000   0.98111889   -6.1139301    703.67475  0.035539129   0.03573019            5 
 1651000   0.97972218   -6.0790693    706.17071  0.035643585  0.035721348            4 
 1652000   0.98661973   -6.0558334    706.80055  0.035653781  0.035712343            4 
 1653000    1.0067157   -6.0927571    705.85626  0.035584607  0.035703263            4 
 1654000   0.97466083   -6.1066009    706.06957   0.03557384  0.035694207            6 
 1655000   0.96422226   -6.0795167    706.42517   0.03557025  0.035685385            3 
 1656000   0.99030467   -6.0566201     707.6872  0.035612279  0.035676427            4 
 1657000   0.97389448   -6.0954745    706.05284  0.035508592  0.035667411           16 
 1658000    1.0016588   -6.0832276    709.18217   0.03564446  0.035658504            5 
 1659000    1.0056718   -6.0738683    708.91019  0.035609313  0.035649674            5 
 1660000   0.98000707    -6.077648    712.20447  0.035753237  0.035640928            4 
 1661000   0.97958565   -6.1194904    708.25546  0.035533587  0.035632144            8 
 1662000   0.99055113   -6.1023602    710.49222  0.035624359  0.035623447            3 
 1663000   0.98888267   -6.0723557    708.62008  0.035509124   0.03561493            3 
 1664000   0.98038796   -6.1119719       709.31  0.035522336  0.035606077            5 
 1665000   0.99960973    -6.106967    710.06032  0.035538554  0.035597113            7 
 1666000   0.97872583   -6.1404517     708.7483  0.035451595  0.035588205            4 
 1667000   0.99831162   -6.1174511    709.36689  0.035461252   0.03557949            4 
 1668000   0.97024024   -6.1002185    711.93408  0.035568249  0.035570839            3 
 1669000   0.99315083   -6.0875429    710.89245   0.03549493   0.03556204            4 
 1670000   0.99485946   -6.1330305    710.21623  0.035439932  0.035553244            3 
 1671000   0.99736547   -6.1099797    712.76216  0.035545689  0.035544634            6 
 1672000   0.99319245    -6.078466    712.69482  0.035521073  0.035535843            3 
 1673000   0.97963584   -6.0974966    710.67118  0.035399043  0.035527129            4 
 1674000    0.9747238   -6.1161386    710.73942  0.035381294  0.035518325            5 
 1675000   0.97490975   -6.1055389    715.05563  0.035574907    0.0355095            3 
 1676000    1.0060698   -6.1040815    713.39602  0.035471163  0.035500831            5 
 1677000   0.98056137   -6.0989323    713.08484  0.035434548  0.035492189            3 
 1678000   0.99159175    -6.092329     712.7109   0.03539486  0.035483511            6 
 1679000   0.96458713   -6.1233608    714.92271  0.035483557  0.035474635            5 
 1680000   0.96945881   -6.0976414     716.2102    0.0355263  0.035465948            8 
 1681000   0.99111086   -6.0727512    715.92932  0.035491241  0.035457272            2 
 1682000   0.97780991   -6.1182083    712.57631  0.035304018  0.035448483            3 
 1683000   0.98189497   -6.1175435    714.39018  0.035372855  0.035439619            4 
 1684000   0.98240001   -6.1261288    714.39555  0.035352116   0.03543081            3 
 1685000   0.97833429    -6.149476    712.74949  0.035249728   0.03542193            4 
 1686000    0.9683608   -6.1273972    716.10601  0.035394722  0.035413136            5 
 1687000   0.99723725   -6.1103972    716.55812  0.035396074  0.035404392            6 
 1688000   0.95691787   -6.1359003    718.21016  0.035456663  0.035395638            3 
 1689000   0.97636315   -6.1289151    714.96805  0.035275708  0.035386843            4 
 1690000    0.9878312   -6.0457996    717.40731  0.035375114  0.035378251            3 
 1691000   0.95843181   -6.1067661    717.06835   0.03533749  0.035369814            4 
 1692000   0.98430966    -6.105471    719.60477  0.035441527  0.035361175            6 
 1693000   0.97152432   -6.1203567    717.66411   0.03532507  0.035352742            5 
 1694000   0.98118147   -6.1305921    718.01428  0.035321442  0.035344216            4 
 1695000   0.98295209    -6.115864    719.77216  0.035387029  0.035335732            5 
 1696000    1.0086147   -6.0932673    720.89624  0.035421396  0.035327152            3 
 1697000   0.96142125   -6.1132708    719.92033  0.035352599  0.035318542           14 
 1698000   0.99561426   -6.0886302    720.31829   0.03535131  0.035309912            3 
 1699000   0.99386329    -6.071043    721.28614  0.035377974  0.035301429            3 
 1700000   0.96114914   -6.0736738    721.61416  0.035373243  0.035293104            3 
 1701000   0.97702795   -6.0791588    723.67455  0.035453388   0.03528478            3 
 1702000   0.98768943   -6.1231558    721.48507  0.035325356  0.035276471            3 
 1703000   0.99868665   -6.1245349    724.31796  0.035443235  0.035268278           11 
 1704000   0.96799692   -6.1291593    722.45399  0.035331279   0.03525999            7 
 1705000   0.97448892   -6.0871888    722.98299  0.035336412  0.035251537            4 
 1706000   0.97135899    -6.145318      724.817  0.035405285  0.035243169            5 
 1707000    0.9643854   -6.0827384     725.1378  0.035400205  0.035234869            4 
 1708000   0.96140346   -6.1073933    723.78723  0.035313585  0.035226617            3 
 1709000   0.98109242   -6.1256277    724.19702  0.035312903  0.035218148            6 
 1710000   0.98381364   -6.1222759    723.67494   0.03526681  0.035209703            3 
 1711000   0.96899654   -6.1386968    723.10486  0.035218432  0.035201146            4 
 1712000   0.98070864   -6.1210092     723.9838  0.035240644  0.035192631            2 
 1713000   0.97329138   -6.1181713    723.46941  0.035195048  0.035184083            4 
 1714000   0.98102882   -6.1134363    727.38993  0.035365127  0.035175735            3 
 1715000   0.96469935   -6.1210615    723.74972  0.035167625  0.035167409            4 
 1716000   0.96921703    -6.081485    727.14971  0.035312243  0.035159081            4 
 1717000    0.9580791   -6.1031835    727.34585  0.035301196  0.035150853            2 
 1718000   0.99679648   -6.0969212    727.12877  0.035270119  0.035142756            6 
 1719000   0.98117768   -6.1176705     726.3436  0.035211538  0.035134437           12 
 1720000   0.96666549   -6.1046934    727.72308  0.035257901  0.035126198            5 
 1721000   0.95922807    -6.093002    729.60701  0.035328637  0.035117868            6 
 1722000   0.96330307   -6.1333905    726.46899  0.035156261  0.035109469            3 
 1723000   0.95705117   -6.1390319    725.27536  0.035078127  0.035101076            3 
 1724000   0.97747033   -6.1205428    728.24968  0.035201551  0.035092714            8 
 1725000   0.97417483   -6.1008083    730.97153  0.035312634  0.035084653            4 
 1726000    0.9808548   -6.1115028    729.43261  0.035217874  0.035076415            6 
 1727000   0.97831236   -6.1067172    727.42642  0.035100676  0.035068039            7 
 1728000    0.9835851   -6.1170046    729.47615  0.035179212  0.035059831            5 
 1729000   0.98809791   -6.1334645    730.22239  0.035194833  0.035051438            5 
 1730000   0.97698504   -6.1401969    727.59954  0.035048148  0.035042967            3 
 1731000   0.96893788   -6.0999397    729.67343  0.035127741  0.035034426            4 
 1732000   0.98180896   -6.0788165    732.92484  0.035263897  0.035026073            3 
 1733000   0.95431195   -6.1292983    729.64861  0.035086008  0.035017655            4 
 1734000   0.96588105   -6.1239944    729.27153  0.035047651  0.035009403           12 
 1735000   0.96435283   -6.1168091    729.77997  0.035051872  0.035000935            5 
 1736000   0.96919481   -6.0896796     733.7161  0.035220627  0.034992611            2 
 1737000   0.98993878   -6.1217458    726.30808  0.034844947   0.03498422            6 
 1738000   0.99098441   -6.1019974     732.7333  0.035132974  0.034975917            3 
 1739000   0.96939904   -6.1472059    728.67034  0.034918073  0.034967441            3 
 1740000   0.98954105   -6.1737332    728.81956  0.034905151  0.034959005            5 
 1741000   0.97959088   -6.1746264    730.04043   0.03494354  0.034950402            4 
 1742000   0.94845727   -6.0918582     732.9186  0.035061165  0.034941887            3 
 1743000    1.0005766   -6.1269941    730.87138  0.034943172  0.034933568            4 
 1744000   0.97570108   -6.0840895    734.57987  0.035100338  0.034925328            3 
 1745000   0.98907137   -6.1293949    731.62151  0.034938945  0.034916922            8 
 1746000   0.97066917   -6.1447763    728.99001  0.034793338  0.034908461            3 
 1747000   0.96295149   -6.1426338    733.05474  0.034967313  0.034899983            3 
 1748000   0.97020078   -6.1230909    732.80865  0.034935576  0.034891492            3 
 1749000   0.99665464   -6.1072342    736.50008  0.035091485  0.034883146            3 
 1750000   0.96589447   -6.0995043    732.44541  0.034878353  0.034874777            5 
 1751000   0.97894737   -6.1287346    732.01887  0.034838134  0.034866323            5 
 1752000   0.96916789   -6.1602803    731.45723  0.034791535  0.034857896            3 
 1753000    0.9650589   -6.1507202    732.07511  0.034801061  0.034849264            4 
 1754000   0.97540043   -6.1290186    733.69056   0.03485797  0.034840782            3 
 1755000   0.99527988   -6.1153297     733.6446  0.034835926  0.034832275            8 
 1756000   0.96471944   -6.1541087    732.70555  0.034771524  0.034823727            3 
 1757000   0.96871749   -6.1473454       733.89  0.034807911   0.03481518            5 
 1758000   0.97095438   -6.1240492    734.77749  0.034830181  0.034806717            8 
 1759000   0.97804207   -6.1539894    733.88801   0.03476824  0.034798281            2 
 1760000   0.97976206   -6.1624274    736.57345  0.034875637  0.034789793            6 
 1761000   0.98043756   -6.1503975    733.32242  0.034701988  0.034781336            3 
 1762000   0.97897246   -6.1493483    736.46133  0.034830748  0.034772717            8 
 1763000   0.97203782   -6.1236918     735.9775  0.034788121  0.034764094            6 
 1764000   0.96057098   -6.1394232    734.62277  0.034704401  0.034755387            5 
 1765000   0.97282503   -6.1484555    738.48933  0.034867296  0.034746899            3 
 1766000   0.97678412   -6.1215583    738.05918  0.034827255  0.034738236            2 
 1767000   0.97384454   -6.1443671    736.78626  0.034747513  0.034729579            6 
 1768000   0.95566957   -6.1428593    734.71887  0.034630414  0.034720866            2 
 1769000   0.95954209   -6.1422032    734.76993  0.034613243  0.034712051            3 
 1770000   0.96130481   -6.1147155    735.50404   0.03462825  0.034703296            4 
 1771000   0.96481611   -6.1161536     735.7195  0.034618836  0.034694548            4 
 1772000   0.94678816   -6.1585868    733.96128  0.034516614  0.034685662            2 
 1773000   0.97097252   -6.1210197    737.37008  0.034657364  0.034676491            4 
 1774000   0.97136318   -6.1598634    737.39975  0.034639222  0.034667513            4 
 1775000   0.96406948    -6.154591    735.91152  0.034549837  0.034658546            6 
 1776000   0.95813819   -6.1541471    735.69935  0.034520428  0.034649769            4 
 1777000   0.97543409   -6.1227831    739.02317  0.034656873   0.03464092            3 
 1778000   0.98666783   -6.1213202    737.48882  0.034565468   0.03463208            4 
 1779000    0.9687638   -6.1470987    736.00428  0.034476498  0.034623119            5 
 1780000   0.97202557   -6.1189697    738.50156  0.034574043  0.034614295            4 
 1781000   0.96755982   -6.1405274    740.14674  0.034631609  0.034605397            3 
 1782000   0.95071389   -6.1611295    739.16345  0.034566192  0.034596534            4 
 1783000   0.96217384   -6.1573154    738.81518  0.034530528  0.034587556            4 
 1784000   0.95058365   -6.2026716    738.67324  0.034504542  0.034578566            4 
 1785000   0.97923401    -6.154022    737.79702  0.034444305  0.034569618            7 
 1786000   0.96246932   -6.1127074    739.04428  0.034483216  0.034560866            8 
 1787000   0.99562465   -6.1408682    741.28908  0.034568601    0.0345522           15 
 1788000   0.95974823   -6.1369864     739.2135  0.034452531   0.03454335            3 
 1789000   0.98511988   -6.1791567     738.0432  0.034378759  0.034534529            3 
 1790000   0.97743554   -6.2075783    736.88588  0.034305674   0.03452563            5 
 1791000   0.95935786   -6.1018544    741.23682  0.034488964  0.034516746            3 
 1792000   0.99504935   -6.1853962    740.84803  0.034451638  0.034507998            8 
 1793000   0.97194314   -6.1391279    742.49355  0.034508903  0.034499109            3 
 1794000    0.9720426   -6.1462101    741.78051  0.034456545  0.034490454            8 
 1795000   0.94780117   -6.0873572    743.96146  0.034538601  0.034481795            6 
 1796000   0.95000131   -6.1880918    739.29173  0.034302697  0.034473006            3 
 1797000   0.95663387   -6.1453926    742.53826  0.034434162  0.034464177            5 
 1798000   0.94886855   -6.1625361    741.44696  0.034364431  0.034455447            5 
 1799000   0.96471807   -6.1470338    744.41178  0.034482665  0.034446637            2 
 1800000   0.96926745   -6.1346876    743.72477  0.034431702  0.034438069            2 
 1801000   0.94494048   -6.1370435    743.71835  0.034412287  0.034429313            4 
 1802000   0.98625298   -6.1698757    744.22011  0.034416394  0.034420531            3 
 1803000   0.95336318   -6.1729435     741.1477  0.034255301   0.03441176           10 
 1804000    0.9608807   -6.1614309    743.79603  0.034358649  0.034403094            3 
 1805000   0.94150071   -6.1935453    743.54792  0.034328159   0.03439443            5 
 1806000   0.97015866   -6.1531255    744.56512  0.034356087  0.034385797            4 
 1807000   0.98200586   -6.1355676    745.79674  0.034393873  0.034377216            6 
 1808000   0.96310023   -6.1397266    746.98195  0.034429478  0.034368563            4 
 1809000   0.97147043   -6.1429657    746.82002  0.034402986  0.034359796            4 
 1810000    0.9626956   -6.1465695    746.05098  0.034348572  0.034351053            3 
 1811000   0.95648998   -6.1523305    747.02838   0.03437458  0.034342337            3 
 1812000   0.96005619   -6.1406566      743.718  0.034203366  0.034333559            4 
 1813000   0.97710003   -6.1382685    745.23387  0.034254177   0.03432476            2 
 1814000   0.96537274   -6.1138103    748.14307  0.034368939  0.034316094            4 
 1815000   0.96793245   -6.1419975    748.58906   0.03437048  0.034307383            5 
 1816000   0.96583625   -6.1311509    745.74751   0.03422116  0.034298617           11 
 1817000    0.9629424   -6.1678726    745.80811  0.034205105  0.034289769            4 
 1818000   0.96028549    -6.172029    744.64401   0.03413293  0.034280941            4 
 1819000    0.9671519   -6.1410098    749.03735  0.034315437  0.034271971            4 
 1820000   0.98765972   -6.1824613    746.68056   0.03418867  0.034263139            4 
 1821000   0.96527967    -6.154323    746.96803  0.034183051  0.034254126            4 
 1822000   0.96395039   -6.1488616    746.84588  0.034158703  0.034245184            6 
 1823000   0.96061196   -6.1306331    747.79183  0.034183207  0.034236145            4 
 1824000   0.93427204   -6.1726287      746.916  0.034124452  0.034227083            7 
 1825000   0.96804945   -6.1652395    748.88479  0.034195653   0.03421798            9 
 1826000   0.93962498    -6.169518    749.37367  0.034199237  0.034209066            6 
 1827000   0.95615884   -6.1287286    747.69472  0.034103937  0.034200046            4 
 1828000   0.97720751   -6.1735026    746.38141  0.034025411  0.034190969            4 
 1829000   0.95979116    -6.187706    744.62437  0.033926753  0.034181874           10 
 1830000   0.94088931   -6.2176174    745.67103  0.033955876  0.034172652            4 
 1831000   0.93633888   -6.1557058    749.71759    0.0341215  0.034163566            5 
 1832000   0.96929751   -6.1459478    750.07259  0.034119022  0.034154574            4 
 1833000   0.96254158   -6.1851075    745.56242  0.033895364  0.034145453            3 
 1834000   0.97144201   -6.1698579    746.35462  0.033912878  0.034136292            7 
 1835000   0.98041977   -6.1630921    750.01973  0.034060842  0.034127372            5 
 1836000   0.95978743   -6.1424725    749.76831  0.034030878  0.034118425            2 
 1837000   0.97963307   -6.1762653    750.43229  0.034042474  0.034109459            3 
 1838000   0.95828131   -6.1040995    753.38963  0.034158036  0.034100555            4 
 1839000   0.95961463    -6.143782      752.225  0.034086687   0.03409172            5 
 1840000   0.94956373   -6.1575341    751.48792  0.034034779  0.034082821           10 
 1841000    0.9601698   -6.1651807    750.52752  0.033972819  0.034073813            4 
 1842000    0.9625501   -6.1941681    748.41048  0.033858599  0.034064803            7 
 1843000   0.96541757   -6.2005961    750.54457  0.033936723  0.034055916            3 
 1844000   0.95516102   -6.1471282    749.92714  0.033890417  0.034047104            5 
 1845000   0.97425848   -6.1579765     750.9673  0.033919029  0.034038326            5 
 1846000   0.96064641   -6.1869433    751.10563  0.033906899  0.034029486            2 
 1847000   0.96667601   -6.1724491     751.4039  0.033901999  0.034020474            5 
 1848000   0.95878805   -6.2245055    749.11332  0.033780363  0.034011447            6 
 1849000   0.95860155   -6.1909388    750.56356  0.033827455  0.034002219            3 
 1850000   0.95505209   -6.1496683    750.71948  0.033816193  0.033993016            4 
 1851000   0.94914268   -6.1567954    754.10059  0.033950144  0.033984005           11 
 1852000   0.96742925   -6.1576758     751.9964  0.033837131   0.03397501            3 
 1853000   0.95311369   -6.1680257    751.43265  0.033793517  0.033966017            5 
 1854000   0.96244362    -6.126716     758.8103  0.034106899  0.033957031            4 
 1855000   0.92887183    -6.195111    753.76078   0.03386167  0.033948136            4 
 1856000   0.95913908   -6.2033497    752.73864  0.033797532  0.033938998            6 
 1857000   0.96521117   -6.1847469    751.35499  0.033717241  0.033929978            4 
 1858000   0.97656818   -6.1869054    753.79549  0.033808553  0.033920912            4 
 1859000   0.96738216    -6.180571    752.03953  0.033711652  0.033911725            5 
 1860000   0.97591611   -6.1953607    753.86971  0.033775525  0.033902699            3 
 1861000   0.92957314   -6.1441323     754.6052   0.03379031  0.033893719            2 
 1862000   0.95027794   -6.1792942    755.04198  0.033791711  0.033884787            7 
 1863000    0.9460547   -6.1157431     758.3574  0.033921873  0.033876026            4 
 1864000   0.96725531   -6.1350165    756.06854  0.033801347  0.033867121            4 
 1865000   0.95817606   -6.1421339    755.65566  0.033764775  0.033858342            6 
 1866000   0.94695554   -6.1883483    757.77555  0.033841352  0.033849301            4 
 1867000   0.94712842   -6.1947592     755.8821  0.033738712  0.033840358           15 
 1868000   0.95758094   -6.1607837      758.055  0.033817585  0.033831551            3 
 1869000     0.945664   -6.2114244    756.84688  0.033745625  0.033822681            4 
 1870000   0.95729903   -6.2002095     757.5744      0.03376  0.033813713            7 
 1871000   0.93437112    -6.199976    757.73539  0.033749127  0.033804811            6 
 1872000   0.95111074   -6.1915104    755.71355  0.033641095  0.033795949            6 
 1873000   0.98140538    -6.178618    759.45072  0.033789407   0.03378704            6 
 1874000   0.95552746    -6.182116    758.53291  0.033730563  0.033778134            6 
 1875000   0.93747091   -6.1781674    759.11165  0.033738296  0.033769343            3 
 1876000   0.96543231    -6.197071      759.062  0.033718106  0.033760463            2 
 1877000   0.93624022   -6.1714168    759.12853  0.033703096  0.033751497            4 
 1878000   0.93672552    -6.187596    759.08143  0.033683059  0.033742563            4 
 1879000    0.9310602   -6.1623073    758.38541  0.033634265  0.033733677            4 
 1880000   0.95124048   -6.2030984    761.23858  0.033742845  0.033724816            5 
 1881000   0.94180005   -6.1844061    758.32955  0.033596028  0.033715822            5 
 1882000   0.94981353   -6.2030544    759.37807  0.033624605  0.033706993            6 
 1883000   0.95494033   -6.1630479    761.95549  0.033720813  0.033698271            4 
 1884000   0.94801112   -6.1794191    761.01361  0.033661253   0.03368979            6 
 1885000   0.95702175   -6.1597976    763.64362  0.033759665  0.033681107            3 
 1886000   0.96116501   -6.1848428    759.89465  0.033576116  0.033672309            4 
 1887000   0.96513958   -6.1526512    762.14754  0.033657814  0.033663592            6 
 1888000   0.95337071   -6.1708005    762.13639  0.033639495  0.033654926            3 
 1889000   0.96880603   -6.2064166    760.96311  0.033569927  0.033646272            5 
 1890000    0.9603037   -6.1727308    763.80919  0.033677654  0.033637508            8 
 1891000   0.92933827   -6.1580011    765.99123  0.033756003  0.033628852            2 
 1892000   0.94020985   -6.1683697    762.65347   0.03359115  0.033620211            6 
 1893000   0.94115079   -6.2094958    762.81732  0.033580618  0.033611417            4 
 1894000   0.93351096   -6.2061666    762.56954  0.033551986  0.033602413            5 
 1895000   0.94999196   -6.1706204    762.62657  0.033536788  0.033593495            2 
 1896000   0.96630267   -6.2172771    763.64527  0.033563874   0.03358468            3 
 1897000   0.94761568   -6.1739938    764.05125  0.033564015  0.033575936            7 
 1898000   0.96328705   -6.2277341    761.93189  0.033453279  0.033567161            6 
 1899000   0.93827273   -6.1774315    764.70965  0.033557559  0.033558418            5 
 1900000   0.96249568   -6.1843478    764.78474   0.03354319  0.033549728            5 
 1901000   0.94520476   -6.1580591     764.2787  0.033503362  0.033540929            7 
 1902000   0.96064849   -6.1740632    765.95691  0.033559276  0.033532142            8 
 1903000   0.93280924   -6.1954769    763.45752  0.033432191  0.033523533            6 
 1904000   0.95557803   -6.2158029    765.18085  0.033490058  0.033514823            4 
 1905000   0.92854596   -6.1957385    767.33851  0.033566864  0.033505979           10 
 1906000   0.95531322   -6.1593437    768.55059  0.033602247  0.033497418            4 
 1907000   0.92896392   -6.1365005    768.98448  0.033603587  0.033488915            3 
 1908000   0.92893647   -6.2014698    766.82569  0.033491688  0.033480277            3 
 1909000   0.93313606    -6.185118    768.56192  0.033549935  0.033471591            7 
 1910000   0.93733968   -6.1935667    765.57006  0.033401835  0.033462803            6 
 1911000   0.94714696    -6.183692    770.35991  0.033593228  0.033454173            5 
 1912000   0.94802362   -6.1838442    769.86359  0.033554027  0.033445513            7 
 1913000   0.94592404   -6.1892364     768.4347  0.033474242  0.033436872            7 
 1914000    0.9467511    -6.159264    770.40864  0.033542696  0.033428212            3 
 1915000   0.94124848   -6.1654527    768.24751  0.033431136  0.033419627            3 
 1916000   0.93398271   -6.1816082    767.50004  0.033381178  0.033410991            4 
 1917000   0.94783178   -6.1659621    769.25028  0.033439849  0.033402242            8 
 1918000   0.93832931   -6.2243741    764.60361  0.033220525  0.033393608            4 
 1919000   0.94171583   -6.1885278    769.22075  0.033403715  0.033384948            4 
 1920000   0.92405922   -6.1913998    768.19136  0.033341639   0.03337638            3 
 1921000    0.9403472   -6.1862835    768.99495  0.033359142  0.033367732            5 
 1922000    0.9471241   -6.1534388    770.46503  0.033405525  0.033359149            4 
 1923000   0.94606238    -6.170041    771.71642  0.033442383  0.033350518            3 
 1924000   0.94524443   -6.2109167    768.66325  0.033292761  0.033341942            6 
 1925000   0.95453069   -6.1977783    770.81933  0.033368802  0.033333203            3 
 1926000   0.92557506    -6.175936    772.13047  0.033408207   0.03332451            6 
 1927000   0.93613346   -6.1660628    772.73391  0.033416965  0.033315903            6 
 1928000   0.92125059   -6.1676232     772.5069  0.033389821  0.033307348            8 
 1929000   0.92181653   -6.2055526    770.61841  0.033290928  0.033298685            3 
 1930000   0.95050029   -6.1953933     769.1573  0.033210592  0.033289961            2 
 1931000    0.9358298   -6.2146176    769.66342  0.033215235  0.033281213            4 
 1932000   0.95843834   -6.1724575    772.44302  0.033317936  0.033272509            6 
 1933000   0.92651556   -6.1732235    775.25074  0.033421742   0.03326395            3 
 1934000   0.93503126   -6.1556036    772.25347  0.033275313  0.033255467            7 
 1935000   0.94439782     -6.24167    772.09381  0.033251241  0.033246805           12 
 1936000   0.93184213   -6.1936867    771.83121  0.033222762  0.033238234            8 
 1937000   0.94965247   -6.2165899    772.33047   0.03322709  0.033229543            4 
 1938000   0.92905689   -6.2372259    771.32074  0.033166526  0.033220909           16 
 1939000   0.93650899   -6.1806262     774.1507  0.033271046  0.033212255            4 
 1940000   0.94043855   -6.1919632    775.09455  0.033294439  0.033203679            6 
 1941000   0.94536603   -6.2193344    773.91111  0.033226477  0.033195111            3 
 1942000   0.94350326   -6.1728573    772.89466  0.033165751  0.033186639            4 
 1943000   0.95751683   -6.2125179    775.01563  0.033239648  0.033178234            7 
 1944000   0.93114181   -6.1916521    773.07057  0.033139171  0.033169646            4 
 1945000   0.95824276   -6.1950808     774.1552  0.033168603  0.033161124            9 
 1946000   0.95234094   -6.2204556    773.15278  0.033108632  0.033152474            7 
 1947000   0.95003308   -6.2206266    775.28537  0.033182904   0.03314395            6 
 1948000   0.92171859   -6.2174446    773.08668  0.033071812  0.033135293            4 
 1949000   0.96269184   -6.2052101    777.44591  0.033241231  0.033126773            5 
 1950000    0.9358008   -6.1929508    776.57732  0.033187065  0.033118413            5 
 1951000   0.92463446   -6.2047168    775.02196  0.033103621  0.033109981            4 
 1952000   0.94772801   -6.1978015    777.59118  0.033196345  0.033101466            3 
 1953000   0.92388115   -6.1722753    778.49427  0.033217882  0.033093171            3 
 1954000   0.93109244   -6.1937326    778.32357  0.033193602   0.03308477            4 
 1955000   0.94077618   -6.2075974    776.64718  0.033105165  0.033076305            3 
 1956000   0.94329587   -6.2120942    776.66303  0.033088916  0.033067822            6 
 1957000   0.94660918   -6.2310726    776.25479  0.033054624  0.033059354            5 
 1958000   0.92873635   -6.2122306    779.00071   0.03315461  0.033050846            6 
 1959000   0.94325739   -6.2109798    778.94054  0.033135126  0.033042446            4 
 1960000   0.94133904   -6.1877779     778.4828  0.033098758  0.033033865           10 
 1961000   0.93073237    -6.212526    778.92893  0.033100838  0.033025339            6 
 1962000   0.93669209   -6.1734282    780.83551  0.033164947  0.033016965            6 
 1963000   0.94071111   -6.2183137     779.7844   0.03310343  0.033008507            3 
 1964000   0.91584102   -6.2058855    780.63579    0.0331227  0.033000007            4 
 1965000   0.94780659   -6.2353353    779.07411  0.033039614  0.032991435            4 
 1966000   0.93712502   -6.2435377    779.69017  0.033048922  0.032982837           14 
 1967000   0.93151984    -6.229096    778.44771  0.032979483  0.032974205            3 
 1968000    0.9486791   -6.2169443    778.77211  0.032976461  0.032965692            4 
 1969000   0.95445484   -6.2442887    778.78638  0.032960318  0.032957261            8 
 1970000   0.94022286   -6.2043699    781.38394  0.033053466  0.032948831            3 
 1971000   0.94401229   -6.2123977    781.36102  0.033035727  0.032940558            8 
 1972000   0.94691932   -6.2069863     783.0508  0.033090382  0.032932279           11 
 1973000   0.96024447   -6.2536911    780.60961  0.032970502  0.032923928            2 
 1974000   0.93234707   -6.2038412    781.42562  0.032988248    0.0329155            5 
 1975000   0.92465582   -6.2031911    783.90147  0.033076012  0.032907085            3 
 1976000    0.9445151   -6.2067402    780.46463  0.032914332  0.032898628            4 
 1977000   0.93402081   -6.2204907    784.27671  0.033058368   0.03289016            3 
 1978000   0.94591632   -6.2168761    784.21604  0.033039099  0.032881752            4 
 1979000   0.91826272   -6.2462398    781.37369  0.032902716  0.032873337            6 
 1980000   0.92356695   -6.2009845    782.62742  0.032938865   0.03286488            2 
 1981000   0.91951353   -6.2039219     783.4909  0.032958561  0.032856595            5 
 1982000   0.92568278   -6.2048466    783.12348  0.032926484  0.032848373            4 
 1983000    0.9424343   -6.2334612    786.91037  0.033069019  0.032840049            7 
 1984000    0.9371674   -6.2415567    783.76209  0.032920114  0.032831715            6 
 1985000   0.95669267   -6.2128562    783.74003  0.032902604  0.032823355            7 
 1986000   0.94454577   -6.2512954    780.83566  0.032764168  0.032814935           10 
 1987000   0.94870526   -6.2613742    781.04032  0.032756262  0.032806432            6 
 1988000   0.91204235    -6.236591     783.5321  0.032844236  0.032797991            4 
 1989000   0.95235057   -6.2044854    785.16544  0.032896155  0.032789542            4 
 1990000   0.94409074    -6.195231    787.50882  0.032977756   0.03278123            5 
 1991000   0.94816091   -6.2340187    784.20995  0.032823119  0.032772955            6 
 1992000    0.9226486   -6.2041744    785.58524  0.032864175  0.032764619            5 
 1993000   0.92295277   -6.2468128    786.56177  0.032888517  0.032756311            4 
 1994000   0.92992798   -6.2003468    786.55161  0.032871598  0.032747977            4 
 1995000   0.93429077   -6.1975503    789.98438  0.032998512  0.032739793           10 
 1996000     0.946884   -6.2538004    786.77382  0.032847938  0.032731577            5 
 1997000   0.90202447   -6.2334727    787.93472  0.032879933  0.032723361            7 
 1998000   0.94821815   -6.2043654    789.71469  0.032937716  0.032715056            5 
 1999000    0.9468157   -6.2333435    787.18529  0.032815795  0.032706821            9 
 2000000   0.92992201   -6.2315942    790.46519   0.03293605  0.032698499            9 
 2001000   0.93595035   -6.2130078    789.54413  0.032881232  0.032690265            8 
 2002000   0.93727601    -6.257388    786.88419  0.032754087  0.032681936            5 
 2003000   0.92535407   -6.2486691    785.74138  0.032690189  0.032673497            6 
 2004000   0.91996298   -6.1900755    788.88342  0.032804534  0.032665057            5 
 2005000   0.91666706   -6.2642513    785.84191  0.032661758  0.032656471            8 
 2006000   0.93310279   -6.2729311    785.07533  0.032613631  0.032647791            2 
 2007000   0.92617864   -6.2189191    787.00118  0.032677345   0.03263912            4 
 2008000    0.9127286   -6.2351591    787.11821  0.032665928   0.03263054            5 
 2009000   0.95386922   -6.2798874    786.45855  0.032622306   0.03262204            2 
 2010000   0.94392027    -6.224287     786.9516  0.032626517  0.032613436            6 
 2011000    0.9487138   -6.2117717     788.8605  0.032689396  0.032604952            5 
 2012000   0.95767417   -6.2257549     788.1512  0.032643771  0.032596433            3 
 2013000   0.91728849   -6.2406848    786.39505  0.032554854  0.032587832            4 
 2014000   0.94256159    -6.252357    784.00026    0.0324396  0.032579159            9 
 2015000   0.92799408   -6.2180426    789.43806   0.03264839  0.032570593            4 
 2016000   0.93193247   -6.2278907    788.53158  0.032594725  0.032562069            5 
 2017000   0.92351326   -6.2075207    790.31833  0.032652385  0.032553569            9 
 2018000   0.91223321   -6.2199885    790.12804  0.032628347   0.03254488            6 
 2019000   0.91452809   -6.2353285    788.89787  0.032561411  0.032536138            9 
 2020000   0.91792006   -6.2632796     788.1245  0.032513387  0.032527459            3 
 2021000   0.92379529   -6.2087891    789.26379  0.032544276  0.032518796            3 
 2022000   0.92657243   -6.2488179     787.9798  0.032475264   0.03251002            5 
 2023000   0.93069417   -6.2412455     787.5578  0.032441827  0.032501303            4 
 2024000   0.94188226    -6.286796    788.04408   0.03244582  0.032492589            8 
 2025000   0.93390992    -6.247874    789.04122  0.032470832    0.0324838            4 
 2026000    0.9120719   -6.2347106     790.9291  0.032532457  0.032475046            8 
 2027000   0.91842638   -6.2419415    789.02675  0.032438199  0.032466379            4 
 2028000   0.93090785   -6.2626863    789.76907  0.032452707  0.032457632           10 
 2029000   0.94213388    -6.263958    790.76055  0.032477434  0.032448867            9 
 2030000   0.91391152   -6.2796888    790.19104  0.032438056  0.032440224            6 
 2031000   0.93707247   -6.2095986    792.34038  0.032510273  0.032431535            4 
 2032000   0.91537783    -6.215282    790.79741  0.032430996  0.032422985            2 
 2033000   0.94071445   -6.2675684    791.42663  0.032440836  0.032414454            4 
 2034000   0.92690195   -6.2458531    791.98819  0.032447894  0.032405848            3 
 2035000   0.93797273   -6.2484544    793.29284  0.032485374  0.032397394            9 
 2036000   0.89885775   -6.2582237    793.82934  0.032491378  0.032388858            4 
 2037000   0.94503985   -6.2448284    792.09262  0.032404378  0.032380334            3 
 2038000   0.93176766   -6.2480312    793.63711  0.032451632  0.032371805            3 
 2039000   0.92801758   -6.2535193    793.09665  0.032413628  0.032363244            5 
 2040000   0.90884097    -6.232065    796.13406  0.032521816  0.032354793            3 
 2041000   0.90261777    -6.257437    793.73481  0.032407922  0.032346293           10 
 2042000   0.92500281   -6.2350393    793.65096  0.032388629  0.032337748            4 
 2043000   0.91512113    -6.256084    794.23599  0.032396638  0.032329307            6 
 2044000   0.92999785   -6.2221448    795.61514  0.032437016  0.032320821            5 
 2045000   0.94488775   -6.2457877     794.5562  0.032378003   0.03231227            6 
 2046000   0.90946624   -6.2499696    794.93031  0.032377416   0.03230378            6 
 2047000   0.94131817   -6.2277769    798.27506  0.032497763   0.03229536            4 
 2048000   0.93116785   -6.2499834    793.91819  0.032304614  0.032286837            5 
 2049000    0.9275345   -6.2447633    797.12286  0.032419182  0.032278434            7 
 2050000   0.90460822   -6.2813914    794.11406  0.032281059  0.032269912            4 
 2051000   0.89996601    -6.238076    796.36809  0.032356903  0.032261332            4 
 2052000   0.90886504   -6.2628279    796.45745  0.032344763  0.032252901            3 
 2053000   0.92524372   -6.2002645    796.55664  0.032333035  0.032244483            6 
 2054000    0.8988455    -6.263337     795.7703   0.03228539  0.032236069           13 
 2055000   0.93099901   -6.2066084    797.98476  0.032359479  0.032227623            5 
 2056000   0.94219482   -6.2079769    797.28951   0.03231556  0.032219241            4 
 2057000   0.93983976   -6.2314904    797.75919  0.032318878  0.032210894            5 
 2058000   0.91490453   -6.2378975    797.26866  0.032283311  0.032202498            4 
 2059000   0.92036523   -6.2753473    798.87218  0.032332531  0.032193952            3 
 2060000   0.93465729   -6.2740395    794.09617  0.032123631  0.032185345            9 
 2061000    0.9104856   -6.2279254    797.86245  0.032260329  0.032176745            7 
 2062000   0.93198619   -6.2577876    799.74201  0.032320644  0.032168328            6 
 2063000   0.91620833   -6.2523678    799.72242  0.032304186   0.03215987            4 
 2064000   0.92230397   -6.2614948    796.87356  0.032173512  0.032151383            5 
 2065000   0.92378731   -6.2613067    798.47188  0.032222432  0.032142952            3 
 2066000   0.91738434   -6.2629334    798.22219  0.032196765  0.032134444            7 
 2067000   0.91581365   -6.2778721    796.75512  0.032122042  0.032125823            4 
 2068000   0.91838988   -6.2433718    798.21665  0.032165403  0.032117291            3 
 2069000   0.92084655    -6.235923    797.94465  0.032138902  0.032108794           11 
 2070000   0.93267613    -6.255082    798.82076  0.032158646  0.032100305            7 
 2071000   0.91771759   -6.2159641     799.9438  0.032188307  0.032091873            4 
 2072000   0.95040437    -6.244531    799.98401  0.032174389  0.032083509            4 
 2073000   0.92679669   -6.2405688    801.76817   0.03223059  0.032075011            6 
 2074000   0.91586013   -6.2309709    801.11299  0.032188725   0.03206674            4 
 2075000   0.92210108   -6.2367331    800.33861  0.032142113  0.032058398            4 
 2076000    0.9255876   -6.2178691    800.48315  0.032132432  0.032050015            4 
 2077000   0.90972752   -6.2697756    800.20406  0.032105764  0.032041691            4 
 2078000   0.93124176   -6.2761698    801.98705  0.032161816  0.032033211            5 
 2079000   0.91964925   -6.2393023    803.24609  0.032196813  0.032024742            6 
 2080000   0.91117303   -6.2944863    800.53196  0.032072595  0.032016286            4 
 2081000   0.90767886   -6.2599374    801.01647  0.032076584   0.03200781            4 
 2082000   0.92369234   -6.2410156    800.44474  0.032038294  0.031999384            7 
 2083000    0.9035702   -6.2764931    801.82977  0.032078323  0.031990978            6 
 2084000   0.90027699   -6.2403708    803.98744   0.03214921   0.03198254            5 
 2085000   0.92285849   -6.2878116      800.915  0.032010991  0.031974197            4 
 2086000   0.91528067   -6.2537689    804.29782  0.032130785  0.031965864            3 
 2087000   0.91678307   -6.2882526    801.75081  0.032013688  0.031957538            3 
 2088000   0.91876057   -6.2565588    802.43865  0.032025808  0.031949254            6 
 2089000   0.92411422   -6.2744695    802.14145  0.031998622  0.031940933            5 
 2090000   0.90474599   -6.2567659    806.05389   0.03213931   0.03193254            3 
 2091000   0.91542011   -6.2558987    801.29409  0.031934246  0.031924128            3 
 2092000   0.92510058   -6.2709375    804.96172  0.032065078  0.031915783            6 
 2093000   0.93170594   -6.2444674    803.67604  0.031998568  0.031907428            3 
 2094000   0.91870224   -6.2403544    805.08047  0.032039178  0.031899122            6 
 2095000   0.91389977   -6.2346093    807.05612  0.032102471  0.031890845            5 
 2096000   0.90949165    -6.254873    806.60125   0.03206907  0.031882668            3 
 2097000   0.90864563    -6.265047    804.37165  0.031965174  0.031874373            8 
 2098000   0.92837419   -6.2801774    804.16236  0.031941625  0.031865955            7 
 2099000   0.91610619   -6.2763105    803.83866  0.031913556   0.03185759            8 
 2100000   0.90389701   -6.2614523    803.83464    0.0318982  0.031849279            5 
 2101000   0.90935697   -6.2868406    806.93504  0.032005991  0.031840906            4 
 2102000   0.91509175   -6.2954329    807.47571  0.032012199  0.031832635            3 
 2103000    0.9046492   -6.2884697    805.60001  0.031922651  0.031824234            6 
 2104000   0.93292853   -6.2576437    806.98855  0.031962474  0.031815848            6 
 2105000   0.91361514   -6.2570484    805.43852  0.031885927  0.031807506            6 
 2106000   0.90665656   -6.2826822    805.87259  0.031887963  0.031799162            6 
 2107000   0.91489197   -6.2616138    804.71984  0.031827236  0.031790822            4 
 2108000   0.92058621   -6.2181134    809.16995  0.031988059  0.031782596            5 
 2109000   0.89380768    -6.257546    807.09992  0.031891099  0.031774342            5 
 2110000    0.9184444   -6.2629479     808.4921  0.031930968  0.031766072            5 
 2111000   0.92979618   -6.2773595    812.41027  0.032070515   0.03175781            7 
 2112000     0.908307   -6.2466661    812.00211  0.032039225  0.031749714            4 
 2113000   0.91265125   -6.2650018    809.71211  0.031933748  0.031741584            8 
 2114000   0.91814791   -6.2884811    808.87332  0.031885577  0.031733333            4 
 2115000   0.92213867   -6.2867976    809.25943  0.031885714  0.031725196            4 
 2116000   0.92171028   -6.2448651    811.20196  0.031947147  0.031717093            4 
 2117000   0.91461812   -6.3087972    810.83603  0.031917652  0.031708952            4 
 2118000   0.92221465   -6.3012737    809.47995  0.031849227  0.031700704            5 
 2119000   0.91214094   -6.2880567    808.18665  0.031783335  0.031692507            5 
 2120000   0.89185331   -6.2880473    810.82669  0.031872118  0.031684281            4 
 2121000   0.90280859   -6.2533301    810.86488  0.031858592  0.031676117            5 
 2122000   0.90901484   -6.2533839    810.55093  0.031831249  0.031667984            6 
 2123000   0.91204404   -6.2974817    809.74401  0.031784582  0.031659664            7 
 2124000   0.89954786   -6.3254435    808.89304   0.03173623   0.03165136            6 
 2125000   0.91019136   -6.3150049    808.73237  0.031714995   0.03164302            6 
 2126000    0.9087635   -6.2796037    809.55624  0.031732371  0.031634726            2 
 2127000   0.89288575   -6.3160088    808.20034  0.031664329  0.031626503            4 
 2128000   0.91132645   -6.2626134    810.46702  0.031738213  0.031618164            4 
 2129000   0.91577305   -6.3134016    811.40197  0.031759902  0.031609958            5 
 2130000   0.92233125   -6.2669503    811.59709  0.031752625   0.03160179            5 
 2131000   0.91217039   -6.2641727    815.96003  0.031908338  0.031593513            4 
 2132000   0.90443132   -6.2216547    815.87477  0.031890039  0.031585346            4 
 2133000   0.89881069   -6.2594709    813.16873  0.031769368   0.03157724            6 
 2134000   0.91825723   -6.2710184     812.8251  0.031741061  0.031569019            5 
 2135000   0.90832735   -6.2691825    814.80826  0.031803601  0.031560868            3 
 2136000   0.90315093   -6.2719268    813.15243  0.031724112   0.03155271            4 
 2137000   0.89282525   -6.2456194    815.08715  0.031784712  0.031544582            7 
 2138000   0.90695319   -6.2889819    815.18235  0.031773556  0.031536511            5 
 2139000   0.89595208   -6.2691776    815.96671  0.031789259  0.031528398            2 
 2140000   0.92635134   -6.3095611    814.54777   0.03171915  0.031520208            7 
 2141000   0.89618816     -6.27975    814.53151  0.031703702  0.031512066            7 
 2142000   0.92202808   -6.2874203    812.80318  0.031621661  0.031503903            5 
 2143000   0.90136411   -6.2977371    813.67089  0.031640647  0.031495673            6 
 2144000   0.90173184   -6.3100426    814.16893  0.031645247  0.031487453            3 
 2145000   0.90098623   -6.2403623    817.23713  0.031749694   0.03147937            3 
 2146000   0.91305962   -6.2988446    815.63854  0.031672823  0.031471229           12 
 2147000    0.8847241   -6.2808874    815.33627  0.031646339  0.031463186            6 
 2148000   0.93077388   -6.2952482    817.33381  0.031709102   0.03145519            4 
 2149000   0.90771388   -6.2811553    818.18471  0.031727343  0.031447201            5 
 2150000   0.90226464   -6.2721425    817.70678  0.031694061  0.031439193            3 
 2151000   0.89497943   -6.2871036    818.42375  0.031707103  0.031431268           10 
 2152000   0.90713355   -6.2795958    819.22565  0.031723422  0.031423291            6 
 2153000   0.91249413   -6.2674037    819.15585  0.031705986   0.03141525            4 
 2154000   0.92262635    -6.273983    818.38851   0.03166158  0.031407221            3 
 2155000   0.90768932   -6.2673529     820.1805  0.031716183  0.031399181            5 
 2156000   0.89840574   -6.2955494    816.35662  0.031553673  0.031391148            7 
 2157000   0.90801825   -6.2872581    817.39301  0.031579084  0.031383115            6 
 2158000   0.90384547   -6.3117522    818.54839  0.031609066   0.03137505            3 
 2159000   0.90660541   -6.2547433    819.95022  0.031648534   0.03136702            5 
 2160000   0.89670866   -6.2935697    820.06415  0.031638277  0.031358961            6 
 2161000   0.89920919   -6.2986514    817.27788  0.031516192  0.031350856            3 
 2162000   0.88974872   -6.2828961     819.5058  0.031587488  0.031342775            7 
 2163000    0.9047246   -6.2942455    818.43089  0.031531472  0.031334643            8 
 2164000    0.9137088   -6.2877455     819.1055   0.03154288  0.031326556            4 
 2165000   0.92032128    -6.303556    818.08539  0.031489045  0.031318319            5 
 2166000   0.91338235   -6.2957157    818.28281  0.031482103  0.031310071            7 
 2167000   0.89676833   -6.2969072    817.90133  0.031452904  0.031301895            3 
 2168000   0.92873068   -6.3213904    819.11808  0.031485166  0.031293789            5 
 2169000    0.8820931   -6.2687212    821.02152  0.031543781  0.031285675            4 
 2170000   0.89916524    -6.307601    818.90004  0.031447774  0.031277564            4 
 2171000   0.88751092   -6.3035532     820.0238  0.031476424  0.031269446            6 
 2172000   0.88361946   -6.2634976    820.82532  0.031492684  0.031261271            4 
 2173000   0.90804704   -6.2771315    819.92258  0.031443572  0.031253335            4 
 2174000   0.90685481   -6.3049997    821.08974  0.031473848  0.031245294            6 
 2175000   0.88948081   -6.2672595    818.29354  0.031352243  0.031237215            7 
 2176000   0.88510168   -6.2902237    823.54172  0.031538822  0.031229268            3 
 2177000   0.89595399   -6.3179373    822.26492   0.03147546  0.031221203            8 
 2178000   0.92212816   -6.3234268     821.7385  0.031440867  0.031213172            4 
 2179000   0.88905396   -6.2769282    820.49653   0.03137894  0.031205194            5 
 2180000   0.90752518   -6.3138178    819.30991  0.031319186  0.031197007            4 
 2181000   0.90812607   -6.3016356    821.20855  0.031377371  0.031188847            5 
 2182000   0.90384176   -6.3220878    820.28691  0.031327792  0.031180757            5 
 2183000   0.88438169   -6.2983971    819.88636  0.031298151  0.031172546           10 
 2184000   0.91112481   -6.3130702    822.46826  0.031382336  0.031164432            6 
 2185000   0.90343961   -6.3145863    820.18622  0.031280939  0.031156313            6 
 2186000   0.90880068   -6.2796057    823.08903  0.031377288  0.031148206            5 
 2187000   0.91382092   -6.2849986    822.22566  0.031330044  0.031140174           10 
 2188000   0.88995404    -6.302639     822.7598  0.031336068  0.031132138            2 
 2189000    0.9068594   -6.2616967    825.92996  0.031442438  0.031124141            6 
 2190000   0.88625466    -6.327684    824.36089  0.031368375  0.031116124            6 
 2191000   0.90430009   -6.3210441    821.60519  0.031249246  0.031108018            4 
 2192000   0.87974329   -6.2864785    824.36695  0.031339984  0.031099997            3 
 2193000   0.90881897   -6.3005403    821.27829  0.031208325  0.031091899            5 
 2194000   0.92813551   -6.3118649    824.86007  0.031330145  0.031083779            4 
 2195000   0.90553327   -6.2948122    827.04513  0.031398828   0.03107568            7 
 2196000    0.8967442   -6.3003195     825.0563  0.031309058  0.031067595            6 
 2197000   0.89005139   -6.3112056     821.2438  0.031150197  0.031059324            3 
 2198000   0.92962793   -6.2816765    822.75035  0.031193143  0.031051116           13 
 2199000   0.89986995   -6.3238265    825.31422  0.031276119  0.031042994            3 
 2200000   0.90869784   -6.3151509    823.31227  0.031186071  0.031034878            9 
 2201000   0.90832474   -6.3084558    824.94231  0.031233618  0.031026806            3 
 2202000   0.88047832   -6.2725325    826.34399  0.031272479  0.031018674            4 
 2203000   0.89129133   -6.3097875    824.64688  0.031194087  0.031010615            6 
 2204000   0.90188164   -6.3158918    826.77059  0.031260231  0.031002501            7 
 2205000   0.89754265   -6.3197148    826.40183  0.031232117  0.030994379            7 
 2206000   0.89779803   -6.3076762    826.15045  0.031208464  0.030986218           11 
 2207000   0.90351575   -6.3169278    825.97803  0.031187813  0.030978124            6 
 2208000   0.89709199    -6.295295    828.38635  0.031264582  0.030970111            9 
 2209000   0.92028702   -6.2978462    826.32213  0.031172557  0.030962181            4 
 2210000   0.90647817   -6.3128956    827.25409  0.031193593  0.030954248            5 
 2211000   0.91934124   -6.2751352    829.77428  0.031274472  0.030946278            4 
 2212000    0.8813824   -6.2925955    826.92752  0.031153086  0.030938256           10 
 2213000   0.88788852   -6.3088038    828.73799  0.031207184  0.030930255            3 
 2214000   0.88659169   -6.3175664    825.77801  0.031081678  0.030922218            5 
 2215000   0.88091458   -6.3161238    828.79168  0.031181026  0.030914054            4 
 2216000   0.88864731   -6.3088545    827.49193  0.031118078  0.030906048            7 
 2217000   0.92765827   -6.3050106    830.66812   0.03122343  0.030898065            6 
 2218000   0.89418131   -6.3608469    826.29331  0.031044985  0.030890021            5 
 2219000   0.89479794   -6.3358257    828.94478  0.031130568   0.03088198            8 
 2220000   0.89726207   -6.3211054    827.88291  0.031076686   0.03087385            9 
 2221000   0.90988294   -6.3634601    828.52846  0.031086915  0.030865715            8 
 2222000   0.91217027   -6.3392316    828.82705  0.031084123   0.03085763            5 
 2223000    0.9018343   -6.2943947    828.49369  0.031057643  0.030849568            5 
 2224000    0.8879986   -6.3100655    829.32061  0.031074663  0.030841484            6 
 2225000   0.90099246   -6.3520253    828.39584  0.031026062  0.030833375           13 
 2226000   0.89101747   -6.3068326    830.52919  0.031091988   0.03082521            3 
 2227000   0.88883218     -6.30726    830.69097  0.031084081  0.030817097            6 
 2228000   0.89334049    -6.328031    828.14483  0.030974896  0.030808985            5 
 2229000   0.90383474    -6.329885     826.1251  0.030885491  0.030800821            6 
 2230000    0.8852487   -6.3389925    829.91011  0.031013083  0.030792709           12 
 2231000   0.88853583   -6.3383435    829.89942  0.030998783    0.0307846            5 
 2232000   0.90694901   -6.3104048    830.55808  0.031009486   0.03077647            4 
 2233000   0.88629487   -6.3167491    828.80867  0.030930313  0.030768376            6 
 2234000   0.90446728   -6.3249028    830.95912  0.030996684  0.030760286            3 
 2235000   0.87438255   -6.3028976    831.50587  0.031003202  0.030752189            3 
 2236000   0.88806108   -6.3237602    828.49523  0.030877133  0.030743977            4 
 2237000   0.90124575   -6.3266798    832.43854  0.031010227  0.030735873            3 
 2238000   0.89968464   -6.3002492    832.36468  0.030993621  0.030727864            4 
 2239000   0.90641046   -6.2996189    832.44929  0.030982927  0.030719762            7 
 2240000   0.88505223   -6.3190215    832.10941  0.030956451  0.030711682            3 
 2241000   0.90265198   -6.3237017    830.89428  0.030897452  0.030703541           14 
 2242000   0.89493002   -6.3251387    831.00891  0.030887931  0.030695443            7 
 2243000   0.88737045   -6.3224885    830.75118  0.030864585  0.030687345            7 
 2244000   0.88734829      -6.3501    829.91862  0.030819913  0.030679189            4 
 2245000   0.88720375    -6.327703    830.31748   0.03082099  0.030671057            6 
 2246000    0.8876193   -6.3337188    830.91492  0.030829434  0.030662958            6 
 2247000   0.88800315   -6.3301442    831.97379  0.030854984  0.030654926            7 
 2248000   0.88411278   -6.3528988    831.66977  0.030829989  0.030646843           10 
 2249000   0.89967351   -6.3192445    832.74616  0.030856164  0.030638772            6 
 2250000   0.90067716   -6.3430794    835.21184  0.030933772  0.030630621            4 
 2251000   0.87635154   -6.3361986    832.25125  0.030810427  0.030622568            7 
 2252000   0.90719085   -6.3384678    832.49441  0.030805744  0.030614406            4 
 2253000   0.89615365   -6.3311019    829.68813  0.030688272  0.030606211            3 
 2254000   0.89119534   -6.3219946    832.91885  0.030794101  0.030598042            3 
 2255000   0.88131508   -6.3532775    831.69296  0.030735143  0.030589912            2 
 2256000   0.88919524   -6.3284941    832.18377  0.030739649  0.030581741            6 
 2257000   0.91155742   -6.3523192    833.85778  0.030787837    0.0305736            4 
 2258000   0.88334559   -6.3101562     835.0545  0.030818368  0.030565501            4 
 2259000   0.89197565   -6.3209475    834.41257  0.030781045  0.030557483            9 
 2260000   0.89832367   -6.3331253    835.95346  0.030824243  0.030549435            7 
 2261000   0.88768147   -6.3094549    837.17412  0.030855599  0.030541408            4 
 2262000   0.88142934   -6.3478331    835.75439  0.030789655   0.03053332            6 
 2263000   0.89245994   -6.3358583    836.50598  0.030803726  0.030525266            7 
 2264000    0.9085879    -6.347811    835.41063  0.030749802  0.030517256            6 
 2265000   0.88461582   -6.3363367    835.62393  0.030744074  0.030509249            5 
 2266000   0.89078181   -6.3413233    833.46443   0.03065109  0.030501194            6 
 2267000   0.88974226   -6.3266202    834.96012   0.03069255  0.030493133            5 
 2268000   0.89601641    -6.318408    834.80744  0.030673407  0.030485069           10 
 2269000   0.90558495   -6.3360943    834.30897  0.030641581  0.030476956            3 
 2270000   0.88862149   -6.3515202    835.55799  0.030673935  0.030468949            5 
 2271000   0.87733974    -6.335853    836.53143  0.030696148  0.030460994            7 
 2272000   0.86181347    -6.346985    834.77036  0.030618044  0.030452944            4 
 2273000    0.8972128   -6.3477851    835.57299     0.030634  0.030444847            4 
 2274000   0.88077038   -6.3484895    837.48265   0.03069051  0.030436731            8 
 2275000   0.88090335   -6.2962302     836.7558  0.030650396  0.030428621            5 
 2276000   0.87941359   -6.3216774    838.15056  0.030687996  0.030420502            5 
 2277000   0.88047044   -6.3223577    835.43139  0.030575003  0.030412357            6 
 2278000   0.88275656   -6.3345925    835.39131  0.030560115  0.030404204            4 
 2279000   0.88584783   -6.3192252    838.34403  0.030654674  0.030396076           16 
 2280000   0.88441474   -6.3411117    836.60586  0.030577699  0.030387961            4 
 2281000   0.89254541    -6.342518    838.37182  0.030628811  0.030379879            6 
 2282000   0.87188511    -6.329512    836.68751  0.030553882   0.03037173           12 
 2283000   0.90190641   -6.3832084     836.1111  0.030519459  0.030363586           11 
 2284000   0.88740586    -6.351121    836.38295  0.030516015  0.030355356            3 
 2285000   0.87571266   -6.3426069    836.19496  0.030495804  0.030347128            4 
 2286000   0.87321483   -6.3656849    835.03218  0.030440076  0.030338898            9 
 2287000   0.86951477   -6.3258165    837.96661  0.030533691  0.030330692            7 
 2288000   0.89186303   -6.3357701    834.96309  0.030410952  0.030322493            6 
 2289000   0.87276136    -6.321762    837.47012  0.030488937  0.030314253            5 
 2290000   0.89227886   -6.3348214    840.13481  0.030572591  0.030306091            5 
 2291000   0.85996861   -6.3207048    839.93647  0.030552032  0.030297945            8 
 2292000   0.88544725   -6.3556206    837.83207   0.03046219  0.030289656            7 
 2293000   0.87411166   -6.3523944    835.61296  0.030368257  0.030281367            5 
 2294000   0.90043188   -6.3775255    836.63606  0.030392185  0.030273125            5 
 2295000   0.86445235   -6.3534117    837.92498  0.030425744  0.030264939            7 
 2296000   0.88594468   -6.3372926     839.1969  0.030458656  0.030256749            7 
 2297000   0.90397637   -6.3125127    841.31378  0.030522195  0.030248581            6 
 2298000   0.90491777   -6.3619089    837.94105  0.030386606  0.030240398            5 
 2299000    0.8672971   -6.3403386    837.64267  0.030362573  0.030232155            9 
 2300000   0.87643366   -6.3556866    836.58487  0.030311046  0.030223965            7 
 2301000   0.88268542   -6.3896036    837.50539  0.030331211  0.030215724           12 
 2302000   0.88054906    -6.351052    839.67504  0.030396577  0.030207426            9 
 2303000   0.87598938   -6.3242416    842.19777  0.030474662  0.030199199            8 
 2304000   0.87707688   -6.3139824     842.0642  0.030456604  0.030191031            8 
 2305000   0.89675916   -6.3020764    844.48548  0.030530928  0.030182916            4 
 2306000   0.86898768   -6.3241386    840.02646   0.03035655  0.030174809            5 
 2307000   0.87795202   -6.3232905      840.329   0.03035432   0.03016665            2 
 2308000   0.89186363   -6.3705505    838.32942  0.030268971  0.030158537           13 
 2309000   0.89408447   -6.3467365    839.54311  0.030299665  0.030150324            5 
 2310000   0.89687411   -6.3208487    841.70951  0.030364701  0.030142069           10 
 2311000   0.86707607   -6.3839384      838.295  0.030228437  0.030133788           16 
 2312000   0.89139188   -6.3539959    838.76162  0.030232181  0.030125469            4 
 2313000   0.87713892   -6.3853406    837.46912  0.030172543  0.030117184            6 
 2314000   0.87288769   -6.3836095    840.86728  0.030281881  0.030108874            3 
 2315000   0.87035811    -6.365959    840.18818  0.030244355  0.030100522           10 
 2316000   0.86899435   -6.3637688    837.61432  0.030138685  0.030092242            4 
 2317000   0.87938333   -6.3504255    840.74798  0.030238382  0.030084049            5 
 2318000   0.87160049   -6.3873727    839.79673  0.030191139  0.030075779            4 
 2319000   0.87505367   -6.3466513    839.22292    0.0301575  0.030067549            5 
 2320000     0.870274    -6.365233    842.44632  0.030260285  0.030059342            7 
 2321000   0.87062198   -6.3428214    841.63664  0.030218176  0.030051132            4 
 2322000   0.87904399   -6.3570688     840.5441  0.030165953  0.030042825            8 
 2323000   0.89292762   -6.3630079    840.76535  0.030160904  0.030034511            6 
 2324000   0.86455579   -6.3618428    841.69921  0.030181412  0.030026212            8 
 2325000   0.88530777   -6.3391013    842.12564  0.030183715  0.030017875            4 
 2326000   0.85211286   -6.3753232    839.97128  0.030093554   0.03000962            4 
 2327000   0.87335337   -6.3564736    841.83681  0.030147429  0.030001321           12 
 2328000    0.8705933   -6.3719309    841.28814  0.030114839  0.029992966            4 
 2329000   0.88335179   -6.3611287    842.37416  0.030140767  0.029984627            6 
 2330000   0.86182598   -6.3508353     839.7537  0.030034109  0.029976314            5 
 2331000   0.86416441   -6.3546435    842.69251  0.030126287  0.029968059            3 
 2332000   0.85098177   -6.3699476     840.5119  0.030035445  0.029959634            4 
 2333000   0.87734096   -6.3750084    841.63381  0.030062645  0.029951313            8 
 2334000   0.87531254   -6.3737861     842.1257  0.030067327  0.029942941            4 
 2335000   0.87147679   -6.3471818    843.66268  0.030109303  0.029934579            3 
 2336000   0.87065653   -6.3683287    840.65109   0.02998898  0.029926306            6 
 2337000   0.87367528    -6.356707    843.38648  0.030073687  0.029917984            5 
 2338000   0.88807797     -6.33791    843.86303   0.03007781  0.029909633           12 
 2339000   0.86536814   -6.3334688    844.81633  0.030098914  0.029901365            7 
 2340000   0.87329453   -6.3004249    844.76128  0.030084091  0.029893175            4 
 2341000   0.88247831   -6.3599796    842.69878  0.029997821  0.029884926            7 
 2342000   0.87216658   -6.3874799    841.99835  0.029960089  0.029876589            9 
 2343000   0.89571002   -6.4186153    841.07717  0.029914539  0.029868219            8 
 2344000   0.87260875   -6.3579498    846.18142  0.030083242  0.029859891            5 
 2345000   0.86095185   -6.3715592    842.92574  0.029954717  0.029851583            6 
 2346000   0.90084768   -6.3399683    845.86925  0.030046507  0.029843275            5 
 2347000   0.87315658   -6.3846615     842.9586  0.029930358  0.029835038            5 
 2348000   0.89681285   -6.3486133    842.58322  0.029904288   0.02982675           17 
 2349000   0.86836382   -6.3652343     843.3133  0.029917458  0.029818387            7 
 2350000    0.8811808   -6.3772212    843.41484  0.029908328  0.029810055            9 
 2351000   0.88973335   -6.3679475    844.28628  0.029926495   0.02980169            9 
 2352000   0.87139682    -6.361305    844.21542  0.029911261  0.029793446            5 
 2353000   0.86777497   -6.3743261    844.18926  0.029897622  0.029785118            8 
 2354000   0.88918077   -6.3712149     842.6747  0.029831305  0.029776776            4 
 2355000   0.87619837   -6.3486627     844.3141  0.029876649  0.029768387            6 
 2356000   0.83874357   -6.3920042    842.70375  0.029807009  0.029759936            2 
 2357000   0.88235231   -6.4050498    841.14864  0.029739381  0.029751393            9 
 2358000   0.88423617   -6.3862102    841.44122  0.029737108  0.029742938           15 
 2359000   0.86444249   -6.3410059    845.31391  0.029861308   0.02973453           10 
 2360000   0.87877786   -6.3548633    847.71715  0.029933515  0.029726162            3 
 2361000   0.87428925    -6.354938    843.93552  0.029787361  0.029717862           10 
 2362000   0.87110486   -6.3808364    841.92138   0.02970369  0.029709443            4 
 2363000   0.88063405   -6.3852518    844.68274  0.029788501  0.029701002            3 
 2364000   0.86854022   -6.3544443    846.82498  0.029851416  0.029692581            7 
 2365000   0.85600072   -6.4082605     841.9377  0.029666586  0.029684129            5 
 2366000   0.85175554   -6.3830949    845.65395  0.029784938  0.029675636            5 
 2367000    0.8712057   -6.3869002    844.67446   0.02973787  0.029667071            7 
 2368000   0.88118999   -6.3514461    846.39273   0.02978578  0.029658593            3 
 2369000   0.87776456   -6.3681775    845.03006  0.029725273  0.029650119           12 
 2370000   0.90727572   -6.4067238    843.75069  0.029667746  0.029641697           12 
 2371000   0.87555739   -6.3975468    843.76485  0.029655731  0.029633246            7 
 2372000   0.86322957   -6.3867946    842.68827  0.029605406  0.029624809            6 
 2373000   0.87663644   -6.3326331    845.86677   0.02970455  0.029616375            3 
 2374000   0.87550539   -6.3635835    847.19779   0.02973876  0.029608025            7 
 2375000   0.86108323   -6.3378091    846.51457  0.029702266  0.029599709            7 
 2376000   0.88425178   -6.3758324     843.3452  0.029578606  0.029591305            5 
 2377000   0.87599727   -6.3514362    848.65298  0.029752243   0.02958289            9 
 2378000   0.87004965   -6.3458366    849.04718  0.029753546  0.029574638            7 
 2379000   0.87681494    -6.341688    845.79245   0.02962703  0.029566337            3 
 2380000   0.88454155   -6.3872015    847.75289  0.029683225  0.029558009            8 
 2381000   0.88766229   -6.3482525    846.48595  0.029626416  0.029549699            4 
 2382000   0.87683086   -6.3853033    847.79725  0.029659853  0.029541426            6 
 2383000   0.86454186   -6.3763685    846.51546  0.029602583  0.029533047            5 
 2384000   0.89375854   -6.3469841    849.24878  0.029685709  0.029524697           14 
 2385000   0.87096521   -6.3892062     846.3791  0.029572994   0.02951633            6 
 2386000   0.86612993   -6.3898857     846.8541   0.02957719  0.029507874            9 
 2387000   0.87430143   -6.3872993    847.97076  0.029603783  0.029499465            5 
 2388000   0.87303573   -6.3686657    848.30929    0.0296032  0.029491122            4 
 2389000   0.87800361   -6.4080506     846.3062  0.029520936  0.029482693            5 
 2390000   0.86648496   -6.4045971    846.77044  0.029524771  0.029474283            5 
 2391000   0.87383193   -6.3942107     847.7115  0.029545222  0.029465844           10 
 2392000    0.8615147   -6.3655389    848.76667   0.02956963  0.029457475            9 
 2393000   0.86725041   -6.4065592    848.89008  0.029561571  0.029449091           14 
 2394000   0.87321602   -6.3661475    849.66794    0.0295763  0.029440721            6 
 2395000   0.86764004   -6.3873134    849.69067  0.029564742  0.029432367           11 
 2396000   0.86003397   -6.3841444    848.99245  0.029528118  0.029423938           11 
 2397000   0.86409657   -6.4001698     844.8278  0.029371012  0.029415536            6 
 2398000   0.87980755   -6.4424093    846.23012  0.029407497  0.029407168           11 
 2399000   0.86767248   -6.3716294    848.75738  0.029483027  0.029398771            6 
 2400000   0.87009682   -6.3874023    851.92446   0.02958071  0.029390462            6 
 2401000   0.88266191   -6.3659786    851.12325  0.029540582   0.02938217            6 
 2402000   0.88369128    -6.390278    848.91363  0.029451625  0.029373803           10 
 2403000   0.86015221   -6.3869176    849.40852  0.029456531  0.029365407            5 
 2404000   0.87853183   -6.4365421     846.7831  0.029353269  0.029357078            3 
 2405000   0.85235565   -6.4421733    847.11759  0.029352654  0.029348592           13 
 2406000   0.85450701   -6.4033256    850.07569   0.02944291  0.029340209            6 
 2407000   0.85965037   -6.3613922    853.96277  0.029565253   0.02933189            8 
 2408000   0.85294778   -6.3789541    850.47531  0.029432285  0.029323512            8 
 2409000   0.88211628    -6.409715      850.687   0.02942739  0.029315081           10 
 2410000   0.85366231   -6.4061296    849.51838  0.029374771  0.029306611            7 
 2411000   0.86026894   -6.4122414    850.39404  0.029392853  0.029298162            8 
 2412000   0.86133109   -6.4175561    849.37149  0.029345339  0.029289776            7 
 2413000   0.87195803   -6.3766172    852.01466   0.02942446  0.029281387            8 
 2414000   0.86762606   -6.3664946    853.15846  0.029451756  0.029273069            7 
 2415000   0.86307011   -6.3916148    849.58728  0.029316331  0.029264638            6 
 2416000    0.8699296   -6.4300405    850.62362  0.029339943   0.02925626            4 
 2417000   0.85507609    -6.426451    850.26463  0.029315426  0.029247845           21 
 2418000   0.85669819   -6.4045899    852.27599  0.029372622   0.02923941            8 
 2419000   0.86767913    -6.416054    847.84654  0.029207887  0.029230935            7 
 2420000   0.88452369   -6.4173467    850.46544     0.029286  0.029222404            6 
 2421000   0.84950269   -6.3861475    852.05421   0.02932859  0.029213949            6 
 2422000   0.86756575   -6.3906065    853.16781  0.029354797  0.029205599            5 
 2423000   0.85337984   -6.3878214    850.49616  0.029250796  0.029197205            6 
 2424000   0.87064399   -6.3983273    853.23297  0.029332817    0.0291887            6 
 2425000   0.86745316   -6.4065779    849.16425  0.029180902  0.029180177            6 
 2426000   0.85291393   -6.4295555    849.41048  0.029177332  0.029171635           12 
 2427000   0.86451306   -6.4293969    849.65068  0.029173557  0.029163152            3 
 2428000   0.84430639   -6.4046663    851.87968  0.029238045  0.029154708           17 
 2429000   0.85115378   -6.3885244    851.75736  0.029221811  0.029146324            6 
 2430000   0.86671785    -6.379833    850.89853  0.029180334  0.029137919            4 
 2431000   0.87456469    -6.389356    851.73235  0.029196913  0.029129463            4 
 2432000   0.85556649   -6.4156058    849.09839  0.029094654   0.02912096            5 
 2433000   0.87121931   -6.4017773    851.31379  0.029158576  0.029112436            7 
 2434000    0.8715425   -6.4118283    850.38371  0.029114753  0.029103996            6 
 2435000   0.84762347   -6.4070472     850.9666  0.029122745   0.02909552            4 
 2436000   0.86579194   -6.4162017    853.45493  0.029195913  0.029087074            9 
 2437000   0.85914612   -6.4019319    851.08851  0.029103013  0.029078678            5 
 2438000   0.84864816   -6.4185332    851.10788  0.029091738  0.029070264            5 
 2439000   0.86654329   -6.3951438    853.63784  0.029166251  0.029061893            5 
 2440000   0.88218557   -6.4137772    853.85872  0.029161842  0.029053598            6 
 2441000   0.84806062   -6.4180428    854.10677  0.029158363  0.029045311            7 
 2442000   0.84355347   -6.4026266     852.8847  0.029104719  0.029036992            9 
 2443000   0.86608455   -6.3927273    855.52686  0.029182933  0.029028723            4 
 2444000   0.86228858   -6.3959445    855.49287  0.029169833  0.029020384            3 
 2445000   0.86430717   -6.4084511    853.88866  0.029103226  0.029011998            5 
 2446000    0.8574114   -6.4355196    853.05806   0.02906303  0.029003576            4 
 2447000   0.86149538   -6.4238223    851.88917  0.029011346  0.028995141            3 
 2448000   0.85398129   -6.4224198    853.33188  0.029048607  0.028986757            8 
 2449000   0.86859439   -6.4087844    854.58925  0.029079531   0.02897834            8 
 2450000   0.85834422   -6.4396625     851.5836  0.028965429  0.028969898            9 
 2451000   0.86169641   -6.3906888    855.21548  0.029077094  0.028961469            4 
 2452000   0.85668406   -6.4330571     855.9984  0.029091843  0.028953048            9 
 2453000   0.85620223   -6.3991046    855.07342   0.02904856  0.028944612            4 
 2454000   0.84005464   -6.4332684    854.89048  0.029030511  0.028936223            9 
 2455000   0.89545387   -6.4087273    857.00595  0.029090494   0.02892784            3 
 2456000   0.85029336   -6.3884572    857.17227  0.029084292  0.028919511           10 
 2457000   0.85329578   -6.4266454    854.29359   0.02897482  0.028911134            9 
 2458000   0.87061087   -6.4038508    857.75724   0.02908046  0.028902741            7 
 2459000   0.85809386   -6.4327456    855.20711  0.028982212   0.02889431            9 
 2460000   0.86030345    -6.427612    855.35053  0.028975289  0.028885866            3 
 2461000   0.86012224   -6.4137436    854.07682  0.028920385   0.02887739            4 
 2462000    0.8439283   -6.4234529     855.6316  0.028961264  0.028868894           10 
 2463000    0.8412631    -6.416813    855.83106  0.028956255  0.028860502            8 
 2464000   0.84925491   -6.4420284    853.29264  0.028858653  0.028852089            5 
 2465000   0.86071983   -6.4190602    853.84188  0.028865513   0.02884356            4 
 2466000   0.83908097   -6.4389321    853.75726  0.028850948  0.028835081           12 
 2467000   0.86693801   -6.4347552    853.67832  0.028836587  0.028826616           13 
 2468000   0.87322351   -6.4447203    853.52214  0.028819629  0.028818176            6 
 2469000    0.8490245   -6.3839274    856.30904   0.02890202  0.028809786            5 
 2470000   0.85149097   -6.4309113    854.45217  0.028827671   0.02880134            7 
 2471000   0.84973581   -6.4448891    853.03249  0.028768126  0.028792824            6 
 2472000   0.87268174    -6.426423    855.61071  0.028843403  0.028784332            4 
 2473000   0.84099158   -6.4487204    856.04087  0.028846235  0.028775873           16 
 2474000   0.84672344   -6.4094962    856.92755  0.028864442  0.028767414            6 
 2475000   0.85392307   -6.4038015    857.61395  0.028875891  0.028759016           17 
 2476000   0.84227231   -6.4141572    857.30671  0.028853888  0.028750615            8 
 2477000   0.84888738   -6.4191737    855.33186  0.028775799  0.028742224            5 
 2478000   0.85823373   -6.4351301    853.82444  0.028713494  0.028733808            7 
 2479000    0.8514747   -6.4103973    857.76155  0.028834259  0.028725398            6 
 2480000   0.87897317   -6.4477124    855.69371  0.028753149  0.028716968            7 
 2481000   0.84224477   -6.4361937    857.82273   0.02881307  0.028708546            9 
 2482000   0.85404155   -6.4466573    859.71375  0.028864953  0.028700217            2 
 2483000   0.84091761   -6.4124913    857.09355   0.02876539  0.028691757            7 
 2484000   0.83716058   -6.4047029    858.76144  0.028809764  0.028683364            5 
 2485000   0.85629255   -6.4102224    858.85723  0.028801382  0.028674916           14 
 2486000   0.85856476   -6.4295404    854.98033  0.028659839  0.028666413            9 
 2487000   0.84901364   -6.4421204    855.31946  0.028659679  0.028658029            8 
 2488000   0.84807158   -6.4256184    857.60036  0.028724556  0.028649592            7 
 2489000   0.86609185   -6.4211865    856.43216  0.028673904  0.028641198            5 
 2490000   0.85090961   -6.4355978    859.31455  0.028758854  0.028632833            9 
 2491000   0.84705008    -6.435356    856.83703  0.028664426  0.028624378           10 
 2492000   0.84633515   -6.3901161    859.07531  0.028727773  0.028615958            5 
 2493000   0.85466646   -6.4168595    859.01621  0.028714273  0.028607627            6 
 2494000   0.83979668   -6.4163571    859.61395  0.028722733  0.028599298            6 
 2495000   0.84127911   -6.4175257     859.8066  0.028717655  0.028590893            8 
 2496000   0.85176265   -6.4364894    857.28645   0.02862201  0.028582451            9 
 2497000   0.84669457   -6.4337557    859.24561  0.028675931  0.028573993           13 
 2498000   0.84496294   -6.4272033    858.34983  0.028634569  0.028565591           17 
 2499000   0.84576299   -6.4332233     857.8303  0.028605785  0.028557223            5 
 2500000   0.85980726   -6.4616171    855.53882  0.028517961  0.028548771            5 
 2501000   0.83745165   -6.4395721    858.05033  0.028590242  0.028540305            4 
 2502000   0.85526431   -6.4663753    859.21559  0.028617626  0.028531899            8 
 2503000   0.86359169   -6.4228677    859.95162  0.028630697  0.028523448            4 
 2504000   0.84754006   -6.4535231    859.28462  0.028597065  0.028515042            7 
 2505000   0.84221589   -6.4384687    857.45195  0.028524682  0.028506606           11 
 2506000   0.84506422   -6.4204782    861.09557  0.028634463  0.028498235            5 
 2507000   0.85612228   -6.4146593    860.29161  0.028596317  0.028489877           15 
 2508000   0.85919752   -6.4384251    859.26872  0.028550928   0.02848153            5 
 2509000   0.85467554   -6.4444872    858.55308  0.028515779  0.028473157            6 
 2510000   0.83785481   -6.4571061    859.70502  0.028542663  0.028464748            9 
 2511000   0.85466443   -6.4411468    860.04398  0.028542545  0.028456381            4 
 2512000   0.86029515   -6.4357762     860.2806  0.028539033  0.028447986            6 
 2513000   0.83753051   -6.4228376    860.27576  0.028527515  0.028439625            5 
 2514000    0.8168947   -6.4398906    858.99013  0.028473552  0.028431251            6 
 2515000   0.84605561   -6.3992966    863.15707  0.028600301  0.028422894            6 
 2516000   0.84368757   -6.4574176    862.04908  0.028552235  0.028414539            6 
 2517000    0.8506495   -6.4515881    859.94985  0.028471389  0.028406172            5 
 2518000   0.85601568   -6.4331509    862.09882  0.028531203  0.028397717            3 
 2519000     0.848749   -6.4611228    859.24152  0.028425351  0.028389373            7 
 2520000   0.86358299   -6.4339876    862.27988  0.028514546  0.028380957            8 
 2521000   0.85022562   -6.4152773    859.72498  0.028418781  0.028372595            5 
 2522000   0.86308883   -6.4245098    863.99024  0.028548448  0.028364285            7 
 2523000    0.8409397   -6.4347773    860.85021  0.028433419  0.028355907            4 
 2524000   0.86368015   -6.4282073    861.77578  0.028452713  0.028347492            7 
 2525000   0.84739189   -6.4464109    860.70672  0.028406162  0.028339151            8 
 2526000   0.84548777   -6.4645887    860.33405  0.028382622  0.028330768            6 
 2527000   0.85420951   -6.4392178    862.58157  0.028445507  0.028322361           10 
 2528000   0.85087595   -6.4566384    861.61516  0.028402399  0.028313935            8 
 2529000    0.8579251   -6.4446686    861.37794  0.028383351  0.028305543            6 
 2530000   0.84185173   -6.4512965    860.98067  0.028359047  0.028297135           13 
 2531000   0.85370064   -6.4451148    862.21506  0.028388485  0.028288694           15 
 2532000   0.84393693   -6.4266745    863.85818  0.028431351  0.028280244            4 
 2533000    0.8483402   -6.4290015    862.33048  0.028369867  0.028271856            3 
 2534000    0.8331284   -6.4301535     863.8678  0.028409228  0.028263484            6 
 2535000   0.82954109   -6.4218108    862.43986   0.02835108  0.028255093            6 
 2536000   0.84275526   -6.4577685     862.9363  0.028356214  0.028246745           10 
 2537000   0.83610181   -6.4763826    862.22529  0.028321682  0.028238269            9 
 2538000   0.83586755   -6.4446526    864.58307  0.028387939  0.028229884            3 
 2539000   0.83757877   -6.4241878    864.16553  0.028363054  0.028221541            8 
 2540000   0.85194443   -6.4319364    864.19627  0.028352896  0.028213219            6 
 2541000   0.85326058   -6.4584097    863.90032  0.028332032  0.028204901           11 
 2542000   0.83300386   -6.4412454    863.74961  0.028315946  0.028196595            7 
 2543000   0.83781548   -6.4355657    863.78191  0.028305869  0.028188226           13 
 2544000   0.84517745   -6.4523741    862.29701  0.028246102  0.028179817           11 
 2545000   0.86095711   -6.4363837    864.25079  0.028298978  0.028171524            5 
 2546000   0.85900263   -6.4538816    865.78455  0.028338065   0.02816319            8 
 2547000   0.87254579   -6.4478869    863.57685  0.028254707   0.02815486            4 
 2548000   0.83085264   -6.4442591    863.50902  0.028241399  0.028146571            9 
 2549000   0.83755409    -6.456929    863.98822  0.028245986  0.028138211            5 
 2550000    0.8517952   -6.4525518    865.78942  0.028293772  0.028129879            6 
 2551000   0.86185149    -6.477265    861.99061  0.028158585  0.028121492            4 
 2552000   0.84931513   -6.4582507     862.1837  0.028153857  0.028113096            3 
 2553000   0.85420265   -6.4803103    863.04829   0.02817105   0.02810475           14 
 2554000   0.83579322   -6.4498142    864.92109  0.028221127  0.028096451           13 
 2555000   0.84019897   -6.4540981    866.03005  0.028246251  0.028088194            7 
 2556000   0.83115313   -6.4485133    865.30234  0.028211474  0.028079898           10 
 2557000   0.85289187   -6.4597069    867.38399  0.028268283  0.028071555            5 
 2558000   0.85986002   -6.4238187    868.39723  0.028290241  0.028063354           12 
 2559000   0.83189732   -6.4677568    862.35816  0.028082524   0.02805511            9 
 2560000   0.84608965   -6.4408386    866.52032  0.028207042  0.028046867            9 
 2561000   0.83995029   -6.4484747    866.66088  0.028200601  0.028038622            5 
 2562000   0.84985011   -6.4605068    864.86843  0.028131292  0.028030356            6 
 2563000   0.83839857   -6.4588901    866.09072  0.028160057  0.028022101            7 
 2564000   0.84235979   -6.4568277    868.35127  0.028222545  0.028013847            5 
 2565000   0.84933739   -6.4862809    866.54598  0.028152891  0.028005565            9 
 2566000   0.82578413   -6.4588274     866.3314  0.028134951  0.027997322            6 
 2567000   0.83461903    -6.436029    868.97525  0.028209818  0.027989118           11 
 2568000   0.84375305   -6.4584231    868.94712   0.02819792  0.027980969            8 
 2569000   0.85669485   -6.4282294    867.50972  0.028140318  0.027972841            5 
 2570000     0.842629   -6.4343012    870.37291  0.028222208   0.02796472            5 
 2571000   0.83779622   -6.4324627    868.34044  0.028145353  0.027956604            7 
 2572000   0.83319373   -6.4599355    868.03837  0.028124623  0.027948479            8 
 2573000   0.80904229   -6.4344899    869.19593  0.028151183  0.027940372            8 
 2574000   0.81373886   -6.4582376    868.44826   0.02811604  0.027932291           10 
 2575000   0.86897099   -6.4093181    870.44924  0.028169878  0.027924253            6 
 2576000   0.84034433    -6.489302    867.90589  0.028076666  0.027916195            6 
 2577000    0.8280222   -6.4727381    869.59099  0.028120262  0.027908014            9 
 2578000   0.83052622   -6.4708442    870.89718  0.028151577  0.027899971            7 
 2579000   0.83692759   -6.4391567     871.4679  0.028159102  0.027891917            7 
 2580000   0.83578332   -6.4757564    869.26923  0.028077171  0.027883846           11 
 2581000   0.85715888   -6.4602916    869.59971  0.028076963  0.027875801            7 
 2582000    0.8409259   -6.4525163    872.93806  0.028173834  0.027867762            9 
 2583000   0.85506998   -6.4314955    871.35118   0.02811173  0.027859732            8 
 2584000   0.84143379   -6.4442721    868.86785  0.028020764  0.027851696           10 
 2585000   0.82136472   -6.4726725    870.07625   0.02804888    0.0278436            7 
 2586000   0.82326608   -6.4440079    870.76423  0.028060203  0.027835502            6 
 2587000   0.82039155   -6.4616342    870.01761  0.028025306  0.027827418           15 
 2588000   0.81426732   -6.4840263    870.47462  0.028029193  0.027819263            7 
 2589000   0.83235277   -6.4443704    870.71839  0.028026213  0.027811035            9 
 2590000   0.83317522   -6.4940793    867.99706  0.027927833  0.027802835            3 
 2591000   0.83795199   -6.4561323    870.27252  0.027990239  0.027794608           11 
 2592000    0.8111182   -6.4958132    869.29303   0.02794795  0.027786391            5 
 2593000     0.831602   -6.4758329    870.32542   0.02797035  0.027778207            7 
 2594000    0.8345419   -6.4556739    868.67604  0.027906581   0.02777003            7 
 2595000   0.82736739   -6.4619843    869.33791  0.027917081  0.027761821            4 
 2596000   0.82727381   -6.5153089    866.91482  0.027828544   0.02775361            7 
 2597000   0.82513532   -6.5030056    869.67793  0.027906493  0.027745319            8 
 2598000   0.84201491   -6.4654233    869.06059  0.027875949  0.027737092            5 
 2599000   0.83685795   -6.5084657    868.92107   0.02786075  0.027728861           10 
 2600000   0.84282114   -6.4296692    874.10287  0.028016117  0.027720732            4 
 2601000   0.83078041   -6.4689372    870.56932  0.027892135  0.027712598            7 
 2602000   0.82533316    -6.459321     870.5216  0.027879887  0.027704499            9 
 2603000    0.8344489   -6.4916011    869.94763  0.027850801  0.027696338            6 
 2604000   0.83277981   -6.4549459    871.70737  0.027896421    0.0276882           12 
 2605000     0.859937   -6.4665776    872.51295  0.027911483  0.027680068            5 
 2606000     0.809219   -6.4739913    870.81732   0.02784655  0.027671937           10 
 2607000   0.84259888   -6.4836614    869.19771  0.027784098  0.027663794            9 
 2608000   0.83759703   -6.5020777     870.0932  0.027802058  0.027655601            4 
 2609000   0.85012794   -6.4689217    870.99156  0.027820096  0.027647435            5 
 2610000    0.8312321    -6.453208    872.05404   0.02784336  0.027639339           13 
 2611000   0.83485553   -6.4688788     872.9958  0.027862754  0.027631232            8 
 2612000   0.82571539     -6.47673     871.8134  0.027814363  0.027623183            4 
 2613000   0.83419582    -6.503786    872.54158  0.027826941  0.027615052            9 
 2614000   0.81603636   -6.4751552    872.39612  0.027811659  0.027606924            5 
 2615000   0.83741128   -6.4955813    870.04732  0.027726173  0.027598802            9 
 2616000   0.83698408   -6.4717449    875.07674  0.027875788  0.027590712            7 
 2617000   0.83180344   -6.4826578    871.96784  0.027766139  0.027582709           10 
 2618000   0.83246752   -6.4294876    874.25562  0.027828356  0.027574724            5 
 2619000   0.85332485   -6.4552622    874.23093  0.027816945  0.027566766            6 
 2620000   0.82401492   -6.4877205    873.33691  0.027777892  0.027558691            5 
 2621000   0.85226262   -6.4738112    871.27392  0.027701702  0.027550558            6 
 2622000   0.83832572   -6.4729698    875.30055  0.027819112  0.027542484            5 
 2623000   0.82763571   -6.4640869    873.25689  0.027743579  0.027534457            5 
 2624000   0.83084052   -6.4819474    874.38248  0.027768752  0.027526402           10 
 2625000   0.83231796   -6.4829454    874.03967  0.027747291  0.027518356            7 
 2626000   0.85213542   -6.4841987     875.3345  0.027777815  0.027510309            3 
 2627000   0.83153124   -6.4765804    875.41906  0.027769923  0.027502275            4 
 2628000   0.84205101   -6.4558007    873.81725  0.027708563  0.027494197           11 
 2629000   0.81387369   -6.4830998    872.49748   0.02765619  0.027486124            7 
 2630000   0.83127815   -6.4937482    872.65087  0.027650534  0.027478085            7 
 2631000   0.83195672   -6.5041561     872.6353  0.027639532  0.027469992            7 
 2632000   0.83652081    -6.519797    871.88136  0.027605159  0.027461847           18 
 2633000   0.83328233   -6.4681051    876.05298  0.027726705    0.0274538            9 
 2634000   0.81825291   -6.4506008    876.98679  0.027745722  0.027445766            6 
 2635000   0.81897191   -6.4828105     872.6841  0.027599118  0.027437715            6 
 2636000   0.84746282    -6.496392    873.78238  0.027623368  0.027429614            6 
 2637000   0.83308967   -6.5085106    872.43063  0.027570175   0.02742149           10 
 2638000    0.8165413   -6.4960453    873.95278  0.027607808  0.027413487           12 
 2639000   0.82375002   -6.4946625     873.4561  0.027581663  0.027405448            7 
 2640000   0.84271526   -6.4701539    877.11323  0.027686655  0.027397507           11 
 2641000   0.83289365    -6.471397    876.62021  0.027660615  0.027389576            7 
 2642000   0.82510491     -6.48898    877.81016  0.027687679  0.027381611           13 
 2643000   0.84077067   -6.4949037    875.16879  0.027593921  0.027373612            5 
 2644000   0.82279356   -6.4666876    879.05628   0.02770601  0.027365625           11 
 2645000   0.82187722   -6.4745651     876.5146  0.027615457  0.027357606            6 
 2646000   0.82930948   -6.4797151     875.9043  0.027585799  0.027349592            6 
 2647000   0.83901505   -6.4861577    875.65886  0.027567651  0.027341592            7 
 2648000    0.8222071   -6.4712912    875.43786  0.027550285  0.027333589           10 
 2649000   0.81868588   -6.4733918    878.06008  0.027622376  0.027325576            6 
 2650000   0.83045866   -6.4938084    878.30236  0.027619571  0.027317437           17 
 2651000   0.84938248   -6.4764113    879.46941  0.027645838  0.027309321           12 
 2652000   0.82186286   -6.5505984    871.76391  0.027393285  0.027301211           10 
 2653000    0.8305634   -6.5280076     873.4845  0.027437005  0.027293108            9 
 2654000   0.83515423   -6.4999845    876.79186  0.027530516  0.027285002           13 
 2655000   0.83621787   -6.4792948    876.49235  0.027510745  0.027276912            8 
 2656000   0.81808534   -6.4889656    877.68455  0.027537793   0.02726882            7 
 2657000   0.81906045   -6.4894015    878.25586  0.027545348  0.027260818            6 
 2658000   0.83510094   -6.5154203    876.14491  0.027468802  0.027252793            9 
 2659000   0.83460007   -6.5050949    877.10083   0.02748843  0.027244765            7 
 2660000   0.83248359   -6.5015196    877.35937  0.027486196   0.02723676            6 
 2661000   0.82194162   -6.4697445    877.46917  0.027479305  0.027228784           11 
 2662000   0.81270126   -6.4799152    879.95511  0.027546804   0.02722077            4 
 2663000   0.82610544   -6.4772343    875.85542  0.027408168   0.02721268            3 
 2664000   0.82642398   -6.4838588    875.77141  0.027395252  0.027204647            4 
 2665000   0.82073352   -6.5037378    874.50576  0.027345396  0.027196601           15 
 2666000   0.79636848   -6.5103514    877.68862  0.027434628  0.027188563            5 
 2667000    0.7941288   -6.5001378    877.27919  0.027411548  0.027180425            5 
 2668000   0.83731926   -6.4976322    877.76337  0.027416397   0.02717237            6 
 2669000   0.83065132    -6.474612    879.74842  0.027468103  0.027164372            9 
 2670000   0.81107523    -6.500049    877.56129  0.027389553   0.02715638           13 
 2671000   0.82720532   -6.4873171    876.21082  0.027337165  0.027148358            6 
 2672000   0.82464455   -6.4861247    878.30281  0.027392178  0.027140324           15 
 2673000   0.82969284   -6.4929438    877.10213  0.027344498  0.027132313            5 
 2674000    0.8224718   -6.5139819    878.05512  0.027363971  0.027124312            6 
 2675000   0.82309549   -6.5121004     875.3826  0.027270486  0.027116298            6 
 2676000   0.82434806   -6.5027583    880.65862  0.027424596  0.027108276            4 
 2677000   0.81566456   -6.5149373    878.66332  0.027352239  0.027100275            9 
 2678000   0.81839623   -6.5051296    876.65251  0.027279453  0.027092181            6 
 2679000   0.81650715   -6.5323984    876.98178  0.027279513   0.02708416            9 
 2680000   0.83199213   -6.4925381    879.57994  0.027350123  0.027076133           14 
 2681000   0.82305594   -6.4797693    880.66577  0.027373672  0.027068094            9 
 2682000   0.83594333   -6.5278288    877.82829  0.027275301  0.027060085            8 
 2683000   0.81476144   -6.5069033    877.86033   0.02726613  0.027052101            6 
 2684000   0.81938846   -6.4957581    877.73019  0.027251931  0.027044146            4 
 2685000   0.82461908   -6.4963341    880.80263  0.027337139  0.027036197            5 
 2686000   0.82863159   -6.5258876    879.13468  0.027275213  0.027028228           12 
 2687000   0.82950381   -6.4907726    880.69882  0.027313572  0.027020286            7 
 2688000   0.83755665    -6.508251    879.01168  0.027251106  0.027012356            9 
 2689000   0.83565807    -6.490612    880.00453  0.027271741   0.02700444            6 
 2690000    0.8321889   -6.5050262    881.05653  0.027294192  0.026996576            7 
 2691000   0.82651021   -6.4863034    883.33264  0.027354535  0.026988681           11 
 2692000   0.82050464   -6.5353978    880.97575  0.027271414   0.02698079            7 
 2693000   0.80499097   -6.5222214    879.99189  0.027230842  0.026972896            6 
 2694000   0.83080219   -6.5010401    882.18636  0.027288616  0.026965009            8 
 2695000   0.80710833   -6.4985133     879.6699  0.027200677  0.026957098            9 
 2696000   0.80800176   -6.5579153    879.57085  0.027187526  0.026949131            8 
 2697000   0.81594982   -6.5159066    881.36846  0.027232989  0.026941197           12 
 2698000    0.8280018   -6.5061201    880.79465  0.027205172  0.026933255            2 
 2699000   0.83405207   -6.5169928    883.25129  0.027270943  0.026925397           25 
 2700000   0.84246615   -6.5013756    882.74912  0.027245343  0.026917539            9 
 2701000   0.81728396   -6.4967624    882.05367    0.0272138   0.02690963            6 
 2702000   0.82493927   -6.5419809    880.12564  0.027144265  0.026901697            7 
 2703000   0.81321099   -6.5110722     881.7623   0.02718468  0.026893774            5 
 2704000   0.82339899   -6.5126444    881.70123  0.027172745  0.026885922           10 
 2705000   0.82515609   -6.5365842     882.3357  0.027182246  0.026878037            9 
 2706000   0.80169942   -6.5174188    885.18719  0.027260015  0.026870225            6 
 2707000   0.81495018   -6.5183038    882.06831  0.027153931  0.026862349            6 
 2708000   0.81268353   -6.5410262    883.54985  0.027189496  0.026854525            9 
 2709000   0.80913305   -6.4926035    885.34869  0.027234794  0.026846678            5 
 2710000   0.82579237   -6.5000755    884.96059   0.02721281  0.026838909            6 
 2711000    0.8037077   -6.5163735    883.00287  0.027142594  0.026831077            9 
 2712000   0.83272547    -6.509513    883.64709  0.027152381  0.026823269            6 
 2713000   0.80886223   -6.4947431    886.13651  0.027218839  0.026815416            8 
 2714000   0.80435524   -6.5339724    883.47798   0.02712718  0.026807558           13 
 2715000   0.81306781   -6.5158912    883.76357  0.027125954   0.02679967            8 
 2716000   0.81031794   -6.5374042    881.51847  0.027047081  0.026791799            8 
 2717000   0.81249211   -6.5383302    882.65434  0.027071965  0.026783853            9 
 2718000   0.82994907    -6.533351    881.07631  0.027013622  0.026775947           10 
 2719000   0.81794497   -6.5227321     882.5549  0.027049004  0.026767981            7 
 2720000   0.82321465    -6.522204    883.49129  0.027067748   0.02676011            7 
 2721000   0.80924793   -6.5277985    882.18222  0.027017709  0.026752255            8 
 2722000   0.82894891   -6.4957412    884.42001  0.027076292  0.026744416            6 
 2723000   0.82189473   -6.4908865    885.55293   0.02710102  0.026736655            5 
 2724000   0.81137537   -6.5211726    885.79004  0.027098325  0.026728874           11 
 2725000   0.82684003   -6.5392565    883.43076  0.027016231  0.026721088            4 
 2726000   0.82188833   -6.5361516     883.7414  0.027015817  0.026713222            8 
 2727000   0.82011398   -6.5376154    887.38146  0.027117145  0.026705407           12 
 2728000   0.81875925   -6.5178127    884.96911  0.027033514  0.026697592           11 
 2729000   0.84170094   -6.5143682    886.73465  0.027077521  0.026689847            8 
 2730000    0.8206653   -6.5072734    884.13123  0.026988133  0.026682075            5 
 2731000   0.82191013   -6.5180141    885.17292  0.027010037  0.026674316            7 
 2732000   0.82562125    -6.523701    887.91512  0.027083794  0.026666536           11 
 2733000   0.81923809    -6.543248    884.40846  0.026966961   0.02665878           11 
 2734000   0.80169756    -6.517661    883.79471   0.02693839  0.026650946           10 
 2735000    0.8160508   -6.5287185    882.79932  0.026898212  0.026643156           11 
 2736000   0.80561114   -6.4997376    887.36349  0.027027397  0.026635388           13 
 2737000   0.83440254   -6.5409633    886.61449  0.026994717  0.026627598            4 
 2738000   0.80242615   -6.5373239    886.75856  0.026989243  0.026619775            9 
 2739000   0.82315134   -6.5507465    884.67078  0.026915869     0.026612           14 
 2740000   0.81911097   -6.5300629     883.6069  0.026873689  0.026604157           13 
 2741000   0.81833841   -6.5154536    886.36082  0.026947611  0.026596296            6 
 2742000   0.80090843    -6.519429    886.52162   0.02694267  0.026588502           11 
 2743000   0.80745687   -6.5307527    886.65169    0.0269368  0.026580729            9 
 2744000   0.81255101   -6.5548872    885.66317  0.026896962  0.026572954           12 
 2745000   0.81351477   -6.5242945     885.7932  0.026891111   0.02656519            9 
 2746000   0.81375893   -6.5633299    886.65012  0.026907324  0.026557441           14 
 2747000   0.80788802   -6.5490679    889.34345  0.026979233  0.026549711            9 
 2748000   0.80478847   -6.5583187    887.95752  0.026927387   0.02654198            8 
 2749000   0.82003565   -6.5402856    886.21409  0.026864741   0.02653422           10 
 2750000   0.81751282   -6.4940162    889.30199  0.026948545  0.026526621            7 
 2751000   0.81299145   -6.5087437    891.12926  0.026994101  0.026519035            4 
 2752000   0.80899916    -6.523444    888.70405  0.026910854  0.026511428           13 
 2753000   0.82546359   -6.5560551    888.02876  0.026880638  0.026503784            6 
 2754000   0.79644086   -6.5450992    888.84357  0.026895533  0.026496123            8 
 2755000   0.80061449   -6.5348449    888.27656  0.026868619  0.026488452            8 
 2756000   0.81455905   -6.5634793    888.81951  0.026875288  0.026480782            6 
 2757000   0.80658651   -6.5113211    893.27289  0.027000148  0.026473158           14 
 2758000   0.79337815   -6.5667671    890.44785  0.026904999  0.026465661           11 
 2759000   0.80838419   -6.5275547    890.06422   0.02688366  0.026458101            6 
 2760000   0.80773857   -6.5164508    891.84208  0.026927599  0.026450569           21 
 2761000   0.80125524   -6.5327179     890.1021   0.02686533  0.026443021            6 
 2762000    0.8023548   -6.5518075    891.09597  0.026885589  0.026435423           11 
 2763000   0.81946229   -6.5731032    887.91739  0.026779991  0.026427747           10 
 2764000   0.80851881   -6.5641449    888.07018  0.026774909  0.026420056            6 
 2765000   0.81734207   -6.5648196    889.27784  0.026801623  0.026412391            5 
 2766000   0.80408444   -6.5723334    888.82571  0.026778311  0.026404747            7 
 2767000   0.79803375   -6.5349346    892.56256  0.026881176  0.026397141            5 
 2768000   0.81134243   -6.5630561      889.609  0.026782544  0.026389538            7 
 2769000    0.8135463    -6.562217    886.84316  0.026689634  0.026381868            7 
 2770000   0.81677301   -6.5544747    889.86595  0.026770937  0.026374238           11 
 2771000   0.80081633   -6.5470813      889.589  0.026752947  0.026366592            8 
 2772000   0.82323646   -6.5548411    891.96578  0.026814748  0.026358986            6 
 2773000   0.81189393   -6.5182099    893.70581  0.026857369  0.026351363            7 
 2774000   0.80869676   -6.5514529    890.91506  0.026763851    0.0263438            6 
 2775000   0.81034651   -6.5403223    890.18432  0.026732262  0.026336179            5 
 2776000   0.82316263   -6.5279417    891.19092  0.026752849  0.026328545           12 
 2777000   0.81584767   -6.5429142    889.48611  0.026692057   0.02632094           14 
 2778000   0.82462644   -6.5139678    891.67851  0.026748215  0.026313319            8 
 2779000   0.81065942   -6.5352258    891.94277  0.026746515  0.026305741            9 
 2780000   0.80242595    -6.574441    890.06968  0.026680746  0.026298207           11 
 2781000   0.81247784   -6.5502912    893.18316  0.026764448  0.026290612            8 
 2782000   0.81521171   -6.5400536    891.99694  0.026719295  0.026283021           11 
 2783000   0.79234359   -6.5349338    891.07343  0.026682041  0.026275458           12 
 2784000   0.82070136   -6.5420287    889.92139  0.026637973  0.026267888           22 
 2785000   0.80259839   -6.5245621    891.53498   0.02667669  0.026260294           17 
 2786000    0.8081564   -6.5740667    892.19164  0.026686756  0.026252698           13 
 2787000    0.7933963   -6.5460438    892.23452  0.026678463  0.026245138            8 
 2788000   0.80864354    -6.581047    892.40193  0.026673898  0.026237532            7 
 2789000   0.82241488   -6.5978859    890.51136  0.026607845  0.026229923           24 
 2790000   0.79733335   -6.5869163    892.76826  0.026665719  0.026222324           22 
 2791000   0.82016819   -6.5747379    892.29009  0.026641887  0.026214731            8 
 2792000   0.80947044   -6.5577508    892.84908  0.026649029   0.02620718            6 
 2793000   0.79367565   -6.5691282    891.57245  0.026601398  0.026199638           12 
 2794000   0.79461766   -6.5604986    894.76189  0.026687004  0.026192118            4 
 2795000   0.79888252   -6.5405243    892.32206  0.026604713  0.026184665            7 
 2796000    0.8041483   -6.5582469    895.82361  0.026699559  0.026177221            6 
 2797000   0.80277657   -6.5663244    894.42322  0.026648291  0.026169711            7 
 2798000   0.80386769   -6.5688546    897.04871  0.026716962  0.026162284            9 
 2799000   0.80643811   -6.5586404     894.9781  0.026645769    0.0261549            5 
 2800000   0.81370601   -6.5818387    893.90414   0.02660429  0.026147459            4 
 2801000   0.80821006   -6.5301304    896.27638  0.026665369  0.026140024            6 
 2802000   0.83097965   -6.5337808    900.22323  0.026773234  0.026132703           14 
 2803000   0.78505121   -6.5719165    895.90279  0.026635236  0.026125337            5 
 2804000   0.81265566   -6.5545323    896.98242  0.026657823   0.02611796           10 
 2805000   0.79712863   -6.5401897    896.59823  0.026636905  0.026110623           11 
 2806000   0.80300417   -6.5357567    897.90366  0.026666181  0.026103265            6 
 2807000   0.81349303   -6.5552009     897.9966  0.026659441   0.02609593           15 
 2808000   0.78872412   -6.5536662     897.5786  0.026637542  0.026088586            6 
 2809000   0.80973171   -6.5681692     896.7991  0.026604933  0.026081233            8 
 2810000   0.80103365   -6.5706255    896.63282  0.026590534  0.026073883            5 
 2811000   0.80381955   -6.5540599    898.16144  0.026626392  0.026066537            7 
 2812000    0.7766911   -6.5579218    896.56554  0.026569628  0.026059156            7 
 2813000    0.8124047   -6.5964976    896.22331  0.026550045  0.026051817            6 
 2814000   0.82135343   -6.5407518    899.69978  0.026643561  0.026044459            6 
 2815000   0.82297949   -6.5683561    898.81268  0.026607836  0.026037069            6 
 2816000   0.77150493   -6.5548465    897.19657  0.026550561  0.026029617            8 
 2817000   0.79256561   -6.5460038    899.42613  0.026607092  0.026022265            5 
 2818000   0.81480761    -6.568198    897.46588  0.026539682  0.026014918            9 
 2819000   0.79903509   -6.5532888    897.64742  0.026535634  0.026007583            9 
 2820000    0.7999211   -6.5503613    896.82214  0.026501836  0.026000181            9 
 2821000   0.80946634   -6.5267835    897.40949  0.026509792  0.025992773            9 
 2822000   0.80826563   -6.5705436    896.41082  0.026470908  0.025985384            8 
 2823000   0.78527427   -6.5309283    900.34536  0.026577676  0.025978061           11 
 2824000   0.81688354   -6.6020394    895.00726  0.026410743  0.025970595            4 
 2825000   0.80651356   -6.5631877     898.4787  0.026503797  0.025963174            7 
 2826000   0.80736205   -6.5593879    897.52083  0.026466172  0.025955781            9 
 2827000    0.8126181   -6.5862476    898.17475  0.026476086   0.02594831            9 
 2828000   0.80151067   -6.5775204    899.14663  0.026495363  0.025940862            4 
 2829000   0.79541445   -6.6219517    895.21852  0.026370287  0.025933408           11 
 2830000   0.80706286   -6.5749669    897.03577  0.026414481  0.025925901            7 
 2831000   0.81142561   -6.5883782    895.84175  0.026370003  0.025918452            9 
 2832000   0.81303161   -6.5991018    896.11368  0.026368693  0.025911024            8 
 2833000   0.80342997    -6.567323    895.56485  0.026343242   0.02590357            8 
 2834000   0.79569726   -6.5763187    896.55172  0.026362965  0.025896061           16 
 2835000    0.7965592   -6.5894547    895.25374  0.026315512  0.025888566            7 
 2836000   0.79552873   -6.5661085    895.17741  0.026303991  0.025881097           10 
 2837000   0.80987904   -6.5653109    897.80966  0.026372038  0.025873624            8 
 2838000   0.80264618   -6.5839516    897.33643   0.02634885  0.025866154            8 
 2839000    0.7934796   -6.5813512    897.70581  0.026350411  0.025858708           11 
 2840000   0.80469822   -6.5513396    897.79201  0.026343662   0.02585127           13 
 2841000   0.80423325   -6.5996663     895.5303  0.026268048  0.025843836            7 
 2842000   0.80449304   -6.5869373     899.3739  0.026371508  0.025836405            5 
 2843000   0.81607649   -6.5742848    897.68147  0.026312624  0.025828985            9 
 2844000   0.81440597   -6.5687221    900.52131  0.026386583  0.025821592            9 
 2845000   0.79370369   -6.5712313    897.93593   0.02630158  0.025814194           12 
 2846000   0.80512814   -6.5739508    897.41602  0.026277115  0.025806767            6 
 2847000   0.79536459   -6.5493009    899.87602   0.02633989  0.025799376           12 
 2848000   0.79819148   -6.5492131    899.96152  0.026333144  0.025791972            5 
 2849000   0.79615187   -6.5726625    898.06621  0.026268463  0.025784555            9 
 2850000   0.78679673    -6.557428    900.24804  0.026323042  0.025777199            7 
 2851000   0.79937258   -6.5765293    898.28911  0.026256551   0.02576981            8 
 2852000   0.78023783   -6.5960199    897.80291  0.026233138  0.025762414            9 
 2853000   0.78779726   -6.5783354    898.36846  0.026240462  0.025755047            7 
 2854000    0.8069835   -6.5545513    897.95489  0.026219192  0.025747641            8 
 2855000   0.79673519   -6.5892511    896.69223  0.026173153    0.0257402            5 
 2856000   0.81308953   -6.5676768    899.61584  0.026249295   0.02573283            9 
 2857000   0.79230288   -6.5640123    899.47946  0.026236129  0.025725437            7 
 2858000   0.77609456   -6.5625841    899.77898  0.026235683  0.025718031            5 
 2859000   0.79047236   -6.5974312    898.73892  0.026196191  0.025710608            7 
 2860000   0.77354738   -6.5802004    901.00803  0.026253148  0.025703203            4 
 2861000   0.80046465   -6.5662777    899.05508  0.026187087  0.025695753            6 
 2862000   0.79183337   -6.5901132    899.01007  0.026176627  0.025688328            7 
 2863000   0.79677428    -6.600401    900.49737  0.026210774  0.025680851            5 
 2864000   0.79574896   -6.5763046    900.77793  0.026209786  0.025673432            7 
 2865000    0.7873504   -6.5973058    897.72199  0.026111751  0.025665959            9 
 2866000   0.79940908   -6.5928865    899.51884  0.026154886  0.025658493            5 
 2867000   0.80328413    -6.597582    896.68333  0.026063345  0.025651031           10 
 2868000   0.78188739   -6.6024193     897.8463  0.026088049  0.025643637            7 
 2869000   0.78577868   -6.6037752    898.50361  0.026098048  0.025636177            8 
 2870000   0.79775715     -6.58535    899.62652   0.02612156  0.025628838           12 
 2871000   0.77661748   -6.5570431    903.50866  0.026225144   0.02562151            6 
 2872000   0.79786381   -6.5500549    903.48905  0.026215444  0.025614213            7 
 2873000   0.80772617   -6.5894134     900.9362  0.026132272  0.025606877            5 
 2874000    0.7885453   -6.6003603    898.91297  0.026064514  0.025599527            9 
 2875000   0.78252778   -6.6266195     901.2316  0.026122655  0.025592172            4 
 2876000   0.78854547   -6.5871093    899.45242   0.02606202  0.025584723            9 
 2877000   0.80281493    -6.591712    898.46987  0.026024501  0.025577307            8 
 2878000   0.80095336   -6.5577839    900.02942  0.026060616  0.025569859            5 
 2879000   0.77782435   -6.6217358     895.7653  0.025928138  0.025562387           12 
 2880000   0.78558786   -6.6063766    898.08293  0.025986196  0.025554951           10 
 2881000   0.79427699   -6.5907295    901.42863  0.026073951  0.025547567           16 
 2882000   0.78892966   -6.5939312    901.67157  0.026071928  0.025540172            9 
 2883000   0.76254825   -6.6059111    901.22005  0.026049834  0.025532801           12 
 2884000   0.79125484   -6.6154325    899.82724  0.026000556   0.02552547            7 
 2885000    0.7861299   -6.6006075    901.43832   0.02603808   0.02551813            4 
 2886000   0.79495279   -6.5947775    899.14002  0.025962694  0.025510763            7 
 2887000   0.78790335   -6.5994242    900.13291  0.025982361  0.025503361           10 
 2888000    0.7884471   -6.5946503    900.04228  0.025970749  0.025496018           17 
 2889000   0.78427033   -6.6040668    899.23729   0.02593854  0.025488657            9 
 2890000    0.7759495   -6.6480885    898.03012  0.025894755  0.025481169           10 
 2891000   0.79028535   -6.5899224    902.19043   0.02600572  0.025473736           14 
 2892000   0.77204035   -6.5753175    901.12201  0.025965941  0.025466368           10 
 2893000   0.78415808   -6.6122188    902.64704  0.026000894  0.025458947           18 
 2894000   0.79592491    -6.610435    899.18789  0.025892303  0.025451574           11 
 2895000   0.76916176   -6.5913244    901.62395  0.025953481  0.025444213            8 
 2896000   0.76904966   -6.5861724    902.52932  0.025970572  0.025436858           15 
 2897000   0.78520841   -6.5982789    902.38688   0.02595751  0.025429566           10 
 2898000   0.78474223   -6.5645123    903.42208  0.025978321  0.025422265           10 
 2899000   0.79837924   -6.5847415    902.29727  0.025937026  0.025414907           19 
 2900000    0.7914334   -6.6295834    900.56843  0.025878403  0.025407526           16 
 2901000   0.78564701    -6.589805    903.14938  0.025943622  0.025400151            6 
 2902000    0.7910371   -6.6126084    900.15577  0.025848718  0.025392792           16 
 2903000   0.79461756   -6.6179135    903.43998  0.025934091  0.025385388            8 
 2904000   0.76959202   -6.6041559    901.02877  0.025855968  0.025377984            4 
 2905000   0.79659718   -6.5853835    903.32758  0.025913011  0.025370657            6 
 2906000   0.78584425   -6.6194058    901.52501  0.025852403  0.025363345           13 
 2907000   0.78806555   -6.5986945    904.35423  0.025924614  0.025356003            5 
 2908000   0.81222367   -6.5841025    902.58431  0.025864979  0.025348646           12 
 2909000   0.80113888   -6.5911787    902.10425  0.025842336  0.025341285            6 
 2910000   0.80489319   -6.6246836    901.32941  0.025811266  0.025333927            8 
 2911000   0.79656689   -6.6123852    904.17837  0.025883957  0.025326522           12 
 2912000   0.78546288   -6.5993998    903.02182   0.02584197  0.025319198           12 
 2913000   0.78350098   -6.6168275    900.46001  0.025759813  0.025311817            9 
 2914000   0.79317703   -6.6032091    902.91898  0.025821293  0.025304431            9 
 2915000   0.77069432   -6.6027586    903.64111  0.025833079  0.025297139           10 
 2916000    0.7751132   -6.6205071    902.60407  0.025794584   0.02528983           18 
 2917000   0.78074886   -6.6061613    903.71897  0.025817591  0.025282493            7 
 2918000    0.7842591   -6.5980503    901.86773  0.025755875   0.02527511           15 
 2919000   0.79124767   -6.6036769    900.27343  0.025701537  0.025267757            9 
 2920000   0.79606497   -6.5973386    904.45295  0.025812013  0.025260439           15 
 2921000   0.77766994   -6.6520227    904.36076  0.025800547  0.025253144            5 
 2922000   0.79018237   -6.5993736    904.18693  0.025786759  0.025245836           11 
 2923000   0.78346956   -6.6241666    902.31917  0.025724688  0.025238496           11 
 2924000   0.77942165   -6.6158201    903.36287  0.025745636  0.025231147            9 
 2925000   0.77177237   -6.6286715    900.69575  0.025660847  0.025223754           12 
 2926000   0.79408778   -6.6287678    902.07455  0.025691346  0.025216352           11 
 2927000   0.78357364   -6.5920799    903.72139  0.025729455  0.025208995           12 
 2928000   0.78601866    -6.620594    901.63263   0.02566122  0.025201611           13 
 2929000   0.79385752   -6.6302924    901.04503  0.025635741  0.025194205           10 
 2930000   0.78262416   -6.6267912    903.80341  0.025705444  0.025186856            9 
 2931000   0.79616192    -6.616641    901.46922  0.025630309  0.025179451           12 
 2932000   0.77426271    -6.602737    904.46356  0.025706672  0.025172101            7 
 2933000   0.78436385   -6.6166424    904.06812  0.025686672  0.025164742           12 
 2934000   0.78407848   -6.6163356    906.92873  0.025759166  0.025157378           15 
 2935000   0.76991291   -6.6611775    902.41828  0.025622325  0.025149991            6 
 2936000   0.78475305   -6.6144332    904.02432  0.025659182  0.025142569           14 
 2937000   0.78748896   -6.6153954    904.31723  0.025658757  0.025135246            6 
 2938000   0.78494166   -6.6264786    906.92887    0.0257241  0.025127932            4 
 2939000   0.77017659   -6.6169209    906.28721  0.025697154    0.0251206            7 
 2940000   0.79800676   -6.5954633    904.67166  0.025642621  0.025113285           10 
 2941000   0.80320026   -6.6234456    905.71961  0.025663595  0.025106035            9 
 2942000   0.78189381   -6.6276084    903.79887  0.025600466   0.02509874            6 
 2943000   0.78347908   -6.6313472    907.10282  0.025685322  0.025091487            9 
 2944000   0.78739233    -6.621876    906.75892  0.025666862  0.025084191            8 
 2945000   0.77116859   -6.6279319    903.22002  0.025558008  0.025076872           10 
 2946000   0.78199093   -6.6423669    904.69113  0.025590946    0.0250696            6 
 2947000   0.78803812   -6.6310287    905.99228  0.025619056  0.025062316            7 
 2948000   0.78346069   -6.6327706    904.11336  0.025557252  0.025055008            9 
 2949000   0.78103173   -6.6337397    904.44315  0.025557905  0.025047712            7 
 2950000   0.77337683   -6.5913276    908.14123  0.025653707  0.025040478            8 
 2951000   0.76203962   -6.6115935    905.54196  0.025571613  0.025033227            5 
 2952000   0.77252664   -6.6072095    905.42914  0.025559766  0.025025956           12 
 2953000   0.77566792   -6.6167418    904.44889  0.025523448  0.025018726            6 
 2954000    0.7792824   -6.6177243    906.37997  0.025569284  0.025011435            4 
 2955000   0.79094573   -6.6556273    903.35894  0.025475436  0.025004136           12 
 2956000   0.76187529   -6.6270018    905.62686  0.025530753  0.024996828            7 
 2957000   0.78464141   -6.6463994    904.39473  0.025487395  0.024989519            8 
 2958000   0.77489536    -6.654304    904.77344  0.025489448  0.024982201           10 
 2959000   0.77168062   -6.6511564     904.6119  0.025476284  0.024974872           16 
 2960000   0.77583623   -6.6350142    908.40232   0.02557439  0.024967569            9 
 2961000   0.76385135   -6.6009416    906.20448  0.025503897  0.024960286            5 
 2962000   0.76254431   -6.6133782    909.43945    0.0255863  0.024953026            7 
 2963000   0.77983586   -6.6215289    905.99853   0.02548089  0.024945797            8 
 2964000   0.77068551   -6.5909628    907.92135  0.025526354  0.024938543           10 
 2965000     0.770907   -6.5676819    908.67316  0.025538875  0.024931307            9 
 2966000   0.76216529   -6.5879016    906.70155  0.025474869  0.024924062            7 
 2967000   0.78621274    -6.627791    909.30551   0.02553942  0.024916763            7 
 2968000    0.7745525   -6.6543908     903.9607  0.025380747  0.024909493           11 
 2969000   0.76833111   -6.6505359     906.8424  0.025453082  0.024902171           18 
 2970000   0.76451407   -6.5880877     908.6577  0.025495446  0.024894882            6 
 2971000   0.76556903   -6.6388147    906.16292  0.025416889  0.024887596           13 
 2972000   0.77941009   -6.6102296    904.62499  0.025365214  0.024880299            9 
 2973000   0.78335304   -6.6214199    906.35713  0.025405234  0.024873058           12 
 2974000   0.77663633   -6.6432202    905.31621  0.025367524  0.024865794            8 
 2975000   0.77270358   -6.6232454    906.67584  0.025397082  0.024858498            4 
 2976000   0.79267078   -6.6725265    906.13627  0.025373439  0.024851221           24 
 2977000   0.76878936   -6.5886912     909.0421  0.025446258  0.024843952           11 
 2978000   0.74217534   -6.6776037    906.51647  0.025367038  0.024836675           20 
 2979000   0.76825012   -6.6383356    908.14998  0.025404218  0.024829372           20 
 2980000   0.77073681   -6.6009349    907.13819  0.025367399  0.024822092            4 
 2981000   0.78362798   -6.6333724    908.09131  0.025385534  0.024814847            5 
 2982000   0.77302992   -6.6446706    906.45537  0.025331304  0.024807526            6 
 2983000   0.77138306   -6.6140069    907.51491  0.025352411  0.024800235            6 
 2984000    0.7955969   -6.6241927    908.70433  0.025377132  0.024792993            8 
 2985000   0.76995377   -6.6704155     905.8277  0.025288322  0.024785724            5 
 2986000   0.77491318   -6.6455307    908.47659  0.025353779  0.024778386           14 
 2987000   0.77087387   -6.6451562    907.01663  0.025304559  0.024771094            7 
 2988000   0.76405893   -6.6310485    908.44516  0.025335932  0.024763792            8 
 2989000    0.7805057   -6.6280447    908.06393  0.025316826  0.024756527           10 
 2990000   0.76836412   -6.6589444    907.47884  0.025292052  0.024749222            6 
 2991000   0.78363405   -6.6391087    909.23476  0.025332519  0.024741965            7 
 2992000   0.78124938    -6.645665    909.76647  0.025338861   0.02473472           10 
 2993000    0.7792527    -6.634038    910.39261  0.025347828  0.024727468           15 
 2994000   0.78872186   -6.6293869    906.87799  0.025241538  0.024720245            7 
 2995000   0.78142958   -6.6517906    908.06444  0.025266122  0.024713009            9 
 2996000   0.78653374   -6.6352289    909.98341  0.025311065  0.024705776            8 
 2997000   0.77878355   -6.6319568    908.71409  0.025267325  0.024698538            7 
 2998000    0.7870161   -6.6364478     907.9192  0.025236802   0.02469125            7 
 2999000   0.77226468   -6.6201609    909.71168  0.025278195   0.02468402            6 
 3000000   0.77579031   -6.6243954    909.95739  0.025276594   0.02467678           10 
 3001000   0.78048551   -6.6378972    909.47225    0.0252547  0.024669547            7 
 3002000   0.78884144    -6.633591    908.47012  0.025218469  0.024662322            5 
 3003000   0.77688583   -6.6242618    909.50496  0.025238788  0.024655135            7 
 3004000   0.76301462   -6.6233768    910.79324  0.025266124   0.02464799           13 
 3005000   0.75097737    -6.625246    911.27516   0.02527108  0.024640872            9 
 3006000    0.7877896   -6.6235922    911.28966  0.025263076  0.024633735           10 
 3007000   0.78835201   -6.6461326    911.61275  0.025263628  0.024626585           11 
 3008000   0.77376447   -6.6650311    908.38286  0.025165749  0.024619366           16 
 3009000   0.76093214   -6.6488883    909.52973  0.025189147  0.024612105           10 
 3010000   0.77972934   -6.6651428    909.66066  0.025184404  0.024604877           10 
 3011000   0.77616257   -6.6539638    909.85898  0.025181528  0.024597651           10 
 3012000   0.76316959   -6.6505888     909.6848  0.025168349  0.024590461           11 
 3013000   0.74665929   -6.6291542    908.71492  0.025133171  0.024583295           15 
 3014000   0.77602753   -6.6470166    912.70169  0.025235061  0.024576107           12 
 3015000   0.75808269   -6.6356127    911.68038  0.025198463  0.024568919           23 
 3016000   0.76698788   -6.6525494    910.83329  0.025166702  0.024561749           27 
 3017000   0.75773129   -6.6479766     908.5306  0.025094758  0.024554584           12 
 3018000   0.76457441   -6.6363412    910.55822  0.025142429  0.024547439           13 
 3019000   0.78042742   -6.6776727     908.4077   0.02507474  0.024540273           22 
 3020000   0.78480396    -6.662014    910.13582  0.025114123  0.024533082            8 
 3021000    0.7593809   -6.6406577    912.22161  0.025163346  0.024525885            9 
 3022000   0.77270955   -6.6548351    910.88667  0.025118207  0.024518746           11 
 3023000   0.76498827   -6.6765232     908.9035  0.025055229  0.024511577            8 
 3024000   0.76874774    -6.656568    909.31643  0.025058323  0.024504387           16 
 3025000   0.76849798     -6.64483    911.45271   0.02510889  0.024497278            9 
 3026000   0.78350676   -6.6425628    912.91839  0.025140956  0.024490188            9 
 3027000   0.77136409   -6.6478258    911.80843  0.025102093  0.024483098            6 
 3028000   0.77210674   -6.6579934    911.67572  0.025090151  0.024475992            5 
 3029000   0.79192193   -6.6530731    910.86568  0.025059582  0.024468917            7 
 3030000   0.77452306   -6.6647334    912.44666  0.025094793  0.024461831           10 
 3031000    0.7532627    -6.664491    911.59968  0.025063227  0.024454703           19 
 3032000   0.76667256   -6.6641773    912.81607  0.025088392  0.024447571           12 
 3033000   0.76788877   -6.6756324    912.85984  0.025081323  0.024440451            6 
 3034000   0.77080502   -6.6453147    913.16243  0.025081368   0.02443334           17 
 3035000   0.76575248   -6.6888255    911.75297  0.025034403  0.024426249           13 
 3036000   0.76462834   -6.6644177    910.99723  0.025005414  0.024419157            9 
 3037000   0.77164177   -6.6754931    912.46358  0.025037416  0.024412021           18 
 3038000   0.77666013     -6.68488    912.43613  0.025028421  0.024404883           14 
 3039000   0.75307173   -6.6668428    914.68475  0.025081846  0.024397756           10 
 3040000   0.75778776   -6.6936616    912.26389  0.025007234   0.02439067           11 
 3041000   0.75839202   -6.6781173    911.91695  0.024989503  0.024383523           12 
 3042000   0.75107261   -6.6677279    911.14884  0.024960247  0.024376403           17 
 3043000   0.76565339   -6.6683101    914.31804  0.025038833  0.024369303           10 
 3044000   0.75694964   -6.6761611    914.90003   0.02504654  0.024362197           11 
 3045000   0.75645426   -6.7000322    913.27993  0.024993977  0.024355127           12 
 3046000   0.76223243   -6.6558418    911.82036   0.02494584  0.024348055           11 
 3047000   0.75260936   -6.6725985    912.89827  0.024967134  0.024340992            8 
 3048000   0.75500972    -6.656875    913.45133  0.024974063  0.024333942           19 
 3049000   0.76011177   -6.6741508    912.08121  0.024928425  0.024326872            9 
 3050000   0.76758473   -6.6492661    911.91233  0.024915637  0.024319784           10 
 3051000    0.7615789   -6.6866032    913.13077  0.024940751  0.024312714           10 
 3052000   0.75743244   -6.6554188     915.5387  0.024998326  0.024305665            8 
 3053000   0.73709594   -6.6831081    914.44017  0.024960153  0.024298607           13 
 3054000   0.75788801   -6.6678216    912.49348  0.024898862  0.024291535           19 
 3055000   0.75309747   -6.6643799    915.57151  0.024974673  0.024284479           12 
 3056000   0.76591024    -6.706491    911.81338  0.024864021   0.02427744            7 
 3057000   0.74361449     -6.68466    914.67592   0.02493392  0.024270344            9 
 3058000    0.7672299    -6.710291    910.64249  0.024815851  0.024263221            8 
 3059000   0.75782855   -6.6709509    913.47578  0.024884924  0.024256111           12 
 3060000    0.7808268    -6.667814    912.42665   0.02484822  0.024249036            5 
 3061000   0.75130284   -6.6566284     914.2901  0.024890834  0.024241985            8 
 3062000   0.77325301   -6.6771251    912.41562   0.02483169  0.024234939            9 
 3063000   0.77262519   -6.6747498    911.51935  0.024799199  0.024227886            8 
 3064000   0.78622116    -6.669715    911.68116  0.024795506  0.024220805           27 
 3065000   0.79069127   -6.6946868    910.70701   0.02476093  0.024213748           15 
 3066000   0.75873665   -6.6962248    913.34638  0.024824592  0.024206685            9 
 3067000    0.7553499   -6.6713672     914.2556  0.024841202  0.024199654           17 
 3068000   0.76696009   -6.6728151    915.64668   0.02487089  0.024192655            8 
 3069000   0.76079605   -6.6610762    913.90999  0.024815629  0.024185648           26 
 3070000   0.75024892    -6.696502    913.77698  0.024803935  0.024178595           14 
 3071000   0.74038017   -6.7007443    916.62893  0.024873248  0.024171574           17 
 3072000    0.7610407   -6.6884552    914.26994  0.024801159   0.02416451           11 
 3073000   0.78058282    -6.700021      913.096  0.024761254  0.024157465           11 
 3074000   0.76833652   -6.6865915    914.69409  0.024796522  0.024150416            7 
 3075000   0.75645489   -6.6935291    914.22213  0.024775667  0.024143404           13 
 3076000   0.74198622   -6.6564142    915.03565  0.024789652  0.024136401            7 
 3077000   0.75268939   -6.6737681    915.58765  0.024796546  0.024129387            7 
 3078000   0.75253922   -6.6903874    916.08504  0.024801956  0.024122389            7 
 3079000   0.77252975   -6.6512547    914.87033  0.024761024  0.024115388            7 
 3080000   0.74178227   -6.6721969    917.08053  0.024812785  0.024108381            5 
 3081000   0.75624563    -6.694585    916.95781  0.024801412  0.024101365            5 
 3082000   0.76218559   -6.6635415    917.16035  0.024798841  0.024094346            6 
 3083000   0.75304089     -6.68438    916.34369  0.024768723  0.024087331            7 
 3084000    0.7518438   -6.6636129    914.47892  0.024710304  0.024080325            5 
 3085000   0.77235166   -6.7053788    915.75339   0.02473672  0.024073267           10 
 3086000   0.77034979   -6.6844478    914.68782   0.02469993  0.024066191            7 
 3087000   0.77329783    -6.700914    914.44287  0.024685317  0.024059126            7 
 3088000   0.75596236    -6.678772    915.92029  0.024717193  0.024052066           10 
 3089000   0.76607168   -6.7133124    913.08578  0.024632723  0.024044985            7 
 3090000   0.73568361   -6.7076354    915.08894  0.024678774  0.024037921            9 
 3091000   0.74532252   -6.6997837    914.25594  0.024648332  0.024030889           21 
 3092000   0.76570093   -6.7189682    913.14175  0.024610332  0.024023771            9 
 3093000   0.73733564   -6.7387482    915.17968  0.024657282  0.024016659           10 
 3094000   0.76151962   -6.6738646    916.23024  0.024677608  0.024009601            7 
 3095000     0.763157   -6.6762876    916.02103  0.024664002  0.024002571            8 
 3096000   0.75354399   -6.6889463    914.98075  0.024628035  0.023995519            6 
 3097000   0.75578588   -6.6927222    915.59144  0.024636515  0.023988465           19 
 3098000   0.73087841   -6.6620221    913.91045  0.024583346  0.023981433           14 
 3099000   0.75233726   -6.6700962    915.07989  0.024606859  0.023974413           16 
 3100000   0.75693598   -6.6967027    916.82408  0.024645809   0.02396737           38 
 3101000   0.76303012   -6.6952127    914.12577  0.024565349  0.023960322           13 
 3102000   0.74957338    -6.728911    914.76969  0.024574728  0.023953306           21 
 3103000   0.75348239   -6.6957888    916.37863  0.024610018  0.023946284           15 
 3104000   0.74892774   -6.6721181    916.16554  0.024596369  0.023939332            7 
 3105000   0.76648567   -6.6773403    915.27787  0.024564623  0.023932386           17 
 3106000   0.75341776   -6.6942048    917.69537  0.024621576  0.023925417           20 
 3107000   0.74221386   -6.6422982    917.50396  0.024608517  0.023918493            5 
 3108000   0.75336215   -6.6494242    916.93012  0.024585214  0.023911582           17 
 3109000   0.74999488   -6.6736303    916.95107  0.024577867  0.023904602           12 
 3110000   0.74738634   -6.6842261     916.8452  0.024567128  0.023897619            6 
 3111000   0.75581729   -6.7175744    916.88384  0.024560266  0.023890691           16 
 3112000   0.75260024    -6.693753    918.85047  0.024605036  0.023883753            7 
 3113000   0.76074691   -6.6706208    917.33638  0.024556601  0.023876868            5 
 3114000   0.74867242   -6.6762342    917.99444  0.024566325  0.023869971           12 
 3115000   0.75679284   -6.6955238    918.85818  0.024581546  0.023863047            7 
 3116000     0.754194   -6.6784082    917.90333  0.024548121  0.023856125           15 
 3117000   0.74937058   -6.7074839     916.9435  0.024514584  0.023849171            4 
 3118000    0.7558116   -6.6637401    919.85948  0.024584656  0.023842264            7 
 3119000   0.75977297   -6.6820014    918.54076   0.02454154  0.023835386           12 
 3120000    0.7617187   -6.6756806    919.58845  0.024561657  0.023828519            7 
 3121000   0.75102231   -6.7018721    917.00765  0.024484878  0.023821622            8 
 3122000   0.74984253   -6.6953729    918.67835   0.02452163  0.023814749            7 
 3123000   0.74606156   -6.6953318    918.16555  0.024500095  0.023807856           18 
 3124000      0.73546   -6.7083314    915.56136  0.024422785  0.023800913           13 
 3125000   0.75767945   -6.6986729    916.55565  0.024441484  0.023794002            8 
 3126000   0.75300167   -6.6986857    918.69048  0.024490576  0.023787073            7 
 3127000   0.76865577   -6.6950176    918.45835  0.024476558  0.023780158            8 
 3128000   0.74177622   -6.6943325    920.15179  0.024513848   0.02377322           11 
 3129000    0.7589239   -6.7078247    917.19724  0.024427326  0.023766295            7 
 3130000   0.76159532   -6.6868841      919.353  0.024476917  0.023759407            5 
 3131000   0.76028561    -6.708988    919.65855  0.024477232  0.023752535            8 
 3132000    0.7406355   -6.6815417    919.89023  0.024475581  0.023745712            9 
 3133000   0.72887829   -6.6900718    920.61289   0.02448699   0.02373887           12 
 3134000   0.75128291   -6.6813082    921.79267  0.024510548  0.023732004            7 
 3135000   0.76543375   -6.7168424    920.12691  0.024458451  0.023725185           32 
 3136000   0.76844913    -6.694214    919.37707  0.024430726  0.023718376            5 
 3137000   0.76233344   -6.6899857    919.85052  0.024435515  0.023711527            8 
 3138000   0.75952272   -6.7072526    920.14998   0.02443568   0.02370467           13 
 3139000   0.75917993   -6.7221318    918.52157  0.024384665  0.023697801           10 
 3140000   0.76032337   -6.7017986    921.06915   0.02444451   0.02369093           11 
 3141000    0.7468256   -6.6881727    920.24453   0.02441485  0.023684088           26 
 3142000   0.74581993   -6.6750204    922.99607  0.024480057  0.023677319           13 
 3143000   0.75821138   -6.6909391    921.32516  0.024427966  0.023670495           10 
 3144000   0.75159968   -6.6990319    922.09828  0.024440688  0.023663688            5 
 3145000   0.74188729   -6.7244965    921.01378  0.024404181  0.023656844           16 
 3146000   0.76145547   -6.7014812    917.90575  0.024314096  0.023649971           23 
 3147000   0.75505315   -6.7240704    919.01574  0.024335763   0.02364308           11 
 3148000   0.74283854   -6.7201022    920.51383  0.024367689  0.023636228           14 
 3149000   0.74936477   -6.7048367    920.97049  0.024372036  0.023629379            7 
 3150000   0.75424575   -6.7157033    920.75259  0.024358534  0.023622543           10 
 3151000   0.73097763   -6.7143933    919.22617  0.024310435  0.023615707           12 
 3152000    0.7539485   -6.6762332    922.54041  0.024390345  0.023608875            9 
 3153000   0.73444274   -6.7163204    921.68498      0.02436  0.023602036            8 
 3154000   0.75223323   -6.7176942    921.06763  0.024335966  0.023595195           10 
 3155000   0.75710921    -6.727717    917.85984  0.024243524  0.023588344            9 
 3156000   0.72979815   -6.7130607    919.45099  0.024277857  0.023581525            8 
 3157000    0.7419368   -6.7036729    920.30437  0.024292693  0.023574696            7 
 3158000   0.73192586   -6.7399837    919.54418   0.02426494  0.023567803            8 
 3159000   0.74484005   -6.7249298    918.89716  0.024240191  0.023560938            5 
 3160000   0.73670611   -6.7106652    920.50147  0.024274828  0.023554088            8 
 3161000   0.75096181   -6.7302445    921.69169  0.024298526  0.023547244           17 
 3162000   0.74576737   -6.7335533    920.44519   0.02425799  0.023540417           12 
 3163000   0.73802129   -6.7224153    921.15253  0.024268957  0.023533585            7 
 3164000   0.71819148   -6.7097121    921.34037  0.024266234  0.023526748            5 
 3165000   0.75618263    -6.697704    921.43875  0.024261157  0.023519962           11 
 3166000   0.74597977    -6.709669    918.72208  0.024181988   0.02351316           14 
 3167000   0.74735536   -6.7118553    921.49579  0.024247337  0.023506365            7 
 3168000   0.75512801   -6.7122136      921.617  0.024242872  0.023499536           22 
 3169000   0.74560337    -6.720746    920.45139   0.02420457  0.023492737           14 
 3170000   0.73121979   -6.7196702    921.54286  0.024225627  0.023485914           10 
 3171000   0.74321417   -6.7152082    922.92914  0.024254419  0.023479111           14 
 3172000   0.74878913   -6.7129578     921.6534  0.024213257  0.023472328            9 
 3173000   0.74365577   -6.7028453    920.65036  0.024179282  0.023465541           13 
 3174000   0.74463591   -6.7240846    920.80646  0.024175763  0.023458748            9 
 3175000    0.7467414   -6.7529142     920.6292  0.024163496  0.023451938           19 
 3176000   0.74639562   -6.7228906    920.71197   0.02415806  0.023445114           25 
 3177000   0.75191298   -6.7221253     920.9204  0.024155923   0.02343827           11 
 3178000   0.75012996   -6.7282951    918.97932  0.024097423  0.023431426            7 
 3179000   0.74594803   -6.6610121    923.18988  0.024200217  0.023424627           13 
 3180000   0.74953651   -6.7256683    920.52158  0.024122683  0.023417794           11 
 3181000   0.73426704   -6.7079026    922.01791  0.024154299  0.023411016            9 
 3182000   0.74377392   -6.6966109    923.16452  0.024176737  0.023404173           12 
 3183000   0.72542169    -6.723753    923.17508  0.024169418   0.02339735           11 
 3184000   0.73897823   -6.7290509    921.28637  0.024112394  0.023390541           16 
 3185000   0.74706362   -6.7115141    919.58209  0.024060233  0.023383705           12 
 3186000   0.74347981   -6.7065419    920.66555   0.02408102  0.023376859            5 
 3187000   0.74135774   -6.7269778    919.64558  0.024046794  0.023369984           10 
 3188000   0.73849206   -6.7230909    919.73809  0.024041669  0.023363127            6 
 3189000   0.73407184   -6.7486377    919.04118  0.024015919  0.023356234            7 
 3190000   0.74146612   -6.7324406    920.16404  0.024037723  0.023349364            8 
 3191000   0.73367147   -6.7463319    920.07908  0.024027971  0.023342466           12 
 3192000   0.73752544   -6.7318925    922.12823  0.024073941  0.023335553           25 
 3193000   0.73484084   -6.7542544    919.34744  0.023993826  0.023328688           11 
 3194000   0.73001204   -6.7348158    921.43324  0.024040734  0.023321814            8 
 3195000   0.75179315   -6.7457429    921.18044  0.024026616   0.02331499           11 
 3196000    0.7572315   -6.7233954    923.60338  0.024082274  0.023308138           13 
 3197000   0.73651478   -6.7191637    921.69492  0.024024995  0.023301309           17 
 3198000   0.73460248    -6.733354    922.51065  0.024038739  0.023294446           19 
 3199000   0.73830158   -6.7006931    923.23293   0.02405004  0.023287622           10 
 3200000    0.7560631   -6.7067407    923.82726  0.024058002  0.023280811           19 
 3201000    0.7403178   -6.7002084    925.52231  0.024094614  0.023273992           12 
 3202000   0.74180002   -6.7519402    921.77841  0.023989653  0.023267205           23 
 3203000   0.73634185   -6.7456771    921.95531  0.023986765  0.023260346            7 
 3204000   0.73055899   -6.7172168    924.19699  0.024037583  0.023253515           24 
 3205000   0.75045833   -6.7295041    919.63697  0.023911518  0.023246629            8 
 3206000   0.74805287   -6.7378537    920.31454  0.023921671  0.023239775           17 
 3207000   0.75019371   -6.7418625    921.14883  0.023935891  0.023232909            8 
 3208000   0.75564012   -6.7377517    921.18082  0.023929261  0.023226038            8 
 3209000   0.75722667   -6.7641231    921.00083   0.02391713  0.023219182           10 
 3210000   0.74186902   -6.7327268    922.01887  0.023936108  0.023212311           10 
 3211000   0.72930819   -6.7410931    921.32307  0.023910596   0.02320547           18 
 3212000   0.74445144   -6.7250161    919.69335  0.023860869  0.023198627           23 
 3213000   0.73363474   -6.7571405    920.81936  0.023882648  0.023191765           12 
 3214000    0.7455006   -6.7716459    921.92684  0.023903932  0.023184872           14 
 3215000   0.74925862   -6.7259587    922.02222  0.023898969  0.023178025           13 
 3216000    0.7310013   -6.7289998    923.51157   0.02393013  0.023171206           12 
 3217000   0.73555608   -6.7175333    922.72906  0.023902421  0.023164413           16 
 3218000    0.7366408   -6.7257577    922.99704  0.023901933  0.023157578           18 
 3219000   0.74709822   -6.7433779    922.34308  0.023877578  0.023150732           13 
 3220000   0.75400812   -6.7402361    923.36674  0.023896655  0.023143877            9 
 3221000   0.75223107    -6.724583    922.51408  0.023867176   0.02313704            6 
 3222000    0.7518412   -6.7463471    921.78887  0.023841012  0.023130198           10 
 3223000   0.73557462   -6.7347979    921.48416  0.023825736   0.02312335           11 
 3224000   0.73551139   -6.7478021    921.25499  0.023812422  0.023116468           26 
 3225000     0.733824   -6.7407183     922.6213  0.023840344  0.023109577           13 
 3226000   0.72730816   -6.7422253    923.05501  0.023844157  0.023102705           16 
 3227000    0.7299827   -6.7741432    920.54937  0.023772063  0.023095813           34 
 3228000   0.73200608    -6.740041    919.87907  0.023747395  0.023088899            8 
 3229000   0.72785006   -6.7682177    920.78823  0.023763503  0.023081986           10 
 3230000   0.74777249   -6.7510533    921.25138  0.023768095  0.023075063            7 
 3231000   0.73211446   -6.7463395    921.51399  0.023767512  0.023068173           11 
 3232000   0.72510274   -6.7511152    923.04774  0.023799705  0.023061276            8 
 3233000    0.7211334   -6.7617677    919.49348  0.023700729  0.023054357           23 
 3234000   0.75326771   -6.7504425    921.92705  0.023756108  0.023047461           15 
 3235000   0.72472102   -6.7403526    919.50454  0.023686361  0.023040554           14 
 3236000   0.74637343   -6.7816058    920.00742  0.023691992  0.023033674           11 
 3237000   0.74782608   -6.7449549    920.85923  0.023706601  0.023026779           17 
 3238000    0.7457859   -6.7562532    921.50199  0.023715822  0.023019921           15 
 3239000   0.72096184   -6.7449829    921.49588  0.023708343  0.023013051            8 
 3240000   0.73766106    -6.722535    922.08628  0.023716211  0.023006217            7 
 3241000   0.71574696    -6.740101    921.02458  0.023681595  0.022999385           10 
 3242000   0.75300715   -6.7145027    921.92854  0.023697526   0.02299256           17 
 3243000   0.72648835    -6.729682    922.31115   0.02370005  0.022985747           12 
 3244000   0.73604748   -6.7291052    921.98335  0.023684324  0.022978924           10 
 3245000   0.72324218   -6.7232281    923.94562  0.023727417  0.022972126           14 
 3246000   0.73865496   -6.7597957    922.31132   0.02367815  0.022965297           11 
 3247000   0.73548487   -6.7483408    924.06055  0.023715752  0.022958421           21 
 3248000    0.7393231   -6.7532687    921.37627   0.02363958  0.022951555            9 
 3249000   0.72334851   -6.7463491    919.78528  0.023591497  0.022944695           19 
 3250000   0.73794198   -6.7701132    921.93636  0.023639394  0.022937831           14 
 3251000   0.72609457   -6.7541063    923.03872  0.023660379  0.022930982           25 
 3252000   0.72308297   -6.7714921    920.57871  0.023590065  0.022924132           32 
 3253000   0.72400313   -6.7473916    922.71971   0.02363766  0.022917261            9 
 3254000   0.73293583   -6.7471129    922.70253  0.023629956  0.022910431           11 
 3255000   0.72673283   -6.7443151    921.53345  0.023592766  0.022903612            9 
 3256000   0.73501431   -6.7242592    923.53686  0.023636795   0.02289676           10 
 3257000   0.72988252    -6.771337    921.21065   0.02357002   0.02288989           11 
 3258000   0.74959417   -6.7462078    923.07999  0.023610599  0.022883006            9 
 3259000   0.74027152   -6.7669615    922.79692  0.023596116  0.022876136           10 
 3260000   0.72757354    -6.749529    923.90899  0.023617305  0.022869253            9 
 3261000   0.72606002   -6.7706327    922.65885  0.023578116  0.022862351           14 
 3262000   0.72251676   -6.7763373     921.1971  0.023533545  0.022855494           15 
 3263000    0.7252633   -6.7538768    922.59518  0.023562039   0.02284862            9 
 3264000   0.73341693   -6.7510815    922.49394  0.023552235  0.022841744           21 
 3265000   0.73148453   -6.7666584     920.2159  0.023486878  0.022834839           19 
 3266000   0.73785857   -6.7504526    921.41974  0.023510404  0.022827914           26 
 3267000   0.72817331   -6.7788295    923.21289  0.023548946  0.022821019            9 
 3268000   0.72226546    -6.746107    924.50061  0.023574577  0.022814117           13 
 3269000    0.7220328   -6.7436439     924.1678  0.023558881  0.022807273           20 
 3270000   0.73064334    -6.753579    923.36231   0.02353115  0.022800457           41 
 3271000   0.75280393   -6.7595565    920.86473  0.023460326  0.022793619           11 
 3272000   0.72461254   -6.7838292    919.97527  0.023430503  0.022786757           17 
 3273000   0.71939503   -6.7866149    920.82764  0.023445046  0.022779861           13 
 3274000   0.72986655   -6.7886573    920.29622  0.023424359  0.022772959           11 
 3275000   0.71928945    -6.773169    923.36814  0.023495373  0.022766098           13 
 3276000   0.72310218    -6.780119    921.51723  0.023441118  0.022759221           16 
 3277000   0.71258897   -6.7634557    923.67745  0.023488899  0.022752364           35 
 3278000    0.7121867   -6.7637505    923.67907  0.023481774  0.022745478           16 
 3279000   0.73405808   -6.7626653    923.15238  0.023461228  0.022738615           27 
 3280000   0.74553258   -6.7577412    923.15585  0.023454163  0.022731738            9 
 3281000   0.72742489   -6.7855068    920.03455  0.023367737  0.022724869           12 
 3282000   0.72982231   -6.7671391    922.33732  0.023419087  0.022718002           14 
 3283000   0.71888552   -6.7770178    921.13951  0.023381549  0.022711125           10 
 3284000   0.72017802   -6.7650661    921.22831  0.023376683  0.022704238           28 
 3285000   0.72574753   -6.7719593    921.15274  0.023367649   0.02269735           26 
 3286000   0.70443977   -6.7668859    919.67274  0.023323005  0.022690468            6 
 3287000   0.73120025   -6.7650415    921.70925   0.02336754  0.022683623           17 
 3288000   0.73492044   -6.7685673    922.26914  0.023374623  0.022676785            9 
 3289000   0.72208735   -6.7999888    922.55481  0.023374755  0.022669943           23 
 3290000   0.72374899   -6.7864457    922.17039  0.023357913  0.022663091           31 
 3291000   0.72476328   -6.7631421    923.88806  0.023394309   0.02265628           20 
 3292000   0.70433658   -6.7691547    922.02789  0.023340115  0.022649448           18 
 3293000   0.71798163   -6.7712498    921.45391  0.023318502  0.022642596           19 
 3294000   0.73073644   -6.7825336    922.87249  0.023347311  0.022635726           25 
 3295000   0.72244932   -6.8113117    919.97035  0.023266827  0.022628889           13 
 3296000   0.73724527   -6.7833869    919.45075  0.023246631  0.022622002           23 
 3297000   0.72547218   -6.7892781    921.02847  0.023279458  0.022615155           32 
 3298000   0.73770243   -6.7744403    922.79059  0.023316924   0.02260826           23 
 3299000   0.72341737   -6.7753892    920.40896  0.023249696   0.02260139           14 
 3300000   0.72227417   -6.7832013    921.09209  0.023259901  0.022594509           29 
 3301000   0.72267099   -6.8121441    922.22919  0.023281561  0.022587622           20 
 3302000    0.7198464   -6.7951188    922.19446  0.023273634  0.022580732           29 
 3303000   0.72716105   -6.7961563    921.61162  0.023251883  0.022573884           14 
 3304000   0.74523217   -6.7976548    922.51179  0.023267549  0.022567044           16 
 3305000   0.72360932   -6.8034006    922.48646   0.02325987  0.022560162           22 
 3306000   0.72715297   -6.7616375    923.65773  0.023282358  0.022553346           41 
 3307000   0.72847903   -6.7608995    922.95816   0.02325769  0.022546517           16 
 3308000   0.71692949   -6.7679918    923.92758   0.02327508  0.022539686           17 
 3309000   0.72822276   -6.7455962    925.21157  0.023300382   0.02253291           20 
 3310000   0.70868234   -6.7533911     925.7922  0.023307961  0.022526147            5 
 3311000   0.73434508   -6.7638793    921.85969  0.023201945   0.02251933           19 
 3312000   0.70274835   -6.7863833    922.97083  0.023222897  0.022512529           16 
 3313000   0.71420745   -6.7914724    923.30019  0.023224172   0.02250572           37 
 3314000    0.7182001   -6.7873109    923.06909  0.023211353  0.022498874           11 
 3315000   0.72517525   -6.7881168     925.4513  0.023264236  0.022492056           23 
 3316000   0.73294381   -6.7768302    922.30408  0.023178128  0.022485243            7 
 3317000   0.72714932   -6.7719079    921.86528  0.023160117  0.022478418           16 
 3318000   0.72098382    -6.782775    922.54408  0.023170185  0.022471595           19 
 3319000   0.72353908   -6.8056374    923.05651   0.02317607   0.02246477           19 
 3320000   0.73174942   -6.7646046    925.15533   0.02322177  0.022457959           16 
 3321000   0.72602177   -6.7803675     921.7473  0.023129261   0.02245111           13 
 3322000   0.70988408     -6.80593    922.21381  0.023134001  0.022444271           39 
 3323000   0.72483189   -6.7922055     923.9016  0.023169365  0.022437442           24 
 3324000   0.71477276   -6.7504367    922.98369  0.023139383  0.022430662           12 
 3325000   0.72361567   -6.7897091    923.45981  0.023144356   0.02242386            9 
 3326000   0.71795277   -6.7601807    922.34246  0.023109402  0.022417046           31 
 3327000   0.72918708   -6.7640649    925.01745  0.023169458  0.022410237            8 
 3328000   0.72826338   -6.8158988    923.37635  0.023121403  0.022403425           10 
 3329000   0.70695922   -6.7751924    923.05096  0.023106312  0.022396595           14 
 3330000   0.72083537   -6.8093407    922.06002  0.023074575  0.022389715           15 
 3331000   0.70955958   -6.7804549    923.26159  0.023097708  0.022382851           24 
 3332000    0.7152779   -6.8088067     921.3463  0.023042875  0.022376018            9 
 3333000   0.70832553   -6.7760128    925.84997  0.023148564  0.022369218            7 
 3334000    0.7159942   -6.8021304    921.58425  0.023034999  0.022362445           10 
 3335000   0.73091769   -6.7630221    922.63416  0.023054327  0.022355643            9 
 3336000   0.71287274   -6.7795144     921.2136  0.023011931  0.022348834            7 
 3337000   0.71988312   -6.7954967    922.93717  0.023048076  0.022342003           17 
 3338000   0.73031905   -6.7710861    923.97054   0.02306697  0.022335183           10 
 3339000    0.7178032   -6.7784766     924.8971  0.023083186  0.022328341           10 
 3340000   0.71525577   -6.7847713    923.78624  0.023048559  0.022321516           18 
 3341000   0.72123475   -6.8144695    921.14601  0.022975806  0.022314699           19 
 3342000   0.72482476   -6.8028034    921.28461  0.022972387  0.022307862           29 
 3343000   0.70865936   -6.8054729    920.70148  0.022950979  0.022301019           27 
 3344000   0.73420851    -6.823928    920.51643  0.022939504  0.022294158           11 
 3345000   0.73180313   -6.8076862      921.695  0.022962008  0.022287274           20 
 3346000   0.70838552   -6.8276391    920.30335  0.022920486  0.022280409           11 
 3347000   0.72339884   -6.7728349     920.9514  0.022929773  0.022273576            7 
 3348000   0.72361296   -6.7883512    922.20518  0.022954131  0.022266727           12 
 3349000   0.71970811   -6.7872263    922.75683  0.022961004  0.022259885           11 
 3350000   0.72837778   -6.8087718    920.93856  0.022908919  0.022253049           21 
 3351000   0.71451698   -6.8025892    921.58828   0.02291824  0.022246211           18 
 3352000   0.70381644   -6.7756893    923.17735  0.022950909  0.022239395           17 
 3353000   0.70497569   -6.7671116    923.91839  0.022962481  0.022232581           29 
 3354000   0.71308363    -6.786081    923.22907  0.022938508  0.022225751           12 
 3355000   0.70957187   -6.7965875    921.92233  0.022899213  0.022218967           17 
 3356000   0.71456671   -6.8112279    921.17763  0.022873898  0.022212105           31 
 3357000   0.72246459   -6.7983662    923.43491  0.022923119  0.022205256           23 
 3358000   0.72662097   -6.7857193    922.70408  0.022898156  0.022198436           28 
 3359000   0.71696276   -6.7888616    921.61872  0.022864412  0.022191584           30 
 3360000   0.71924334   -6.8459115    920.65881    0.0228338  0.022184697           18 
 3361000   0.71423636   -6.8154729    921.62612   0.02285099  0.022177797           30 
 3362000   0.71945918    -6.791252    924.80704  0.022923038  0.022170942           27 
 3363000   0.71116818   -6.8329312    922.09624  0.022849049  0.022164073           22 
 3364000   0.71685125   -6.7910494    922.46621  0.022851422  0.022157231           19 
 3365000   0.70653777   -6.7965588    924.28804  0.022889748  0.022150412           12 
 3366000   0.72233725    -6.809318    923.47279  0.022862765  0.022143569           36 
 3367000   0.70864206   -6.8208449    922.22967  0.022825207  0.022136709           53 
 3368000   0.71938622   -6.8323387    923.28208  0.022844469  0.022129867            9 
 3369000   0.72649355   -6.7916694    923.17951  0.022835152  0.022123046           20 
 3370000   0.72554827   -6.8389931    922.26479  0.022805756  0.022116201           22 
 3371000   0.70590549   -6.8164808    923.54144  0.022830551  0.022109364           15 
 3372000   0.71100013   -6.8036449    921.74328  0.022779342  0.022102548           13 
 3373000   0.72066587   -6.7924591    922.95577  0.022802544  0.022095734           34 
 3374000   0.72335976   -6.8368664    922.67728  0.022788907  0.022088924           41 
 3375000   0.72050587    -6.837752    920.90279  0.022738341  0.022082103           34 
 3376000   0.70823428   -6.7896244    923.36697  0.022792431  0.022075306           17 
 3377000   0.71316961   -6.8060055    922.74787  0.022770404  0.022068521           16 
 3378000   0.72105275   -6.8153498     924.0217  0.022795088  0.022061701           17 
 3379000   0.71003261   -6.7916853    922.83515  0.022759079  0.022054893           16 
 3380000   0.70053185   -6.8046027    922.53009  0.022744825  0.022048064           15 
 3381000   0.71206279    -6.805075    923.27516  0.022756462  0.022041236           14 
 3382000   0.71802142   -6.8110053      922.792  0.022737828  0.022034426           11 
 3383000   0.70923391   -6.7849754    923.54866  0.022749745    0.0220276           16 
 3384000   0.70167771   -6.8086363    923.54436  0.022742917  0.022020793           15 
 3385000   0.70993273   -6.8135337    924.85423  0.022768445  0.022013976           19 
 3386000   0.70411636   -6.8129383    924.14873  0.022744357  0.022007173           15 
 3387000   0.70272891   -6.8243107    920.72366  0.022653372  0.022000348           15 
 3388000   0.71272014   -6.8153226    923.94293  0.022725869  0.021993539           15 
 3389000   0.70101633   -6.8019772    923.95697  0.022719508  0.021986742           13 
 3390000   0.70551729   -6.8032884     924.3983  0.022723655   0.02197997           17 
 3391000   0.72202042   -6.8293061    922.55072   0.02267155  0.021973144           26 
 3392000   0.71015939   -6.8170502    924.47761  0.022712205  0.021966391           20 
 3393000   0.71309987   -6.8325448     921.9287  0.022642909  0.021959578           17 
 3394000   0.70572352    -6.815979    921.79356   0.02263292  0.021952768           46 
 3395000   0.72374546   -6.8339132    921.45754  0.022618006  0.021945968           20 
 3396000   0.70336412   -6.8414528    920.13259  0.022578833  0.021939158           16 
 3397000    0.7085783   -6.8328904    922.14901  0.022621652  0.021932347           19 
 3398000   0.70579917   -6.8292184    924.36534  0.022669348   0.02192555           48 
 3399000   0.70005809   -6.8290969    922.40041  0.022614504  0.021918734           21 
 3400000   0.70425713    -6.850772    923.07979  0.022624505  0.021911932           50 
 3401000   0.70774352   -6.8151575    925.11452  0.022667708  0.021905105           26 
 3402000     0.732105   -6.8463503     923.2026  0.022614212  0.021898308           12 
 3403000   0.71410579   -6.8275612    926.05216  0.022677348  0.021891528           29 
 3404000   0.71855197   -6.8268184    923.79333  0.022615387  0.021884747           12 
 3405000   0.69631499   -6.8086354    923.66665  0.022605645  0.021877956           11 
 3406000   0.70255209   -6.8254725    925.38451  0.022641038  0.021871184            8 
 3407000    0.7146277   -6.8257468    923.24837  0.022582144  0.021864432           26 
 3408000   0.69911799   -6.7910771    922.49459  0.022557086  0.021857676           20 
 3409000   0.70935117   -6.8213122    923.27071  0.022569441  0.021850898           24 
 3410000   0.70902528    -6.808661    921.59019  0.022521754  0.021844149           16 
 3411000   0.69341171   -6.8175678    924.20317  0.022578989  0.021837384           13 
 3412000   0.68735537   -6.8363938    922.61014  0.022533464  0.021830596           11 
 3413000   0.70697409   -6.8628505    922.32283  0.022519846  0.021823813            8 
 3414000   0.70924733   -6.8491376    922.20205  0.022510302  0.021817004           16 
 3415000   0.70737631    -6.821005    923.19292   0.02252789  0.021810221           16 
 3416000   0.68790279   -6.8359189     921.9009  0.022489776  0.021803439           23 
 3417000   0.70035578    -6.850713    921.59651  0.022475771  0.021796639            8 
 3418000   0.71974215   -6.8340039    922.61386  0.022493999  0.021789826            8 
 3419000   0.70789276   -6.8348383    920.89459  0.022445515   0.02178304            8 
 3420000    0.7182626   -6.8326682    922.37488  0.022475021  0.021776235           10 
 3421000   0.69095963   -6.8111262    923.00453   0.02248379  0.021769463           11 
 3422000   0.70559222   -6.8594739    922.05597   0.02245412  0.021762678           13 
 3423000   0.69712437    -6.846921    923.02241  0.022471088  0.021755886           31 
 3424000   0.70403722   -6.8304012    923.66644    0.0224802  0.021749081           26 
 3425000   0.71086911   -6.8612151    922.33599  0.022441265  0.021742296           22 
 3426000   0.68730853   -6.8770024    922.00644  0.022426699  0.021735484           19 
 3427000   0.72289506   -6.8330128    922.94453  0.022442966  0.021728684           12 
 3428000   0.69764684   -6.8452179    921.81689  0.022409007  0.021721886           25 
 3429000   0.70060299   -6.8277172    922.83159  0.022427131  0.021715091           20 
 3430000   0.68785535   -6.8590569    921.04745  0.022377246   0.02170829           15 
 3431000   0.71338793   -6.8525552    923.71896  0.022435611  0.021701468           21 
 3432000   0.70924315    -6.865576      921.535  0.022376044  0.021694692           17 
 3433000   0.69684984   -6.8481292    921.07546  0.022358371  0.021687891           21 
 3434000   0.70177224   -6.8393036    925.68954  0.022463831  0.021681122           10 
 3435000   0.70297044   -6.8541339    920.39582  0.022328865  0.021674327            7 
 3436000   0.70758018   -6.8500619    919.50639  0.022300795  0.021667555           68 
 3437000   0.69293228   -6.8512103    923.92577  0.022401459  0.021660756           63 
 3438000   0.70233211   -6.8473785    924.57842  0.022410763  0.021654004           15 
 3439000   0.70298467   -6.8283182    924.46651  0.022401534  0.021647255           14 
 3440000   0.70170312   -6.8496134    921.38723  0.022320427  0.021640493           52 
 3441000   0.70545169   -6.8266444    922.88563  0.022350228  0.021633699           18 
 3442000   0.70795674   -6.8743847    920.91133  0.022295936  0.021626897           16 
 3443000   0.71388326   -6.8536679    921.60225  0.022306183  0.021620086           32 
 3444000   0.69397026   -6.8278143    920.35773  0.022269593  0.021613277           45 
 3445000   0.71149629   -6.8433636    922.47027   0.02231423  0.021606492           17 
 3446000    0.6966519   -6.8413416     922.9372  0.022319046  0.021599731           27 
 3447000   0.69737642   -6.8561784     923.6859  0.022330672  0.021592914           17 
 3448000   0.70988073   -6.8509718    923.79045  0.022326722  0.021586144           42 
 3449000   0.71366003   -6.8391487    922.49939  0.022289055  0.021579393           51 
 3450000   0.69165134   -6.8472574    921.27173   0.02225294  0.021572643           39 
 3451000   0.70028267     -6.84338    923.90867  0.022310168  0.021565879           50 
 3452000   0.71001439   -6.8116801    923.37184  0.022290745   0.02155915           28 
 3453000   0.72205834   -6.8455635    922.54162  0.022264254   0.02155241           62 
 3454000   0.70067498    -6.840856    924.97355  0.022316482    0.0215457           54 
 3455000   0.69145468   -6.8569245    922.08595  0.022240375  0.021538995           26 
 3456000   0.68447731   -6.8419077    923.81003  0.022275512  0.021532274           26 
 3457000   0.69512529   -6.8540139    924.60589  0.022288253  0.021525583           45 
 3458000   0.70666618   -6.8208865    925.57255  0.022305103  0.021518884           31 
 3459000    0.7050241   -6.8077823    925.29266  0.022291911  0.021512211           11 
 3460000   0.70559211   -6.8135999    925.39386  0.022287906  0.021505543           14 
 3461000   0.70165228   -6.8292004    923.69787  0.022240631  0.021498837           16 
 3462000   0.68613639   -6.8562306    924.06523  0.022243049  0.021492136           15 
 3463000    0.7032951   -6.8567345    924.17357  0.022239233  0.021485441           17 
 3464000   0.69284487   -6.8328769    924.38905  0.022237997  0.021478703           29 
 3465000   0.69101392   -6.8180092    925.44936  0.022257079   0.02147199           17 
 3466000   0.70796452   -6.8427474    924.60322  0.022230314  0.021465295           11 
 3467000   0.68589721   -6.8702785    922.36682  0.022170148  0.021458592           27 
 3468000   0.71033964   -6.8411962    923.30086  0.022186199  0.021451868           29 
 3469000   0.68762078   -6.8589122     924.0462  0.022197708  0.021445185           15 
 3470000   0.69565009   -6.8388438    923.39743  0.022175731  0.021438529           29 
 3471000   0.71144369    -6.871718     922.3952   0.02214528   0.02143186           16 
 3472000    0.6859472   -6.8561691    924.75139  0.022195454  0.021425169           20 
 3473000   0.71513297   -6.8693699    921.58676  0.022113129   0.02141848           20 
 3474000    0.6916788   -6.8632307    922.37175  0.022125594  0.021411799           26 
 3475000   0.70361435   -6.8416479    924.98977  0.022182009  0.021405118           19 
 3476000   0.69389362   -6.8554766    924.62042  0.022166773  0.021398453           16 
 3477000   0.70013242   -6.8607707    923.75214  0.022139587  0.021391758           26 
 3478000   0.68872375   -6.8379085    926.09799  0.022189429  0.021385046           16 
 3479000   0.68544282   -6.8667351    923.80839  0.022128207  0.021378372           32 
 3480000   0.69013498   -6.8537877    924.71107  0.022143464  0.021371678           33 
 3481000   0.71695122   -6.8478517    923.57473    0.0221099   0.02136499           42 
 3482000   0.70156712   -6.8539166     926.1704  0.022165671  0.021358309           20 
 3483000   0.68751116   -6.8471013    922.25941  0.022065734  0.021351623           36 
 3484000   0.70180638   -6.8607915     925.4911  0.022136699  0.021344942           40 
 3485000   0.69636401   -6.8703713    924.44261  0.022105275  0.021338226           25 
 3486000   0.70045564     -6.85741    923.40988  0.022074246  0.021331477           15 
 3487000   0.69956326   -6.8737395    924.74481  0.022099819  0.021324745           22 
 3488000   0.68960921   -6.8709546     922.4951  0.022039734   0.02131802           23 
 3489000   0.68570493   -6.8534422     925.5221  0.022105716  0.021311318           23 
 3490000   0.67802731   -6.8488789    925.71121  0.022103897  0.021304645           16 
 3491000   0.68806472   -6.8750908    922.23736  0.022014641  0.021297961           32 
 3492000   0.68266588   -6.8385075    923.52148  0.022038982  0.021291255           23 
 3493000    0.7044852    -6.872396    924.41545     0.022054  0.021284541           10 
 3494000   0.68930138   -6.8709966    923.19886  0.022018672  0.021277835           20 
 3495000   0.68624561   -6.8546562    923.30802  0.022014974  0.021271131           25 
 3496000   0.69489168   -6.8628839    924.67772  0.022041326  0.021264417           22 
 3497000   0.70050668   -6.8776027    923.00355  0.021995128   0.02125771           38 
 3498000   0.68854256   -6.8969097    922.48999  0.021976605  0.021251013           17 
 3499000   0.70093119   -6.8763964    924.98948  0.022029853  0.021244343           23 
 3500000   0.69329307   -6.8938876    921.65906  0.021944263  0.021237643           13 
 3501000   0.69052049   -6.8633937    923.05315  0.021971178  0.021230981           14 
 3502000   0.68296302    -6.884649    923.83205  0.021983439  0.021224306           18 
 3503000   0.70362332   -6.8724183    926.48292  0.022040226   0.02121762           10 
 3504000   0.69563535   -6.8675086    921.95448  0.021926239  0.021210967           25 
 3505000   0.68345432   -6.8730902    924.39846   0.02197809  0.021204292           14 
 3506000   0.67608842   -6.8585701    924.03758  0.021963243  0.021197637           11 
 3507000   0.69517483   -6.8779259    924.20238  0.021960897  0.021190997           18 
 3508000     0.680151     -6.86845     923.8644  0.021946608   0.02118434           11 
 3509000   0.69512725   -6.8801403    923.73326  0.021937239  0.021177681           20 
 3510000   0.70083023   -6.8733766    925.83906  0.021980984  0.021171034           15 
 3511000   0.68811553   -6.8825127    924.69951  0.021947677  0.021164409           24 
 3512000   0.68274161   -6.8570078    925.18312  0.021952902   0.02115779           31 
 3513000   0.68135428   -6.8684018    925.34563  0.021950508   0.02115117           21 
 3514000   0.69824125   -6.8731668    923.19646  0.021893295  0.021144552           22 
 3515000   0.67257219    -6.842453    927.83609  0.021997062  0.021137952           27 
 3516000   0.68222847   -6.8489552    926.70336  0.021963959  0.021131371           18 
 3517000   0.69202388   -6.8308342    924.89187  0.021914792   0.02112479           32 
 3518000   0.69342689    -6.860409    924.91109  0.021909018  0.021118207           21 
 3519000   0.69492707   -6.8796812    922.89935  0.021855152  0.021111607           14 
 3520000   0.67842535    -6.883675    924.68918  0.021891316  0.021104973           18 
 3521000   0.67940994   -6.8570721    925.19889  0.021897162  0.021098355           12 
 3522000   0.69443305   -6.8793095    924.69852  0.021879106  0.021091722           26 
 3523000   0.67885124   -6.8625865    924.88495  0.021877305  0.021085105           17 
 3524000   0.70337015    -6.869188     925.4574  0.021884634  0.021078476            9 
 3525000   0.69511453   -6.8963902    923.86663  0.021840819  0.021071868           15 
 3526000   0.68499179   -6.8819651    925.13039  0.021864492   0.02106523           25 
 3527000    0.6902679   -6.8806407    925.29812  0.021862256  0.021058595           16 
 3528000   0.70302339   -6.8885342    924.84491  0.021845354  0.021051971           15 
 3529000   0.67955923   -6.8939062    923.63428  0.021810576  0.021045363           20 
 3530000   0.69396371   -6.8838676    925.43171   0.02184683   0.02103872           26 
 3531000   0.68237082   -6.8826198    923.43566  0.021793535  0.021032122           17 
 3532000   0.68679691   -6.8620027    923.29322  0.021784004  0.021025518           12 
 3533000   0.69312575   -6.8725425    924.31185  0.021801865  0.021018911           16 
 3534000   0.68225462   -6.8893813     922.9667  0.021763976    0.0210123           17 
 3535000   0.68355633   -6.8768008    923.02813  0.021759268  0.021005675           24 
 3536000   0.68669464    -6.875656    924.92131  0.021797731  0.020999067            9 
 3537000   0.67589076   -6.8692533    925.45795  0.021804211  0.020992448           18 
 3538000   0.69118683   -6.8730976    925.19242  0.021791794   0.02098584           48 
 3539000   0.69118999   -6.8964108    923.49607  0.021745692  0.020979193           33 
 3540000   0.70913003   -6.8726968    925.64041  0.021790028  0.020972558           48 
 3541000    0.6949021    -6.883516    923.52003  0.021733974  0.020965949           19 
 3542000    0.6776875    -6.885367    923.45756  0.021726368  0.020959358           10 
 3543000   0.68927957   -6.8955488    925.66281  0.021772105  0.020952781           20 
 3544000   0.67469884   -6.8987506    925.04934  0.021751536    0.0209462           24 
 3545000   0.67483371    -6.877952    924.11585  0.021723457  0.020939615           61 
 3546000   0.69659268   -6.9046556    925.45509  0.021748804  0.020933036           82 
 3547000   0.68407138   -6.8802261    926.73454  0.021772731  0.020926463           33 
 3548000   0.67476521   -6.9111255    921.96219  0.021654505  0.020919884           17 
 3549000   0.67547707   -6.9119939    925.65724  0.021735166  0.020913278           22 
 3550000   0.68047041   -6.8838323     926.0272  0.021737728  0.020906667           27 
 3551000   0.68485278     -6.92209    923.03794  0.021661456  0.020900071           16 
 3552000   0.68541519   -6.8886671    927.30382  0.021755439   0.02089349           13 
 3553000    0.6939713   -6.8800299    925.17221   0.02169932  0.020886909           45 
 3554000   0.67733857   -6.9032273    924.35875  0.021674141  0.020880341           33 
 3555000   0.67727183   -6.8818221    926.18447  0.021710841  0.020873793           25 
 3556000   0.68384198   -6.9131336    923.81455  0.021649197  0.020867195           21 
 3557000   0.68257994   -6.9200824    923.40129  0.021633429  0.020860575           31 
 3558000   0.68305862   -6.9357306    922.71248  0.021611216  0.020853952           34 
 3559000   0.67734931   -6.9149614    925.13504  0.021661868  0.020847363           18 
 3560000   0.66872872   -6.8996069    925.53556  0.021665158  0.020840804           22 
 3561000   0.68414621   -6.9001327     926.3422  0.021677951  0.020834245           14 
 3562000   0.70555028   -6.8911043    926.53523  0.021676381  0.020827689           17 
 3563000   0.68514516   -6.8947748    923.73139  0.021604719  0.020821169           39 
 3564000   0.67503166   -6.8944373    922.78398  0.021576505  0.020814601           38 
 3565000   0.68494044   -6.8767415    927.23419  0.021674478  0.020808057           21 
 3566000   0.68708945   -6.8975541    924.71892  0.021609622  0.020801507           21 
 3567000   0.67218901   -6.9021221    923.77443  0.021581498  0.020794948           33 
 3568000   0.69367424   -6.8811833    924.99578  0.021603975  0.020788403           79 
 3569000   0.68119939   -6.8839827    925.98078   0.02162092  0.020781878           34 
 3570000   0.66578516   -6.9104797    927.01801  0.021639076  0.020775366           28 
 3571000   0.68172545   -6.8892183    926.89521   0.02163015  0.020768844           51 
 3572000   0.66546922   -6.8825471    925.41577   0.02158958  0.020762347           55 
 3573000   0.67342792    -6.891873    926.29225   0.02160398  0.020755824           51 
 3574000   0.68461836   -6.9141386    925.56019  0.021580866  0.020749322           68 
 3575000    0.6786371   -6.8940741    925.55948  0.021574813  0.020742837           17 
 3576000    0.6910337   -6.8700359    928.02695   0.02162628  0.020736343           21 
 3577000   0.68047917   -6.9125611    926.28704    0.0215797   0.02072983           36 
 3578000   0.66323215   -6.9164702    923.55603  0.021510062  0.020723313           22 
 3579000   0.67979911   -6.8925539    926.75623  0.021578565  0.020716803           49 
 3580000   0.70372649   -6.8885624    928.62553   0.02161605  0.020710313           43 
 3581000   0.67618904   -6.8940089    922.82655  0.021475066  0.020703795           62 
 3582000    0.6763169   -6.9014877    923.30505  0.021480203  0.020697283           59 
 3583000   0.68516833   -6.9015048    925.79849  0.021532201  0.020690761           44 
 3584000   0.68341852   -6.8966836    925.61548  0.021521937   0.02068425           44 
 3585000   0.67398579   -6.9109769    924.92377  0.021499855  0.020677744           41 
 3586000   0.66645649   -6.9070651    924.00919  0.021472606  0.020671239           34 
 3587000   0.67985844   -6.9008836    926.78031  0.021530999  0.020664722           37 
 3588000   0.66266617   -6.9146292    926.97643  0.021529553  0.020658224           18 
 3589000   0.69535516   -6.9026839    924.80871  0.021473222  0.020651704           39 
 3590000   0.67278319   -6.8990775     925.0514  0.021472874  0.020645209           27 
 3591000   0.68400123   -6.8946287    924.62236  0.021456938  0.020638702           14 
 3592000   0.68052298   -6.8854252    925.81801  0.021478703  0.020632201           12 
 3593000   0.69135126   -6.8935976    925.94581  0.021475689  0.020625712           26 
 3594000   0.68486869   -6.9180711    926.97264  0.021493522  0.020619208           16 
 3595000    0.6592507   -6.8974553    926.13664  0.021468165  0.020612715           37 
 3596000   0.68792767   -6.9273986    926.13368  0.021462126  0.020606186           39 
 3597000   0.66848071   -6.9284545    925.50495  0.021441594  0.020599646           13 
 3598000   0.68210434   -6.9034108    925.72445  0.021440718  0.020593118           11 
 3599000    0.6609735   -6.9096657    923.84504  0.021391244  0.020586591           39 
 3600000   0.69084119   -6.9054496    925.82645  0.021431168  0.020580075           17 
 3601000   0.69128488   -6.8982519     927.6885  0.021468307   0.02057358           13 
 3602000   0.66888291   -6.9170701    925.42382  0.021409953  0.020567095           18 
 3603000   0.66994316   -6.8915711     928.8044    0.0214822  0.020560607           20 
 3604000   0.67247946    -6.885674    927.81399  0.021453339  0.020554128            9 
 3605000   0.67649535    -6.914426    925.43256  0.021392338  0.020547649           22 
 3606000   0.69195651   -6.8969921    924.88805  0.021373823  0.020541162           11 
 3607000   0.66370898   -6.9312503    925.47544  0.021381467  0.020534667           12 
 3608000   0.67685391    -6.921895    924.02228  0.021341978  0.020528174           33 
 3609000   0.67227864   -6.8949119    924.31744   0.02134288  0.020521677           40 
 3610000   0.67725814   -6.9160742    925.02467  0.021353293  0.020515163           13 
 3611000   0.67946286   -6.9362878    924.66793  0.021339147  0.020508623           28 
 3612000   0.66945181   -6.9361332    922.10994  0.021274223    0.0205021           17 
 3613000    0.6808723   -6.9471127    925.28561  0.021341582   0.02049558           23 
 3614000   0.68035077   -6.9118171      926.431  0.021362087  0.020489077           25 
 3615000   0.67147859   -6.9291317    923.16254  0.021280833  0.020482565           22 
 3616000   0.68420829   -6.9186146    925.75153  0.021334613  0.020476042           26 
 3617000   0.66243365   -6.9224676    924.57475  0.021301602  0.020469531           14 
 3618000   0.67189768   -6.9505532    922.79029  0.021254613  0.020462981           34 
 3619000   0.65312451   -6.9275994    924.21302  0.021281501   0.02045644           24 
 3620000   0.67108812   -6.9185412    924.46253  0.021281366  0.020449934           37 
 3621000   0.66741851   -6.9534338    924.27133  0.021271088  0.020443444           26 
 3622000   0.68173005    -6.939107    925.94039  0.021303617  0.020436948           19 
 3623000   0.68588799   -6.9505873    925.74368  0.021293212  0.020430455           26 
 3624000   0.66492418   -6.9316081    926.52042  0.021305197  0.020423977           28 
 3625000   0.67869288   -6.9224095    924.44923  0.021251707  0.020417532           28 
 3626000    0.6671078   -6.9315363    925.34654  0.021266468  0.020411043           28 
 3627000   0.68314472   -6.9413657    925.40413  0.021261927  0.020404547           30 
 3628000   0.68000965   -6.9678962      924.552  0.021236494  0.020398061           27 
 3629000   0.66966802   -6.9416702    925.24402  0.021246533  0.020391566           58 
 3630000   0.66444493   -6.9407695    925.80933  0.021253658   0.02038507           20 
 3631000   0.67797632   -6.9436585     922.2262   0.02116557  0.020378577           44 
 3632000   0.66026731   -6.9371807    925.88342  0.021243654  0.020372082           22 
 3633000   0.66536378   -6.9458025    923.90889  0.021192515  0.020365597           30 
 3634000   0.66792583   -6.9066653    927.76064   0.02127501  0.020359143           28 
 3635000    0.6750001   -6.9671205    925.41081  0.021215287  0.020352684           68 
 3636000   0.65841431   -6.9722795    926.04683  0.021224029   0.02034619           66 
 3637000   0.68315015   -6.9668333    923.30565  0.021155386  0.020339687           35 
 3638000   0.66353058   -6.9531951    921.39452  0.021105794  0.020333182           43 
 3639000   0.66672995   -6.9454202    924.83753  0.021178839  0.020326692           34 
 3640000   0.65479285   -6.9606423    922.54015  0.021120425   0.02032022           42 
 3641000   0.66244435   -6.9497671    927.36694  0.021225097  0.020313733           36 
 3642000   0.66430668   -6.9304395    925.59983  0.021178836  0.020307258           34 
 3643000   0.67455285   -6.9569076    926.25193  0.021187939  0.020300783          137 
 3644000   0.65606368   -6.9535026    925.91885  0.021174507  0.020294322           43 
 3645000   0.66809937   -6.9487229    924.37816  0.021133474  0.020287856           35 
 3646000   0.66080189    -6.941839     925.8202  0.021160637  0.020281408           43 
 3647000   0.65675175   -6.9434147    926.24393  0.021164517  0.020274959           35 
 3648000   0.67987238   -6.9350675    923.76774  0.021102151  0.020268505           37 
 3649000   0.67455054   -6.9272641    925.90613  0.021145203  0.020262087           29 
 3650000   0.65475493   -6.9555883    925.03807  0.021119591  0.020255668           24 
 3651000   0.67018451   -6.9328429    927.46504  0.021169201  0.020249229           23 
 3652000   0.66373393   -6.9623036    924.17136  0.021088248    0.0202428           27 
 3653000   0.67757951   -6.9442284    925.60438  0.021115165  0.020236352           20 
 3654000   0.66060245   -6.9531201    923.44139  0.021060057  0.020229901           51 
 3655000   0.66397438   -6.9559723    923.51735  0.021056027   0.02022345           39 
 3656000   0.64563324   -6.9733818    922.69528   0.02103153  0.020216995           37 
 3657000   0.66290908   -6.9644624    922.80781  0.021028343  0.020210531           47 
 3658000   0.66936176   -6.9485387    925.62494  0.021086772  0.020204082           16 
 3659000   0.67728709   -6.9512331    923.12179     0.021024  0.020197642           39 
 3660000   0.68059287    -6.950626    923.28028  0.021021864  0.020191192           86 
 3661000   0.66529761   -6.9438331    924.98873  0.021055011  0.020184761           54 
 3662000   0.66872321   -6.9395943      926.819  0.021090911  0.020178341           40 
 3663000   0.67654976   -6.9311147    925.33725  0.021051443  0.020171915           19 
 3664000   0.66439544   -6.9750916    922.66881  0.020985008  0.020165501           50 
 3665000   0.67100895   -6.9240215    924.15897  0.021013164  0.020159093           28 
 3666000   0.65842139   -6.9493694     924.2368  0.021009202  0.020152691           46 
 3667000   0.66797877   -6.9642446    923.91501   0.02099616  0.020146268           42 
 3668000   0.66473522   -6.9613644    923.15787  0.020973234  0.020139821           33 
 3669000   0.66675319    -6.974851    923.93245  0.020985111   0.02013337           26 
 3670000   0.66025341   -6.9725567    925.49566  0.021014888  0.020126919           33 
 3671000    0.6721431   -6.9581839    924.61379  0.020989144   0.02012047           34 
 3672000   0.65990906   -6.9616769    923.86253  0.020966379  0.020114031           40 
 3673000   0.66822169   -6.9740585    925.62504  0.021000659   0.02010759           66 
 3674000   0.66390333   -6.9841268    925.49131   0.02099191  0.020101164           30 
 3675000     0.656852   -6.9801167    922.93444  0.020928218  0.020094717           24 
 3676000    0.6565248   -6.9659127    923.82892  0.020942803  0.020088258           47 
 3677000   0.67689457   -6.9581078    923.79501  0.020936339  0.020081813           33 
 3678000   0.66715915    -6.961121    924.23947  0.020940717  0.020075379           27 
 3679000   0.65150403   -7.0086421    922.61472  0.020898222   0.02006895           27 
 3680000   0.66989609   -6.9639471    924.02628  0.020924508   0.02006251           31 
 3681000   0.65708354   -6.9440158    923.94196  0.020916915  0.020056118           19 
 3682000   0.64271304   -6.9622933    925.14565  0.020938477   0.02004972           18 
 3683000   0.67358594   -6.9660896    923.80597  0.020902479  0.020043336           21 
 3684000   0.65816472   -6.9630432    924.10408  0.020903549  0.020036957           68 
 3685000   0.67230584   -6.9454516    926.58897   0.02095407  0.020030576           59 
 3686000   0.66993912   -6.9720548    924.21292  0.020894667  0.020024172           63 
 3687000   0.66070791   -6.9754781    924.50983  0.020895711  0.020017794           57 
 3688000   0.66477675   -6.9610985    925.76143  0.020918326  0.020011411           65 
 3689000   0.66580479   -6.9562844    925.70674   0.02091142  0.020005043           43 
 3690000   0.65449411   -6.9455621    924.22502   0.02087229  0.019998676           42 
 3691000   0.66623121   -6.9693774    925.27467  0.020890334  0.019992312           27 
 3692000     0.663544   -6.9462831    925.16972  0.020882307   0.01998595           61 
 3693000   0.66203756   -6.9488278    925.65871  0.020887686   0.01997958           18 
 3694000   0.65243386   -6.9728287    926.88941  0.020909795  0.019973219           34 
 3695000   0.66388831   -6.9271741    926.51076  0.020895597  0.019966873           89 
 3696000    0.6565793   -6.9330485    925.26264  0.020861802  0.019960517           42 
 3697000   0.66154982   -6.9416186    928.07161  0.020919475  0.019954175           70 
 3698000   0.66663463   -6.9711971    926.32422  0.020874442  0.019947833           45 
 3699000   0.66523259   -6.9807362    924.59695  0.020829885  0.019941465           38 
 3700000   0.65790011   -6.9780885     926.4423  0.020865818  0.019935105           53 
 3701000   0.66032929   -6.9526854    925.89098  0.020847766  0.019928751           26 
 3702000   0.66026181    -6.961406    923.28736  0.020783526  0.019922394           16 
 3703000   0.66237293   -6.9589499    924.92436  0.020814753  0.019916032           39 
 3704000   0.66127582     -6.95835    925.45035  0.020820967  0.019909674           41 
 3705000   0.66640672    -6.970009     924.8974   0.02080291  0.019903319          117 
 3706000   0.65285537   -6.9759589    925.83062  0.020818282  0.019896963           77 
 3707000   0.65562419   -6.9802489    925.85512  0.020813216  0.019890607           66 
 3708000    0.6377122   -6.9576703     928.3444  0.020863547  0.019884269           63 
 3709000   0.65037345   -6.9557261    925.86543  0.020802225  0.019877918           82 
 3710000   0.64912517   -6.9711045    925.23021   0.02078235  0.019871566           32 
 3711000   0.66502547   -6.9873405    924.06554  0.020750596  0.019865203           56 
 3712000   0.65570673   -7.0015416     926.1341  0.020791444  0.019858832           46 
 3713000   0.64827056   -7.0014999    923.00306  0.020715573  0.019852443           42 
 3714000   0.66539895    -6.994948      924.042  0.020733306  0.019846079           37 
 3715000   0.66121268   -6.9748429    924.69021  0.020742266  0.019839718           49 
 3716000   0.65738054    -6.977187    924.20843   0.02072588  0.019833341           44 
 3717000   0.65684586   -6.9382211    923.88851  0.020713131   0.01982699           33 
 3718000   0.65858988   -6.9743052    925.17437  0.020736381  0.019820646          132 
 3719000   0.65983699   -6.9789653    923.55733  0.020694571  0.019814298           54 
 3720000   0.64877098   -6.9628448    925.11577  0.020723919  0.019807971           57 
 3721000   0.65352567   -6.9848604    926.04352  0.020739128   0.01980163           71 
 3722000   0.64933951   -6.9593944    926.96212  0.020754122   0.01979528           97 
 3723000   0.65397888    -6.973949    925.92455  0.020725323  0.019788955           28 
 3724000   0.66978121   -6.9754917    924.44036  0.020686546  0.019782624           90 
 3725000   0.66002154   -6.9954445    924.06092  0.020672504  0.019776286          142 
 3726000   0.65622875   -6.9907481    925.32416  0.020695209  0.019769953           87 
 3727000   0.64781395   -6.9883218    923.08641  0.020639621  0.019763628           72 
 3728000   0.63740609   -6.9750334    926.90488   0.02071944  0.019757288          149 
 3729000   0.66498071   -6.9895339     926.7328  0.020710038  0.019750973          137 
 3730000   0.64318041   -6.9863061    923.96723    0.0206427  0.019744658           81 
 3731000    0.6476716   -6.9773968    927.47431  0.020715499  0.019738327           98 
 3732000   0.66585187   -6.9781398    924.21432  0.020637154  0.019732006          102 
 3733000    0.6406389   -6.9599044     924.5073  0.020638166  0.019725685          180 
 3734000   0.64218494   -6.9513082    925.99339  0.020665805  0.019719369           97 
 3735000   0.64725102   -6.9786572    925.03603  0.020638912  0.019713055          232 
 3736000   0.65994207    -6.994979    923.80374  0.020605901  0.019706749          100 
 3737000   0.64651923   -6.9746541    925.98881  0.020649113  0.019700436          154 
 3738000   0.65753615   -7.0181494    922.21531  0.020559464  0.019694109          203 
 3739000   0.66286956   -6.9758275    925.66787  0.020630914   0.01968779          113 
 3740000   0.66512371   -7.0047851    924.19196  0.020592512  0.019681475          164 
 3741000   0.64569508   -7.0015716    924.53176  0.020594577  0.019675158          174 
 3742000   0.65266259   -6.9777488    924.46315  0.020587546  0.019668839          162 
 3743000   0.65374748   -6.9638369    928.24397  0.020666221  0.019662524          105 
 3744000   0.65499261   -6.9871278    923.82039  0.020562242  0.019656208          158 
 3745000   0.65599195    -7.003082     924.8987  0.020580745   0.01964988          181 
 3746000   0.65222598   -7.0037335    925.02164  0.020577986   0.01964355          145 
 3747000   0.65282724   -6.9755711    923.89598   0.02054746  0.019637251          137 
 3748000   0.64443721   -7.0140596    923.04111   0.02052297  0.019630951          221 
 3749000   0.65417616    -6.987126    925.74569  0.020577614  0.019624642          182 
 3750000   0.65202025    -6.998586    924.55316  0.020545626  0.019618368          185 
 3751000   0.64928761   -7.0119604     923.5665  0.020518228  0.019612076          176 
 3752000   0.64745363   -7.0102637    925.66992  0.020559478  0.019605779          261 
 3753000   0.64587048   -7.0130041    924.73004   0.02053313   0.01959948          245 
 3754000   0.65735894   -6.9879501    925.26659  0.020539571  0.019593192          185 
 3755000   0.65042475   -7.0013146    925.18155  0.020532214  0.019586923          175 
 3756000   0.66170894   -6.9907453    925.00646  0.020522863  0.019580667          184 
 3757000   0.65363677   -7.0048253    925.42329  0.020526646   0.01957441          210 
 3758000   0.64834404   -6.9954091    924.21799  0.020494456  0.019568128          216 
 3759000   0.65847029   -6.9872145    923.55239  0.020474248  0.019561844          126 
 3760000   0.64700759   -6.9676764    927.84277  0.020563891   0.01955558          157 
 3761000   0.65097188   -6.9766741    925.47413  0.020505941  0.019549325          108 
 3762000   0.64654929   -6.9669112    926.04271  0.020513085  0.019543073          110 
 3763000   0.64560011   -6.9642834    926.46343  0.020516951  0.019536817          100 
 3764000    0.6539761   -7.0186191    925.07579  0.020480778  0.019530548          157 
 3765000   0.65308935   -6.9926935    926.84781   0.02051456  0.019524283          106 
 3766000   0.65219242   -6.9983514    925.78056  0.020485496  0.019518016          156 
 3767000   0.65760042   -7.0066819    924.63319  0.020454676   0.01951175          225 
 3768000   0.65405464   -6.9920628    927.01463  0.020501916  0.019505486          160 
 3769000   0.64881827   -6.9912079    922.90074  0.020405517  0.019499239          284 
 3770000   0.65672528   -7.0139454    924.67569  0.020439339  0.019492976           95 
 3771000    0.6413612   -7.0111082    922.18763  0.020378936  0.019486749          174 
 3772000   0.65632424   -7.0064208    925.22624  0.020440665  0.019480488           99 
 3773000   0.64329746   -7.0010219    923.83436  0.020404505  0.019474235           95 
 3774000    0.6322885   -7.0113524    922.84765  0.020377311   0.01946796          147 
 3775000   0.64248319   -7.0198067    923.43467  0.020384871  0.019461688          165 
 3776000   0.64496909   -7.0408663    922.80211  0.020365513  0.019455406          166 
 3777000   0.64611706   -7.0167164    923.75099  0.020381056  0.019449128          152 
 3778000    0.6531325   -6.9841664    924.28079  0.020387347  0.019442828          103 
 3779000   0.64469003   -7.0221126    924.91639  0.020395969  0.019436548          116 
 3780000   0.64552844   -7.0187117    924.47458  0.020380833  0.019430277          120 
 3781000   0.62794723   -7.0225108    925.07797  0.020388741  0.019424003          139 
 3782000    0.6500438   -6.9949018    924.01545  0.020359938  0.019417711          100 
 3783000    0.6494632   -7.0378192    923.87765  0.020351521  0.019411453           60 
 3784000   0.64917984   -7.0224563    925.54795  0.020382927  0.019405176           81 
 3785000   0.63401521   -7.0115153    925.24958  0.020370973  0.019398916          232 
 3786000   0.63483614   -7.0293836    922.44996   0.02030397  0.019392656          114 
 3787000   0.64372913   -7.0088595    924.09242  0.020334751  0.019386389           97 
 3788000   0.62290014   -7.0492163    924.27445  0.020333387  0.019380126          284 
 3789000    0.6326146   -7.0139941    923.56165  0.020312344  0.019373878          266 
 3790000   0.63858143   -7.0174857    921.53285  0.020262376   0.01936763          246 
 3791000   0.64220746   -7.0186352    924.40853  0.020320244  0.019361373          147 
 3792000    0.6478877   -7.0059078    926.60841   0.02036323  0.019355136          204 
 3793000   0.65238641   -7.0155817     926.1574  0.020347952   0.01934891           66 
 3794000   0.65670237   -7.0176977    925.55822  0.020329428  0.019342673          157 
 3795000   0.65142574   -7.0102725    925.10551  0.020314131  0.019336456          217 
 3796000   0.65634777   -6.9947047    924.14515  0.020287696  0.019330241          158 
 3797000   0.64575778   -7.0265933    923.60687   0.02027054  0.019324005          165 
 3798000   0.64187925   -7.0330492     922.9889  0.020251643  0.019317769          215 
 3799000   0.64176411   -7.0246645    925.17726  0.020294316  0.019311501          141 
 3800000   0.64880887   -7.0199867    922.11845  0.020221896  0.019305246          218 
 3801000   0.64225425   -7.0539835    921.56153  0.020204366  0.019298989          210 
 3802000   0.63934468   -7.0417303    923.21593  0.020235313  0.019292722          198 
 3803000   0.63715563   -7.0549389    923.69376  0.020240463  0.019286449          220 
 3804000   0.63742344   -7.0494742    921.37309  0.020184304  0.019280156          183 
 3805000   0.64816125   -7.0771237    923.04785  0.020215678  0.019273876          192 
 3806000   0.64420061   -7.0373346    922.85027   0.02020604  0.019267611          230 
 3807000   0.64827472   -7.0587653    921.73518  0.020176324  0.019261346          270 
 3808000   0.64379272   -7.0426782    923.57922   0.02021138  0.019255079          239 
 3809000   0.64231563   -7.0498979    922.80148  0.020189058  0.019248808          220 
 3810000   0.63715683   -7.0369817    924.18753  0.020214075  0.019242549          223 
 3811000   0.65219844   -7.0574962    923.14775  0.020186035  0.019236287          218 
 3812000   0.64983816   -7.0563174    919.95781  0.020111005  0.019230026          273 
 3813000   0.65257287   -7.0368532     923.7328  0.020188233  0.019223761          276 
 3814000   0.63976907    -7.048248    922.00551    0.0201452  0.019217487          190 
 3815000   0.64497566   -7.0337824    921.89901  0.020137593  0.019211203          213 
 3816000   0.63444924   -7.0449661     919.5143  0.020080239  0.019204939          220 
 3817000   0.64667416   -7.0663806    922.44285  0.020138915  0.019198658          291 
 3818000   0.64774601   -7.0386507    922.94537  0.020144608  0.019192382          281 
 3819000   0.63930242   -7.0385113    923.27218  0.020146465  0.019186148          301 
 3820000   0.63213656   -7.0594481    921.28161  0.020097766  0.019179885          353 
 3821000   0.62940568   -7.0560181    920.89546  0.020084085  0.019173624          356 
 3822000   0.65214018    -7.035281    922.42283  0.020112132  0.019167375          353 
 3823000   0.63213131   -7.0372844    922.51046  0.020108781  0.019161127          269 
 3824000   0.64088058    -7.053535    922.20159  0.020096792  0.019154885          343 
 3825000   0.62127112   -7.0439761    920.72526  0.020059374  0.019148633          311 
 3826000   0.62400243   -7.0386213    922.70677   0.02009729  0.019142384          263 
 3827000   0.63669547   -7.0195285    924.27606   0.02012621  0.019136157          241 
 3828000   0.63245251   -7.0507356    924.36681  0.020122928  0.019129925          337 
 3829000   0.65424029   -7.0356658    922.72674  0.020081978  0.019123705          257 
 3830000    0.6232486   -7.0236226    922.93409  0.020081247    0.0191175          185 
 3831000   0.62937902   -7.0559033    923.35632  0.020085189  0.019111266          243 
 3832000   0.65064852   -7.0814728    920.11311  0.020009419  0.019105018          271 
 3833000   0.62666945   -7.0412563    923.37046  0.020075017  0.019098766          247 
 3834000   0.64611684    -7.054816     921.2102  0.020022827  0.019092529          227 
 3835000   0.63559401   -7.0706105    921.82084  0.020030874  0.019086312          314 
 3836000   0.63704978   -7.0358188    923.42917  0.020060592  0.019080098          219 
 3837000   0.65211834   -7.0390096    922.91228  0.020044138  0.019073873          182 
 3838000   0.65337115   -7.0445316    922.12787  0.020021884  0.019067644          179 
 3839000   0.63586673   -7.0584244    923.94443    0.0200561  0.019061422          212 
 3840000   0.63988447   -7.0501785    921.63384  0.020000734  0.019055213          156 
 3841000   0.63092121   -7.0478988    922.58161   0.02001609  0.019048999          207 
 3842000   0.64724833   -7.0518655    922.32748  0.020005368  0.019042799          227 
 3843000   0.64275923   -7.0368008    923.23497  0.020019841  0.019036592          283 
 3844000   0.64343068   -7.0546065    923.21626  0.020014227    0.0190304          216 
 3845000    0.6259276   -7.0284447    920.47349  0.019949577  0.019024188          267 
 3846000   0.63543921    -7.041541    923.63103  0.020012806  0.019017979          159 
 3847000   0.65113627   -7.0790095    921.76554  0.019967194   0.01901178          221 
 3848000   0.64198653   -7.0345168    923.54425  0.020000525  0.019005592          298 
 3849000   0.63414134   -7.0388058    922.76409  0.019978438  0.018999385          264 
 3850000   0.65063521   -7.0612979    923.10414  0.019980609  0.018993173          222 
 3851000   0.64408869    -7.058919    922.16932  0.019955192  0.018986974          198 
 3852000   0.63649756   -7.0536905    921.85887  0.019943295  0.018980783          244 
 3853000   0.63842747   -7.0421335    924.29286  0.019990762  0.018974597          218 
 3854000   0.63705738   -7.0592284    921.94103  0.019934722  0.018968431          159 
 3855000   0.63579057   -7.0251293    922.51603  0.019941981  0.018962267          181 
 3856000   0.62789731    -7.040084    925.12622  0.019993219  0.018956095          177 
 3857000   0.62752653   -7.0353475    923.81319  0.019959666  0.018949937          263 
 3858000    0.6369252   -7.0278078    925.48061  0.019990509  0.018943793          185 
 3859000   0.63557583   -7.0364485    922.19259  0.019914326  0.018937649          152 
 3860000   0.64195139   -7.0442107    922.69654  0.019920046  0.018931494          158 
 3861000   0.64492379   -7.0400513    922.65427  0.019913975  0.018925343          192 
 3862000   0.63694894   -7.0538992    923.53308  0.019927781  0.018919184          224 
 3863000    0.6413043   -7.0556111     919.8136  0.019842385  0.018913009          205 
 3864000   0.63250118   -7.0604041     921.8273  0.019880678  0.018906846          233 
 3865000    0.6249287   -7.0600583    924.11159  0.019924786  0.018900686          274 
 3866000    0.6480107   -7.0625656    921.27062  0.019858394  0.018894525          263 
 3867000   0.63502343   -7.0649646    922.48958  0.019879527  0.018888364          257 
 3868000   0.63784956   -7.0690204    924.28697  0.019913111   0.01888219          248 
 3869000   0.62983759   -7.0682689     920.6991  0.019830686  0.018876027          244 
 3870000   0.64791266   -7.0699266    923.17493  0.019878874  0.018869865          269 
 3871000   0.63257238   -7.0597647    922.01175  0.019848699  0.018863696          284 
 3872000   0.62235625   -7.0496173    920.36542   0.01980814  0.018857535          218 
 3873000   0.62185336   -7.0687946    923.30595  0.019866296  0.018851387          194 
 3874000   0.62550299   -7.0501173    922.08864  0.019834982  0.018845231          166 
 3875000    0.6233722   -7.0431091    921.79365  0.019823519  0.018839089          281 
 3876000   0.63275618   -7.0536817    921.99735  0.019822784  0.018832933          157 
 3877000   0.64079391   -7.0629289    921.14615  0.019799376  0.018826799          197 
 3878000   0.62088387   -7.0782832    921.60007  0.019804024  0.018820658          193 
 3879000    0.6311582   -7.0597259    922.55171  0.019819363  0.018814511          255 
 3880000   0.62673659   -7.0777144    923.38906  0.019832239  0.018808364          186 
 3881000   0.63363593   -7.0742027    922.04678  0.019798307  0.018802198          228 
 3882000   0.63477262   -7.0688657    922.55119  0.019804035  0.018796042          160 
 3883000   0.62443862   -7.0587485    920.99136   0.01976546  0.018789899          279 
 3884000   0.63604485    -7.074675    922.60138  0.019794915  0.018783742           84 
 3885000   0.62265695   -7.0746361    923.37358  0.019806383  0.018777586          172 
 3886000   0.62551299   -7.0697087    920.84856  0.019747138  0.018771441          191 
 3887000    0.6235126   -7.0674178    922.75033   0.01978283  0.018765312          184 
 3888000   0.63795958   -7.0733471    922.25802   0.01976719  0.018759164          132 
 3889000   0.61670084   -7.0794419    920.67438  0.019728173  0.018753029          255 
 3890000   0.63442494   -7.0821637    921.37749  0.019738164   0.01874687          295 
 3891000   0.63706637   -7.0690352    920.87061  0.019722235  0.018740711          286 
 3892000   0.62911493   -7.0996859    920.69427  0.019713392  0.018734558          255 
 3893000   0.62042933    -7.067925    921.85255  0.019733123  0.018728405          253 
 3894000   0.62846308   -7.0891447     923.6256  0.019765999  0.018722266          214 
 3895000   0.63427443   -7.0810624    921.08778  0.019706628  0.018716139          153 
 3896000   0.63186225   -7.0697128    922.56927  0.019733258  0.018710018          258 
 3897000    0.6384306   -7.0732837    920.91584  0.019692837  0.018703893          134 
 3898000   0.61066339   -7.0647831    921.46675  0.019699563  0.018697782          249 
 3899000   0.62580959   -7.0824389    923.39993  0.019735828  0.018691671          272 
 3900000   0.63336656   -7.0588884    923.76519  0.019738572   0.01868555          223 
 3901000   0.62311049   -7.0785044    923.01225  0.019717428  0.018679423          295 
 3902000   0.63037011   -7.0787029    921.43856  0.019678766  0.018673326          262 
 3903000   0.62162538    -7.067307    923.03381  0.019707785  0.018667216          255 
 3904000   0.62701917   -7.0840292     920.6104  0.019651008  0.018661117          319 
 3905000   0.64309975   -7.0664488    922.41284   0.01968444  0.018655018          214 
 3906000   0.63002046   -7.0802121    922.67961  0.019685091  0.018648916          243 
 3907000   0.61891865   -7.0823556      920.624  0.019636209  0.018642813          279 
 3908000   0.62589144   -7.0735914    922.36015  0.019668205   0.01863671          371 
 3909000   0.62626182    -7.081235    922.34584  0.019662869  0.018630599          349 
 3910000   0.62766829   -7.0686523    921.63062  0.019642596  0.018624488          278 
 3911000   0.60872568   -7.0791757    922.10991  0.019647786  0.018618411          329 
 3912000   0.63019474   -7.0784614     919.9629  0.019597028   0.01861232          229 
 3913000   0.61798698   -7.1021349    921.12354  0.019616738  0.018606237          295 
 3914000    0.6197386   -7.0817229    921.14715  0.019612229  0.018600156          232 
 3915000   0.63656848   -7.0763454    922.86413  0.019643766  0.018594074          297 
 3916000   0.63351918   -7.0910908    924.20655  0.019667317  0.018588012          230 
 3917000    0.6261693   -7.0654392    923.12846   0.01963936   0.01858194          192 
 3918000   0.63060279   -7.0668198    922.59611  0.019623024  0.018575881          244 
 3919000   0.63396817   -7.0664485    920.69444   0.01957758  0.018569824          203 
 3920000   0.62256489   -7.0663927    924.62442  0.019656131  0.018563766          227 
 3921000   0.61270692   -7.0916624     921.9637   0.01959457  0.018557693          345 
 3922000   0.61572223   -7.1039573     921.3966  0.019577524  0.018551613          213 
 3923000   0.61963271   -7.0944724    920.59661   0.01955554  0.018545528          272 
 3924000   0.63096809   -7.1058643    921.91986  0.019578658  0.018539437          401 
 3925000   0.61303592   -7.0904346    921.29891  0.019560486  0.018533349          282 
 3926000   0.62471314   -7.1194512    919.23212  0.019511634  0.018527257          461 
 3927000   0.62253179   -7.0496567    921.89117  0.019563093  0.018521188          410 
 3928000   0.63817711   -7.0813191    919.88888  0.019515633  0.018515113          440 
 3929000   0.62632888   -7.0940926    922.88363  0.019574184  0.018509043          425 
 3930000   0.62882587   -7.0731962    923.00445  0.019571765  0.018502987          366 
 3931000   0.62639255   -7.0996747    922.27793  0.019551385  0.018496939          431 
 3932000   0.62545774   -7.0739095    921.71167  0.019534411  0.018490884          401 
 3933000   0.60646164   -7.0945968    920.93863  0.019513065  0.018484824          410 
 3934000   0.62735239   -7.1001889    918.57938   0.01945813  0.018478748          447 
 3935000   0.61585195   -7.0795548     923.2646  0.019552406  0.018472681          374 
 3936000   0.61442547   -7.1018145     922.4319  0.019529808  0.018466634          342 
 3937000    0.6232629   -7.0901561    921.67351  0.019508795  0.018460571          342 
 3938000    0.6129543   -7.1027114    920.86811  0.019486798  0.018454494          432 
 3939000   0.61772044   -7.1148667    920.60526   0.01947629  0.018448426          401 
 3940000   0.63007829    -7.096653    921.44917  0.019489196  0.018442356          444 
 3941000   0.60654413   -7.1069334    922.68752  0.019510436  0.018436285          487 
 3942000   0.62082703    -7.085304    920.96455  0.019469063  0.018430218          475 
 3943000   0.63148308   -7.1260707    922.57636   0.01949819  0.018424147          474 
 3944000   0.61420439   -7.0897129    920.97479  0.019459406  0.018418098          368 
 3945000   0.61589231   -7.1227455    919.66469    0.0194268  0.018412043          344 
 3946000   0.60628465   -7.1308452    921.44422  0.019459457  0.018405984          446 
 3947000   0.60784762   -7.1149427    920.53574  0.019435346  0.018399915          434 
 3948000   0.62132625   -7.1081791    919.97366  0.019418559  0.018393856          444 
 3949000   0.62530988   -7.1099952    922.30104  0.019462755  0.018387799          373 
 3950000   0.63322108   -7.0947492    924.51768  0.019504592  0.018381767          407 
 3951000   0.61523897   -7.1016692    920.19702  0.019408526  0.018375718          530 
 3952000   0.61329843   -7.0933228    921.69135  0.019435125  0.018369671          545 
 3953000   0.62062118   -7.1052215    919.48095   0.01938361  0.018363628          574 
 3954000   0.62611456   -7.1005814    921.13976  0.019413669  0.018357576          443 
 3955000   0.61294212   -7.0947796    921.88187  0.019424397  0.018351532          391 
 3956000   0.61702626   -7.1149249    918.91409   0.01935697  0.018345481          423 
 3957000   0.62181603   -7.1147316    920.67893  0.019389245  0.018339432          363 
 3958000   0.62130015   -7.0875708    922.51639  0.019423033  0.018333398          435 
 3959000   0.64318357   -7.1283268    918.76047  0.019339069  0.018327369          260 
 3960000   0.61571602   -7.1263776    920.88792  0.019378955  0.018321321          192 
 3961000   0.60688791   -7.1199435    920.80658  0.019372351  0.018315274          397 
 3962000   0.62360661   -7.1182902     919.7817  0.019345905  0.018309218          584 
 3963000   0.62241345    -7.125821    918.30652  0.019310003  0.018303158          553 
 3964000   0.60686752   -7.1399864    918.43383  0.019307808  0.018297099          569 
 3965000   0.63567705   -7.1195422     920.5239  0.019346866  0.018291051          571 
 3966000   0.61604137   -7.1308182    920.42416  0.019339892  0.018285007          522 
 3967000   0.61407212   -7.1391036    918.16701  0.019287602  0.018278952          528 
 3968000    0.6004684    -7.104686    920.72732  0.019336511  0.018272911          518 
 3969000   0.61074762   -7.1517101    917.26044  0.019258848  0.018266852          524 
 3970000   0.62129653   -7.1294362    919.89611  0.019309322  0.018260802          329 
 3971000   0.61579328   -7.1352057    919.31876  0.019292344  0.018254752          559 
 3972000   0.61292575   -7.1221326    918.51118  0.019270543  0.018248711          574 
 3973000   0.62892815   -7.1433312    918.50829  0.019265632  0.018242664          632 
 3974000   0.63046193   -7.1305669    919.14726  0.019274184  0.018236628          590 
 3975000   0.62518373    -7.139616    919.18404  0.019270106  0.018230604          645 
 3976000   0.62341643   -7.1319147    919.47029  0.019271259  0.018224566          572 
 3977000    0.6232064   -7.1213211    919.30907  0.019263035   0.01821854          672 
 3978000   0.59847304   -7.1278284    920.37035  0.019280425  0.018212523          631 
 3979000   0.59806619   -7.1274932    919.62804  0.019260033  0.018206505          665 
 3980000   0.62779703   -7.1271117    920.30857  0.019269442  0.018200496          787 
 3981000   0.63830131   -7.1317025      918.742  0.019231809  0.018194499          673 
 3982000    0.6225936   -7.1244921    919.80391  0.019249203  0.018188501          605 
 3983000   0.61787149   -7.1434133    918.77761  0.019222898  0.018182495          481 
 3984000   0.60407913   -7.1341735    920.67615  0.019257784  0.018176488          615 
 3985000    0.6058866   -7.1294344    919.23934  0.019222906  0.018170475          597 
 3986000   0.60752686   -7.1322446    922.16728  0.019279296  0.018164463          642 
 3987000   0.62129954   -7.1314931     919.7828  0.019224622  0.018158455          623 
 3988000   0.61096417   -7.1463335    919.27393  0.019209168   0.01815245          635 
 3989000    0.6245375   -7.1407347    920.77061  0.019235619  0.018146449          683 
 3990000   0.61589065   -7.1242123    918.72672   0.01918811  0.018140441          587 
 3991000   0.61971799   -7.1567494    917.30577  0.019153633   0.01813442          586 
 3992000    0.6149632   -7.1497722    919.12063   0.01918672  0.018128407          515 
 3993000   0.61491296   -7.1415382    918.62919  0.019171658  0.018122393          604 
 3994000   0.61284979   -7.1472011    918.57567  0.019165742  0.018116376          632 
 3995000   0.60902566   -7.1425012    916.47769  0.019117182  0.018110364          737 
 3996000   0.60729663   -7.1613539    918.58467  0.019156337  0.018104352          756 
 3997000   0.59235111     -7.14331    919.69581   0.01917471  0.018098334          751 
 3998000   0.60399301    -7.135991    919.69726  0.019169944  0.018092321          678 
 3999000   0.61679346   -7.1396188    918.68279  0.019144011    0.0180863          638 
 4000000   0.61711726   -7.1337955    918.68849  0.019139344  0.018080286          688 
 4001000   0.61745571   -7.1275294    918.21612  0.019124721  0.018074277          706 
 4002000   0.62037646   -7.1601243    918.45208  0.019124856  0.018068263          662 
 4003000    0.6161727   -7.1514243    919.34095  0.019138583  0.018062261          675 
 4004000   0.61506706   -7.1485784    920.16832  0.019151022  0.018056263          653 
 4005000   0.62394285   -7.1526048    918.87664  0.019119364  0.018050275          753 
 4006000   0.60676646   -7.1250852    920.95157  0.019157754  0.018044298          659 
 4007000   0.60920222   -7.1344381    918.33389  0.019098534  0.018038326          650 
 4008000   0.60118243   -7.1449707    916.96224  0.019065249   0.01803234          698 
 4009000    0.6095503   -7.1526959    919.07669  0.019104446  0.018026342          732 
 4010000   0.60256841   -7.1524495    918.12968  0.019080002  0.018020346          651 
 4011000   0.60596864    -7.157393    918.68332  0.019086747  0.018014378          681 
 4012000   0.61636741   -7.1300768    919.81479  0.019105492   0.01800841          664 
 4013000   0.60940602   -7.1243321    920.16002    0.0191079  0.018002442          553 
 4014000   0.60225731   -7.1286115    919.65079  0.019092567  0.017996497          559 
 4015000   0.60608345   -7.1396419    918.42511  0.019062373  0.017990534          487 
 4016000     0.620668   -7.1424827    919.35734   0.01907697  0.017984562          571 
 4017000   0.61714911   -7.1331803    918.47876  0.019053995  0.017978596          682 
 4018000   0.60384852   -7.1212144    919.05014  0.019061103  0.017972635          633 
 4019000   0.59953195   -7.1370986    918.02591  0.019035123  0.017966658          628 
 4020000   0.60138474   -7.1549154    919.20417  0.019054813  0.017960692          577 
 4021000   0.60937228   -7.1480865    919.79009  0.019062217  0.017954714          637 
 4022000   0.61757609   -7.1443015     918.5642  0.019032078   0.01794875          787 
 4023000   0.59885432   -7.1227112    918.23486  0.019020525  0.017942799          725 
 4024000   0.60489777   -7.1452531    916.41182  0.018978045  0.017936841          790 
 4025000   0.61011676   -7.1571283    918.20152  0.019010383  0.017930889          851 
 4026000     0.615281   -7.1386327    916.61284  0.018972778  0.017924929          670 
 4027000   0.60553166   -7.1472452    918.84324  0.019014222  0.017918966          664 
 4028000    0.5972472   -7.1520086    918.65148  0.019005534   0.01791302          571 
 4029000   0.61543729   -7.1428584    918.10593  0.018989533  0.017907085          588 
 4030000   0.59945651   -7.1444478    920.62391  0.019036888  0.017901139          713 
 4031000   0.60386069   -7.1434146    918.56034  0.018989505   0.01789521          658 
 4032000   0.60158489   -7.1226731    917.84066  0.018969921  0.017889274          762 
 4033000   0.59827821    -7.136765    921.41623  0.019039099  0.017883329          595 
 4034000   0.60948523   -7.1517696    918.25631  0.018969102  0.017877376          608 
 4035000   0.61104863   -7.1409272    917.76607  0.018954277  0.017871412          747 
 4036000   0.60071749   -7.1609954    916.37975  0.018920956  0.017865457          870 
 4037000   0.60885105   -7.1420416    917.93892  0.018948454  0.017859493          811 
 4038000   0.60847569    -7.150251    916.34843  0.018910938  0.017853542          685 
 4039000   0.60248475   -7.1405372    917.62859  0.018932669  0.017847592          695 
 4040000    0.5999017   -7.1711503    916.41353  0.018902919  0.017841648          789 
 4041000   0.60945718   -7.1741588    917.33415  0.018917227  0.017835697          812 
 4042000   0.61180433   -7.1588321    916.32583  0.018891758  0.017829756          793 
 4043000   0.59600901   -7.1488763    918.99613  0.018942125  0.017823824          706 
 4044000   0.60293584   -7.1524012    916.47296  0.018885447  0.017817882          661 
 4045000   0.60204803   -7.1600797     918.3285  0.018919005   0.01781196          809 
 4046000   0.59687309   -7.1667263    919.15438  0.018931339  0.017806034          932 
 4047000   0.60202592   -7.1601018    917.53928  0.018893404  0.017800102          719 
 4048000   0.60440129   -7.1560833    917.63524  0.018890712   0.01779417          898 
 4049000   0.60853498   -7.1703997    917.19266  0.018876938  0.017788244          934 
 4050000   0.59774795   -7.1611841    917.57794  0.018880205  0.017782312          667 
 4051000   0.59340789   -7.1615446    918.38894  0.018892227   0.01777639          788 
 4052000   0.60146875   -7.1488274    917.96815  0.018878911  0.017770476          863 
 4053000   0.59700625   -7.1654304    918.08558  0.018876667  0.017764568          740 
 4054000   0.60217308   -7.1703413    917.72383  0.018864575  0.017758644          701 
 4055000   0.60859213   -7.1588738    919.03495  0.018886867  0.017752726          939 
 4056000   0.61311291   -7.1651515      916.747  0.018835203  0.017746813          760 
 4057000   0.60015822   -7.1799667    918.30519  0.018862567  0.017740905          854 
 4058000   0.60759192   -7.1832545    918.55076  0.018862961  0.017734997          747 
 4059000   0.61040244   -7.1601317     920.0943  0.018890004  0.017729101          819 
 4060000   0.59866001   -7.1566828    918.67129  0.018856143  0.017723187          825 
 4061000    0.6033485   -7.1592719    917.51342   0.01882774  0.017717268          731 
 4062000   0.61278289   -7.1656124    919.55856  0.018865062  0.017711365          727 
 4063000    0.6075532   -7.1719649    917.59582  0.018820162  0.017705468          813 
 4064000   0.60501545   -7.1803516    917.59278  0.018815469  0.017699549          717 
 4065000   0.59080858    -7.183385    915.96267  0.018777423  0.017693627          874 
 4066000   0.61098675    -7.179065    916.30542  0.018779829  0.017687723          808 
 4067000   0.60394261   -7.1772798    916.88874  0.018787164  0.017681824          848 
 4068000   0.61336055   -7.1756571    916.27967  0.018770069  0.017675934          928 
 4069000    0.5978351    -7.184584     916.7795  0.018775692  0.017670034          836 
 4070000   0.60363628    -7.185015     917.7506  0.018790962  0.017664133          942 
 4071000   0.60208503   -7.1843065    917.06838  0.018772381   0.01765823          783 
 4072000   0.59853378   -7.1862313    918.30378  0.018793054  0.017652324          844 
 4073000   0.60362727   -7.1770066    916.62906  0.018754175  0.017646426          921 
 4074000   0.60314939   -7.1658687    916.59845  0.018748946  0.017640542          908 
 4075000   0.60439966   -7.1608057     919.7016  0.018807804  0.017634657          754 
 4076000   0.59390193   -7.1691736    917.19685   0.01875198  0.017628779          792 
 4077000   0.59998391   -7.1721944    916.62783   0.01873575  0.017622905          843 
 4078000   0.60334613   -7.1699778    917.82325  0.018755584   0.01761702          895 
 4079000   0.58773624    -7.175139    917.76605  0.018749817  0.017611153          783 
 4080000   0.60670529   -7.1801259    916.26466  0.018714556  0.017605286          805 
 4081000   0.59245339   -7.1867848    916.73095  0.018719492    0.0175994          771 
 4082000   0.59277436   -7.1643148    917.34775  0.018727498  0.017593515          796 
 4083000    0.6082377   -7.1757468    916.97676  0.018715339  0.017587623          918 
 4084000    0.6087279   -7.1795012    917.01573  0.018711552  0.017581733          820 
 4085000   0.60127916    -7.192347    917.48031  0.018716449  0.017575855          832 
 4086000   0.59171341   -7.1602438    919.58416  0.018754776  0.017569974          845 
 4087000    0.5865132   -7.1897014    915.31073  0.018663052   0.01756409          946 
 4088000   0.59407548   -7.1773534    917.34285  0.018699911  0.017558221          997 
 4089000   0.60032298   -7.1891874    916.35798  0.018675266  0.017552346          961 
 4090000   0.57824822    -7.180831    916.48729  0.018673335  0.017546462          922 
 4091000   0.60192586   -7.1887638    914.53685   0.01862904  0.017540577          889 
 4092000   0.60016447   -7.1697613    917.38134  0.018682416  0.017534705          860 
 4093000   0.60628723   -7.1957425    914.35806  0.018616297  0.017528822          970 
 4094000   0.59970292   -7.2044712    915.10871   0.01862703  0.017522955         1044 
 4095000   0.59652898   -7.1748055    916.89437  0.018658819  0.017517085          963 
 4096000   0.59519824   -7.1935036    915.45117  0.018624902  0.017511214         1018 
 4097000   0.58604174   -7.2161502    914.72326   0.01860555  0.017505341         1051 
 4098000   0.59012544   -7.1936413     915.0198   0.01860704  0.017499456          977 
 4099000   0.59857064   -7.1863598    916.31337  0.018628799  0.017493594         1129 
 4100000     0.593835   -7.1961909    916.13775  0.018620686  0.017487722         1143 
 4101000    0.5946078   -7.1514898    916.28546  0.018619147  0.017481868         1054 
 4102000   0.59691835   -7.1826168    917.66608  0.018642656  0.017476014         1084 
 4103000   0.59753906   -7.1745627    916.60656  0.018616593  0.017470152         1102 
 4104000   0.60488085   -7.1855181    917.31032  0.018626347  0.017464299         1161 
 4105000   0.59971095   -7.2045519    913.33562  0.018541121  0.017458448         1118 
 4106000   0.58762993   -7.1982875    916.21944  0.018595134  0.017452595         1067 
 4107000   0.59034237   -7.1960709    916.24935  0.018591213  0.017446749         1122 
 4108000   0.58468234   -7.2106612    916.83845  0.018598638  0.017440907         1070 
 4109000   0.59093061    -7.203404     916.2918  0.018583025  0.017435066          954 
 4110000   0.60661836   -7.1786216    916.82931  0.018589402  0.017429223         1088 
 4111000   0.59580656   -7.1931184    919.44877  0.018637979  0.017423382          994 
 4112000   0.59644185   -7.1982365    914.84685  0.018540184  0.017417549         1131 
 4113000   0.58728848   -7.2064897    915.58287  0.018550589  0.017411704         1069 
 4114000   0.57909493   -7.2118341    915.60259  0.018546479  0.017405855         1073 
 4115000   0.58257974    -7.204852    915.00699  0.018529911  0.017400016         1062 
 4116000   0.59433663   -7.1965521    914.73424  0.018519887   0.01739417         1014 
 4117000   0.59888711   -7.1966938    915.60588  0.018533031  0.017388337         1064 
 4118000   0.58687793   -7.2211019    916.02189  0.018536949  0.017382499         1088 
 4119000    0.5909673   -7.1976277    916.42527   0.01854061  0.017376661         1024 
 4120000   0.58472905   -7.2030001    915.66947  0.018520823  0.017370831         1082 
 4121000   0.58765472   -7.2012667    915.32395  0.018509341  0.017364998         1161 
 4122000   0.60141225   -7.2022459     914.0048  0.018478182  0.017359154         1142 
 4123000   0.61215944   -7.2074982    913.58007  0.018465116  0.017353317         1142 
 4124000   0.58680311    -7.202562    915.35171  0.018496438  0.017347476         1130 
 4125000   0.58992568   -7.2112981    914.37011  0.018472123  0.017341643         1095 
 4126000   0.60784122   -7.2373009    915.56295  0.018491738  0.017335815          980 
 4127000   0.59885429   -7.2184585    915.56365  0.018487272  0.017329981          931 
 4128000   0.59371917   -7.1864993    915.48788  0.018481264  0.017324162         1110 
 4129000   0.58619539   -7.2109501    916.70189  0.018501289  0.017318335         1096 
 4130000   0.59253667   -7.2201235    915.28428  0.018468206  0.017312513         1059 
 4131000    0.5955083   -7.2059805    913.97035   0.01843723  0.017306689          999 
 4132000   0.58872675   -7.1942341    915.40539  0.018461709  0.017300872          948 
 4133000   0.59514556   -7.2078206    915.43872  0.018457914  0.017295057         1040 
 4134000   0.58754762   -7.2303122     914.6398  0.018437345  0.017289245         1147 
 4135000    0.5959752   -7.2178405    915.54293  0.018451087  0.017283432         1031 
 4136000   0.59515147   -7.2005648    914.79673  0.018431591   0.01727761         1152 
 4137000   0.58182781   -7.2085191    913.98599  0.018410805  0.017271808         1059 
 4138000   0.58730409   -7.2228122    915.37882  0.018434405  0.017266002         1102 
 4139000    0.5937818   -7.2155917    914.13188  0.018404846  0.017260187         1105 
 4140000   0.59357443   -7.2181237    915.77293  0.018433433  0.017254377         1011 
 4141000    0.5867402   -7.2284223    913.46754  0.018382588  0.017248563         1193 
 4142000   0.56828817   -7.2105259    914.95427  0.018408061  0.017242754          937 
 4143000   0.58285671   -7.1914273    913.20107  0.018368354  0.017236946         1092 
 4144000   0.59046091   -7.2380418    915.87844  0.018417761  0.017231148         1101 
 4145000   0.57598581   -7.1966836    916.45901   0.01842499  0.017225355         1039 
 4146000   0.60624378   -7.2156005     912.6517   0.01834402  0.017219573         1095 
 4147000   0.58367498   -7.2213483    915.66463  0.018400141  0.017213789         1026 
 4148000   0.58828753   -7.2059215     915.7529  0.018397479  0.017208003         1130 
 4149000   0.58552583   -7.2028678    915.24223  0.018382788  0.017202223          906 
 4150000   0.58961198   -7.2141235    914.90045  0.018371495  0.017196445          932 
 4151000   0.59517598   -7.2108534      914.167  0.018352345  0.017190672         1076 
 4152000   0.58382278   -7.2109935    914.14152  0.018347413  0.017184901         1162 
 4153000   0.58968507   -7.2238861    914.74146  0.018355034  0.017179127          980 
 4154000   0.59361049   -7.2019941    915.22379  0.018360291  0.017173349         1082 
 4155000    0.5857788   -7.2162221    913.82927  0.018327903   0.01716759         1099 
 4156000   0.57251226   -7.1839467    913.77897  0.018322485  0.017161829         1153 
 4157000   0.58753289   -7.2034495    913.67111  0.018315915  0.017156069         1119 
 4158000   0.59130726   -7.2206414    914.72546  0.018332641  0.017150308         1203 
 4159000   0.59654929   -7.2132637    914.47764  0.018323268   0.01714455         1149 
 4160000   0.59499334   -7.2150757    913.94237  0.018308141  0.017138802         1016 
 4161000   0.59067301   -7.2111691    915.43046  0.018333543  0.017133035         1036 
 4162000   0.58879658    -7.190935    915.04186  0.018321357  0.017127278         1121 
 4163000    0.5956591   -7.2061832    915.56015  0.018327331  0.017121538         1111 
 4164000   0.59495753    -7.225338    914.35844   0.01829888  0.017115787         1030 
 4165000   0.58830758   -7.2274387     913.5928  0.018279168  0.017110033         1119 
 4166000   0.59602287   -7.2151412    914.48807  0.018292688   0.01710427         1050 
 4167000   0.59426748   -7.2203117    915.93951  0.018317325  0.017098514          972 
 4168000   0.59071051   -7.2399183    913.78308  0.018269815  0.017092758          920 
 4169000   0.57822793    -7.232506    911.92333  0.018228259  0.017087001         1086 
 4170000   0.58203237   -7.2143916    915.52433   0.01829585  0.017081251         1098 
 4171000   0.58906265   -7.2112717    915.41565  0.018289292  0.017075503         1105 
 4172000   0.57675583   -7.2211889      914.601  0.018268636  0.017069755         1141 
 4173000   0.58380954   -7.2434371    912.99476  0.018232182  0.017064002         1273 
 4174000   0.58312988   -7.2301786    913.06205  0.018229158  0.017058252         1215 
 4175000   0.59507169   -7.2417556    913.63186  0.018236165    0.0170525         1128 
 4176000   0.58654007   -7.2476711    915.93568  0.018277771  0.017046752         1151 
 4177000    0.5893254   -7.2407788    914.49357  0.018244625  0.017041004         1157 
 4178000   0.58471632   -7.2346664    913.70195  0.018224468  0.017035267         1073 
 4179000   0.56618149   -7.2409715    912.80171  0.018202156  0.017029517         1189 
 4180000   0.57674558   -7.2436263    914.35209   0.01822871  0.017023774         1286 
 4181000   0.58073231   -7.2100205    913.91543  0.018215647  0.017018035         1230 
 4182000   0.58197268   -7.2534464    913.66127  0.018206226  0.017012295         1266 
 4183000   0.59136903   -7.2441125    913.77832  0.018204206  0.017006556         1253 
 4184000   0.58326938   -7.2168358    914.08995  0.018206062  0.017000822         1149 
 4185000   0.57490801   -7.2493889    913.28469  0.018185677  0.016995076         1218 
 4186000   0.58217177   -7.2389717    913.57775  0.018187167  0.016989344         1179 
 4187000   0.56879788   -7.2367823    914.40505  0.018199289  0.016983609         1077 
 4188000   0.58497139   -7.2285464     916.3052  0.018232752  0.016977882         1145 
 4189000   0.57681761   -7.2246243    914.35204  0.018189545  0.016972158         1238 
 4190000   0.58233037   -7.2431394    911.57929  0.018130057   0.01696643         1258 
 4191000   0.58140811   -7.2435617    913.34968  0.018160934  0.016960719         1231 
 4192000   0.58196943   -7.2490326     915.0831   0.01819106  0.016954999         1270 
 4193000   0.57821132   -7.2501264    910.43605  0.018094365  0.016949275         1248 
 4194000   0.58009877   -7.2351125    913.47279  0.018150389  0.016943559         1302 
 4195000   0.59032467   -7.2314994     913.1672  0.018139992  0.016937842         1267 
 4196000   0.59234913   -7.2420274     912.4022  0.018120476  0.016932132         1287 
 4197000   0.58292352   -7.2258289    915.26715  0.018173043  0.016926421         1181 
 4198000   0.58163183   -7.2403276    913.37527  0.018131159  0.016920716         1222 
 4199000   0.57967017   -7.2394739    913.13332  0.018122039  0.016914999         1278 
 4200000   0.58195273   -7.2228581    914.37592  0.018142379  0.016909292         1242 
 4201000   0.57713661   -7.2072831    914.47125  0.018139952  0.016903595         1236 
 4202000   0.56841811    -7.236379    912.11841  0.018088974  0.016897902         1209 
 4203000   0.57076328   -7.2360487    914.57639  0.018133404  0.016892218         1182 
 4204000   0.57305838   -7.2270987    914.48569  0.018127293  0.016886525         1255 
 4205000   0.59528884    -7.236144    914.31603   0.01811962  0.016880847         1315 
 4206000    0.5750695   -7.2323543    915.56592  0.018140076   0.01687516         1270 
 4207000   0.56686908   -7.2411725    912.59061  0.018076828  0.016869477         1262 
 4208000   0.58131019   -7.2394143    912.95397  0.018079728  0.016863784         1200 
 4209000   0.58651623   -7.2520817    915.03001  0.018116536  0.016858095         1281 
 4210000   0.57421556   -7.2411169    912.19436  0.018056104  0.016852411         1312 
 4211000   0.57472495   -7.2526324    914.53887  0.018098212  0.016846724         1287 
 4212000   0.59694271    -7.250166    911.19991  0.018027855  0.016841037         1311 
 4213000   0.57612442   -7.2503798    915.02101  0.018099158  0.016835362         1216 
 4214000   0.57514031   -7.2514808    912.94106  0.018053731  0.016829676         1277 
 4215000   0.57659003   -7.2381602     911.7636  0.018026168  0.016823991         1252 
 4216000   0.57382183   -7.2760285     911.9307  0.018025196  0.016818312         1166 
 4217000   0.57698544   -7.2446121    913.35389  0.018049045  0.016812632         1254 
 4218000   0.57240775   -7.2672852    912.06137   0.01801923  0.016806953         1158 
 4219000   0.57590793   -7.2298757    914.52582  0.018063637  0.016801281         1093 
 4220000   0.57575121   -7.2504408    913.76327  0.018044298  0.016795611         1206 
 4221000   0.57755364   -7.2583509      913.145  0.018027817  0.016789944         1192 
 4222000   0.57865042   -7.2400479    913.47069  0.018029976  0.016784269         1255 
 4223000   0.57866036   -7.2561581    913.22357   0.01802083  0.016778597         1168 
 4224000   0.57162899   -7.2555549    913.75766    0.0180271  0.016772932         1171 
 4225000   0.56955025   -7.2506889    913.67868  0.018021276  0.016767273         1044 
 4226000   0.57531981   -7.2622822     914.0432  0.018024199  0.016761618         1229 
 4227000   0.57529716   -7.2590576    913.37307  0.018006724  0.016755963         1184 
 4228000    0.5750547   -7.2417058    913.07273  0.017996546  0.016750302         1142 
 4229000   0.58078069   -7.2428848     910.9602  0.017950662  0.016744647         1252 
 4230000   0.55641992    -7.244039    912.93338  0.017985291  0.016738993         1221 
 4231000   0.57159161   -7.2456653    911.59237  0.017954628   0.01673335         1135 
 4232000   0.58550132    -7.244486    913.05727  0.017979231  0.016727711         1330 
 4233000   0.56655747   -7.2454217    913.59428  0.017985555  0.016722073         1252 
 4234000   0.58402389   -7.2625543    912.81744  0.017966018  0.016716427         1340 
 4235000   0.55911198   -7.2535567    913.83089  0.017981718  0.016710778         1273 
 4236000   0.57834788   -7.2570367    913.01278  0.017961378  0.016705136         1315 
 4237000    0.5780431    -7.259144    912.62835  0.017949578  0.016699508         1299 
 4238000    0.5684333   -7.2274549    911.86223  0.017930278  0.016693884         1265 
 4239000   0.57536015    -7.245568    913.67487  0.017961683  0.016688259         1311 
 4240000   0.57034106   -7.2333276    913.32604   0.01795059  0.016682641         1242 
 4241000   0.57838847   -7.2456232    912.19302  0.017924095  0.016677012         1350 
 4242000   0.56965251   -7.2515621    914.05146  0.017956378  0.016671387         1321 
 4243000   0.57377143    -7.265323    912.87144   0.01792897  0.016665766         1312 
 4244000   0.57344818   -7.2417592    912.51377  0.017917722  0.016660151         1277 
 4245000   0.57344867   -7.2626346    912.35837  0.017910451  0.016654536         1278 
 4246000   0.57263405   -7.2615325    911.29269  0.017885317  0.016648923         1301 
 4247000    0.5783232   -7.2541229    912.97794  0.017914174   0.01664331         1389 
 4248000   0.58396425   -7.2531684    914.39936  0.017937841  0.016637687         1288 
 4249000   0.56774695   -7.2718539    912.29908  0.017892427   0.01663207         1285 
 4250000   0.57502869   -7.2475818     912.2047  0.017886367  0.016626449         1405 
 4251000   0.56866363   -7.2643523     912.5246   0.01788843  0.016620835         1322 
 4252000   0.57684021    -7.277875    914.04522  0.017914025  0.016615222         1412 
 4253000   0.58939178   -7.2638267    911.30078  0.017856038  0.016609617         1466 
 4254000   0.55918032   -7.2620321    912.51914  0.017875708  0.016604007         1243 
 4255000   0.56907241   -7.2602847    909.71714   0.01781663  0.016598401         1366 
 4256000   0.55877705   -7.2470954    912.38542  0.017864689  0.016592792         1354 
 4257000   0.57220707   -7.2597678    912.98866  0.017872302  0.016587181         1303 
 4258000   0.55772639   -7.2700804    911.83002  0.017845429   0.01658158         1415 
 4259000   0.56504458   -7.2580142    912.64508  0.017857186  0.016575977         1343 
 4260000   0.57293931   -7.2761737    911.34413  0.017827545  0.016570374         1360 
 4261000   0.57183927   -7.2632816    910.82652  0.017813239   0.01656477         1385 
 4262000   0.56531533   -7.2765744    913.16784  0.017854838   0.01655917         1370 
 4263000   0.57047329   -7.2669824    913.39917  0.017855172  0.016553578         1424 
 4264000   0.56107878   -7.2665136    910.09737  0.017786456   0.01654798         1333 
 4265000   0.58078377   -7.2886253     911.3119  0.017806016  0.016542378         1430 
 4266000   0.58556198    -7.271406    911.57564  0.017806994  0.016536781         1403 
 4267000   0.57284303    -7.286797    912.26448  0.017816274  0.016531181         1322 
 4268000   0.58515398   -7.2576796    910.07575  0.017769364  0.016525587         1388 
 4269000   0.58083947   -7.2641177    910.22257  0.017768068  0.016520004         1398 
 4270000   0.56172055    -7.254088    911.26425  0.017784236  0.016514413         1478 
 4271000   0.56740073   -7.2681071    911.84666  0.017791436  0.016508838         1458 
 4272000   0.56753565   -7.2806721    911.77799  0.017785932  0.016503267         1376 
 4273000   0.56878778   -7.2696079    911.78944  0.017781992  0.016497693         1385 
 4274000    0.5687448   -7.2742915    910.73967  0.017757364  0.016492114         1370 
 4275000   0.55619611   -7.2722014    912.76641  0.017792717   0.01648654         1475 
 4276000   0.56002142   -7.2660439    911.56173  0.017765079  0.016480962         1459 
 4277000   0.58025991   -7.2735876    912.21352  0.017773625  0.016475388         1410 
 4278000   0.56756233   -7.2719371    911.71296   0.01775972  0.016469814         1401 
 4279000   0.57270112   -7.2989684    909.81896  0.017718683  0.016464236         1554 
 4280000   0.57470973   -7.2610447    911.74077  0.017751962   0.01645866         1461 
 4281000   0.58049327   -7.2601421    910.83179  0.017730121  0.016453086         1494 
 4282000   0.56734935    -7.283485    911.09346  0.017731073  0.016447516         1515 
 4283000   0.55104456   -7.2776153    911.13483  0.017727738  0.016441939         1484 
 4284000   0.56240438   -7.2760775    910.61012  0.017713393  0.016436376         1512 
 4285000   0.57971241   -7.2826651     912.4372  0.017744792  0.016430816         1490 
 4286000   0.56926019   -7.2684532    911.30754  0.017718688  0.016425257         1496 
 4287000   0.56427964   -7.2834149    912.35031  0.017734824  0.016419694         1523 
 4288000   0.56815012   -7.2621736     911.1546  0.017707451   0.01641413         1553 
 4289000   0.56809642   -7.2763506    910.66043  0.017693721  0.016408571         1478 
 4290000   0.56243979   -7.2636311    911.76432   0.01771104  0.016403016         1536 
 4291000   0.55511902   -7.2750877    910.41365  0.017680682  0.016397457         1430 
 4292000   0.56959976   -7.2733699    910.47465  0.017677746  0.016391907         1439 
 4293000   0.56992472   -7.2751255    909.74319   0.01765943  0.016386355         1550 
 4294000   0.55004706   -7.2953047    911.83425  0.017695898  0.016380802         1529 
 4295000   0.55466887   -7.2850103    910.19036  0.017659883  0.016375254         1287 
 4296000   0.56926432   -7.2884811    911.97742  0.017690437  0.016369708         1573 
 4297000    0.5584738   -7.2998249     909.0434   0.01762942  0.016364166         1503 
 4298000   0.56675129   -7.2971856    909.44337  0.017633073   0.01635863         1435 
 4299000    0.5694755   -7.2844038    912.31819  0.017684698  0.016353087         1425 
 4300000   0.56911198    -7.279162    910.19489  0.017639436  0.016347555         1449 
 4301000   0.56707683   -7.2785128     910.4784  0.017640828   0.01634202         1483 
 4302000   0.57014563   -7.2815192    911.03881  0.017647583  0.016336479         1421 
 4303000   0.56712485   -7.2833558    911.35605  0.017649625  0.016330938         1500 
 4304000   0.57883738   -7.2812796    910.25176  0.017624143  0.016325407         1543 
 4305000   0.56119201   -7.2881789    910.53855  0.017625601  0.016319881         1542 
 4306000   0.56316414   -7.2871731    912.11947  0.017652103  0.016314351         1509 
 4307000   0.56417683   -7.2718338    913.07565  0.017666505  0.016308831         1465 
 4308000   0.55837249   -7.2832358    909.49922  0.017593222   0.01630331         1516 
 4309000   0.55762278   -7.2758346    910.94032  0.017617009    0.0162978         1535 
 4310000   0.57201625   -7.2691289    910.79013  0.017610018  0.016292288         1412 
 4311000   0.56409356   -7.2764217    911.55112  0.017620643  0.016286773         1553 
 4312000   0.55551802   -7.2783925    911.34741   0.01761262  0.016281262         1406 
 4313000   0.58495122   -7.2888741    910.56451   0.01759341  0.016275747         1470 
 4314000   0.55498083   -7.2771161    912.31009  0.017623051  0.016270232         1511 
 4315000   0.55360488   -7.2704028     910.6428  0.017586767  0.016264731         1447 
 4316000   0.55951045   -7.2917703    909.90625  0.017568471  0.016259219         1537 
 4317000   0.56400727   -7.2964494    910.20316  0.017570133  0.016253704         1568 
 4318000   0.56424056   -7.2920408    911.15993  0.017584529  0.016248195         1549 
 4319000   0.55648998   -7.2815818    910.04289  0.017558904  0.016242693         1619 
 4320000   0.55565137   -7.2704398    910.82633  0.017569952   0.01623719         1603 
 4321000   0.56936878   -7.2864445    908.06558  0.017512643  0.016231678         1568 
 4322000   0.55954186   -7.2949544    909.91969  0.017544341  0.016226162         1642 
 4323000   0.55539511    -7.289418    908.17398  0.017506631  0.016220651         1542 
 4324000   0.57173523   -7.2930152    910.32067  0.017543954  0.016215139         1570 
 4325000   0.56797604   -7.2991485    909.20456  0.017518392  0.016209635         1654 
 4326000   0.56136325   -7.2903733    910.80261  0.017545127  0.016204131         1555 
 4327000   0.55188161   -7.2866689    911.24193  0.017549533  0.016198622         1563 
 4328000   0.56043998   -7.2765046    910.58421  0.017532814  0.016193125         1538 
 4329000   0.55498513    -7.314832    908.31042  0.017484993  0.016187621         1631 
 4330000   0.56358302   -7.3035196    910.42758  0.017521701   0.01618212         1537 
 4331000   0.56430661   -7.3117849    909.31494  0.017496247   0.01617662         1576 
 4332000    0.5586599   -7.3050735    909.53192  0.017496382   0.01617112         1556 
 4333000   0.56172209   -7.2946413    907.91899  0.017461324  0.016165622         1563 
 4334000   0.55850539     -7.30504    909.82896  0.017494019  0.016160131         1621 
 4335000   0.56790931   -7.2992514    908.99265  0.017473907  0.016154645         1688 
 4336000   0.54069456   -7.3192578      910.423  0.017497367  0.016149156         1622 
 4337000   0.57658952   -7.3115003    908.57976  0.017457916  0.016143663         1654 
 4338000   0.54870439   -7.3175725    910.02102  0.017481578  0.016138185         1641 
 4339000   0.56386866   -7.3133629    909.68014  0.017471002  0.016132702         1596 
 4340000   0.56610743     -7.31652    909.01622  0.017454228  0.016127218         1551 
 4341000   0.56386662   -7.2847601     910.2012  0.017472955  0.016121742         1612 
 4342000   0.55392726   -7.3108399    909.22417   0.01745018  0.016116267         1570 
 4343000   0.56504459   -7.3172192    906.91728  0.017401897  0.016110787         1564 
 4344000    0.5545116   -7.3007677    909.15832  0.017440882  0.016105317         1619 
 4345000   0.55191127   -7.3134892    907.84207  0.017411624  0.016099844         1579 
 4346000   0.55219842   -7.2955923    909.17554  0.017433186  0.016094369         1529 
 4347000   0.55267692   -7.3124952     909.5352  0.017436071  0.016088908         1619 
 4348000   0.54904628   -7.3093086    910.01952  0.017441343  0.016083442         1597 
 4349000   0.56270593   -7.3109732    909.71442  0.017431487  0.016077971         1609 
 4350000   0.55845397   -7.2921998    908.61871  0.017406489  0.016072503         1584 
 4351000   0.55638034   -7.3074196    907.72386  0.017385349  0.016067042         1667 
 4352000    0.5617405    -7.313392    908.15022  0.017389519  0.016061578         1596 
 4353000   0.54767964   -7.3304288    909.06156   0.01740297  0.016056118         1580 
 4354000   0.54648873   -7.3089025    909.91723   0.01741535  0.016050665         1553 
 4355000   0.54957245   -7.3160752    909.27786  0.017399117  0.016045203         1615 
 4356000   0.56110591   -7.3151379    907.63726  0.017363737  0.016039736         1681 
 4357000   0.54785901   -7.3010469    910.14561  0.017407727  0.016034278         1717 
 4358000   0.55875031   -7.3112517    907.99767   0.01736266  0.016028826         1687 
 4359000   0.55198613   -7.3019227    910.48154  0.017406162  0.016023377         1700 
 4360000    0.5607493   -7.3199567    910.22319  0.017397232  0.016017931         1703 
 4361000   0.55258154   -7.3135081    908.19075  0.017354406   0.01601248         1671 
 4362000   0.54218101   -7.3225288    909.26085  0.017370871  0.016007045         1581 
 4363000   0.56223939   -7.3227086    908.43261   0.01735107  0.016001619         1670 
 4364000   0.54894012   -7.3134931    907.49334  0.017329158  0.015996176         1657 
 4365000   0.54663942   -7.2970937    910.01458  0.017373322   0.01599074         1636 
 4366000   0.56126713   -7.3120878    908.86293  0.017347361  0.015985308         1704 
 4367000   0.54988097   -7.3078376    909.80254  0.017361319  0.015979874         1598 
 4368000   0.55239305   -7.3227238    909.36566  0.017349009  0.015974446         1642 
 4369000   0.54971783   -7.2994085    907.51236  0.017309689  0.015969024         1665 
 4370000   0.55382053   -7.3034919    909.78125  0.017348994  0.015963603         1660 
 4371000   0.55527975   -7.2974717    908.36258  0.017317978  0.015958187         1679 
 4372000   0.56222284   -7.3174233    910.20721  0.017349177  0.015952769         1614 
 4373000   0.55924211   -7.3162993    908.73562  0.017317166  0.015947359         1642 
 4374000   0.55319005   -7.3259275    909.25233  0.017323052   0.01594195         1720 
 4375000   0.54986746   -7.3446979    907.61957  0.017287992  0.015936538         1620 
 4376000   0.54081908   -7.3260267    909.44333  0.017318772  0.015931126         1575 
 4377000   0.54177576   -7.3286067    909.11185  0.017308504  0.015925714         1662 
 4378000   0.55380317     -7.32764    909.78837  0.017317427    0.0159203         1732 
 4379000   0.55249248   -7.3135295    908.21477  0.017283527  0.015914886         1668 
 4380000   0.55350799   -7.3250999     909.8662  0.017311001  0.015909481         1654 
 4381000   0.56522585   -7.3220011    907.30521  0.017258335  0.015904076         1741 
 4382000   0.54276973   -7.3185181    909.73825  0.017300667  0.015898668         1662 
 4383000   0.54926915   -7.3299681    908.54778  0.017274085  0.015893269         1689 
 4384000   0.54999703   -7.3244056    908.87374  0.017276341  0.015887871         1613 
 4385000   0.55483985   -7.3416983    906.45457  0.017226427  0.015882479         1696 
 4386000   0.55210088   -7.3381747    907.07136  0.017234218  0.015877081         1652 
 4387000   0.53889242   -7.3168782    908.75186  0.017262212  0.015871691         1598 
 4388000   0.52955976   -7.3154431    907.81304  0.017240448  0.015866292         1791 
 4389000   0.54316392   -7.3228509    908.03098  0.017240658   0.01586091         1653 
 4390000   0.55558097   -7.3438457    909.10807  0.017257177  0.015855522         1642 
 4391000   0.54837822   -7.3293902    908.89178  0.017249142  0.015850141         1632 
 4392000   0.55806121   -7.3284546    907.47075  0.017218252  0.015844753         1715 
 4393000   0.54575366   -7.3249054    908.23627  0.017228854  0.015839371         1754 
 4394000   0.55084637   -7.3178756     907.7291  0.017215314   0.01583399         1699 
 4395000   0.54199712   -7.3180825    909.84103  0.017251442  0.015828618         1716 
 4396000   0.56037988   -7.3324746    909.35158  0.017238239  0.015823242         1656 
 4397000   0.54591648   -7.3188261    906.53088   0.01718086  0.015817865         1643 
 4398000   0.54602406   -7.3357706    908.41701  0.017212692   0.01581249         1640 
 4399000   0.54896663   -7.3379235    906.72434  0.017176713  0.015807117         1706 
 4400000   0.54589214   -7.3246737    907.02182  0.017178444   0.01580175         1725 
 4401000    0.5379094   -7.3266956     908.2288  0.017197394  0.015796384         1633 
 4402000   0.55398151   -7.3299052    909.49893  0.017217532  0.015791026         1709 
 4403000   0.55031411   -7.3155123    908.93403   0.01720293  0.015785661         1589 
 4404000   0.54551961   -7.3249613    908.36676   0.01718829  0.015780305         1680 
 4405000   0.54887606   -7.3334194    908.16856  0.017180639  0.015774955         1687 
 4406000   0.54745549   -7.3364965    907.22246  0.017158845  0.015769596         1658 
 4407000   0.54169373   -7.3411305    908.06717  0.017170925  0.015764238         1651 
 4408000   0.54634182   -7.3128193    907.83695  0.017162677  0.015758882         1693 
 4409000   0.54747377   -7.3269284    908.44159  0.017170212  0.015753535         1749 
 4410000    0.5483737   -7.3432575    906.88259  0.017136859   0.01574819         1695 
 4411000   0.54980977   -7.3436807    908.35012  0.017160699   0.01574284         1711 
 4412000   0.55375555   -7.3338091    908.37793  0.017157335  0.015737491         1671 
 4413000   0.55040815   -7.3174153    908.63482  0.017158298  0.015732151         1689 
 4414000     0.549918   -7.3442168    909.02806  0.017161835  0.015726812         1700 
 4415000   0.54322389   -7.3277976     907.2964  0.017125262  0.015721464         1720 
 4416000   0.55327262   -7.3365174    907.44033    0.0171241  0.015716124         1549 
 4417000   0.55441209   -7.3365994    909.21636  0.017153731   0.01571079         1658 
 4418000   0.53958312   -7.3160937    907.53003   0.01711804  0.015705453         1638 
 4419000   0.54808607   -7.3338915    906.62356  0.017097072  0.015700116         1714 
 4420000    0.5447553   -7.3296808    908.30082  0.017124827  0.015694779         1679 
 4421000    0.5456714   -7.3355913    905.92291  0.017076131  0.015689446         1619 
 4422000   0.55461971   -7.3235112    904.93665  0.017053683  0.015684117         1728 
 4423000   0.54370616    -7.314925    907.11215  0.017090816   0.01567879         1677 
 4424000   0.53775818   -7.3477589    905.95032  0.017065068  0.015673462         1634 
 4425000   0.53742426   -7.3371123    907.35736  0.017087709   0.01566814         1578 
 4426000    0.5423027   -7.3310575    907.38923  0.017084449  0.015662816         1566 
 4427000   0.54994222   -7.3241927    907.55117  0.017083638    0.0156575         1674 
 4428000   0.53424386   -7.3358301    907.36258   0.01707623  0.015652178         1693 
 4429000   0.53733601   -7.3344599    908.15995  0.017087378  0.015646854         1640 
 4430000   0.54441237   -7.3560335    907.06546  0.017062932  0.015641536         1683 
 4431000   0.53027272   -7.3482593    908.03224  0.017077263  0.015636219         1650 
 4432000   0.54175855    -7.350532    905.13046  0.017018849  0.015630906         1736 
 4433000   0.54589781   -7.3494317    907.48039  0.017059185  0.015625599         1753 
 4434000   0.53931059   -7.3402828    906.93549  0.017045096    0.0156203         1631 
 4435000   0.54461008   -7.3409616    907.61727  0.017054064  0.015615009         1646 
 4436000   0.54977407   -7.3352135    908.95858  0.017075417  0.015609707         1682 
 4437000   0.55202703   -7.3377438    907.79011  0.017049623  0.015604412         1655 
 4438000   0.52749588   -7.3431842    906.81908  0.017027548  0.015599115         1665 
 4439000   0.54359727   -7.3443826    907.97578  0.017045426  0.015593822         1664 
 4440000   0.54990432    -7.331312    908.14689  0.017044799  0.015588529         1617 
 4441000   0.55027151   -7.3465406    907.36765  0.017026339  0.015583244         1648 
 4442000   0.53344297     -7.35228    906.53884  0.017006957  0.015577956         1629 
 4443000   0.53720265   -7.3553142    908.27276  0.017035651  0.015572668         1679 
 4444000    0.5475412   -7.3530039    906.81612  0.017004503  0.015567386         1623 
 4445000   0.53835716   -7.3431094    906.37241  0.016992359  0.015562107         1729 
 4446000   0.53776369   -7.3476329    906.88986  0.016998235  0.015556824         1665 
 4447000   0.54550663   -7.3672285    906.72174  0.016991263  0.015551546         1671 
 4448000   0.54125621   -7.3427773    905.87855  0.016971645  0.015546267         1674 
 4449000    0.5351477   -7.3618095    905.61022  0.016962805  0.015540989         1645 
 4450000   0.54106287   -7.3404027     908.2832  0.017009049  0.015535708         1623 
 4451000   0.54384648   -7.3537825    906.86953   0.01697876   0.01553043         1716 
 4452000   0.53874671   -7.3336534    908.16423  0.016999181  0.015525158         1602 
 4453000   0.52726439   -7.3469403    906.19972  0.016958599  0.015519884         1692 
 4454000   0.53388365   -7.3386395     907.5112  0.016979329  0.015514615         1584 
 4455000   0.52315937   -7.3560471    907.47972  0.016974929  0.015509352         1565 
 4456000   0.53604303    -7.358043    907.78934   0.01697691  0.015504087         1666 
 4457000   0.53195691   -7.3541919    907.65486  0.016970587   0.01549883         1598 
 4458000    0.5260345   -7.3450005    905.94105  0.016934744  0.015493567         1713 
 4459000    0.5318848   -7.3408454     907.1919  0.016954323   0.01548831         1631 
 4460000   0.53838653   -7.3350234    906.89268   0.01694493  0.015483054         1624 
 4461000   0.53558768   -7.3477045    906.41757  0.016932257  0.015477799         1660 
 4462000   0.53589323   -7.3561464    907.03151  0.016939928  0.015472548         1609 
 4463000   0.53981167   -7.3590187    906.76345  0.016931127  0.015467298         1638 
 4464000   0.53561818   -7.3429511    907.49219  0.016940938  0.015462051         1667 
 4465000   0.53328081   -7.3401293    906.45872  0.016917856  0.015456811         1560 
 4466000   0.54629659   -7.3756669    908.29923  0.016948411  0.015451575         1623 
 4467000   0.53361511    -7.351937    905.78648   0.01689774  0.015446333         1617 
 4468000   0.52853355   -7.3458158    906.51068  0.016907466  0.015441091         1627 
 4469000   0.54542744   -7.3563025    907.38907  0.016920062  0.015435855         1606 
 4470000   0.54173269   -7.3694842     905.9313  0.016889099  0.015430618         1673 
 4471000   0.54382586   -7.3454919     906.8953   0.01690329  0.015425386         1646 
 4472000   0.53868983    -7.343493    908.96007  0.016937986  0.015420158         1684 
 4473000   0.54748026   -7.3401478    906.34751  0.016885526  0.015414933         1653 
 4474000   0.54265505   -7.3386973    906.78721  0.016889942  0.015409707         1539 
 4475000   0.53277737   -7.3622459    905.69495  0.016865828   0.01540448         1582 
 4476000   0.52552742   -7.3578199     907.2905  0.016891765  0.015399263         1620 
 4477000    0.5356838   -7.3570399    907.57301  0.016893251  0.015394047         1613 
 4478000   0.53158741   -7.3682678    906.78646  0.016874841  0.015388829         1604 
 4479000   0.54349873   -7.3527891    907.09818  0.016876873  0.015383613         1600 
 4480000   0.53492634   -7.3628238      906.945  0.016870257  0.015378404         1578 
 4481000    0.5427865   -7.3460376    906.31432  0.016854763  0.015373191         1588 
 4482000   0.53428305   -7.3613143    906.40913  0.016852765  0.015367991         1562 
 4483000   0.52886675   -7.3607479    907.07012  0.016861293  0.015362784         1594 
 4484000   0.53481207    -7.352341    905.68994  0.016831883  0.015357579         1649 
 4485000   0.53201137    -7.342248    905.53037  0.016825165  0.015352382         1654 
 4486000   0.53696268   -7.3361041    907.82423  0.016864026  0.015347185         1616 
 4487000   0.53546129   -7.3714078    906.48256   0.01683535  0.015341993         1608 
 4488000   0.54497007   -7.3594614     907.5148  0.016850765  0.015336804         1624 
 4489000   0.53012706   -7.3500239    907.12042   0.01683969  0.015331614         1629 
 4490000   0.53087531   -7.3357812    906.97146  0.016833175  0.015326427         1551 
 4491000   0.53020289   -7.3552898    904.95082  0.016791932  0.015321243         1610 
 4492000   0.52435141    -7.362355    906.44977  0.016816002  0.015316056         1501 
 4493000   0.53182663   -7.3442237     904.5921  0.016777804  0.015310873         1580 
 4494000   0.53831804   -7.3618449    906.65469  0.016812318  0.015305688         1547 
 4495000     0.534848   -7.3459607    906.34241  0.016802788  0.015300505         1565 
 4496000   0.52487341   -7.3695148    906.39977  0.016800114  0.015295326         1622 
 4497000   0.52893833   -7.3547147    905.74301  0.016784208   0.01529015         1486 
 4498000   0.53430646   -7.3393495    907.78144  0.016818242  0.015284974         1520 
 4499000   0.53360274   -7.3516839    906.93319  0.016798792  0.015279803         1585 
 4500000   0.53032669   -7.3639094    907.17083   0.01679946  0.015274623         1653 
 4501000   0.51967938   -7.3525446     904.6254    0.0167486  0.015269451         1659 
 4502000    0.5323025     -7.36907    906.14133   0.01677294  0.015264284         1654 
 4503000   0.53261122   -7.3559493    906.24992  0.016771225  0.015259116         1629 
 4504000   0.53588631   -7.3674713    905.84428  0.016759996  0.015253949         1622 
 4505000    0.5298465   -7.3786801    907.71215  0.016790828  0.015248786         1613 
 4506000   0.53532828   -7.3726019    905.92658  0.016754079   0.01524363         1572 
 4507000   0.52882183   -7.3536355     906.2895  0.016757072  0.015238466         1692 
 4508000   0.52488173   -7.3666111    906.66084   0.01676022  0.015233306         1622 
 4509000   0.53050452   -7.3675289    907.95032  0.016780334  0.015228146         1584 
 4510000   0.52137135   -7.3549171     904.9673  0.016721495  0.015222984         1614 
 4511000   0.53293275   -7.3457826    905.50312  0.016727686  0.015217831         1591 
 4512000   0.53205335   -7.3530405    908.03089  0.016770665  0.015212681         1621 
 4513000     0.529068   -7.3709682    906.78311  0.016743909  0.015207525         1601 
 4514000   0.53190297    -7.373147    906.07072  0.016727048  0.015202373         1634 
 4515000   0.53110341   -7.3593255    906.69679  0.016734898   0.01519723         1564 
 4516000    0.5263283   -7.3691563    907.24099  0.016741235  0.015192085         1604 
 4517000   0.53196101    -7.385502    904.94654  0.016695199  0.015186944         1686 
 4518000   0.52228375    -7.365205    906.80633  0.016725807  0.015181803         1628 
 4519000   0.53948378   -7.3473674    905.36377  0.016695504   0.01517667         1542 
 4520000   0.52821992   -7.3542008    904.86015  0.016682525  0.015171535         1596 
 4521000   0.52584052   -7.3429134    906.77321  0.016714097  0.015166405         1604 
 4522000   0.53744824   -7.3650823    907.23626  0.016718934  0.015161275         1582 
 4523000   0.52567146   -7.3695704    904.79802  0.016670315  0.015156154         1719 
 4524000    0.5218417    -7.384313    905.88991  0.016686743  0.015151023         1659 
 4525000   0.52907276   -7.3645625     905.7502  0.016680483  0.015145896         1648 
 4526000   0.53914671    -7.374833    905.69716   0.01667582  0.015140776         1672 
 4527000   0.52680473   -7.3678338    906.40064  0.016685086   0.01513566         1653 
 4528000   0.52078182   -7.3740159    906.71456  0.016687179  0.015130531         1652 
 4529000   0.53174413   -7.3870841    906.95751  0.016687965  0.015125415         1662 
 4530000   0.53301958   -7.3642045    905.40316  0.016655687  0.015120299         1635 
 4531000   0.52156628   -7.3722505    905.87325  0.016660657  0.015115184         1629 
 4532000   0.52825775   -7.3754686    906.68505  0.016671908  0.015110075         1667 
 4533000    0.5248847   -7.3767083    906.40149  0.016663017  0.015104963         1712 
 4534000   0.52653827   -7.3604646    905.73532  0.016647098  0.015099856         1732 
 4535000   0.53021785   -7.3711608    905.25189  0.016634544  0.015094751         1630 
 4536000   0.53601556   -7.3721924    905.67048  0.016638567  0.015089646         1635 
 4537000   0.52048593   -7.3672075    903.92017  0.016602751  0.015084543         1684 
 4538000    0.5305028   -7.3708928    907.01626  0.016655947  0.015079441         1586 
 4539000    0.5358493   -7.3812316     903.8518   0.01659418  0.015074343         1681 
 4540000   0.52255825   -7.3631261    907.84941  0.016663903  0.015069246         1616 
 4541000    0.5268283   -7.3687565    905.97226  0.016625785  0.015064148         1707 
 4542000   0.53092604   -7.3723748    905.86977  0.016620244   0.01505905         1671 
 4543000   0.53479571    -7.365788    906.17913   0.01662226  0.015053955         1674 
 4544000   0.53174864   -7.3792617    907.12428  0.016635935  0.015048864         1696 
 4545000   0.51368347    -7.375336    904.40573   0.01658243  0.015043776         1538 
 4546000   0.53290369   -7.3732979    906.08962   0.01660965  0.015038692         1582 
 4547000   0.53031006   -7.3602053    906.29008  0.016609671  0.015033605         1705 
 4548000   0.52531052   -7.3770113    904.74236   0.01657766  0.015028523         1634 
 4549000   0.51925927   -7.3796029    905.87277  0.016594724  0.015023447         1721 
 4550000   0.51971213   -7.3650665    905.39439  0.016582315  0.015018363         1700 
 4551000   0.52961311   -7.3645941    904.91528  0.016569898  0.015013292         1618 
 4552000   0.53491686    -7.361758    905.02322  0.016568234  0.015008225         1654 
 4553000   0.52551625   -7.3628094    905.79779  0.016578772  0.015003157         1605 
 4554000   0.52077348   -7.3708369    905.15729  0.016563411  0.014998091         1722 
 4555000   0.52724358   -7.3783947    904.97039  0.016556356  0.014993034         1662 
 4556000    0.5050095   -7.3793223    904.80625  0.016549719  0.014987968         1681 
 4557000   0.53006169    -7.370807    905.39442  0.016556843  0.014982904         1737 
 4558000   0.53401808    -7.379547    905.09412  0.016547721  0.014977847         1727 
 4559000   0.51522231   -7.3808927    906.36104  0.016567249  0.014972788         1704 
 4560000   0.52622834   -7.3812308    902.64447  0.016495696  0.014967731         1705 
 4561000   0.51780657   -7.3803121    907.23321  0.016575919  0.014962684         1660 
 4562000   0.52790222   -7.3684498    904.77539  0.016527389  0.014957637         1756 
 4563000   0.52500198   -7.3810922    905.54036  0.016537738  0.014952591         1600 
 4564000   0.50971798   -7.3658781    906.84598  0.016557953  0.014947541         1747 
 4565000   0.51784131   -7.3716894    904.51522  0.016511778  0.014942497         1609 
 4566000   0.52489788   -7.3655551    903.31056  0.016486176  0.014937448         1660 
 4567000   0.50829962   -7.3839539    904.10475  0.016497058  0.014932414         1667 
 4568000   0.51058903   -7.3722417    906.43241  0.016535909  0.014927375         1639 
 4569000   0.52029615    -7.375276    905.41147  0.016513669  0.014922338         1648 
 4570000   0.52523519   -7.3733898    905.69371  0.016515203  0.014917299         1615 
 4571000     0.514183   -7.3612867    906.63189  0.016528693  0.014912266         1639 
 4572000   0.53288984   -7.3847983    905.64693  0.016507125  0.014907235         1595 
 4573000   0.51331031   -7.3761756    904.67576  0.016485818  0.014902204         1561 
 4574000   0.52286909   -7.3779361     905.7046  0.016500958  0.014897178         1600 
 4575000   0.51298601   -7.3703543    904.77862  0.016480485  0.014892152         1571 
 4576000   0.52534879   -7.3874483     905.1408  0.016483479  0.014887135         1712 
 4577000   0.52473589   -7.3698408    903.53124  0.016450572  0.014882113         1636 
 4578000   0.52681001   -7.3844334    905.00206  0.016473752  0.014877099         1640 
 4579000   0.51966892   -7.3735474    906.05492  0.016489316  0.014872082         1672 
 4580000   0.50970851   -7.3785228    905.22336  0.016470585  0.014867071         1578 
 4581000   0.51727749   -7.3757619    905.99823  0.016481085  0.014862059         1624 
 4582000   0.52493482   -7.3833614    905.05732  0.016460376  0.014857043         1628 
 4583000   0.52109858   -7.3721174    905.41179   0.01646323  0.014852037         1561 
 4584000   0.51788309   -7.3870218    905.23338  0.016456395  0.014847034         1564 
 4585000   0.51845685   -7.3907559    904.40255  0.016437705   0.01484203         1649 
 4586000   0.51634176   -7.3807337    903.50231  0.016417763  0.014837024         1644 
 4587000   0.51173852   -7.3848096    905.35424  0.016447828  0.014832015         1712 
 4588000   0.51943031   -7.3793517    904.87758  0.016435585  0.014827012         1559 
 4589000   0.52063838   -7.3911722    906.30418   0.01645791  0.014822017         1656 
 4590000   0.50297202   -7.3758277    904.44585  0.016420586  0.014817022         1671 
 4591000   0.50878938   -7.3677687    905.28087  0.016432166  0.014812031         1587 
 4592000   0.53088898   -7.3792752    904.09878  0.016407135  0.014807046         1564 
 4593000   0.52089211   -7.3628723    904.56237  0.016411974   0.01480206         1651 
 4594000   0.51606176   -7.3824167    906.40696  0.016441862  0.014797069         1581 
 4595000   0.51771846    -7.381481    904.71336  0.016407569  0.014792085         1621 
 4596000   0.51669715   -7.3846016    904.23187  0.016395269  0.014787106         1657 
 4597000   0.51504291    -7.376255    904.79244  0.016401864  0.014782127         1701 
 4598000   0.51677948   -7.3689171    904.16073  0.016386848  0.014777154         1595 
 4599000   0.52668531   -7.3733786    906.40414  0.016423935  0.014772182         1664 
 4600000   0.51782434   -7.4059195    905.09988  0.016396737  0.014767205         1678 
 4601000   0.50329087    -7.373296    905.77241  0.016405354  0.014762229         1681 
 4602000   0.49586883   -7.3884014    902.82836  0.016348478  0.014757256         1674 
 4603000   0.51838031   -7.3882199      906.865  0.016418006  0.014752281         1645 
 4604000   0.51598638   -7.3781256    905.32021  0.016386479  0.014747318         1622 
 4605000    0.5195431   -7.3920494    905.49135  0.016386018  0.014742351         1630 
 4606000    0.5168573   -7.3894149    904.84817  0.016370824   0.01473739         1571 
 4607000   0.50602778   -7.3861904    904.79234   0.01636626  0.014732431         1658 
 4608000   0.52152334   -7.3720539     904.6386  0.016359928  0.014727472         1554 
 4609000   0.51738008   -7.3757047    907.53109  0.016408677  0.014722517         1638 
 4610000   0.51030764   -7.3930212    904.93796  0.016358242  0.014717562         1676 
 4611000   0.50337173   -7.4009797    905.13764  0.016358303  0.014712615         1620 
 4612000   0.50785486   -7.4030517    906.03095  0.016370898  0.014707665         1669 
 4613000   0.51155237   -7.3956421    902.96746  0.016312007   0.01470272         1662 
 4614000   0.51842044   -7.3839372     905.2847  0.016350323  0.014697772         1598 
 4615000   0.51200245   -7.3937786    905.24741  0.016346107  0.014692827         1650 
 4616000   0.51259825    -7.393178    904.73666  0.016333345  0.014687884         1652 
 4617000   0.52046591   -7.3761958    905.00262  0.016334608  0.014682946         1653 
 4618000   0.51373169   -7.4169012     906.1074  0.016351007  0.014678012         1557 
 4619000   0.50661319   -7.3985492    904.63084  0.016320828   0.01467308         1601 
 4620000   0.49969905   -7.4046106    903.49802  0.016296862  0.014668144         1681 
 4621000   0.51042205   -7.3893807    902.86914  0.016281994  0.014663214         1687 
 4622000   0.51358894   -7.3952609    905.74459  0.016330315  0.014658289         1674 
 4623000   0.51887501   -7.3782366    905.96516  0.016330758  0.014653364         1591 
 4624000   0.50508189   -7.3832817    904.49321  0.016300699  0.014648437         1592 
 4625000   0.51618638   -7.3894953    905.70486  0.016319006  0.014643516         1642 
 4626000   0.50227281   -7.3832869    903.72476  0.016279809  0.014638595         1608 
 4627000   0.50696628   -7.3998768    904.22919  0.016285376   0.01463368         1622 
 4628000   0.51478284   -7.3908333    904.22735  0.016281823   0.01462876         1597 
 4629000   0.52420774   -7.3882919    906.37565  0.016316981   0.01462385         1565 
 4630000   0.52560819    -7.392472    903.15157  0.016255428  0.014618939         1689 
 4631000   0.50812497   -7.3838189    904.38865  0.016274179  0.014614028         1709 
 4632000   0.51749785   -7.3898927    905.93587  0.016298501  0.014609121         1662 
 4633000   0.50629065   -7.3987687     905.8668  0.016293741  0.014604211         1706 
 4634000   0.51276601   -7.3845602    904.12079  0.016258826  0.014599305         1689 
 4635000   0.49616013   -7.3838559    906.02728  0.016289595  0.014594398         1681 
 4636000   0.50785015   -7.3762821    903.80455  0.016246127  0.014589498         1654 
 4637000   0.51180058   -7.3888889    904.86797  0.016261735  0.014584593         1706 
 4638000   0.51092795   -7.4008139    902.47806  0.016215288  0.014579702         1676 
 4639000   0.50469698    -7.394728    903.45171  0.016229283  0.014574809         1756 
 4640000   0.50652587   -7.3946989    904.88467  0.016251521  0.014569917         1675 
 4641000   0.50119979   -7.4050285    904.81484  0.016246765  0.014565028         1634 
 4642000   0.50742133   -7.3861927    903.51069  0.016219853  0.014560137         1711 
 4643000   0.52013117   -7.4126185    905.18083  0.016246336  0.014555248         1704 
 4644000   0.50929544   -7.4189939    904.75798  0.016235249  0.014550359         1757 
 4645000   0.51602884   -7.3828266    904.03864  0.016218849  0.014545469         1754 
 4646000    0.5032957   -7.3924362    904.82819   0.01622952  0.014540587         1672 
 4647000   0.50809177   -7.3975138    903.69053  0.016205626  0.014535707         1678 
 4648000   0.50646624   -7.3800953    904.87334  0.016223346   0.01453083         1737 
 4649000   0.50296523   -7.3873978    904.20232  0.016207828  0.014525958         1652 
 4650000   0.50926093    -7.383113      904.455  0.016208871  0.014521083         1659 
 4651000   0.50310715   -7.3940114    904.15073  0.016199934  0.014516209         1674 
 4652000   0.51211616   -7.3860172    905.70056  0.016224215  0.014511344         1596 
 4653000   0.51608166   -7.3779553    905.46743  0.016216553  0.014506477         1573 
 4654000   0.51895652    -7.399232    904.70836  0.016199477  0.014501613         1724 
 4655000      0.51768    -7.395685    904.37828  0.016190087  0.014496749         1674 
 4656000   0.50789843   -7.3980218    904.89107  0.016195788  0.014491885         1713 
 4657000   0.50034372   -7.3940985    905.29537  0.016199545  0.014487023         1751 
 4658000   0.51149763   -7.4063897    904.68041  0.016185065  0.014482167         1671 
 4659000   0.50501482   -7.3961935    904.25068  0.016173905  0.014477312         1685 
 4660000   0.50513713   -7.4119243    903.94776  0.016165017  0.014472457         1750 
 4661000   0.49387452   -7.3904071    903.82516  0.016159357  0.014467606         1700 
 4662000   0.51107807   -7.3779399    903.82145  0.016155825  0.014462753         1794 
 4663000    0.5075192   -7.3696283    906.07197  0.016192579  0.014457907         1679 
 4664000   0.49666641   -7.4056367    902.94154  0.016133175   0.01445306         1715 
 4665000   0.50144612   -7.3963211    904.39145  0.016155617  0.014448211         1782 
 4666000   0.51880608   -7.3865228    903.28071  0.016132317  0.014443365         1801 
 4667000   0.50413593   -7.4090494    904.37135  0.016148335  0.014438519         1772 
 4668000   0.51661398   -7.3889066    904.94511  0.016155118  0.014433682         1661 
 4669000   0.50809515   -7.4071261    903.66615  0.016128831  0.014428842         1634 
 4670000   0.50878925   -7.3949554    903.82673  0.016128243  0.014424007         1690 
 4671000   0.50774212   -7.4069892    904.43444  0.016135632  0.014419177         1741 
 4672000   0.50478122   -7.4001544    905.46581  0.016150575  0.014414345         1712 
 4673000   0.51423393   -7.3917682    904.75172  0.016134384  0.014409516         1723 
 4674000   0.49681541   -7.3957668    904.16246  0.016120426  0.014404688         1736 
 4675000   0.51305472   -7.4130173     904.7859  0.016128091  0.014399864         1723 
 4676000   0.50761046   -7.4115676    903.65218  0.016104437  0.014395035         1734 
 4677000   0.50691545   -7.4078643    904.30998  0.016112714  0.014390209         1647 
 4678000   0.50815255   -7.4090749    905.40002  0.016128688  0.014385389         1670 
 4679000    0.5119441   -7.4015522     903.4783  0.016091015  0.014380576         1747 
 4680000   0.49284923    -7.398803    904.56296   0.01610689  0.014375759         1713 
 4681000    0.5092808   -7.4108161    904.27469  0.016098318  0.014370946         1742 
 4682000   0.52010718   -7.3979325    903.00859  0.016072344   0.01436614         1732 
 4683000   0.50131711   -7.3933969    903.69394  0.016081108  0.014361329         1713 
 4684000   0.49397816   -7.4053298    905.24081  0.016105195  0.014356518         1673 
 4685000   0.50803573    -7.401727    903.36218  0.016068342  0.014351704         1653 
 4686000   0.50129661   -7.4093128    905.14976  0.016096702  0.014346896         1745 
 4687000   0.50621707   -7.4138422    903.35708  0.016061395    0.0143421         1789 
 4688000   0.50790536   -7.4189422    902.91409  0.016050094  0.014337302         1780 
 4689000   0.50594834   -7.3938395     903.6793   0.01606027  0.014332511         1803 
 4690000    0.5134515   -7.3833617    903.59484  0.016055345  0.014327715         1731 
 4691000   0.49229689   -7.4007264    904.51294  0.016068232  0.014322923         1772 
 4692000   0.49950081   -7.3996513     903.5435   0.01604759  0.014318138         1721 
 4693000   0.49930452   -7.4133355    905.06601  0.016071206  0.014313348         1702 
 4694000   0.50041907   -7.3992691    903.77951  0.016044942  0.014308561         1659 
 4695000   0.51068668   -7.3935339     904.6422  0.016056837  0.014303781         1627 
 4696000   0.48684302   -7.4009525    903.17777  0.016027431  0.014298997         1648 
 4697000   0.49380732    -7.425969    903.06722  0.016022057  0.014294213         1623 
 4698000   0.51185711   -7.4066373    904.90242  0.016051199  0.014289429         1646 
 4699000    0.4983509   -7.3959865    904.36295  0.016038216  0.014284654         1640 
 4700000   0.50791138   -7.4207423    903.46007  0.016018796  0.014279874         1636 
 4701000   0.49404738   -7.4023783    903.48369  0.016015807  0.014275094         1647 
 4702000   0.51020473   -7.4054767    903.64332   0.01601523  0.014270322         1704 
 4703000   0.48395118   -7.4033235    904.28334  0.016023165  0.014265543         1624 
 4704000   0.50068575   -7.4106392    904.11732  0.016016818  0.014260773         1626 
 4705000   0.49504131   -7.4060568    903.44459  0.016001498     0.014256         1693 
 4706000   0.50155753     -7.40724    903.74377  0.016003396  0.014251232         1643 
 4707000   0.49327573   -7.3995271    904.83434  0.016019303  0.014246465         1620 
 4708000   0.49707089   -7.4093249    903.01448  0.015983689  0.014241702         1655 
 4709000   0.50460031   -7.4027376    903.55702  0.015989896  0.014236935         1625 
 4710000   0.49384044   -7.3971471    904.90369  0.016010327  0.014232177         1594 
 4711000   0.48973988   -7.4028897     903.8132  0.015987639  0.014227421         1685 
 4712000   0.49733095   -7.4311586     903.1261  0.015972094  0.014222659         1642 
 4713000    0.5047721   -7.4012059    904.45144  0.015992139  0.014217904         1624 
 4714000   0.48902743   -7.4176401     901.9115  0.015943846   0.01421315         1705 
 4715000   0.50314067   -7.4035081    904.46795  0.015985648  0.014208397         1683 
 4716000   0.48279315   -7.4371348    902.21995  0.015942535  0.014203646         1767 
 4717000   0.49569349   -7.4080333    903.96734  0.015970026  0.014198895         1697 
 4718000   0.49809597   -7.4060921    903.89334  0.015965334  0.014194146         1754 
 4719000   0.49172198   -7.4052567    903.02745   0.01594666    0.0141894         1636 
 4720000   0.49286072   -7.3965117    903.76028   0.01595622  0.014184653         1677 
 4721000   0.49959473   -7.4024403    904.01334  0.015957307  0.014179916         1634 
 4722000   0.50806489   -7.3973218    905.14584  0.015973914  0.014175176         1670 
 4723000   0.49448341    -7.402792    902.58929  0.015925423  0.014170443         1583 
 4724000   0.49937085   -7.4035531    903.66409  0.015941012  0.014165706         1704 
 4725000   0.49500288   -7.4238417    903.15439  0.015928649  0.014160973         1677 
 4726000   0.48632546    -7.406649    903.74274  0.015935653  0.014156241         1647 
 4727000   0.49433322   -7.4101275    903.64125  0.015930492  0.014151509         1696 
 4728000   0.48705179   -7.4287939    903.58638  0.015926156   0.01414678         1687 
 4729000    0.4940226   -7.4082144     902.3925   0.01590175   0.01414205         1709 
 4730000   0.49533535   -7.3976017    901.60883  0.015884581  0.014137322         1700 
 4731000   0.50009089   -7.4128415    902.45093  0.015896057  0.014132597         1612 
 4732000   0.48528635   -7.4161663    902.58211  0.015895008  0.014127873         1663 
 4733000   0.49697873   -7.4306756    902.35569  0.015887663   0.01412315         1734 
 4734000    0.4923064   -7.4256967    902.33273  0.015883902  0.014118429         1767 
 4735000   0.49041186   -7.4221251    903.53955  0.015901787  0.014113716         1693 
 4736000   0.50155654    -7.400629    901.99541  0.015871259  0.014109001         1712 
 4737000   0.48579387   -7.4149432    903.34431  0.015891639  0.014104286         1703 
 4738000   0.49480119   -7.4112104    902.70691  0.015877074  0.014099573         1705 
 4739000   0.49233571   -7.4225519    902.79925  0.015875347  0.014094861         1741 
 4740000   0.49210021   -7.4050888    903.80614    0.0158897  0.014090152         1703 
 4741000   0.49159584   -7.4063997    902.02651  0.015855068   0.01408545         1726 
 4742000    0.4912989   -7.4174529    902.13328  0.015853601  0.014080742         1822 
 4743000   0.50484403   -7.4137065    901.77906  0.015844034  0.014076037         1754 
 4744000    0.4932447   -7.4054509    902.88295  0.015860085  0.014071335         1633 
 4745000   0.50081415    -7.412049    902.85765  0.015856299  0.014066635         1702 
 4746000   0.49715026   -7.4032808    904.71467  0.015885565  0.014061939         1696 
 4747000   0.49029461   -7.4321447    902.39087  0.015841424  0.014057246         1717 
 4748000   0.47652034    -7.430645      902.233  0.015835317  0.014052547         1688 
 4749000   0.50520544    -7.412039    902.50346  0.015836728  0.014047853         1700 
 4750000   0.49150045   -7.4302189    903.74575  0.015855189   0.01404316         1706 
 4751000   0.49486669   -7.4289116    902.89736   0.01583697  0.014038468         1742 
 4752000   0.48458711   -7.4253562    902.17438  0.015820959  0.014033774         1770 
 4753000   0.49197871    -7.414727    900.67533  0.015791348  0.014029087         1730 
 4754000   0.49617483   -7.4393382    902.00129  0.015811269  0.014024403         1663 
 4755000   0.49512481   -7.4259548    901.09203  0.015792009  0.014019719         1661 
 4756000   0.48943165   -7.4118054    903.26005  0.015826676  0.014015044         1711 
 4757000   0.48582683   -7.4311434    901.47376  0.015792057  0.014010366         1756 
 4758000   0.48600563   -7.4163671    903.04066  0.015816181  0.014005689         1690 
 4759000   0.49201677   -7.4178833    900.98426  0.015776848  0.014001012         1764 
 4760000   0.49303329   -7.4248289    902.09082  0.015792907  0.013996339         1774 
 4761000   0.48776891   -7.4166629    902.92515  0.015804193  0.013991666         1779 
 4762000   0.48449732   -7.4065068    902.16172  0.015787514  0.013986996         1745 
 4763000    0.4864459   -7.4240171    903.24586  0.015803168   0.01398233         1666 
 4764000   0.49011465   -7.4346731    903.25554   0.01580002  0.013977667         1695 
 4765000    0.4864444   -7.4285063    901.62988  0.015768273  0.013973009         1771 
 4766000   0.50162285   -7.4091396    902.40975  0.015778601  0.013968352         1789 
 4767000   0.49711688   -7.4359689    902.02957  0.015768645  0.013963693         1722 
 4768000   0.49050101   -7.4318864    902.72726  0.015777532  0.013959042         1716 
 4769000   0.48908531   -7.4218537    901.53435  0.015753379  0.013954391         1779 
 4770000   0.47653677   -7.4290668    902.11028  0.015760138  0.013949739         1752 
 4771000    0.4834089   -7.4089684    902.08411  0.015756377  0.013945088         1715 
 4772000   0.48751039    -7.428486    903.68724  0.015781071   0.01394044         1796 
 4773000   0.48653707   -7.4335986    901.33367  0.015736673  0.013935797         1801 
 4774000   0.48460976   -7.4339115    902.88458  0.015760449  0.013931153         1806 
 4775000   0.49472958   -7.4158533    902.61145  0.015752381  0.013926512         1725 
 4776000   0.49283196   -7.4138985    901.71755  0.015733486  0.013921873         1758 
 4777000   0.47418495   -7.4274018    903.12345  0.015754718  0.013917237         1752 
 4778000   0.48932331   -7.4231161    902.40342  0.015738862  0.013912599         1732 
 4779000   0.47743002   -7.4361286    901.67384  0.015722847   0.01390796         1749 
 4780000   0.48742418   -7.4384604     901.7543  0.015720961  0.013903326         1765 
 4781000   0.47769099   -7.4151547    903.07878  0.015740758  0.013898692         1794 
 4782000   0.47963198   -7.4377843    902.01909     0.015719  0.013894058         1742 
 4783000   0.48782628   -7.4187496    901.29805  0.015703151  0.013889435         1756 
 4784000   0.47716647   -7.4257731    901.29658  0.015699843  0.013884809         1810 
 4785000   0.48828995   -7.4549878    901.08104  0.015692808  0.013880179         1741 
 4786000   0.48289259   -7.4327465    902.30632  0.015710864  0.013875549         1729 
 4787000   0.49933089   -7.4254765    901.77906  0.015698403  0.013870926         1683 
 4788000   0.48535389   -7.4100269    902.44147  0.015706653  0.013866312         1724 
 4789000   0.47424004   -7.4331894     901.5742  0.015688282  0.013861693         1803 
 4790000   0.47864754   -7.4350248    902.18599   0.01569565  0.013857073         1804 
 4791000    0.4937108    -7.424723    901.04099  0.015672459  0.013852457         1728 
 4792000   0.48325327     -7.43638    902.52298   0.01569496  0.013847844         1780 
 4793000    0.4938209   -7.4371661    902.31593  0.015688086  0.013843236         1818 
 4794000     0.489377   -7.4219097    902.90888   0.01569512  0.013838628         1745 
 4795000   0.49599122   -7.4404575    903.00355  0.015693492   0.01383402         1802 
 4796000   0.47903282   -7.4306326    902.29221   0.01567786   0.01382941         1817 
 4797000   0.47990169   -7.4394735    902.45955  0.015677499  0.013824806         1812 
 4798000     0.484489   -7.4305818    901.13913  0.015651298  0.013820199         1784 
 4799000   0.50038235   -7.4422398    902.55663  0.015672651    0.0138156         1719 
 4800000   0.48531416   -7.4161281    902.29041  0.015664764  0.013811003         1780 
 4801000   0.48226478   -7.4511184    901.77692  0.015652588  0.013806405         1751 
 4802000   0.48857465   -7.4458298    901.34872  0.015641898   0.01380181         1812 
 4803000     0.486327   -7.4397048    901.50436  0.015641341  0.013797218         1705 
 4804000    0.4851997   -7.4302566    902.60357  0.015657153  0.013792625         1799 
 4805000   0.47782122   -7.4199797    901.34996  0.015632153  0.013788037         1792 
 4806000   0.47635061   -7.4349284    902.83326   0.01565462  0.013783449         1770 
 4807000   0.48281461   -7.4436603    901.45795  0.015627522   0.01377886         1857 
 4808000   0.47297597    -7.433244    901.95884  0.015632953  0.013774273         1837 
 4809000   0.47881999    -7.429449    902.51001  0.015639253   0.01376969         1842 
 4810000    0.4839154   -7.4159262    902.48034  0.015635488  0.013765109         1760 
 4811000    0.4869333   -7.4327673     901.3989  0.015613505   0.01376053         1759 
 4812000   0.47906525   -7.4228237    902.77572  0.015634104   0.01375595         1862 
 4813000   0.48259427   -7.4326423    902.20711  0.015621011  0.013751374         1808 
 4814000   0.48393997   -7.4390174    901.71853  0.015609308  0.013746801         1830 
 4815000   0.48384644   -7.4308151    901.99727  0.015610891  0.013742228         1848 
 4816000   0.48704061   -7.4312893    902.12564  0.015609871  0.013737654         1791 
 4817000   0.47624805   -7.4484937    900.96476  0.015586547  0.013733081         1800 
 4818000   0.48715995   -7.4549533     900.0254  0.015567065  0.013728514         1865 
 4819000   0.48770339    -7.431914    900.87218  0.015578477  0.013723945         1736 
 4820000   0.47927853   -7.4384188    901.68932  0.015589373  0.013719383         1727 
 4821000   0.48360339   -7.4388839    903.05064   0.01560967  0.013714826         1773 
 4822000    0.4765701   -7.4433282    900.22904   0.01555767   0.01371027         1801 
 4823000   0.46603014   -7.4433299    901.05597  0.015568733   0.01370571         1808 
 4824000   0.46581203   -7.4341058    902.78634  0.015595397  0.013701154         1779 
 4825000    0.4710895   -7.4381144    900.77214  0.015557377  0.013696601         1844 
 4826000   0.48371979   -7.4443566    902.65675  0.015586696  0.013692055         1778 
 4827000   0.48314107   -7.4391801     901.2943  0.015559946  0.013687503         1802 
 4828000   0.48842397   -7.4390755    901.96727  0.015568339  0.013682953         1850 
 4829000   0.48478951   -7.4383209    901.38713  0.015555103  0.013678411         1847 
 4830000   0.47969395   -7.4262697    901.67658  0.015556877  0.013673868         1746 
 4831000   0.48561981    -7.439463    901.34643  0.015547962  0.013669328         1790 
 4832000    0.4737829   -7.4392891    902.75735  0.015569077  0.013664795         1877 
 4833000   0.47328631   -7.4551079    900.84044  0.015532803  0.013660258         1758 
 4834000   0.48122956    -7.449603    901.01432  0.015532587  0.013655724         1778 
 4835000   0.48788806   -7.4427265     902.9078   0.01556201   0.01365119         1802 
 4836000   0.48435965   -7.4434806    902.02291  0.015543543  0.013646659         1748 
 4837000   0.47555647   -7.4464055    901.48491  0.015531061  0.013642124         1785 
 4838000    0.4825393   -7.4446701    900.51437  0.015511134  0.013637594         1782 
 4839000   0.47622046   -7.4468543    902.12783  0.015535714  0.013633069         1797 
 4840000   0.46857063   -7.4466157    902.23175  0.015534293  0.013628544         1843 
 4841000    0.4784272   -7.4496308    901.50737  0.015518615  0.013624026         1757 
 4842000   0.47421423   -7.4503898    899.66614  0.015483721  0.013619504         1845 
 4843000   0.47393499   -7.4380834    902.99845  0.015537863   0.01361499         1735 
 4844000   0.47478357   -7.4407363    900.78226  0.015496529  0.013610473         1673 
 4845000   0.46868372   -7.4567127    901.73747   0.01550976  0.013605958         1792 
 4846000   0.47381643   -7.4584186    901.81238  0.015507848  0.013601441         1846 
 4847000   0.47713323   -7.4277905    902.61986  0.015518531  0.013596926         1926 
 4848000   0.48212911   -7.4314514    901.39961  0.015494355  0.013592415         1720 
 4849000   0.47927044   -7.4399966    901.77496  0.015497611  0.013587903         1854 
 4850000   0.47204711   -7.4534907    901.00474  0.015481181  0.013583392         1805 
 4851000   0.48253999   -7.4436453    901.24391  0.015482098  0.013578883         1780 
 4852000   0.46802279   -7.4462854     899.9107   0.01545601  0.013574376         1827 
 4853000   0.46675908   -7.4503044    901.13587  0.015473863  0.013569875         1819 
 4854000   0.48440448   -7.4487962    902.54085  0.015494796  0.013565376         1839 
 4855000   0.47384093   -7.4549574    901.00588  0.015465257  0.013560876         1900 
 4856000   0.46637827   -7.4639407    901.49818  0.015470521  0.013556377         1852 
 4857000   0.47553752   -7.4488065    902.06922  0.015477133   0.01355188         1802 
 4858000   0.48014604   -7.4493589    899.93533  0.015437343  0.013547387         1846 
 4859000   0.46852658   -7.4523022    899.89297  0.015433439  0.013542897         1831 
 4860000   0.47090792   -7.4563109    899.59396  0.015425137  0.013538403         1830 
 4861000   0.46677954   -7.4608144    902.44242  0.015470795  0.013533914         1924 
 4862000   0.47057027   -7.4612722    901.58283   0.01545288  0.013529431         1818 
 4863000   0.47490242   -7.4382886     901.5621  0.015449347  0.013524946         1887 
 4864000   0.47278895   -7.4476045    902.70278  0.015465714  0.013520464         1914 
 4865000   0.47300108   -7.4602104    900.86757  0.015431099  0.013515988         1890 
 4866000   0.46294049   -7.4454483    900.70315  0.015425112  0.013511507         1797 
 4867000   0.46899173   -7.4480257    901.17049  0.015429945  0.013507029         1932 
 4868000   0.47909066   -7.4459739    900.53957  0.015415975   0.01350255         1925 
 4869000   0.46977801   -7.4720732    901.60364   0.01543102  0.013498075         1837 
 4870000   0.47384753   -7.4638724    899.95308  0.015399608  0.013493597         1979 
 4871000   0.46664337   -7.4602862    900.62562  0.015407952  0.013489124         1833 
 4872000   0.47030369   -7.4459906    901.69619  0.015423101  0.013484656         1844 
 4873000   0.49093059   -7.4679146    901.69333  0.015419887  0.013480188         1783 
 4874000   0.47205614   -7.4825944    900.60619  0.015398136  0.013475723         1969 
 4875000   0.47748629   -7.4404012    899.63679  0.015378407  0.013471261         1907 
 4876000   0.46984965   -7.4599502    900.92891  0.015397336    0.0134668         1981 
 4877000   0.48248655   -7.4544679    902.25824  0.015416893  0.013462334         1883 
 4878000   0.47043491   -7.4564073    901.64637   0.01540328  0.013457875         1796 
 4879000   0.48673408   -7.4571879    900.97982  0.015388738  0.013453418         1938 
 4880000   0.46598978   -7.4662763    900.34576  0.015374757  0.013448965         1910 
 4881000    0.4658135   -7.4618681    899.57505  0.015358449  0.013444511         1972 
 4882000   0.45800962   -7.4519191    899.53524  0.015354623  0.013440058         1970 
 4883000   0.46632667   -7.4543374    901.70119  0.015388443   0.01343561         1921 
 4884000   0.47030286    -7.452134    900.98842   0.01537313  0.013431163         1950 
 4885000   0.46749057   -7.4643679    899.29229  0.015341049  0.013426715         1877 
 4886000   0.46958019   -7.4535753     901.3467  0.015372948  0.013422268         1944 
 4887000   0.46591817   -7.4756781     900.5894  0.015356889  0.013417825         1979 
 4888000   0.46807753   -7.4564469    901.89442  0.015375996  0.013413386         1897 
 4889000   0.47424254   -7.4669583    900.26478  0.015345074  0.013408946         1942 
 4890000   0.45747702   -7.4722748    899.02923   0.01532088  0.013404507         2037 
 4891000   0.46745644   -7.4629327     900.9251  0.015350049   0.01340007         1933 
 4892000   0.46385882   -7.4465658    899.59223  0.015324207  0.013395636         1870 
 4893000   0.45932235    -7.457376      901.954  0.015361298  0.013391202         1854 
 4894000   0.45981607   -7.4644098    899.34464  0.015313728   0.01338677         1892 
 4895000   0.45794308   -7.4741138    901.25607   0.01534314  0.013382339         1903 
 4896000   0.46271568   -7.4778913    900.81777  0.015332546  0.013377908         1929 
 4897000   0.46765034   -7.4679974    899.58048   0.01530836   0.01337348         1950 
 4898000   0.47012994   -7.4699039    900.10526  0.015314163  0.013369055         1966 
 4899000    0.4622485   -7.4680781    902.10757  0.015345097  0.013364635         1942 
 4900000   0.46346386    -7.457602    900.04627  0.015306909  0.013360214         1933 
 4901000   0.47020056   -7.4668433    899.78969  0.015299423  0.013355801         1963 
 4902000   0.47651801    -7.469028    900.64651  0.015310868  0.013351386         1927 
 4903000   0.46100259   -7.4503028    901.03089  0.015314278  0.013346973         1862 
 4904000   0.46312594   -7.4484265    901.35459  0.015316656  0.013342557         1870 
 4905000   0.47215478   -7.4643057    900.23217  0.015294464  0.013338145         1909 
 4906000   0.47279948   -7.4540521    899.01134   0.01527061  0.013333733         1960 
 4907000   0.47494949   -7.4602617     901.2989  0.015306346  0.013329326         1916 
 4908000   0.47342223   -7.4690716    899.59519    0.0152743  0.013324917         1956 
 4909000   0.46166873   -7.4494259    901.01599  0.015295308   0.01332051         2015 
 4910000   0.46916727   -7.4656825    900.32013  0.015280382  0.013316107         1898 
 4911000   0.46364357   -7.4697242    901.24154  0.015292906  0.013311705         1898 
 4912000   0.47494041   -7.4705951    899.54941  0.015261085  0.013307306         1857 
 4913000   0.46960344   -7.4636107    901.45161  0.015290244   0.01330291         1967 
 4914000   0.46758014    -7.466756    899.10845  0.015247396  0.013298512         1908 
 4915000   0.46594161   -7.4608821    901.58528  0.015286288  0.013294121         1901 
 4916000   0.45828822   -7.4789857    898.75215  0.015235153  0.013289725         1958 
 4917000   0.46163551   -7.4615364    899.61612  0.015246697  0.013285332         1931 
 4918000   0.46061668   -7.4649041    900.46301  0.015257947  0.013280943         1905 
 4919000   0.46178646   -7.4490764    899.68537  0.015241671  0.013276559         1860 
 4920000   0.46781173   -7.4682904    900.12275  0.015245981  0.013272174         1886 
 4921000   0.46400985   -7.4786529    899.73137  0.015236256  0.013267791         1919 
 4922000   0.46510158    -7.463249    899.40355   0.01522761  0.013263408         1876 
 4923000   0.46874722   -7.4684579    899.43136  0.015224987  0.013259027         1883 
 4924000   0.47641218   -7.4568809    901.81612  0.015262255  0.013254646         1885 
 4925000   0.45714179   -7.4697145     900.2721  0.015233031  0.013250268         1866 
 4926000   0.47502584   -7.4781049    899.34765  0.015214299  0.013245894         1912 
 4927000   0.46489992   -7.4737984    899.56766  0.015214932  0.013241523         1920 
 4928000   0.46949475   -7.4664808    900.01997  0.015219494  0.013237154         1971 
 4929000   0.47554614   -7.4713159    898.36185  0.015188372  0.013232786         1926 
 4930000   0.46115666   -7.4781353    900.26794  0.015217511  0.013228417         1885 
 4931000   0.46660602   -7.4616405    898.68941  0.015187748  0.013224051         1848 
 4932000   0.46186224   -7.4676617    899.96166  0.015206165  0.013219684         1934 
 4933000   0.45942885   -7.4733168    899.35833   0.01519289  0.013215319         1844 
 4934000   0.46204978   -7.4637872    900.72437  0.015212883  0.013210957         1857 
 4935000   0.46670153   -7.4662784    901.35298  0.015220415  0.013206594         1910 
 4936000   0.46230456   -7.4739799    900.43256  0.015201792   0.01320224         1851 
 4937000   0.46084446   -7.4819291    899.51859  0.015183286   0.01319788         1875 
 4938000   0.46367376   -7.4875031    900.29887  0.015193379  0.013193523         1867 
 4939000   0.45780398    -7.468164     900.9241  0.015200852  0.013189167         1949 
 4940000   0.46570949   -7.4703105    899.33196  0.015170917  0.013184814         1841 
 4941000   0.46445589   -7.4788821    900.37723  0.015185476  0.013180465         1825 
 4942000   0.46178812   -7.4778927    900.38523  0.015182538  0.013176116         1859 
 4943000   0.46822759   -7.4664909    900.40957  0.015179877   0.01317177         1844 
 4944000   0.46511486   -7.4777391    899.10802  0.015154868  0.013167424         1901 
 4945000   0.46634044   -7.4827603     899.9114  0.015165342   0.01316308         1901 
 4946000    0.4548334   -7.4904719    898.67147  0.015141385   0.01315874         1944 
 4947000   0.46617654   -7.4569417    900.24886  0.015164896  0.013154403         1890 
 4948000   0.45745718   -7.4945233    899.34926   0.01514668   0.01315007         1930 
 4949000   0.45544618   -7.4779598    899.81404  0.015151445  0.013145736         1928 
 4950000   0.46505286   -7.4722486    899.67498  0.015146043  0.013141404         1890 
 4951000   0.47277665   -7.4665471    900.45523  0.015156117  0.013137074         1847 
 4952000   0.46823957   -7.4589839    901.90491  0.015177452  0.013132747         1886 
 4953000   0.45791212   -7.4672679    897.94721    0.0151078  0.013128422         1956 
 4954000   0.44952963   -7.4790634     900.7843  0.015152474    0.0131241         1869 
 4955000   0.46017626   -7.4821939    899.56799  0.015128961  0.013119771         1901 
 4956000   0.46187484     -7.47371    898.52434  0.015108359  0.013115449         1868 
 4957000   0.46098695   -7.4737013    899.77615  0.015126356  0.013111127         1881 
 4958000   0.45271578   -7.4765765    900.26011  0.015131439  0.013106809         1866 
 4959000   0.45437323   -7.4762121    899.79778  0.015120619   0.01310249         1906 
 4960000   0.46449623   -7.4758151    900.00946  0.015121127  0.013098176         1919 
 4961000   0.46238323   -7.4763792    898.96145  0.015100475   0.01309386         1877 
 4962000   0.45263174   -7.4821712    897.87678  0.015079215  0.013089546         1944 
 4963000   0.46126904   -7.4770534    899.30341  0.015100131  0.013085234         1881 
 4964000   0.45533644   -7.4692896    899.78084  0.015105104  0.013080927         1954 
 4965000   0.45658082   -7.4774489    899.03423  0.015089531  0.013076625         1847 
 4966000   0.45468635   -7.4768487    899.41426  0.015092869  0.013072318         1876 
 4967000   0.45770211   -7.4674035    900.35233  0.015105569  0.013068014         1884 
 4968000   0.46596936   -7.4852726    898.28343  0.015067825  0.013063718         1808 
 4969000   0.46283278    -7.481207    898.85638  0.015074401  0.013059419         1820 
 4970000    0.4689988    -7.493948    899.84609  0.015087963  0.013055123         1914 
 4971000   0.45646875   -7.4861786    898.67845  0.015065353  0.013050827         1913 
 4972000   0.45530536   -7.4875505    900.53922  0.015093511  0.013046532         1948 
 4973000   0.46959565    -7.471089    898.90387  0.015063072   0.01304224         1995 
 4974000   0.46207839   -7.4768665    899.05043  0.015062499  0.013037945         1917 
 4975000   0.45755391   -7.4773377    898.99564  0.015058554  0.013033653         1911 
 4976000   0.45721639   -7.4789539    900.08537  0.015073777  0.013029364         2010 
 4977000   0.46056394    -7.492912    899.26038  0.015056935  0.013025081         1915 
 4978000   0.45299797   -7.4795741    899.33952  0.015055235  0.013020803         1900 
 4979000   0.46036099   -7.4885739    899.46643  0.015054335   0.01301652         1897 
 4980000   0.44928062   -7.4860328     899.0347  0.015044088   0.01301224         1944 
 4981000   0.45540165   -7.5007631    899.54322  0.015049575  0.013007961         1961 
 4982000   0.45657149    -7.491563    898.65425  0.015031685  0.013003681         1952 
 4983000   0.45559438   -7.4873401    899.47599  0.015042411  0.012999408         1907 
 4984000    0.4574951   -7.4785406      899.009  0.015031584  0.012995132         1956 
 4985000   0.45453717   -7.4814554     899.1483  0.015030898   0.01299086         1912 
 4986000   0.46194257   -7.4731684    898.75348  0.015021284  0.012986586         1941 
 4987000   0.45454925   -7.4913594    898.24521  0.015009779  0.012982314         1948 
 4988000   0.45285736   -7.4811731    899.15721  0.015022006  0.012978044         1895 
 4989000   0.45351551   -7.4774486    898.82965  0.015013524  0.012973777         1867 
 4990000   0.45883653   -7.4879787    900.22163  0.015033761  0.012969512         1890 
 4991000   0.45489995   -7.4918678    897.39912  0.014983623  0.012965248         1900 
 4992000   0.44169298   -7.5027176    899.95725  0.015023325  0.012960988         1956 
 4993000   0.45948636    -7.481723    898.78904  0.015000819  0.012956724         1898 
 4994000   0.44950448    -7.492642    898.68614  0.014996098  0.012952466         1951 
 4995000   0.46248913   -7.4969898    898.26412  0.014986055  0.012948208         1916 
 4996000   0.46677379    -7.487735    898.47725   0.01498661  0.012943953         1913 
 4997000   0.44774328    -7.484359    899.82758   0.01500613    0.0129397         1929 
 4998000   0.44882185   -7.4767638     898.5417  0.014981688  0.012935452         1946 
 4999000    0.4453616   -7.4871128    898.11742  0.014971618  0.012931202         1816 
 5000000   0.44601463   -7.5003118    899.66834  0.014994472  0.012926959         2004 
 5001000   0.44815398   -7.4780296    899.04591  0.014981102  0.012922717         1941 
 5002000   0.44375418   -7.5012446    899.86405  0.014991738  0.012918475         1931 
 5003000   0.44791646   -7.4936911    898.58603  0.014967453  0.012914236         1887 
 5004000   0.45313594   -7.4990258    899.62084  0.014981695  0.012909997         1937 
 5005000   0.44976769   -7.4997071     897.5428  0.014944103  0.012905762         1926 
 5006000   0.44420791   -7.4897671    897.89139   0.01494692  0.012901527         1875 
 5007000   0.44516816   -7.4824822    897.37961  0.014935417  0.012897292         1974 
 5008000   0.44638837   -7.4914489     899.6053   0.01496947  0.012893059         1854 
 5009000   0.44522997    -7.492791    899.06863  0.014957554  0.012888827         1920 
 5010000   0.45706368   -7.4930242    899.47622  0.014961348    0.0128846         1887 
 5011000   0.46393718   -7.4951958    897.25656  0.014921449  0.012880373         1926 
 5012000   0.44908461    -7.484578    898.32791  0.014936285   0.01287615         1909 
Loop time of 13002 on 48 procs for 5000000 steps with 4000 atoms

Performance: 66451.317 tau/day, 384.556 timesteps/s
99.4% CPU use with 48 MPI tasks x no OpenMP threads

MPI task timing breakdown:
Section |  min time  |  avg time  |  max time  |%varavg| %total
---------------------------------------------------------------
Pair    | 961.38     | 1031.2     | 1098.4     | 118.3 |  7.93
Neigh   | 90.211     | 94.02      | 98.711     |  20.4 |  0.72
Comm    | 847.41     | 913.06     | 981.18     | 121.0 |  7.02
Output  | 16.489     | 16.494     | 16.598     |   0.4 |  0.13
Modify  | 10794      | 10826      | 10851      |  13.5 | 83.27
Other   |            | 120.7      |            |       |  0.93

Nlocal:        83.3333 ave          90 max          76 min
Histogram: 3 0 5 6 1 16 6 7 3 1
Nghost:        2429.10 ave        2450 max        2415 min
Histogram: 8 4 7 5 8 5 4 3 2 2
Neighs:        16836.5 ave       19519 max       14488 min
Histogram: 3 5 7 7 3 4 7 7 4 1
FullNghs:      33672.4 ave       36238 max       30442 min
Histogram: 1 2 3 4 7 10 10 5 4 2

Total # of neighbors = 1616277
Ave neighs/atom = 404.06925
Neighbor list builds = 267314
Dangerous builds = 0

#clear
#
#next RN
#
#jump SELF
Total wall time: 3:36:45
