
units lj                  # Use reduced LJ style units
atom_style atomic         # Uncharged point particles
atom_modify map hash      # Needed for indexing of clusters etc
                          # Used to be able to find where atoms are in relation to each other.

lattice fcc 1.0 spacing 1 1 1
Lattice spacing in x,y,z = 1.5874011 1.5874011 1.5874011
region box block 0 10 0 10 0 10 units lattice
create_box 2 box
Created orthogonal box = (0.0000000 0.0000000 0.0000000) to (15.874011 15.874011 15.874011)
  3 by 4 by 4 MPI processor grid
create_atoms 1 box
Created 4000 atoms
  using lattice units in orthogonal box = (0.0000000 0.0000000 0.0000000) to (15.874011 15.874011 15.874011)
  create_atoms CPU = 0.003 seconds
set type 1 type/fraction 2 0.11 78393
Setting atom values ...
  470 settings made for type/fraction
mass 1 1.0
mass 2 1.0
pair_style lj/cut  3.5
pair_modify tail  yes
pair_coeff 1  1  1.0  1.0   # Intearaction between 1 and 1 set with epsilon = 1 and sigma = 1
pair_coeff 1  2  1.5  0.8
pair_coeff 2  2  0.5  0.88

write_data data.0
System init for write_data ...
Neighbor list info ...
  update every 1 steps, delay 10 steps, check yes
  max neighbors/atom: 2000, page size: 100000
  master list distance cutoff = 3.8
  ghost atom cutoff = 3.8
  binsize = 1.9, bins = 9 9 9
  1 neighbor lists, perpetual/occasional/extra = 1 0 0
  (1) pair lj/cut, perpetual
      attributes: half, newton on
      pair build: half/bin/atomonly/newton
      stencil: half/bin/3d
      bin: standard
WARNING: Not all mixed pair coeffs generated from mixing. Use write_data with 'pair ij' option to store all pair coeffs. (../write_data.cpp:312)


#############################
#   M E L T   S Y S T E M   #
#############################

velocity all create 2.4 3143649 mom yes dist gaussian # Assign velocities
                                                    # Temperature 2.4, random number seed, zero linear momentum
                                                                                # Gaussian distribution

timestep 0.002   # simulation timestep
thermo 1000       # output thermodynamic data every 1000 steps bf 100

# Define a fix  in this case with index 1 applied to all
# particles in the simulation. This fix is for simulations
# in the anisotropic NPT ensemble. Note that we use the MTK
# correction.
fix 1 all npt temp 2.4 2.4 0.1 iso 5.68 5.68 0.5 mtk yes tchain 5 pchain 5 # Use NPT ensemble
                                                                         # Set temperature and pressure and damping
                                                                         # Numbers of thermostats in chain and in barostat
run 10000          # run for 10000 steps
Per MPI rank memory allocation (min/avg/max) = 3.642 | 3.644 | 3.648 Mbytes
Step Temp E_pair E_mol TotEng Press Volume 
       0          2.4   -7.6169122            0   -4.0178122   -3.1065461         4000 
    1000     2.407842   -4.6255458            0   -1.0146857    5.7161536    4803.9399 
    2000    2.3750885   -4.6070909            0   -1.0453488     5.799285    4798.4428 
    3000    2.3437907   -4.6638921            0   -1.1490851    5.6428932    4781.5272 
    4000    2.4173497   -4.6528505            0   -1.0277324     5.801677    4771.3863 
    5000    2.4141305   -4.6740107            0   -1.0537202    5.8127591    4761.3469 
    6000    2.3999851   -4.6578303            0   -1.0587527    5.8498683    4768.8654 
    7000    2.3498957   -4.6518539            0   -1.1278916    5.6093647    4791.1288 
    8000    2.4116102   -4.5991723            0  -0.98266137    5.8478011    4799.2161 
    9000    2.3643784   -4.6751428            0   -1.1294619    5.7759198    4760.5057 
   10000     2.434027   -4.6069898            0  -0.95686208    6.0477591    4768.9948 
Loop time of 2.24381 on 48 procs for 10000 steps with 4000 atoms

Performance: 770118.393 tau/day, 4456.704 timesteps/s
99.6% CPU use with 48 MPI tasks x no OpenMP threads

MPI task timing breakdown:
Section |  min time  |  avg time  |  max time  |%varavg| %total
---------------------------------------------------------------
Pair    | 0.91186    | 0.9666     | 1.0721     |   2.9 | 43.08
Neigh   | 0.1883     | 0.19686    | 0.21012    |   1.0 |  8.77
Comm    | 0.66468    | 0.79419    | 0.85814    |   3.8 | 35.39
Output  | 0.00024734 | 0.00025177 | 0.0003188  |   0.0 |  0.01
Modify  | 0.22547    | 0.27116    | 0.32647    |   4.9 | 12.08
Other   |            | 0.01474    |            |       |  0.66

Nlocal:        83.3333 ave          93 max          75 min
Histogram: 3 2 7 10 5 9 4 3 1 4
Nghost:        1459.67 ave        1497 max        1427 min
Histogram: 1 5 4 7 10 7 9 2 1 2
Neighs:        7976.88 ave        9199 max        6908 min
Histogram: 2 3 5 9 12 7 3 3 1 3

Total # of neighbors = 382890
Ave neighs/atom = 95.722500
Neighbor list builds = 898
Dangerous builds = 178

# Equilibrate just above the melting temperature to avoid step fn in T

fix 1 all npt temp 1.25 1.25 0.1 iso 5.68 5.68 0.5 mtk yes tchain 5 pchain 5
run 2000
Per MPI rank memory allocation (min/avg/max) = 3.642 | 3.644 | 3.648 Mbytes
Step Temp E_pair E_mol TotEng Press Volume 
   10000     2.434027   -4.6069898            0  -0.95686208    6.0477591    4768.9948 
   11000    1.2275784   -6.2289373            0   -4.3880301    5.7205769    3945.5718 
   12000    1.2379983   -6.2266679            0   -4.3701348    5.7600847    3947.3752 
Loop time of 0.47899 on 48 procs for 2000 steps with 4000 atoms

Performance: 721517.471 tau/day, 4175.448 timesteps/s
99.6% CPU use with 48 MPI tasks x no OpenMP threads

MPI task timing breakdown:
Section |  min time  |  avg time  |  max time  |%varavg| %total
---------------------------------------------------------------
Pair    | 0.2071     | 0.22705    | 0.25145    |   1.9 | 47.40
Neigh   | 0.030589   | 0.032963   | 0.036041   |   0.6 |  6.88
Comm    | 0.14384    | 0.16458    | 0.18747    |   2.5 | 34.36
Output  | 5.0493e-05 | 5.2246e-05 | 6.5932e-05 |   0.0 |  0.01
Modify  | 0.039363   | 0.049831   | 0.060605   |   2.7 | 10.40
Other   |            | 0.004512   |            |       |  0.94

Nlocal:        83.3333 ave          94 max          76 min
Histogram: 4 8 6 6 4 7 8 3 1 1
Nghost:        1652.27 ave        1682 max        1620 min
Histogram: 2 2 5 5 7 11 5 5 3 3
Neighs:        9651.56 ave       11070 max        8599 min
Histogram: 4 3 9 10 3 6 7 2 2 2

Total # of neighbors = 463275
Ave neighs/atom = 115.81875
Neighbor list builds = 141
Dangerous builds = 12

#############################
# L I N E A R  Q U E N C H  #
#############################

# Define solid atoms. This closely follows ten Wolde  Ruiz-Montero and Frenkel  Faraday Discuss  1996  104  93-110
# Compute components of the per-atom q6 vector
compute q6 all orientorder/atom degrees 1 6 components 6 nnn NULL cutoff 1.3 # compute the Q6 parameter.
                                                                             # Use all neighbours within 1.3 unit cell.

# get number of connections
compute coord_number all coord/atom orientorder q6 0.5

# An atom is solid if it has 8 or more connections (of a possible 14)
variable is_solid atom c_coord_number>=8
group solid dynamic all var is_solid    # Must be dynamic to update
dynamic group solid defined

# do clustering
compute cluster solid cluster/atom 1.3 # Create a cluster where all atoms within are solid and max 1.3 units from another member

# define chunks one chunk per cluster
compute clus_chunks solid chunk/atom c_cluster nchunk every compress yes  # Says which atoms are in which chunk

# count the size of each chunk
compute size_chunks solid property/chunk clus_chunks count


# Find the maximum entry in the vector of chunk sizes
variable max_n equal max(c_size_chunks)


# Thermo style which includes this variable
# thermo_style custom step temp pe vol v_max_n

thermo ${N}  # Print the thermo information every 100 steps
thermo 1000  

# Reset the npt fix at a lower temperature (below freezing)
fix 1  all npt temp  ${temp} ${temp}  0.1  iso  5.68  5.68  0.5  mtk yes tchain  5  pchain  5
fix 1  all npt temp  0.45 ${temp}  0.1  iso  5.68  5.68  0.5  mtk yes tchain  5  pchain  5
fix 1  all npt temp  0.45 0.45  0.1  iso  5.68  5.68  0.5  mtk yes tchain  5  pchain  5

dump dmp2 all dcd ${N} traj.dcd
dump dmp2 all dcd 1000 traj.dcd


compute msd all msd com yes
variable twopoint equal c_msd[4]/6/(step*dt+1.0e-6)
fix 9 all vector 10 c_msd[4]
variable fit equal slope(f_9)/6/(10*dt)
thermo_style custom step temp pe c_msd[4] v_twopoint v_fit v_max_n

fix 1 all npt temp 1.25 ${temp} 0.1 iso 5.68 5.68 0.5 mtk yes tchain 5 pchain 5
fix 1 all npt temp 1.25 0.45 0.1 iso 5.68 5.68 0.5 mtk yes tchain 5 pchain 5
run 500000 # 5000000  # Run for this many steps
Neighbor list info ...
  update every 1 steps, delay 10 steps, check yes
  max neighbors/atom: 2000, page size: 100000
  master list distance cutoff = 3.8
  ghost atom cutoff = 3.8
  binsize = 1.9, bins = 9 9 9
  4 neighbor lists, perpetual/occasional/extra = 1 3 0
  (1) pair lj/cut, perpetual
      attributes: half, newton on
      pair build: half/bin/atomonly/newton
      stencil: half/bin/3d
      bin: standard
  (2) compute orientorder/atom, occasional
      attributes: full, newton on
      pair build: full/bin/atomonly
      stencil: full/bin/3d
      bin: standard
  (3) compute coord/atom, occasional
      attributes: full, newton on
      pair build: full/bin/atomonly
      stencil: full/bin/3d
      bin: standard
  (4) compute cluster/atom, occasional
      attributes: full, newton on
      pair build: full/bin/atomonly
      stencil: full/bin/3d
      bin: standard
Per MPI rank memory allocation (min/avg/max) = 9.748 | 9.758 | 9.764 Mbytes
Step Temp PotEng c_msd[4] v_twopoint v_fit v_max_n 
   12000    1.2379983   -6.2266679 1.0205888e-30 7.0874219e-33 8.3333333e+20            2 
   13000    1.2645299   -6.1900839   0.54953423 0.0035226552  0.045268567            6 
   14000    1.2557334    -6.248624    1.1060085 0.0065833837  0.045744133            3 
   15000    1.2613065   -6.2457076    1.7061606 0.0094786695  0.047304075            3 
   16000    1.2557261   -6.2291983     2.286344  0.011908041  0.047851157            2 
   17000      1.21738   -6.3005886    2.7916534  0.013684575  0.047366288            3 
   18000    1.2367733   -6.2709605    3.3811508  0.015653476  0.046995668            2 
   19000     1.242697   -6.2842791    3.8756999  0.016998683  0.046682991            3 
   20000    1.2677333   -6.2666166    4.4049494  0.018353955  0.046165071            3 
   21000    1.2477138   -6.2879177    4.9497489   0.01964186  0.045776704            2 
   22000    1.2285095   -6.2850323    5.5105282  0.020873212  0.045719815            3 
   23000    1.2471528    -6.269947    6.0378263  0.021876182  0.045654205            3 
   24000    1.2210643   -6.2551756    6.5332217  0.022684797  0.045572204            1 
   25000    1.2155125   -6.2924756    7.1360119  0.023786706  0.045546392            2 
   26000    1.2105382   -6.2986543    7.6285914  0.024450613  0.045466127            1 
   27000    1.2003361   -6.2791993    8.1988528  0.025305101  0.045324025            2 
   28000    1.2257884   -6.3245732    8.6828637  0.025841856   0.04523802            5 
   29000    1.2482063   -6.3387696     9.059766   0.02603381  0.044968522            2 
   30000    1.2116797   -6.2977747    9.6778031  0.026882786  0.044780517            3 
   31000    1.2106826    -6.327161    10.199083   0.02741689  0.044679402            3 
   32000    1.2133806   -6.3038618    10.742005  0.027973972  0.044552832            4 
   33000    1.2070909   -6.3171204    11.303384  0.028543899  0.044488374            3 
   34000    1.2375329   -6.3034856    11.963601  0.029322551  0.044522728            1 
   35000    1.2391319   -6.2924149    12.505616  0.029775275  0.044606698            5 
   36000    1.2687838   -6.2980747    12.947445  0.029970938  0.044614978            2 
   37000    1.2182469    -6.334738    13.497522  0.030399824  0.044616864            3 
   38000    1.2216795   -6.3381362    13.944706  0.030580494  0.044576207            4 
   39000    1.1841458   -6.3067509    14.536646  0.031061209  0.044565658            3 
   40000    1.1870047   -6.3111384    15.063924  0.031383174  0.044544249            5 
   41000    1.1832145   -6.3399617    15.532573  0.031570269  0.044521761            2 
   42000    1.2151086   -6.3292914    16.169056  0.032081461  0.044490811            6 
   43000    1.1629467   -6.3259628    16.643969  0.032255753  0.044480851            4 
   44000    1.1840161   -6.2921327    17.124381  0.032432539  0.044448555            2 
   45000    1.2007443    -6.323852    17.514696  0.032434622  0.044372366            2 
   46000    1.2100801   -6.3475683    17.963302  0.032542213  0.044279448            2 
   47000    1.1728144   -6.3327571    18.474446   0.03275611  0.044188711            1 
   48000    1.1866088   -6.3625956    18.939249  0.032880641  0.044077313            2 
   49000    1.2089939    -6.375561    19.503271  0.033168827  0.043983222            4 
   50000    1.1969018   -6.3904139    20.013349  0.033355581  0.043910601            4 
   51000    1.1885668   -6.3724553    20.498607  0.033494455   0.04385209            4 
   52000    1.1575673   -6.4120462    20.871889   0.03344854  0.043747992            7 
   53000    1.1720807   -6.3903962    21.457018  0.033737449  0.043655548            3 
   54000    1.1799518   -6.3521737     21.92151  0.033829491  0.043566095            2 
   55000     1.182756   -6.3863573    22.483814  0.034066385  0.043488064            2 
   56000    1.1858147   -6.3659243    22.822326  0.033961794  0.043393653            1 
   57000    1.1801951   -6.3614468    23.421519  0.034241987  0.043306354            1 
   58000    1.1765561   -6.3847869    23.841258   0.03425468  0.043235614            2 
   59000    1.1676793   -6.3726821    24.213579   0.03419997  0.043165223            4 
   60000    1.1748153   -6.3617575    24.768585  0.034400813  0.043074873            4 
   61000    1.1832804   -6.3957052    25.356569  0.034640122  0.043005637            2 
   62000     1.171773   -6.3583342    25.782581  0.034654007  0.042946409            2 
   63000    1.1324481   -6.4216224    26.200401  0.034656615  0.042873844            2 
   64000    1.1721378   -6.4325812    26.701052  0.034766995  0.042798545            2 
   65000    1.1847223   -6.3938014    27.105336  0.034750431  0.042731994            4 
   66000    1.1520352   -6.4225396    27.624146  0.034878972  0.042654743            5 
   67000    1.1462023   -6.4164527    28.155767   0.03501961  0.042582564            4 
   68000    1.1622284   -6.3984695    28.718999  0.035194851  0.042526282           11 
   69000    1.1660401    -6.421527    29.252345  0.035328919  0.042474884           11 
   70000    1.1523852   -6.3991423    29.775158  0.035446616  0.042427685            1 
   71000    1.1835119   -6.3888955    29.946298  0.035148237  0.042368259            3 
   72000    1.1332983   -6.4341159    30.375509  0.035156839  0.042301552            3 
   73000    1.1365825   -6.4192369    30.722989  0.035071904  0.042222084            2 
   74000    1.1480136   -6.4061169    31.178497   0.03511092   0.04213113            2 
   75000    1.1344609   -6.4539123     31.49799  0.034997766  0.042038582            1 
   76000    1.1262287   -6.4397749    32.087233   0.03518337  0.041954622            6 
   77000    1.1459884   -6.4748358    32.605951  0.035287825  0.041865896            2 
   78000    1.1347461   -6.4127414    33.134927  0.035400563   0.04178491            2 
   79000    1.1415181   -6.4118187    33.492305  0.035329436  0.041711259            3 
   80000    1.1445785   -6.4292336    33.826779  0.035236227  0.041621805            5 
   81000     1.117511   -6.4390831    34.024404  0.035004531  0.041528485            2 
   82000    1.1498848   -6.4469413    34.433317  0.034993208  0.041420085            2 
   83000    1.1702804   -6.4247841    35.013702  0.035154319  0.041314396            3 
   84000    1.1208413   -6.4425789    35.398936  0.035117992  0.041213576            2 
   85000    1.1558492   -6.4697393    35.983236  0.035277682  0.041122734            5 
   86000    1.1400786   -6.4763344     36.17925  0.035057413  0.041029812            5 
   87000     1.129432   -6.4634746    36.693837  0.035147353  0.040930329            3 
   88000    1.1542221   -6.4248347     36.94074  0.034981761  0.040832161            1 
   89000    1.1204243   -6.4871105    37.324292  0.034947839  0.040731631            2 
   90000    1.1064399   -6.5005807    37.535567  0.034755154  0.040610701            1 
   91000    1.1154142   -6.4864078     37.88659   0.03469468  0.040491455            4 
   92000    1.1076738   -6.4846725    38.311587  0.034702524  0.040370589            3 
   93000    1.1249252   -6.5157733    38.634962  0.034619142  0.040250925            2 
   94000    1.1079435   -6.4900341    39.160318  0.034716594  0.040134972            6 
   95000    1.1475634   -6.4869132    39.524477  0.034670594  0.040022086            3 
   96000    1.1013302   -6.4918665    39.847928  0.034590215  0.039908997            2 
   97000    1.1155293   -6.4906378     40.29274  0.034615756  0.039790951            5 
   98000    1.1041835   -6.4606907    40.642205  0.034559698  0.039681041            3 
   99000    1.1215028   -6.4545503    40.906761  0.034433301  0.039570374            4 
  100000    1.1384391   -6.4988743    41.364641  0.034470534  0.039460998            1 
  101000    1.1044244   -6.4831405    41.689261   0.03439708  0.039347781            3 
  102000    1.1111735   -6.5142457    41.917344  0.034246196  0.039231884            6 
  103000    1.1022584   -6.5304651    42.469914  0.034360772  0.039116473            1 
  104000    1.0952052   -6.5079342    42.683619  0.034201618  0.038999637            3 
  105000    1.0799892   -6.5585872     42.86208  0.034017524  0.038880937            4 
  106000     1.117018   -6.5070462    43.314643  0.034052392  0.038762853            3 
  107000    1.1053986   -6.5202304    43.768448  0.034087576   0.03865171            5 
  108000    1.1233147   -6.5140922    44.127479  0.034048981  0.038542761            8 
  109000    1.1029951    -6.572736    44.701076  0.034175135  0.038445802            4 
  110000    1.0863888   -6.5109741    45.091746  0.034160414   0.03835495            2 
  111000    1.0836809   -6.5455904    45.305695  0.034013284  0.038255168            4 
  112000     1.077763   -6.5226033    45.463861  0.033827277  0.038148899            7 
  113000    1.0644376   -6.6025716    45.922328  0.033866023  0.038045347            5 
  114000    1.0926307   -6.5504007       46.325  0.033863304   0.03794442            5 
  115000    1.0801906   -6.5589433     46.61797  0.033781137  0.037843709            1 
  116000    1.0841929   -6.5657114    46.904999   0.03369612  0.037743367            4 
  117000    1.0987957   -6.5846582     47.15233  0.033584281  0.037638798            3 
  118000     1.060002   -6.5537669     47.44898  0.033509167  0.037531029            3 
  119000    1.0876506   -6.5701141    47.640315  0.033361565  0.037425317            4 
  120000    1.0551406   -6.5594799    48.010924   0.03334092  0.037318334            3 
  121000    1.0688473   -6.6069961    48.249165  0.033229452  0.037209446            5 
  122000    1.1055025   -6.5473943    48.756672  0.033303738  0.037103112            3 
  123000    1.0715073   -6.5261004    49.201226  0.033334164  0.037001726            7 
  124000    1.1018243   -6.5466137    49.542963  0.033295002  0.036902577            2 
  125000    1.0553273   -6.5730307     49.74904  0.033166027  0.036801249            3 
  126000    1.0755023   -6.5727709    50.021931  0.033083288  0.036696876            4 
  127000    1.0430374   -6.6083016    50.126419  0.032891351  0.036595868            3 
  128000    1.0663466   -6.6390683    50.379922  0.032799428  0.036488368            4 
  129000    1.0662231   -6.5744038    50.999532  0.032945434   0.03638298            4 
  130000    1.0466883   -6.5658978     51.02852   0.03271059  0.036276978            3 
  131000    1.0320962   -6.5958465    51.147311  0.032536457   0.03616466            2 
  132000    1.0520301   -6.6485034    51.553196  0.032546209  0.036059068            3 
  133000    1.0580506   -6.5922724    52.137897  0.032667855  0.035955974            3 
  134000    1.0577666   -6.6272496    52.424462  0.032602277  0.035858559            6 
  135000    1.0402253   -6.6128095    52.571121  0.032451309  0.035758654           11 
  136000     1.085343   -6.6093566    53.038345  0.032498986  0.035661028            6 
  137000    1.0539252   -6.6121823    53.149456  0.032329352  0.035560348            4 
  138000    1.0407527   -6.6141388    53.504485  0.032309472   0.03546337            4 
  139000    1.0498799   -6.6275089    53.793607  0.032250364  0.035366196            2 
  140000    1.0436063   -6.6705953     54.25325  0.032293601  0.035269742            7 
  141000    1.0347703   -6.6704664    54.414988  0.032160158   0.03517485            4 
  142000    1.0361017   -6.6197684    54.692756  0.032096688  0.035076522            6 
  143000    1.0475725   -6.6717382    55.055075  0.032083377  0.034978687            2 
  144000    1.0339528   -6.6555335     55.30797  0.032006927  0.034881832            3 
  145000    1.0576429    -6.649295    55.531054  0.031914399    0.0347852            6 
  146000    1.0535455   -6.6537483    55.796343  0.031847227  0.034692784            4 
  147000    1.0147823   -6.6259626    56.138342  0.031824457  0.034597606            4 
  148000    1.0319176   -6.6855973    56.364465  0.031736748  0.034503896            5 
  149000    1.0222051   -6.6428218    56.732404  0.031729532  0.034412918            3 
  150000    1.0132437    -6.625381    57.353475  0.031863042  0.034326996            4 
  151000    1.0227801   -6.6337444    57.705495    0.0318463  0.034246379            3 
  152000    1.0140283    -6.664998    58.060261  0.031831283  0.034165947            3 
  153000     1.014629   -6.6778717    58.289329     0.031748  0.034087336            4 
  154000    1.0114297   -6.6434257    58.846442  0.031843313  0.034008807            7 
  155000    1.0101797   -6.7032125    58.952146  0.031694702   0.03393238            2 
  156000   0.99812939   -6.6798235    59.063417   0.03155097  0.033853213            3 
  157000   0.99704158   -6.6888223    59.132085  0.031386457  0.033771633            5 
  158000   0.99743622   -6.6768386    59.544877  0.031405526  0.033689606            3 
  159000   0.99254004   -6.7098232    59.778354  0.031330374  0.033606239            3 
  160000     1.019966   -6.7104023    60.383006  0.031449482  0.033527694            5 
  161000    1.0330549   -6.6635802    60.529271  0.031329851  0.033451509            3 
  162000    1.0158482   -6.6851028    60.497884  0.031120311  0.033374763            6 
  163000    1.0074169   -6.6868554    61.066841  0.031220266  0.033296055            3 
  164000    1.0062675   -6.6891316    61.401197  0.031199795  0.033219284            4 
  165000    1.0067058   -6.7097088     61.84812  0.031236424  0.033144318            8 
  166000   0.99954865   -6.7034286    61.962342  0.031105593  0.033071365            2 
  167000   0.99717072    -6.715779    62.218807  0.031047309  0.032999472            3 
  168000   0.99306128   -6.6935845    62.566008  0.031034726  0.032925221            7 
  169000    1.0218377   -6.7094044    62.891437  0.031011557   0.03285337            3 
  170000    1.0121942   -6.6748223    63.093576  0.030928224  0.032779826            4 
  171000   0.98385371   -6.7261916    63.457628   0.03092477  0.032708302            3 
  172000   0.98300594   -6.7245557    63.411596  0.030722672  0.032633368            3 
  173000   0.99034587   -6.7090246    63.705177  0.030686502  0.032558042            2 
  174000   0.98694571   -6.7732956    64.022244  0.030661994  0.032483024            2 
  175000   0.98724137   -6.7409203    64.383614  0.030658864  0.032408861            3 
  176000   0.97460363    -6.735883    64.505514  0.030542384  0.032335996            4 
  177000    1.0034674   -6.7297874    64.737418   0.03047901  0.032263508            5 
  178000    1.0065399   -6.7363521    65.007613  0.030434276  0.032189129            4 
  179000   0.98670991   -6.7628292    65.283225  0.030392563  0.032115015            4 
  180000   0.97958213   -6.7738053    65.458484  0.030304854  0.032041196            3 
  181000   0.96587958   -6.7356311    65.858761  0.030321713  0.031966743            6 
  182000   0.99822134   -6.7375048    65.807954  0.030131847  0.031892164            2 
  183000   0.98756511   -6.7198235    65.915923  0.030016358  0.031813984            5 
  184000   0.96122294    -6.768376    66.062306  0.029919522  0.031734548            6 
  185000   0.98047762   -6.7572579     66.43485  0.029925608  0.031654722            8 
  186000   0.96802808   -6.7677108    66.648562  0.029860467  0.031576693            4 
  187000   0.98970051   -6.7675181    66.786471  0.029762242  0.031499774            3 
  188000   0.96731538   -6.7600526    67.135226  0.029758522  0.031424198            8 
  189000   0.95195948   -6.7927492     67.44404  0.029737231  0.031348963            3 
  190000   0.98404231   -6.8246913    67.623827  0.029659573  0.031274107            4 
  191000   0.96715054    -6.800739    67.964802  0.029653055  0.031199786           10 
  192000   0.96350332   -6.7747431    68.422243  0.029697154  0.031126248           13 
  193000   0.94159504   -6.7795216    68.442225   0.02955191  0.031053739            4 
  194000   0.97538317   -6.7703006    68.633279  0.029481649  0.030981789            3 
  195000   0.96607376   -6.7864127    69.123858   0.02954011  0.030910466            3 
  196000    0.9499697   -6.7735757    69.318059  0.029471964  0.030839754            6 
  197000   0.95090474   -6.7802414    69.481109  0.029391332  0.030768527            4 
  198000   0.94503059   -6.7884819    69.753396   0.02935749  0.030698202            5 
  199000   0.93611311   -6.8162798     69.93938  0.029287847  0.030628939            6 
  200000   0.94117123   -6.8173459    70.097616   0.02920734    0.0305612            7 
  201000   0.95077576   -6.8202446      70.3291  0.029158002  0.030491111            2 
  202000   0.94576469   -6.8398784    70.656318  0.029148646  0.030420698            4 
  203000   0.93746711   -6.8169854    70.805428  0.029066268  0.030350716            2 
  204000   0.95525788   -6.7901045     70.77705  0.028912193   0.03027977           12 
  205000   0.95337243   -6.8396215     70.94122  0.028837894  0.030207589            4 
  206000   0.92872154   -6.8222883    71.171569  0.028791088  0.030135319            5 
  207000   0.94873728   -6.8510674    71.315578  0.028709975  0.030061876            5 
  208000   0.94250365   -6.8636144    71.351227  0.028586229  0.029987768            5 
  209000   0.94653149   -6.8371355    71.695138  0.028586578  0.029912622           11 
  210000   0.92810454   -6.8566778    71.868347  0.028519185  0.029840376            6 
  211000   0.92477468    -6.854453    72.188876  0.028510615  0.029769027            6 
  212000   0.95028465   -6.8550427    72.193545  0.028377966  0.029696747           10 
  213000   0.93158876    -6.864464    72.468815  0.028352432  0.029624583            3 
  214000   0.91237827   -6.8610398    72.619755  0.028278721  0.029553663            4 
  215000   0.93464984   -6.8535177    72.777587  0.028208367  0.029482994            9 
  216000   0.93068769   -6.8546113    73.074262  0.028192231  0.029411271            6 
  217000   0.94302364   -6.8958015     73.02763  0.028044405  0.029338572            3 
  218000   0.91168739   -6.9175521    73.030089  0.027916701  0.029264664            5 
  219000   0.93364641   -6.8687513    73.418528  0.027937035   0.02918974            5 
  220000   0.90967415    -6.897925    73.565898   0.02786587   0.02911541            4 
  221000   0.91936763   -6.8843758    73.742445  0.027806352  0.029041603            6 
  222000   0.91632978   -6.8600345    73.729937  0.027676403   0.02896842            9 
  223000   0.91998748   -6.8846506    74.204005  0.027729449  0.028895758            7 
  224000   0.93042493   -6.8768469    74.311108  0.027645501  0.028823414            5 
  225000   0.88711054   -6.8976317    74.688784  0.027662512   0.02875234            5 
  226000   0.91161405   -6.9302603    74.756249  0.027564989  0.028681114           10 
  227000   0.90104583   -6.8769124    75.098441  0.027569178  0.028610745            4 
  228000   0.88650269   -6.8711412    75.070028  0.027437876  0.028540294            6 
  229000   0.89816228   -6.9211724     75.08085  0.027321998  0.028468791           10 
  230000   0.91163653   -6.9094014    75.673442  0.027417914  0.028398612            3 
  231000   0.93206701   -6.9142272    75.782195  0.027338454  0.028329144            5 
  232000    0.8792974   -6.9260914    75.747766  0.027208249  0.028259015            4 
  233000   0.90437461   -6.9542176    75.780866  0.027103314  0.028187475            6 
  234000   0.87671512   -6.9533117    75.845154  0.027010382  0.028114701           10 
  235000   0.88107898   -6.9277186    76.233916  0.027033303  0.028043266            4 
  236000   0.89647725    -6.887097    76.316402  0.026947882  0.027971576            5 
  237000    0.9229591   -6.9213174    76.414199  0.026868565  0.027898948            5 
  238000   0.87916521   -6.9445522    76.438936  0.026764333  0.027826069            4 
  239000   0.88808424   -6.9260312    76.626552  0.026717766  0.027752802            3 
  240000   0.90374124   -6.9371826    76.692286  0.026629266  0.027679715            5 
  241000   0.86381577   -6.9371884    76.849187  0.026573025   0.02760742            8 
  242000   0.89202024   -6.9458404    77.019512   0.02652187  0.027535796            4 
  243000   0.85921836   -6.9619208    77.146971  0.026456437   0.02746406            3 
  244000     0.885512   -6.9586688    77.346323  0.026416094  0.027392845           13 
  245000   0.87458643   -6.9565781     77.29728  0.026291592  0.027321695            6 
  246000   0.88092029   -6.9534856    77.738163  0.026334066  0.027250839            4 
  247000   0.87206141   -6.9425592    77.579855   0.02617404  0.027178197            7 
  248000   0.87574979   -6.9554921    77.583203  0.026069625  0.027105336            5 
  249000   0.86757879   -6.9772229    77.538649  0.025950016  0.027031498           16 
  250000   0.87441066   -7.0241693     77.28779  0.025762597  0.026956797           11 
  251000   0.86430835   -6.9934805    77.720969  0.025803775  0.026881965           18 
  252000   0.85306502   -7.0035938    77.804295  0.025728934  0.026807898            5 
  253000   0.87754373   -6.9927142    78.330436  0.025800539  0.026734306           10 
  254000   0.85725761     -6.94324    78.551096  0.025771357  0.026661749            6 
  255000    0.8573788   -6.9982553    78.165423  0.025544256  0.026588541            3 
  256000   0.84700763   -6.9906389    78.803241  0.025652097   0.02651558            5 
  257000   0.85537906   -7.0021884      78.9859  0.025611511  0.026443492            7 
  258000   0.87446471   -7.0230019    78.709135  0.025422847  0.026371233            6 
  259000   0.84307831   -6.9908109    79.134741  0.025461628  0.026299258            4 
  260000   0.85155523   -7.0093415    79.085681  0.025347975  0.026227604            5 
  261000   0.85199067   -7.0363604     79.26666   0.02530864  0.026156056            6 
  262000   0.85675716   -7.0202019    79.234274  0.025201741  0.026084604            3 
  263000   0.87350326   -7.0139445     79.49521  0.025188596  0.026013484            9 
  264000   0.85634044    -7.028227    79.661975  0.025145825  0.025942572            6 
  265000   0.83221014   -7.0507231    79.562024  0.025019504  0.025871769            5 
  266000    0.8294018   -7.0364522    79.875521  0.025023659  0.025801029            2 
  267000   0.83733924   -7.0353259     79.96992  0.024959401  0.025730219            6 
  268000   0.83232909   -7.0419207    80.026669  0.024883914  0.025659201            6 
  269000   0.83018983   -7.0195911    79.944981  0.024766103  0.025588135            5 
  270000   0.83012285   -7.0596063    80.361002  0.024802778  0.025517691            5 
  271000   0.82627386   -7.0306446    80.554466  0.024770746  0.025448069            7 
  272000   0.82072386   -7.0369085    80.825171  0.024762614  0.025379847            6 
  273000   0.84199393   -7.0490586    80.660526   0.02462165  0.025311569            6 
  274000   0.83200679   -7.0523367    80.827026  0.024582429  0.025243404            4 
  275000   0.84955928   -7.0494794    80.782788  0.024479633  0.025175193            3 
  276000   0.81526959   -7.0433865    81.345673  0.024560892  0.025107114            7 
  277000   0.81735288   -7.0681079    81.119084  0.024404056  0.025039135            4 
  278000   0.82108132   -7.0689738    80.958418  0.024268111  0.024971091            7 
  279000   0.82651694   -7.0798111    81.378239  0.024306523  0.024903993            7 
  280000   0.82371406   -7.0709812    81.646064  0.024299424  0.024835829           14 
  281000   0.82867766   -7.0957522     81.40245  0.024140703  0.024767651           12 
  282000    0.8144279   -7.0469864    81.677133  0.024136269  0.024699748            4 
  283000   0.81878262   -7.0868365    81.642219    0.0240407   0.02463265            8 
  284000   0.82107603   -7.0880818    81.902035  0.024032287  0.024564762            9 
  285000   0.83484524   -7.0819228    81.961594  0.023965378  0.024497489           10 
  286000   0.79302855   -7.0924672    81.978851  0.023886612  0.024430077            9 
  287000   0.83211348   -7.0979043    82.376068  0.023918719  0.024363457            5 
  288000   0.81673021   -7.0930132    82.231266  0.023793769  0.024296691            4 
  289000   0.81879616   -7.1051379    82.343255   0.02374373  0.024229214            3 
  290000   0.82787662   -7.1221087    82.325051  0.023656624  0.024161932            4 
  291000   0.79734199   -7.1112054    82.420006  0.023602522  0.024094527            7 
  292000    0.7941288   -7.1095996    82.416468  0.023520682   0.02402697            6 
  293000    0.8023675   -7.1227402    82.420305  0.023441497  0.023960336            6 
  294000   0.79067815   -7.1223436    82.425414  0.023363212   0.02389299            6 
  295000   0.80061897   -7.1234852    82.546901  0.023318334  0.023825852            9 
  296000   0.80659594   -7.1085393    82.827987   0.02331869  0.023758971            3 
  297000   0.79043916   -7.1021275     82.92726   0.02326803  0.023692133            6 
  298000    0.7766067   -7.1424513    82.868754  0.023173589  0.023625465           10 
  299000   0.79234884   -7.1173072    83.142773  0.023172456  0.023559326            6 
  300000   0.80201067   -7.1305001    83.100017  0.023083338   0.02349356            5 
  301000   0.78982482   -7.1363664    83.093706  0.023004902  0.023427666            5 
  302000   0.78259249   -7.1399567    83.387993  0.023009932  0.023361738            8 
  303000   0.77794549    -7.155988    83.126431  0.022862055  0.023296014            6 
  304000   0.78569169   -7.1842965    83.280443  0.022829069  0.023230474            9 
  305000   0.78554726   -7.1615114    83.296144  0.022758509  0.023164784           15 
  306000   0.79320438   -7.1813918    83.306378  0.022686922  0.023099276           12 
  307000    0.7664457   -7.1706002    83.681976  0.022714977  0.023034207            7 
  308000   0.76919269   -7.1568195    83.921409  0.022706009  0.022969402            7 
  309000   0.77692537   -7.1806784    83.801956  0.022600312  0.022905071            5 
  310000   0.76967159   -7.1819356    83.931875  0.022562332  0.022840513            6 
  311000   0.75907467   -7.1883021    83.817434  0.022459119   0.02277621           18 
  312000   0.75834726   -7.2110417    83.982485  0.022431219  0.022711883           10 
  313000   0.78618147   -7.1678584     84.03706  0.022374084  0.022647741           11 
  314000    0.7734294   -7.1926605    84.088898  0.022316586  0.022583807           10 
  315000   0.76042685   -7.2312823    84.072502  0.022241403  0.022519804           10 
  316000   0.75830638   -7.2094035    83.965444  0.022142786  0.022454899            7 
  317000    0.7632082   -7.2224564    83.951035  0.022069147  0.022389886           11 
  318000   0.76471921   -7.2166715    84.244836  0.022076739  0.022325163            5 
  319000   0.74826047   -7.1889775    84.018185  0.021948324  0.022261234            7 
  320000   0.76329425   -7.1801752    84.458237  0.021994332   0.02219765           31 
  321000   0.75844705   -7.2025735    84.360189   0.02190036  0.022134394            5 
  322000   0.75263168   -7.2372803    84.264469  0.021807575  0.022070492           13 
  323000   0.75404882   -7.2082887    84.185226  0.021719615   0.02200652            9 
  324000   0.75849468   -7.2182588    84.261885  0.021672295  0.021942208            4 
  325000   0.74496906    -7.213576     84.23693  0.021599213  0.021877958            4 
  326000     0.744723   -7.1938975     84.24654  0.021535414   0.02181339           17 
  327000   0.75729979    -7.231476    84.384835    0.0215048  0.021748903           15 
  328000   0.74284495   -7.2372454    84.329418  0.021425157  0.021684441           15 
  329000   0.74973354   -7.2572511     84.37314  0.021371109  0.021620355           12 
  330000   0.73722619   -7.2620399     84.40777  0.021315093  0.021555922            8 
  331000   0.74291624   -7.2647893    84.401316  0.021249072  0.021491695           22 
  332000   0.75207538   -7.2655284    84.522585  0.021215508  0.021427663           16 
  333000   0.74067994   -7.2521047    84.496379   0.02114524  0.021363629           22 
  334000   0.73191157   -7.2649853    84.721052  0.021137987  0.021300317           12 
  335000   0.72652505   -7.2529665     84.72106  0.021074891  0.021237423            7 
  336000   0.72818179   -7.2527604    84.882633   0.02105224  0.021174524           11 
  337000    0.7285167   -7.2674299    84.754778  0.020958155  0.021111485           18 
  338000   0.72525312   -7.2967822    84.989645  0.020954055  0.021048666            9 
  339000   0.72397124   -7.2533225     85.08471  0.020915612  0.020986144            9 
  340000   0.72066339   -7.2869598    84.837355  0.020793469  0.020923517           12 
  341000   0.71831888   -7.2622809    85.003161  0.020773011  0.020860827            6 
  342000   0.72063606   -7.2917523    84.985369  0.020707936  0.020798424           14 
  343000   0.71858304   -7.2767182    84.838489  0.020611878  0.020735897           11 
  344000   0.71334177   -7.3077335    84.881161  0.020562297   0.02067287           17 
  345000   0.70968039   -7.3053214    84.846297  0.020494275  0.020609668           22 
  346000   0.72425564   -7.3035492    84.876569  0.020442333  0.020546722            5 
  347000   0.70371856   -7.3215276    84.820227  0.020369891  0.020483977           21 
  348000   0.72153015   -7.2917625    84.966048  0.020346276   0.02042169           17 
  349000   0.70415652   -7.3146581    85.025777  0.020302239  0.020359751           14 
  350000   0.69785763   -7.3254225    85.002119    0.0202386  0.020298006           16 
  351000   0.71776106   -7.3265733    85.066446  0.020196212  0.020236025           21 
  352000   0.70623148   -7.3207714    84.860847  0.020090163  0.020174377           28 
  353000   0.70709974   -7.3394176    84.918073  0.020046759  0.020112667           10 
  354000   0.69537612   -7.3277837    85.304723  0.020081149  0.020051425            9 
  355000   0.69650698   -7.3158739    85.209369  0.020002199  0.019990512            5 
  356000     0.704266   -7.3308488    85.071625   0.01991377  0.019929558           14 
  357000   0.69743786   -7.3220275    85.077653  0.019859396  0.019868642            7 
  358000   0.69911933   -7.3299825    85.243342  0.019842491  0.019807929           11 
  359000   0.70895585   -7.3335567    85.394617  0.019822335  0.019747352            9 
  360000   0.68937763   -7.3438183    85.159805  0.019712918  0.019687135            6 
  361000   0.69352042   -7.3504589    85.421335  0.019718683  0.019627283            8 
  362000   0.69673918   -7.3771363    85.274049  0.019630306  0.019567341            3 
  363000     0.692864   -7.3539423    85.173336  0.019553107  0.019507381           13 
  364000   0.69114551   -7.3648762    85.370858   0.01954461  0.019447468           12 
  365000   0.67789137   -7.3639287    85.368599  0.019490548  0.019387732            7 
  366000   0.67341005    -7.378815    85.378631  0.019439579  0.019328057           14 
  367000   0.69177413   -7.3787298    85.313415  0.019371802  0.019268627           15 
  368000   0.66983405   -7.3775065    85.531415  0.019368527  0.019209415            9 
  369000    0.6728124   -7.3714207    85.444331  0.019296371  0.019150343           10 
  370000   0.67013545   -7.3600358    85.332128  0.019218948  0.019091418            5 
  371000   0.68072993   -7.3604332    85.362788  0.019174031  0.019032693           12 
  372000   0.66948626   -7.3781531    85.674301  0.019192272  0.018974458            7 
  373000   0.66653531   -7.3718596    85.428086   0.01908581  0.018916154            9 
  374000   0.67542755   -7.3793106    85.547734  0.019061438  0.018857643           15 
  375000   0.66878825   -7.3848332    85.684192  0.019040932  0.018799349           13 
  376000   0.65470687   -7.3962957    85.318704  0.018909287  0.018741112           12 
  377000   0.67647111   -7.3880931     85.47324  0.018893289  0.018683184           24 
  378000    0.6620789   -7.3976668    85.479131  0.018844605   0.01862531           20 
  379000   0.66742048   -7.4031316    85.592358   0.01881978  0.018567794           12 
  380000   0.64430674   -7.4037437    85.560495  0.018763266  0.018510161           15 
  381000    0.6416311   -7.4320643    85.403367  0.018679651  0.018452689           14 
  382000   0.64880516   -7.4263545    85.351944  0.018619534  0.018395236           19 
  383000   0.65674683    -7.452789    85.472122  0.018597068  0.018338029           15 
  384000   0.64383243   -7.4097794    85.652096  0.018587694  0.018280985           17 
  385000    0.6543854   -7.4485321    85.553263  0.018518022  0.018224286           10 
  386000   0.66318646    -7.437503    85.554354  0.018470284  0.018167556            7 
  387000   0.65305207    -7.415365    85.437325  0.018397357  0.018111028           32 
  388000   0.63601849    -7.430188    85.452343  0.018353166  0.018054332           22 
  389000   0.64669476   -7.4354679    85.446249   0.01830468  0.017998013           34 
  390000   0.64980258    -7.426019    85.370927  0.018241651  0.017941757           12 
  391000   0.64414666   -7.4449862    85.447903  0.018211403  0.017885509           23 
  392000   0.63369872   -7.4498534     85.62084  0.018201709    0.0178295           15 
  393000   0.65541005   -7.4214414    85.472732  0.018123989  0.017773717           15 
  394000   0.63497907   -7.4694006    85.388978  0.018060274  0.017717885           30 
  395000   0.63539995   -7.4900141    85.549269  0.018048369  0.017662164           22 
  396000   0.65109231   -7.4549764    85.596632  0.018012759  0.017606725           21 
  397000    0.6352934   -7.4823434    85.554023  0.017958443  0.017551563           28 
  398000   0.62747281   -7.4762608    85.741798  0.017952638  0.017496408           15 
  399000   0.63106026   -7.4306435    85.354199  0.017826691  0.017441375           10 
  400000   0.62012687   -7.4629025    85.579532  0.017829069  0.017386456           43 
  401000   0.62326593   -7.4842225    85.362031  0.017739408  0.017331676           18 
  402000   0.63442767   -7.4949457    85.553867  0.017735047  0.017277101           20 
  403000   0.61713336   -7.4678757    85.465752  0.017672819  0.017222702           14 
  404000   0.62315947   -7.4785837    85.382334  0.017611868  0.017168339           39 
  405000   0.62359359   -7.4702042    85.659257  0.017625362  0.017114239           39 
  406000   0.61097076   -7.4795449    85.413163  0.017531437  0.017060247           29 
  407000   0.61056015   -7.5083282    85.350621  0.017475557  0.017006328           15 
  408000   0.62363939   -7.4905675      85.3448  0.017431536  0.016952392            8 
  409000   0.60481094   -7.5021097    85.603517  0.017441629   0.01689878           16 
  410000   0.61583846   -7.5086248    85.578381   0.01739398  0.016845437           56 
  411000   0.60629836    -7.484712    85.684956  0.017373268  0.016792415           18 
  412000   0.60837449   -7.4899471     85.57123  0.017308097  0.016739737           10 
  413000    0.6268195   -7.5271973    85.548978  0.017261698  0.016687155           11 
  414000    0.6153757   -7.5142518    85.362328  0.017182433  0.016634602           20 
  415000   0.60711915   -7.5304503     85.49023  0.017166713  0.016582088           14 
  416000   0.60377378   -7.5132382    85.593322  0.017146098  0.016529915           15 
  417000   0.60674087   -7.5209292    85.674199  0.017121143  0.016477937           21 
  418000   0.59105397   -7.5229065     85.65422    0.0170762  0.016426227           14 
  419000   0.60224329   -7.5147765    85.546803  0.017014082  0.016374891           13 
  420000   0.59542856   -7.5265695     85.56761    0.0169777  0.016323768           24 
  421000   0.60289766   -7.5363287    85.662885  0.016956232  0.016272684           16 
  422000   0.58856796   -7.5552889    85.488257  0.016881567  0.016221608           24 
  423000   0.59272036   -7.5269736    85.418598  0.016827935  0.016170602           24 
  424000   0.59088139   -7.5319448    85.594325  0.016822784  0.016119892           32 
  425000   0.59663195   -7.5572308    85.376583  0.016740506  0.016069063           44 
  426000   0.59975112   -7.5442235    85.349843  0.016695979  0.016018316           17 
  427000   0.58988926   -7.5546872     85.52512  0.016691085  0.015967702           45 
  428000   0.59108749   -7.5694024    85.438816  0.016635283  0.015917286           26 
  429000   0.59730322   -7.5600388    85.403512  0.016589649  0.015867053           30 
  430000    0.5883524   -7.5566266    85.212902  0.016514128  0.015816963           55 
  431000   0.58394393   -7.5783393    85.558968  0.016542724  0.015767094           46 
  432000   0.58095277   -7.5739402     85.51126  0.016495228   0.01571727           31 
  433000   0.58532322   -7.5663336    85.448428   0.01644504  0.015667509           28 
  434000   0.57139072   -7.5890794    85.284945  0.016375758   0.01561777           18 
  435000   0.56927902   -7.5872501    85.462721  0.016372169   0.01556829           51 
  436000    0.5817863   -7.6007455    85.407272   0.01632402  0.015518846           45 
  437000   0.56320086   -7.5875851    85.405906  0.016286405  0.015469623           29 
  438000   0.56342034   -7.5807252    85.256346  0.016220766  0.015420625           31 
  439000   0.57037808   -7.6191706     85.15469   0.01616452  0.015371755           35 
  440000   0.56387936   -7.5920679    85.360495   0.01616676  0.015323043           43 
  441000   0.55517741   -7.6040872    85.316408   0.01612177  0.015274569           23 
  442000   0.56474627    -7.598976    85.254929  0.016073705  0.015226157           38 
  443000   0.55786335    -7.588093    85.203434  0.016027734   0.01517793           43 
  444000   0.56239494   -7.6067946    85.293402  0.016008521  0.015129879           35 
  445000   0.56366144   -7.5967927    85.254162  0.015965199  0.015082108           22 
  446000   0.54962214   -7.6189153    85.218771   0.01592279   0.01503453           27 
  447000   0.55554929   -7.6176968    85.315296  0.015905163  0.014987112           35 
  448000   0.54328834   -7.6249691    85.326197  0.015871688  0.014939863           35 
  449000   0.54750524   -7.6087395     85.46614  0.015862312  0.014892823           23 
  450000   0.54727081   -7.6324938    85.160351  0.015770435  0.014845949           24 
  451000   0.55029972   -7.6328965    85.178973  0.015738908  0.014799117           53 
  452000   0.54865742    -7.648277    85.222162   0.01571205   0.01475247           52 
  453000   0.52643345   -7.6480841    85.334141  0.015697966  0.014706051           56 
  454000   0.54006944   -7.6342288    85.275636   0.01565265  0.014659787           21 
  455000   0.55057504   -7.6216215     85.24648  0.015612908  0.014613719           36 
  456000   0.53306173   -7.6397522     85.22112  0.015574035  0.014567807           49 
  457000   0.54677011   -7.6554985    85.249408  0.015545114  0.014522082           27 
  458000    0.5373367   -7.6479226    85.137721  0.015490852  0.014476499           30 
  459000   0.53820243   -7.6398254    85.234156  0.015474611  0.014431086           24 
  460000   0.54432501   -7.6611846    85.115951  0.015419556   0.01438577           37 
  461000   0.52633183   -7.6627786     85.30419  0.015420136   0.01434056           23 
  462000   0.52489028   -7.6641099    85.298214  0.015385681  0.014295526           48 
  463000   0.52429156   -7.6787842    85.146312   0.01532511  0.014250593           34 
  464000   0.52787952   -7.6512352    85.081843  0.015280503  0.014205834           50 
  465000    0.5296583   -7.6773298    85.162752  0.015262142  0.014161196           25 
  466000   0.53437107   -7.6918581    85.263949  0.015247487   0.01411674           41 
  467000   0.52473684   -7.6809942    85.141335  0.015192958  0.014072502           69 
  468000   0.51531238   -7.6566584    84.989408  0.015133442   0.01402838           31 
  469000   0.51581486   -7.6863655    85.088778  0.015118831  0.013984322           50 
  470000    0.5103065     -7.69332    85.105557  0.015089638  0.013940427           93 
  471000   0.51758192   -7.6833139    85.126194  0.015061251  0.013896765           24 
  472000   0.51580238    -7.678864    85.107687  0.015026075   0.01385328           43 
  473000   0.51555804   -7.6929922    84.999956  0.014975327  0.013809954           38 
  474000   0.51436339    -7.710823    85.100982  0.014961495  0.013766782           77 
  475000   0.52231877   -7.6890149    85.152069  0.014938959  0.013723753           47 
  476000   0.51165215   -7.6985656    85.072619  0.014893666  0.013680834           44 
  477000   0.50264685   -7.6928453    85.132615  0.014872924  0.013638048           39 
  478000   0.51338907   -7.7143959    85.003141  0.014819237  0.013595453           31 
  479000   0.49887723   -7.7087908    85.161403  0.014815832  0.013553023           33 
  480000   0.49523654   -7.7048112    84.923432  0.014743651  0.013510714           48 
  481000   0.49333695   -7.7141771    85.082369  0.014740535  0.013468571           30 
  482000   0.48629814   -7.7082355    85.083205  0.014710098  0.013426535           26 
  483000   0.49231904    -7.704991    84.863813   0.01464179  0.013384632           41 
  484000   0.49544346   -7.7295731    85.011723  0.014637005  0.013342844           43 
  485000    0.4938853    -7.724152    84.864101  0.014581461  0.013301128           45 
  486000   0.48214806   -7.7237661    84.949392  0.014566082  0.013259592           86 
  487000   0.49737407   -7.7306487    84.819975  0.014514027   0.01321814           61 
  488000   0.48150557   -7.7419246    84.930841  0.014503217  0.013176884           34 
  489000   0.49332895   -7.7455693    84.885063  0.014465757  0.013135903           40 
  490000   0.47449852   -7.7387116    84.671622  0.014399936  0.013094949           44 
  491000   0.47366503   -7.7462203    84.776058  0.014388333  0.013054118           44 
  492000   0.47553614   -7.7452037    84.962643  0.014390691  0.013013528           82 
  493000   0.48587756   -7.7445917    84.905903  0.014351911  0.012973093           72 
  494000   0.48269674   -7.7431846    84.746872  0.014296031  0.012932804           70 
  495000   0.47362735   -7.7476168    84.960443  0.014303105  0.012892705           77 
  496000   0.48399423   -7.7647529    84.895383  0.014263337  0.012852751           53 
  497000   0.47626186   -7.7586089    85.015298  0.014254745  0.012812925           90 
  498000   0.47354967   -7.7513235    84.977931  0.014219868  0.012773251           69 
  499000   0.46466625   -7.7659731    84.772233   0.01415702   0.01273373           68 
  500000   0.46937038   -7.7601268    84.767893  0.014127982  0.012694302           83 
  501000    0.4680347   -7.7791912    84.635155  0.014077704  0.012654988           34 
  502000   0.47246813   -7.7606093    84.815343  0.014079572   0.01261588           42 
  503000   0.46542003   -7.7733518    84.752123  0.014041107  0.012576906           35 
  504000   0.46261896   -7.7741588     84.69243  0.014003378  0.012538092           41 
  505000   0.45932027   -7.7615283     84.76328   0.01398734  0.012499396           25 
  506000   0.46491125    -7.776372    84.824586  0.013969793  0.012460857           54 
  507000   0.46008992    -7.797444    84.747843  0.013929626  0.012422425           50 
  508000   0.45192531   -7.7686243    84.756949  0.013903699  0.012384163           55 
  509000   0.44321045   -7.7865451    84.517406  0.013837165  0.012345959           88 
  510000   0.46700368   -7.7933743    84.732219  0.013845134  0.012307955           77 
  511000   0.44864599   -7.7928108    84.662483  0.013806667  0.012270044           37 
  512000   0.45109921   -7.7877024    84.660864  0.013779437  0.012232244           77 
Loop time of 1096.81 on 48 procs for 500000 steps with 4000 atoms

Performance: 78773.971 tau/day, 455.868 timesteps/s
99.4% CPU use with 48 MPI tasks x no OpenMP threads

MPI task timing breakdown:
Section |  min time  |  avg time  |  max time  |%varavg| %total
---------------------------------------------------------------
Pair    | 68.153     | 71.187     | 78.487     |  21.4 |  6.49
Neigh   | 6.8271     | 7.0177     | 7.3578     |   4.1 |  0.64
Comm    | 59.537     | 67.465     | 71.827     |  27.0 |  6.15
Output  | 0.94102    | 0.94159    | 0.94993    |   0.1 |  0.09
Modify  | 932.88     | 937.15     | 941.74     |   8.6 | 85.44
Other   |            | 13.05      |            |       |  1.19

Nlocal:        83.3333 ave          92 max          78 min
Histogram: 8 4 7 4 8 10 2 3 0 2
Nghost:        1823.02 ave        1841 max        1795 min
Histogram: 2 2 1 2 6 6 14 6 7 2
Neighs:        11239.0 ave       13084 max        9538 min
Histogram: 2 2 8 4 10 8 8 4 1 1
FullNghs:      22477.7 ave       25285 max       20708 min
Histogram: 4 8 5 8 6 10 4 1 0 2

Total # of neighbors = 1078929
Ave neighs/atom = 269.73225
Neighbor list builds = 26942
Dangerous builds = 0

#clear
#
#next RN
#
#jump SELF
Total wall time: 0:18:20
