
units lj                  # Use reduced LJ style units
atom_style atomic         # Uncharged point particles
atom_modify map hash      # Needed for indexing of clusters etc
                          # Used to be able to find where atoms are in relation to each other.

lattice fcc 1.0 spacing 1 1 1
Lattice spacing in x,y,z = 1.5874011 1.5874011 1.5874011
region box block 0 10 0 10 0 10 units lattice
create_box 2 box
Created orthogonal box = (0.0000000 0.0000000 0.0000000) to (15.874011 15.874011 15.874011)
  3 by 4 by 4 MPI processor grid
create_atoms 1 box
Created 4000 atoms
  using lattice units in orthogonal box = (0.0000000 0.0000000 0.0000000) to (15.874011 15.874011 15.874011)
  create_atoms CPU = 0.007 seconds
set type 1 type/fraction 2 0.26 78393
Setting atom values ...
  1066 settings made for type/fraction
mass 1 1.0
mass 2 1.0
pair_style lj/cut  3.5
pair_modify tail  yes
pair_coeff 1  1  1.0  1.0   # Intearaction between 1 and 1 set with epsilon = 1 and sigma = 1
pair_coeff 1  2  1.5  0.8
pair_coeff 2  2  0.5  0.88

write_data data.0
System init for write_data ...
Neighbor list info ...
  update every 1 steps, delay 10 steps, check yes
  max neighbors/atom: 2000, page size: 100000
  master list distance cutoff = 3.8
  ghost atom cutoff = 3.8
  binsize = 1.9, bins = 9 9 9
  1 neighbor lists, perpetual/occasional/extra = 1 0 0
  (1) pair lj/cut, perpetual
      attributes: half, newton on
      pair build: half/bin/atomonly/newton
      stencil: half/bin/3d
      bin: standard
WARNING: Not all mixed pair coeffs generated from mixing. Use write_data with 'pair ij' option to store all pair coeffs. (../write_data.cpp:312)


#############################
#   M E L T   S Y S T E M   #
#############################

velocity all create 2.4 2750902 mom yes dist gaussian # Assign velocities
                                                    # Temperature 2.4, random number seed, zero linear momentum
                                                                                # Gaussian distribution

timestep 0.002   # simulation timestep
thermo 1000       # output thermodynamic data every 1000 steps bf 100

# Define a fix  in this case with index 1 applied to all
# particles in the simulation. This fix is for simulations
# in the anisotropic NPT ensemble. Note that we use the MTK
# correction.
fix 1 all npt temp 2.4 2.4 0.1 iso 5.68 5.68 0.5 mtk yes tchain 5 pchain 5 # Use NPT ensemble
                                                                         # Set temperature and pressure and damping
                                                                         # Numbers of thermostats in chain and in barostat
run 10000          # run for 10000 steps
Per MPI rank memory allocation (min/avg/max) = 3.642 | 3.644 | 3.648 Mbytes
Step Temp E_pair E_mol TotEng Press Volume 
       0          2.4   -6.6801447            0   -3.0810447   -3.8517282         4000 
    1000    2.3943173   -4.9421585            0   -1.3515805    5.7860478    4257.9259 
    2000    2.3879207   -4.9189467            0   -1.3379611    5.7964528    4265.6213 
    3000     2.396279   -4.9321442            0   -1.3386242    5.8558617    4259.8476 
    4000    2.3442832   -4.9458059            0   -1.4302602    5.7603298    4263.4077 
    5000    2.3996809   -4.8900159            0   -1.2913944    5.7499242    4289.0682 
    6000    2.4129074   -4.9362808            0   -1.3178245    5.5667877    4282.4892 
    7000    2.4104785   -4.9334408            0   -1.3186269    5.5850173    4294.9485 
    8000    2.4048144   -4.8981708            0   -1.2918509    5.7211968    4292.4449 
    9000     2.381546    -4.847041            0   -1.2756151    5.4507863    4345.5628 
   10000    2.3863203   -4.9381732            0   -1.3595876    5.7614902    4270.1267 
Loop time of 2.39827 on 48 procs for 10000 steps with 4000 atoms

Performance: 720520.287 tau/day, 4169.678 timesteps/s
99.6% CPU use with 48 MPI tasks x no OpenMP threads

MPI task timing breakdown:
Section |  min time  |  avg time  |  max time  |%varavg| %total
---------------------------------------------------------------
Pair    | 1.0185     | 1.083      | 1.2018     |   3.5 | 45.16
Neigh   | 0.20043    | 0.20844    | 0.23056    |   1.1 |  8.69
Comm    | 0.73574    | 0.82675    | 0.92187    |   5.0 | 34.47
Output  | 0.00025918 | 0.0002635  | 0.00032914 |   0.0 |  0.01
Modify  | 0.21173    | 0.26486    | 0.32795    |   5.7 | 11.04
Other   |            | 0.01496    |            |       |  0.62

Nlocal:        83.3333 ave          95 max          76 min
Histogram: 3 7 7 10 9 5 1 4 1 1
Nghost:        1571.31 ave        1600 max        1522 min
Histogram: 1 1 1 4 4 10 5 12 6 4
Neighs:        8950.38 ave       10369 max        8019 min
Histogram: 6 7 8 5 7 5 4 2 1 3

Total # of neighbors = 429618
Ave neighs/atom = 107.40450
Neighbor list builds = 905
Dangerous builds = 193

# Equilibrate just above the melting temperature to avoid step fn in T

fix 1 all npt temp 1.25 1.25 0.1 iso 5.68 5.68 0.5 mtk yes tchain 5 pchain 5
run 2000
Per MPI rank memory allocation (min/avg/max) = 3.643 | 3.645 | 3.649 Mbytes
Step Temp E_pair E_mol TotEng Press Volume 
   10000    2.3863203   -4.9381732            0   -1.3595876    5.7614902    4270.1267 
   11000    1.2370057   -6.7433029            0   -4.8882583     5.726831    3457.9869 
   12000    1.2623149   -6.7301525            0   -4.8371535     5.881728     3457.813 
Loop time of 0.556709 on 48 procs for 2000 steps with 4000 atoms

Performance: 620791.435 tau/day, 3592.543 timesteps/s
99.6% CPU use with 48 MPI tasks x no OpenMP threads

MPI task timing breakdown:
Section |  min time  |  avg time  |  max time  |%varavg| %total
---------------------------------------------------------------
Pair    | 0.23386    | 0.26373    | 0.29101    |   2.4 | 47.37
Neigh   | 0.03594    | 0.038521   | 0.041888   |   0.6 |  6.92
Comm    | 0.17155    | 0.20108    | 0.22582    |   3.0 | 36.12
Output  | 5.3052e-05 | 5.4405e-05 | 7.061e-05  |   0.0 |  0.01
Modify  | 0.041033   | 0.048643   | 0.057911   |   2.1 |  8.74
Other   |            | 0.004675   |            |       |  0.84

Nlocal:        83.3333 ave          94 max          75 min
Histogram: 2 3 8 11 5 7 8 1 1 2
Nghost:        1814.79 ave        1834 max        1791 min
Histogram: 2 3 5 5 4 7 7 5 6 4
Neighs:        11068.1 ave       13000 max        9518 min
Histogram: 2 3 8 7 6 10 8 2 0 2

Total # of neighbors = 531267
Ave neighs/atom = 132.81675
Neighbor list builds = 143
Dangerous builds = 13

#############################
# L I N E A R  Q U E N C H  #
#############################

# Define solid atoms. This closely follows ten Wolde  Ruiz-Montero and Frenkel  Faraday Discuss  1996  104  93-110
# Compute components of the per-atom q6 vector
compute q6 all orientorder/atom degrees 1 6 components 6 nnn NULL cutoff 1.3 # compute the Q6 parameter.
                                                                             # Use all neighbours within 1.3 unit cell.

# get number of connections
compute coord_number all coord/atom orientorder q6 0.5

# An atom is solid if it has 8 or more connections (of a possible 14)
variable is_solid atom c_coord_number>=8
group solid dynamic all var is_solid    # Must be dynamic to update
dynamic group solid defined

# do clustering
compute cluster solid cluster/atom 1.3 # Create a cluster where all atoms within are solid and max 1.3 units from another member

# define chunks one chunk per cluster
compute clus_chunks solid chunk/atom c_cluster nchunk every compress yes  # Says which atoms are in which chunk

# count the size of each chunk
compute size_chunks solid property/chunk clus_chunks count


# Find the maximum entry in the vector of chunk sizes
variable max_n equal max(c_size_chunks)


# Thermo style which includes this variable
# thermo_style custom step temp pe vol v_max_n

thermo ${N}  # Print the thermo information every 100 steps
thermo 1000  

# Reset the npt fix at a lower temperature (below freezing)
fix 1  all npt temp  ${temp} ${temp}  0.1  iso  5.68  5.68  0.5  mtk yes tchain  5  pchain  5
fix 1  all npt temp  0.45 ${temp}  0.1  iso  5.68  5.68  0.5  mtk yes tchain  5  pchain  5
fix 1  all npt temp  0.45 0.45  0.1  iso  5.68  5.68  0.5  mtk yes tchain  5  pchain  5

dump dmp2 all dcd ${N} traj.dcd
dump dmp2 all dcd 1000 traj.dcd


compute msd all msd com yes
variable twopoint equal c_msd[4]/6/(step*dt+1.0e-6)
fix 9 all vector 10 c_msd[4]
variable fit equal slope(f_9)/6/(10*dt)
thermo_style custom step temp pe c_msd[4] v_twopoint v_fit v_max_n

fix 1 all npt temp 1.25 ${temp} 0.1 iso 5.68 5.68 0.5 mtk yes tchain 5 pchain 5
fix 1 all npt temp 1.25 0.45 0.1 iso 5.68 5.68 0.5 mtk yes tchain 5 pchain 5
run 5000000 # 5000000  # Run for this many steps
Neighbor list info ...
  update every 1 steps, delay 10 steps, check yes
  max neighbors/atom: 2000, page size: 100000
  master list distance cutoff = 3.8
  ghost atom cutoff = 3.8
  binsize = 1.9, bins = 8 8 8
  4 neighbor lists, perpetual/occasional/extra = 1 3 0
  (1) pair lj/cut, perpetual
      attributes: half, newton on
      pair build: half/bin/atomonly/newton
      stencil: half/bin/3d
      bin: standard
  (2) compute orientorder/atom, occasional
      attributes: full, newton on
      pair build: full/bin/atomonly
      stencil: full/bin/3d
      bin: standard
  (3) compute coord/atom, occasional
      attributes: full, newton on
      pair build: full/bin/atomonly
      stencil: full/bin/3d
      bin: standard
  (4) compute cluster/atom, occasional
      attributes: full, newton on
      pair build: full/bin/atomonly
      stencil: full/bin/3d
      bin: standard
Per MPI rank memory allocation (min/avg/max) = 9.802 | 9.810 | 9.818 Mbytes
Step Temp PotEng c_msd[4] v_twopoint v_fit v_max_n 
   12000    1.2623149   -6.7301525 4.1434919e-30 2.8774248e-32 8.3333333e+20            3 
   13000    1.2389498    -6.752232   0.51692487 0.0033136208  0.042538988            1 
   14000    1.2973498   -6.7423658    1.0295568 0.0061283139  0.042145922            1 
   15000    1.2231375   -6.7772951    1.5191487 0.0084397146  0.042144376            2 
   16000    1.2447502   -6.7469534    1.9638308  0.010228285   0.04113076            1 
   17000    1.2822424   -6.7583285    2.4705318   0.01211045  0.040762778            2 
   18000    1.2319862   -6.7360949    2.9761033  0.013778256  0.040664282            1 
   19000    1.2470547    -6.745395    3.4330353  0.015057172  0.040409704            1 
   20000    1.2261157   -6.7914977    3.9269169  0.016362153  0.040580045            1 
   21000    1.2495404   -6.7496086    4.3894567  0.017418479  0.040519913            1 
   22000    1.2354605   -6.7439622    4.8115104  0.018225418  0.040258081            2 
   23000     1.244516   -6.7529036    5.3167918  0.019263738  0.039995837            2 
   24000    1.2396184   -6.7723052     5.774203  0.020049315  0.039882703            2 
   25000    1.2336755   -6.7542269     6.240943  0.020803143  0.039767477            3 
   26000    1.2524189   -6.7401239    6.7280533  0.021564273  0.039670861            1 
   27000    1.2535541   -6.7181446    7.2954587  0.022516847  0.039722427            2 
   28000    1.2347179   -6.7809717    7.7745651  0.023138586  0.039851823            1 
   29000    1.2586674   -6.7554924    8.3250492  0.023922555  0.040022123            2 
   30000     1.240276   -6.7845989    8.7977039  0.024438066  0.040218217            1 
   31000    1.2323685   -6.7756318    9.3108884  0.025029269   0.04030592            1 
   32000    1.2875073    -6.750648    9.7031555  0.025268634  0.040364391            2 
   33000    1.2299583   -6.7845405    10.146184  0.025621676  0.040350148            1 
   34000     1.281218   -6.8128937    10.625332   0.02604248  0.040300371            1 
   35000    1.2707138   -6.7393693    11.183414  0.026627175  0.040269033            1 
   36000    1.2407731   -6.7233611    11.569329  0.026780853  0.040222453            1 
   37000    1.2778194   -6.7685135    12.008424     0.027046  0.040169492            3 
   38000    1.2348187   -6.7655531     12.38277  0.027155196  0.040016022            2 
   39000    1.2217489   -6.7325993    12.804345  0.027359711   0.03985727            2 
   40000      1.28436   -6.7486407    13.415991  0.027949981  0.039778269            2 
   41000    1.2423476   -6.7997022    13.771251  0.027990348  0.039699532            4 
   42000    1.2508188   -6.7591397    14.411194  0.028593638  0.039667095            3 
   43000    1.2346781    -6.774988    14.970881  0.029013334  0.039697304            2 
   44000    1.2624508   -6.7722201    15.332548  0.029038917  0.039722701            4 
   45000     1.213053   -6.7405748    15.816607  0.029290012  0.039714003            2 
   46000    1.2618379   -6.7264774    16.243409  0.029426464  0.039692847            3 
   47000    1.2504397   -6.7314343    16.646532  0.029515126  0.039646998            2 
   48000    1.2265402   -6.7641623    17.082341  0.029656842  0.039602468            1 
   49000    1.2636507   -6.7307525    17.567838  0.029877276  0.039565437            2 
   50000    1.2424022   -6.7836776    18.083682  0.030139469  0.039545551            2 
   51000    1.2173741   -6.7339759    18.462902   0.03016814  0.039493617            2 
   52000    1.2229245   -6.7424709    18.991959  0.030435831  0.039455464            2 
   53000    1.2474628   -6.7861395    19.493103  0.030649533  0.039425705            1 
   54000    1.2217373   -6.7886652    20.021547  0.030897448  0.039417288            1 
   55000    1.2610934   -6.7928945     20.48211  0.031033499  0.039426125            3 
   56000    1.2481688   -6.7756956    20.994334  0.031241569  0.039445286            4 
   57000    1.2204862   -6.7863071    21.404863  0.031293659  0.039437092            1 
   58000    1.2619806   -6.8148909    21.899437  0.031464709  0.039437937            3 
   59000    1.2266631   -6.7921538     22.53362  0.031827146  0.039442083            1 
   60000    1.2345439   -6.7950483    23.072523  0.032045171   0.03947166            2 
   61000    1.2857429   -6.7462304    23.672656  0.032339693   0.03951561            1 
   62000    1.2486603   -6.7784051    23.940717  0.032178382   0.03955325            2 
   63000    1.2385679   -6.7438559    24.279522  0.032115769   0.03956131            1 
   64000    1.2570538    -6.784662     24.71227  0.032177434  0.039562406            1 
   65000    1.2634454   -6.7728664    25.219129  0.032332216  0.039540129            2 
   66000    1.2321613   -6.7675776    25.584582  0.032303765  0.039521139            1 
   67000    1.2367734   -6.7714353    26.208853  0.032598076  0.039511549            1 
   68000    1.2430281   -6.7530968    26.780534  0.032819282  0.039526531            2 
   69000    1.2572861    -6.760916    27.289333  0.032958132  0.039552232            2 
   70000    1.2149495   -6.7729079    27.864954  0.033172565  0.039578516            2 
   71000      1.23114   -6.7671951    28.348036  0.033272342  0.039603383            2 
   72000    1.2344174   -6.8110935    28.919755  0.033471939  0.039638578            1 
   73000    1.2459333   -6.7666831    29.359997  0.033515978  0.039672034            2 
   74000    1.2146696   -6.7638976    29.944378  0.033721146  0.039701533            1 
   75000    1.2106071   -6.7762523      30.3643  0.033738111  0.039738152            2 
   76000    1.2373204   -6.8114116    30.791078  0.033762147  0.039768036            1 
   77000    1.2324351   -6.7716211    31.182571  0.033747371  0.039793024            1 
   78000    1.2556197   -6.7536301    31.721615  0.033890614   0.03980995            1 
   79000    1.2356626   -6.7470581    32.122552  0.033884549  0.039829556            1 
   80000    1.2241732   -6.7651137     32.60945  0.033968177  0.039839153            1 
   81000    1.2673263   -6.7544569    33.062067  0.034014472  0.039840437            2 
   82000    1.2410888   -6.7563081    33.490959  0.034035527   0.03984247            1 
   83000    1.2471936   -6.7562709     33.99793  0.034134468   0.03984787            1 
   84000    1.2533832   -6.7751723    34.345654  0.034073069  0.039838202            1 
   85000    1.2503272   -6.7810796     34.78807  0.034105951  0.039826628            2 
   86000    1.2276208   -6.7646823    35.296446  0.034201982  0.039812659            3 
   87000    1.2386791   -6.8013413    35.675702  0.034172128  0.039805035            1 
   88000    1.2374536   -6.7772679    36.278939  0.034355056  0.039794271            2 
   89000    1.2451238   -6.7228235    36.653843  0.034320078  0.039784934            1 
   90000    1.2267249   -6.7771631    37.187303  0.034432688  0.039778709            3 
   91000    1.2304816   -6.7842811    37.616143  0.034447017  0.039765753            1 
   92000    1.2748923   -6.7759785    38.184212  0.034587148  0.039756152            2 
   93000    1.2192367   -6.7837864    38.473171  0.034474167  0.039743909            2 
   94000    1.2515175    -6.785756    38.895489  0.034481816  0.039729649            1 
   95000    1.2518824   -6.7830543    39.286394  0.034461749  0.039710532            2 
   96000    1.2118622   -6.7901089    39.778896  0.034530291  0.039685548            2 
   97000    1.2589398   -6.7774123    40.322124     0.034641  0.039669128            1 
   98000    1.2174189   -6.7573499    40.872964  0.034755922  0.039652247            2 
   99000    1.2578385   -6.7567656    41.360387   0.03481514  0.039641509            1 
  100000    1.2288433   -6.7920078    42.054572  0.035045477  0.039637557            3 
  101000    1.2434302    -6.793873    42.411866  0.034993288   0.03964326            1 
  102000    1.2247254   -6.7654746    42.961786  0.035099498  0.039650703            1 
  103000    1.2190266   -6.7680023    43.543862  0.035229661  0.039662932            2 
  104000    1.2417563    -6.740159    44.257005  0.035462344  0.039678104            3 
  105000     1.242765   -6.7610589    44.633994  0.035423805  0.039691514            2 
  106000    1.2256317   -6.8177258    44.798094  0.035218627  0.039698521            1 
  107000      1.22208   -6.7430636     45.43432  0.035384984  0.039702021            1 
  108000    1.2217931   -6.7847962    45.794646  0.035335375  0.039698995            1 
  109000    1.2111472   -6.8156561    45.925023  0.035110874  0.039690239            2 
  110000    1.2824257   -6.7627594    46.401165  0.035152397  0.039673608            1 
  111000    1.2357417   -6.7911801    47.031007  0.035308564  0.039659625            4 
  112000    1.2437804   -6.7699104    47.526045   0.03536164  0.039650925            1 
  113000    1.2377541   -6.7682725     48.22352  0.035563067  0.039643072            3 
  114000    1.2151639   -6.7758531    48.757839  0.035641695  0.039645707            1 
  115000    1.2260238   -6.8165985    49.160144  0.035623293  0.039651779            2 
  116000    1.2328962   -6.7621736    49.590266  0.035625191  0.039653086            2 
  117000    1.2438296    -6.774525     50.14319  0.035714523  0.039652217            2 
  118000    1.2215151   -6.7759648    50.492408   0.03565848  0.039652705            3 
  119000    1.2196343   -6.8209825    50.945545  0.035676152  0.039650307            1 
  120000    1.2142391     -6.78313    51.332743  0.035647738  0.039646267            2 
  121000    1.2704705   -6.7980061    51.867516   0.03572143  0.039641307            2 
  122000    1.2384597   -6.7971113    52.304519   0.03572713  0.039632219            2 
  123000    1.2275026   -6.8144323     52.78208  0.035760217  0.039627543            3 
  124000    1.1878055    -6.758284    53.531583  0.035975526  0.039623677            1 
  125000     1.212858   -6.7730538    53.787059  0.035858039  0.039624151            2 
  126000     1.239988   -6.7596931    54.284046  0.035902147  0.039623137            1 
  127000    1.2257485   -6.7774029    54.653041  0.035861575    0.0396197            1 
  128000    1.2231405   -6.7994782     55.07587  0.035856686  0.039617322            2 
  129000    1.2570131   -6.8137664    55.481195  0.035840565  0.039608146            1 
  130000    1.2334839   -6.7843108    55.878655   0.03581965  0.039596377            2 
  131000    1.2267412   -6.7892065    56.479453  0.035928405  0.039584905            1 
  132000    1.2348271   -6.8097035    56.595239  0.035729318  0.039567736            2 
  133000    1.2348449   -6.8322365    56.994901  0.035711091  0.039549472            2 
  134000    1.2328685   -6.8202927    57.405428  0.035699893  0.039532271            3 
  135000    1.2252236   -6.7721019    57.904223  0.035743348  0.039514557            1 
  136000    1.2375162   -6.8024532    58.347805  0.035752332  0.039496114            1 
  137000    1.2530393    -6.844547    58.726147  0.035721501   0.03948054            1 
  138000    1.2021243   -6.7820921    59.314825  0.035818131  0.039462913            1 
  139000    1.2403785   -6.7709196     59.55551  0.035704742  0.039441312            1 
  140000    1.2257147   -6.8081058    59.825488   0.03561041  0.039415826            2 
  141000    1.2272292   -6.7378899    60.425727  0.035712604   0.03938964       -1e+20 
  142000    1.2029359   -6.8058579     61.03465  0.035818456  0.039369283            2 
  143000    1.2209102   -6.8331444    61.322971  0.035735997  0.039348117            1 
  144000    1.2043871   -6.8399728    61.648983  0.035676495  0.039328199            1 
  145000    1.2278863   -6.7681493    62.640994  0.036000571  0.039310087            1 
  146000    1.2097955   -6.7668242    62.910835  0.035908011  0.039296728            2 
  147000    1.2229971   -6.7795172    63.325866  0.035899017  0.039282995            3 
  148000    1.2330295   -6.8323037    63.660537  0.035844897  0.039266921            2 
  149000    1.2447563   -6.7934913    64.393764  0.036014409  0.039251529            1 
  150000    1.2142812   -6.8003865    64.993546  0.036107526  0.039240373       -1e+20 
  151000    1.2138868   -6.8066493    65.627682  0.036218368  0.039230112            2 
  152000    1.2327128   -6.7810977    66.061954  0.036218177  0.039222488            2 
  153000    1.2493034   -6.7896228     66.37186   0.03615025  0.039216015            2 
  154000    1.2365278   -6.7982476    67.045329   0.03627994  0.039211079            1 
  155000    1.2004128   -6.7954189    67.260218  0.036161407  0.039204192            2 
  156000    1.2201772   -6.8166828    68.079686  0.036367354  0.039197559            1 
  157000    1.2028035   -6.7974954    68.529981  0.036374724  0.039195915            3 
  158000     1.231048   -6.7944889    69.053292  0.036420512  0.039198243            2 
  159000    1.2512425   -6.7664284    69.919514  0.036645447  0.039203772            2 
  160000    1.2268281   -6.7921532    70.130486  0.036526295  0.039208321            2 
  161000    1.2475074   -6.8122131    70.731456  0.036610484  0.039212463            1 
  162000    1.2300897    -6.769593    71.122469  0.036585632  0.039217545            2 
  163000    1.2249708   -6.8064043    71.618814  0.036614936  0.039222151            1 
  164000    1.2432757   -6.7532486    72.206594  0.036690343  0.039228042            1 
  165000    1.2381736   -6.8346927    72.542373  0.036637562  0.039233569            3 
  166000    1.2097107   -6.8051375    72.980679  0.036636887  0.039236131            2 
  167000    1.2000822   -6.8168261    73.232924  0.036543375  0.039236804            2 
  168000    1.2333494   -6.8320099    73.678253  0.036546753  0.039235823            1 
  169000     1.202353    -6.755228    74.262641  0.036618659  0.039235382            1 
  170000    1.2394956   -6.7968698    74.964869  0.036747485  0.039237691            2 
  171000    1.2117422   -6.7663443    75.383983  0.036736834  0.039239246            2 
  172000    1.2317679   -6.7916599    76.168324  0.036903258  0.039246099            1 
  173000    1.2221632   -6.7725665    76.583254  0.036889814  0.039253625            1 
  174000     1.230374   -6.7943899    77.090775  0.036920869   0.03926246            1 
  175000    1.2409557   -6.7882056    77.571579  0.036938847  0.039272116            3 
  176000    1.2248274   -6.8171698    78.040443  0.036950967  0.039281708            2 
  177000    1.2039736   -6.8287591      78.6258  0.037017797  0.039292292            3 
  178000    1.2381268   -6.7677064    79.049321  0.037008109  0.039301278            2 
  179000     1.248738   -6.8121222    79.626197  0.037069924  0.039313435            1 
  180000    1.2277418   -6.7378925    80.504753  0.037270719  0.039329146            1 
  181000    1.2163779   -6.7769551    81.058554  0.037319776  0.039344307            1 
  182000    1.2251193   -6.7250794    81.750909  0.037431735  0.039362287            1 
  183000    1.2417419   -6.8389026    82.052933  0.037364723  0.039380787            3 
  184000    1.2372958   -6.8210532    82.286613  0.037267488  0.039397865            2 
  185000    1.2289157   -6.7783087    83.457878  0.037593638  0.039416786            2 
  186000    1.2004803   -6.8429879    83.624746  0.037466284  0.039439366            3 
  187000     1.220603   -6.8019349    84.198022    0.0375214   0.03945975            2 
  188000     1.208725   -6.8040599    84.971914  0.037664855  0.039479156            1 
  189000    1.1945957   -6.7965443    85.125964  0.037533494  0.039495717            4 
  190000    1.2400965   -6.8082186     85.15486  0.037348622  0.039509688            1 
  191000    1.2276778   -6.8231791    85.446574  0.037280355  0.039520032            4 
  192000    1.2034681    -6.818255    85.990579    0.0373223  0.039529187            1 
  193000    1.2136771   -6.8435276    86.349474  0.037283883  0.039538459            1 
  194000    1.2215861   -6.8119728    86.898631   0.03732759  0.039545234            2 
  195000    1.2216537   -6.8400434    87.557318  0.037417657  0.039550873            1 
  196000    1.2164993   -6.7909132    88.202861  0.037501217  0.039559987            2 
  197000    1.2079631   -6.7935348     88.51659  0.037443566  0.039569478            2 
  198000    1.2304486   -6.8018035     88.99448  0.037455589  0.039579226            1 
  199000    1.2100682   -6.8141577    89.586816  0.037515417  0.039590698            2 
  200000    1.1909177   -6.7781094    89.936706  0.037473627  0.039596937            1 
  201000    1.2100928   -6.8198334    90.104826  0.037356893  0.039601136            1 
  202000    1.2321931   -6.8409447     90.90967  0.037503989  0.039605406            3 
  203000    1.2655766    -6.842517    91.354916  0.037502018  0.039608991            1 
  204000    1.2117199    -6.823674    91.829257  0.037511951  0.039614262            1 
  205000    1.2046719   -6.8217264    92.258373  0.037503403  0.039620035            1 
  206000    1.2386399   -6.8783514    92.882397  0.037573785  0.039629203            2 
  207000    1.2521785   -6.7842593     93.83283  0.037774891  0.039640534            2 
  208000    1.2118942   -6.7697251    94.620773  0.037908963  0.039654829            1 
  209000    1.2071247   -6.8270581     94.51382  0.037684936  0.039666161            1 
  210000    1.2293056   -6.8228073    95.137376  0.037752927   0.03967541            3 
  211000    1.2162162   -6.8222712    95.725639  0.037806335  0.039687693            1 
  212000    1.2044031   -6.7788237    96.426154  0.037903362  0.039700347            3 
  213000    1.1957859   -6.8233934    96.212052  0.037641648  0.039710562            2 
  214000    1.2012956   -6.8753661    96.557821  0.037600397  0.039717979            2 
  215000    1.2310558   -6.7827656    97.702718   0.03786927  0.039726949            3 
  216000     1.222068   -6.8397771    97.902978  0.037771211  0.039737148            1 
  217000     1.223428   -6.8261618    98.352896  0.037769929  0.039745532            2 
  218000    1.2089788   -6.8149549    98.763251  0.037753536  0.039754393            1 
  219000    1.2326167   -6.7999318    99.202623  0.037748335  0.039761152            2 
  220000    1.2234209   -6.8231685    99.580693  0.037719959   0.03976631            3 
  221000    1.2096363   -6.8169089    99.798433  0.037631385  0.039771694            2 
  222000    1.2142652   -6.7967029    100.96977  0.037901567  0.039777889            1 
  223000    1.2114142   -6.8089668      101.402  0.037893125  0.039785785            2 
  224000    1.2167913    -6.852038    101.74975   0.03785333  0.039792057            1 
  225000    1.2068431   -6.7786804    102.12517  0.037824136  0.039797601            1 
  226000    1.2286593   -6.8593662    102.16642  0.037671982  0.039799848            2 
  227000    1.2149903   -6.7865288     103.2787  0.037914352  0.039805259            1 
  228000    1.2274143   -6.8362857    103.72049  0.037909536  0.039813424            1 
  229000    1.1902493   -6.7780631    104.19448  0.037916476  0.039818942            3 
  230000    1.2350592   -6.8038597    104.64909  0.037916338  0.039825964            1 
  231000    1.2135056   -6.8164617    105.40146  0.038023616  0.039831555            1 
  232000    1.2189508   -6.8496678    105.61722  0.037937221  0.039837972            1 
  233000    1.2500397   -6.8222757    105.38976  0.037693047  0.039843617            1 
  234000    1.2323175   -6.8205828    106.33134  0.037867286  0.039846606            3 
  235000    1.2126537   -6.8452865    106.75165  0.037855195  0.039850601            6 
  236000    1.2090609   -6.7706142    107.60984  0.037997825  0.039854262            1 
  237000    1.2066415   -6.8289842    107.52717  0.037808428  0.039857279            3 
  238000    1.2285967   -6.7935465    108.42607   0.03796431  0.039858807            2 
  239000    1.2415317    -6.837119    108.60882  0.037869186  0.039860827            1 
  240000    1.2024985   -6.8291448    109.14302  0.037896883  0.039864011            2 
  241000    1.2367754   -6.7871767    109.56835  0.037886704  0.039866828            1 
  242000     1.182181   -6.8425708    110.32837  0.037991863   0.03986827            1 
  243000    1.2075566   -6.7960236    110.47294  0.037885096  0.039868081            1 
  244000    1.2382049   -6.7941877    111.44792  0.038062813  0.039869114            2 
  245000    1.2110949   -6.8557228    111.06835  0.037778349  0.039869516            3 
  246000    1.2140109   -6.8170717     112.0767  0.037966363  0.039870474            1 
  247000    1.2181594   -6.8140283    112.42104  0.037928827  0.039868673            3 
  248000    1.2121666   -6.7968948    112.53181  0.037813108  0.039866408            2 
  249000    1.2027435    -6.852277    112.93045  0.037794663  0.039863742            2 
  250000    1.2266752   -6.8181734    113.53792  0.037845972  0.039860845            2 
  251000    1.2153402   -6.8098529    114.26087  0.037935215   0.03985833            1 
  252000    1.2181782   -6.8212086    114.25749  0.037783561  0.039854955            1 
  253000    1.2191987   -6.7972691    114.97221  0.037869634  0.039851601            2 
  254000    1.2457351    -6.842878    114.99654  0.037728522  0.039848175            1 
  255000    1.1912453   -6.8449632    115.42147  0.037719436  0.039844186            2 
  256000    1.2165667   -6.8356345    116.08245  0.037787255  0.039840511            2 
  257000    1.2203081   -6.8613057    116.37503  0.037735093  0.039837739            2 
  258000    1.2192517   -6.8402749    117.55952   0.03797142   0.03983446            1 
  259000    1.2339011   -6.8621619    117.51728  0.037811222  0.039831431            1 
  260000    1.2001177   -6.8995663    117.84343  0.037770331  0.039827379            2 
  261000    1.2177844   -6.8539062    118.08641  0.037703197  0.039824358            2 
  262000    1.1850692    -6.854205    118.68352  0.037749212  0.039822221            2 
  263000    1.2128391   -6.8810752    118.86255  0.037662404  0.039817803            2 
  264000    1.1729679   -6.8093808    119.91034  0.037850487  0.039814327            1 
  265000     1.198542   -6.8440625     120.6627  0.037944245  0.039811681            2 
  266000    1.2156665   -6.8302931    121.26291  0.037989634    0.0398119            1 
  267000    1.2234669   -6.8438913     121.9878  0.038073595  0.039812667            1 
  268000    1.2017381   -6.8411078    121.65574  0.037828277  0.039812705            1 
  269000     1.208197   -6.8270193    122.95894  0.038091369  0.039811625            3 
  270000    1.1643787   -6.8767764    122.58239  0.037834071  0.039808802            3 
  271000    1.1806228   -6.8534189    123.20896  0.037887133  0.039804364            1 
  272000    1.1976675   -6.8519596     123.4188  0.037812133  0.039800306            2 
  273000    1.1965937    -6.859829    123.55417  0.037714947  0.039794176            2 
  274000    1.1733583   -6.7676843    124.94761  0.038001099   0.03978971            2 
  275000    1.2133958   -6.8562895    125.15792  0.037926642  0.039785753            1 
  276000    1.2144728   -6.8389126    125.19428  0.037800205  0.039781579            1 
  277000    1.2343874    -6.809132    125.69244  0.037813611  0.039776727            3 
  278000    1.2276078   -6.8609087    126.19965  0.037829631  0.039772434            1 
  279000    1.1834324   -6.8780022    126.15021  0.037679273  0.039766631            2 
  280000    1.2054074   -6.8477464    127.01382  0.037801731  0.039760826            1 
  281000    1.2157442   -6.8510259    127.33059  0.037761148  0.039755047            1 
  282000    1.2581747   -6.8256347    128.02728   0.03783312  0.039750055            2 
  283000    1.2133704   -6.8338262    128.35214  0.037795095  0.039744987            1 
  284000     1.189744   -6.8814469    128.38463  0.037671545  0.039739399            1 
  285000    1.2187149   -6.7930448    129.09675  0.037747589  0.039732883            2 
  286000    1.2066895   -6.8538358    129.16719  0.037636128  0.039725395            2 
  287000    1.2044659   -6.8602086    129.85303  0.037704131  0.039716157            2 
  288000    1.1868519   -6.8384915    130.70692  0.037820289  0.039709259            4 
  289000    1.2201527   -6.8275542    130.16397  0.037532863  0.039700944            2 
  290000    1.2116127   -6.8455865     130.5164  0.037504712  0.039690776            2 
  291000    1.2105097   -6.8297661    131.05396  0.037529772  0.039679888            2 
  292000     1.172309    -6.877471    131.53319  0.037538012  0.039669357            1 
  293000    1.2060855   -6.8401784    132.11298  0.037574795  0.039659485            2 
  294000    1.1893159   -6.8598676    132.37547  0.037521391  0.039649161            4 
  295000    1.2223195   -6.8807346    132.83956  0.037525298  0.039638203            2 
  296000    1.2069653   -6.8679105    133.50984  0.037587229  0.039627491            3 
  297000    1.1920851   -6.8627283    133.85973  0.037558846  0.039615437            3 
  298000    1.1920667   -6.8293976    134.24729  0.037541189  0.039603745            1 
  299000    1.1931528   -6.8551281    134.64183  0.037525595  0.039592196            3 
  300000    1.2176806   -6.8855547    134.44531  0.037345921  0.039578145            1 
  301000    1.1833984   -6.8761115    134.70113  0.037292671   0.03956476            5 
  302000    1.2172718   -6.8810112    135.25311  0.037321499  0.039550333            1 
  303000    1.2048617   -6.8576145    135.99647   0.03740277  0.039536118            1 
  304000    1.1944903   -6.8421312    136.26092  0.037352225  0.039520697            2 
  305000    1.1777817   -6.8684411    136.38474   0.03726359  0.039505971            3 
  306000    1.2265957   -6.9078755    136.59938  0.037200267  0.039489816            1 
  307000    1.2202973   -6.8692972    137.11411  0.037218813  0.039472206            1 
  308000    1.1934387   -6.8280344    137.24576  0.037133593  0.039453463            1 
  309000    1.2090285   -6.8456151    137.81694  0.037167461  0.039435179            2 
  310000    1.2244035   -6.8068714    138.99968  0.037365504  0.039418309            1 
  311000     1.235381   -6.8274157    139.19974  0.037298966  0.039403365            5 
  312000    1.1977253   -6.8642941    139.41988  0.037238215  0.039388252            2 
  313000    1.2024155   -6.8752829    140.21338  0.037330505  0.039374125            1 
  314000     1.200673   -6.8640946    140.60062  0.037314388  0.039359155            2 
  315000    1.1981494   -6.8736326    140.22816  0.037097397  0.039344332            6 
  316000    1.1940126   -6.8282942    141.71212  0.037371339  0.039328221            1 
  317000    1.2132221   -6.8792354    142.11156  0.037358455  0.039314553            2 
  318000    1.1963916   -6.8614867    142.40505  0.037317884  0.039300415            2 
  319000    1.1997934   -6.8927648    142.25463  0.037161607  0.039286008            2 
  320000    1.2081043      -6.8598    143.01151  0.037242579  0.039271292            2 
  321000    1.1885314   -6.8224186     143.3461  0.037213423  0.039256059            1 
  322000    1.1894947   -6.8554577     143.7803  0.037210223  0.039241694            1 
  323000    1.2044379   -6.8809365    144.24793  0.037215669  0.039228111            3 
  324000    1.1957697   -6.8688674    145.06107  0.037309946  0.039213872            1 
  325000    1.2027109   -6.8472925    145.28394  0.037252292  0.039202032            3 
  326000    1.2368209    -6.842309    145.96925  0.037313202   0.03918994            1 
  327000    1.1502551   -6.8706567    146.10832  0.037234536  0.039178381            2 
  328000    1.1869997   -6.8820535    146.17636  0.037138302  0.039165691            1 
  329000    1.1625276   -6.8455477    147.18353   0.03728053  0.039154241            2 
  330000    1.1955258   -6.8313675    147.72936  0.037305394  0.039142417            3 
  331000     1.164881   -6.8458847    148.10868  0.037288186  0.039130026            2 
  332000    1.1883278   -6.8655164    148.29492  0.037222621  0.039117837            4 
  333000      1.20005   -6.8587368    148.45142  0.037150004  0.039105992            1 
  334000    1.1906796   -6.8926676    149.61253  0.037328475  0.039094376            2 
  335000    1.2354055   -6.8404399    150.02891  0.037320624  0.039082355            2 
  336000    1.1639743   -6.8167101    150.03047  0.037209937  0.039068944            3 
  337000    1.1919767   -6.8483533    150.18814  0.037138512  0.039055624            2 
  338000    1.1992722   -6.8209412    150.90347  0.037204996  0.039042483            2 
  339000    1.1804382    -6.869299    150.97729  0.037113394  0.039029087            2 
  340000     1.203685   -6.7940133    151.92053  0.037235423  0.039015723            2 
  341000    1.2091555   -6.8390235     152.1274  0.037176783  0.039003633            2 
  342000    1.1940468   -6.8609044     153.2334  0.037337572  0.038991675            1 
  343000    1.1883767   -6.8985249    153.26925  0.037237427  0.038980309            1 
  344000    1.2039471   -6.8416857    154.19591   0.03735366  0.038969291            2 
  345000    1.1718124   -6.8183501    154.34071  0.037280365  0.038958453            4 
  346000    1.1866872   -6.8873356    154.36317  0.037178027  0.038947509            1 
  347000    1.1887599   -6.8570369    154.74414  0.037162377  0.038935565            2 
  348000    1.2052677   -6.8591849    155.73108  0.037291925  0.038924191            5 
  349000    1.2087861   -6.8175096     155.7784  0.037196371  0.038914197            2 
  350000    1.1898044   -6.8238891    156.61328  0.037288876  0.038904017            2 
  351000    1.1708924    -6.817275    157.14959  0.037309968  0.038893852            3 
  352000    1.1844363    -6.833947    157.46024  0.037277518   0.03888369            2 
  353000    1.1728478   -6.8743423    157.42142  0.037162753  0.038872394            3 
  354000    1.2004726   -6.9081259    157.24464  0.037016157  0.038860922            1 
  355000    1.2048194     -6.86386    158.25538   0.03714915  0.038850168            3 
  356000    1.2085313   -6.8575027    159.08025  0.037237885  0.038839752            2 
  357000    1.2126233   -6.8906883    158.84569  0.037078827  0.038829564            1 
  358000    1.1540741   -6.9042877    159.79119  0.037195341  0.038818505            1 
  359000     1.205992    -6.852137    160.18704   0.03718362  0.038807864            2 
  360000    1.1866989   -6.8592678    160.46731  0.037145209  0.038798283            1 
  361000    1.1959795   -6.8447533    161.21783  0.037215566  0.038786526            1 
  362000     1.218768   -6.8168267    161.90278  0.037270437  0.038776047            3 
  363000    1.1888464   -6.9016728    161.88856    0.0371645  0.038766071            5 
  364000    1.2125799   -6.8470312    162.65641  0.037238188  0.038755817            1 
  365000    1.2127991   -6.8988363    162.66112  0.037137242  0.038745621            1 
  366000    1.2112478   -6.8894715    162.67914  0.037039878  0.038734914            1 
  367000    1.2002534   -6.8507265    163.51629  0.037129039  0.038723624            3 
  368000    1.2007774   -6.8639022    164.11594  0.037163935  0.038712162            1 
  369000     1.195768   -6.8618861    163.95088  0.037025945  0.038701515            1 
  370000    1.1889261   -6.8467558    164.40452  0.037028045  0.038690864            1 
  371000    1.1766878   -6.8975297    164.76897    0.0370101  0.038680791            1 
  372000    1.1709811   -6.8525614    165.77505  0.037135988  0.038669608            2 
  373000    1.2185567   -6.8375608    165.89451  0.037063116  0.038658435            1 
  374000    1.2101683   -6.8337604    166.96588  0.037202737   0.03864748            2 
  375000    1.2076606   -6.9065417    167.29562  0.037176805  0.038637313            1 
  376000    1.1931637   -6.8180269    167.65872  0.037158405  0.038625757            1 
  377000    1.1919997   -6.8770183    167.41257  0.037005432  0.038615655            1 
  378000    1.1789616   -6.8394471    168.74506  0.037201292  0.038605771            2 
  379000    1.1937968   -6.8425921    168.88884  0.037134749  0.038596419            1 
  380000    1.1760289   -6.8845019    169.30575  0.037128454  0.038586462            1 
  381000      1.16947   -6.8655696    169.71029  0.037119487  0.038577155            1 
  382000    1.1871864   -6.8461271    169.92021  0.037068108  0.038567407            1 
  383000    1.2229203   -6.8958658    170.19951  0.037032096   0.03855692            2 
  384000    1.1993482   -6.8380428    170.61076  0.037024905  0.038547649            1 
  385000    1.2325159   -6.9048466    171.05421   0.03702472  0.038538079            4 
  386000    1.1896689   -6.9059989    172.08459  0.037151251  0.038528326            3 
  387000    1.1820679   -6.8608591    171.40185  0.036908236  0.038518911            1 
  388000    1.1974725   -6.9139066    171.71657  0.036880708  0.038508352            1 
  389000    1.1830455   -6.8860059    172.47383  0.036948122  0.038496935            2 
  390000    1.1826458   -6.8634265    173.23156   0.03701529   0.03848503            2 
  391000    1.2068366   -6.8727883    172.64675  0.036795983   0.03847376            1 
  392000    1.1910727    -6.866191    173.68185  0.036922163   0.03846276            2 
  393000    1.1927689    -6.829168    174.61177  0.037025397  0.038452207            1 
  394000    1.1831727   -6.9150512    174.26442  0.036857957   0.03844195            2 
  395000    1.1880736    -6.859763    174.97657  0.036914889  0.038431854            2 
  396000    1.1819748   -6.8838168    175.84667   0.03700477  0.038422202            1 
  397000    1.1795581   -6.8550698    176.66237  0.037082782  0.038412679            2 
  398000    1.1744659   -6.8754715    176.66625   0.03699042  0.038403703            3 
  399000    1.1915004   -6.8547244    177.13954  0.036996562   0.03839382            1 
  400000    1.1786237   -6.8682162    177.28056   0.03693345   0.03838364            1 
  401000    1.1859461   -6.8909496    177.69147   0.03692674  0.038373402            2 
  402000    1.1864622   -6.8541234    178.47263  0.036996815   0.03836332            1 
  403000    1.1862056   -6.8670479    178.54415    0.0369198  0.038353067            2 
  404000    1.1820413    -6.840171    179.11451  0.036946062  0.038342519            5 
  405000    1.1895966    -6.873582    179.02409  0.036836232  0.038330747            2 
  406000    1.1795954   -6.8516872    180.08726  0.036963724  0.038319514            2 
  407000    1.1962047   -6.8945463    179.60464  0.036774086  0.038309833            1 
  408000    1.1738181   -6.8271975     180.4715  0.036861009  0.038299244            3 
  409000    1.2165841    -6.906771     181.0577  0.036890321  0.038288358            2 
  410000     1.177861   -6.8448239    181.23532  0.036836447  0.038278145            3 
  411000    1.1646784   -6.9153516    182.54063  0.037011481  0.038268016            2 
  412000    1.1794947   -6.8689495    182.58219  0.036930055  0.038258383            1 
  413000    1.2105605   -6.9178371     182.9629  0.036917453  0.038249115            1 
  414000    1.1690307   -6.9115545    183.42586   0.03692147   0.03824015            2 
  415000    1.1838147    -6.877058      184.542  0.037056626  0.038230719            2 
  416000    1.1809263   -6.8858271    184.09389  0.036877783  0.038221358            5 
  417000    1.1655152   -6.8699141    184.82277  0.036935007   0.03821159            2 
  418000    1.1837644   -6.8915742    184.66086  0.036814367  0.038203138            3 
  419000    1.1794459   -6.8345001     185.8365  0.036960323  0.038194621            2 
  420000    1.1817794   -6.8627331    186.35526   0.03697525  0.038186027            2 
  421000    1.1760579   -6.9159532    186.04937  0.036826875  0.038177427            4 
  422000    1.1946116    -6.874012    187.14589  0.036956139  0.038167681            1 
  423000    1.1792218   -6.8301168    187.54968  0.036948321  0.038159379            1 
  424000    1.1733894   -6.9002382    188.25359  0.036999527  0.038151164            2 
  425000    1.2063101   -6.8861842    188.50534   0.03696183  0.038143244            3 
  426000    1.1895088   -6.8613205    188.92668  0.036957488  0.038134635            2 
  427000      1.20341    -6.853779    189.65768  0.037013598  0.038125328            1 
  428000    1.1709449   -6.8912458    189.42035  0.036880909   0.03811729            3 
  429000     1.181531   -6.8943717    189.92926  0.036893795  0.038109477            9 
  430000    1.1944022   -6.8924398    190.73507  0.036964161  0.038102177            4 
  431000    1.1750189   -6.9094789    191.08463  0.036945985  0.038094692            3 
  432000    1.1630589   -6.8998931    191.82655  0.037003578  0.038086834            1 
  433000    1.1536892   -6.8557411    192.07547  0.036966026  0.038078821            2 
  434000    1.1595754   -6.8997103    191.82329   0.03683243  0.038070625            1 
  435000    1.1796776   -6.8950157    192.26284  0.036831962  0.038062062            2 
  436000    1.1601613   -6.8953235    193.43141  0.036970836   0.03805458            3 
  437000    1.2036888   -6.8614407    193.32868  0.036866644   0.03804728            1 
  438000    1.1632162   -6.9036747    193.51663  0.036818233  0.038039996            2 
  439000    1.1884621   -6.8824499    193.73396   0.03677562  0.038031875            1 
  440000    1.1897371   -6.8678837    194.52831  0.036842483  0.038023294            1 
  441000    1.1724888   -6.8892017    194.27269  0.036710638  0.038014551            2 
  442000    1.1993372   -6.9128108    195.37316   0.03683506  0.038005145            2 
  443000    1.1572866   -6.8295365    196.51649  0.036966985  0.037996882            2 
  444000    1.1815048   -6.8851577    196.27211  0.036837859  0.037989227            2 
  445000    1.1960748   -6.9205665    196.01382  0.036706707  0.037980389            1 
  446000    1.1939076   -6.8604761    197.19178  0.036844504  0.037970895            1 
  447000    1.1646607   -6.9195598    197.26248  0.036775257  0.037962025            1 
  448000    1.1838632    -6.916812    197.52735  0.036742439  0.037953581            3 
  449000    1.1686071   -6.9184272    197.56185   0.03666701  0.037944383            2 
  450000    1.1914599   -6.8751592    198.57786  0.036773677  0.037935147            3 
  451000    1.2043997   -6.8826441    198.54145  0.036685411   0.03792608            1 
  452000    1.1854987   -6.8980902    198.84519   0.03666025  0.037916384            2 
  453000     1.167229   -6.9494847    198.41469  0.036500128  0.037906707            2 
  454000     1.176632   -6.9025813    199.35512   0.03659235  0.037896076            1 
  455000    1.1775512   -6.8952365    200.13414  0.036654604  0.037885716            2 
  456000    1.1654077   -6.8982051    199.81041   0.03651506  0.037874245            1 
  457000    1.1818227   -6.8525127     200.4505  0.036551878  0.037863524            2 
  458000    1.1760498   -6.9190179    201.11408   0.03659281  0.037852912            1 
  459000    1.1758849   -6.8905854    201.53406  0.036589335  0.037841878            2 
  460000    1.1824761   -6.8723785    201.87396  0.036571369  0.037831044            3 
  461000    1.1879407   -6.9646192    201.71598  0.036463481  0.037820026            1 
  462000     1.167229   -6.9040155     202.8568  0.036590332  0.037808926            2 
  463000    1.1736967   -6.8845861    203.09307  0.036553829  0.037799109            2 
  464000    1.1791586   -6.9248989    203.55066  0.036557231  0.037789016            1 
  465000    1.1748407   -6.8803916    204.01426  0.036561695   0.03777884            2 
  466000    1.1632683    -6.902268    204.63595  0.036594411  0.037768636            3 
  467000    1.1641273   -6.9368486    205.04688   0.03658938  0.037759336            2 
  468000    1.1733213   -6.9186949    205.26346  0.036549761  0.037750153            1 
  469000    1.1704322   -6.9257021     205.9134  0.036587313  0.037741398            2 
  470000    1.1906184   -6.9045149    206.20566  0.036561287  0.037732306            2 
  471000    1.1683054   -6.8747148    206.95466  0.036616183  0.037723376            2 
  472000    1.1776031   -6.8978382    207.28514  0.036596953  0.037714514            2 
  473000    1.2000581   -6.8893068    207.67799  0.036588794  0.037705657            2 
  474000    1.1663524    -6.926036    208.25269   0.03661264  0.037697346            1 
  475000    1.1977244    -6.930615    209.18963  0.036699935  0.037689303            2 
  476000    1.1581554    -6.922414    209.32965  0.036647348  0.037681698            2 
  477000     1.166609   -6.9475144    209.85133  0.036661658  0.037674323            3 
  478000    1.1736816   -6.9227318    209.80629  0.036577109  0.037667311            1 
  479000    1.1692871   -6.9300722    210.44493  0.036611853  0.037659728            2 
  480000    1.1615389   -6.8897537    211.45916   0.03671166  0.037652625            2 
  481000    1.1630647   -6.9003845    212.02083  0.036732646  0.037645882            1 
  482000    1.1627474   -6.9237112    212.26897  0.036699337  0.037639037            2 
  483000    1.1961453   -6.8913546      212.045  0.036584713  0.037632037            1 
  484000    1.1552046   -6.9259987    212.78825  0.036637096  0.037625493            2 
  485000    1.1881835   -6.9078673    213.03492  0.036603938  0.037618808            2 
  486000    1.1923578   -6.8856944    214.48303  0.036776925  0.037612546            2 
  487000    1.1951133   -6.8955926    214.74642  0.036746478  0.037606468            1 
  488000    1.1729928   -6.9147073    215.33768  0.036772145   0.03760064            3 
  489000    1.1588197   -6.9309987    214.75769  0.036598107  0.037594253            1 
  490000    1.1774592   -6.8670714    216.27552  0.036781551  0.037587813            1 
  491000    1.1992004   -6.8984538    216.46465  0.036738738  0.037581557            1 
  492000    1.1936509   -6.9109119    216.65419   0.03669617    0.0375754            2 
  493000    1.1723237   -6.9043446    216.66644  0.036623806  0.037569429            2 
  494000    1.1734682   -6.8765676    217.90031  0.036757812  0.037563631            2 
  495000     1.180582   -6.9456376    218.56085  0.036794756  0.037557775            2 
  496000    1.2018022   -6.8717584    219.12532   0.03681541  0.037551649            3 
  497000    1.1880818   -6.8861835     218.3843  0.036617086  0.037546135            5 
  498000    1.1630032   -6.9235546    219.38339  0.036710742  0.037540257            3 
  499000    1.1710161   -6.9337529    219.84195  0.036713753  0.037535447            1 
  500000    1.1744169   -6.9328875    220.84139  0.036806898  0.037530059            4 
  501000    1.1442402   -6.9059009     220.2736  0.036638988  0.037524433            1 
  502000    1.1474437   -6.8850999    221.58705   0.03678404   0.03751941            2 
  503000     1.168741   -6.9267154    221.43235   0.03668528  0.037514139            3 
  504000    1.1674954   -6.8453088    222.49167  0.036787644  0.037509074            2 
  505000    1.1703001   -6.8981761    222.79474  0.036764809  0.037503417            2 
  506000    1.1662703   -6.9178353    222.62417  0.036664059   0.03749736            2 
  507000    1.1523865   -6.9303649    223.25957  0.036696181  0.037490553            4 
  508000    1.1933364    -6.934395    223.40397  0.036647632  0.037484023            1 
  509000    1.1732686   -6.9097626    223.69352  0.036623039  0.037477551            3 
  510000    1.1855091   -6.8958759     225.0038  0.036765326  0.037471681            1 
  511000    1.1951244   -6.8860822    224.58301  0.036624758  0.037465667            1 
  512000    1.1693268    -6.933825    225.11819  0.036640331  0.037459044            1 
  513000    1.1679005   -6.9188349    225.90842  0.036697274  0.037452824            4 
  514000    1.1866201   -6.9071555    226.24898  0.036681093  0.037447096            2 
  515000    1.1504395   -6.8968381     226.5362  0.036656343  0.037441502            2 
  516000    1.1719047   -6.8939274    227.46311  0.036734998  0.037435101            1 
  517000    1.1712399   -6.9129799    227.12638  0.036609668  0.037429583            2 
  518000    1.1732787   -6.9190437    227.18222  0.036547976  0.037423113            2 
  519000    1.1958321    -6.946074    228.25906  0.036650458  0.037416889            2 
  520000    1.1658453   -6.9644827    227.51627   0.03646094   0.03741072            3 
  521000    1.1776364   -6.9677389    228.24757  0.036507929  0.037404314            1 
  522000    1.1710114   -6.9455234    228.76593  0.036520742  0.037397496            1 
  523000    1.1889107   -6.9538305    229.11908  0.036507183    0.0373907            1 
  524000    1.1225515   -6.9265166    230.66054  0.036682656  0.037384046            1 
  525000    1.1853048   -6.9250699     230.1697  0.036534873  0.037377344            1 
  526000    1.1523768   -6.9228456    231.01784  0.036599784  0.037371173            2 
  527000    1.1881497   -6.9136686    231.20238  0.036559516  0.037364613            2 
  528000    1.1687394    -6.933219    231.27992  0.036502512  0.037357999            2 
  529000    1.1850963   -6.9678323    231.33612  0.036442363  0.037350904            1 
  530000    1.1532459   -6.9056339    231.68908  0.036429101  0.037344475            2 
  531000    1.1634716   -6.9025993    232.66366  0.036513444  0.037338356            5 
  532000    1.1642267   -6.9086843    232.91877  0.036484769  0.037332113            2 
  533000    1.1690299   -6.9150832    233.66058  0.036532299   0.03732552            1 
  534000    1.1669953   -6.9734515    232.74665  0.036321262  0.037318169            4 
  535000    1.1968507   -6.9188326    233.42834  0.036359554  0.037310433            1 
  536000    1.1699731   -6.8865716    234.71805  0.036492234  0.037302695            2 
  537000    1.1781736   -6.9033722    234.15725  0.036337252  0.037294894            3 
  538000    1.1675873    -6.929014    234.78329  0.036366681  0.037286436            3 
  539000    1.1759779   -6.9223827    234.75026  0.036294103  0.037278427            4 
  540000    1.1542408    -6.934516    234.82172  0.036237919  0.037270906            1 
  541000    1.1581796   -6.9422559    235.59283  0.036289715  0.037262425            1 
  542000    1.1763929   -6.9464773    236.60383  0.036378202  0.037254212            2 
  543000    1.1603107   -6.9533428    237.36951  0.036428716  0.037246749            1 
  544000    1.1885999   -6.9035697    238.14168  0.036480036  0.037240142            4 
  545000    1.1949908   -6.8744914    239.03526  0.036549735  0.037234187            1 
  546000    1.1767305   -6.9267652    238.36262   0.03638013  0.037228466            1 
  547000    1.1678018   -6.9442099    239.00741  0.036411853   0.03722188            2 
  548000    1.1898096   -6.9190989    238.84641  0.036320926  0.037214526            1 
  549000    1.1797606   -6.9185642    238.84628  0.036254747  0.037206765            5 
  550000    1.1425454   -6.9723417    238.50219  0.036136695  0.037198713            3 
  551000    1.1506448    -6.952228    239.14622  0.036168514   0.03719015            3 
  552000    1.1742266   -6.9097632    239.70525  0.036187387  0.037181703            1 
  553000     1.169504   -6.9088346    240.18482  0.036194216  0.037172969            3 
  554000    1.1604293   -6.9077487    240.98235   0.03624885  0.037164415            2 
  555000    1.1719609   -6.9587525    240.35972  0.036090048  0.037155542            1 
  556000     1.156159   -6.9247018    241.58919  0.036209411  0.037147102            1 
  557000     1.169242   -6.9073057    242.45014  0.036273211  0.037139112            1 
  558000    1.1519727   -6.9110712    242.69191  0.036244311   0.03713058            1 
  559000    1.1539434   -6.9445742    242.40009   0.03613597  0.037122019            1 
  560000    1.1703699   -6.9132374    242.35045  0.036064055  0.037113252            2 
  561000    1.1559238   -6.9134056    243.80994  0.036216568  0.037105329            1 
  562000     1.173198   -6.9260779    244.07082   0.03619081   0.03709715            1 
  563000     1.181518   -6.9020807    245.00743  0.036265161  0.037089416            1 
  564000    1.1468538   -6.9571806    243.73894  0.036013436  0.037080837            2 
  565000    1.1460337   -6.9446839    245.24361  0.036171624  0.037072317            2 
  566000    1.1551138   -6.9063625    245.08197  0.036083918  0.037063823            1 
  567000    1.1703459   -6.8917657     245.9933  0.036154218  0.037055049            1 
  568000    1.1632882   -6.9099532    246.41903  0.036153026  0.037046839            3 
  569000    1.1582882   -6.9221782     246.0083  0.036029336   0.03703833            2 
  570000    1.1590961   -6.9126773    247.80466  0.036228751  0.037029789            1 
  571000    1.1377936   -6.9130294    247.66023  0.036144226  0.037021063            1 
  572000    1.1341567    -6.907603    247.72379  0.036090296  0.037012094            1 
  573000    1.1647247   -6.9544702    247.24276  0.035957354  0.037002868            2 
  574000     1.147112   -6.9369033    248.52664  0.036081104  0.036993803            3 
  575000    1.1996821    -6.955218     249.0819  0.036098826  0.036984416            2 
  576000    1.1576842   -6.9284691    248.68049  0.035978079   0.03697473            2 
  577000    1.1438686   -6.9117204    249.91847  0.036094522  0.036965384            3 
  578000    1.1386603   -6.9733936    249.37915  0.035954318  0.036956251            3 
  579000       1.1725   -6.9215166    249.04187  0.035843678  0.036946386            2 
  580000    1.1816444   -6.9171613     250.0426  0.035925661  0.036936728            1 
  581000    1.1533351   -6.9784741    249.76632  0.035824199  0.036926626            2 
  582000    1.1528892   -6.9227675    250.12542  0.035814064  0.036916758            4 
  583000    1.1588974   -6.9039625    251.24936  0.035913288   0.03690648            1 
  584000    1.1827139   -6.9835115    250.18525  0.035699951  0.036895904            2 
  585000    1.1690272   -6.9289017    251.43968  0.035817618  0.036884974            3 
  586000     1.143828   -6.9506893    252.36351   0.03588787  0.036874021            1 
  587000    1.1433891   -6.9170939    252.02554  0.035778753  0.036863369            1 
  588000    1.1627646   -6.9605327    252.77493  0.035824112  0.036852925            1 
  589000    1.1512784   -6.9160967    252.57949  0.035735638   0.03684278            2 
  590000    1.1823087   -6.9326142    253.50004   0.03580509  0.036832192            2 
  591000    1.1509802   -6.9253712    253.95021  0.035807983   0.03682182            1 
  592000    1.1330763   -6.9211539    254.17301  0.035778858  0.036811018            1 
  593000    1.1573934   -6.9512358    254.09512  0.035707577  0.036800858            1 
  594000    1.1864044    -6.969606    254.53548  0.035709243  0.036790688            5 
  595000    1.1569521   -6.9706527    254.05982  0.035582608  0.036779819            1 
  596000    1.1557378    -6.906098    255.68488  0.035750123  0.036768844            1 
  597000    1.1336522   -6.9394791    255.77332  0.035702585  0.036758126            2 
  598000    1.1533236   -6.9554049    256.16922  0.035698051  0.036747254            1 
  599000     1.143117   -6.9472514     256.5928  0.035697385  0.036736697            2 
  600000    1.1608895   -6.9227024    257.25279  0.035729554  0.036726346            2 
  601000    1.1647524   -6.9465983    258.51479   0.03584509  0.036716332            1 
  602000     1.137611    -6.988373    255.83307  0.035414322  0.036705606            1 
  603000    1.1831732    -6.985985    256.48192  0.035445262  0.036694502            2 
  604000    1.1400469   -6.9439672    258.58882  0.035677266  0.036683817            2 
  605000    1.1598335   -6.9359302    258.09723  0.035550583  0.036673091            2 
  606000    1.1535394   -6.9398479     257.5832  0.035421231   0.03666212            2 
  607000    1.1436087   -6.9347975    259.00936  0.035558671  0.036650807            2 
  608000    1.1931127   -6.9299002    258.66658  0.035453204  0.036639022            1 
  609000    1.1593264    -6.939413    259.13867  0.035459588   0.03662677            2 
  610000     1.177092   -6.9802687    259.08852  0.035394607  0.036614123            1 
  611000    1.1384603   -6.9772016    259.03179   0.03532894   0.03660137            2 
  612000    1.1482507   -6.9239507    259.76522  0.035371081   0.03658837            3 
  613000    1.1437537   -6.9359612    259.78202  0.035315663  0.036575704            1 
  614000    1.1521385   -6.9722619    259.98406  0.035285568  0.036562467            2 
  615000    1.1262442   -6.9516455    260.32712  0.035274678  0.036549477            2 
  616000    1.1703448   -6.9141892    260.87527  0.035291568  0.036536349            2 
  617000    1.1595653   -6.9350322    260.94253  0.035243453  0.036523402            1 
  618000     1.177919   -6.9432979    262.26321   0.03536451  0.036510753            1 
  619000    1.1508952   -6.9104021     262.1933  0.035297968  0.036497535            2 
  620000    1.1558381   -6.9208001    262.68754  0.035307465  0.036484792            1 
  621000    1.1629118   -6.9398263    263.00485   0.03529319   0.03647176            2 
  622000    1.1525792   -6.9533452     262.6244  0.035185477  0.036458507            1 
  623000    1.1629498     -6.92344    263.32993  0.035223372  0.036445846            3 
  624000    1.1720183   -6.9782898    262.75179  0.035089715  0.036432786            1 
  625000    1.1648131   -6.9526067    263.89533  0.035186044   0.03641987            4 
  626000    1.1567529   -6.9578906    264.10629  0.035157919  0.036407502            2 
  627000    1.1546548   -6.9590863    264.91141  0.035208853  0.036394733            1 
  628000    1.1663955   -6.9704122    264.30694  0.035072577  0.036381895            1 
  629000    1.1241013   -6.9099347    265.58168  0.035185702  0.036369427            3 
  630000    1.1692922    -6.921854    266.07786  0.035195485  0.036356806            1 
  631000    1.1601548   -6.9597792    265.49684  0.035062974  0.036344506            1 
  632000    1.1624286   -6.9654177    266.94477  0.035198414  0.036332219            2 
  633000    1.1646534   -6.9511561    266.95482  0.035144131  0.036319493            1 
  634000    1.1458022   -6.9659984    267.05899   0.03510239  0.036306609            2 
  635000    1.1370248   -6.9210072    268.65397  0.035256426  0.036294252            2 
  636000    1.1369462   -6.9567636    268.34585   0.03516062  0.036282167            1 
  637000    1.1416031   -7.0166193    267.67866   0.03501814  0.036270105            2 
  638000    1.1614996   -6.9704219    268.94165   0.03512822  0.036257943            3 
  639000    1.1258768   -6.9557073    269.02642  0.035084301  0.036246132            1 
  640000    1.1495349   -6.9261819    270.41721  0.035210574  0.036234067            2 
  641000    1.1280165   -6.9123596     270.1915    0.0351263  0.036222348            2 
  642000    1.1466593   -6.9873012    270.45527  0.035105824  0.036210147            1 
  643000    1.1525314   -6.9396418    271.08088  0.035132307  0.036198105            2 
  644000    1.1694644   -6.9634538    271.02368  0.035070352  0.036186538            1 
  645000    1.1616377   -6.9636564    271.75251  0.035110143   0.03617496            2 
  646000    1.1544436   -6.9737197    272.26366  0.035121731  0.036163515            2 
  647000    1.1719755   -6.9861068    272.09282  0.035045444  0.036152011            1 
  648000    1.1421154   -6.9445752    273.42558  0.035162754  0.036140744            2 
  649000    1.1651172   -6.9600584    273.05427  0.035060898  0.036129801            1 
  650000    1.1928115    -6.970177    273.76267  0.035097779  0.036118599            1 
  651000    1.1316313   -6.9572261    274.13624  0.035091684  0.036107171            3 
  652000    1.1403588   -6.9651891    273.91385  0.035009439  0.036095383            1 
  653000    1.1531202   -6.9539168    274.15459  0.034986548  0.036083739            3 
  654000    1.1332576   -6.9675775     274.2855  0.034949733  0.036071972            1 
  655000    1.1155615   -6.9827896    274.31975  0.034900732  0.036060327            2 
  656000    1.1317142   -7.0275189     274.5467  0.034876359  0.036048197            3 
  657000     1.178835    -6.980739    276.16463  0.035028491  0.036035893            3 
  658000    1.1315115    -6.981618    276.13554  0.034971573  0.036023852            3 
  659000    1.1491096   -6.9268029    277.16138  0.035048228  0.036011989            3 
  660000    1.1391205   -6.9521971    276.99728  0.034974404   0.03600026            1 
  661000    1.1451415   -6.9264566    278.26533  0.035081358  0.035989575            3 
  662000    1.1326856   -6.9644575    278.04646  0.035000813  0.035978566            1 
  663000    1.1461224     -6.99189     278.4404  0.034997537  0.035967803            2 
  664000     1.129658   -6.9417235    279.38345  0.035063183  0.035956928            2 
  665000    1.1603336    -6.964299    279.40541   0.03501321  0.035946602            2 
  666000    1.1446908   -7.0219164    279.68892  0.034996111  0.035936498            1 
  667000    1.1186171   -6.9521076    280.70956  0.035071159  0.035926339            2 
  668000    1.1349252   -7.0060744    280.00468  0.034930723  0.035916226            2 
  669000    1.1377809   -6.9807609    280.26508  0.034910947  0.035905867            2 
  670000    1.1288645   -6.9707694    281.68255  0.035035143  0.035895153            2 
  671000    1.1081474   -6.9389475    281.73262  0.034989148  0.035884671            2 
  672000     1.151439   -6.9716657    281.89992  0.034957828  0.035874001            2 
  673000    1.1517599   -6.9625291    282.03584  0.034922715  0.035862939            1 
  674000    1.1541969    -6.969714    282.91061  0.034979056  0.035852254            2 
  675000    1.1554888   -6.9450064    282.41442  0.034865978  0.035842013            2 
  676000    1.1642298    -6.956622    284.93208  0.035124763  0.035832478            2 
  677000    1.1324287    -6.999858    284.38089  0.035005033  0.035822892            3 
  678000    1.1734086    -6.940659    284.41624  0.034957749  0.035813297            2 
  679000    1.1656363   -7.0127039    284.14914  0.034873483  0.035803271            2 
  680000    1.1350378   -6.9426696    285.93585  0.035041158  0.035792868            1 
  681000     1.119886   -7.0088951    284.84242    0.0348559  0.035782408            2 
  682000    1.1347313   -6.9323922    285.92089   0.03493657  0.035771746            3 
  683000     1.152253   -6.9662755    285.09314  0.034784424   0.03576095            1 
  684000    1.1518964   -6.9747406     285.3163  0.034760758  0.035749759            2 
  685000    1.1461346   -6.9292565    285.87982  0.034778567  0.035738568            3 
  686000    1.1588811   -6.9776806    286.03952  0.034747269  0.035727358            3 
  687000    1.1462563   -7.0032692    286.73866  0.034781497  0.035716134            3 
  688000    1.1446281   -7.0019529    287.57717  0.034832505   0.03570542            1 
  689000    1.1371003   -6.9822667    286.82359  0.034690806   0.03569486            3 
  690000    1.1641937   -6.9651393    288.04141   0.03478761  0.035683957            2 
  691000    1.1402393   -6.9550727    288.75761  0.034823639  0.035673606            1 
  692000    1.1544856   -7.0106545    289.11439   0.03481628  0.035663802            2 
  693000    1.1210507   -6.9696408    289.18147  0.034774107  0.035653199            2 
  694000    1.1241328   -6.9695579    288.73679  0.034670604  0.035642823            2 
  695000     1.157309   -6.9744638    289.06449   0.03466001  0.035632319            3 
  696000    1.1364399   -6.9466774    290.68301     0.034804  0.035621825            1 
  697000     1.142705   -6.9723658    290.03162  0.034676187  0.035610957            2 
  698000    1.1424467   -6.9857567    291.57874  0.034811215  0.035600043            1 
  699000    1.1273255   -6.9471775    291.94576   0.03480517  0.035589618            1 
  700000    1.1223083   -6.9968966    290.45766  0.034578292  0.035578731            2 
  701000    1.1602727    -6.960811    291.77363  0.034685405  0.035567883            3 
  702000    1.1294372   -6.9962217    291.99172  0.034661885  0.035556842            5 
  703000    1.1302953   -6.9756267    292.51208  0.034674263  0.035545933            2 
  704000    1.1364519   -6.9836586    292.02121  0.034566904  0.035535177            1 
  705000    1.1459096   -6.9931757    292.71408  0.034599773  0.035524053            2 
  706000    1.1382993   -7.0151276    292.63292  0.034541185  0.035512345            4 
  707000    1.1506763   -6.9937886    293.08793  0.034545961    0.0355013            1 
  708000    1.1241284   -6.9691817    293.32306  0.034524843  0.035489733            2 
  709000    1.1433968    -6.976433    293.22895  0.034465086  0.035478164            2 
  710000    1.1288092   -6.9789493    293.70236  0.034472108  0.035466411            2 
  711000    1.1515361   -6.9522594    294.60985  0.034529987  0.035455081            2 
  712000     1.168684   -7.0097945    294.97266  0.034523954  0.035443648            5 
  713000    1.1591834   -6.9854954    294.06534  0.034369488  0.035432153            3 
  714000    1.1358768   -6.9892836    294.35129  0.034354725  0.035420397            3 
  715000    1.1264192   -7.0136642    294.85088  0.034364904  0.035408576            3 
  716000    1.1292098   -6.9835024    295.12217  0.034348484  0.035396475            2 
  717000    1.1229731   -7.0043261    294.97493  0.034283465  0.035384125            2 
  718000    1.1216158   -6.9434282    296.20055  0.034377965  0.035372009            2 
  719000    1.1406406   -6.9932732    296.12071  0.034320898  0.035359784            2 
  720000    1.1417233   -6.9383679    297.48359  0.034430971  0.035348192            1 
  721000    1.1826956   -6.9750083    297.04473  0.034332493  0.035336468            2 
  722000    1.1403869   -6.9645366    296.87081  0.034264867  0.035324072            2 
  723000    1.1436554   -6.9784641     296.7429  0.034202731  0.035311751            2 
  724000    1.1318953   -6.9711906    297.32431  0.034222411  0.035299404            2 
  725000    1.1171154   -7.0230804     297.3871  0.034182425  0.035286934            3 
  726000    1.1025855   -6.9673056    298.04643  0.034211023  0.035274281            2 
  727000    1.1308972   -6.9717479    298.32137   0.03419548  0.035262029            1 
  728000     1.135118   -6.9758244    298.78771   0.03420189   0.03524964            3 
  729000    1.1505233   -6.9963799    298.67986  0.034142645  0.035237218            1 
  730000    1.1452368   -6.9710132    299.97504  0.034243726  0.035224804            1 
  731000    1.1170638   -6.9817242    300.14846  0.034216651  0.035212406            1 
  732000    1.1274265   -6.9438693    301.40995  0.034313519  0.035200072            2 
  733000      1.12219    -7.017401    300.31715  0.034142468  0.035187374            2 
  734000    1.1251442   -7.0083285     299.9955  0.034059435  0.035174771            1 
  735000    1.1568726   -7.0135168     300.5042   0.03407077   0.03516185            2 
  736000    1.1253369   -7.0001677    300.60615  0.034036023  0.035148738            3 
  737000    1.1018848   -6.9786471    301.05406  0.034040486  0.035135391            2 
  738000    1.1198779   -7.0000425    301.30687  0.034022908  0.035122559            2 
  739000     1.135012   -7.0499359    301.38375  0.033985538   0.03510959            4 
  740000    1.1387407   -6.9762137    302.53885   0.03406969  0.035096579            1 
  741000    1.1528524   -6.9856914    302.25681  0.033991993  0.035083393            2 
  742000    1.1377843   -7.0259339    303.21019  0.034053256  0.035070449            4 
  743000    1.0976505   -6.9957744    302.84379   0.03396633  0.035057522            1 
  744000    1.1399388   -6.9865712    303.77886   0.03402541  0.035045002            2 
  745000    1.1420716   -6.9349168    304.30119  0.034038164  0.035032351            1 
  746000    1.1761613   -7.0034942     304.4607  0.034010355  0.035020048            1 
  747000    1.1368782   -7.0288244    304.59817  0.033980161  0.035007525            2 
  748000     1.133622   -6.9779057    305.56402  0.034042337  0.034994873            1 
  749000     1.124038   -6.9825891    306.69964  0.034123236   0.03498258            2 
  750000    1.1357081    -6.977163    305.98637  0.033998485   0.03497027            2 
  751000    1.1759537   -6.9906723    306.43274  0.034002745  0.034957723            2 
  752000    1.1104148   -7.0145894    305.78227  0.033885447  0.034945046            2 
  753000    1.1450085   -6.9489168    307.48326  0.034028692    0.0349323            1 
  754000    1.1601329   -6.9659564    307.24669  0.033957415  0.034920073            2 
  755000     1.134104   -6.9693153      307.478  0.033937969  0.034907249            2 
  756000    1.1447938   -7.0301919    306.96722  0.033836774  0.034894171            3 
  757000    1.1310396   -7.0115639    307.76637   0.03388005  0.034881196            2 
  758000    1.1392597   -7.0283568    306.46276  0.033692036  0.034868221            1 
  759000    1.1081587    -7.014961    308.46682  0.033867679  0.034855215            1 
  760000     1.152899   -6.9919633    308.50618  0.033827432  0.034842497            2 
  761000    1.1262753   -6.9472626    309.72798  0.033916774  0.034830259            2 
  762000    1.1191474   -6.9875456    309.56003  0.033853896  0.034818364            2 
  763000     1.118893     -6.99372    310.71526  0.033935699  0.034806016            2 
  764000    1.1242794   -7.0046615    310.03213  0.033816769  0.034793268            1 
  765000    1.1330571   -6.9741236     310.5302  0.033826819  0.034780655            1 
  766000    1.1225163   -6.9944596    310.29066  0.033756599  0.034767989            3 
  767000     1.125959   -7.0013822    311.29066  0.033821237  0.034755545            2 
  768000     1.108251    -6.992835    311.91634  0.033845089  0.034743488            2 
  769000    1.1037678   -7.0273886    311.59779  0.033766558  0.034731612            2 
  770000    1.1264092   -6.9946695    311.76687  0.033741003  0.034719566            3 
  771000    1.1204939    -7.020222    312.74268  0.033802711  0.034707399            4 
  772000    1.1298078   -7.0185652    313.40446  0.033830361  0.034695658            2 
  773000    1.1277106   -6.9784118    313.55946  0.033803305  0.034684085            2 
  774000    1.1092239   -7.0055167    314.35279  0.033845047   0.03467251            3 
  775000    1.1595551   -6.9829439    314.38184  0.033804499  0.034661122            3 
  776000    1.1207689    -7.013106    314.06821  0.033727256  0.034649268            1 
  777000    1.1253154    -7.006765    314.70204  0.033751827  0.034637364            1 
  778000    1.1402008    -7.051567    315.65973  0.033811025  0.034625371            4 
  779000     1.118707   -6.9810447    316.10524   0.03381528  0.034614085            1 
  780000    1.1180684   -7.0229982    316.34037  0.033797048  0.034602807            1 
  781000    1.1276547   -6.9734782    317.82281  0.033911951  0.034591616            2 
  782000    1.1092984   -6.9732536    317.20881  0.033803156  0.034580891            1 
  783000    1.1091679   -7.0190958    317.66991  0.033809058  0.034569913            1 
  784000    1.1315174    -7.038697    317.21773  0.033717871  0.034558827            3 
  785000    1.1329728   -7.0285101    317.59389   0.03371485  0.034547739            1 
  786000    1.1388869   -6.9909322     319.2913  0.033851919  0.034536778            1 
  787000    1.1113641   -7.0391441    318.33282  0.033707414  0.034525738            1 
  788000    1.1252342   -7.0128199    318.76197  0.033710022  0.034514563            2 
  789000    1.1461693   -7.0202732    319.38448  0.033733046  0.034503412            2 
  790000    1.1459791   -7.0423844    319.24404  0.033675532  0.034492643            2 
  791000    1.1338892   -7.0343291    320.00408   0.03371303  0.034481509            2 
  792000    1.1454011   -6.9854281    321.25288   0.03380186  0.034470866            2 
  793000    1.1245553   -6.9994179    321.13596  0.033746948  0.034460611            1 
  794000    1.1308016   -7.0212503     320.9229  0.033682084  0.034449875            1 
  795000    1.1440864   -7.0178071     322.1875  0.033772275  0.034439048            1 
  796000    1.1137703   -6.9861287    321.73266  0.033682229  0.034428375            2 
  797000    1.1161229   -7.0544489    321.41813  0.033607082  0.034417361            2 
  798000    1.1011283   -6.9878047    322.70373   0.03369922  0.034406784            1 
  799000    1.1285249    -6.978377    323.13723  0.033702255  0.034396562            2 
  800000    1.1249282   -6.9981067    323.87842  0.033737335  0.034386096            2 
  801000    1.1179224   -6.9747695    323.95432  0.033703112  0.034375813            2 
  802000    1.1364652   -6.9869712    324.92958  0.033762425  0.034365469            1 
  803000    1.1110995    -6.975262    324.17558  0.033642131  0.034354796            2 
  804000    1.1183768   -7.0247304    323.75447  0.033556641  0.034344272            1 
  805000    1.1290383   -7.0026112    324.41784  0.033583628  0.034333392            3 
  806000    1.1291968   -7.0123202    325.06203  0.033608564  0.034322546            1 
  807000    1.1375641   -7.0321714    325.78406  0.033641476  0.034311555            3 
  808000    1.1035118   -7.0234396    325.86967  0.033608671  0.034300727            3 
  809000    1.1336056   -7.0108401    325.74963  0.033554762  0.034289854            2 
  810000    1.1449981   -7.0122573      327.197  0.033662242  0.034279405            1 
  811000    1.1376865    -7.032212    326.89076  0.033589268  0.034268998            1 
  812000    1.1146138   -6.9709877    327.17319  0.033576888  0.034258522            1 
  813000    1.1072994   -6.9937144    327.75155   0.03359487  0.034248309            2 
  814000    1.1139557   -7.0058079    327.56135  0.033534126  0.034238132            2 
  815000    1.1168827   -6.9833833    329.98695  0.033740997  0.034228247            2 
  816000    1.1006953   -7.0412918    328.84203  0.033582724  0.034218299            2 
  817000    1.1128432   -7.0095412    329.33957  0.033592367  0.034208172            2 
  818000    1.1240324   -7.0377107    330.38748  0.033658057  0.034198452            1 
  819000    1.1358439   -7.0001203    330.75509  0.033654364  0.034188909            1 
  820000    1.1154687   -7.0016851     330.9696  0.033635121  0.034179148            3 
  821000    1.1255533   -7.0321054    329.63943  0.033459138  0.034169141            3 
  822000    1.1282363    -7.020247    330.49288  0.033504955  0.034158557            2 
  823000    1.1129095   -7.0178954    331.32926  0.033548933  0.034148026            1 
  824000    1.1206153    -7.043851    330.08994  0.033382882  0.034137225            2 
  825000    1.1254695   -7.0410771    331.64076  0.033499066  0.034126687            1 
  826000    1.1301462    -7.037958     331.2499  0.033419078  0.034116225            3 
  827000    1.1175488   -6.9995341     331.5677  0.033410691  0.034105794            2 
  828000     1.115646   -7.0004378      332.502  0.033464372  0.034095365            3 
  829000    1.1175511   -6.9927115    332.06765  0.033380343  0.034084806            2 
  830000    1.1078061   -7.0161135    332.25194  0.033358629    0.0340742            3 
  831000    1.1255946   -7.0590469     332.4168  0.033335018  0.034063339            2 
  832000    1.0957952   -7.0099199    332.95086  0.033348444  0.034052049            3 
  833000    1.1129665   -7.0114323    333.32206  0.033345544  0.034040595            1 
  834000     1.104628   -7.0021998    332.63213  0.033236624  0.034029117            2 
  835000    1.1336116    -7.039691    332.95051  0.033228594   0.03401756            1 
  836000    1.1037274   -7.0503063    333.33263  0.033226937   0.03400585            2 
  837000    1.1025734   -6.9997405    333.26911  0.033180915  0.033994041            2 
  838000    1.1015155   -7.0213995    332.92916  0.033107514  0.033982355            1 
  839000    1.1059053   -7.0163946    334.06539  0.033180909  0.033970913            1 
  840000    1.1250128    -6.995893    333.93369  0.033128343  0.033959068            2 
  841000    1.1208318   -7.0429755    333.93774  0.033089352  0.033947033            3 
  842000    1.1477308   -7.0337039    334.39653   0.03309546  0.033935146            3 
  843000     1.110522   -7.0664244    333.79436  0.032996674  0.033923395            3 
  844000    1.1194522   -7.0475148    334.95195  0.033071875  0.033911384            2 
  845000    1.1232404   -7.0392725     334.7731  0.033015098  0.033899528            3 
  846000    1.1088775   -7.0643423    335.14691  0.033012895  0.033887639            1 
  847000    1.1301423   -7.0182621    336.41615  0.033098794  0.033875736            2 
  848000    1.1029122   -7.0366467    336.12276  0.033030932  0.033864128            3 
  849000     1.113987   -7.0435759    336.62903  0.033041719  0.033852427            2 
  850000    1.1266254   -7.0356369    337.11771  0.033050756  0.033840582            1 
  851000    1.1120467   -7.0027041    337.07608  0.033007842     0.033829            2 
  852000    1.0976415   -7.0377816    337.44934  0.033005609  0.033817212            2 
  853000    1.1010643   -7.0088943    338.45971  0.033065622  0.033805703            3 
  854000    1.1131498   -6.9923731    338.71322  0.033051642  0.033794012            2 
  855000    1.0977109    -7.005536     338.2787  0.032970634  0.033782348            2 
  856000    1.1097808   -7.0331112    338.62428   0.03296576   0.03377088            1 
  857000    1.1114808   -7.0600491    338.35919  0.032901516  0.033759065            3 
  858000    1.1057034   -7.0069044    339.98507  0.033021083  0.033747131            2 
  859000    1.0912241   -7.0545888    338.68493  0.032856512  0.033735222            1 
  860000    1.0928026   -7.0080749    339.91782  0.032937773   0.03372335            3 
  861000    1.1185946   -7.0207039    339.88341  0.032896187  0.033711421            1 
  862000    1.0936049   -6.9904299    340.36091  0.032904187  0.033699436            2 
  863000    1.1116379    -6.993059    340.65926  0.032894868  0.033687497            1 
  864000     1.121058   -7.0201144    341.13726  0.032902899  0.033675508            3 
  865000    1.1165826   -6.9957387    341.14918  0.032866009  0.033663561            2 
  866000    1.1267139   -7.0187973    340.13991  0.032730938  0.033651635            2 
  867000    1.1179563   -7.0576821     341.4604  0.032820107  0.033639617            3 
  868000    1.1136909   -7.0518352    341.94525  0.032828845  0.033627848            1 
  869000     1.126303   -7.0068217    343.10369  0.032902156  0.033616104            2 
  870000    1.1228938   -7.0442668    343.05623  0.032859792  0.033604553            2 
  871000    1.1069152   -7.0247262    342.35112  0.032754604  0.033593036            2 
  872000    1.1303145   -7.0147402    344.48674  0.032921134  0.033581463            3 
  873000    1.1064112   -7.0553323    344.57985  0.032892311  0.033570078            1 
  874000    1.0969758   -7.0122241    345.06738  0.032901161  0.033558698            1 
  875000    1.1150891   -7.0240073    346.15412  0.032967059  0.033547387            4 
  876000    1.1193163   -7.0665995     344.3832  0.032760959  0.033536085            2 
  877000    1.0981172   -7.0544546    345.04238  0.032786239  0.033524817            1 
  878000    1.1221016   -7.0601118    344.83222   0.03272895  0.033513174            2 
  879000    1.1254623   -7.0367199      345.509  0.032755878  0.033501947            1 
  880000    1.1279433   -7.0407522    346.11066  0.032775631  0.033490366            2 
  881000    1.1014965   -7.0162956    346.11292  0.032738642  0.033478698            1 
  882000    1.0929798   -7.0095581    347.19229  0.032803504  0.033467253            1 
  883000    1.1118421   -7.0629176      346.146   0.03266761  0.033455538            2 
  884000    1.0890679   -7.0713327     345.1571  0.032537434  0.033443674            1 
  885000    1.0982091    -7.054981      346.423  0.032619868  0.033431686       -1e+20 
  886000    1.1147191   -7.0756549    347.47204  0.032681719      0.03342            3 
  887000    1.1239182   -7.0369098    346.45247  0.032549085   0.03340839            1 
  888000    1.1173483   -7.0027676    348.68819   0.03272224  0.033396763            1 
  889000    1.1105682    -7.023941    348.51126  0.032668847  0.033385307            3 
  890000    1.1074552    -7.028712    349.19152  0.032695835  0.033374014            2 
  891000    1.1066108   -7.0188771    349.33212  0.032672289  0.033362444            1 
  892000    1.1184667   -6.9888003    350.43565  0.032738756  0.033351044            1 
  893000    1.1007063   -7.0529964    349.84329  0.032646817  0.033339612            2 
  894000    1.0809867   -7.0407905    349.68056   0.03259513  0.033328034            1 
  895000    1.1028107    -7.029063       350.13  0.032600558  0.033316293            2 
  896000    1.0860848   -7.0660391    349.18591  0.032476368  0.033304277            1 
  897000    1.1214727   -7.0649365    349.78045  0.032495397  0.033292085            1 
  898000    1.1146354    -7.034127    349.77848  0.032459028  0.033279775            2 
  899000     1.105954   -7.0348869    349.91321  0.032435411  0.033267536            2 
  900000    1.1101092   -7.0287158    350.01557  0.032408849  0.033255084            2 
  901000     1.102782   -7.0263343    351.67515  0.032526374  0.033242945            1 
  902000    1.1134284   -7.0324813    350.54046  0.032385482  0.033231085            1 
  903000    1.1069508   -7.0455649    351.32524  0.032422042  0.033219038            1 
  904000    1.0883034   -7.0380949    352.79476  0.032521641  0.033207226            3 
  905000    1.0924377   -7.0348561    353.34891  0.032536732  0.033195153            1 
  906000    1.1063543   -7.0152158    353.08536  0.032476579  0.033183299            1 
  907000    1.1201778   -7.0517759     352.4456  0.032381991  0.033171685            1 
  908000    1.1212963   -7.0654348    352.91977  0.032389847  0.033159821            2 
  909000     1.098979   -7.0369446    353.29526  0.032388637  0.033148063            2 
  910000    1.1012138   -7.0803695    352.77085  0.032305023  0.033136257            2 
  911000    1.1100373   -7.0751565    353.70628   0.03235513   0.03312432            4 
  912000    1.1185587   -7.0647317    353.13692  0.032267628   0.03311248            2 
  913000    1.1059625   -7.0676755    354.58214  0.032364196  0.033100436            1 
  914000     1.088364   -7.0334559    354.88359  0.032356272    0.0330885            3 
  915000    1.1095316   -7.0510665    356.02925   0.03242525  0.033076924            2 
  916000    1.1148763   -7.0847373    355.43293  0.032335601  0.033065467            2 
  917000    1.0951534   -7.0305315    355.22194  0.032281165  0.033053914            1 
  918000    1.1095176   -7.0906079    355.99428  0.032316111  0.033042257            3 
  919000    1.0955886   -7.0544121    357.94754  0.032458065  0.033030676            3 
  920000    1.0966768   -7.0395047    357.80174  0.032409578   0.03301962            3 
  921000    1.1068529   -7.0464751    358.68527  0.032454332  0.033008708            1 
  922000    1.0924423   -7.0419705    358.00612  0.032357748  0.032997592            1 
  923000    1.0977472   -7.0501326    359.17406  0.032428138  0.032986535            1 
  924000    1.1099509   -7.0723796    359.08219  0.032384757   0.03297572            2 
  925000    1.1103159   -7.0262651    359.85221  0.032419118  0.032965091            2 
  926000    1.1007525   -7.0463653    360.86124  0.032474914  0.032955012            4 
  927000    1.0924407    -6.989004    361.08297  0.032459814  0.032944892            1 
  928000    1.1098445   -7.0071457    361.61941  0.032473007  0.032934465            1 
  929000    1.1225926   -7.0311493    361.21253  0.032401554  0.032924104            1 
  930000    1.1016151   -7.0303906    362.35261  0.032468872  0.032913815            3 
  931000    1.0767407   -7.0316963    363.42044  0.032529578  0.032903578            1 
  932000    1.0904246    -7.061705    362.54642  0.032416525  0.032893341            1 
  933000    1.1039725   -7.0839372    361.56722  0.032294321  0.032883282            2 
  934000    1.0762774   -7.0643803    364.22439  0.032496823  0.032873217            1 
  935000    1.1000456   -7.0379374    362.66504  0.032323088  0.032863115            2 
  936000    1.1086142   -7.0597207    363.42523  0.032356235   0.03285288            2 
  937000    1.1120856    -7.066727    364.02166  0.032374748  0.032842829            3 
  938000    1.1180144   -7.0673401    362.53906  0.032208516  0.032832629            3 
  939000    1.1359676   -7.0785244     364.7103  0.032366906  0.032822405            3 
  940000    1.0915729   -7.0703562    365.54076  0.032406095  0.032812359            2 
  941000    1.1078822   -7.0587904    364.38271  0.032269103  0.032801857            2 
  942000    1.0957338   -7.0130658    365.40899  0.032325636  0.032791381            1 
  943000     1.079253   -7.0264053    364.96969  0.032252535   0.03278091            3 
  944000    1.1067631   -7.1030485    363.53261  0.032091508  0.032770058            3 
  945000    1.1091318    -7.067216    364.80546  0.032169794  0.032759105            1 
  946000    1.0988641   -7.0390956    365.87883  0.032230341  0.032748607            2 
  947000    1.1018608   -7.0490483    365.54981  0.032167354  0.032737942            3 
  948000    1.0805536   -7.0858171    365.30319  0.032111743  0.032727337            2 
  949000    1.1120979   -7.0761664    365.73668  0.032115972  0.032716756            1 
  950000    1.1009534   -7.0347724    367.84506   0.03226711  0.032706042            4 
  951000    1.0978004   -7.0242072    366.86107  0.032146956  0.032695384            2 
  952000    1.1312213    -7.076463    365.99563  0.032037433  0.032684639            2 
  953000    1.0776582   -7.0702596    366.61969  0.032058385  0.032673798            2 
  954000    1.0966655   -7.0150762    368.37018  0.032177688  0.032663102            3 
  955000    1.1045502   -7.0734497    367.08481  0.032031833  0.032652483            1 
  956000    1.1071935   -7.0551751    368.14789  0.032090994  0.032641734            2 
  957000     1.099716   -7.0670436    369.08269  0.032138862  0.032631072            1 
  958000     1.116414   -7.0542414    369.11676  0.032108278  0.032620612            2 
  959000    1.1017822   -7.0636683    369.14693  0.032077418  0.032610209            1 
  960000    1.1011116   -7.0726031    370.17719  0.032133437  0.032599826            1 
  961000    1.1125915   -7.0367781    370.64217   0.03214032  0.032589532            1 
  962000    1.0900741    -7.089822    370.53862   0.03209794  0.032579489            7 
  963000    1.1112696   -7.0753423    370.71366  0.032079756  0.032569373            2 
  964000    1.1017087   -7.0866142    371.24211   0.03209216  0.032559307            1 
  965000    1.0883312   -7.0497137    371.23306  0.032058123   0.03254906            1 
  966000    1.1244216   -7.0715935    371.72075  0.032067008  0.032538869            1 
  967000    1.1014867   -7.0707324    372.37189  0.032089959  0.032528811            2 
  968000    1.0785561   -7.0541491    371.86652  0.032013303  0.032518895            4 
  969000    1.1009499   -7.0340175    373.74745  0.032142024  0.032508986            1 
  970000    1.0725365    -7.078825    373.45789  0.032084011  0.032499297            2 
  971000    1.0954716    -7.075587    374.13809  0.032109345  0.032489435            1 
  972000    1.1055713   -7.0838949    374.41072  0.032099684  0.032479635            2 
  973000    1.1001739   -7.1262865    373.99334  0.032030947  0.032469849            4 
  974000    1.0849832    -7.050983     375.4272   0.03212074  0.032460016            4 
  975000    1.0812172   -7.1144004    375.66275  0.032107927  0.032450507            2 
  976000    1.0812413   -7.0645234    376.64314  0.032158738  0.032441357            1 
  977000    1.0713889   -7.0471526    377.73903  0.032219296  0.032432414            2 
  978000    1.1101112   -7.0887714    377.18052  0.032138763  0.032423569            2 
  979000    1.0904371   -7.1034472    377.26896  0.032113463  0.032414624            1 
  980000    1.0791473   -7.1214361     377.8867  0.032133222  0.032405751            1 
  981000    1.1206718   -7.0979547    378.67258  0.032167225  0.032396916            1 
  982000    1.0883997   -7.0844677    379.41123  0.032197151  0.032388381            2 
  983000      1.08795    -7.071865    379.88381   0.03220446  0.032379807            1 
  984000    1.0825361   -7.0685749    379.55758  0.032144104  0.032371053            2 
  985000    1.0885254   -7.0578732    379.21878  0.032082807  0.032362435            1 
  986000    1.1103845   -7.0953462    380.10973  0.032125568  0.032353743            3 
  987000    1.0950973    -7.072683    381.01174  0.032169178  0.032344993            2 
  988000    1.0921269   -7.0553553    380.07193  0.032057349  0.032336139            4 
  989000    1.0759183   -7.0436983    382.14804  0.032199868  0.032327393            4 
  990000    1.0887369   -7.0892204    381.85382  0.032142578   0.03231876            2 
  991000    1.1073544   -7.0600462    382.63056  0.032175459  0.032310473            5 
  992000    1.1099601   -7.0778428    382.67807  0.032147016  0.032301993            3 
  993000    1.0807546   -7.0509143    381.75939  0.032037546  0.032293258            1 
  994000    1.1269958   -7.1008375    382.51766  0.032068885  0.032284427            2 
  995000    1.0937728    -7.094551    381.99465  0.031992852  0.032275877            2 
  996000    1.0788568    -7.060328    381.48375  0.031917985  0.032267007            1 
  997000    1.0945312   -7.0708308    382.27175  0.031951834  0.032258209            2 
  998000    1.0993426   -7.0460852    383.36423  0.032011041   0.03224934            5 
  999000    1.0894401   -7.0931902    383.86217  0.032020534  0.032240653            2 
 1000000     1.093821   -7.0811135     383.8966  0.031991383  0.032231948            3 
 1001000    1.0904063   -7.0945968    383.32244  0.031911625  0.032222959            1 
 1002000    1.0856145   -7.0993059    383.84627  0.031923342  0.032213961            2 
 1003000    1.0959814   -7.1033222    383.57021  0.031868579   0.03220493            4 
 1004000     1.080698   -7.0777249    386.34149  0.032066857  0.032196037            1 
 1005000    1.1111872    -7.125792    384.40014  0.031873975  0.032187247            1 
 1006000    1.1072624    -7.098737    385.37544  0.031923081  0.032178325            2 
 1007000    1.1064512   -7.0762457    385.88749  0.031933755   0.03216956            2 
 1008000    1.0820686   -7.0616618    385.12741  0.031839237  0.032160706            4 
 1009000     1.081234   -7.0569253     387.8935  0.032036133  0.032152257            4 
 1010000     1.106814   -7.0801539    387.21411  0.031948359  0.032143915            2 
 1011000    1.0941427   -7.0696919     388.5041  0.032023087  0.032135452            2 
 1012000    1.0789377   -7.1005147    388.02054  0.031951626   0.03212694            1 
 1013000    1.0797939   -7.1254316    388.38327  0.031949923  0.032118581            2 
 1014000    1.1078121   -7.0723702    389.16812  0.031982916  0.032110141            4 
 1015000    1.0993997   -7.0823705    386.53103  0.031734895  0.032101602            1 
 1016000    1.0760965   -7.0766577    389.17874  0.031920828  0.032092848            4 
 1017000    1.0744689   -7.0801988     389.4453  0.031911283  0.032084536            1 
 1018000    1.0779095   -7.0964088    389.31539  0.031869302  0.032076062            2 
 1019000      1.09027   -7.0946907    389.46881  0.031850573   0.03206758            3 
 1020000     1.101345   -7.0875382    390.84958  0.031932155  0.032059323            2 
 1021000    1.1153938   -7.0454624    390.15146    0.0318439  0.032050863            1 
 1022000    1.1055556   -7.0990785    390.51145  0.031842095  0.032042166            1 
 1023000    1.0922795    -7.078761    391.13017  0.031861369   0.03203365            1 
 1024000     1.109275   -7.0337922    391.30086  0.031844145  0.032025046            1 
 1025000     1.074864   -7.0973051    390.68365  0.031762898  0.032016439            2 
 1026000    1.0921062   -7.0570759     391.4734  0.031796085  0.032007641            3 
 1027000    1.1026848    -7.089217    392.21617  0.031825395  0.031998871            2 
 1028000    1.0671374   -7.0630502    391.25605  0.031716606  0.031989852            2 
 1029000     1.115528   -7.0779841    392.40453  0.031778793  0.031980812            3 
 1030000    1.0814682   -7.0933763    393.38516  0.031827279  0.031972043            4 
 1031000    1.0844225   -7.0449946    392.61439  0.031734108  0.031962956            2 
 1032000    1.0953997   -7.1156121    392.44334  0.031689546  0.031953986            3 
 1033000    1.0747147   -7.0866128    393.02386    0.0317057  0.031945104            2 
 1034000    1.1223708   -7.1116347    394.42164  0.031787689  0.031936468            2 
 1035000    1.0735531   -7.0500144    394.66105  0.031776252  0.031927614            6 
 1036000    1.0968244    -7.082122     393.7103  0.031669104  0.031918843            1 
 1037000    1.0673021   -7.0825371    394.72391  0.031720018  0.031909946            3 
 1038000    1.0808405   -7.1255516    393.64738  0.031603033   0.03190088            1 
 1039000    1.0902271   -7.1038987     394.2038  0.031617244   0.03189188            1 
 1040000    1.1293922   -7.1027199    394.74165   0.03162994  0.031883068            1 
 1041000    1.1006338   -7.0948848    395.83429  0.031687023   0.03187403            2 
 1042000    1.1120908   -7.1034311    395.01743  0.031591285   0.03186514            1 
 1043000    1.0768914   -7.1322011     394.5289  0.031521964  0.031856054            3 
 1044000    1.0688151   -7.0935458    396.26657  0.031630473  0.031847009            3 
 1045000    1.0725949   -7.0932945    396.24642  0.031598598  0.031838174            2 
 1046000    1.1031484   -7.1236731    394.41715  0.031422653  0.031829077            2 
 1047000    1.0835232   -7.1301008     394.9296  0.031433429  0.031819738            5 
 1048000     1.066586   -7.1222545    396.94826  0.031563952  0.031810551            2 
 1049000    1.0716699   -7.0912372      397.611  0.031586511   0.03180159            1 
 1050000    1.0766223   -7.0891412    396.56565  0.031473465   0.03179244            2 
 1051000    1.0781512   -7.0640969    398.35569   0.03158545  0.031783341            2 
 1052000    1.0923525   -7.0866003    397.85808  0.031516008  0.031774262            2 
 1053000    1.0668747   -7.1346505    397.44101  0.031453071  0.031764986            2 
 1054000    1.0572216    -7.117669    397.89915  0.031459452  0.031755886            1 
 1055000     1.107079   -7.0976926     398.0595  0.031442299  0.031746654            1 
 1056000    1.0719626   -7.0645079     399.7017  0.031542116  0.031737573            2 
 1057000    1.0822292   -7.0957202    399.71011  0.031512938  0.031728721            2 
 1058000    1.0965123   -7.1165068    398.59971  0.031395692  0.031719339            2 
 1059000    1.0654513   -7.1174866    398.65865  0.031370684  0.031709987            2 
 1060000     1.087048   -7.0892096    400.24673  0.031465938  0.031700894            1 
 1061000    1.0950132   -7.0905192    399.32021   0.03136351  0.031691914            2 
 1062000    1.0581742   -7.0823566    400.99367  0.031465291  0.031682824            1 
 1063000    1.0675655    -7.126654     399.1103  0.031288045  0.031673553            2 
 1064000    1.0609264   -7.0948302    399.99722  0.031328103   0.03166432            2 
 1065000    1.0783887   -7.1341146    400.38606  0.031329112  0.031655268            2 
 1066000    1.0735146   -7.1531981     400.6172  0.031317793  0.031645887            3 
 1067000    1.0823896    -7.100831     401.1659  0.031331295  0.031636512            2 
 1068000    1.0799079   -7.0780221    401.75378  0.031347829  0.031627177            3 
 1069000    1.0471822   -7.1072674    401.71354  0.031315368  0.031618097            1 
 1070000    1.0763588   -7.1168371    402.85173  0.031374745  0.031609098            1 
 1071000     1.066005   -7.0841152    404.10591  0.031443037  0.031600104            3 
 1072000    1.0801119   -7.0991514    402.78634  0.031311127  0.031591312            2 
 1073000    1.1139364   -7.0996688    404.29154  0.031398846  0.031582619            1 
 1074000    1.0939567   -7.1027868    403.06384  0.031274351  0.031573824            1 
 1075000     1.079195   -7.0955847    405.11688  0.031404409  0.031565187            1 
 1076000    1.0915068   -7.0851785    404.65125  0.031339161  0.031556634            1 
 1077000    1.0978529   -7.0899771    405.76687  0.031396384  0.031547975            1 
 1078000     1.085468    -7.139173    404.27875  0.031252223  0.031539302            1 
 1079000    1.0557916   -7.1384004    405.12061  0.031288277  0.031530364            3 
 1080000    1.0737185   -7.0691916    405.52365  0.031290405  0.031521242            3 
 1081000    1.0625814   -7.1077614    406.47223  0.031334584  0.031512447            3 
 1082000    1.0843837   -7.0836958    406.46324  0.031304932  0.031503601            2 
 1083000    1.0914158   -7.1158544    406.53935  0.031281883  0.031494698            1 
 1084000    1.0716787   -7.1303306    405.42752  0.031167552  0.031485643            2 
 1085000    1.0848542   -7.1263718    407.13405  0.031269896   0.03147668            2 
 1086000     1.075359   -7.1317493    406.21591   0.03117065  0.031467586            1 
 1087000    1.0886199   -7.1036098     407.4218  0.031234422  0.031458556            2 
 1088000    1.0534299   -7.1257518    407.89872  0.031242243  0.031449732            3 
 1089000     1.083236   -7.0968759    408.09253  0.031228384  0.031440951            2 
 1090000    1.0748749   -7.1155265    407.14299   0.03112714  0.031432175            2 
 1091000    1.0898927   -7.0892634    408.22147  0.031180986  0.031423084            2 
 1092000    1.0773449   -7.0923616     408.8278  0.031198703  0.031414067            3 
 1093000    1.0834979    -7.148695      408.154  0.031118786  0.031405247            2 
 1094000    1.0742443    -7.117968     409.2856  0.031176539   0.03139634            1 
 1095000    1.0885639   -7.1126397    409.98904  0.031201601  0.031387256            2 
 1096000    1.0880524   -7.1113205    409.43376  0.031130912  0.031378229            1 
 1097000    1.0870377   -7.1680323    408.83518  0.031057063  0.031369093            2 
 1098000    1.0656216   -7.0943271    410.61402  0.031163785  0.031360199            5 
 1099000    1.0516282   -7.0944178    409.71166  0.031067005  0.031351208            2 
 1100000    1.0753163   -7.1138981    411.38561  0.031165577  0.031342297            1 
 1101000    1.0849704   -7.0786621    410.55981  0.031074766  0.031333363            3 
 1102000    1.0621954   -7.1285841    410.55813  0.031046441  0.031324373            1 
 1103000    1.0716645   -7.1143712    411.14335  0.031062507  0.031315377            1 
 1104000    1.0704848   -7.0921368    410.85659  0.031012726  0.031306204            1 
 1105000    1.0737824   -7.1111659    412.00612  0.031071351  0.031297147            4 
 1106000    1.0811178   -7.1650246    411.48382  0.031003904  0.031288192            2 
 1107000    1.0827492   -7.1268603    411.57695  0.030982908  0.031279288            2 
 1108000     1.072953   -7.1172947    412.16207  0.030998952  0.031270507            1 
 1109000    1.0543748    -7.141678    411.79612  0.030943502  0.031261643            3 
 1110000     1.091915   -7.0912337    414.11305  0.031089568  0.031252801            1 
 1111000    1.0729285    -7.110887    415.15612  0.031139823  0.031244191            1 
 1112000    1.0660317   -7.1210581    416.00477  0.031175418  0.031235707            4 
 1113000    1.0739317   -7.1107138    415.10859  0.031080308  0.031227342            1 
 1114000    1.0969229     -7.10023    416.15753  0.031130874  0.031218837            2 
 1115000    1.0593795   -7.0904011    415.53157  0.031056171  0.031210413            3 
 1116000    1.1034622   -7.1396835    415.66944  0.031038638  0.031202019            2 
 1117000    1.0839734   -7.1304777    415.58266  0.031004376  0.031193701            2 
 1118000    1.0872399   -7.1259606    416.55274  0.031048952  0.031185213            1 
 1119000    1.0715582   -7.1009316    416.43553  0.031012476  0.031176611            1 
 1120000    1.0637118   -7.1253587    417.87703  0.031092041   0.03116811            4 
 1121000    1.0907489   -7.0838069    419.23817   0.03116549  0.031159962            2 
 1122000    1.0602092   -7.1211799    418.48451  0.031081737   0.03115177            2 
 1123000    1.0477142   -7.1127645    418.24333  0.031036163  0.031143513            2 
 1124000     1.072462    -7.138043    418.71524  0.031043538  0.031135319            2 
 1125000     1.081514   -7.1244212    419.33039   0.03106151  0.031127163            3 
 1126000    1.0526063   -7.1161475    418.40523  0.030965455  0.031119065            2 
 1127000    1.1020946   -7.0818187    419.21413  0.030997791  0.031110914            1 
 1128000    1.0841524   -7.1030443    420.31937  0.031051963   0.03110282            4 
 1129000    1.0776475   -7.1249217    420.82436  0.031061733  0.031094907            2 
 1130000    1.0637464   -7.1511076    420.59946   0.03101766  0.031086874            2 
 1131000    1.0621731   -7.1352484    421.04419  0.031023003   0.03107908            1 
 1132000    1.0331982   -7.1224806    421.07859   0.03099813  0.031071199            1 
 1133000    1.0750204   -7.1591519    421.77429  0.031021939   0.03106316            3 
 1134000    1.0958431   -7.1232763    423.02577   0.03108655  0.031055226            2 
 1135000    1.0859185   -7.1172532     421.9647  0.030981256  0.031047316            2 
 1136000    1.0925909   -7.1257513     423.6201  0.031075418  0.031039359            2 
 1137000    1.0758048   -7.0930932    424.26581  0.031095413  0.031031663            1 
 1138000    1.0722543   -7.1189527     424.0891  0.031055148  0.031023935            2 
 1139000    1.0750487    -7.127237    424.28207  0.031042001  0.031016278            2 
 1140000    1.0727784    -7.129094    426.06445  0.031145062  0.031008673            2 
 1141000    1.0632935    -7.102624    425.53655  0.031079211   0.03100105            1 
 1142000    1.0843839    -7.140692     424.9258  0.031007429  0.030993427            3 
 1143000    1.0990697   -7.1125625     426.0386  0.031061432  0.030986093            1 
 1144000    1.0875691   -7.1159836    427.96493  0.031174601  0.030978822            1 
 1145000    1.0747185   -7.1287344    425.63051  0.030977475  0.030971536            2 
 1146000    1.0844974   -7.1310624    427.52039   0.03108787  0.030964261            2 
 1147000     1.098101   -7.0978316    426.91863  0.031017047  0.030957176            3 
 1148000    1.0467218     -7.09581    428.05452  0.031072483  0.030949824            4 
 1149000    1.0387415    -7.082544    428.11055  0.031049503  0.030942672            1 
 1150000    1.0588728   -7.1224923    427.42121  0.030972552  0.030935148            1 
 1151000    1.0664422   -7.1238724    427.16161  0.030926847  0.030927766            3 
 1152000    1.0932802    -7.154122    427.22297  0.030904439  0.030920189            2 
 1153000    1.0707211   -7.1515594    428.43217  0.030965031    0.0309125            1 
 1154000    1.0650529   -7.1166069    429.13993  0.030989307  0.030904921            3 
 1155000    1.0541966    -7.145499    429.29532  0.030973688  0.030897381            2 
 1156000    1.0794815   -7.1453226    429.23723  0.030942707  0.030889962            4 
 1157000    1.0544702   -7.1469177    428.33253  0.030850801  0.030882328            1 
 1158000    1.0588398   -7.1272144    428.69447  0.030850206  0.030874738            1 
 1159000    1.0539884   -7.1520051    429.93658  0.030912897  0.030867166            2 
 1160000    1.0698424   -7.1105058    429.60666  0.030862547  0.030859691            1 
 1161000    1.0321977   -7.1555426    429.42078  0.030822623  0.030851925            2 
 1162000     1.061578   -7.1496952    429.78365  0.030822121   0.03084411            3 
 1163000    1.0602639   -7.1673573    429.06418  0.030744066  0.030836147            2 
 1164000    1.0721896   -7.1773848    429.54383  0.030751992  0.030828286            1 
 1165000    1.0528646   -7.1048418    431.78647  0.030886014  0.030820504            3 
 1166000    1.0427013   -7.1771267    429.51059  0.030696869  0.030812579            2 
 1167000    1.0665139   -7.0971917    431.82347  0.030835723  0.030804661            3 
 1168000    1.0619621   -7.1701476    431.32173  0.030773526   0.03079675            2 
 1169000    1.0472813   -7.1653445    430.54175  0.030691599  0.030788729            2 
 1170000    1.0404844   -7.1078346    431.56967   0.03073858   0.03078087            1 
 1171000    1.0496304   -7.1102468    432.54192   0.03078152  0.030772994            2 
 1172000    1.0515615   -7.1417673     430.9097  0.030639199  0.030765039            4 
 1173000    1.0571335   -7.1476263    431.90855   0.03068404  0.030757013            3 
 1174000    1.0386096   -7.1866432    430.56235  0.030562348  0.030748636            2 
 1175000    1.0476173   -7.1579909    432.10541  0.030645774  0.030740352            2 
 1176000    1.0601118   -7.1442588    432.90007  0.030676026  0.030732271            1 
 1177000    1.0626396    -7.133445    432.89436  0.030649558  0.030724208            2 
 1178000    1.0736183   -7.1554306    434.49118  0.030736501  0.030716195            3 
 1179000    1.0669313     -7.10931    433.24053  0.030622034  0.030708265            3 
 1180000    1.1007759   -7.1551775     433.8966  0.030642415  0.030700427            3 
 1181000     1.055335   -7.1240777     434.5537  0.030662835  0.030692704            1 
 1182000     1.061504   -7.1594232    434.38938  0.030625309  0.030685082            1 
 1183000    1.0359953    -7.104018    435.81742  0.030700016  0.030677372            3 
 1184000    1.0665455   -7.1592046    434.89398  0.030609092  0.030669467            2 
 1185000    1.0653149    -7.155362    434.52531  0.030557335   0.03066138            1 
 1186000    1.0337559   -7.0887268    436.60243  0.030677518  0.030653425            2 
 1187000    1.0532374   -7.1502319    435.60484  0.030581637  0.030645415            1 
 1188000     1.070287   -7.1355963    436.07138  0.030588621   0.03063726            1 
 1189000    1.0698157   -7.1341331    436.35607  0.030582848  0.030629126            1 
 1190000    1.0532787   -7.1099293    437.89065  0.030664611  0.030621122            2 
 1191000    1.0415297   -7.1696023    436.16978  0.030518457  0.030613027            2 
 1192000    1.0520497   -7.1118189    437.74396  0.030602905  0.030605101            2 
 1193000    1.0582947   -7.1163798    437.88027  0.030586775  0.030597133            4 
 1194000    1.0786877   -7.1443302    438.30179  0.030590577  0.030589272            2 
 1195000    1.0678355   -7.1660322    437.38154  0.030500805  0.030581424            2 
 1196000    1.0636875   -7.1418711    436.20134   0.03039307  0.030573433            3 
 1197000    1.0622298   -7.1316242    438.84794  0.030551931  0.030565601            2 
 1198000    1.0346021   -7.1834271    438.15848   0.03047847  0.030557494            1 
 1199000    1.0496025   -7.1178651    440.17722  0.030593357  0.030549485            3 
 1200000    1.0803002   -7.1343619    440.52538   0.03059204  0.030541755            2 
 1201000    1.0600734   -7.1257816    439.75259  0.030512947  0.030533873            3 
 1202000    1.0708681   -7.1394639    440.33606  0.030528013  0.030526129            2 
 1203000    1.0429801   -7.1412132    440.77191  0.030532828  0.030518369            3 
 1204000    1.0724552   -7.1045837      442.043  0.030595446  0.030510716            1 
 1205000    1.0420637   -7.1404603    442.16414  0.030578433  0.030503049            3 
 1206000     1.068188   -7.1488568    441.48785  0.030506347  0.030495105            2 
 1207000    1.0776429   -7.1313889    442.43331  0.030546348  0.030487243            3 
 1208000    1.0516785   -7.1421198      441.328  0.030444812  0.030479366            1 
 1209000    1.0643354   -7.1628179    441.05385  0.030400734   0.03047156            3 
 1210000    1.0372097   -7.1382376    442.87955  0.030501346  0.030463784            2 
 1211000    1.0599146    -7.107861    443.40687  0.030512446  0.030455836            3 
 1212000    1.0407585   -7.1929715    441.91749  0.030384866  0.030447871            3 
 1213000    1.0712405   -7.1721299    442.39341  0.030392512  0.030440027            1 
 1214000    1.0561858   -7.1482546    442.43022  0.030370004   0.03043216            3 
 1215000    1.0772639   -7.1621087    443.02688  0.030385932  0.030424321            2 
 1216000    1.0486153   -7.1545691    442.20162  0.030304387  0.030416493            2 
 1217000    1.1002377   -7.1610222    442.61266  0.030307632  0.030408472            2 
 1218000    1.0556592   -7.1624054    442.50408   0.03027532  0.030400262            2 
 1219000    1.0498088   -7.1199611    444.77306  0.030405596  0.030392062            1 
 1220000    1.0371474   -7.1728737    443.18722  0.030272351  0.030384036            2 
 1221000    1.0508268   -7.1795713     443.6358  0.030278174  0.030375798            2 
 1222000    1.0602737    -7.120538    444.48505   0.03031131  0.030367548            1 
 1223000    1.0649281   -7.1592839    445.55144  0.030359188  0.030359426            2 
 1224000    1.0467737   -7.1413621    444.64474  0.030272654  0.030351284            1 
 1225000    1.0595612   -7.1813955    444.31598  0.030225577  0.030343235            1 
 1226000    1.0625131   -7.1419706    444.63631  0.030222696  0.030335143            3 
 1227000    1.0582194    -7.165065    446.85594  0.030348814  0.030327263            3 
 1228000    1.0577914   -7.1737173    446.04103  0.030268799   0.03031943            2 
 1229000    1.0624802   -7.1685092    446.84894  0.030298952  0.030311422            1 
 1230000    1.0502935   -7.1676603    446.30209  0.030237269  0.030303482            3 
 1231000    1.0314205   -7.1033877    447.79351  0.030313669  0.030295652            4 
 1232000    1.0638664   -7.1495744     447.6911  0.030282136  0.030287832            1 
 1233000    1.0460859   -7.1464776    447.21489  0.030225392  0.030279929            2 
 1234000    1.0604884   -7.1861691    445.84006  0.030108054   0.03027194            3 
 1235000    1.0204779   -7.1168026    447.54781  0.030198907  0.030263825            1 
 1236000    1.0241404   -7.1668799    446.50898  0.030104435  0.030255664            1 
 1237000    1.0640299   -7.1809778    446.84043  0.030102428  0.030247585            1 
 1238000    1.0525913     -7.17371     448.8455  0.030213079  0.030239323            2 
 1239000    1.0571401   -7.1344169     449.8189  0.030254163  0.030231275            1 
 1240000    1.0510994   -7.1794563    448.66858  0.030152458  0.030223179            4 
 1241000    1.0478874    -7.109979    450.14376   0.03022722  0.030215315            2 
 1242000    1.0401232   -7.1581452    448.65441  0.030102953  0.030207456            2 
 1243000    1.0740751   -7.1958065    450.27147  0.030187146  0.030199481            1 
 1244000    1.0596116   -7.1492145    451.97063  0.030276703  0.030191679            3 
 1245000     1.031926   -7.1149876    451.63786  0.030230111  0.030183974            1 
 1246000    1.0365541   -7.1392816     452.6702  0.030274893  0.030176442            3 
 1247000    1.0595742   -7.1941274    450.14336  0.030081754  0.030168897            2 
 1248000    1.0496702   -7.2193893    452.10675  0.030188752  0.030161137            2 
 1249000    1.0351715    -7.174395    453.53474  0.030259857  0.030153642            2 
 1250000    1.0394001    -7.161713    453.03451    0.0302023  0.030146143            2 
 1251000    1.0628001   -7.1603082    451.73654  0.030091696  0.030138665            2 
 1252000    1.0354254   -7.1748624    452.77138   0.03013654  0.030131075            1 
 1253000    1.0276456   -7.1622508    454.02983  0.030196185  0.030123573            2 
 1254000    1.0426881   -7.1668539    454.66774  0.030214496  0.030116047            2 
 1255000    1.0367872   -7.1727848     454.8218  0.030200651  0.030108548            2 
 1256000    1.0424352   -7.1482803    454.64576  0.030164926  0.030101115            6 
 1257000    1.0549213   -7.1434518    454.58246  0.030136732  0.030093518            1 
 1258000    1.0556754   -7.2047435    454.02315  0.030075725  0.030085992            1 
 1259000      1.04515   -7.1652138    456.56688  0.030220207  0.030078441            3 
 1260000    1.0654138   -7.2197092    454.24418  0.030042605  0.030070775            4 
 1261000    1.0443158   -7.1489115    456.57511   0.03017282  0.030063263            1 
 1262000    1.0361572   -7.1853504    455.61605  0.030085582   0.03005567            2 
 1263000    1.0642453   -7.1585319     455.0487  0.030024327  0.030048119            2 
 1264000    1.0333978   -7.1493206    455.86822  0.030054603  0.030040534            2 
 1265000    1.0612463   -7.1817421    455.76098   0.03002378  0.030032971            2 
 1266000    1.0730346   -7.1346506    457.21687  0.030095897  0.030025412            5 
 1267000    1.0458365   -7.1308276    457.55592  0.030094444  0.030017908            2 
 1268000    1.0509962   -7.1760885    458.23942  0.030115629  0.030010264            4 
 1269000    1.0465788   -7.1368022     458.4531   0.03010593  0.030002812            1 
 1270000    1.0607243   -7.1994514    456.57109  0.029958733  0.029995359            2 
 1271000    1.0394172   -7.1379855    460.61237  0.030200129  0.029987793            1 
 1272000     1.044454   -7.1494946       458.61  0.030045204  0.029980392            2 
 1273000    1.0661452    -7.151541    459.97956  0.030111257  0.029972931            3 
 1274000    1.0663135   -7.1596383    460.00835  0.030089505  0.029965564            2 
 1275000    1.0013753   -7.1347327    460.11378  0.030072796  0.029958291            2 
 1276000    1.0486047   -7.2100781    459.41115   0.03000334  0.029951049            2 
 1277000    1.0319944   -7.2110425    459.53902   0.02998819  0.029943602            1 
 1278000    1.0428719   -7.1623478    460.94302  0.030056274  0.029936255            1 
 1279000    1.0517209   -7.1759928    460.49338  0.030003478  0.029928957            2 
 1280000    1.0446318   -7.2018243    459.58804  0.029921096  0.029921484            2 
 1281000    1.0612613   -7.1507394    461.38436  0.030014595  0.029914144            1 
 1282000    1.0444079   -7.1894839    461.22627  0.029980907  0.029906786            3 
 1283000    1.0642103   -7.1949085    460.82832  0.029931691  0.029899422            1 
 1284000    1.0477791   -7.1628754    462.09928  0.029990867  0.029891993            1 
 1285000    1.0225075   -7.1671497    461.72213  0.029943069  0.029884538            2 
 1286000     1.044962   -7.1610801    463.85482  0.030057985   0.02987729            3 
 1287000    1.0355341   -7.1898741    463.32763  0.030000494  0.029870041            4 
 1288000    1.0453195   -7.2013774    463.13398  0.029964672  0.029862778            3 
 1289000    1.0270212   -7.2142637    462.32664  0.029889232   0.02985539            2 
 1290000    1.0466851   -7.1824364    463.30518  0.029929275  0.029848137            2 
 1291000    1.0568472   -7.1509292    463.49565  0.029918387   0.02984088            1 
 1292000     1.072012   -7.2070029    463.75161  0.029911739  0.029833735            1 
 1293000    1.0523876   -7.2063451    464.78325  0.029955094  0.029826554            4 
 1294000    1.0547089   -7.1895411    464.59874  0.029920063  0.029819386            2 
 1295000    1.0553439    -7.154705    465.70065  0.029967867   0.02981227            5 
 1296000    1.0550286   -7.1601563    466.53672  0.029998503  0.029805223            2 
 1297000    1.0501405   -7.1770158    466.48064  0.029971771  0.029798067            1 
 1298000    1.0470275   -7.1882307    465.21823  0.029867631  0.029790908            4 
 1299000    1.0477754   -7.2309268     464.3762  0.029790621  0.029783526            3 
 1300000    1.0570012   -7.2323581    466.46098  0.029901345  0.029776143            1 
 1301000    1.0372602   -7.1480444    466.68865  0.029892945  0.029768921            3 
 1302000    1.0510709   -7.1777256    465.76145  0.029810641  0.029761582            3 
 1303000    1.0399936   -7.1358482    467.51089  0.029899648  0.029754296            2 
 1304000     1.035901   -7.1827073    467.86559  0.029899386  0.029747243            2 
 1305000    1.0430141   -7.1996302    468.50577  0.029917354  0.029740099            2 
 1306000    1.0568823   -7.1552012    467.81957  0.029850661  0.029732861            3 
 1307000    1.0539543   -7.1649066    468.18688  0.029851242  0.029725619            3 
 1308000    1.0464696   -7.1734564    468.54717  0.029851374  0.029718419            1 
 1309000    1.0508881   -7.1435091    468.77615  0.029843147  0.029711192            3 
 1310000    1.0414548    -7.224596    467.95035  0.029767834  0.029703886            1 
 1311000    1.0619244   -7.1892705    469.21974  0.029825816  0.029696574            2 
 1312000    1.0214777   -7.1775001     469.3946  0.029814189  0.029689422            2 
 1313000    1.0498678   -7.2035474    468.62416  0.029742585  0.029682133            1 
 1314000    1.0577787   -7.1762604    469.49258  0.029775024  0.029674948            1 
 1315000    1.0362807   -7.1675727    469.56553  0.029757004  0.029667628            5 
 1316000    1.0325751   -7.2321281    469.32404  0.029719101  0.029660373            3 
 1317000      1.04043   -7.1766053     470.1077  0.029746121  0.029652946            2 
 1318000    1.0255156   -7.1906305    468.56255  0.029625857  0.029645608            3 
 1319000    1.0367315   -7.1819661    470.06446  0.029698285  0.029638066            3 
 1320000    1.0533027   -7.1892456    469.70982  0.029653398  0.029630702            3 
 1321000    1.0342735   -7.1931288    470.51777  0.029681918  0.029623081            2 
 1322000    1.0242167   -7.1945436    470.66318  0.029668632  0.029615514            4 
 1323000    1.0221716   -7.1866638     471.3032   0.02968652  0.029607934            2 
 1324000    1.0274964   -7.2021116    470.66455  0.029623902  0.029600379            3 
 1325000    1.0418676   -7.1788047    471.69533  0.029666373  0.029592833            1 
 1326000    1.0574939   -7.2090035    472.41159  0.029689014  0.029585323            7 
 1327000    1.0286139    -7.182137    471.56819  0.029613677  0.029577919            1 
 1328000    1.0258126   -7.1749564    472.15858  0.029628425  0.029570551            1 
 1329000    1.0488031    -7.210147    473.94243  0.029717985  0.029563129            2 
 1330000    1.0406023   -7.1876748    473.00728  0.029637048  0.029555872            4 
 1331000    1.0506272   -7.2059997    473.61962  0.029653119  0.029548585            2 
 1332000    1.0629985    -7.192631    473.85232  0.029645416  0.029541487            3 
 1333000    1.0545507   -7.2074652    475.11962  0.029702402  0.029534486            1 
 1334000    1.0508083   -7.2180053    475.62915  0.029711966  0.029527488            2 
 1335000    1.0344932   -7.1942131    475.75135  0.029697338  0.029520443            2 
 1336000    1.0481521    -7.209249    475.53795  0.029661798  0.029513564            3 
 1337000    1.0386319   -7.1932388    476.34793  0.029690098  0.029506484            1 
 1338000    1.0456462   -7.1918738    475.75621  0.029631055   0.02949946            2 
 1339000    1.0469606   -7.1880544    476.49707  0.029655033  0.029492422            2 
 1340000    1.0478519   -7.1821019    476.48261  0.029632003  0.029485442            3 
 1341000     1.064667   -7.1703993    477.87167  0.029696226  0.029478358            2 
 1342000    1.0442094   -7.1957791    476.45734  0.029586273  0.029471294            2 
 1343000    1.0457935   -7.2246452    477.28973  0.029615893  0.029464157            3 
 1344000    1.0314018   -7.2008683    477.45035  0.029603816  0.029457157            1 
 1345000    1.0518401   -7.2074229    477.97847  0.029614527  0.029450061            2 
 1346000     1.026998   -7.2419073     477.2882  0.029549789  0.029442842            2 
 1347000    1.0486797   -7.2285724      478.056  0.029575352  0.029435654            2 
 1348000    1.0134599   -7.2124637    477.65099  0.029528375  0.029428534            2 
 1349000    1.0526128   -7.2110872    478.66344  0.029569029  0.029421401            3 
 1350000    1.0439431   -7.1936933    481.49986  0.029722213  0.029414652            1 
 1351000    1.0440712   -7.1597682    479.60863  0.029583557  0.029407908            2 
 1352000    1.0365907   -7.2377726    480.33161  0.029606238  0.029401186            2 
 1353000     1.045609   -7.2122703    479.98258  0.029562859  0.029394288            4 
 1354000    1.0193165   -7.1919796    480.46846  0.029570929  0.029387502            1 
 1355000    1.0430007   -7.2111708    481.61763  0.029619781  0.029380735            2 
 1356000     1.061139   -7.2331437    480.48684  0.029528444  0.029374038            1 
 1357000    1.0442834   -7.2107239    480.75477  0.029523137  0.029367144            1 
 1358000    1.0554341   -7.2410208    481.83459   0.02956766  0.029360186            2 
 1359000    1.0541683   -7.1967477    481.81172  0.029544501  0.029353412            2 
 1360000    1.0164849   -7.2120574     482.6892  0.029576544  0.029346701            1 
 1361000    1.0346521   -7.2234693    482.47374   0.02954162  0.029339876            3 
 1362000    1.0295458   -7.1629425    482.91178  0.029546732  0.029333183            3 
 1363000    1.0385205   -7.1878448    484.75727  0.029637886  0.029326498            4 
 1364000    1.0321662   -7.1812738    483.35728  0.029530626  0.029319861            1 
 1365000    1.0089936    -7.192431    485.17221  0.029619793  0.029313215            3 
 1366000    1.0277581   -7.1876372    483.31474  0.029484794  0.029306437            2 
 1367000     1.041379   -7.2012333    484.27456  0.029521736  0.029299782            2 
 1368000    1.0574938   -7.1907033    484.58926  0.029519326  0.029293132            4 
 1369000    1.0238275   -7.1546731    485.92431   0.02957903  0.029286347            2 
 1370000    1.0218458   -7.1925708    485.21882  0.029514527  0.029279811            2 
 1371000    1.0479317    -7.174534    485.30566  0.029498278  0.029273073            5 
 1372000    1.0517531   -7.2078483    484.71613   0.02944097    0.0292664            2 
 1373000    1.0434789    -7.209041    484.95898  0.029434267  0.029259659            2 
 1374000    1.0488861   -7.1911974    486.85317  0.029527727  0.029253037            4 
 1375000    1.0262401   -7.2395893    484.72069  0.029377012  0.029246173            5 
 1376000    1.0223934   -7.2310427    486.13271  0.029441176   0.02923928            2 
 1377000    1.0423416   -7.2435196     485.2619  0.029367096  0.029232229            2 
 1378000    1.0196488   -7.2032356    486.21595   0.02940348   0.02922528            1 
 1379000    1.0287349   -7.1798748    487.27118  0.029445926  0.029218489            2 
 1380000    1.0347401   -7.1979419    486.52222  0.029379361  0.029211883            2 
 1381000    1.0324196    -7.209777     488.5955  0.029483194  0.029204989            2 
 1382000     1.012042   -7.2449016    487.96854  0.029424056   0.02919819            2 
 1383000    1.0230884   -7.1908708    487.80463  0.029392904  0.029191384            3 
 1384000     1.015854   -7.1711808    490.32605  0.029523486  0.029184715            2 
 1385000    1.0316505   -7.1982481    489.98281  0.029481517   0.02917819            3 
 1386000    1.0320203   -7.1954778    488.23212  0.029354986  0.029171767            1 
 1387000    1.0152393   -7.2027437     490.8436  0.029490723  0.029165369            2 
 1388000    1.0503381   -7.1747021    490.00074  0.029418873  0.029158996            2 
 1389000    1.0299968    -7.201379     491.9147  0.029512521  0.029152554            2 
 1390000    1.0234299   -7.2483649    490.34488  0.029397175  0.029145943            2 
 1391000    1.0469105   -7.2154688    491.38929  0.029438611  0.029139547            2 
 1392000    1.0193008   -7.2042143    492.35437  0.029475238  0.029133092            2 
 1393000    1.0399428   -7.2257038    491.56095  0.029406614  0.029126763            3 
 1394000    1.0343094    -7.219447    492.73632  0.029455782  0.029120445            4 
 1395000    1.0093224   -7.2094207    493.92652  0.029505766  0.029114199            2 
 1396000    1.0099002    -7.185017    493.08424   0.02943435  0.029108008            1 
 1397000    1.0020593   -7.2456023    492.94011  0.029404683  0.029101846            3 
 1398000    1.0013891   -7.2381302    495.02683  0.029508037  0.029095695            1 
 1399000    1.0224775   -7.2008111    494.80536  0.029473752  0.029089636            2 
 1400000     1.024034   -7.1959103    495.60552  0.029500329   0.02908367            2 
 1401000    1.0123893   -7.2034432     494.3442  0.029404247  0.029077615            2 
 1402000    1.0291286   -7.2293068    494.57417  0.029396943  0.029071447            2 
 1403000    1.0211721   -7.2510874    495.52458  0.029432441   0.02906523            1 
 1404000    1.0108642    -7.245956    495.40179   0.02940419  0.029058956            1 
 1405000    1.0365592   -7.2178232    495.93311  0.029414775  0.029052995            2 
 1406000    1.0145865   -7.1811797    496.76229  0.029442999  0.029047053            2 
 1407000    1.0189956   -7.2182363    496.68321   0.02941739  0.029041045            3 
 1408000    1.0201614   -7.2359966    496.21468  0.029368767  0.029035075            3 
 1409000    1.0426643   -7.1976511    495.89045  0.029328747   0.02902895            4 
 1410000    1.0090458   -7.1885803    497.80174  0.029420906  0.029022866            1 
 1411000    1.0186756   -7.2276865    497.90752  0.029406303  0.029016766            1 
 1412000    1.0579879   -7.2201614    497.55601  0.029364731  0.029010676            2 
 1413000    1.0123343   -7.2304299    498.12959  0.029377777  0.029004639            2 
 1414000    1.0412778   -7.2407794    498.99812  0.029408187  0.028998556            1 
 1415000    1.0260593   -7.2216733    498.55123  0.029361085  0.028992611            3 
 1416000    1.0285326   -7.2572341    497.74927  0.029293154  0.028986582            2 
 1417000    1.0590529   -7.2303402     498.9454  0.029342825  0.028980591            2 
 1418000    1.0319411   -7.2097765    499.49939  0.029354689  0.028974601            1 
 1419000    1.0055426   -7.1888014    500.61639    0.0293996  0.028968356            1 
 1420000    1.0208819   -7.1813932    500.44248   0.02936869  0.028962478            1 
 1421000    1.0197581   -7.1932594    499.80935  0.029310893  0.028956468            1 
 1422000    1.0171827   -7.2166362    501.80467  0.029407212  0.028950398            2 
 1423000   0.99979379    -7.229088    501.16239  0.029348934  0.028944434            2 
 1424000    1.0473324   -7.2340644    500.40019  0.029283719  0.028938516            1 
 1425000    1.0301581   -7.2509183    500.58483  0.029273967  0.028932665            4 
 1426000    1.0059605   -7.2207137    501.52196  0.029308202  0.028926894            1 
 1427000    1.0343427   -7.2295373    502.42278   0.02934027  0.028921103            1 
 1428000    1.0212724   -7.2064643    502.13644  0.029303014  0.028915108            3 
 1429000    1.0341741   -7.2336868    502.46845  0.029301869  0.028909183            1 
 1430000   0.98917429   -7.2337233    502.85822  0.029304092  0.028903173            3 
 1431000    1.0486817   -7.2526282    502.05055   0.02923658  0.028897193            3 
 1432000     1.026339   -7.2197682    504.00515  0.029329908  0.028891252            4 
 1433000    1.0542603   -7.2323206    503.18097  0.029261512  0.028885267            2 
 1434000    1.0224576   -7.2249515    504.16571  0.029298333  0.028879216            2 
 1435000    1.0234409    -7.216989    503.62418  0.029246468   0.02887315            1 
 1436000     1.033191   -7.2240345     503.8681  0.029240257  0.028867008            1 
 1437000    1.0323626   -7.2209976    503.76146  0.029213724  0.028860936            2 
 1438000     1.019072   -7.2482293    503.75202  0.029192861  0.028854892            4 
 1439000    1.0435397   -7.2376242    504.87703  0.029237725  0.028848664            2 
 1440000    1.0322721    -7.240578    504.31822  0.029185082  0.028842569            5 
 1441000     1.029037   -7.2083707     504.7512  0.029189868  0.028836547            2 
 1442000    1.0127158   -7.2481625    503.29418  0.029085424  0.028830476            6 
 1443000    1.0217149   -7.2092944    506.44906  0.029247463  0.028824486            3 
 1444000    1.0089674   -7.2280687    505.26217  0.029158713  0.028818397            3 
 1445000    1.0255199   -7.2183733    506.74288  0.029223926  0.028812513            2 
 1446000    1.0222264   -7.1969921     506.7022  0.029201372  0.028806602            2 
 1447000    1.0304995    -7.220474    509.11712  0.029320267  0.028800777            6 
 1448000    1.0440132   -7.2484805    506.49757  0.029149262  0.028794929            3 
 1449000    1.0285147   -7.2553109    505.89117   0.02909427  0.028789017            3 
 1450000    1.0379941    -7.213484    508.75219  0.029238632  0.028783041            5 
 1451000    1.0220376   -7.2066615    507.22127  0.029130557  0.028777162            1 
 1452000    1.0280176   -7.2308443    507.61602  0.029133151  0.028770941            2 
 1453000    1.0056011   -7.2654142    508.64075  0.029171872  0.028764639            2 
 1454000    1.0286747   -7.2498802      507.137  0.029065624  0.028758331            2 
 1455000    1.0224497   -7.2586202    506.16615  0.028990043  0.028752111            2 
 1456000    1.0354684   -7.2161863    507.08653   0.02902281  0.028745772            2 
 1457000    1.0327642   -7.2389065    508.16107  0.029064349  0.028739533            3 
 1458000    1.0066186   -7.2019495    509.55069  0.029123839  0.028733391            2 
 1459000    1.0185937    -7.223557    510.10236  0.029135388  0.028727207            1 
 1460000    1.0369808   -7.2641116    507.85672  0.028987256   0.02872101            2 
 1461000    1.0031132   -7.2404579      509.689  0.029071926  0.028714869            4 
 1462000    1.0192285   -7.2213719    508.71472  0.028996507  0.028708715            1 
 1463000    1.0159742   -7.2249858    510.20836  0.029061766  0.028702562            1 
 1464000    1.0227414   -7.2513438    510.64292  0.029066651  0.028696224            1 
 1465000    1.0051088   -7.2530472    511.16103  0.029076282   0.02869006            3 
 1466000    1.0222299   -7.2023442    511.11306  0.029053721  0.028683931            2 
 1467000    1.0027144   -7.2442564    511.63084  0.029063329  0.028677863            2 
 1468000    1.0064422   -7.2345292    511.79621  0.029052919  0.028671893            1 
 1469000    1.0202902   -7.2467421    511.46521  0.029014364  0.028665876            1 
 1470000    1.0160683   -7.2509271    510.01507  0.028912419   0.02865973            1 
 1471000    1.0187272   -7.2406039    512.31152   0.02902286  0.028653438            2 
 1472000    1.0287156   -7.2403165    511.58706   0.02896213  0.028647188            2 
 1473000    1.0021708   -7.2637212    511.96114  0.028963631  0.028640875            2 
 1474000    1.0102141   -7.2684608    510.79055  0.028877801  0.028634601            2 
 1475000    1.0275437   -7.2440391    510.80883  0.028859256  0.028628266            4 
 1476000    1.0148999   -7.2132058    514.46833  0.029046315  0.028621999            1 
 1477000    1.0227391   -7.2711382    511.90069  0.028881781  0.028615783            2 
 1478000    1.0098266   -7.2568305     512.8255  0.028914383  0.028609507            3 
 1479000    1.0311776   -7.2045142    511.74704  0.028834068  0.028603171            3 
 1480000    1.0145641   -7.2393311    513.02232  0.028886392  0.028596857            5 
 1481000   0.99984497   -7.2370697    512.59209  0.028842679  0.028590564            2 
 1482000    0.9900317   -7.2764675    514.22415  0.028914988  0.028584356            3 
 1483000   0.98017889   -7.2449145    514.16894  0.028892388  0.028577975            2 
 1484000    1.0107578   -7.2328228    514.40209  0.028886011   0.02857168            2 
 1485000    1.0217003   -7.2351509    513.24503  0.028801629  0.028565312            1 
 1486000   0.99425493   -7.1923126    516.00749  0.028937163  0.028558995            1 
 1487000    1.0097052   -7.2354167    515.22231    0.0288737   0.02855262            1 
 1488000    1.0109578   -7.2354742     515.6817  0.028880023  0.028546302            1 
 1489000    1.0170882    -7.244619    514.38489   0.02878805  0.028539901            1 
 1490000    0.9936633    -7.240199    513.91084  0.028742217  0.028533417            2 
 1491000    1.0291488   -7.2547603    516.52982  0.028869317   0.02852689            2 
 1492000    1.0222872   -7.2339801    516.77237  0.028863515  0.028520502            3 
 1493000        1.019   -7.2723131    516.05683  0.028804244  0.028514082            2 
 1494000   0.99941681   -7.2169529    516.71483  0.028821666  0.028507882            2 
 1495000    1.0019143   -7.2443206    516.20523  0.028773981  0.028501767            2 
 1496000    1.0127448   -7.2457232    516.71579  0.028783188  0.028495528            1 
 1497000    1.0016515   -7.2542998    517.58116  0.028812133  0.028489261            2 
 1498000   0.98372893   -7.2390586    516.82751  0.028750974  0.028483103            1 
 1499000     1.001219   -7.1983336    519.61972   0.02888702  0.028476954            2 
 1500000    1.0011079   -7.2639424    519.01005  0.028833892  0.028470959            1 
 1501000    1.0248561   -7.2660395    519.43984  0.028838543  0.028464846            2 
 1502000    1.0175241   -7.2739937     519.1987  0.028805964  0.028458704            1 
 1503000    1.0241828   -7.2636503    519.49643  0.028803306  0.028452575            3 
 1504000   0.99679737   -7.2697634    519.60187  0.028789997   0.02844637            1 
 1505000     1.026824   -7.2673155    519.21365  0.028749371   0.02844021            3 
 1506000   0.99982206   -7.2503457    519.55594  0.028749222  0.028434022            2 
 1507000    1.0133679   -7.2787521    519.27818  0.028714785  0.028427928            2 
 1508000    1.0191737   -7.2460899    520.52593  0.028764696  0.028421886            2 
 1509000   0.99725741   -7.2178324    520.66878  0.028753522  0.028415688            2 
 1510000    1.0292179    -7.253576    520.88551  0.028746441  0.028409497            2 
 1511000    1.0122056   -7.2564571    521.05154  0.028736573  0.028403397            1 
 1512000    1.0144881   -7.2408894    521.14412   0.02872267  0.028397282            2 
 1513000    1.0357291   -7.2421121     522.9965  0.028805712  0.028391102            2 
 1514000   0.97905368   -7.2345747    521.48374   0.02870342  0.028385049            6 
 1515000     1.014288   -7.2573542      522.207  0.028724258  0.028378827            3 
 1516000    1.0146184   -7.2433466    523.04036  0.028751119  0.028372688            1 
 1517000    1.0324759   -7.2562379    523.48937  0.028756832  0.028366542            1 
 1518000    1.0035127   -7.2467512    522.74406  0.028696973   0.02836036            5 
 1519000   0.97629656   -7.2542882    523.11623  0.028698499  0.028354195            4 
 1520000    1.0167875   -7.2861741    523.05579  0.028676304  0.028348016            1 
 1521000    1.0287207   -7.2648629    522.61563  0.028633335  0.028341786            5 
 1522000    1.0058501   -7.2571384    524.06759   0.02869402  0.028335648            2 
 1523000   0.99847883   -7.2702431    524.56925  0.028702629  0.028329593            2 
 1524000    1.0515703   -7.2628004    522.75614  0.028584653  0.028323582            2 
 1525000   0.99689476   -7.2460348    525.70965  0.028727303  0.028317596            3 
 1526000    1.0159339   -7.2314504     526.4113  0.028746795  0.028311709            2 
 1527000    1.0080915   -7.2650434    524.51484  0.028624473  0.028305811            2 
 1528000    1.0105427   -7.2574636     524.4571   0.02860259  0.028299617            3 
 1529000    1.0286151   -7.2510169    525.50583  0.028641041  0.028293527            1 
 1530000    1.0147049   -7.2405704    526.01532  0.028650072  0.028287346            2 
 1531000    1.0111577   -7.2634624    526.68766  0.028667955  0.028281292            1 
 1532000    1.0012343   -7.2733953    526.06668  0.028615463  0.028275314            2 
 1533000    1.0238039   -7.2377434     527.2407  0.028660616  0.028269294            3 
 1534000    1.0198947   -7.2494226     525.9792  0.028573403  0.028263314            2 
 1535000    1.0233513   -7.2841522    524.97143  0.028500078  0.028257188            1 
 1536000    1.0157703   -7.2757684     527.4568  0.028616363  0.028250995            1 
 1537000   0.99011631   -7.2682182    527.10079  0.028578442  0.028244957            2 
 1538000    1.0239704   -7.2091642    526.50571  0.028527618  0.028238841            4 
 1539000    1.0037278   -7.2374218    527.91702  0.028585501  0.028232716            1 
 1540000   0.99430992   -7.2583393    529.48296  0.028651676  0.028226505            3 
 1541000    1.0028493   -7.2624864    530.12083  0.028667577  0.028220443            3 
 1542000    1.0020383   -7.2250286    529.26581  0.028602778  0.028214441            3 
 1543000    1.0288986   -7.2541259    529.23363  0.028582503   0.02820844            2 
 1544000      1.02024   -7.2427856    529.33901  0.028569679  0.028202559            2 
 1545000    1.0085536   -7.2809577    529.24386  0.028546055  0.028196565            2 
 1546000   0.99216542   -7.2892594    528.94443  0.028511451  0.028190231            1 
 1547000   0.99630771    -7.272111    527.34768  0.028407007  0.028183982            2 
 1548000    1.0070062    -7.303112    528.56937  0.028454423  0.028177774            2 
 1549000    1.0182065   -7.2889124    529.26682  0.028473575  0.028171507            2 
 1550000    1.0031799   -7.2260409    532.45212  0.028626458  0.028165275            3 
 1551000   0.99574467   -7.2938036    529.21375  0.028434008  0.028159018            2 
 1552000    1.0263955    -7.249251    529.24203  0.028417205  0.028152792            1 
 1553000   0.99673891   -7.2956877    529.71134   0.02842409  0.028146583            3 
 1554000    1.0065582   -7.2786107     531.3382   0.02849304  0.028140338            5 
 1555000    1.0101091   -7.2621428    530.70199  0.028440621  0.028134138            2 
 1556000   0.99850904    -7.287749    529.09262  0.028336151  0.028127843            3 
 1557000   0.99462393   -7.2402238    531.84437  0.028465231  0.028121713            2 
 1558000   0.99956676    -7.291353    531.28708  0.028417153  0.028115537            2 
 1559000    1.0019141   -7.2921744    532.70902  0.028474931  0.028109312            2 
 1560000    1.0008025   -7.2936301    532.62551  0.028452217  0.028103157            4 
 1561000    1.0025681   -7.2858738    532.48215  0.028426337  0.028096863            1 
 1562000    1.0120845    -7.279886    533.73251  0.028474846   0.02809064            2 
 1563000    1.0070045    -7.298218    532.23869  0.028376983  0.028084353            1 
 1564000   0.99442986   -7.2738095    532.57166   0.02837658   0.02807807            3 
 1565000    1.0185674   -7.2856747    533.34973  0.028399879   0.02807171            2 
 1566000    1.0142827      -7.2662    532.48806  0.028335891  0.028065401            3 
 1567000   0.99774951   -7.2891366    531.71243   0.02827656  0.028058943            3 
 1568000   0.99666447   -7.2893881     533.4115  0.028348825  0.028052524            2 
 1569000    1.0014949   -7.3203297    532.12666  0.028262516  0.028046106            1 
 1570000    1.0168535   -7.2787101    533.68195  0.028327068  0.028039723            2 
 1571000   0.99493854   -7.2524912    534.41708  0.028348031  0.028033343            1 
 1572000    1.0018652   -7.2720628    533.04479  0.028257252  0.028027026            2 
 1573000   0.99586603   -7.2802276    535.09141  0.028347712  0.028020627            1 
 1574000    1.0159066   -7.2734759    535.12516  0.028331489  0.028014202            2 
 1575000    1.0018163   -7.2992394    533.23261  0.028213366  0.028007623            1 
 1576000    1.0255825   -7.2852179    533.50444  0.028209837  0.028001019            2 
 1577000    1.0012514   -7.2839847    533.34594  0.028183573  0.027994518            2 
 1578000   0.99970108   -7.2767143    533.67804  0.028183251  0.027987906            2 
 1579000    1.0027675    -7.288626    533.87399  0.028175743  0.027981483            2 
 1580000    1.0006871   -7.2639326    533.98077  0.028163543  0.027975075            3 
 1581000   0.99953798   -7.2626648    536.43433  0.028275054  0.027968661            2 
 1582000   0.98278679   -7.2998374    535.39416  0.028202389  0.027962303            2 
 1583000    1.0153228   -7.3229502    536.96345  0.028267185   0.02795587            1 
 1584000    1.0346084   -7.2628789    536.11327  0.028204612  0.027949437            1 
 1585000   0.99901112   -7.2884808    535.08234  0.028132615  0.027943119            2 
 1586000   0.99138221   -7.2886856    536.03709  0.028165042  0.027936655            1 
 1587000   0.99199254   -7.2733475    535.98347   0.02814448  0.027930261            2 
 1588000    1.0031847   -7.2995447    537.91089  0.028227902  0.027923912            1 
 1589000    1.0238354   -7.3003543    536.67144  0.028145135  0.027917623            2 
 1590000    1.0048327   -7.2724573    538.00012  0.028197071  0.027911213            2 
 1591000    1.0099915   -7.2984339    536.59974  0.028105999  0.027904828            2 
 1592000    1.0003028   -7.2595056    537.29912  0.028124954  0.027898385            1 
 1593000   0.99434745   -7.2510475    538.11929  0.028150203  0.027891894            3 
 1594000   0.98747162   -7.3009784    536.35114  0.028040105  0.027885372            3 
 1595000   0.99004146   -7.2627172    537.66365    0.0280911  0.027878981            2 
 1596000   0.99696816   -7.3337966     536.8125  0.028029057  0.027872416            4 
 1597000   0.99063841   -7.3129594    537.76424  0.028061169  0.027865813            2 
 1598000   0.99472493   -7.2738227    538.83252  0.028099318  0.027859278            2 
 1599000    1.0126823   -7.3158035    540.19896  0.028152958  0.027852739            2 
 1600000   0.98931655   -7.2796635    539.43147  0.028095389  0.027846314            4 
 1601000      0.99386   -7.2653468    541.58603  0.028189987  0.027839879            2 
 1602000   0.98761352   -7.3012105    538.65795  0.028020076  0.027833431            1 
 1603000    1.0012024   -7.3183275    538.15538   0.02797647  0.027826928            3 
 1604000   0.97230845   -7.3367172    539.39645  0.028023507  0.027820346            2 
 1605000   0.98250318   -7.3006079    540.89649   0.02808393  0.027813823            6 
 1606000    1.0033301   -7.2622572    541.70348  0.028108317  0.027807355            1 
 1607000   0.99914194   -7.2776538    540.89367  0.028048832  0.027800872            1 
 1608000   0.98974079   -7.2891058    541.33158  0.028054082  0.027794308            4 
 1609000   0.99313851   -7.2727283     539.7467  0.027954563  0.027787645            2 
 1610000    1.0140561   -7.2651989    540.74797  0.027989025  0.027781049            2 
 1611000   0.99074229    -7.244292    541.68654  0.028020202  0.027774436            3 
 1612000    0.9945395   -7.2746984    540.44121  0.027938441  0.027767812            2 
 1613000   0.99991045   -7.2543693    540.42533    0.0279203  0.027761079            1 
 1614000    1.0018376    -7.283126    540.16047  0.027889326  0.027754357            2 
 1615000   0.98080402   -7.2907705    541.92272  0.027962989  0.027747517            2 
 1616000   0.98551693   -7.3319437    540.77541  0.027886521  0.027740638            2 
 1617000   0.98954754   -7.3020213    541.84261  0.027924274  0.027733886            4 
 1618000   0.99448642    -7.302648    541.23885  0.027875919  0.027727054            3 
 1619000   0.99944332   -7.2983743    539.32988  0.027760443  0.027720169            3 
 1620000   0.98301592   -7.2847915    541.72444  0.027866484  0.027713349            4 
 1621000   0.99457182   -7.2996002    540.05491  0.027763464  0.027706509            2 
 1622000   0.96404558   -7.3014965    542.78608  0.027886666   0.02769967            4 
 1623000   0.99352916   -7.2384568    543.79988  0.027921538  0.027692973            1 
 1624000   0.99721286   -7.2608318    542.49543  0.027837409  0.027686234            2 
 1625000   0.98084625   -7.3002005    541.54748  0.027771666  0.027679385            4 
 1626000   0.99038557   -7.3484909    540.37363  0.027694425  0.027672408            5 
 1627000   0.99748119   -7.3139222    543.44527   0.02783473  0.027665491            1 
 1628000   0.98099598   -7.2839694    544.40604  0.027866812  0.027658789            3 
 1629000   0.99786158   -7.3033225    542.84492  0.027769845  0.027651937            2 
 1630000   0.99859839   -7.2956361    544.10787  0.027817376  0.027645137            3 
 1631000   0.99591252   -7.3364463    544.52583  0.027821675  0.027638341            3 
 1632000   0.99748844   -7.2860615    545.83291   0.02787137  0.027631505            3 
 1633000   0.99764693   -7.2881165    544.31078  0.027776627  0.027624695            2 
 1634000   0.98343803   -7.3132044    543.48256  0.027717389  0.027617745            2 
 1635000   0.97703719   -7.3199723    544.34011  0.027744144  0.027610931            1 
 1636000   0.97542754   -7.3167225    543.72587  0.027695898  0.027604054            1 
 1637000   0.99679475   -7.3228462    544.12075  0.027699081  0.027597216            2 
 1638000   0.99576831   -7.3378338    542.61681  0.027605658  0.027590372            3 
 1639000   0.99189925   -7.3366395    544.13303  0.027665905  0.027583376            2 
 1640000   0.99398395   -7.3137323    546.01377  0.027744602   0.02757648            2 
 1641000   0.98071876   -7.3193415    545.04392  0.027678444  0.027569483            2 
 1642000    0.9983608   -7.3000875    545.88004  0.027704022  0.027562545            1 
 1643000    1.0074268   -7.2600987    546.61295  0.027724333  0.027555662            2 
 1644000   0.98206284   -7.2848039    545.34422  0.027643158  0.027548791            2 
 1645000   0.99755631   -7.2822024    545.78878  0.027648875  0.027541864            2 
 1646000    0.9836877   -7.2859337    547.22534  0.027704807  0.027534992            1 
 1647000   0.98157629   -7.3002857    546.38953  0.027645696  0.027528052            4 
 1648000   0.98241326   -7.3036732    546.72012  0.027645637  0.027521232            2 
 1649000    1.0010172    -7.319839    546.67576   0.02762663  0.027514244            4 
 1650000    1.0011247   -7.3388835    545.20491  0.027535601  0.027507369            3 
 1651000   0.97247297   -7.3087701    548.08646  0.027664368  0.027500433            2 
 1652000   0.99108013   -7.2907761    546.81802  0.027583637  0.027493658            1 
 1653000   0.98762267   -7.3017864    548.34858  0.027644111  0.027486808            2 
 1654000    1.0019635   -7.3164157    547.39718  0.027579463  0.027479871            5 
 1655000   0.98997645   -7.2630798      549.436  0.027665458  0.027472962            1 
 1656000    1.0020579   -7.3599468    546.68521  0.027510327  0.027466025            1 
 1657000   0.98014037   -7.3284605    548.72383   0.02759625  0.027459071            5 
 1658000    1.0136043   -7.3063152    548.89297  0.027588107  0.027452199            2 
 1659000   0.98183819   -7.2899298    548.89448  0.027571553  0.027445347            2 
 1660000   0.98810088   -7.3005071     550.8397  0.027652595  0.027438571            1 
 1661000   0.98240707     -7.31309    549.15399  0.027551374  0.027431661            3 
 1662000   0.96695269   -7.3352443    550.20986  0.027587739  0.027424832            2 
 1663000    1.0060033   -7.2930594    549.92946  0.027557099  0.027418011            1 
 1664000   0.96217508   -7.3064792    550.62609  0.027575425  0.027411205            2 
 1665000   0.96014244   -7.2929321    550.25643  0.027540362  0.027404506            2 
 1666000   0.99987029   -7.2846927    550.95853   0.02755895  0.027397782            2 
 1667000   0.99380576   -7.2899116    552.03341  0.027596151  0.027391065            1 
 1668000   0.98141569   -7.3190951    551.52421  0.027554167  0.027384306            2 
 1669000    0.9830827    -7.290797    551.59196  0.027541041  0.027377524            1 
 1670000   0.99007578   -7.2920172    551.92138  0.027540987  0.027370707            1 
 1671000   0.98948021   -7.3112547    551.40235  0.027498621  0.027363785            2 
 1672000   0.99178623   -7.3026549    551.22979  0.027473574  0.027356847            2 
 1673000   0.99188507   -7.3192077    550.87878  0.027439668  0.027349926            1 
 1674000   0.98590078   -7.3163002    552.05386  0.027481773   0.02734306            2 
 1675000   0.99588559   -7.3044009    554.10291  0.027567309  0.027336247            1 
 1676000   0.99949819   -7.3188494    552.57784  0.027475032  0.027329498            1 
 1677000    0.9942173   -7.2752093     554.6058  0.027559422  0.027322905            4 
 1678000   0.97442247    -7.354412    552.17929  0.027422492   0.02731618            1 
 1679000   0.98350351   -7.3239148    552.64221  0.027429135  0.027309471            2 
 1680000   0.99613969   -7.3383029    553.13895  0.027437448  0.027302761            2 
 1681000    0.9727437    -7.306227    554.72028  0.027499518  0.027296143            1 
 1682000    0.9622588   -7.2834314    554.51483   0.02747299   0.02728955            1 
 1683000   0.98604616   -7.3348432    555.53251  0.027507056  0.027282976            2 
 1684000   0.97714315    -7.303398    555.12686  0.027470648  0.027276282            3 
 1685000   0.97090393   -7.3166895    554.21952  0.027409472  0.027269557            3 
 1686000   0.96946722   -7.3448847     554.6338  0.027413691  0.027262825            2 
 1687000   0.97183984   -7.3395792    556.21091  0.027475346  0.027256047            5 
 1688000   0.99277818   -7.3061694    556.17943  0.027457516  0.027249323            5 
 1689000    1.0066411    -7.325828    557.09982   0.02748667  0.027242664            1 
 1690000   0.96723464   -7.3128529    556.85341  0.027458255  0.027235978            2 
 1691000    0.9548824   -7.3142394    557.52608  0.027475167  0.027229318            4 
 1692000   0.97612461    -7.341897    556.26987  0.027397058  0.027222623            2 
 1693000   0.96121606   -7.3290004    556.25569  0.027380177  0.027215934            1 
 1694000   0.99749481   -7.3558474      556.015  0.027352174  0.027209118            1 
 1695000   0.97271205   -7.3376709    556.43438  0.027356656  0.027202386            1 
 1696000    0.9760586   -7.3036529    556.30359  0.027334099  0.027195609            3 
 1697000   0.97944936   -7.3144168    558.03812  0.027403169  0.027188869            3 
 1698000    0.9809138   -7.3069836    557.23226   0.02734748  0.027182202            2 
 1699000   0.96266436   -7.3029058    558.30997  0.027384244  0.027175394            2 
 1700000      0.99296   -7.3378528     557.9797  0.027351946  0.027168762            4 
 1701000   0.97940221   -7.3350668    557.54338   0.02731449  0.027162018            1 
 1702000   0.98584502    -7.309844    557.38732  0.027290801   0.02715542            3 
 1703000   0.96893578   -7.2954569    558.57887  0.027333082  0.027148891            3 
 1704000   0.97169188   -7.3521955    559.25634  0.027350173   0.02714227            2 
 1705000   0.97527951   -7.3200579    559.55394  0.027348677  0.027135614            2 
 1706000    0.9847459   -7.3421248    558.90833   0.02730111  0.027128871            1 
 1707000   0.99932228   -7.3721764    560.13792  0.027345144  0.027122247            2 
 1708000   0.98619068   -7.3061872    558.89892  0.027268683  0.027115647            1 
 1709000   0.99580382    -7.305615    562.49114  0.027427889  0.027109125            2 
 1710000   0.99569554   -7.2884311    563.87983  0.027479524  0.027102732            2 
 1711000   0.96989505   -7.3184049    562.44064  0.027393368   0.02709634            2 
 1712000   0.97151062   -7.3289147    560.43992  0.027279981  0.027089885            2 
 1713000   0.98206362   -7.3027599    562.35355  0.027357149   0.02708348            2 
 1714000   0.98467237   -7.3057743    562.33769  0.027340417  0.027077031            2 
 1715000   0.97857903   -7.3107814    563.37627   0.02737494  0.027070617            1 
 1716000   0.98583166   -7.3078248    561.30172  0.027258242  0.027064165            1 
 1717000    0.9883632    -7.314111    565.04888  0.027424232  0.027057775            3 
 1718000   0.97767711   -7.3426992    563.28337  0.027322631  0.027051312            3 
 1719000    0.9871137   -7.3341602    562.58421  0.027272843  0.027044976            2 
 1720000    1.0179585   -7.3602364    562.87351  0.027271003  0.027038619            3 
 1721000   0.94862596   -7.3290186    564.73879  0.027345477   0.02703218            2 
 1722000   0.95501462   -7.3463849    563.81183  0.027284738  0.027025781            2 
 1723000   0.99011581   -7.3490529    564.46144  0.027300321  0.027019416            3 
 1724000   0.98041191   -7.3525061     565.7093  0.027344804  0.027013193            2 
 1725000    0.9514272   -7.3131783    565.28265  0.027308341  0.027006986            2 
 1726000   0.97891917   -7.3586411      564.016  0.027231364  0.027000782            2 
 1727000   0.99198046    -7.332408    565.29372   0.02727725  0.026994413            4 
 1728000   0.98957217    -7.368098    565.79591  0.027285682  0.026988143            3 
 1729000   0.97193121   -7.3497881    565.83473  0.027271772  0.026982054            4 
 1730000   0.96846509   -7.3192388    567.15805  0.027319752  0.026975942            2 
 1731000   0.97441679    -7.348269    567.68783  0.027329474  0.026969858            6 
 1732000   0.98298522   -7.3110094    568.76948  0.027365737  0.026963773            1 
 1733000   0.96474474   -7.3315306    567.48966  0.027288404  0.026957586            1 
 1734000   0.95089083   -7.3574685    568.11344  0.027302645  0.026951377            2 
 1735000   0.97913236   -7.3137598    568.40991  0.027301149  0.026945173            1 
 1736000   0.98506381   -7.3336114    567.75035  0.027253761  0.026939024            1 
 1737000   0.97096915   -7.3368684    567.40676  0.027221587  0.026932931            6 
 1738000   0.96958546   -7.3335386     569.2459  0.027294107  0.026926755            2 
 1739000   0.98412903   -7.3393732    569.69221  0.027299799  0.026920693            4 
 1740000   0.98098034   -7.3241327    569.02731  0.027252266  0.026914566            6 
 1741000   0.97448951   -7.3143308    569.36282  0.027252672  0.026908346            8 
 1742000   0.96174097   -7.3431062    568.71957  0.027206256  0.026902237            4 
 1743000   0.98486486   -7.3284755    570.19938  0.027261397  0.026896169            3 
 1744000   0.97412246   -7.3228678    569.24047  0.027199946  0.026890045            2 
 1745000   0.98029618   -7.3490829    569.27834  0.027186167  0.026883908            2 
 1746000   0.97702872   -7.3099662    570.57021  0.027232255  0.026877722            2 
 1747000   0.97098561   -7.3718145    569.67529  0.027173979  0.026871648            1 
 1748000   0.97290836   -7.3432913    570.06048  0.027176796  0.026865513            2 
 1749000   0.98148888    -7.321207    572.54053  0.027279423  0.026859455            2 
 1750000   0.99327431   -7.3169491    571.29857  0.027204694  0.026853423            1 
 1751000   0.97097223   -7.3404778    572.56743  0.027249544  0.026847331            2 
 1752000    0.9656783   -7.3865323     569.8391  0.027104219  0.026841172            3 
 1753000   0.98148857   -7.3333884    570.81919  0.027135349  0.026835079            2 
 1754000   0.95250307   -7.3703518     572.1446  0.027182849  0.026829028            2 
 1755000   0.98596101   -7.3689069    569.99565  0.027065321  0.026822848            3 
 1756000   0.97886919   -7.3307533    573.51585  0.027216963  0.026816768            2 
 1757000   0.99732315   -7.3091261    572.92243  0.027173327  0.026810779            2 
 1758000   0.98862974    -7.350214    572.51731  0.027138666  0.026804783            2 
 1759000   0.94909463   -7.3516936    571.86492  0.027092331  0.026798815            3 
 1760000   0.96452355   -7.2991521    573.36555   0.02714799  0.026792778            5 
 1761000   0.95967326   -7.3386001    573.14375  0.027122078   0.02678666            2 
 1762000   0.97155873   -7.3133239     572.9791  0.027098898  0.026780566            3 
 1763000   0.99164709   -7.3314141    573.46752  0.027106614  0.026774536            5 
 1764000   0.96610651   -7.3248291    574.22915  0.027127227  0.026768499            2 
 1765000   0.96711868   -7.3054939    574.77808  0.027137775  0.026762409            6 
 1766000   0.97292094   -7.3509017    573.92412  0.027082112  0.026756373            3 
 1767000   0.97409809   -7.3433697    575.41286  0.027136996  0.026750306            2 
 1768000    0.9761311   -7.3302989    574.49622  0.027078442  0.026744216            1 
 1769000   0.96960924   -7.3658445    575.02653  0.027088116  0.026738301            2 
 1770000   0.95458891   -7.3371247    577.27487  0.027178666  0.026732346            1 
 1771000   0.98812179    -7.313122    576.91824  0.027146539  0.026726499            1 
 1772000   0.95662345   -7.3540563    576.47702  0.027110469  0.026720599            2 
 1773000   0.95100397   -7.3369371    575.65503  0.027056544  0.026714667            2 
 1774000   0.99345683   -7.3313377    577.40612  0.027123549  0.026708671            2 
 1775000   0.95790395   -7.3410373    577.07269  0.027092614   0.02670276            3 
 1776000   0.97213518    -7.391356    575.54221  0.027005547  0.026696708            2 
 1777000   0.96686776   -7.3530372    576.79466  0.027049084  0.026690664            3 
 1778000   0.96789907    -7.344143    577.27568  0.027056416  0.026684554            2 
 1779000   0.96496809   -7.3778819    575.75279   0.02696987  0.026678395            2 
 1780000     0.958884   -7.3876973    576.97898  0.027012125  0.026672342            3 
 1781000    0.9579915   -7.3297212     577.0275  0.026999228  0.026666225            3 
 1782000   0.96985958   -7.3711412    577.07332  0.026986219  0.026660199            2 
 1783000   0.97244403   -7.3528683    579.58469   0.02708846  0.026654138            4 
 1784000   0.93296194   -7.3542406    577.87836  0.026993571  0.026648135            2 
 1785000   0.97776402   -7.3331257     577.4878  0.026960215  0.026642084            4 
 1786000   0.98206653   -7.3682943    578.40714  0.026988015  0.026635942            3 
 1787000   0.96166997   -7.3744162    576.62382  0.026889751  0.026629805            1 
 1788000   0.97947016   -7.3281926    579.96869  0.027030606  0.026623724            1 
 1789000   0.97245133   -7.3440436    577.82867  0.026915813  0.026617662            2 
 1790000   0.97828544   -7.3283839    577.01372  0.026862836  0.026611541            1 
 1791000   0.97341903   -7.3791275    578.86604  0.026934024  0.026605417            3 
 1792000   0.93501815   -7.3532465    578.51666  0.026902746   0.02659936            5 
 1793000    0.9735624    -7.343159    578.68663  0.026895642   0.02659319            2 
 1794000   0.96057407   -7.3369874    580.35559  0.026958175  0.026587094            5 
 1795000   0.97893294   -7.3236066    580.33037  0.026941986  0.026580981            2 
 1796000   0.95545982   -7.3325792    579.67206  0.026896439  0.026574863            2 
 1797000   0.98367752   -7.3138908     580.5611    0.0269227  0.026568779            2 
 1798000   0.95244469   -7.3408354    580.39508  0.026900032  0.026562658            1 
 1799000   0.96350188   -7.3807382    579.29803  0.026834261  0.026556462            6 
 1800000   0.96988888   -7.3546049    581.00776  0.026898507  0.026550372            2 
 1801000   0.98777117   -7.3358221    581.57104  0.026909635  0.026544301            5 
 1802000   0.96590759    -7.372093     582.2241  0.026924903  0.026538246            2 
 1803000   0.93751792   -7.3819386    579.21001   0.02677066  0.026532026            1 
 1804000   0.95915888   -7.3547686    580.14953  0.026799221   0.02652585            2 
 1805000   0.97534596   -7.3978226     580.8518  0.026816796  0.026519586            3 
 1806000   0.97451046    -7.360287     581.4191  0.026828124  0.026513388            3 
 1807000   0.96273066   -7.3851486    580.07764  0.026751413   0.02650715            2 
 1808000   0.96522214     -7.34822    583.10704  0.026876246  0.026501054            5 
 1809000   0.97060047   -7.3609826    583.04908  0.026858719  0.026495063            4 
 1810000   0.96746876   -7.3669017    582.92848  0.026838328  0.026489046            2 
 1811000   0.97095823   -7.3918854     582.9031   0.02682234  0.026482954            2 
 1812000   0.97100395   -7.3451088    581.99482  0.026765766  0.026476834            1 
 1813000   0.96859239   -7.3961152    582.28178  0.026764193  0.026470689            1 
 1814000     0.970269   -7.3813726    581.20885  0.026700149  0.026464487            4 
 1815000   0.96930342   -7.3496696    582.38822  0.026739588  0.026458411            5 
 1816000   0.95288436   -7.3567252    583.43221   0.02677277  0.026452337            1 
 1817000   0.96679362   -7.3628941    583.46613  0.026759591  0.026446317            4 
 1818000   0.96556581    -7.341353    584.35756  0.026785733  0.026440178            2 
 1819000   0.94961559   -7.3617673    584.66083  0.026784902  0.026434125            2 
 1820000   0.95200084     -7.39367    583.86157  0.026733589  0.026428155            3 
 1821000   0.98279338   -7.3805962    583.86889  0.026719243  0.026422038            2 
 1822000   0.94754551   -7.3716193    584.01993  0.026711486  0.026415974            3 
 1823000   0.95599489   -7.3635469    586.28585  0.026800414  0.026410017            1 
 1824000   0.97051722    -7.369441    586.17853  0.026780817  0.026404037            2 
 1825000   0.97940224   -7.3777551     583.6811  0.026652105  0.026397929            3 
 1826000   0.95539868   -7.3758628    585.14714  0.026704415   0.02639185            4 
 1827000   0.97223273   -7.3653169    583.62512  0.026620376  0.026385606            3 
 1828000   0.96258866   -7.3392068     584.7978  0.026659272  0.026379387            4 
 1829000   0.95793551   -7.3564388    587.38664   0.02676265  0.026373274            2 
 1830000   0.97622089   -7.3785947    585.75442  0.026673698  0.026367075            3 
 1831000   0.94989934   -7.3364916    586.05982   0.02667303  0.026360913            3 
 1832000   0.95447711   -7.3926418      586.078  0.026659297  0.026354765            1 
 1833000   0.94759708   -7.3794419    585.68546  0.026626907  0.026348629            2 
 1834000   0.94630365   -7.3496933    587.16437  0.026679588  0.026342488            1 
 1835000   0.95412049   -7.3607037    587.87518  0.026697329  0.026336449            2 
 1836000   0.95415644    -7.403599    588.12159  0.026693972  0.026330398            1 
 1837000   0.95708528   -7.3633019    585.78174  0.026573296  0.026324337            2 
 1838000   0.97238846   -7.3677888    586.55624  0.026593953  0.026318296            4 
 1839000   0.96657377   -7.3663021    587.36475   0.02661613  0.026312137            1 
 1840000   0.97182202    -7.403919    587.41465  0.026603924  0.026305966            2 
 1841000   0.95487103   -7.3513878    588.76195   0.02665046  0.026299903            2 
 1842000   0.96655804   -7.3922366    588.49098  0.026623732  0.026293738            2 
 1843000    0.9407496    -7.318688    588.57743  0.026613196  0.026287584            1 
 1844000   0.97884282   -7.3472981    588.01777  0.026573471  0.026281462            2 
 1845000   0.95768199    -7.407501    587.30863  0.026527038  0.026275293            3 
 1846000   0.93254287   -7.3906549    587.16523  0.026506195  0.026269075            1 
 1847000   0.97180294   -7.3515279    589.16746  0.026582181  0.026262882            4 
 1848000   0.95711494   -7.3656294    589.42115  0.026579237  0.026256823            3 
 1849000   0.97689968   -7.3368781    588.91268  0.026541945  0.026250709            2 
 1850000   0.96596868   -7.3656378    590.04784  0.026578731   0.02624452            2 
 1851000   0.97221525    -7.413268    588.22157  0.026482152  0.026238323            1 
 1852000    0.9750009   -7.3776328    589.83907  0.026540635  0.026232087            2 
 1853000   0.94784185   -7.3844348     589.0232   0.02648962  0.026225881            6 
 1854000   0.94786962   -7.3933994    588.92835  0.026471069  0.026219646            1 
 1855000   0.96118753   -7.3771058    590.81681  0.026541636  0.026213399            3 
 1856000   0.93851995   -7.3946944    589.32189  0.026460214  0.026207139            1 
 1857000   0.94419668   -7.3749645     591.5832  0.026547442  0.026200954            3 
 1858000    0.9496145   -7.3464553    591.86972  0.026546004  0.026194788            2 
 1859000   0.96704401   -7.4116345    589.41329  0.026421611  0.026188558            2 
 1860000   0.93965809   -7.3936517    590.40249  0.026451725   0.02618225            3 
 1861000   0.97059354   -7.3955544    590.29065  0.026432503  0.026176006            1 
 1862000   0.94194044   -7.3804854    592.13451  0.026500829    0.0261698            1 
 1863000    0.9558666   -7.3515714    590.58984  0.026417509  0.026163613            2 
 1864000   0.92616096   -7.3548334    591.24313  0.026432544  0.026157391            2 
 1865000   0.93222689   -7.3747357    590.95324  0.026405417  0.026151104            3 
 1866000   0.95615644   -7.3849969    590.71167  0.026380478  0.026144871            2 
 1867000   0.97752186   -7.3663617    590.72903  0.026367123  0.026138537            3 
 1868000   0.97174073   -7.3821014    592.29255  0.026422758  0.026132193            3 
 1869000   0.94031696   -7.3904402     592.5086  0.026418254  0.026125876            2 
 1870000   0.96378949    -7.360293    593.64802  0.026454903  0.026119629            2 
 1871000   0.94903652   -7.3983133    594.60503  0.026483388  0.026113384            2 
 1872000   0.94407006    -7.382089    593.20962  0.026407123  0.026107256            3 
 1873000   0.94853087   -7.3864885    594.81011  0.026464234  0.026101095            3 
 1874000   0.97123337   -7.3684112    593.19595  0.026378333  0.026095004            3 
 1875000   0.94235412   -7.3571029    594.44763  0.026419895  0.026088919            5 
 1876000   0.95846074   -7.4063341    592.93325  0.026338542  0.026082896            2 
 1877000   0.94602556   -7.4196642    595.88648  0.026455624  0.026076769            5 
 1878000   0.97439961    -7.342337    595.64443  0.026430797  0.026070684            3 
 1879000   0.95148811   -7.3673652    597.37148  0.026493324  0.026064628            2 
 1880000     0.944992   -7.3498747    595.89262   0.02641368  0.026058566            2 
 1881000    0.9378658   -7.3883087    595.05631  0.026362587  0.026052565            3 
 1882000   0.93948006   -7.3794247    595.00617  0.026346359  0.026046402            3 
 1883000   0.95035728   -7.3390416    597.46696  0.026441271  0.026040359            2 
 1884000   0.94283767   -7.3633322    597.34689  0.026421925  0.026034272            4 
 1885000   0.92993272   -7.3843471     596.7401  0.026381083  0.026028212            2 
 1886000    0.9640881   -7.3737083    594.50006  0.026268119  0.026022097            4 
 1887000   0.94276581   -7.3766939    595.34244  0.026291399  0.026015944            3 
 1888000     0.948029   -7.3343091    597.13577  0.026356628  0.026009854            2 
 1889000   0.95054837   -7.4040822     595.3706  0.026264805  0.026003802            4 
 1890000   0.95651341   -7.4044953    596.27228  0.026290665  0.025997608            3 
 1891000   0.93670264   -7.3677772    596.55104  0.026289046  0.025991396            2 
 1892000   0.93466482   -7.3904574    596.51332   0.02627349  0.025985209            2 
 1893000   0.95556927   -7.3692933    598.26153   0.02633657  0.025979054            2 
 1894000   0.94443052   -7.3838436    598.95629  0.026353234  0.025972887            2 
 1895000   0.95454992   -7.3925797    597.60849  0.026280057  0.025966811            3 
 1896000   0.94032908   -7.4112176    596.45047  0.026215299  0.025960649            2 
 1897000   0.94950708   -7.4036495    597.81943  0.026261616  0.025954474            2 
 1898000   0.94564677   -7.4276073    597.49473  0.026233523  0.025948372            2 
 1899000   0.94645978   -7.3961057    598.21534  0.026251331  0.025942225            1 
 1900000   0.95210607   -7.4160111    598.94321  0.026269439  0.025936032            1 
 1901000   0.95970999   -7.4245416    597.67251  0.026199917  0.025929844            3 
 1902000   0.96795374   -7.4281714    597.61827  0.026183766  0.025923706            2 
 1903000    0.9415661   -7.4005139    597.26031  0.026154331  0.025917497            2 
 1904000   0.93369035   -7.3829695    597.56928  0.026154118  0.025911316            2 
 1905000   0.95976806    -7.426351    597.51871  0.026138176  0.025905186            2 
 1906000   0.95072284   -7.3857256    599.91829  0.026229376  0.025899051            2 
 1907000   0.95424017   -7.3956223    600.53574  0.026242604  0.025892969            2 
 1908000   0.95225467   -7.4070143    597.17909  0.026082246  0.025886789            2 
 1909000   0.93301461    -7.419631    598.94731   0.02614577  0.025880576            3 
 1910000   0.94655553    -7.416789     600.1665  0.026185275  0.025874398            2 
 1911000   0.94167833   -7.3797272    601.89641  0.026247009  0.025868232            5 
 1912000   0.92625079   -7.4334384    599.93622  0.026147848  0.025862067            2 
 1913000   0.94204738   -7.4184503    600.69587  0.026167271  0.025855882            3 
 1914000    0.9490696   -7.3894988     601.1891  0.026175074  0.025849782            6 
 1915000   0.93761434   -7.3817328    599.56638  0.026090791  0.025843632            1 
 1916000   0.95407825   -7.4173488    599.75727  0.026085476  0.025837414            4 
 1917000   0.95128262    -7.384412    601.02182   0.02612684  0.025831279            1 
 1918000   0.93689949   -7.3961633    602.43573  0.026174649  0.025825145            1 
 1919000    0.9402871   -7.3868609    601.41025  0.026116478  0.025819018            2 
 1920000   0.96195111   -7.3770127    604.54323  0.026238855  0.025812988            3 
 1921000   0.93306789   -7.4103968    603.70926  0.026189019  0.025806985            2 
 1922000   0.93914082   -7.4195365    602.51247  0.026123503   0.02580097            2 
 1923000    0.9423519   -7.4087158    602.72105  0.026118957  0.025794913            1 
 1924000   0.94238797   -7.4135485    604.61221  0.026187293  0.025788948            4 
 1925000   0.95724853   -7.3880436    604.47704  0.026167837  0.025782951            1 
 1926000   0.96302477    -7.388091    602.35915  0.026062615  0.025776876            2 
 1927000   0.96665048   -7.3997473    603.07108  0.026079877  0.025770871            2 
 1928000   0.94515103   -7.4096081    604.03414  0.026107976  0.025764886            4 
 1929000   0.94939057   -7.4140817    602.10488  0.026011097  0.025758796            3 
 1930000   0.95293317   -7.3936046    604.20916  0.026088479  0.025752739            2 
 1931000   0.93121103   -7.3969095    604.96135  0.026107429  0.025746677            4 
 1932000   0.94701388   -7.4296526    604.01704  0.026053185  0.025740581            2 
 1933000   0.95033589   -7.4256114    603.07044  0.025998898  0.025734495            3 
 1934000   0.93099886   -7.4151969    603.88291  0.026020463  0.025728361            3 
 1935000   0.94669825   -7.4376101    603.83805  0.026005084   0.02572223            2 
 1936000   0.94535256   -7.4095658     605.6466  0.026069499  0.025716051            5 
 1937000   0.92642737   -7.4115996    605.14096  0.026034287  0.025709985            2 
 1938000   0.94298391   -7.3895261    604.94084  0.026012248  0.025703925            1 
 1939000   0.95723052   -7.4271278    604.02145   0.02595932  0.025697869            1 
 1940000   0.94202972   -7.4291313       605.34  0.026002577  0.025691732            2 
 1941000   0.92466796   -7.4128306    605.18318  0.025982448  0.025685631            3 
 1942000   0.92989866   -7.3794647    606.40541  0.026021516  0.025679623            5 
 1943000   0.95060167   -7.3886723    606.52967  0.026013453  0.025673633            5 
 1944000   0.92336051   -7.4339377    606.40268  0.025994628  0.025667529            2 
 1945000   0.95851336   -7.4156019    605.52835  0.025943803  0.025661449            1 
 1946000   0.93692639   -7.4063853    605.87361  0.025945255    0.0256554            1 
 1947000    0.9346709   -7.3794696    607.87576  0.026017624  0.025649322            3 
 1948000   0.92752526   -7.3875344    607.21359  0.025975941    0.0256433            3 
 1949000   0.93577542   -7.4203626    606.52296  0.025933084  0.025637278            2 
 1950000   0.94459563   -7.4101867    609.60846  0.026051644  0.025631252            1 
 1951000   0.94767766   -7.3781035    608.63153  0.025996563  0.025625202            1 
 1952000   0.92734626   -7.4213031    606.79176  0.025904703  0.025619131            3 
 1953000   0.94805217   -7.3650094    607.60503   0.02592614  0.025612955            1 
 1954000   0.93504917   -7.4168744    607.52372  0.025909405  0.025606925            3 
 1955000   0.94392253   -7.4582107    605.70219  0.025818508  0.025600689            2 
 1956000   0.92216122   -7.4226272    607.58864  0.025885678  0.025594456            2 
 1957000   0.91389126   -7.4218066    608.60116  0.025915567  0.025588349            1 
 1958000    0.9249142    -7.430503    608.24321  0.025887096   0.02558224            1 
 1959000   0.94423813   -7.4361329    607.87288  0.025858128  0.025576078            3 
 1960000   0.93244662   -7.4341343    607.71292  0.025838134  0.025569924            2 
 1961000   0.92933903   -7.4185931    607.58047   0.02581933  0.025563801            3 
 1962000   0.92416308   -7.4104744    610.43898  0.025927581  0.025557669            2 
 1963000   0.96395684   -7.4398229    608.32705  0.025824718  0.025551557            2 
 1964000   0.92767579    -7.397301    610.13357   0.02588822  0.025545361            2 
 1965000   0.91397948   -7.3883776    610.02369  0.025870385  0.025539211            2 
 1966000   0.92849641   -7.4195258    611.01798  0.025899372   0.02553308            3 
 1967000   0.94849138   -7.3476494    611.72682  0.025916236  0.025526993            1 
 1968000   0.94497802   -7.4290001    608.78989  0.025778705  0.025520856            3 
 1969000   0.92739214   -7.4519991    608.48944  0.025752897   0.02551473            2 
 1970000   0.94768135   -7.4302708    609.05835   0.02576389  0.025508477            2 
 1971000   0.93158084   -7.4171529    608.15391  0.025712578  0.025502272            1 
 1972000   0.94998274   -7.4021267    608.00433  0.025693219  0.025496015            3 
 1973000   0.92649926   -7.4118857    610.10828  0.025769061  0.025489737            4 
 1974000   0.94776146   -7.4333092     608.9152   0.02570564  0.025483451            2 
 1975000   0.94342186   -7.4071943    610.47575   0.02575847  0.025477253            2 
 1976000   0.92088175   -7.3945002    610.37821  0.025741321  0.025471116            3 
 1977000   0.93263471   -7.4082009    611.01381  0.025755092  0.025464945            2 
 1978000   0.93143559   -7.4437312    609.15145   0.02566361  0.025458654            3 
 1979000   0.94132269   -7.4466251    610.11679  0.025691291  0.025452347            3 
 1980000   0.92424902   -7.4337332    611.45123  0.025734479  0.025446076            7 
 1981000   0.92527491   -7.4471176    609.24452  0.025628661  0.025439788            5 
 1982000   0.93529016    -7.434978     610.0687  0.025650383  0.025433458            4 
 1983000   0.91726463    -7.483516    610.40177  0.025651444  0.025427072            2 
 1984000   0.91258771    -7.439491     610.8172  0.025655964  0.025420701            1 
 1985000    0.9446618   -7.4148627    610.95708  0.025648912  0.025414388            1 
 1986000   0.91523124   -7.4405645    610.21573  0.025604889  0.025407972            4 
 1987000    0.9284839   -7.4611795    612.06526  0.025669572  0.025401584            2 
 1988000   0.93259443   -7.4188045    612.44912   0.02567275  0.025395299            2 
 1989000   0.91710344   -7.4413306     612.2917  0.025653247  0.025388984            2 
 1990000   0.94293995   -7.4400276    609.87395   0.02553911  0.025382555            3 
 1991000   0.92427411     -7.40559    611.09718  0.025577481  0.025376114            2 
 1992000      0.93637   -7.4321952    611.66775   0.02558851  0.025369757            2 
 1993000   0.92074722   -7.4381888    611.90432  0.025585563  0.025363434            3 
 1994000   0.94635623   -7.4275927    611.86318  0.025571012  0.025357122            2 
 1995000   0.93463467   -7.4467822    612.63608   0.02559048   0.02535064            3 
 1996000   0.94880691   -7.4386254    611.39715  0.025525933  0.025344209            4 
 1997000   0.93013965   -7.4039971    614.12531  0.025626995  0.025337764            1 
 1998000   0.93664088   -7.4373737    612.72069  0.025555584  0.025331341            1 
 1999000   0.94685465   -7.4253096      613.698  0.025583542  0.025324993            2 
 2000000      0.94316   -7.3886854    613.71498  0.025571458  0.025318666            2 
 2001000   0.90582586   -7.3966165    612.73917   0.02551804  0.025312338            1 
 2002000   0.93387232   -7.4079614    613.20328  0.025524612  0.025305925            2 
 2003000   0.92863776   -7.4218756    612.11758  0.025466699  0.025299385            2 
 2004000   0.93168125   -7.4218269    611.61262  0.025432993  0.025292949            1 
 2005000   0.93436811   -7.4542843    612.43878  0.025454646  0.025286515            2 
 2006000    0.9361105   -7.4532212    613.97259  0.025505674  0.025280077            3 
 2007000   0.91578443   -7.4247184    614.72877  0.025524363  0.025273659            4 
 2008000   0.93374741   -7.4614747    613.04801    0.0254419  0.025267217            2 
 2009000   0.92806861   -7.4349557    612.69157   0.02541445   0.02526076            3 
 2010000   0.95096465    -7.457286    614.45961  0.025475108  0.025254356            3 
 2011000   0.92155823   -7.3928648    615.16178  0.025491537  0.025247913            1 
 2012000   0.93279949   -7.4099071    613.82838   0.02542364  0.025241473            4 
 2013000   0.93101867   -7.4066185    614.05354  0.025420332  0.025234981            2 
 2014000   0.91775056   -7.4152964     613.4065  0.025380938  0.025228485            3 
 2015000   0.93517555   -7.4448639    613.01131  0.025351998  0.025221892            2 
 2016000   0.91555415    -7.432855    614.06278  0.025382886  0.025215321            2 
 2017000   0.95029293   -7.4440306    614.42857  0.025385414  0.025208781            2 
 2018000   0.92329622   -7.4587449    613.04991  0.025315903  0.025202222            4 
 2019000   0.91155404    -7.464133    614.80334  0.025375736  0.025195683            2 
 2020000   0.93462985   -7.4390442     614.5905  0.025354394   0.02518919            2 
 2021000    0.9347622   -7.4552293    614.21954  0.025326552  0.025182737            2 
 2022000   0.93855296   -7.4608933    615.51383  0.025367369  0.025176243            4 
 2023000   0.92231925   -7.4301135    613.25915  0.025261952  0.025169746            2 
 2024000   0.91890338   -7.4369429    614.46819   0.02529925  0.025163212            3 
 2025000   0.93337135    -7.445157    614.72014  0.025297125  0.025156661            5 
 2026000   0.94797555   -7.4618688    615.58029  0.025320018  0.025150081            2 
 2027000   0.90360976   -7.4601388     616.3109  0.025337564  0.025143548            5 
 2028000   0.93882381   -7.4366521    615.28278  0.025282823  0.025137006            2 
 2029000   0.93081267    -7.432136    615.88593  0.025295134  0.025130489            6 
 2030000   0.93376738   -7.4354442    615.90851  0.025283601  0.025123982            4 
 2031000   0.91859121   -7.4095356     615.6172  0.025259199  0.025117458            4 
 2032000   0.93131802   -7.4330647    615.26355  0.025232265  0.025110925            2 
 2033000   0.92526558   -7.4329574    617.41694  0.025308122  0.025104473            3 
 2034000   0.91923371    -7.464127    616.23381  0.025247206  0.025097965            1 
 2035000   0.91709092   -7.4539629    615.85619  0.025219336  0.025091376            2 
 2036000    0.9309815   -7.4616258    616.78464  0.025244951  0.025084832            2 
 2037000   0.93552866   -7.4513518    616.39698  0.025216699  0.025078239            3 
 2038000   0.91938476   -7.4605694    616.73758  0.025218252  0.025071657            2 
 2039000   0.90515276   -7.4567248    616.04661  0.025177645  0.025065021            3 
 2040000    0.9205186   -7.4381693    615.50559  0.025143202  0.025058472            3 
 2041000   0.91767779     -7.45303    618.73279  0.025262649    0.0250519            4 
 2042000   0.93509546   -7.4457615    616.85397  0.025173603  0.025045294            4 
 2043000   0.92298485    -7.418649    618.93555  0.025246188  0.025038681            3 
 2044000   0.89915998   -7.4264536    618.83446  0.025229715  0.025032048            2 
 2045000   0.92073613   -7.4487351    616.55442  0.025124467  0.025025411            6 
 2046000   0.94055615   -7.4455982    615.73039  0.025078624  0.025018715            2 
 2047000    0.9280649   -7.4251093    617.05338  0.025120232  0.025012089            2 
 2048000   0.90649615   -7.4363191    617.03925  0.025107391  0.025005463            3 
 2049000   0.92302045   -7.4709492      616.198  0.025060924  0.024998762            1 
 2050000   0.90575026    -7.472304    615.98141  0.025039895  0.024992009            2 
 2051000   0.94378433   -7.4784065    615.91379  0.025024939  0.024985245            5 
 2052000   0.91793133   -7.4642385    617.74911  0.025087277   0.02497847            3 
 2053000   0.94852834   -7.4376815    618.33457  0.025098822  0.024971759            3 
 2054000   0.94233384   -7.4400888    618.60401  0.025097533   0.02496512            2 
 2055000   0.90845997   -7.4700758    618.13417  0.025066268  0.024958427            2 
 2056000   0.93480626   -7.4885818    616.26176  0.024978184  0.024951647            4 
 2057000   0.93592769   -7.4681308    616.62766  0.024980864  0.024944809            2 
 2058000   0.92474475   -7.4453969    615.67134  0.024930002  0.024937979            3 
 2059000    0.9062076   -7.4537848    617.16316  0.024978273  0.024931134            2 
 2060000   0.92296875   -7.4829596    617.65018  0.024985849  0.024924302            2 
 2061000   0.92998342   -7.4405114    618.31544  0.025000624  0.024917455            3 
 2062000   0.94838144   -7.4618389    618.13246  0.024981105  0.024910663            4 
 2063000   0.93031898   -7.4822972    618.28815  0.024975285  0.024903825            3 
 2064000   0.91172145   -7.4777516    617.47572  0.024930383  0.024897005            2 
 2065000   0.90339734   -7.4276325    619.60776  0.025004349   0.02489029            3 
 2066000    0.9023957   -7.4535176    621.48522  0.025067974  0.024883621            2 
 2067000    0.9297799   -7.4359274    619.73948  0.024985465  0.024876935            2 
 2068000   0.91975122    -7.443612    620.18334  0.024991269  0.024870213            1 
 2069000   0.92720131   -7.4822186    617.76293  0.024881703  0.024863412            3 
 2070000   0.90195518    -7.458999    619.62637  0.024944701  0.024856517            2 
 2071000   0.91623315   -7.4441456    619.41279  0.024924062  0.024849682            4 
 2072000   0.95743269   -7.4406763     618.0953  0.024859045  0.024842869            1 
 2073000   0.93670068   -7.4954733    618.63202  0.024868629  0.024836038            3 
 2074000   0.92085782    -7.473497    620.23842  0.024921184  0.024829202            2 
 2075000   0.92040965   -7.4882381    620.41004  0.024916066  0.024822409            3 
 2076000   0.93485183   -7.4548269    620.18131  0.024894882  0.024815604            2 
 2077000   0.93719812   -7.4420051    620.84743  0.024909623  0.024808786            2 
 2078000   0.93511797    -7.452205    619.57412  0.024846572  0.024801952            2 
 2079000   0.92132947   -7.4658837    619.18559  0.024819047  0.024795139            2 
 2080000   0.93644858   -7.4582571    619.27835  0.024810831  0.024788216            2 
 2081000    0.9167748   -7.4645182     621.6897  0.024895471  0.024781317            3 
 2082000   0.92056991   -7.4662913    619.07406  0.024778821  0.024774468            2 
 2083000   0.91919741   -7.4728983    621.00246  0.024844073  0.024767659            2 
 2084000   0.91377842   -7.4338317    621.96582  0.024870674   0.02476082            2 
 2085000   0.90344502   -7.4851231    620.73519   0.02480956  0.024754054            1 
 2086000    0.9250329   -7.4695456    620.76186  0.024798732  0.024747256            5 
 2087000   0.91537438   -7.4963938     621.2378  0.024805854  0.024740448            1 
 2088000    0.9243077   -7.4592713    622.96628  0.024862958  0.024733616            1 
 2089000   0.91998787    -7.472495    620.54316  0.024754394  0.024726857            2 
 2090000     0.899086   -7.4531202    621.55932  0.024783067  0.024720054            2 
 2091000   0.91344367   -7.4452886    621.75445  0.024778991  0.024713266            1 
 2092000   0.91741965   -7.4083862    623.41241   0.02483319  0.024706471            1 
 2093000   0.92311122   -7.4785766    622.09381  0.024768825  0.024699717            2 
 2094000    0.8880077   -7.4859674     622.6241    0.0247781   0.02469286            4 
 2095000    0.9242546   -7.4561257    622.53933  0.024762901  0.024686089            3 
 2096000   0.90598531   -7.4654093    625.39884  0.024864776  0.024679379            1 
 2097000    0.9272013   -7.4705322    622.76354  0.024748193  0.024672732            3 
 2098000   0.91408541   -7.4733335    622.20477  0.024714203  0.024666068            2 
 2099000   0.91159403   -7.4683856      624.465  0.024792163  0.024659368            2 
 2100000   0.92426321   -7.4538399      623.873  0.024756865  0.024652654            2 
 2101000   0.90479455   -7.4485284    626.02254   0.02483034  0.024645976            2 
 2102000   0.92208608   -7.4859258    624.14151  0.024743955  0.024639323            2 
 2103000   0.89507951   -7.5018903    623.28934   0.02469842  0.024632536            5 
 2104000   0.91174551   -7.4910834    623.56669  0.024697667  0.024625786            2 
 2105000   0.89118531   -7.4783315    624.99609  0.024742522  0.024619068            3 
 2106000   0.89423688   -7.4516358    624.44769  0.024709073  0.024612319            2 
 2107000    0.9247839   -7.5104552    623.14421  0.024645792   0.02460555            2 
 2108000   0.90934798   -7.4696378    624.40595   0.02468398  0.024598789            1 
 2109000   0.91570917   -7.4698368    624.93865  0.024693324  0.024592119            2 
 2110000   0.90463334   -7.4788702    625.23614   0.02469337  0.024585408            3 
 2111000   0.93019215   -7.4749972    626.28435  0.024723052  0.024578717            4 
 2112000   0.91065072   -7.4809698     623.5937  0.024605181  0.024572115            7 
 2113000   0.91102156   -7.4284747    627.82908  0.024760573  0.024565455            2 
 2114000   0.92497092   -7.4513212    627.43788  0.024733439  0.024558787            2 
 2115000   0.92306211    -7.466158     626.1573  0.024671288  0.024552084            5 
 2116000   0.90471713   -7.4628121    625.01208  0.024614527  0.024545427            1 
 2117000   0.88835982   -7.4976537    625.00289  0.024602538   0.02453872            1 
 2118000   0.90240015   -7.4765412    627.02689  0.024670558  0.024532008            2 
 2119000   0.91632847   -7.4580229    625.29471  0.024590794   0.02452529            3 
 2120000   0.92896858   -7.5083518    625.84766   0.02460093  0.024518599            7 
 2121000   0.90439532    -7.472943    627.12357  0.024639461   0.02451189            2 
 2122000   0.89947745   -7.4741349    625.30076  0.024556266  0.024505146            2 
 2123000    0.8879237   -7.4526229    626.71976  0.024600399  0.024498432            1 
 2124000   0.89213434   -7.4833198    627.65941  0.024625683  0.024491683            1 
 2125000   0.90646497   -7.4845228    625.79198  0.024540862  0.024484916            1 
 2126000   0.91789795   -7.4767617    624.43194  0.024476009  0.024478127            1 
 2127000   0.89043547   -7.4367025    627.94731   0.02460223  0.024471264            5 
 2128000   0.91889109   -7.4652787    628.33057  0.024605677  0.024464507            3 
 2129000   0.88343256    -7.476588    626.36538  0.024517198  0.024457731            3 
 2130000   0.91436989   -7.4727995    627.41755  0.024546852  0.024450921            4 
 2131000   0.89303679   -7.4954874    627.06846  0.024521682  0.024444125            2 
 2132000   0.91597299   -7.4735711    625.33767  0.024442529  0.024437347            1 
 2133000   0.92332831   -7.4673865    626.91716  0.024492778  0.024430548            1 
 2134000   0.91072661   -7.4936832    626.28935  0.024456785  0.024423738            6 
 2135000   0.90566429   -7.4816117    628.02413  0.024513042  0.024416997            2 
 2136000   0.90793243   -7.4841753    628.21691  0.024509087  0.024410231            2 
 2137000   0.90845248    -7.473441    628.43983  0.024506311  0.024403514            2 
 2138000   0.92118048   -7.4591867    628.07325   0.02448056  0.024396793            2 
 2139000   0.91783235   -7.4608229    628.45558   0.02448401  0.024390106            2 
 2140000   0.92580924   -7.4607412      630.924  0.024568691   0.02438337            2 
 2141000   0.89751476    -7.442551    629.94451  0.024519092  0.024376665            4 
 2142000   0.89250358   -7.4672736     629.4087    0.0244868  0.024370059            1 
 2143000   0.90296476   -7.4302706    628.48522  0.024439462  0.024363412            2 
 2144000   0.90628635   -7.4855735    630.26427  0.024497212  0.024356833            2 
 2145000    0.9274785   -7.4527388    630.74342  0.024504406  0.024350214            8 
 2146000   0.89971424   -7.4554348     631.5323  0.024523622  0.024343604            1 
 2147000   0.90618942   -7.4467902    630.75716  0.024482113  0.024336964            4 
 2148000   0.91251155   -7.4935205    629.59992  0.024425819  0.024330331            1 
 2149000   0.92439324   -7.4557743    630.53742  0.024450807  0.024323698            3 
 2150000   0.90551964   -7.4957209    631.33751  0.024470446  0.024317086            3 
 2151000   0.89394738   -7.5094882    630.62888  0.024431616  0.024310407            3 
 2152000   0.89026537   -7.4599079     631.1353  0.024439874  0.024303716            3 
 2153000   0.90151782   -7.4819891    631.75186  0.024452387  0.024297058            3 
 2154000   0.88251651   -7.5071988    630.86493  0.024406721  0.024290462            3 
 2155000   0.91196625   -7.5081327    631.04604  0.024402399  0.024283808            9 
 2156000   0.91570344   -7.4672361    632.86382  0.024461341  0.024277241            2 
 2157000   0.92629385   -7.5145071    631.87829  0.024411926  0.024270723            3 
 2158000   0.92164212   -7.4746709    632.48001   0.02442385  0.024264186            2 
 2159000   0.90665481   -7.4651012    632.17657  0.024400825  0.024257686            4 
 2160000   0.89184664   -7.4838126    632.40977  0.024398525  0.024251173            2 
 2161000   0.90882329   -7.4918385    634.01718   0.02444922  0.024244655            2 
 2162000   0.91787218   -7.4932523    633.52638  0.024418994  0.024238157            3 
 2163000   0.91011341   -7.5039803    635.02972  0.024465623  0.024231659            1 
 2164000   0.90642303   -7.5167231    631.67984  0.024325317  0.024225105            3 
 2165000   0.91603127   -7.4863283    633.08155  0.024368035  0.024218555            3 
 2166000   0.91075951   -7.4560471    633.39195  0.024368727  0.024212034            3 
 2167000   0.91264202   -7.4635637    635.35565  0.024432997  0.024205521            1 
 2168000   0.90423427   -7.4745391    634.56872  0.024391479  0.024199088            4 
 2169000   0.89396275   -7.4609137    635.09409  0.024400418  0.024192625            3 
 2170000   0.88658114   -7.4900041    634.31959  0.024359431  0.024186137            2 
 2171000   0.90920882   -7.4581986    634.82397  0.024367571  0.024179673            2 
 2172000   0.91292791   -7.4895868    634.34353  0.024337919   0.02417323            3 
 2173000   0.91012295   -7.5100361     636.3279  0.024402819  0.024166789            2 
 2174000   0.89669186   -7.4764688    635.22755  0.024349416  0.024160418            3 
 2175000   0.88333434   -7.4951483    633.89282  0.024287081  0.024154004            2 
 2176000   0.91392618   -7.5315068    634.82966  0.024311798  0.024147579            3 
 2177000   0.91751663   -7.4838051    636.00378  0.024345574  0.024141118            5 
 2178000   0.90113782   -7.5093133    633.22235  0.024227975  0.024134656            2 
 2179000   0.90034566   -7.5041127    636.34447  0.024336258  0.024128202            2 
 2180000   0.87837795   -7.5075669    634.64612  0.024260173  0.024121732            2 
 2181000   0.90918853   -7.5305478    634.60816  0.024247599  0.024115246            3 
 2182000   0.89927941    -7.517566    635.88437  0.024285226  0.024108776            3 
 2183000   0.88322458   -7.5094573    637.67788  0.024342567  0.024102389            2 
 2184000   0.90403868   -7.5210886    635.79051  0.024259406   0.02409598            4 
 2185000   0.88982287   -7.4796711    637.20582  0.024302282  0.024089542            3 
 2186000   0.88137714   -7.5020849    636.18791   0.02425236  0.024083122            1 
 2187000   0.91230314   -7.5065264    638.09867  0.024314078  0.024076712            4 
 2188000   0.90036937   -7.5103828    636.29427  0.024234243  0.024070327            2 
 2189000   0.91482646   -7.5099884    637.56141   0.02427141  0.024063916            2 
 2190000   0.91084469    -7.531751    638.15118  0.024282769  0.024057481            2 
 2191000   0.89367642   -7.5251626     636.5552  0.024210984  0.024051049            3 
 2192000   0.88282337   -7.5244612    638.27866   0.02426546  0.024044662            3 
 2193000   0.92333116   -7.4853256    638.86435  0.024276651  0.024038306            6 
 2194000   0.89668195   -7.5498202    637.83999  0.024226678  0.024031896            2 
 2195000    0.8962756    -7.500846    639.15437  0.024265542  0.024025514            2 
 2196000   0.89737942   -7.5148297     637.6267   0.02419652   0.02401913            2 
 2197000   0.92239118   -7.5250226    638.78643  0.024229496  0.024012738            4 
 2198000   0.91756078   -7.5355165    638.06209   0.02419101  0.024006366            3 
 2199000   0.90341121   -7.4719916    641.98841  0.024328801  0.024000067            3 
 2200000   0.88956635   -7.4801196    639.20948   0.02421248  0.023993778            5 
 2201000   0.90399833   -7.4967797    641.55733  0.024290373  0.023987461            1 
 2202000   0.89286427   -7.4912941     641.4419  0.024274973  0.023981116            4 
 2203000   0.86400167   -7.4943005    641.14936  0.024252888  0.023974795            2 
 2204000   0.90862101   -7.4959125    639.21855   0.02416888  0.023968505            4 
 2205000   0.88699275   -7.5227764    639.74582  0.024177847   0.02396214            2 
 2206000   0.89204667   -7.5182106    640.90197  0.024210561  0.023955817            4 
 2207000    0.8944391   -7.5372511    639.54028  0.024148175  0.023949403            3 
 2208000   0.90565049   -7.4987627    640.86022  0.024187055  0.023943047            5 
 2209000   0.90642953   -7.4840667     640.1499   0.02414931  0.023936689            1 
 2210000   0.89841497   -7.5138473    642.25994  0.024217947  0.023930369            2 
 2211000   0.88794475   -7.5102525    640.98488  0.024158936  0.023923981            3 
 2212000   0.89414203   -7.5214541    640.38824  0.024125536  0.023917684            4 
 2213000   0.90937751    -7.506723    641.78832  0.024167357  0.023911349            3 
 2214000   0.91612439   -7.5268287    641.02755  0.024127806  0.023905022            2 
 2215000   0.90062719   -7.5121251     642.5725  0.024175038  0.023898695            1 
 2216000   0.89538927   -7.5261965    640.94465  0.024102913  0.023892348            3 
 2217000   0.90376745   -7.5049176    641.62131  0.024117475  0.023886022            2 
 2218000   0.91229647   -7.5161794    642.66488   0.02414581  0.023879766            2 
 2219000   0.90126875   -7.5083547    643.58581  0.024169514  0.023873565            2 
 2220000   0.89023259    -7.521549    643.67615  0.024162018  0.023867323            4 
 2221000   0.89215118    -7.491068    642.28823  0.024099063  0.023861073            5 
 2222000   0.88286615   -7.4884419    643.71161    0.0241416  0.023854806            4 
 2223000   0.89109188   -7.5236141    643.75687  0.024132436    0.0238485            3 
 2224000   0.91738365   -7.5149124     643.0046  0.024093398  0.023842176            5 
 2225000   0.90964688   -7.5204083    643.12989  0.024087262  0.023835874            3 
 2226000   0.90071505   -7.5153031    641.64453  0.024020834  0.023829559            4 
 2227000   0.87305336   -7.5119517    642.59719  0.024045696   0.02382322            3 
 2228000   0.87590811   -7.4931889    643.36835  0.024063748  0.023816969            2 
 2229000   0.89893755   -7.5274653     642.7617  0.024030271  0.023810717            5 
 2230000   0.89530625   -7.5026585    644.12892  0.024070587  0.023804468            3 
 2231000   0.89666518   -7.4900169    643.62182  0.024040857  0.023798248            1 
 2232000   0.91862619    -7.557602     642.9122  0.024003592  0.023792022            1 
 2233000   0.90250118   -7.5202803     644.1414  0.024038715  0.023785749            3 
 2234000   0.89213878   -7.5554519    642.36026  0.023961514  0.023779414            2 
 2235000   0.90514989   -7.5284408    645.62029  0.024072345  0.023773103            3 
 2236000    0.8849103   -7.5086794    644.05573   0.02400327  0.023766801            1 
 2237000   0.90720154   -7.5289542    644.53352  0.024010338  0.023760541            1 
 2238000   0.86754862    -7.529968     644.5432   0.02399997  0.023754219            2 
 2239000   0.91092566   -7.5170193    643.35997  0.023945212  0.023747949            2 
 2240000   0.88725119   -7.5282852    644.26927  0.023968351  0.023741651            2 
 2241000   0.89496941   -7.5191406    645.02178  0.023985638  0.023735354            2 
 2242000   0.89906246   -7.5091085    645.46153  0.023991285  0.023729043            3 
 2243000   0.89020773   -7.5275812    646.85635   0.02403241  0.023722773            3 
 2244000   0.90545991   -7.5187161    644.76227  0.023943934  0.023716482            2 
 2245000   0.88838169   -7.4875369    645.22339  0.023950386  0.023710166            2 
 2246000   0.89615975   -7.5287933    645.31833  0.023943245  0.023703884            1 
 2247000   0.91126044    -7.505148    644.56355  0.023904597  0.023697541            5 
 2248000   0.89281485   -7.5232034    647.21002  0.023992068  0.023691236            3 
 2249000   0.87324415   -7.5101361    646.65375  0.023960788  0.023685008            1 
 2250000   0.88721986    -7.518772    647.45942  0.023979978  0.023678758            3 
 2251000   0.89767594    -7.542625    645.92145  0.023912389  0.023672484            2 
 2252000   0.88537536   -7.5116278    647.74751  0.023969342  0.023666249            2 
 2253000   0.90557499   -7.5190328    647.83569  0.023961965  0.023660049            3 
 2254000   0.88523467    -7.504623    646.84293   0.02391463  0.023653863            2 
 2255000   0.89316889   -7.5487278    647.06057  0.023912068  0.023647599            1 
 2256000   0.89226124   -7.5235542    645.95906  0.023860781  0.023641329            3 
 2257000    0.8879477    -7.523359    648.03678  0.023926923  0.023635066            2 
 2258000   0.92349684   -7.5185491    647.73623  0.023905234  0.023628795            3 
 2259000    0.8698221    -7.522718    648.95443  0.023939591  0.023622487            1 
 2260000   0.89822955   -7.5083612    648.56498  0.023914638  0.023616191            3 
 2261000   0.89887674   -7.5098732     648.7142  0.023909561  0.023609939            3 
 2262000   0.88818724   -7.5404775    646.94161  0.023833687  0.023603664            2 
 2263000   0.88406984   -7.5308568    645.78156  0.023780437  0.023597349            2 
 2264000   0.91224973   -7.5035876    648.30982  0.023862994  0.023591066            2 
 2265000   0.88030656   -7.5298181    647.44722  0.023820722  0.023584783            2 
 2266000    0.9020505   -7.5599416    646.10274  0.023760765  0.023578478            2 
 2267000   0.89452778   -7.5237161    648.61364  0.023842583  0.023572118            1 
 2268000   0.89030129   -7.4966362    648.76444  0.023837612  0.023565821            3 
 2269000   0.87957246   -7.5404586    647.73866  0.023789432  0.023559475            3 
 2270000   0.90262797   -7.5832074      646.059  0.023717291  0.023553108            3 
 2271000   0.87875274   -7.5240823    651.82759  0.023918523  0.023546774            2 
 2272000    0.8872017   -7.5335725    647.43121  0.023746743  0.023540536            2 
 2273000   0.89150345   -7.5628913    648.32611  0.023769105  0.023534243            3 
 2274000   0.89626714   -7.5656673    649.04844  0.023785123  0.023527874            4 
 2275000   0.87916942   -7.5196355    648.73638  0.023763237  0.023521557            2 
 2276000   0.89652875   -7.5592823    649.66947  0.023786961  0.023515262            4 
 2277000   0.89957611    -7.527409    648.92504   0.02374927  0.023508922            3 
 2278000   0.87850282   -7.5506714    649.44833  0.023757987  0.023502556            2 
 2279000   0.90154498    -7.526263    649.16084   0.02373705   0.02349619            4 
 2280000   0.87129897   -7.5312043    647.20141  0.023655022  0.023489794            3 
 2281000   0.88333878   -7.5443817    647.70596  0.023663085  0.023483431            2 
 2282000   0.86810847   -7.5446446    649.82839  0.023730222  0.023477055            4 
 2283000    0.8710027   -7.5723938    648.28122  0.023663353  0.023470702            4 
 2284000   0.87493775   -7.5081885    650.35851  0.023728784  0.023464386            1 
 2285000   0.89436011   -7.5055475    650.52542  0.023724487  0.023458182            3 
 2286000   0.90756156   -7.4834022    652.27599  0.023777923  0.023451986            1 
 2287000   0.88056379   -7.5048808     651.7182  0.023747201  0.023445804            5 
 2288000    0.8780303   -7.5022201    649.99999  0.023674242   0.02343964            2 
 2289000    0.9058233   -7.5336215     650.2596  0.023673351  0.023433394            3 
 2290000   0.89920677     -7.56126    649.89395  0.023649707  0.023427135            2 
 2291000   0.87961414   -7.5454813    649.24887   0.02361592  0.023420846            4 
 2292000   0.89432803   -7.5623618    650.66807  0.023657216  0.023414488            3 
 2293000   0.88314439   -7.5730368    648.78003  0.023578283  0.023408127            2 
 2294000   0.87060609   -7.5467898    649.41754  0.023591163  0.023401706            2 
 2295000   0.87314252   -7.5678724    648.14229  0.023534578  0.023395279            2 
 2296000   0.87613157   -7.5812026    647.29438  0.023493553  0.023388854            2 
 2297000   0.86887262   -7.5534608    650.05057  0.023583318  0.023382446            2 
 2298000   0.88111817   -7.5510798    648.44787  0.023514936  0.023376058            2 
 2299000   0.88636444   -7.5578679    650.14629  0.023566271  0.023369651            4 
 2300000   0.89019513   -7.5462947    650.74271  0.023577634  0.023363198            3 
 2301000   0.87714854   -7.5527496    650.28429  0.023550786  0.023356825            3 
 2302000    0.8751709    -7.568239    649.53574  0.023513457  0.023350422            1 
 2303000   0.87123192   -7.5458388    649.17271  0.023490111  0.023343993            3 
 2304000   0.88810242    -7.542025    651.38793  0.023560038  0.023337586            3 
 2305000   0.88420577    -7.553118    650.55372  0.023519657  0.023331227            3 
 2306000   0.87063635   -7.5511757    652.31814   0.02357322  0.023324826            2 
 2307000   0.89578399   -7.5485328    652.21483   0.02355927  0.023318426            2 
 2308000   0.88442222   -7.5389356    651.95594  0.023539715  0.023312027            4 
 2309000   0.90252563   -7.5292224    652.56342  0.023551444  0.023305631            4 
 2310000   0.88568429    -7.550338    651.52498  0.023503787  0.023299219            1 
 2311000   0.88455905   -7.5651968    649.41433  0.023417508  0.023292754            4 
 2312000   0.89312974   -7.5184966    651.28221  0.023474705  0.023286345            3 
 2313000   0.88890199    -7.519831    652.34657  0.023502903  0.023280022            2 
 2314000   0.89668542   -7.5442275    651.20484  0.023451629  0.023273695            2 
 2315000   0.87994983   -7.5461429    652.98877  0.023505715   0.02326734            3 
 2316000   0.90017717   -7.5468508    653.61359  0.023518048  0.023261018            3 
 2317000   0.87498372   -7.5375463    651.96644  0.023448656  0.023254618            5 
 2318000   0.87245303   -7.5169744    651.93784  0.023437512  0.023248307            4 
 2319000   0.86180136   -7.5522101    654.04999  0.023503306  0.023241996            2 
 2320000   0.89182555     -7.52432    653.90689  0.023488035  0.023235651            5 
 2321000    0.8803268   -7.5579347    652.69408   0.02343437  0.023229272            3 
 2322000   0.86635863    -7.546563    652.78754  0.023427632  0.023222871            2 
 2323000   0.86626606   -7.5497658    654.44808  0.023477116  0.023216523            1 
 2324000    0.8704498   -7.5523001      653.933  0.023448544  0.023210159           11 
 2325000   0.87236692   -7.5681335    651.88569  0.023365078  0.023203829            6 
 2326000   0.87575737   -7.5071156    657.21964  0.023546132  0.023197506            4 
 2327000    0.8742374   -7.5409827      655.083  0.023459497  0.023191219            5 
 2328000   0.87160523   -7.5361699    655.51798  0.023464991  0.023184921            2 
 2329000   0.89692793   -7.5509135    655.19554  0.023443378  0.023178617            2 
 2330000   0.88429539   -7.5587881    653.61518  0.023376795   0.02317233            2 
 2331000   0.90512701   -7.5601079    655.98813  0.023451599   0.02316606            1 
 2332000   0.87420695    -7.565826    653.22822  0.023342918  0.023159757            2 
 2333000   0.88136627   -7.5374184    654.62561  0.023382826  0.023153444            2 
 2334000   0.88440387   -7.5297165    654.64959  0.023373664  0.023147138            2 
 2335000   0.90655016   -7.5729259    655.45864  0.023392528  0.023140815            2 
 2336000   0.87417813   -7.5498578    655.89744  0.023398168  0.023134476            3 
 2337000   0.86503482   -7.5630105    655.07615   0.02335887  0.023128151            3 
 2338000   0.87895627   -7.5885766    655.07769  0.023348934  0.023121808            3 
 2339000   0.88603274   -7.5434315    656.04586  0.023373445  0.023115536            5 
 2340000   0.87260372   -7.5342255    656.43942  0.023377472  0.023109197            2 
 2341000   0.87900364   -7.5506306    655.45714  0.023332519  0.023102896            3 
 2342000   0.88536341    -7.510238    656.10716  0.023345686  0.023096621            9 
 2343000   0.88989831   -7.5821697    654.95573  0.023294769  0.023090362            2 
 2344000   0.86961794   -7.5755765    656.72989  0.023347906  0.023084042            2 
 2345000   0.88985724    -7.533365     657.0234   0.02334838  0.023077768            4 
 2346000   0.88621926   -7.5556641     657.7984  0.023365956  0.023071498            1 
 2347000   0.88532551   -7.5425597    657.93551  0.023360869  0.023065208            4 
 2348000   0.87002215   -7.5395838     657.5247  0.023336339  0.023058936            4 
 2349000   0.85271288    -7.551459    656.30965    0.0232833  0.023052704            2 
 2350000   0.87376824   -7.5219864    660.11991  0.023408507  0.023046484            3 
 2351000   0.89152377   -7.5461135    655.14263  0.023222127  0.023040313            4 
 2352000   0.89169618    -7.543718    658.08689  0.023316571  0.023034084            2 
 2353000    0.8673636   -7.5485544    658.61816  0.023325477  0.023027845            3 
 2354000   0.87187106   -7.5633248    658.00313  0.023293795  0.023021618            2 
 2355000   0.89026265   -7.5440791     657.7963  0.023276585  0.023015397            2 
 2356000   0.87625268   -7.5794151    656.79832  0.023231406   0.02300912            2 
 2357000   0.87744948    -7.578522    657.96271  0.023262718  0.023002856            2 
 2358000   0.87006378   -7.5624426    657.80871   0.02324741  0.022996595            2 
 2359000   0.87585208   -7.5910889    657.07488  0.023211632   0.02299033            3 
 2360000   0.88040344   -7.5877038    656.48129  0.023180837  0.022983966            3 
 2361000   0.89268858   -7.5516548    657.90342  0.023221213  0.022977622            1 
 2362000    0.8894892   -7.5947321    656.54814  0.023163567  0.022971279            2 
 2363000   0.88350591   -7.5674403    655.55102    0.0231186  0.022964936            1 
 2364000    0.8771281   -7.5695307     657.3552   0.02317242  0.022958562            3 
 2365000   0.87810261   -7.6072001    657.10098  0.023153664  0.022952144            2 
 2366000   0.87924163   -7.5712349    656.65446  0.023128151  0.022945691            3 
 2367000   0.87428499   -7.5555755    657.27001  0.023140051  0.022939341            7 
 2368000   0.88551133    -7.599899     657.5998  0.023141885  0.022932984            3 
 2369000   0.86363466   -7.5514254    659.39664  0.023195323  0.022926691            4 
 2370000   0.87063535   -7.5826618    658.49431  0.023153808  0.022920343            1 
 2371000   0.86168823   -7.5491065     658.9306  0.023159377  0.022914037            3 
 2372000   0.85134278   -7.5497795    658.84712  0.023146681  0.022907761            2 
 2373000   0.88169341   -7.5668855    658.65326  0.023130119  0.022901458            4 
 2374000   0.87527611   -7.5596631    658.34158  0.023109435  0.022895152            4 
 2375000    0.8754618   -7.5490059    660.34149  0.023169877  0.022888848            3 
 2376000   0.87062488   -7.5536495    661.66643  0.023206595  0.022882587            2 
 2377000   0.85414662   -7.5703996    658.87746  0.023099055  0.022876278            5 
 2378000   0.87161313   -7.5586167    659.29537  0.023103987  0.022869938            1 
 2379000   0.86493553   -7.5776413    659.87343  0.023114524  0.022863656            2 
 2380000   0.88139655   -7.5803138    660.45489  0.023125171  0.022857358            2 
 2381000   0.86042023   -7.5968115    660.33886  0.023111398  0.022851108            5 
 2382000   0.87552224   -7.5308755    661.20773  0.023132092   0.02284489            2 
 2383000    0.8543075   -7.5706368    660.17405  0.023086237  0.022838681            2 
 2384000   0.86652285    -7.588787    661.99783  0.023140304   0.02283244            3 
 2385000   0.86840357   -7.5815007    660.64637  0.023083381  0.022826145            4 
 2386000   0.85697763    -7.590101    661.09431  0.023089351   0.02281989            2 
 2387000   0.89277806   -7.5908757    662.49679  0.023128641  0.022813638            3 
 2388000   0.88511597   -7.5860505    661.49343  0.023083942  0.022807429            2 
 2389000   0.85971115   -7.5748573    661.58267  0.023077392  0.022801219            4 
 2390000   0.86527827    -7.547259     661.3792  0.023060641  0.022795065            2 
 2391000   0.85800692   -7.5606119    662.93972  0.023105385  0.022788931            1 
 2392000   0.87432763    -7.553855    662.72589  0.023088277  0.022782821            1 
 2393000   0.86968119   -7.5584448    662.19833  0.023060257  0.022776751            2 
 2394000   0.86882931    -7.555995    663.26357  0.023087704  0.022770655            6 
 2395000   0.86198257   -7.5607968     663.6633  0.023091973  0.022764522            2 
 2396000   0.86966413   -7.5919877     662.8566  0.023054278  0.022758425            1 
 2397000   0.86358826   -7.5637674    662.10887  0.023018664  0.022752269            2 
 2398000   0.87260185   -7.5987607     660.8258  0.022964477  0.022746104            8 
 2399000   0.89278664   -7.5982706    663.49419  0.023047596  0.022739906            3 
 2400000   0.87812193   -7.5587184    663.92279  0.023052875  0.022733804            5 
 2401000   0.85765542   -7.5685148    662.70581  0.023001035  0.022727697            2 
 2402000   0.86492465   -7.5521777    664.12925  0.023040843  0.022721582            1 
 2403000    0.8808535   -7.5684317    664.06262  0.023028944  0.022715484            1 
 2404000   0.85622808   -7.5605849    663.67742  0.023006012  0.022709359            4 
 2405000   0.87564889   -7.5733167    663.57582  0.022992925  0.022703236            2 
 2406000   0.87330971   -7.6072049    663.67299  0.022986734  0.022697111            5 
 2407000   0.86995791   -7.5429569    666.00753  0.023058009  0.022691017            1 
 2408000   0.86908993   -7.5891094    662.40735  0.022923842  0.022684876            3 
 2409000   0.85572188    -7.599803    662.64859  0.022922672  0.022678661            1 
 2410000   0.87000801   -7.6036273    662.51107  0.022908405  0.022672431            1 
 2411000   0.86945471   -7.5766062    663.04539  0.022917372  0.022666243            1 
 2412000   0.87015717   -7.5740522    663.27784  0.022915901  0.022660002            6 
 2413000    0.8661516   -7.6132069    662.93836   0.02289468  0.022653791            2 
 2414000   0.87069649   -7.5822494    663.54051  0.022905983  0.022647535            4 
 2415000   0.88489515    -7.566595    662.19894  0.022850205  0.022641224            4 
 2416000   0.86677872   -7.5709446    663.00768  0.022868642   0.02263495            4 
 2417000   0.86700718   -7.5817098    663.48885   0.02287577  0.022628594            3 
 2418000   0.86043959   -7.6050907    663.71437  0.022874082   0.02262227            2 
 2419000   0.85520304   -7.6176428    662.35671  0.022817856  0.022615943            2 
 2420000   0.87253298   -7.5834875    662.51933  0.022814027  0.022609616            4 
 2421000   0.85626062   -7.5657851    663.86377   0.02285088  0.022603355            3 
 2422000   0.86067247   -7.5748751    663.83821  0.022840566  0.022597063            1 
 2423000   0.86450682   -7.5959828    662.65323  0.022790385  0.022590771            3 
 2424000   0.86315996   -7.6129412    664.00787  0.022827553  0.022584515            6 
 2425000   0.87239304   -7.6140447    663.93799  0.022815738  0.022578258            4 
 2426000   0.84235544   -7.5870613    665.05801  0.022844807   0.02257205            7 
 2427000   0.85206129   -7.6022171    664.67638   0.02282229  0.022565834            2 
 2428000   0.85425779   -7.6268954    662.22309  0.022728689  0.022559571            4 
 2429000   0.85874629    -7.584402    663.96978  0.022779257  0.022553292            3 
 2430000   0.88762733   -7.6065295     663.6229  0.022757987  0.022546989            4 
 2431000   0.87459381   -7.5604085    665.32863  0.022807097  0.022540735            3 
 2432000   0.86140194   -7.5770479    666.15289  0.022825963   0.02253454            1 
 2433000   0.85058317   -7.5924997    664.34081  0.022754515  0.022528311            2 
 2434000   0.85715527   -7.5883523    666.22119  0.022809545  0.022522071            2 
 2435000   0.86213399   -7.5745302    665.88969  0.022788832  0.022515833            2 
 2436000   0.86707307   -7.5624682    664.42477  0.022729364  0.022509593            3 
 2437000   0.86029799   -7.5702257    666.42542   0.02278845  0.022503439            3 
 2438000   0.85978913   -7.5933666    665.32806  0.022741594  0.022497228            2 
 2439000   0.86950029   -7.5749822    667.83417  0.022817896   0.02249105            2 
 2440000    0.8690536    -7.584275    666.29555  0.022755995  0.022484828            2 
 2441000   0.87134453    -7.576082    667.68184     0.022794  0.022478638            2 
 2442000   0.85682585    -7.612201    665.49326   0.02270998  0.022472455            4 
 2443000   0.86235875   -7.5759019    665.70064  0.022707758  0.022466227            3 
 2444000   0.83610558   -7.5936763    667.19372  0.022749377  0.022460023            2 
 2445000   0.84814322   -7.5765025    667.74017  0.022758697  0.022453848            2 
 2446000   0.86423236   -7.6118051    667.86692  0.022753711  0.022447669            3 
 2447000   0.86523914   -7.5841613    667.20001    0.0227217  0.022441502            2 
 2448000   0.86374577   -7.5771547    664.14292  0.022608351  0.022435221            5 
 2449000   0.87137621   -7.6072942    665.63966   0.02265005  0.022428938            2 
 2450000   0.84918964   -7.6043529    666.47839  0.022669333  0.022422701            2 
 2451000   0.85555732   -7.6130563    665.91467  0.022640918  0.022416432            3 
 2452000   0.86249355   -7.5940192    666.35819  0.022646757  0.022410169            2 
 2453000   0.86540864   -7.6311513    666.09607   0.02262862  0.022403889            2 
 2454000    0.8559829   -7.5950749    667.78082   0.02267661  0.022397569            2 
 2455000   0.85502595   -7.5939075    667.73959  0.022665974  0.022391375            1 
 2456000   0.86446553   -7.6079792     669.4056  0.022713274  0.022385138            2 
 2457000   0.86805418   -7.5639593     668.1203  0.022660436  0.022378925            1 
 2458000   0.85682023   -7.5784057    667.23842  0.022621319  0.022372703            2 
 2459000    0.8427172   -7.5690512    667.54078  0.022622366  0.022366478            2 
 2460000   0.85973579   -7.6170415    666.78588  0.022587598  0.022360271            3 
 2461000   0.86070806   -7.5643806    669.32347  0.022664346  0.022354091            2 
 2462000   0.86130959    -7.587938    668.66345    0.0226328  0.022347976            3 
 2463000    0.8658336    -7.598729    669.13932  0.022639712  0.022341863            2 
 2464000   0.85745979   -7.5885086    668.93003  0.022623445  0.022335715            4 
 2465000   0.87494154   -7.5916044    670.54362  0.022668817  0.022329618            3 
 2466000   0.85231671   -7.5838948    670.26276  0.022650134  0.022323465            2 
 2467000   0.84539449   -7.6200244    670.10377  0.022635582  0.022317301            5 
 2468000   0.84775742   -7.6206648    669.22693  0.022596803  0.022311102            3 
 2469000   0.86766709   -7.6187671     668.5189  0.022563754  0.022304896            3 
 2470000   0.84360628   -7.6355559    669.06704  0.022573112    0.0222987            3 
 2471000   0.83597873   -7.6253031     668.2758  0.022537293  0.022292486            2 
 2472000   0.86203657   -7.6131402    667.21579  0.022492442   0.02228625            4 
 2473000   0.85157096   -7.5696285    669.93109  0.022574845  0.022280057            7 
 2474000   0.85085505   -7.5792825    670.40214  0.022581586  0.022273907            3 
 2475000   0.87809029   -7.5800886    669.00807  0.022525524  0.022267757            2 
 2476000   0.86343242   -7.5779011     669.4045  0.022529769  0.022261545            5 
 2477000    0.8427224   -7.6307831      670.029  0.022541683    0.0222553            2 
 2478000   0.86862411   -7.6022428    669.08669  0.022500898  0.022249058            3 
 2479000   0.87881854   -7.5967522    669.28598   0.02249852  0.022242799            2 
 2480000   0.85319929   -7.6103076     668.1361   0.02245081  0.022236513            2 
 2481000   0.83454568   -7.5767671    668.94762  0.022469019  0.022230258            2 
 2482000   0.83425449   -7.6051433    667.70737  0.022418324  0.022223991            2 
 2483000   0.84451086   -7.6083267    668.66085  0.022441296  0.022217718            2 
 2484000   0.85296478   -7.6538049    668.25564  0.022418668  0.022211431            2 
 2485000   0.86669701   -7.6077429    669.02241  0.022435359   0.02220516            4 
 2486000   0.85904316   -7.5931373    668.82848  0.022419834  0.022198887            2 
 2487000   0.85504326   -7.6190679    669.65769  0.022438604  0.022192593            3 
 2488000   0.82682392   -7.6319706    670.85141  0.022469568  0.022186298            3 
 2489000   0.83950369   -7.5941312    669.34462  0.022410092  0.022180067            3 
 2490000   0.85447088   -7.6070088    668.27843  0.022365409  0.022173811            2 
 2491000   0.86041061   -7.6007438    669.57067  0.022399661  0.022167549            2 
 2492000    0.8350759   -7.6376218    669.50936  0.022388622  0.022161303            2 
 2493000   0.85085323   -7.6000556    670.08885  0.022399012  0.022155027            2 
 2494000   0.86256283   -7.6252651    668.86055  0.022348989  0.022148807            2 
 2495000   0.87092969   -7.6114762    669.91661  0.022375304  0.022142556            5 
 2496000   0.84892338   -7.6359176     669.8768  0.022365011  0.022136299            3 
 2497000   0.84708917   -7.6053357    669.72213  0.022350892  0.022130068            2 
 2498000   0.84718443   -7.6563309       670.41  0.022364892  0.022123841            1 
 2499000   0.85451693   -7.6382581    670.62633  0.022363156  0.022117601            8 
 2500000   0.82670021   -7.5816562    670.86925  0.022362308  0.022111357            7 
 2501000   0.82722558   -7.6156401    671.21835  0.022364999  0.022105141            3 
 2502000   0.83899598   -7.5589595    672.77305  0.022407842  0.022098947            2 
 2503000   0.84405842   -7.5897198    672.74902   0.02239809  0.022092817            3 
 2504000   0.84573142   -7.6229846    671.94629   0.02236243  0.022086606            1 
 2505000    0.8659713   -7.5995968    670.93468   0.02231985  0.022080358            2 
 2506000   0.84366134   -7.6394801    670.75588  0.022304997  0.022074082            3 
 2507000    0.8397743    -7.600153    672.02928  0.022338428  0.022067807            2 
 2508000   0.84995502   -7.6175251    670.02168  0.022262815  0.022061539            1 
 2509000   0.84381441    -7.599521    672.13646  0.022324182  0.022055281            2 
 2510000   0.85866249   -7.6230809     672.6221  0.022331411  0.022048983            3 
 2511000   0.84987387   -7.5996872     673.0928  0.022338139  0.022042756            3 
 2512000   0.83845654    -7.616111    669.55315  0.022211822  0.022036547            4 
 2513000   0.85644828    -7.653976    671.86517  0.022279651  0.022030279            5 
 2514000   0.84385238   -7.6225142    671.17367  0.022247868  0.022023988            3 
 2515000   0.86924333   -7.5905106    671.40387  0.022246649  0.022017737            4 
 2516000   0.84659477   -7.6033616    671.40479  0.022237837  0.022011475            2 
 2517000   0.86456797   -7.6231624    671.75149  0.022240481  0.022005201            2 
 2518000   0.85598946   -7.6060576    672.77162   0.02226541  0.021998948            2 
 2519000   0.85862796   -7.6302988    671.28752  0.022207474  0.021992728            7 
 2520000   0.85040459   -7.6292848    670.75638  0.022181097  0.021986443            3 
 2521000   0.84160778   -7.5746763     672.3574  0.022225222  0.021980208            5 
 2522000   0.84095393   -7.6038158     672.1369  0.022209123  0.021973912            3 
 2523000   0.85743814   -7.6399661    673.11146   0.02223251  0.021967631            5 
 2524000   0.86916786   -7.6071857    672.29448  0.022196727  0.021961308            2 
 2525000   0.85631432   -7.6378436    670.90934  0.022142222  0.021954983            2 
 2526000   0.85997537   -7.6297445    671.97999  0.022168778  0.021948681            2 
 2527000   0.84855104   -7.5687098     674.1444  0.022231381  0.021942393            1 
 2528000   0.83888539   -7.5991535    674.85735  0.022246089  0.021936137            4 
 2529000   0.83675394   -7.6063693     674.6468  0.022230355  0.021929909            6 
 2530000    0.8514026   -7.6208665    672.97616   0.02216654  0.021923687            3 
 2531000   0.84937653   -7.6357623    672.90816  0.022155543    0.0219174            3 
 2532000   0.84964664    -7.619103    675.81572  0.022242487  0.021911117            3 
 2533000    0.8503191   -7.6257487    673.08941  0.022144013  0.021904833            2 
 2534000   0.83432034   -7.6213336    673.17859  0.022138207   0.02189857            3 
 2535000   0.83442687   -7.6293152    673.38917  0.022136396  0.021892304            5 
 2536000   0.85134315   -7.6522009    672.99009  0.022114553  0.021886079            3 
 2537000   0.84635813    -7.621312    672.72169  0.022097021   0.02187985            5 
 2538000   0.84553915   -7.6324964    674.41123  0.022143789  0.021873662            2 
 2539000   0.84865372   -7.6174864    673.81401  0.022115466  0.021867414            3 
 2540000   0.83317817   -7.6325493    675.12332  0.022149715  0.021861226            6 
 2541000   0.83829269   -7.6233686    674.43216  0.022118331  0.021855027            3 
 2542000   0.85849836   -7.6248945    674.11051  0.022099086  0.021848822            1 
 2543000   0.84270136   -7.6249815    674.42539  0.022100714  0.021842594            4 
 2544000   0.85304024   -7.6444197    675.57225  0.022129594  0.021836357            3 
 2545000   0.83730126   -7.6462979    674.39979  0.022082508   0.02183016            2 
 2546000   0.84451972   -7.6618924    674.74598  0.022085166  0.021823942            2 
 2547000   0.83638545    -7.626174    674.55832  0.022070355  0.021817694            3 
 2548000    0.8396977   -7.6389709    673.70899  0.022033915  0.021811461            2 
 2549000   0.85193501    -7.671453    674.22154  0.022042028  0.021805189            3 
 2550000   0.86150597   -7.6773778    674.76854  0.022051259  0.021798951            3 
 2551000   0.85443347   -7.6291422    675.83915  0.022077589  0.021792741            2 
 2552000   0.83361875   -7.6213278    674.53846  0.022026465  0.021786535            3 
 2553000   0.83054073   -7.6146364    675.10871  0.022036451  0.021780347            2 
 2554000   0.83307699   -7.6294327    674.41749  0.022005269  0.021774124            3 
 2555000   0.84726655   -7.6336281     677.1675   0.02208635  0.021767929            2 
 2556000   0.83318805   -7.6528824    675.27988  0.022016167  0.021761724            3 
 2557000   0.84452882   -7.6327298    675.67737  0.022020511  0.021755575            2 
 2558000   0.82577941   -7.6463597      675.325  0.022000424  0.021749378            2 
 2559000   0.82502244   -7.6614421    673.78747  0.021941757  0.021743192            2 
 2560000   0.83186333   -7.6466859    675.39603  0.021985548  0.021737006            2 
 2561000   0.84815169   -7.6301356    676.45764  0.022011507  0.021730816            3 
 2562000   0.85099613   -7.6529549    675.72916  0.021979221  0.021724646            3 
 2563000   0.84288451   -7.6550693    676.34368  0.021990626  0.021718479            3 
 2564000   0.82351803   -7.6476449    676.81408  0.021997337  0.021712308            2 
 2565000   0.83536412    -7.638386     677.5303  0.022012031  0.021706137            2 
 2566000   0.82635254    -7.634453    676.09573  0.021956863   0.02169995            3 
 2567000   0.81573015    -7.633518    676.66728  0.021966864  0.021693758            3 
 2568000   0.84213526   -7.6120827    677.10014  0.021972357  0.021687619            2 
 2569000   0.82800333   -7.6523152    677.74478  0.021984714  0.021681438            2 
 2570000   0.85239562   -7.6432057    675.31286  0.021897304  0.021675274            5 
 2571000   0.84206551   -7.6612626    676.88691  0.021939807  0.021669119            3 
 2572000   0.83333196   -7.6475232     675.1109  0.021873733  0.021662923            2 
 2573000   0.84134203   -7.6682783    677.13336  0.021930735  0.021656711            2 
 2574000   0.82552299   -7.6873123    676.56034  0.021903663  0.021650484            4 
 2575000   0.83059377   -7.6572694    676.33248  0.021887782  0.021644279            5 
 2576000   0.84552082   -7.6413801    678.12098  0.021937144  0.021638121            4 
 2577000   0.84064421    -7.653452    677.43291  0.021906381  0.021631945            3 
 2578000   0.81998998   -7.6533615    677.23711  0.021891554  0.021625777            2 
 2579000   0.83302687   -7.6155226    678.09082  0.021910651   0.02161963            1 
 2580000   0.84353495   -7.6403852    677.85646  0.021894588  0.021613513            2 
 2581000   0.84183528   -7.6243576    678.06533  0.021892849  0.021607429            2 
 2582000    0.8568955   -7.6459795    678.75286   0.02190656  0.021601336            1 
 2583000   0.86231241   -7.6021045    680.71276   0.02196131  0.021595266            6 
 2584000   0.85094349   -7.6474692    677.51511  0.021849687  0.021589151            3 
 2585000   0.82571992    -7.624722    678.21315  0.021863738  0.021582993            2 
 2586000   0.84567323    -7.635624    678.62601  0.021868588  0.021576843            2 
 2587000   0.82986366   -7.6409893    678.87714  0.021868224  0.021570708            2 
 2588000   0.88934031   -7.6711553     677.4865  0.021814996  0.021564531            4 
 2589000   0.85818302   -7.6386587    678.14067  0.021827626  0.021558379            5 
 2590000   0.82772927   -7.6331436    678.58476  0.021833486  0.021552233            3 
 2591000    0.8401788   -7.6590668    678.23823  0.021813914  0.021546086            3 
 2592000   0.83874719   -7.6478445    680.10979   0.02186567  0.021539878            1 
 2593000   0.85019242   -7.6696312    676.59736  0.021744355  0.021533701            3 
 2594000   0.84228316   -7.6790153    678.13704  0.021785435  0.021527469            2 
 2595000   0.83767808   -7.6670255    678.41772  0.021786054  0.021521316            3 
 2596000   0.83879896     -7.66669    678.92395  0.021793912  0.021515159            2 
 2597000   0.83027069   -7.6823411     679.6457   0.02180868  0.021509016            2 
 2598000   0.84256512   -7.6534223    679.26895  0.021788201  0.021502863            4 
 2599000   0.83446992   -7.6563947    679.11485  0.021774876  0.021496707            6 
 2600000    0.8319023   -7.6811152    679.89757  0.021791589  0.021490542            2 
 2601000   0.84409322    -7.665501    680.22572  0.021793724  0.021484357            3 
 2602000   0.85994224   -7.6650318    678.39995  0.021726875  0.021478217            2 
 2603000   0.82639652   -7.6712139    678.82535  0.021732147  0.021472058            5 
 2604000   0.85580316   -7.6395356    681.60904  0.021812885  0.021465962            3 
 2605000   0.82781683   -7.6763561    678.80541  0.021714824  0.021459848            7 
 2606000   0.84230972   -7.6322773    681.32641  0.021787107  0.021453741            2 
 2607000   0.84192938   -7.6568913    680.73996  0.021760004  0.021447614            4 
 2608000   0.81728944   -7.6988147    680.07373  0.021730372  0.021441512            1 
 2609000   0.83775632   -7.6360035     681.3087  0.021761489  0.021435378            2 
 2610000   0.84462627   -7.6855213    681.47535  0.021758472  0.021429295            2 
 2611000   0.83408388   -7.6343705     682.0579  0.021768732  0.021423166            3 
 2612000   0.83767742   -7.6845568    681.69876  0.021748939  0.021417072            6 
 2613000   0.83923388   -7.6426389    681.29265  0.021727664  0.021411001            2 
 2614000   0.81838973   -7.6542051    683.59854  0.021792863   0.02140495            3 
 2615000   0.83319881   -7.6425096    680.95933  0.021700425  0.021398856            3 
 2616000   0.82523927   -7.6571444    681.05797  0.021695272  0.021392762            3 
 2617000   0.83956032   -7.6460633    680.88752  0.021681554    0.0213867            4 
 2618000   0.84261969   -7.6656618      682.125  0.021712662  0.021380588            5 
 2619000   0.84198525   -7.6634749    682.16103  0.021705518  0.021374485            4 
 2620000   0.82771536    -7.659019    679.95564  0.021627088   0.02136843            3 
 2621000   0.84759681   -7.6902334    681.82532  0.021678282  0.021362339            2 
 2622000   0.82749658   -7.6426776    682.07626  0.021677989   0.02135625            3 
 2623000   0.81964601   -7.6783313    681.45569  0.021650009  0.021350189            3 
 2624000   0.83686422   -7.6052095    681.84104  0.021653996  0.021344128            4 
 2625000   0.82660204   -7.6568837    680.30607  0.021597018  0.021338082            3 
 2626000   0.81881741   -7.6630865    682.12718  0.021646585  0.021331975            5 
 2627000   0.82671723    -7.687182    679.72116  0.021562021  0.021325818            2 
 2628000    0.8253423   -7.6532761    680.85718  0.021589839  0.021319637            2 
 2629000   0.84067098   -7.6911485    680.75036  0.021578242  0.021313538            1 
 2630000   0.84445991   -7.6654594    683.29485  0.021650661  0.021307479            2 
 2631000   0.84572995   -7.6567395    684.35715  0.021676078  0.021301446            2 
 2632000   0.80774686   -7.6657397    682.44486  0.021607297  0.021295395            2 
 2633000   0.82753616   -7.6344196    682.78512  0.021609859  0.021289346            2 
 2634000   0.82039323   -7.6599396    682.64462   0.02159721  0.021283315            2 
 2635000   0.83325686   -7.6721607     684.1474   0.02163654  0.021277273            4 
 2636000   0.82216983   -7.6810288    684.07575  0.021626067  0.021271221            3 
 2637000   0.81103947    -7.687276    682.69245  0.021574152  0.021265119            2 
 2638000   0.83817658   -7.6632949    681.57737  0.021530748   0.02125903            2 
 2639000   0.84065733   -7.6641336    681.95149  0.021534403  0.021252935            3 
 2640000   0.83809679   -7.6430277    682.33687  0.021538411  0.021246805            3 
 2641000   0.83398853   -7.6761213    681.48848  0.021503486  0.021240712            8 
 2642000   0.83118181   -7.6511272    682.05114  0.021513094  0.021234595            2 
 2643000   0.81130134    -7.687387    682.73719  0.021526586  0.021228497            3 
 2644000   0.82645976   -7.6876044    681.46379  0.021478309  0.021222339            2 
 2645000   0.83147433   -7.6909395     682.2998  0.021496528  0.021216193            5 
 2646000   0.84309081   -7.6729582    682.01197  0.021479339  0.021210073            2 
 2647000   0.82998651   -7.6518527    682.11481  0.021474462  0.021203967            3 
 2648000   0.82511496   -7.6706372    682.61777  0.021482181  0.021197866            2 
 2649000   0.81303118   -7.6840638     682.0393  0.021455873  0.021191757            3 
 2650000   0.81221852   -7.6701611    683.69744  0.021499919  0.021185618            2 
 2651000   0.82549138   -7.6846774    681.68275  0.021428478  0.021179523            2 
 2652000   0.82074067   -7.6578592    683.94651  0.021491532  0.021173431            1 
 2653000   0.81731469   -7.6872147    683.02533  0.021454496  0.021167332            3 
 2654000   0.81308761     -7.64639    684.73572  0.021500117  0.021161251            2 
 2655000   0.81666154     -7.66558    684.47879  0.021483955   0.02115515            3 
 2656000   0.82879451    -7.695963    682.83966  0.021424437  0.021149044            2 
 2657000   0.83750255   -7.6420491    684.45729  0.021467109  0.021142961            2 
 2658000   0.82492791   -7.6467969    681.92674  0.021379695   0.02113691            3 
 2659000   0.82147286   -7.6976941    683.80071  0.021430384  0.021130866            3 
 2660000   0.81752938   -7.6723985    685.29113   0.02146902  0.021124815            2 
 2661000   0.81719161   -7.6572967    684.06308  0.021422494  0.021118723            2 
 2662000   0.82129822   -7.6618301    683.78186  0.021405643   0.02111262           10 
 2663000   0.81357144   -7.6670533    682.91483  0.021370473   0.02110655            3 
 2664000   0.83419221   -7.6920868    683.88376   0.02139276  0.021100459            1 
 2665000   0.83428229   -7.6631688    686.42909  0.021464324  0.021094383            3 
 2666000   0.81816561   -7.6960274    685.18618  0.021417422   0.02108835            3 
 2667000   0.83679632   -7.7027972    685.11453  0.021407153  0.021082289            2 
 2668000   0.81974383   -7.6813687     687.5087   0.02147391  0.021076271            2 
 2669000   0.82849982   -7.6555519    685.86957  0.021414686  0.021070255            3 
 2670000   0.82036399   -7.6569946    685.51792   0.02139569  0.021064298            6 
 2671000   0.82307356   -7.6784548    685.92092  0.021400253  0.021058341            2 
 2672000    0.8039311   -7.6778087    686.81243  0.021420048  0.021052351            7 
 2673000   0.81893251    -7.676936    686.67306   0.02140769  0.021046358            2 
 2674000   0.81689088    -7.663519    687.15203  0.021414611  0.021040375            1 
 2675000   0.81112619   -7.6643886    685.94599  0.021369034  0.021034388            3 
 2676000    0.8169916   -7.6949343    686.97439  0.021393074  0.021028384            6 
 2677000   0.81304853   -7.6400663    686.24314  0.021362319  0.021022388            2 
 2678000   0.80716169   -7.6692844    685.82106  0.021341208  0.021016394            2 
 2679000   0.81860291   -7.6771278    686.94759  0.021368284  0.021010409            3 
 2680000    0.8364713   -7.6650946     686.0521  0.021332466  0.021004447            4 
 2681000   0.82086022   -7.6654236    687.61662  0.021373139  0.020998491            4 
 2682000   0.82347993   -7.6503849    687.20841  0.021352486  0.020992564            3 
 2683000   0.81158155   -7.6869762    685.17141  0.021281259  0.020986607            3 
 2684000   0.82095661   -7.6767158    687.72425  0.021352591  0.020980667            2 
 2685000   0.81870737   -7.6767003    686.83457  0.021317026  0.020974694            1 
 2686000   0.80377459   -7.6615322    686.09352  0.021286098  0.020968729            4 
 2687000   0.82897494   -7.7055325    685.69484  0.021265812   0.02096273            4 
 2688000   0.82379242    -7.704153    685.34622  0.021247093    0.0209567            6 
 2689000   0.81471677   -7.7180288    687.07254  0.021292691  0.020950661            2 
 2690000    0.8273411   -7.7068055    686.51803  0.021267597   0.02094467            3 
 2691000   0.81755727   -7.6784744     687.8745    0.0213017  0.020938645           10 
 2692000   0.81085947   -7.7114477    687.71645  0.021288895  0.020932646            2 
 2693000   0.81608997   -7.6882953     685.7022  0.021218659  0.020926689            2 
 2694000   0.81812434   -7.6716719    686.95447   0.02124952  0.020920673            4 
 2695000   0.81136463   -7.6969573    687.11706  0.021246662  0.020914684            4 
 2696000      0.82122   -7.7107439    686.74361  0.021227238  0.020908711            3 
 2697000   0.81427011   -7.6881759    685.97347  0.021195571  0.020902702            3 
 2698000   0.81947164   -7.6726673    689.83936  0.021307121  0.020896702            2 
 2699000   0.81493846   -7.6546094    688.20895  0.021248887  0.020890729            1 
 2700000    0.8192151   -7.6965102     686.8551  0.021199231  0.020884746            2 
 2701000   0.80892198   -7.7000681     684.2975  0.021112474  0.020878741            2 
 2702000   0.83480541    -7.687934    687.42723  0.021201185  0.020872698            5 
 2703000    0.8336156   -7.6795683    688.60842  0.021229758  0.020866727            3 
 2704000   0.79969464     -7.66768    687.91975  0.021200683  0.020860759            2 
 2705000   0.82317867   -7.6754597     687.3654  0.021175767  0.020854813            3 
 2706000   0.81386952   -7.7003081    689.42454  0.021231355  0.020848836            2 
 2707000   0.80320665   -7.7003038    687.39995  0.021161185  0.020842817            5 
 2708000   0.84404314   -7.7021413    689.21988  0.021209376  0.020836823            5 
 2709000   0.80100909   -7.7014215    687.18197  0.021138857  0.020830809            4 
 2710000   0.80615393   -7.6797903    687.48969  0.021140519  0.020824844            3 
 2711000   0.79699516   -7.6949127    688.69829  0.021169872   0.02081888            2 
 2712000    0.8250123   -7.7047749    688.58439  0.021158567    0.0208129            2 
 2713000    0.8343821   -7.6953019     688.4811  0.021147595  0.020806941            2 
 2714000   0.81450389   -7.7211146    689.01665  0.021156247  0.020800972            2 
 2715000    0.8250731   -7.7027172    690.36921   0.02118997  0.020795022            3 
 2716000   0.80390656   -7.6931116    689.34735  0.021150815  0.020789071            4 
 2717000   0.79912183   -7.6986338    688.40721  0.021114195  0.020783145            2 
 2718000   0.79583735   -7.6768004    690.34966  0.021165982  0.020777205            1 
 2719000   0.80295679   -7.6990488    690.31904  0.021157259  0.020771252            4 
 2720000   0.80810092    -7.695531    689.63359   0.02112848  0.020765302            4 
 2721000   0.83655702   -7.7106295    689.67706  0.021122046  0.020759332            1 
 2722000   0.78102397   -7.7088809      690.022  0.021124847  0.020753383            1 
 2723000   0.81761401   -7.6802499    690.15263  0.021121087  0.020747422            2 
 2724000   0.82050322   -7.6913089    691.86703  0.021165781  0.020741514            1 
 2725000   0.84701522   -7.7018592    689.88797  0.021097491  0.020735579            1 
 2726000   0.82273959   -7.6839913    690.11131   0.02109658  0.020729611            1 
 2727000   0.83348048   -7.6851489    688.55504  0.021041286  0.020723681            3 
 2728000   0.82229331   -7.6573519    691.14599   0.02111272  0.020717764            2 
 2729000   0.81535222   -7.6912356    690.67728  0.021090671  0.020711859            4 
 2730000   0.80555159   -7.7269097     689.9119  0.021059582  0.020705938            4 
 2731000   0.80277936   -7.6919247    691.26067  0.021093027  0.020700002            3 
 2732000   0.81593883   -7.7185219    690.23732  0.021054091  0.020694105            1 
 2733000   0.81216011   -7.6804883    689.87126  0.021035226  0.020688186            2 
 2734000   0.80388433   -7.6917847    690.81684  0.021056353  0.020682258            3 
 2735000   0.81808477   -7.7193545    691.32636  0.021064179  0.020676348            4 
 2736000   0.81804352   -7.7114368    690.22369  0.021022895  0.020670441            4 
 2737000   0.79789852   -7.7029118    691.84851  0.021064685  0.020664507            3 
 2738000   0.82389631   -7.6994567    690.25931  0.021008623  0.020658585            2 
 2739000   0.81400101   -7.7250692    690.74297  0.021015668  0.020652646            2 
 2740000   0.80559747   -7.6966319    691.53765  0.021032167  0.020646713            4 
 2741000   0.81993865   -7.6980098    691.92744  0.021036344  0.020640817            5 
 2742000   0.80772236   -7.7164793    690.91754   0.02099798  0.020634897            2 
 2743000    0.8088717   -7.7193772    691.40853  0.021005241  0.020628985            1 
 2744000   0.80480243   -7.7130367    690.80445  0.020979241  0.020623102            5 
 2745000    0.8028414   -7.7156795    692.15938  0.021012732    0.0206172            2 
 2746000   0.81632437   -7.7132213    691.15243  0.020974521  0.020611303            2 
 2747000   0.82866841   -7.7009719    690.77829  0.020955536  0.020605379            2 
 2748000    0.8193961   -7.7063777    691.21494  0.020961152  0.020599506            3 
 2749000   0.81506127   -7.7073245    690.35409  0.020927431  0.020593612            6 
 2750000   0.81083835   -7.7329159    691.12544  0.020943195  0.020587696            4 
 2751000    0.8207699   -7.6940135    693.02434  0.020993104  0.020581824            4 
 2752000   0.82498518   -7.7114409     691.5349  0.020940374  0.020575966            4 
 2753000   0.79585863   -7.6931627    692.39217  0.020958717  0.020570085            2 
 2754000    0.8312393   -7.7164301    691.70964  0.020930454  0.020564186            5 
 2755000    0.8282011   -7.6813359     694.1183  0.020995714  0.020558319            4 
 2756000   0.79822846   -7.7239998    691.95474  0.020922676  0.020552451            3 
 2757000   0.80782695   -7.7211958    693.08905  0.020949373  0.020546554            2 
 2758000   0.81628154   -7.7457078    692.18624  0.020914499  0.020540684            2 
 2759000   0.81101696   -7.6994649    693.56428   0.02094854  0.020534775            3 
 2760000   0.81581513   -7.7058069    693.68411  0.020944569  0.020528897            2 
 2761000   0.80529285   -7.6982487    693.03561  0.020917409  0.020523055            2 
 2762000   0.80678821   -7.6959755    694.21487  0.020945416  0.020517202            2 
 2763000    0.8120839   -7.7013979    694.45448  0.020945062  0.020511356            3 
 2764000   0.83185243   -7.7000438     694.0132   0.02092418  0.020505484            2 
 2765000   0.78642981   -7.7137481    694.69956  0.020937298  0.020499582            1 
 2766000   0.81673675   -7.7247014    694.63352  0.020927739  0.020493741            3 
 2767000   0.80597117   -7.7082953    693.05775  0.020872719  0.020487915            1 
 2768000   0.81119698   -7.7193776    693.79351  0.020887329  0.020482062            2 
 2769000   0.78541836   -7.7013772    695.13382  0.020920122  0.020476259            4 
 2770000   0.80496476   -7.7055733    693.45301  0.020862004  0.020470455            2 
 2771000   0.80329529   -7.7159278    693.35904  0.020851649  0.020464587            3 
 2772000   0.80708193   -7.6739652    695.88887   0.02092018  0.020458783            3 
 2773000   0.81037292   -7.6984884    694.16155  0.020860727  0.020452974            7 
 2774000   0.79560393   -7.7047527    693.58777   0.02083597  0.020447185            3 
 2775000   0.81539986    -7.720019    694.83727  0.020865984  0.020441395            2 
 2776000   0.80818402   -7.7160451    695.27347  0.020871562  0.020435604            1 
 2777000   0.79960838   -7.7041532    695.51321   0.02087124  0.020429836            4 
 2778000    0.8034125   -7.7598615    694.49069  0.020833054  0.020424083            4 
 2779000   0.80651382   -7.7212381    697.13848  0.020904956  0.020418358            2 
 2780000   0.80627782   -7.7109441    696.73953  0.020885477  0.020412627            3 
 2781000   0.80328352   -7.6950264    696.09933  0.020858784  0.020406921            3 
 2782000   0.81364905    -7.688389    697.70241  0.020899305  0.020401186            2 
 2783000   0.80293804   -7.7596551    694.91849  0.020808435  0.020395466            4 
 2784000   0.82372366   -7.7194315    695.67218  0.020823521   0.02038975            2 
 2785000   0.80417019   -7.7117026    695.13921  0.020800096  0.020384011            8 
 2786000   0.81090585   -7.7016733    695.89946   0.02081537  0.020378267            2 
 2787000   0.80061375   -7.7134588    694.29861  0.020760035  0.020372543            5 
 2788000   0.79525295   -7.7143303    695.53709  0.020789607  0.020366781            3 
 2789000   0.80922961   -7.7110089    696.20991  0.020802256  0.020361042            3 
 2790000   0.81970668   -7.7250204    695.20103  0.020764666  0.020355253            3 
 2791000   0.81904047   -7.7387849    694.64063  0.020740494  0.020349434            2 
 2792000   0.80454665   -7.7463569    696.31242  0.020782964  0.020343653            2 
 2793000   0.81540531   -7.7268099     697.3371  0.020806096  0.020337897            2 
 2794000   0.80478611   -7.7456506    696.42756  0.020771521  0.020332163            2 
 2795000   0.80673282   -7.7378999    697.02993  0.020782049  0.020326418            1 
 2796000    0.8126942   -7.7390676    696.92729  0.020771557  0.020320678            3 
 2797000   0.79710316   -7.7465884    697.62399  0.020784888  0.020314918            3 
 2798000   0.80211135   -7.7201027    697.74734  0.020781133  0.020309223            2 
 2799000   0.80738566   -7.7524738    697.78475  0.020774823   0.02030355            2 
 2800000   0.80472542   -7.7639205     696.3668  0.020725202   0.02029783            2 
 2801000   0.79647195    -7.766484     697.8141  0.020760862  0.020292114            2 
 2802000   0.77996728   -7.7600728    698.02723  0.020759792  0.020286409            2 
 2803000   0.79517118   -7.7243317     696.5095  0.020707263  0.020280699            2 
 2804000   0.81596945   -7.7252234    696.99346  0.020714261  0.020274976            2 
 2805000   0.81243261   -7.7363128    697.30019  0.020715989   0.02026928            1 
 2806000   0.81557841   -7.7032902    697.74703  0.020721877  0.020263605            2 
 2807000   0.78875622   -7.7119898     699.4455  0.020764918  0.020257934            3 
 2808000   0.79856887   -7.7317611    699.32862  0.020754055  0.020252263            2 
 2809000   0.79970677   -7.7570253    697.33773  0.020687603  0.020246593            5 
 2810000   0.78659784   -7.7215259    699.08792  0.020732145  0.020240955            1 
 2811000   0.80536551   -7.7416793    700.13295   0.02075575  0.020235343            2 
 2812000   0.81616797   -7.7626136    699.90201  0.020741525  0.020229721            1 
 2813000   0.80944673   -7.7246838    698.99598  0.020707311  0.020224058            2 
 2814000   0.80865244   -7.7563801    698.73308  0.020692167  0.020218429            2 
 2815000   0.79511008    -7.743596    699.22046  0.020699244  0.020212794            4 
 2816000   0.81876248   -7.7499786    699.48224   0.02069964  0.020207183            4 
 2817000   0.81525118   -7.7347871    700.64246  0.020726614  0.020201562            3 
 2818000   0.79126108   -7.7362182    701.53476  0.020745646  0.020195947            2 
 2819000   0.80102955   -7.7221773    699.52916  0.020678999  0.020190347            2 
 2820000   0.80612191    -7.719913    698.86224  0.020651957  0.020184768            2 
 2821000   0.80630983   -7.6952259    701.06546  0.020709721  0.020179208            4 
 2822000   0.78568389   -7.7662856    700.40869  0.020682988  0.020173623            2 
 2823000   0.79879903   -7.7608266    701.10095  0.020696096  0.020168025            2 
 2824000   0.80882935   -7.7388354    700.58848  0.020673645  0.020162428            3 
 2825000   0.79644077   -7.7594514    699.66717   0.02063915  0.020156815            2 
 2826000     0.785464    -7.762431     699.0247  0.020612901  0.020151204            4 
 2827000   0.78642716   -7.7535313    699.83761  0.020629572  0.020145613            3 
 2828000    0.8059042    -7.706204    702.46518  0.020699705  0.020140045            4 
 2829000   0.80094478   -7.7448327    702.72581  0.020700065  0.020134492            2 
 2830000   0.78687677   -7.7529613    700.28572  0.020620899  0.020128902            3 
 2831000   0.78657966   -7.7545678    701.44116  0.020647626  0.020123287            2 
 2832000   0.78880112   -7.7645814    698.80754   0.02056284  0.020117639            1 
 2833000   0.80039104   -7.7662576    700.34011  0.020600662  0.020111981            2 
 2834000   0.77968284   -7.7736052     700.6069  0.020601238  0.020106341            3 
 2835000   0.81315217   -7.7653537     701.3045  0.020614477   0.02010071            1 
 2836000   0.79514226   -7.7499318    702.47516  0.020641607  0.020095103            2 
 2837000   0.79695182   -7.7413399    701.28319  0.020599318  0.020089492            2 
 2838000   0.80528796   -7.7293649     702.5709  0.020629871  0.020083925            2 
 2839000   0.80211903   -7.7449799     701.4106  0.020588546   0.02007837            2 
 2840000    0.8106254   -7.7197393    702.03177  0.020599524  0.020072834            1 
 2841000   0.79626613   -7.7459371    702.65566  0.020610573  0.020067289            2 
 2842000   0.80459056   -7.7583165    702.60456  0.020601823  0.020061739            3 
 2843000   0.79839202   -7.7674096    700.35838  0.020528737   0.02005614            2 
 2844000    0.7981547   -7.7563651    700.01328  0.020511407  0.020050529            3 
 2845000   0.79536588    -7.754546    701.76388  0.020555474  0.020044937            4 
 2846000   0.79397221   -7.7494394    703.38924  0.020595843   0.02003934            5 
 2847000    0.7968417   -7.7407957    701.68437  0.020538706  0.020033704            3 
 2848000   0.79560168   -7.7412276    699.91315  0.020479668  0.020028068            2 
 2849000   0.79302642   -7.7473298    702.27456  0.020541551  0.020022448            2 
 2850000   0.76859315    -7.747573    701.84153  0.020521682  0.020016826            3 
 2851000   0.78725627   -7.7785478    700.08332  0.020463092  0.020011189            2 
 2852000   0.78656782   -7.7720855    701.75118  0.020504651  0.020005548            2 
 2853000   0.80958119   -7.7690188    700.64277  0.020465088  0.019999905            2 
 2854000   0.77993734   -7.7687471    701.70845  0.020489034  0.019994241            3 
 2855000   0.78195258   -7.7443669    700.92283  0.020458927  0.019988598            3 
 2856000    0.7897761   -7.7409062    702.69138  0.020503367  0.019982982            2 
 2857000   0.78782286   -7.7480967    702.09919  0.020478917  0.019977373            3 
 2858000   0.79157042   -7.7369589    703.64347  0.020516779  0.019971751            1 
 2859000   0.81188397   -7.7700609    702.59328  0.020478993   0.01996613            4 
 2860000   0.78024967   -7.7649717    703.17009  0.020488639  0.019960509            2 
 2861000   0.78818692   -7.7569885    701.87333  0.020443706  0.019954884            3 
 2862000   0.80028686    -7.749852    702.51655  0.020455292  0.019949263            3 
 2863000   0.77706836   -7.7759159    701.41761  0.020416161  0.019943621            1 
 2864000   0.78585872   -7.7600924    702.15046  0.020430356  0.019937988            2 
 2865000   0.78470335   -7.7591666    702.61043  0.020436604  0.019932386            3 
 2866000   0.79025047   -7.7937888    703.24082  0.020447803  0.019926771            4 
 2867000   0.79418615   -7.7388072    702.64771  0.020423431  0.019921169            3 
 2868000   0.80441597   -7.7619554    703.27016  0.020434396  0.019915528            4 
 2869000   0.79637958   -7.7486304    701.93729  0.020388558  0.019909927            2 
 2870000   0.78753819   -7.7807138    701.07805  0.020356506  0.019904308            4 
 2871000   0.81485404   -7.7465792    703.48081  0.020419157  0.019898712            3 
 2872000   0.81114333   -7.7693124    701.10321   0.02034306   0.01989307            4 
 2873000   0.79875247   -7.7754311    703.44046  0.020403773  0.019887454            2 
 2874000   0.79050474   -7.7607296    702.78617  0.020377702  0.019881831            4 
 2875000   0.78964674   -7.7712764    703.66695  0.020396143  0.019876207            3 
 2876000   0.78246126   -7.7713533     702.9985  0.020369683  0.019870566            2 
 2877000   0.79650773   -7.7869139    702.07773  0.020335932  0.019864933            3 
 2878000   0.77811235   -7.8032641    702.88196  0.020352153  0.019859284            3 
 2879000   0.79286248   -7.7566884    703.18674  0.020353906  0.019853639            2 
 2880000   0.80104449   -7.7656498    704.61047  0.020388034  0.019848015            1 
 2881000   0.80003403   -7.7998574    702.75193  0.020327199  0.019842376            1 
 2882000   0.79192981   -7.7712524    703.54234  0.020343001  0.019836736            2 
 2883000   0.78419596   -7.7928152    701.86494  0.020287459  0.019831079            3 
 2884000   0.77931986   -7.8010063      701.706  0.020275832  0.019825432            2 
 2885000   0.78515835   -7.7837279    701.47514  0.020262136  0.019819787            2 
 2886000   0.79425028   -7.7748541    701.61862  0.020259258  0.019814113            2 
 2887000   0.80330694   -7.7857703    702.70524  0.020283606   0.01980843            2 
 2888000   0.77245586   -7.7989976    703.42405  0.020297324  0.019802774            2 
 2889000    0.7835186   -7.7840571    701.99832  0.020249173  0.019797148            1 
 2890000   0.77619656   -7.7625171    702.38718  0.020253379  0.019791498            2 
 2891000   0.79100001   -7.7819986    703.95016  0.020291426  0.019785885            4 
 2892000   0.80122648   -7.7859499    703.26713  0.020264728   0.01978026            2 
 2893000   0.78691864   -7.7710686    703.26979    0.0202578  0.019774667            1 
 2894000   0.79119426   -7.7549795    704.10863  0.020274955  0.019769058            3 
 2895000   0.79671675   -7.7700235    703.48277  0.020249936  0.019763468            3 
 2896000   0.77474183   -7.7701849    703.47448  0.020242705  0.019757871            4 
 2897000   0.80129766   -7.7849349    705.31094  0.020288544  0.019752286            3 
 2898000   0.78142506   -7.7547438    704.18611  0.020249198  0.019746702            3 
 2899000   0.78525474   -7.7613362    703.82495  0.020231831  0.019741149            3 
 2900000   0.78361403   -7.7785089    704.23102  0.020236523  0.019735588            1 
 2901000   0.78382047   -7.7712516    703.48876  0.020208226  0.019729996            2 
 2902000   0.78247282   -7.7903849    703.05669  0.020188855  0.019724362            9 
 2903000   0.80014927   -7.7864947    705.64454  0.020256187  0.019718747            2 
 2904000   0.77549446   -7.7855759    703.70132  0.020193449  0.019713125            2 
 2905000   0.78926283   -7.7706749    704.97574  0.020223056  0.019707529            2 
 2906000   0.76949138   -7.7789323    703.97916  0.020187519  0.019701922            2 
 2907000   0.80407487   -7.7664589    702.18559  0.020129159  0.019696331            3 
 2908000   0.78205869   -7.7932693     704.9869  0.020202513  0.019690737            1 
 2909000   0.76927472   -7.7749647    705.44968  0.020208825  0.019685135            1 
 2910000   0.79896974   -7.7549369    706.09402  0.020220333  0.019679559            3 
 2911000   0.78552533   -7.7788579    705.96967  0.020209827  0.019673996            3 
 2912000   0.79719569   -7.7687743    704.94413  0.020173539  0.019668391            5 
 2913000   0.79350145   -7.7478123    704.25255  0.020146829  0.019662798            2 
 2914000   0.78521426   -7.7777881    705.76271  0.020183102  0.019657222            4 
 2915000   0.77181775   -7.7714871     706.2409  0.020189848   0.01965163            4 
 2916000   0.80519528   -7.7656867    703.57842  0.020106836  0.019646049            2 
 2917000   0.77658595   -7.8109419    705.19819  0.020146217  0.019640465            2 
 2918000   0.79757476   -7.7378013    705.55954  0.020149633  0.019634889            4 
 2919000   0.77046457   -7.7916738    705.97336  0.020154544  0.019629336            1 
 2920000   0.79080281   -7.7744658    705.96497  0.020147402  0.019623752            2 
 2921000   0.78660426   -7.7916568    705.56059  0.020128968  0.019618158            1 
 2922000   0.78512595   -7.7689339    705.54957  0.020121765  0.019612556            2 
 2923000   0.78028232   -7.7810862    704.60762  0.020088026  0.019606994            4 
 2924000   0.78489511   -7.7763029    705.91658  0.020118462  0.019601449            4 
 2925000   0.79325007   -7.7645806    705.12173  0.020088938  0.019595896            1 
 2926000   0.78088301    -7.802584    705.43567  0.020091014  0.019590316            2 
 2927000   0.77348695   -7.7876688    706.33236  0.020109679  0.019584756            2 
 2928000   0.79113707   -7.7964092    706.44087  0.020105899  0.019579205            3 
 2929000   0.76616876   -7.7901945    704.78879  0.020052031  0.019573632            1 
 2930000   0.78985706   -7.7658246    707.32755  0.020117393  0.019568087            2 
 2931000   0.77971036      -7.7766    705.55226  0.020060055  0.019562542            2 
 2932000   0.77233283   -7.7659078    705.58346    0.0200541  0.019556976            3 
 2933000   0.77977348   -7.7797471     705.0138  0.020031077  0.019551443            2 
 2934000   0.77927547   -7.7640067    707.25831     0.020088  0.019545903            5 
 2935000   0.78693498   -7.7670704    707.66083  0.020092584  0.019540382            2 
 2936000   0.78851222   -7.7449876    708.18852  0.020100719  0.019534882            4 
 2937000   0.76446091   -7.7568772    707.78802  0.020082511  0.019529359            2 
 2938000   0.79068605   -7.7738311    706.94555   0.02005178  0.019523869            3 
 2939000   0.75787018   -7.7603285    706.03005  0.020018999  0.019518357            1 
 2940000   0.78925926    -7.791923    708.41931  0.020079913  0.019512848            3 
 2941000   0.77770222   -7.7803903    707.18007  0.020037971  0.019507308            4 
 2942000   0.78639102   -7.7833422     707.6191  0.020043596  0.019501775            3 
 2943000   0.76440016   -7.7727299    707.04781  0.020020608  0.019496233            4 
 2944000   0.77306556   -7.8094195     706.1736  0.019989062  0.019490715            2 
 2945000   0.79515145   -7.7722231    708.18284  0.020039129  0.019485201            2 
 2946000    0.8006065   -7.7517801    708.03073  0.020028025  0.019479702            2 
 2947000   0.77400035    -7.772449     706.9468  0.019990578  0.019474196            2 
 2948000   0.78673961   -7.7882621    705.78967  0.019951087  0.019468632            3 
 2949000   0.78068423   -7.7563439    708.77929  0.020028803  0.019463108            4 
 2950000   0.77949547   -7.7879446    706.90382  0.019969034  0.019457593            2 
 2951000    0.7720028    -7.783274    707.73938  0.019985863  0.019452086            2 
 2952000   0.78872896   -7.8134931    706.62634  0.019947672  0.019446533            2 
 2953000   0.77977562   -7.8161319    707.01243  0.019951813  0.019440998            4 
 2954000   0.79014145   -7.7818594    708.68403  0.019992215  0.019435471            2 
 2955000   0.79040856   -7.7718603    707.97911   0.01996557  0.019429965            2 
 2956000   0.78295889   -7.7840987    707.50432  0.019945431  0.019424434            3 
 2957000   0.77730276   -7.8002261    707.22258  0.019930746  0.019418898            2 
 2958000   0.79774589   -7.8062233    706.03275  0.019890488   0.01941334            4 
 2959000   0.79021339   -7.7675907    707.37585  0.019921591   0.01940779            3 
 2960000   0.77123508   -7.7582537    708.21022  0.019938351  0.019402278            6 
 2961000   0.79336093   -7.7993851    708.58876  0.019942271  0.019396768            2 
 2962000   0.79884705   -7.7865308    709.32007  0.019956113  0.019391247            2 
 2963000   0.77975501   -7.7846218    706.75243  0.019877164  0.019385735            3 
 2964000   0.77597283   -7.7668347    707.81774  0.019900409  0.019380229            3 
 2965000   0.77627917   -7.7747783    706.59059  0.019859207  0.019374699            4 
 2966000   0.78646476   -7.7932242    707.41533  0.019875684  0.019369142            3 
 2967000   0.79076899   -7.7981032    706.49845  0.019843232  0.019363594            2 
 2968000   0.78636656   -7.8089695    708.36068  0.019888833   0.01935802            2 
 2969000   0.77987186   -7.8039318    708.35449  0.019881961  0.019352477            5 
 2970000   0.77396877   -7.8127356    707.89944  0.019862498  0.019346923            2 
 2971000   0.75763906   -7.8071467    707.83778  0.019854083  0.019341369            5 
 2972000   0.78306654   -7.7743633    709.37048  0.019890379  0.019335844            2 
 2973000   0.76825496   -7.7961088    707.40639  0.019828635  0.019330306            4 
 2974000   0.78169839   -7.7700847    707.77574  0.019832317  0.019324764            5 
 2975000    0.8058998   -7.7703127    710.09523  0.019890623  0.019319235            7 
 2976000   0.78225745   -7.7711324    707.87488  0.019821765  0.019313734            3 
 2977000   0.78181918   -7.7900017    708.79071  0.019840743  0.019308185            3 
 2978000   0.77324711   -7.7696908    707.73298  0.019804482  0.019302657            7 
 2979000   0.74960478   -7.8221199    708.06626  0.019807157  0.019297096            4 
 2980000   0.78428251    -7.823308    707.60806  0.019787697  0.019291537            2 
 2981000   0.78445581   -7.8024901    706.94368  0.019762487  0.019286009            2 
 2982000   0.78052569   -7.8238474    708.59057  0.019801883   0.01928047            2 
 2983000   0.77608126   -7.8121251    708.39481  0.019789776  0.019274932            6 
 2984000   0.77777659   -7.8111863    706.61965  0.019733569  0.019269361            3 
 2985000   0.78545589   -7.8015435    708.02539  0.019766203  0.019263818            1 
 2986000    0.7686727   -7.8044421    707.91952  0.019756629  0.019258273            1 
 2987000   0.76871571   -7.7923396    708.28248  0.019760141  0.019252736            2 
 2988000   0.76915836   -7.7959754    708.91483  0.019771163  0.019247201            1 
 2989000   0.77665877   -7.8152974    707.93065   0.01973711  0.019241658            3 
 2990000   0.76829566   -7.7987397    708.64728  0.019750482  0.019236123            2 
 2991000   0.77362441   -7.8148775    710.05691  0.019783152  0.019230571            3 
 2992000   0.77071508   -7.7911529    707.78293  0.019713205  0.019224996            4 
 2993000   0.75937394   -7.8253702    706.74727  0.019677783  0.019219419            6 
 2994000   0.77590952   -7.8072746    708.49265  0.019719791  0.019213845            2 
 2995000   0.77755377   -7.7721102    708.23059  0.019705915    0.0192083            1 
 2996000   0.77316719   -7.8267159    708.58475  0.019709189  0.019202745            3 
 2997000   0.76036294    -7.822475    708.76041  0.019707497  0.019197172            6 
 2998000   0.75442356   -7.8127327    709.52331  0.019722129  0.019191605            3 
 2999000   0.75078091   -7.8116674    709.93338  0.019726947  0.019186036            9 
 3000000   0.77178453   -7.8200754     708.4706  0.019679739  0.019180456            2 
 3001000   0.77877134   -7.8456119    707.24009  0.019639012  0.019174858            3 
 3002000   0.77432196   -7.8070008    709.01546  0.019681753  0.019169256            3 
 3003000    0.7775542    -7.810527    708.77021  0.019668393  0.019163661            4 
 3004000   0.78188105   -7.8228201    708.24952  0.019647401  0.019158082            4 
 3005000   0.78085387   -7.8351813    708.70518  0.019653499  0.019152506            3 
 3006000   0.77798973   -7.8234974    708.89481  0.019652218   0.01914692            3 
 3007000   0.76626951   -7.8045345       710.06  0.019677974  0.019141361            2 
 3008000   0.77554065   -7.8137096    709.01083  0.019642366  0.019135809            2 
 3009000   0.77551721   -7.7913731    708.68598  0.019626841  0.019130263            3 
 3010000   0.76747333   -7.8008024    708.49055   0.01961491  0.019124695            2 
 3011000   0.74539699   -7.8314784    708.43975   0.01960699   0.01911913            2 
 3012000   0.76972767   -7.8235326    706.90524  0.019558025  0.019113543            5 
 3013000   0.77087444   -7.8203219    708.79843  0.019603895  0.019107971            3 
 3014000   0.76330088   -7.8324102     707.6226  0.019564881  0.019102395            2 
 3015000   0.76669511    -7.826553    709.00871  0.019596703  0.019096817            3 
 3016000   0.75744236   -7.8297429    707.86076  0.019558487  0.019091232            3 
 3017000    0.7667223   -7.8091913    708.09418  0.019558452  0.019085667            3 
 3018000   0.77427626   -7.8324687    707.02502  0.019522449  0.019080095            2 
 3019000   0.75858689   -7.8481457    706.78796  0.019509439  0.019074487            4 
 3020000   0.77368321   -7.8545727    708.10736  0.019539386  0.019068886            2 
 3021000   0.76422767    -7.822429    706.95637  0.019501169  0.019063284            3 
 3022000   0.76975313   -7.8451437    709.19665  0.019556493  0.019057683            2 
 3023000   0.76655855   -7.8208248    710.74327  0.019592658  0.019052075            2 
 3024000   0.77247304   -7.8318217    709.25294   0.01954511  0.019046476            1 
 3025000   0.76617255   -7.8530562    708.73047  0.019524255  0.019040886            3 
 3026000   0.77103743   -7.8249506    708.85096  0.019521122  0.019035309            3 
 3027000    0.7717713   -7.8412582    708.28062  0.019498971   0.01902974            5 
 3028000   0.76286103   -7.8298384    709.72041  0.019532156   0.01902418            2 
 3029000   0.76748955   -7.8499012    708.37767  0.019488766  0.019018616            4 
 3030000    0.7678772   -7.8370629    711.94011  0.019580311  0.019013066            2 
 3031000   0.76229116   -7.8178574    708.97998  0.019492466  0.019007523            5 
 3032000   0.77186789   -7.8425874     709.7717  0.019507797  0.019001949            4 
 3033000   0.77316088   -7.8310721    709.66012    0.0194983  0.018996397            2 
 3034000   0.75153409   -7.8140598    710.99229  0.019528463  0.018990829            3 
 3035000   0.75808601   -7.8327909    709.50939  0.019481312  0.018985315            2 
 3036000   0.75847334   -7.8001889    710.48742  0.019501741  0.018979789            1 
 3037000   0.76219225   -7.8271253    709.51134  0.019468536  0.018974261            2 
 3038000   0.76010956   -7.8273031    710.10788  0.019478491  0.018968727            3 
 3039000   0.76881516     -7.84148    708.89785  0.019438901  0.018963178            4 
 3040000   0.77345067   -7.7866781    709.77916  0.019456666  0.018957631            2 
 3041000   0.76935389   -7.8448478    707.47153  0.019387031   0.01895211            5 
 3042000   0.76225628   -7.8191619    711.38122  0.019487761  0.018946591            2 
 3043000   0.76480013   -7.8264696     709.2918  0.019424137  0.018941088            2 
 3044000    0.7616885     -7.82423    709.86751  0.019433517  0.018935573            2 
 3045000   0.77153142   -7.8081855    711.08168  0.019460364  0.018930073            2 
 3046000   0.76476556   -7.8209421    709.76054   0.01941783  0.018924577            2 
 3047000   0.78013773   -7.8341826    708.78593  0.019384803  0.018919053            4 
 3048000   0.75924097   -7.8238574    710.10228  0.019414432  0.018913543            3 
 3049000   0.76550973   -7.8350552    711.08517  0.019434929  0.018908044            2 
 3050000   0.78163961   -7.8340147    712.03191  0.019454424  0.018902552            1 
 3051000   0.76045341   -7.8420472    710.32189  0.019401341  0.018897031            2 
 3052000   0.77408018   -7.8320976    709.54305  0.019373718   0.01889149            2 
 3053000   0.76185247   -7.8260979    709.89761   0.01937705  0.018885948            6 
 3054000   0.75653518   -7.8286922    710.95174  0.019399469  0.018880413            2 
 3055000   0.75317606    -7.832953    711.74501  0.019414758  0.018874899            4 
 3056000     0.755552   -7.8249666    711.64216    0.0194056  0.018869417            2 
 3057000   0.76121484    -7.797102    712.25585  0.019415981  0.018863922            5 
 3058000   0.77144072   -7.8060763     711.4337  0.019387227  0.018858453            2 
 3059000   0.77297506   -7.8339673     711.8064  0.019391043  0.018852969            2 
 3060000   0.75946477   -7.8104844    712.16815  0.019394557  0.018847475            4 
 3061000   0.77061856   -7.8574783    711.77136  0.019377419  0.018841992            3 
 3062000   0.75318579   -7.8357666    712.10566  0.019380189  0.018836503            4 
 3063000   0.76374155     -7.84905    711.89175  0.019368042  0.018831018            2 
 3064000   0.77376796   -7.8709394    709.38047   0.01929342  0.018825534            2 
 3065000   0.75531636   -7.8205297    712.52971  0.019372749  0.018820063            4 
 3066000   0.75915956   -7.8502471    711.27912   0.01933244  0.018814603            2 
 3067000   0.73717984   -7.8613751    714.27669  0.019407583  0.018809139            4 
 3068000   0.74951392   -7.8120148    712.58621   0.01935534  0.018803684            4 
 3069000   0.76459445   -7.8180201    713.35536  0.019369919  0.018798223            2 
 3070000   0.76484547   -7.8175863     713.1404  0.019357774   0.01879281            2 
 3071000   0.76948164   -7.8290818    713.15366  0.019351831  0.018787385            4 
 3072000   0.78777989    -7.815302    712.45661  0.019326623  0.018781963            3 
 3073000   0.76342237   -7.8509473    712.42478   0.01931947  0.018776523            2 
 3074000   0.76065037   -7.8280843    711.21921  0.019280504  0.018771074            3 
 3075000    0.7543875   -7.8596141    712.17468  0.019300127  0.018765617            3 
 3076000   0.75505191   -7.8411049    713.02436  0.019316871  0.018760166            2 
 3077000   0.76630624    -7.843625    712.75315  0.019303249  0.018754715            1 
 3078000    0.7656726     -7.85637    712.54505  0.019291343   0.01874924            3 
 3079000   0.76460067   -7.8313846    713.14672  0.019301362  0.018743774            2 
 3080000   0.75058405   -7.8175331    711.86404  0.019260391  0.018738334            3 
 3081000   0.74905019   -7.8245458    714.73389  0.019331762  0.018732895            3 
 3082000   0.75768283   -7.8245263    712.98264  0.019278138  0.018727459            2 
 3083000   0.75955171   -7.8415064    711.85542  0.019241416  0.018722021            2 
 3084000   0.74157879   -7.8498983    711.74791  0.019232272  0.018716539            1 
 3085000   0.75352149   -7.8539454    711.72634  0.019225455  0.018711075            3 
 3086000   0.75646647   -7.8408335    712.88235  0.019250442  0.018705617            3 
 3087000    0.7660348   -7.8577275    713.01152  0.019247693  0.018700161            8 
 3088000   0.77001325   -7.8652397    712.00425  0.019214277  0.018694667            2 
 3089000   0.75671736   -7.8616185    711.55079  0.019195824   0.01868918            4 
 3090000   0.75319608   -7.8525319    711.08126  0.019176949  0.018683679            2 
 3091000   0.75779718   -7.8634887    713.05869  0.019224056  0.018678176            3 
 3092000   0.76760916   -7.8551669    712.80853  0.019211097  0.018672676            5 
 3093000   0.77683011   -7.8531821    710.76671  0.019149874  0.018667198            4 
 3094000   0.74416879   -7.8359889    712.34382  0.019186162  0.018661753            3 
 3095000   0.74858818   -7.8722469    712.55006  0.019185516  0.018656285            1 
 3096000   0.74251541   -7.8428382    713.63373  0.019208488  0.018650792            3 
 3097000   0.75663564   -7.8661494    713.11884  0.019188431  0.018645323            3 
 3098000   0.77007501    -7.874376    711.46784  0.019137827  0.018639816            4 
 3099000   0.75545129    -7.858773    712.65153  0.019163481  0.018634321            2 
 3100000   0.76871482   -7.8615857    713.77004  0.019187367  0.018628824            3 
 3101000   0.77771632   -7.8284437    712.08637  0.019135934  0.018623335            3 
 3102000   0.74279509   -7.8693837    712.56304   0.01914257  0.018617843            3 
 3103000    0.7710061   -7.8683273    713.01861  0.019148636  0.018612337            3 
 3104000   0.75043391   -7.8473696    713.49347  0.019155216  0.018606854            2 
 3105000   0.76489727   -7.8602702    712.37561  0.019119045  0.018601363            6 
 3106000   0.74449188   -7.8748538    712.14133  0.019106604  0.018595876            4 
 3107000   0.77347267   -7.8853986    712.50339  0.019110165  0.018590372            4 
 3108000   0.75202319   -7.8565907    711.79928  0.019085137  0.018584861            2 
 3109000   0.76133192   -7.8471645    711.79458  0.019078873  0.018579363            2 
 3110000   0.76194397   -7.8513063    712.10795  0.019081135  0.018573868            2 
 3111000   0.74154072   -7.8351544    712.67663  0.019090234  0.018568383            2 
 3112000   0.75796843   -7.8757688    711.35294  0.019048654  0.018562923            3 
 3113000   0.73533724   -7.8750396    711.85793  0.019056053  0.018557437            1 
 3114000   0.74655397   -7.8384412     713.7634  0.019100926  0.018551971            3 
 3115000   0.74348466    -7.862007    713.54847  0.019089044  0.018546513            2 
 3116000   0.75110773   -7.8729087    713.24658  0.019074844  0.018541048            4 
 3117000    0.7564161   -7.8815625    712.71338   0.01905447   0.01853557            3 
 3118000   0.77184339   -7.8591303    713.48576  0.019069001  0.018530121            3 
 3119000   0.76485124   -7.8402674    713.67435  0.019067926  0.018524683            3 
 3120000   0.74739689   -7.8490535    714.48644  0.019083505  0.018519251            4 
 3121000   0.76836388   -7.8411812    714.33755  0.019073415  0.018513839            2 
 3122000   0.77241343   -7.8497425    712.31942  0.019013437  0.018508429            2 
 3123000   0.74487644   -7.8355031     713.4626  0.019037854  0.018502999            2 
 3124000   0.75575312   -7.8428354     713.5232  0.019033376  0.018497579            2 
 3125000   0.76474344   -7.8547166    713.27161  0.019020576  0.018492156            3 
 3126000   0.74918443   -7.8323983    714.44671  0.019045818  0.018486724            6 
 3127000   0.72785488   -7.8384584     713.4247  0.019012491  0.018481308            1 
 3128000   0.76951087   -7.8679388     714.5908  0.019037479  0.018475891            1 
 3129000   0.75211563   -7.8821218    712.23401  0.018968627   0.01847045            3 
 3130000   0.75625517   -7.8813654    712.51292  0.018969993  0.018465003            4 
 3131000   0.75471204   -7.8527101    714.96485  0.019029193  0.018459563            6 
 3132000   0.73382509    -7.869696    713.51457   0.01898453   0.01845414            2 
 3133000   0.75600661   -7.8508759    713.56029  0.018979686  0.018448697            3 
 3134000   0.75092221   -7.8750243    713.61875  0.018975185  0.018443253            5 
 3135000   0.75230256   -7.8860826    713.56318  0.018967655  0.018437787            2 
 3136000   0.74796057   -7.8995505    714.34741  0.018982446  0.018432351            3 
 3137000   0.75736527   -7.8749919    715.09853  0.018996348   0.01842692            3 
 3138000    0.7366935   -7.8885426    713.38234  0.018944719  0.018421486           10 
 3139000   0.73932515   -7.8920993    714.07272  0.018957012  0.018416059            3 
 3140000   0.75257666    -7.869186    713.64985  0.018939752  0.018410633            3 
 3141000   0.74542853   -7.8693587    713.43887  0.018928125  0.018405197            3 
 3142000   0.74939192   -7.8884082    713.79481  0.018931541  0.018399741            3 
 3143000   0.76333636   -7.8836855    713.68754  0.018922673  0.018394263            4 
 3144000   0.75429701   -7.8728661    714.80656  0.018946315  0.018388797            4 
 3145000   0.74321238   -7.8645439    714.57246  0.018934087  0.018383361            6 
 3146000   0.72363648   -7.8745129    713.45094  0.018898361  0.018377943            5 
 3147000   0.74357137     -7.84634    714.36035  0.018916438  0.018372515            2 
 3148000   0.73188151   -7.8593147    713.68269   0.01889249  0.018367077            4 
 3149000   0.75488411    -7.854786    714.05987  0.018896472  0.018361647            1 
 3150000   0.74227523    -7.865582     713.8286  0.018884354  0.018356198            3 
 3151000   0.74495458   -7.8461219    714.11589  0.018885959  0.018350733            4 
 3152000   0.74927221   -7.8846845    712.34629  0.018833182  0.018345271            4 
 3153000   0.75398438   -7.8769852    712.91824  0.018842326    0.0183398            1 
 3154000   0.74810623   -7.8844008    713.57148  0.018853611  0.018334351            3 
 3155000   0.75466941   -7.8869671    711.75072  0.018799544  0.018328867            3 
 3156000   0.75886271   -7.8450115    714.75792  0.018872991  0.018323407            5 
 3157000   0.74347504   -7.8692695     714.4063  0.018857731  0.018317953            5 
 3158000   0.75316162   -7.8537514    714.32532  0.018849623  0.018312488            6 
 3159000   0.73585803     -7.88923    714.54599  0.018849477  0.018307047            2 
 3160000    0.7394663   -7.8847956    712.82061  0.018798012  0.018301592            2 
 3161000   0.75114788   -7.8966727    712.44338   0.01878212  0.018296118            3 
 3162000   0.75139561   -7.8879661    710.56921  0.018726787  0.018290615            3 
 3163000   0.74069367    -7.901768    712.93578  0.018783217  0.018285116            3 
 3164000   0.74111647   -7.8922038    714.55953  0.018820047  0.018279643            6 
 3165000   0.76274522   -7.8854709    714.47957  0.018811995  0.018274182            5 
 3166000   0.74555715   -7.9033864    712.46027  0.018752903  0.018268695            2 
 3167000    0.7302892   -7.8550077    713.60911  0.018777211  0.018263208            6 
 3168000   0.74748872   -7.8670319    712.35201  0.018738216  0.018257722            2 
 3169000   0.74608563   -7.8538098    713.18528  0.018754215  0.018252237           10 
 3170000   0.74923314    -7.883057    713.65528  0.018760654  0.018246755            1 
 3171000   0.74691725   -7.8950197    713.88866  0.018760871  0.018241305            2 
 3172000   0.74642729   -7.8946454    714.62787  0.018774377  0.018235828            3 
 3173000   0.74996623   -7.8905668    714.31212  0.018760167  0.018230352            2 
 3174000   0.74634258   -7.8864991     714.0522  0.018747432  0.018224859            4 
 3175000   0.74878738   -7.8942305     714.8435  0.018762297  0.018219364            4 
 3176000   0.75284409    -7.895892    714.95399  0.018759288   0.01821387            3 
 3177000   0.74356345    -7.876528    714.90606  0.018752126  0.018208383            4 
 3178000   0.74781559   -7.8750836    715.41952  0.018759689  0.018202899            3 
 3179000   0.74165546   -7.9023734    714.32279  0.018725039  0.018197444            7 
 3180000   0.73715304    -7.876094    713.98553  0.018710313   0.01819199            5 
 3181000   0.73366558   -7.8692426    713.90123  0.018702222   0.01818654            2 
 3182000   0.73901734   -7.9112215    712.95562   0.01867158  0.018181086            2 
 3183000   0.74167538   -7.8711917    714.34866  0.018702185   0.01817563            2 
 3184000   0.75541114   -7.8913611    714.04115  0.018688263  0.018170164            4 
 3185000   0.76613169    -7.902789    712.26552  0.018635937  0.018164705            4 
 3186000     0.736537   -7.8865151    713.42746   0.01866048   0.01815924            6 
 3187000   0.76018469   -7.8955899    714.18831  0.018674519  0.018153754            6 
 3188000   0.72507092   -7.8974286    712.95266  0.018636362  0.018148251            2 
 3189000   0.73305059   -7.8975176    713.75094  0.018651378  0.018142768            4 
 3190000   0.74435162   -7.8824475    713.02497  0.018626567   0.01813727            2 
 3191000   0.73757638    -7.923397    714.41025  0.018656906  0.018131777            2 
 3192000   0.73720908   -7.9199822    713.12975  0.018617631  0.018126283            3 
 3193000   0.73702453   -7.8958717    713.99743  0.018634446  0.018120783            3 
 3194000   0.73900027   -7.9087871     714.2805  0.018635997  0.018115266            4 
 3195000   0.75295481   -7.9160335    712.01812  0.018571156  0.018109742            4 
 3196000   0.73075212   -7.9097577    714.62887  0.018633419  0.018104225            1 
 3197000   0.74351527   -7.9035205    712.93084  0.018583329  0.018098726            2 
 3198000   0.74033759   -7.8983798    713.29928  0.018587119   0.01809324            5 
 3199000   0.73109368   -7.9077311    713.77255  0.018593637  0.018087747            4 
 3200000   0.73648059   -7.9069703    713.72967   0.01858671  0.018082273            4 
 3201000    0.7270661   -7.9193019    713.14093  0.018565577  0.018076794            5 
 3202000   0.73820778   -7.8521999    715.59997  0.018623776  0.018071326            2 
 3203000   0.74152705   -7.9101451    713.35471  0.018559546  0.018065869            3 
 3204000    0.7376651   -7.8682252     716.2606  0.018629333  0.018060438            4 
 3205000   0.72378704   -7.8968749    715.73404   0.01860983  0.018055002            7 
 3206000   0.73738508   -7.8812004    713.45542  0.018544797  0.018049539            2 
 3207000   0.74097226    -7.894229    714.51997  0.018566676  0.018044092            2 
 3208000   0.73561581   -7.8934192    715.42598  0.018584424   0.01803863            4 
 3209000   0.72580072   -7.8821365    715.42149  0.018578516  0.018033158            2 
 3210000   0.74377403   -7.8755463    714.24657  0.018542227  0.018027688            3 
 3211000   0.73741274   -7.8596199    715.02907   0.01855676  0.018022249            2 
 3212000   0.74685854   -7.8716097    715.11725   0.01855327  0.018016834            3 
 3213000   0.74409368   -7.9112199    714.90302   0.01854194  0.018011396            2 
 3214000   0.74244235   -7.9008281    714.49085  0.018525484  0.018005963            3 
 3215000   0.74947726   -7.8732238    713.87679  0.018503805  0.018000529            2 
 3216000   0.73897877   -7.8936716    713.92836  0.018499387  0.017995091            3 
 3217000   0.74414389   -7.8862814    715.02643  0.018522081   0.01798964            2 
 3218000   0.73782157   -7.8827993    713.70736  0.018482167  0.017984204            4 
 3219000   0.74281765   -7.8946923    715.79635  0.018530505  0.017978764            2 
 3220000   0.73049197   -7.9169708    714.67246  0.018495664  0.017973303            2 
 3221000   0.73136457   -7.9056273    715.81205  0.018519405  0.017967851            4 
 3222000   0.74520505   -7.9049429    715.63202  0.018509001  0.017962427            2 
 3223000   0.71410123   -7.9286026    713.89254  0.018458283  0.017956969            2 
 3224000   0.73065339   -7.9206761     713.4569  0.018441297  0.017951513            3 
 3225000   0.72954346   -7.9007875     715.2772  0.018482615  0.017946048            3 
 3226000   0.73177244    -7.911143    713.70837   0.01843636  0.017940589            3 
 3227000   0.72745826   -7.9165358    713.95665  0.018437058  0.017935105            2 
 3228000   0.72379975    -7.926016    714.09198  0.018434841  0.017929657            3 
 3229000   0.74050501   -7.9240671     714.1174  0.018429787  0.017924201            3 
 3230000   0.72396121   -7.9027757    715.50375  0.018459849  0.017918753            2 
 3231000    0.7162669   -7.9197439    715.23313  0.018447156  0.017913308            7 
 3232000   0.72236772    -7.889127     715.8807  0.018458145   0.01790788            4 
 3233000   0.73205154   -7.8968488    715.29437  0.018437323  0.017902464            4 
 3234000   0.72278772   -7.8927956    716.60408   0.01846537  0.017897046            3 
 3235000   0.73158155   -7.9093874    714.98743  0.018418017  0.017891635            2 
 3236000   0.73421749   -7.8950738    715.46333  0.018424581   0.01788624            4 
 3237000   0.73220025   -7.9011508    714.14946  0.018385065  0.017880835            2 
 3238000   0.73046875   -7.9040019    714.91894   0.01839919  0.017875427            3 
 3239000   0.72712161   -7.9335536    715.20318  0.018400823  0.017870039            6 
 3240000    0.7246143   -7.9151007    715.61397  0.018405709   0.01786464            3 
 3241000    0.7365872   -7.8906824    715.68783  0.018401929   0.01785924            5 
 3242000   0.73208193   -7.9073725    716.40504  0.018414688   0.01785384            2 
 3243000    0.7145981   -7.9186993    715.40495  0.018383311  0.017848439            4 
 3244000   0.73894435   -7.8973994    716.73009  0.018411685  0.017843045            5 
 3245000   0.74267166   -7.9196847    716.08702  0.018389497  0.017837648            1 
 3246000   0.73865813   -7.8986716    715.90701  0.018379211  0.017832233            2 
 3247000   0.73951051   -7.8922648    716.35918  0.018385155  0.017826836            2 
 3248000   0.72838339   -7.8977863    714.34895  0.018327919  0.017821431            2 
 3249000   0.73059388   -7.9323349    715.82508  0.018360139  0.017816013            5 
 3250000   0.73234795   -7.9191148    715.38325   0.01834316  0.017810592            4 
 3251000   0.71959049   -7.9405087    716.22996  0.018359222  0.017805193            2 
 3252000   0.74580337   -7.9280831    715.10414  0.018324727  0.017799794            5 
 3253000   0.72875676   -7.9234988    716.10491  0.018344731  0.017794407            2 
 3254000   0.72711407   -7.9201423    716.37132  0.018345916  0.017789006            6 
 3255000     0.743737   -7.9151161    715.83355  0.018326512  0.017783623            1 
 3256000   0.72487547   -7.8904462     716.7157  0.018343461  0.017778244            3 
 3257000   0.73610759   -7.8949532    716.90379  0.018342641  0.017772869            3 
 3258000   0.72745243   -7.9223085    717.45144  0.018351019  0.017767497            3 
 3259000   0.72136077   -7.9036857    716.38231   0.01831805  0.017762138            3 
 3260000   0.72705125   -7.9480196    716.81874  0.018323587  0.017756767            2 
 3261000   0.72840367   -7.9258485    716.27419  0.018304053  0.017751373            3 
 3262000   0.72575336   -7.9299239    715.45149  0.018277424  0.017745982            1 
 3263000   0.72619864   -7.9065001    716.41541   0.01829644  0.017740587            2 
 3264000   0.72661624   -7.9037229    715.09551  0.018257136  0.017735193            3 
 3265000   0.74088615   -7.9322641    716.93062  0.018298382  0.017729821            3 
 3266000   0.75514319   -7.9417003    716.21634  0.018274555  0.017724445            2 
 3267000   0.71951187   -7.8933842    714.96403  0.018237018  0.017719075            3 
 3268000   0.72232519   -7.9084234    716.90065   0.01828082  0.017713715            1 
 3269000   0.74855383   -7.9109525    716.51455  0.018265386  0.017708346            3 
 3270000    0.7112154   -7.9230884    717.68633  0.018289662  0.017702985            2 
 3271000   0.75403335   -7.9098822    715.76655  0.018235161  0.017697611            3 
 3272000   0.74301927    -7.913701    718.04088  0.018287512  0.017692233            2 
 3273000   0.73800122   -7.9601494    717.99696  0.018280807  0.017686832            2 
 3274000   0.73092921   -7.9325725    716.32183  0.018232586  0.017681443            2 
 3275000   0.73530584   -7.9586708    716.62057   0.01823462  0.017676064            2 
 3276000   0.75557268   -7.9339716    716.00859  0.018213487   0.01767068            2 
 3277000   0.73127016   -7.9431837    716.55908  0.018221927  0.017665298            2 
 3278000   0.71088966     -7.92459    717.86322  0.018249523  0.017659955            3 
 3279000   0.73347352   -7.9551153    717.05177  0.018223335  0.017654607            5 
 3280000   0.72298451   -7.9214015    715.85166  0.018187288  0.017649254            4 
 3281000   0.71542475   -7.9292869     716.1308  0.018188835  0.017643911            4 
 3282000   0.72408589   -7.9621167    717.20699  0.018210618  0.017638558            3 
 3283000   0.73850813   -7.9217306    716.56052  0.018188662  0.017633199            2 
 3284000   0.73896306   -7.9301361    716.56146  0.018183147  0.017627849            2 
 3285000   0.73206534   -7.9361832    715.59583  0.018153116  0.017622506            5 
 3286000   0.72378158   -7.9220469     716.5447  0.018171655  0.017617149            3 
 3287000   0.72909221   -7.9113232    717.35043  0.018186554  0.017611794            2 
 3288000   0.73522947   -7.9358044    716.58823  0.018161705  0.017606458            2 
 3289000   0.74902553    -7.908337    716.71888  0.018159493  0.017601108            4 
 3290000   0.73536422   -7.9335167     717.5428  0.018174843  0.017595762            5 
 3291000   0.72868127   -7.9203219    717.31325  0.018163508  0.017590422            4 
 3292000   0.73582747   -7.9404486    715.87524  0.018121589  0.017585065            1 
 3293000   0.74214441   -7.9411064    717.60799  0.018159935  0.017579719            2 
 3294000   0.73677188   -7.9561942    714.75083   0.01808214  0.017574352            2 
 3295000   0.73538973   -7.9372556    716.49119  0.018120668  0.017568997            3 
 3296000   0.73026701   -7.9170957    716.26199  0.018109375  0.017563651            4 
 3297000    0.7241404   -7.9060989    716.09451  0.018099649  0.017558309            2 
 3298000   0.71519556   -7.9217645    718.66592  0.018159135  0.017552987            6 
 3299000   0.72737771   -7.9162248    717.85887  0.018133244  0.017547651            3 
 3300000   0.70458241   -7.9359814    715.04864  0.018056784  0.017542276            7 
 3301000   0.73265444   -7.9400202    717.05434  0.018101947  0.017536895            3 
 3302000   0.72240589    -7.953262    716.26952  0.018076658  0.017531532            3 
 3303000   0.71427325   -7.9335518    715.67099  0.018056085  0.017526172            3 
 3304000    0.7147951   -7.9092547    716.72697  0.018077254  0.017520829            5 
 3305000   0.71735764   -7.9207932    716.14736   0.01805717  0.017515463            4 
 3306000   0.71958877   -7.9425878     717.0249  0.018073828  0.017510114            4 
 3307000   0.71843437   -7.9368735    715.91921    0.0180405  0.017504749            6 
 3308000   0.72440191     -7.92513    716.71821  0.018055175   0.01749938            2 
 3309000   0.71970318   -7.9280229    716.64963  0.018047991  0.017494016            1 
 3310000   0.72581645   -7.9393186    715.72542   0.01801927  0.017488663            4 
 3311000   0.71831477   -7.9497285     717.1076  0.018048616  0.017483304            3 
 3312000   0.71759166   -7.9587979     717.4149  0.018050898  0.017477948            5 
 3313000   0.71985508   -7.9493209    716.46726  0.018021613  0.017472584            2 
 3314000   0.71249999   -7.9305361     717.0749  0.018031455  0.017467235            4 
 3315000    0.7266856   -7.9318506    717.74064  0.018042751  0.017461888            3 
 3316000   0.70979115   -7.9271044    717.27028  0.018025489  0.017456555            2 
 3317000    0.7269404   -7.9276258    715.60826    0.0179783  0.017451227            3 
 3318000   0.72512527   -7.9114201    716.00285  0.017982792  0.017445882            2 
 3319000   0.74929274   -7.9295332    716.08138  0.017979346  0.017440527            2 
 3320000   0.71795266   -7.9180221    716.43302  0.017982756  0.017435161            2 
 3321000   0.72131569   -7.9125133    717.75496  0.018010513  0.017429799            1 
 3322000   0.73960548   -7.9382054    717.41648  0.017996601  0.017424446            4 
 3323000   0.70886382    -7.943201    713.43415  0.017891317  0.017419083            5 
 3324000   0.71347775   -7.9794759    716.15567  0.017954163  0.017413714            3 
 3325000   0.72362582   -7.9527981    716.26608  0.017951531  0.017408352            2 
 3326000   0.71125216   -7.9424722    715.79072  0.017934223  0.017402997            5 
 3327000   0.72504401    -7.932695    716.58463  0.017948718  0.017397642            2 
 3328000   0.71473914   -7.9482252    717.83427  0.017974616    0.0173923            2 
 3329000   0.71859043   -7.9418066     717.8237  0.017968952   0.01738696            4 
 3330000   0.71279214   -7.9454063    718.62599  0.017983633  0.017381621            2 
 3331000   0.71641086   -7.9597339    717.61527  0.017952949  0.017376296            2 
 3332000   0.73170418   -7.9409482    717.40588  0.017942324  0.017370959            3 
 3333000   0.70752127   -7.9589209    716.86602  0.017923443  0.017365609            4 
 3334000   0.70441179   -7.9517517    718.15394  0.017950258  0.017360263            3 
 3335000   0.70419568   -7.9491818    716.27309  0.017897878  0.017354924            2 
 3336000   0.71029264   -7.9529746    716.67046  0.017902439  0.017349577            3 
 3337000   0.72843991   -7.9661867    717.26624  0.017911953  0.017344229            6 
 3338000    0.7234912   -7.9531554    716.91098  0.017897718  0.017338884            1 
 3339000   0.70961627   -7.9491337    715.74741  0.017863318  0.017333543            4 
 3340000   0.69890891   -7.9480427    717.67268  0.017906005  0.017328216            2 
 3341000   0.70906005   -7.9532819    718.52588  0.017921927  0.017322876            2 
 3342000   0.70931063   -7.9555777    717.65755  0.017894912  0.017317557            3 
 3343000   0.72075855   -7.9456402    717.30512  0.017880774   0.01731222            4 
 3344000    0.7269519   -7.9411902    717.37045  0.017877055  0.017306897            5 
 3345000   0.72494999   -7.9334758    716.46668  0.017849195  0.017301578            3 
 3346000   0.71678355   -7.9679148    715.29744   0.01781474  0.017296244            2 
 3347000   0.71097533   -7.9567326    717.99954  0.017876694  0.017290881            2 
 3348000   0.72586057   -7.9734205    717.26703  0.017853122  0.017285546            4 
 3349000   0.70834726   -7.9470699    716.82406  0.017836769  0.017280221            3 
 3350000   0.72535533   -7.9305133    718.55144  0.017874414  0.017274873            4 
 3351000   0.71965624   -7.9535575    717.73138  0.017848686  0.017269546            7 
 3352000   0.69766306   -7.9576053    717.37375  0.017834471    0.0172642            3 
 3353000   0.70552939   -7.9642456    717.61572  0.017835166  0.017258851            3 
 3354000   0.71386353    -7.967236    715.85194  0.017786025  0.017253505            2 
 3355000   0.71878263   -7.9477451    715.92132  0.017782447  0.017248159            2 
 3356000    0.7197899   -7.9735906     718.3682  0.017837907  0.017242813            5 
 3357000   0.71903712   -7.9541401    717.86158  0.017820017   0.01723746            6 
 3358000   0.69648642   -7.9651751    717.48315  0.017805319   0.01723211            3 
 3359000   0.71790212   -7.9811628    717.92562  0.017810996  0.017226757            5 
 3360000   0.72060663   -7.9844771    715.37047  0.017742323  0.017221415            4 
 3361000   0.69339036   -7.9659356    716.41437  0.017762927  0.017216055            4 
 3362000   0.72176549   -7.9733263    717.68628   0.01778917  0.017210697            6 
 3363000   0.72177168   -7.9619513    718.84479  0.017812588  0.017205355            5 
 3364000   0.72025338   -8.0115766    716.05313  0.017738137  0.017200016            2 
 3365000   0.72568995    -7.953861    716.89614  0.017753743  0.017194674            5 
 3366000   0.71255427   -7.9767852    716.92957  0.017749296  0.017189336            2 
 3367000   0.70812528   -7.9861465    716.70209  0.017738394  0.017183996            4 
 3368000   0.71294911   -7.9617159    716.72136  0.017733605  0.017178644            4 
 3369000   0.70615386   -7.9583667    717.32539  0.017743282  0.017173295            5 
 3370000   0.69726602   -7.9651999    716.18401  0.017709793  0.017167944            3 
 3371000   0.69842922    -7.967377    717.33389  0.017732965    0.0171626            3 
 3372000   0.70851592   -7.9720509    715.69755  0.017687267  0.017157273            3 
 3373000   0.69251321   -7.9586372     717.4606  0.017725581  0.017151944            4 
 3374000   0.73288933   -7.9669721     717.2211  0.017714412  0.017146614            5 
 3375000   0.71030035   -7.9722593    716.15476  0.017682834  0.017141276            3 
 3376000   0.72421231   -7.9798381    717.59038  0.017713033  0.017135946            2 
 3377000   0.72951552   -7.9714089    717.53949  0.017706532  0.017130629            5 
 3378000   0.71359775   -7.9640353     716.8663  0.017684683  0.017125309            5 
 3379000   0.71431745   -7.9877996     718.0577  0.017708831  0.017119986            3 
 3380000   0.73235223   -7.9628576    717.59121  0.017692091  0.017114671            3 
 3381000    0.7068814   -7.9801589    715.39753  0.017632789  0.017109354            5 
 3382000   0.69972978   -7.9644159    716.71394  0.017660012  0.017104043            5 
 3383000   0.72529499   -7.9684483    718.06314  0.017688027  0.017098754            2 
 3384000   0.70284984   -7.9439943    718.93454  0.017704259  0.017093455            3 
 3385000    0.7118484   -7.9452276    719.16771  0.017704769  0.017088138            2 
 3386000   0.71407555   -7.9497392    717.46524   0.01765764  0.017082843            3 
 3387000    0.7105556   -7.9603604    717.63166  0.017656521  0.017077549            2 
 3388000   0.70633573   -7.9777604    715.75351  0.017605114  0.017072244            3 
 3389000   0.70354749   -7.9755622    717.32968  0.017638676  0.017066918            3 
 3390000   0.72885207   -7.9572259    718.67038   0.01766643  0.017061618            3 
 3391000   0.71316514   -8.0005842    715.53075  0.017584064  0.017056292            6 
 3392000   0.70381982     -7.94991    717.80285  0.017634701  0.017050979            5 
 3393000   0.71421614   -7.9715626    717.70116  0.017627006  0.017045664            3 
 3394000   0.70764036   -7.9596707    718.57519  0.017643272  0.017040357            3 
 3395000   0.70419772   -7.9722693      716.714  0.017592391  0.017035046            4 
 3396000   0.70448812   -7.9814926    716.35113  0.017578306  0.017029709            4 
 3397000   0.71217437   -7.9746418    717.03475  0.017589902  0.017024382            4 
 3398000   0.69172959   -7.9544436    719.59692   0.01764756  0.017019072            4 
 3399000   0.71672868    -7.980435    717.19066  0.017583374  0.017013764            5 
 3400000    0.7104907   -7.9885208    716.71677  0.017566587  0.017008436            4 
 3401000   0.72924434    -7.992662    716.28377  0.017550813  0.017003107            2 
 3402000   0.69799556   -7.9540848    717.76761  0.017582001  0.016997776            3 
 3403000    0.6970445   -8.0009838    716.36677   0.01754253  0.016992456            5 
 3404000   0.71507603   -7.9744445    717.42921  0.017563386   0.01698713            2 
 3405000   0.68870189   -7.9625811    717.30028  0.017555073  0.016981815            2 
 3406000   0.71123466    -7.981746    715.38607  0.017503084  0.016976491            3 
 3407000   0.70113628   -7.9606394    717.32066  0.017545266  0.016971169            5 
 3408000   0.70520742   -7.9837415    716.63274  0.017523297  0.016965847            2 
 3409000   0.71885109    -7.960346     716.8008  0.017522265  0.016960527            2 
 3410000   0.72223723   -7.9577299    717.24778  0.017528049   0.01695523            2 
 3411000   0.69136018   -7.9620861    717.17632  0.017521165  0.016949933            3 
 3412000   0.70263036   -7.9670139    717.10431  0.017514271  0.016944641            3 
 3413000   0.70041113   -7.9788285    716.81493  0.017502074   0.01693934            2 
 3414000   0.70424871    -7.964966    717.43046  0.017511972  0.016934027            3 
 3415000    0.7034553   -7.9577665    717.75786  0.017514833  0.016928706            7 
 3416000   0.71189079   -7.9714306    717.10424  0.017493761  0.016923387            3 
 3417000    0.7083197   -7.9843479    718.85968  0.017531452  0.016918067            3 
 3418000   0.69794553   -7.9692383    718.11519  0.017508172  0.016912762            2 
 3419000   0.68555166   -8.0045505    717.12542  0.017478927  0.016907452           10 
 3420000   0.70436731   -7.9927735    716.90556  0.017468459   0.01690213            2 
 3421000   0.72188217   -7.9813641     716.3052  0.017448729  0.016896802            3 
 3422000   0.68709791   -7.9982184    717.94238  0.017483498  0.016891474            5 
 3423000   0.70398038   -8.0047538    716.26129  0.017437464  0.016886133            1 
 3424000   0.69988437   -7.9858842    717.00156  0.017450388  0.016880814            3 
 3425000   0.70313294    -8.019179    716.70283  0.017438025  0.016875488            1 
 3426000   0.70408964    -7.985375    715.39078  0.017401021  0.016870166            3 
 3427000   0.70586129   -8.0343232    714.63414  0.017377545  0.016864851            2 
 3428000   0.70400938   -7.9743855    716.10194  0.017408157  0.016859527            4 
 3429000   0.71015397    -8.021985    716.75699     0.017419  0.016854209            2 
 3430000   0.70263287    -8.000002    715.01245  0.017371537  0.016848892            3 
 3431000   0.69646769   -8.0152368    716.62111  0.017405545  0.016843571            2 
 3432000   0.69842842   -8.0057276    716.95587  0.017408602  0.016838257            2 
 3433000   0.69283418   -7.9795021    717.16201  0.017408535  0.016832949            4 
 3434000   0.69727785   -7.9942561    715.18954  0.017355599  0.016827624            3 
 3435000   0.70199304   -7.9935839    717.07078  0.017396186  0.016822303            3 
 3436000   0.70087825   -7.9791213    717.32746  0.017397348  0.016816992            2 
 3437000   0.69900687   -8.0028805    716.74968  0.017378278  0.016811673            2 
 3438000   0.70930159   -8.0261435    716.59587  0.017369495  0.016806353            2 
 3439000     0.691257   -8.0325993    716.59838  0.017364505  0.016801044            4 
 3440000   0.70468718   -7.9895336    715.70365  0.017337782   0.01679573            1 
 3441000   0.71201693   -7.9781634    715.88057  0.017337028   0.01679045            2 
 3442000   0.69180973   -7.9778244    715.93477  0.017333304  0.016785159            4 
 3443000   0.69050487   -8.0001212     717.6109  0.017368838  0.016779863            6 
 3444000   0.70279079   -7.9925957    717.79267  0.017368193  0.016774573            6 
 3445000   0.71504385   -8.0044401    717.46039  0.017355113  0.016769291            2 
 3446000   0.69984239   -7.9881081    717.83376  0.017359106  0.016764011            2 
 3447000   0.69935459   -7.9999413     717.2964  0.017341079   0.01675872            9 
 3448000    0.6974966   -7.9684949    717.32817  0.017336818  0.016753433            3 
 3449000   0.71246159     -7.99172    715.87003   0.01729656   0.01674815            3 
 3450000   0.70798831   -7.9898968    716.46057  0.017305811  0.016742872            4 
 3451000   0.70435909   -7.9750219    715.88228  0.017286832  0.016737585            4 
 3452000   0.69286229   -8.0021844    716.59004   0.01729891  0.016732295            3 
 3453000   0.69266601   -8.0098748    715.79879  0.017274804  0.016727005            2 
 3454000   0.70467043   -8.0095675    716.75725  0.017292927  0.016721704            2 
 3455000   0.70822798    -7.978661     717.9868  0.017317579  0.016716408            3 
 3456000   0.69693221   -8.0038883    717.01396   0.01728911  0.016711122            3 
 3457000     0.690409   -7.9816655    718.90209  0.017329623  0.016705846            5 
 3458000   0.70316799   -7.9867225    717.35999  0.017287449  0.016700574            5 
 3459000   0.69089704   -7.9915148    717.92618  0.017296092  0.016695298            5 
 3460000    0.7079343   -7.9836835    717.79716  0.017287986  0.016690043            3 
 3461000   0.69746369   -7.9840744    717.44606  0.017274537  0.016684778            4 
 3462000    0.7013887   -7.9874616    717.57178  0.017272573  0.016679505            2 
 3463000     0.700056   -7.9874787    716.30185  0.017237026  0.016674237            6 
 3464000   0.68510501   -8.0111414    716.75435  0.017242936  0.016668961            5 
 3465000   0.71160724   -8.0044416    718.55932  0.017281369  0.016663694            1 
 3466000   0.69560471   -8.0129864    716.44295  0.017225499  0.016658415            4 
 3467000   0.70390358   -7.9897322    716.54506  0.017222985  0.016653146            2 
 3468000   0.70547785   -7.9986275    716.38115   0.01721408  0.016647879            5 
 3469000   0.70754678   -7.9923055     716.6851  0.017216419  0.016642603            2 
 3470000   0.69279261   -8.0058581     717.8811   0.01724018  0.016637325            3 
 3471000    0.6900125   -8.0026604    716.54853   0.01720322  0.016632063            3 
 3472000   0.70061753   -7.9966617    716.87546  0.017206112  0.016626808            6 
 3473000   0.69189645   -7.9688306    717.73787  0.017221851  0.016621569            7 
 3474000   0.68419314   -7.9776987    716.41752  0.017185222  0.016616324            3 
 3475000   0.69331984   -8.0147159     718.6486  0.017233779  0.016611081            3 
 3476000   0.69381203   -7.9815185    717.68482  0.017205716   0.01660583            4 
 3477000   0.69101222   -7.9725759    717.76492  0.017202687  0.016600593            3 
 3478000   0.70157956   -7.9875656    717.14024  0.017182774  0.016595354            3 
 3479000   0.69951154   -7.9983384    717.88266  0.017195618   0.01659011            1 
 3480000   0.68687958   -7.9937444    718.08861  0.017195608  0.016584858            4 
 3481000   0.69578745   -7.9869462    718.26552  0.017194904  0.016579618            5 
 3482000   0.69946035   -7.9876925    717.59763  0.017173981  0.016574389            2 
 3483000   0.71706938   -8.0016019    716.86966  0.017151633  0.016569148            9 
 3484000   0.68853654   -7.9931504    718.32468  0.017181513  0.016563921            3 
 3485000   0.70405189    -7.990735    718.14423  0.017172268  0.016558682            3 
 3486000   0.68985177   -8.0256049    718.39094  0.017173239  0.016553444            2 
 3487000    0.7032594   -7.9883797    717.55375  0.017148307  0.016548221            4 
 3488000   0.70730508   -7.9999869    717.83147  0.017150025  0.016542986            5 
 3489000   0.70236937   -7.9863163    717.70508  0.017142091  0.016537764            5 
 3490000   0.69442353   -7.9963863    718.70262  0.017160999  0.016532541            4 
 3491000   0.70710051   -8.0062995    717.98821  0.017139029  0.016527312            3 
 3492000   0.67818988   -7.9973379      718.187  0.017138865  0.016522094            3 
 3493000   0.69194212   -8.0134445    718.51915  0.017141882   0.01651688            2 
 3494000    0.6883845   -8.0155771    716.38619  0.017086104  0.016511654            3 
 3495000   0.69920058   -8.0377375     715.5731  0.017061829  0.016506415            3 
 3496000   0.70177377    -8.012897    717.24134  0.017096714  0.016501173            2 
 3497000   0.68510975    -8.033498    717.85447  0.017106436  0.016495942            4 
 3498000    0.6867584    -8.011425    717.59083  0.017095265  0.016490715            2 
 3499000   0.71052996   -8.0190109    716.25144   0.01705848  0.016485512            3 
 3500000   0.69237485   -8.0266519     716.5518  0.017060757  0.016480298            2 
 3501000   0.69423428   -8.0084633    717.27589  0.017073119  0.016475085            2 
 3502000   0.69974347   -8.0273486    718.34487  0.017093681  0.016469876           10 
 3503000   0.69433601   -8.0069479    718.13073  0.017083708  0.016464661            3 
 3504000   0.70450158   -8.0275178    717.58181  0.017065777  0.016459455            2 
 3505000   0.69022846   -8.0144607     717.1123  0.017049746  0.016454258            4 
 3506000   0.70244143    -7.989603    716.80304  0.017037532  0.016449042            4 
 3507000   0.69466542   -8.0028762    717.42481  0.017047448  0.016443825            4 
 3508000   0.70179643   -8.0113848    718.80322  0.017075333  0.016438613            2 
 3509000   0.70732709    -8.025384     716.8425  0.017023903  0.016433398            3 
 3510000   0.70043048   -8.0155365    715.47821  0.016986662  0.016428175            3 
 3511000   0.70586535   -8.0445715    716.64993  0.017009635   0.01642294            3 
 3512000   0.69914168   -8.0040709    717.12021   0.01701595  0.016417708            5 
 3513000   0.68963183    -8.027751    717.58735  0.017022188  0.016412467            3 
 3514000   0.68841342   -8.0266337    716.22301  0.016984989  0.016407228            4 
 3515000   0.67947827   -8.0382634      716.297  0.016981911  0.016401989            3 
 3516000   0.68583968   -8.0237762    718.00233  0.017017499  0.016396757            3 
 3517000   0.69757253   -7.9805752    716.05258  0.016966463   0.01639154            5 
 3518000   0.68564744    -8.025907    716.91508   0.01698207  0.016386344            2 
 3519000   0.66430223   -8.0030612    718.88485   0.01702389  0.016381157            4 
 3520000   0.69752247   -8.0108142    717.95478  0.016997036   0.01637595           10 
 3521000   0.67577816    -8.014628    718.69096  0.017009632  0.016370753            2 
 3522000   0.68480404    -8.029253    718.38204  0.016997493  0.016365538            8 
 3523000   0.69390875    -8.014414      718.016   0.01698401  0.016360334            4 
 3524000   0.68401071   -8.0220814    717.37556  0.016964045   0.01635514            3 
 3525000   0.68285119   -8.0295437     717.6498  0.016965716  0.016349955            2 
 3526000   0.68561142   -8.0537407    718.10756  0.016971723  0.016344747            3 
 3527000   0.68222162   -8.0247257    716.26674  0.016923418  0.016339543            2 
 3528000   0.68713179   -8.0431828    717.19149  0.016940464  0.016334343            3 
 3529000   0.68831818   -8.0257643    717.56398   0.01694446  0.016329151            2 
 3530000   0.68078974   -8.0164758    717.60019  0.016940514  0.016323959            3 
 3531000   0.68797163   -7.9977273    718.64144  0.016960291  0.016318787            2 
 3532000   0.69243064   -8.0291337    717.25325  0.016922736  0.016313595            4 
 3533000   0.69500369   -8.0267776    717.60799  0.016926314  0.016308407            2 
 3534000    0.6861348   -8.0307608    717.53307  0.016919757  0.016303215            3 
 3535000   0.68824903   -8.0317627    716.76443  0.016896851  0.016298033            2 
 3536000   0.68618084   -8.0273525    718.14399  0.016924585  0.016292856            3 
 3537000   0.67674867   -8.0408486    717.53482  0.016905448  0.016287666            3 
 3538000   0.68737457   -8.0303939    717.89706  0.016909201  0.016282475            2 
 3539000   0.68687769   -8.0526743    717.69335  0.016899627  0.016277297            3 
 3540000   0.68288297   -8.0382961    717.62126  0.016893156  0.016272112            1 
 3541000   0.68229889   -8.0580433     716.7187  0.016867144  0.016266934            2 
 3542000   0.69755938   -8.0350191    717.74306  0.016886483   0.01626175            4 
 3543000   0.67523836   -8.0330437    718.24745   0.01689358   0.01625657            3 
 3544000   0.67591297   -8.0378353    717.36452  0.016868052  0.016251388            3 
 3545000    0.6858783   -8.0237913    717.04092  0.016855687  0.016246225            2 
 3546000   0.66993939   -8.0345009     717.7377  0.016867308  0.016241049            2 
 3547000   0.67499124   -8.0215619    718.02703   0.01686935  0.016235884            3 
 3548000   0.68580863   -8.0487342    718.51039  0.016875949   0.01623074            3 
 3549000   0.70123665   -8.0321156    717.10098  0.016838099  0.016225589            2 
 3550000   0.68752041   -8.0135883    718.64444  0.016869588  0.016220431            6 
 3551000   0.68953778   -8.0447492    716.90602  0.016824041  0.016215277            3 
 3552000   0.68226952   -8.0345136    718.78186  0.016863313   0.01621012            3 
 3553000   0.68315066   -8.0447674    718.16717   0.01684415  0.016204948            6 
 3554000   0.68599625   -8.0211431    716.56763  0.016801905   0.01619978            6 
 3555000    0.6928184   -8.0378418    719.67584  0.016870039  0.016194613            2 
 3556000   0.68590699   -8.0328821    717.76792  0.016820583  0.016189447            3 
 3557000   0.67923923   -8.0448305    716.54315   0.01678716  0.016184302            2 
 3558000   0.68599691   -8.0176962    718.16555  0.016820441  0.016179152            5 
 3559000    0.6794164   -8.0150011    718.74487   0.01682928  0.016174015            3 
 3560000    0.6925222   -8.0258422    718.88161  0.016827753  0.016168892            2 
 3561000   0.67868922   -8.0405075     718.4576  0.016813105  0.016163764            6 
 3562000   0.68113228   -8.0218578    719.98514  0.016844122  0.016158636            5 
 3563000    0.6779849   -8.0464177    717.84525  0.016789345  0.016153517            3 
 3564000   0.68376157   -8.0283332     717.7747  0.016782985  0.016148395            3 
 3565000   0.68702782   -8.0233412     718.5227  0.016795762   0.01614327            1 
 3566000   0.69174409   -8.0408828    719.30868  0.016809419  0.016138153            5 
 3567000   0.68203213   -8.0484471     719.7187  0.016814286  0.016133045            4 
 3568000   0.67390839   -8.0500403    718.30324  0.016776514  0.016127931            2 
 3569000   0.69050975   -8.0419983    717.64508  0.016756446  0.016122813            3 
 3570000   0.67847687   -8.0340362    718.63373   0.01677483  0.016117681            2 
 3571000   0.68287757    -8.038013    719.42395  0.016788574  0.016112559            5 
 3572000   0.67655995   -8.0400562    719.44654  0.016784401  0.016107443            2 
 3573000   0.68075122    -8.028236    719.10628  0.016771767  0.016102327            6 
 3574000   0.69236415   -8.0656598    718.80244   0.01675999  0.016097185            3 
 3575000   0.67282156    -8.064142    716.82266  0.016709153   0.01609205            3 
 3576000    0.6609091   -8.0394446    717.86137  0.016728686  0.016086926            3 
 3577000   0.67636556   -8.0171691    718.36976  0.016735853  0.016081796            4 
 3578000   0.66689315   -8.0542867     717.3984  0.016708552  0.016076673            3 
 3579000   0.67015833   -8.0314097    718.21332  0.016722858  0.016071535            4 
 3580000   0.68941633   -8.0311466    717.56229  0.016703033   0.01606641            5 
 3581000   0.66497416   -8.0615974     717.0131  0.016685588  0.016061284            5 
 3582000   0.67221214   -8.0458363    717.58616  0.016694262  0.016056137            4 
 3583000   0.68700901   -8.0375328    719.15691  0.016726135  0.016051009            2 
 3584000   0.68024616    -8.029433    717.59993  0.016685266   0.01604587            3 
 3585000   0.65753821   -8.0269888    716.42156  0.016653221  0.016040752            6 
 3586000   0.67054199   -8.0665597    717.99142  0.016685058  0.016035621            2 
 3587000   0.67824701   -8.0315756    717.81379   0.01667628    0.0160305            3 
 3588000   0.67795937   -8.0842101     717.8028  0.016671377  0.016025381            4 
 3589000   0.67696567   -8.0430947    718.04483  0.016672351  0.016020254            5 
 3590000   0.66641795   -8.0593326    718.97731  0.016689353  0.016015127            8 
 3591000   0.67645779   -8.0372001    719.40485  0.016694627  0.016010025            5 
 3592000    0.6892995   -8.0644215    716.22624  0.016616236  0.016004921            4 
 3593000   0.68626932   -8.0424019    717.97247  0.016652112  0.015999816            2 
 3594000   0.67175089   -8.0338467    719.32019  0.016678728   0.01599471            3 
 3595000   0.67065205   -8.0441919    717.98342  0.016643102  0.015989594            2 
 3596000   0.67711457   -8.0160004    716.65855  0.016607771  0.015984484            3 
 3597000   0.66538409   -8.0511538     719.3021  0.016664399  0.015979371            2 
 3598000   0.67007296   -8.0752072    718.16912  0.016633526  0.015974271            7 
 3599000   0.67473639   -8.0589392    718.74054  0.016642135  0.015969153            2 
 3600000   0.68135265   -8.0389244    719.06551  0.016645035  0.015964044            1 
 3601000   0.66259386   -8.0447579    720.69175  0.016678047  0.015958944            5 
 3602000   0.67851569   -8.0716347    718.19425  0.016615636  0.015953832            3 
 3603000   0.67839876   -8.0678193    718.05379  0.016607776  0.015948725            2 
 3604000   0.66024704    -8.061098    717.88001  0.016599149  0.015943631            2 
 3605000   0.66740413   -8.0685857    717.55337  0.016586994  0.015938517            2 
 3606000   0.68242435   -8.0722625    716.95965  0.016568674  0.015933404            5 
 3607000   0.66911369   -8.0419599    717.84248  0.016584477  0.015928311            4 
 3608000   0.67938872    -8.050882    718.63027  0.016598075   0.01592321            4 
 3609000   0.67278785   -8.0522612    716.54199  0.016545257  0.015918109            2 
 3610000   0.67149653   -8.0589998    718.06691  0.016575875  0.015913012            5 
 3611000   0.67070126   -8.0668727    717.44373  0.016556903  0.015907913            3 
 3612000   0.67275494   -8.0628457    718.06114  0.016566564  0.015902812            6 
 3613000    0.6785626   -8.0538763    719.84481  0.016603119  0.015897721            3 
 3614000   0.67994313   -8.0523926    717.70394  0.016549159  0.015892629            2 
 3615000   0.67584233   -8.0544051      717.667   0.01654373  0.015887528            2 
 3616000   0.67273618   -8.0388505    718.63932  0.016561562  0.015882439            2 
 3617000   0.67008429     -8.07161    718.51006  0.016554006  0.015877351            2 
 3618000   0.67261437   -8.0590928     717.4425  0.016524841  0.015872272            4 
 3619000    0.6673329   -8.0654365    718.83604  0.016552363  0.015867176            3 
 3620000   0.67220498   -8.0759019    717.73305    0.0165224  0.015862083            3 
 3621000   0.67876315   -8.0435225    719.79229  0.016565228  0.015857003            2 
 3622000    0.6818874   -8.0463837    719.04579  0.016543479  0.015851934            9 
 3623000   0.68053332   -8.0437398    719.58956  0.016551421  0.015846868            4 
 3624000   0.68341759   -8.0371107    718.54128  0.016522748  0.015841795            2 
 3625000   0.68104416   -8.0614582    717.23595  0.016488183  0.015836707            3 
 3626000   0.66443981   -8.0542479    716.99715  0.016478147  0.015831623            4 
 3627000   0.66850805   -8.0671294     717.3336  0.016481334  0.015826542            2 
 3628000   0.67601294   -8.0875531    717.62107  0.016483395  0.015821457            4 
 3629000   0.67362595   -8.0669512    718.71152  0.016503893  0.015816386            4 
 3630000   0.66406445   -8.0453913    718.95284  0.016504886  0.015811318            4 
 3631000    0.6741095    -8.055039    717.86785   0.01647544  0.015806254            3 
 3632000   0.67559951   -8.0497271    717.80391  0.016469436  0.015801199            4 
 3633000   0.68378476   -8.0539997    717.41739  0.016456037  0.015796146            5 
 3634000   0.66919615    -8.059202    718.01291  0.016465165  0.015791083            4 
 3635000   0.67986142   -8.0723718    718.31064  0.016467461  0.015786028            4 
 3636000   0.67440639   -8.0758175    718.71364  0.016472168  0.015780968            2 
 3637000    0.6763608   -8.0719251    719.45899  0.016484717  0.015775901            3 
 3638000   0.67331601   -8.0702515    718.34651  0.016454703  0.015770854            2 
 3639000   0.65917657    -8.065203    717.69135  0.016435178    0.0157658            2 
 3640000   0.67742212   -8.0744716    718.57301  0.016450847  0.015760751            5 
 3641000   0.67390173   -8.0745267    718.25103   0.01643896  0.015755701            2 
 3642000   0.67094947   -8.0741349    718.19534  0.016433172  0.015750642            1 
 3643000   0.65668823   -8.0661649    718.71318  0.016440507  0.015745602            5 
 3644000   0.68054627   -8.0647159    719.02678  0.016443166  0.015740566            3 
 3645000   0.67095748   -8.0522838    717.99864   0.01641515  0.015735527            7 
 3646000   0.67273819   -8.0577829    718.90066  0.016431264   0.01573049            5 
 3647000   0.67441028   -8.0738683    717.60428  0.016397136  0.015725445            7 
 3648000   0.68909862    -8.107955    719.06845  0.016426089  0.015720409            3 
 3649000   0.67442936   -8.0517079    720.47499  0.016453709  0.015715378            3 
 3650000   0.66657946   -8.0725303    718.32167  0.016400038  0.015710342            3 
 3651000   0.68203365   -8.0579577    718.62402  0.016402447  0.015705313            4 
 3652000   0.65651383   -8.0704022    719.12201  0.016409319  0.015700278            6 
 3653000   0.67558834    -8.089717    716.38429  0.016342374  0.015695241           11 
 3654000   0.64968775     -8.08515    718.95281  0.016396479  0.015690203            2 
 3655000    0.6607283   -8.0740809    717.50527  0.016358989  0.015685162            2 
 3656000   0.66268469   -8.0544097    718.37759  0.016374398  0.015680118            5 
 3657000   0.65996401   -8.0730805    718.33196  0.016368881  0.015675074            5 
 3658000    0.6701413     -8.07583    717.25135  0.016339788  0.015670042            5 
 3659000   0.67042673   -8.0777668    718.24288  0.016357905  0.015665022            3 
 3660000   0.66761301    -8.089305    719.46951  0.016381364  0.015659997            3 
 3661000   0.67418898   -8.0718954    718.44882  0.016353656  0.015654977            7 
 3662000   0.65910761   -8.0645016    717.57574  0.016329322  0.015649971            4 
 3663000   0.65918453   -8.0889963    720.04617  0.016381067  0.015644971            8 
 3664000   0.68908988   -8.0587821    718.59425  0.016343574  0.015639973            2 
 3665000   0.66145617   -8.0726067    718.31839  0.016332842  0.015634961            3 
 3666000   0.66629403   -8.0858155    718.92812  0.016342247  0.015629942            4 
 3667000   0.66312488   -8.0790514      717.469  0.016304631  0.015624925            6 
 3668000    0.6646026   -8.0920628    717.62051  0.016303628  0.015619903            3 
 3669000   0.67518954   -8.0716227    718.30194  0.016314662  0.015614902            3 
 3670000   0.64669655   -8.1062422    717.71832  0.016296965   0.01560988            4 
 3671000   0.66120128   -8.0850909    719.32487  0.016328995  0.015604853            5 
 3672000   0.65392715   -8.0897072    718.49888  0.016305803  0.015599844            2 
 3673000   0.66812333   -8.0970606    717.13112  0.016270331  0.015594823            3 
 3674000   0.65998265   -8.0819602       718.25  0.016291281    0.0155898            4 
 3675000   0.66508597   -8.0772746    718.24342  0.016286699  0.015584796            3 
 3676000   0.65728523   -8.0816093    718.02751  0.016277374  0.015579802            1 
 3677000   0.66873755   -8.0575413     719.6956  0.016310751  0.015574805            5 
 3678000   0.66378807    -8.079001    719.24082  0.016296013  0.015569813            3 
 3679000   0.67396952   -8.0941409    718.13819  0.016266607  0.015564809            2 
 3680000   0.65968229    -8.076979    718.58037    0.0162722  0.015559819            4 
 3681000   0.65713138   -8.0809335     719.0241  0.016277825  0.015554838            4 
 3682000   0.66804083   -8.0716781    719.77911  0.016290492  0.015549854            3 
 3683000   0.65357471   -8.0955459    719.12374   0.01627124  0.015544876            3 
 3684000   0.66968789   -8.0591347    719.50789  0.016275513  0.015539899            5 
 3685000   0.65859668   -8.0771768    719.75781  0.016276748  0.015534919            3 
 3686000   0.65596464   -8.0726516    719.02536  0.016255773  0.015529958            3 
 3687000   0.65951071   -8.0654511    718.77924  0.016245801  0.015524971            3 
 3688000   0.65905473   -8.1088874    717.12382  0.016203991  0.015519986            4 
 3689000   0.65857334   -8.0772989    717.25976  0.016202669  0.015515002            4 
 3690000   0.66720262   -8.0843897    718.49597  0.016226196  0.015510018            2 
 3691000   0.65704257    -8.105734    718.75739  0.016227702  0.015505011            2 
 3692000   0.66101974   -8.0948618    717.51611   0.01619529  0.015500005            4 
 3693000   0.65249071   -8.0794848    717.81649  0.016197682  0.015495003            3 
 3694000   0.65505533   -8.1021187     717.8753  0.016194624  0.015490011            2 
 3695000    0.6480942   -8.0728008    720.03886  0.016239036  0.015485021            3 
 3696000   0.65581565   -8.0989854    717.41916  0.016175576  0.015480019            6 
 3697000   0.65823184   -8.1128516    719.69489  0.016222498  0.015475033            4 
 3698000   0.65910623   -8.0882655    719.27285    0.0162086  0.015470047            4 
 3699000   0.66067135   -8.1162532    718.38508  0.016184218  0.015465071            5 
 3700000    0.6580558    -8.117419    718.89008  0.016191218  0.015460094            3 
 3701000   0.66552213   -8.0588044    718.99118   0.01618912   0.01545511            3 
 3702000   0.66043845   -8.1040784    718.78182  0.016180034  0.015450134            4 
 3703000   0.64861728   -8.1149044    718.08181  0.016159911  0.015445158            4 
 3704000   0.66342354   -8.1119176    718.07617  0.016155421  0.015440194            1 
 3705000   0.67308156   -8.1064833    718.07672  0.016151073  0.015435225            3 
 3706000   0.67146256    -8.102477    718.95302   0.01616642  0.015430257            5 
 3707000   0.66412221   -8.0960615    718.54018  0.016152778  0.015425298            4 
 3708000    0.6644607   -8.0954869     718.8698   0.01615583  0.015420334            5 
 3709000   0.66653963   -8.0932328     717.5024  0.016120751  0.015415365            5 
 3710000   0.66126953   -8.1195585    718.23433  0.016132847  0.015410403            4 
 3711000   0.67586895   -8.0988509    717.83673  0.016119571  0.015405438            4 
 3712000   0.65549171   -8.1094698    718.10678  0.016121291  0.015400472            3 
 3713000   0.66015021   -8.1047741    718.35061  0.016122421  0.015395513            4 
 3714000   0.64077129   -8.1186378    719.22141  0.016137619  0.015390555            4 
 3715000   0.65566421   -8.1030333    718.12328  0.016108642  0.015385609            4 
 3716000   0.64306312    -8.110949    719.21241  0.016128732  0.015380652            6 
 3717000   0.64155998   -8.1032227    718.45421  0.016107394  0.015375704            3 
 3718000   0.66076011   -8.1037593    718.57553  0.016105781  0.015370753            3 
 3719000   0.65047532   -8.1000594    719.86443  0.016130331  0.015365803            6 
 3720000    0.6504876   -8.1075416    718.76561   0.01610138  0.015360862            3 
 3721000   0.65135007   -8.0924583    718.02638  0.016080498  0.015355917            2 
 3722000   0.65059429   -8.1018629      717.963  0.016074758  0.015350979            4 
 3723000   0.65220054   -8.1110589    718.00732  0.016071433  0.015346032            6 
 3724000   0.66011202   -8.1310164     717.3802  0.016053084  0.015341084            4 
 3725000    0.6463811   -8.0973167    718.62576  0.016076639  0.015336144            4 
 3726000   0.66310861   -8.1236696    717.54931  0.016048249   0.01533119            3 
 3727000   0.66449855   -8.1427514    718.60034  0.016067443  0.015326242            8 
 3728000   0.66359228   -8.1072326    718.25166  0.016055339  0.015321298            4 
 3729000   0.65392362   -8.1022428    717.18441  0.016027184  0.015316359           11 
 3730000   0.65968292   -8.1330321    718.62805   0.01605514  0.015311416            9 
 3731000   0.65293574   -8.1189485     717.5589  0.016026957  0.015306479            9 
 3732000    0.6564335   -8.1174555    719.83159   0.01607341  0.015301546            4 
 3733000   0.64681091   -8.1360606     718.0857   0.01603013  0.015296617            8 
 3734000   0.65574798   -8.1361668    717.98461  0.016023581  0.015291686            8 
 3735000   0.64005899   -8.1339993    718.57391  0.016032439  0.015286752            3 
 3736000   0.65028565   -8.1494459    718.80843  0.016033379  0.015281816            8 
 3737000   0.66899448   -8.1145572    717.56831  0.016001434  0.015276881            6 
 3738000   0.64888391   -8.1103432    717.37758  0.015992901  0.015271957            3 
 3739000   0.63873818   -8.0976486    718.11731  0.016005111  0.015267033            2 
 3740000   0.65319464   -8.1111819    719.63444  0.016034635  0.015262113            3 
 3741000   0.65485287   -8.1095212    719.57689  0.016029067  0.015257192            3 
 3742000   0.65442117   -8.1292831    716.30586  0.015951939  0.015252273            2 
 3743000   0.66470186   -8.1314419    718.73875  0.016001842  0.015247344            3 
 3744000   0.64364185   -8.1300319    717.96013  0.015980238   0.01524241            2 
 3745000   0.66597587   -8.1466241    717.94319  0.015975594  0.015237484            1 
 3746000   0.64488663   -8.1252965    718.21241  0.015977318  0.015232567            3 
 3747000   0.65165844   -8.1190653    718.62799  0.015982297  0.015227663            3 
 3748000   0.65228042   -8.1041746    720.14937  0.016011859  0.015222757            6 
 3749000    0.6570651   -8.1366214    717.76737  0.015954641  0.015217848            4 
 3750000   0.64807917   -8.1452153    718.91374  0.015975861  0.015212935            4 
 3751000   0.66393731     -8.12504    718.22868  0.015956382  0.015208015            4 
 3752000   0.64879698   -8.1377937    717.71002   0.01594061   0.01520311            7 
 3753000    0.6506926   -8.1303945    717.55878  0.015933004  0.015198196            4 
 3754000   0.64996988    -8.154626    716.98138  0.015915942  0.015193281            4 
 3755000   0.65167111   -8.1480174     718.3735  0.015942599  0.015188357            6 
 3756000   0.65841644   -8.1422015     718.1618  0.015933657  0.015183438            8 
 3757000   0.64988628   -8.1557727    717.83415  0.015922149  0.015178523            4 
 3758000   0.65642338   -8.1504359    716.81817  0.015895382    0.0151736            4 
 3759000   0.64383183   -8.1385975    718.30694  0.015924158  0.015168684            1 
 3760000   0.65463049   -8.1520201    717.58921  0.015904016   0.01516377            3 
 3761000   0.64495597   -8.1613163    719.28427  0.015937345  0.015158859            2 
 3762000   0.65720634   -8.1571427    718.54317  0.015916693   0.01515394            4 
 3763000   0.65786814    -8.120576    717.84579  0.015897019  0.015149036            3 
 3764000   0.64280441   -8.1440488    718.29581  0.015902759  0.015144136            5 
 3765000   0.66100886   -8.1506142    718.69065  0.015907274   0.01513923            2 
 3766000   0.64661957   -8.1419127    718.44222  0.015897553   0.01513433            3 
 3767000   0.65450222   -8.1303542    719.11705  0.015908261  0.015129441            4 
 3768000   0.64939949   -8.1392614    719.30632  0.015908225  0.015124551            8 
 3769000   0.65487491   -8.1186102     719.3175  0.015904252  0.015119669            3 
 3770000   0.64757158   -8.1331009    717.42734  0.015858252  0.015114781            4 
 3771000   0.63245807   -8.1662629    718.67146   0.01588154  0.015109891            6 
 3772000   0.64393437   -8.1476615    718.50566  0.015873667     0.015105            3 
 3773000    0.6715131   -8.1508513    718.07432  0.015859933  0.015100112            2 
 3774000    0.6381595   -8.1509887    718.60294  0.015867403  0.015095229            4 
 3775000   0.64255533   -8.1495054    719.10379  0.015874256   0.01509034            4 
 3776000   0.65267936    -8.120786    719.12304  0.015870477  0.015085469            5 
 3777000   0.64925158   -8.1482652    718.83781  0.015859982  0.015080593            2 
 3778000   0.64830406   -8.1580553    717.27576  0.015821329  0.015075716            5 
 3779000   0.64529382   -8.1472004     718.4808  0.015843715  0.015070833            2 
 3780000   0.64831606   -8.1575757    719.31628  0.015857943  0.015065964            2 
 3781000   0.64146441   -8.1559946    718.20585  0.015829275  0.015061093            3 
 3782000   0.63864383   -8.1505405    718.64929   0.01583486   0.01505623            5 
 3783000   0.64879784   -8.1235897    719.32662  0.015845595  0.015051358            2 
 3784000   0.65217501    -8.156774    718.55952  0.015824514  0.015046489            2 
 3785000   0.66290539   -8.1323792    718.10768  0.015810385  0.015041628            2 
 3786000   0.65268129   -8.1249404    718.98689  0.015825561  0.015036765            3 
 3787000   0.64221114   -8.1097249    717.06899  0.015779178  0.015031914            3 
 3788000   0.62740601   -8.1322992    718.21949  0.015800323  0.015027061            5 
 3789000   0.64084348    -8.127229    718.59209  0.015804348   0.01502222            3 
 3790000   0.64201999   -8.1382141    717.87919  0.015784503  0.015017376            3 
 3791000   0.64984517   -8.1257854    719.65257  0.015819321  0.015012527            3 
 3792000   0.63948615   -8.1558705    718.30815  0.015785605  0.015007679            2 
 3793000   0.63534566   -8.1515916    718.37748  0.015782966  0.015002822            1 
 3794000   0.65858092   -8.1399789     719.5921  0.015805485  0.014997977            4 
 3795000   0.63940474    -8.128686    719.38721  0.015796821  0.014993139            4 
 3796000   0.63124526   -8.1401492    717.26714  0.015746117  0.014988288            1 
 3797000   0.63553183   -8.1370077    718.12681  0.015760838  0.014983449            3 
 3798000   0.63905591   -8.1440903    718.40818  0.015762862  0.014978604            1 
 3799000   0.63086832    -8.114365    718.47543  0.015760188  0.014973762            3 
 3800000   0.64031382   -8.1370957    716.77333  0.015718713  0.014968907            1 
 3801000   0.62573506   -8.1446732     718.5607  0.015753764  0.014964065            2 
 3802000   0.64936066   -8.1417268    718.16086  0.015740857  0.014959223            4 
 3803000   0.65845905   -8.1278348    718.61157  0.015746594  0.014954382            2 
 3804000   0.64751755    -8.149766    718.31059  0.015735861  0.014949532            2 
 3805000   0.64612324    -8.147404    718.31685  0.015731863  0.014944683            3 
 3806000   0.63688385   -8.1548535    718.47322  0.015731153  0.014939834            2 
 3807000   0.66698046   -8.1509584    718.22687  0.015721628  0.014934976            3 
 3808000   0.64092025   -8.1565428    717.09317   0.01569269  0.014930123            4 
 3809000   0.65489336   -8.1582113    717.94188  0.015707138  0.014925264            2 
 3810000   0.63998477   -8.1421219    718.45658  0.015714273  0.014920406            3 
 3811000   0.65345057    -8.153949    718.14187  0.015703268   0.01491556            4 
 3812000   0.61511358   -8.1563828    716.35044  0.015659987  0.014910712            3 
 3813000    0.6514097   -8.1496486    718.39927  0.015700657  0.014905863            2 
 3814000   0.62849721   -8.1514903    716.61968  0.015657658  0.014901024            7 
 3815000   0.63229567   -8.1676632    716.50057  0.015650952  0.014896177            3 
 3816000   0.66076603   -8.1224828    718.21656  0.015684324  0.014891335            4 
 3817000   0.65349741   -8.1408914     719.3931  0.015705901  0.014886502            4 
 3818000   0.64391804   -8.1391712     718.2628  0.015677117  0.014881682            3 
 3819000   0.64001044   -8.1533553    719.21442  0.015693777  0.014876848            5 
 3820000   0.65687749   -8.1517069    717.41551  0.015650426  0.014872014            4 
 3821000   0.62962797   -8.1379874    717.09365   0.01563931  0.014867185            2 
 3822000   0.65604641    -8.149794    717.75773  0.015649698  0.014862346            2 
 3823000   0.63918877   -8.1575175    718.03392  0.015651624   0.01485752            3 
 3824000   0.65272866   -8.1375231    717.77713  0.015641935  0.014852699            2 
 3825000     0.648621   -8.1224668    718.08844  0.015644628  0.014847878            4 
 3826000   0.65400609   -8.1695393    717.34615  0.015624372  0.014843057            6 
 3827000   0.62124047   -8.1436474    717.75123   0.01562911  0.014838236            3 
 3828000   0.64372895   -8.1485208    719.60405  0.015665362  0.014833421            4 
 3829000   0.63544781   -8.1530204    717.28128  0.015610718  0.014828603            3 
 3830000   0.64726006    -8.153383    717.97813  0.015621804  0.014823786            7 
 3831000   0.64989059   -8.1205119    717.67462  0.015611125  0.014818976           16 
 3832000   0.63908216    -8.151836    717.35738  0.015600152  0.014814172            2 
 3833000   0.63990595   -8.1363767    717.96655  0.015609326  0.014809363            4 
 3834000   0.63614162   -8.1405593    717.62245  0.015597775  0.014804557            5 
 3835000   0.63625626   -8.1407629    718.10831  0.015604266  0.014799741            2 
 3836000    0.6398872   -8.1467165    717.51172  0.015587238   0.01479493            2 
 3837000   0.63852195   -8.1613408    717.66641  0.015586535  0.014790124            6 
 3838000   0.63731426   -8.1570527    717.37814  0.015576215  0.014785318            3 
 3839000   0.65559854   -8.1650179    717.33803  0.015571287    0.0147805            1 
 3840000   0.64286245   -8.1546735    718.58261  0.015594241  0.014775688            3 
 3841000    0.6443531   -8.1627207    717.52417  0.015567217  0.014770879            3 
 3842000   0.62584168   -8.1745891    717.23805  0.015556959  0.014766062            2 
 3843000   0.63060931   -8.1451313    718.43599  0.015578888  0.014761249            3 
 3844000   0.63421882   -8.1703574    717.59972  0.015556706   0.01475645            4 
 3845000   0.62674656   -8.1359665    717.12494   0.01554237  0.014751652            2 
 3846000   0.62710884   -8.1511724    718.09968  0.015559449  0.014746853            4 
 3847000   0.63029082    -8.167634    716.94301  0.015530349   0.01474205            3 
 3848000   0.65591713   -8.1667832    719.08479  0.015572696  0.014737246            4 
 3849000   0.63539537   -8.1586877    717.43889  0.015533015  0.014732452            4 
 3850000   0.64951395   -8.1509985    717.60538  0.015532584  0.014727658            8 
 3851000   0.61100823   -8.1601449    717.96938  0.015536427  0.014722873            3 
 3852000   0.63805723   -8.1308001    717.93118  0.015531568   0.01471809            4 
 3853000   0.62635243   -8.1436818    718.72059   0.01554461   0.01471331            6 
 3854000    0.6499723   -8.1608331    718.23523  0.015530082  0.014708538            2 
 3855000   0.63262398   -8.1737476     717.6916  0.015514302  0.014703761            2 
 3856000    0.6347149   -8.1502475    717.99637  0.015516865   0.01469899            3 
 3857000   0.63960627   -8.1450681    717.90028  0.015510766  0.014694223            3 
 3858000    0.6350556    -8.156523    718.84701  0.015527195  0.014689468            4 
 3859000   0.63568723   -8.1367048    717.23985  0.015488465  0.014684717            2 
 3860000   0.64571625   -8.1622962    717.99149   0.01550068  0.014679966            3 
 3861000   0.63226364   -8.1518687      718.866   0.01551554  0.014675214            3 
 3862000   0.65006752   -8.1467617    718.97934  0.015513968  0.014670466            6 
 3863000   0.64399132    -8.144288    719.86747  0.015529111  0.014665714            2 
 3864000   0.63358765   -8.1611292    718.17616  0.015488616  0.014660954            3 
 3865000    0.6327348   -8.1675768    717.91086  0.015478889  0.014656193            4 
 3866000   0.63373572   -8.1576157    718.85895  0.015495321  0.014651436            4 
 3867000   0.61728813   -8.1523597    717.21046   0.01545579  0.014646672            3 
 3868000   0.62717518   -8.1432356    719.50963  0.015501328  0.014641914            3 
 3869000   0.64247449   -8.1522746     718.9826   0.01548597  0.014637168            3 
 3870000   0.62582375   -8.1555199    718.61423  0.015474036  0.014632405            3 
 3871000   0.65169802   -8.1655519    717.93975  0.015455519   0.01462765            2 
 3872000   0.63539083   -8.1766044    717.06528  0.015432707  0.014622888            1 
 3873000   0.63500624   -8.1791451    717.92052  0.015447124  0.014618128            2 
 3874000    0.6263519    -8.157892    716.23126  0.015406799   0.01461338            4 
 3875000   0.62684927   -8.1707834     718.0319  0.015441546  0.014608618            4 
 3876000   0.64121432   -8.1446502    719.73602  0.015474201  0.014603879            3 
 3877000   0.62958826    -8.175805    717.82004  0.015429027  0.014599137            5 
 3878000   0.63101763   -8.1690308    718.20649  0.015433353  0.014594402            3 
 3879000   0.61958673   -8.1649253    718.86981  0.015443624  0.014589667            3 
 3880000   0.63248683   -8.1465833    718.14408  0.015424057  0.014584923            2 
 3881000    0.6359954   -8.1550731    718.06988  0.015418489  0.014580189            3 
 3882000   0.63207946   -8.1353633    718.22671  0.015417884  0.014575453            2 
 3883000   0.63734737   -8.1583594    718.27495  0.015414949  0.014570724            3 
 3884000    0.6064107   -8.1768259     718.6362  0.015418731  0.014565984            3 
 3885000   0.63598391   -8.1819856    718.23025  0.015406054  0.014561257            3 
 3886000   0.63518539   -8.1587021    717.86447  0.015394246  0.014556528            5 
 3887000    0.6308472   -8.1539691    718.75293  0.015409333  0.014551801            2 
 3888000   0.62549381   -8.1614306     718.0413  0.015390117  0.014547073            3 
 3889000   0.63035736   -8.1798474     718.6492  0.015399186  0.014542342            4 
 3890000   0.62799285   -8.1622648    717.72881   0.01537551  0.014537609            5 
 3891000   0.63431898   -8.1755778    718.16252  0.015380847  0.014532889            2 
 3892000   0.62540036   -8.1875311     718.4154   0.01538231  0.014528156            3 
 3893000   0.64151973   -8.1805552    719.05403  0.015392029  0.014523429            3 
 3894000   0.63653836    -8.162121    719.00294  0.015386983    0.0145187            4 
 3895000   0.62197251   -8.1976118    717.96284   0.01536078  0.014513975            3 
 3896000   0.62621269   -8.1785528    717.15791   0.01533962  0.014509249            3 
 3897000   0.63067104   -8.1820712    717.63071  0.015345794  0.014504532            3 
 3898000   0.62121237   -8.1847802    717.14015   0.01533137   0.01449981            3 
 3899000   0.63510091   -8.1735808    719.57163  0.015379406  0.014495095            2 
 3900000   0.63154225   -8.1822798    717.50654  0.015331336  0.014490376            3 
 3901000   0.62811609   -8.1857175    716.56378  0.015307267  0.014485649            3 
 3902000   0.62861559   -8.1844392    716.90929  0.015310723  0.014480926            5 
 3903000   0.60733779   -8.1833564    717.23609  0.015313778  0.014476208            4 
 3904000   0.60725005   -8.1820768    717.17243  0.015308496  0.014471488            3 
 3905000    0.6165993   -8.1734687    716.76666  0.015295917  0.014466775            1 
 3906000   0.61755662   -8.1876985    717.63183  0.015310459  0.014462059            3 
 3907000   0.63544571   -8.1730621    716.37342  0.015279699  0.014457346            3 
 3908000   0.62860137   -8.1747914    717.59128  0.015301759  0.014452633            4 
 3909000   0.62878415   -8.1725719    716.96408  0.015284473  0.014447927            4 
 3910000   0.62267479     -8.20032    716.06279  0.015261355  0.014443222            3 
 3911000   0.62722698   -8.1930257    717.79264  0.015294312  0.014438517            7 
 3912000   0.61840171   -8.1844375    717.14075  0.015276516  0.014433815            5 
 3913000   0.63148038   -8.1782556    717.37822  0.015277669  0.014429115            2 
 3914000   0.63808598   -8.1828439    717.14476  0.015268795  0.014424415            4 
 3915000    0.6242477   -8.2002578    717.07777  0.015263469  0.014419711            3 
 3916000   0.62218314   -8.1670334    717.10041  0.015260053  0.014415008            4 
 3917000   0.63133407   -8.1860752    717.48554  0.015264351  0.014410309            3 
 3918000   0.62602625   -8.1852085    717.21996  0.015254806  0.014405612            5 
 3919000   0.62089591   -8.1896584    717.60409  0.015259082  0.014400908            2 
 3920000   0.62035622   -8.1862153    717.07664  0.015243976  0.014396213            2 
 3921000   0.62031596   -8.1933579    717.70363  0.015253414  0.014391508            2 
 3922000   0.64346104    -8.194213    716.90023  0.015232454   0.01438681            3 
 3923000   0.61907515   -8.1775141    718.07806  0.015253591   0.01438211            3 
 3924000   0.62070641    -8.173898     718.6037  0.015260867  0.014377413            3 
 3925000   0.62915966   -8.1798544    717.19152  0.015226996  0.014372724            3 
 3926000   0.62870697   -8.1918852    717.13677  0.015221956  0.014368024            3 
 3927000   0.61694344   -8.1868236    716.61337  0.015206972  0.014363325            6 
 3928000   0.62305875   -8.2011309    716.99772  0.015211255  0.014358626            3 
 3929000   0.61965659   -8.1782853    716.19574  0.015190374  0.014353932            6 
 3930000   0.62317287   -8.1909911    716.38691  0.015190562  0.014349236           11 
 3931000   0.63525642    -8.197133     716.4972  0.015189036  0.014344528            8 
 3932000   0.62312832    -8.200857     715.6698  0.015167637  0.014339822            4 
 3933000   0.60459739   -8.1980408    716.63277  0.015184185  0.014335127            5 
 3934000   0.62890008   -8.2142747     715.9121  0.015165059  0.014330431            3 
 3935000   0.62786283   -8.1722955    715.92689  0.015161518   0.01432573            4 
 3936000   0.63404098   -8.2004425    716.03009  0.015159851  0.014321039            4 
 3937000   0.62096845   -8.2051507    718.46536  0.015207547  0.014316343            7 
 3938000   0.63257878   -8.2125465    716.81951  0.015168857  0.014311651            5 
 3939000   0.62637657   -8.1998595    715.95178  0.015146648   0.01430695            4 
 3940000   0.62359472   -8.2077535    716.17616   0.01514755  0.014302257            9 
 3941000    0.6294994   -8.1944218     717.2099  0.015165565   0.01429756            3 
 3942000   0.62153846   -8.2185947    716.11711  0.015138616  0.014292862            3 
 3943000   0.63008488   -8.1994041    717.79242  0.015170184  0.014288169            3 
 3944000   0.61147987   -8.2051773    715.73727  0.015122914  0.014283481            6 
 3945000   0.61981986   -8.2240638    716.21156  0.015129099  0.014278797            4 
 3946000    0.6136825   -8.2055809    716.83627  0.015138458  0.014274107            5 
 3947000   0.61472275   -8.1862352    717.29673  0.015144344  0.014269428            6 
 3948000   0.62185232   -8.1988004    715.93168  0.015111695  0.014264749            4 
 3949000     0.619666   -8.2032015    716.32231  0.015116112  0.014260078            7 
 3950000   0.63464299   -8.1971855    717.97517  0.015147155  0.014255404            7 
 3951000    0.6304849   -8.2008804    716.77455  0.015117999  0.014250736            9 
 3952000   0.63163932   -8.2102753    716.41769  0.015106648  0.014246058            6 
 3953000   0.61699083   -8.2139345    715.87077  0.015091297  0.014241375            8 
 3954000   0.61492847   -8.2254276    717.35057  0.015118668  0.014236692            6 
 3955000   0.61396431   -8.2048671    715.63979  0.015078799  0.014232012            3 
 3956000   0.61680608    -8.209133    715.15813  0.015064841  0.014227343            5 
 3957000   0.62149873   -8.2121991    718.16863  0.015124434  0.014222671            4 
 3958000   0.62709652   -8.2219295      715.824  0.015071248  0.014217991            6 
 3959000   0.62634263   -8.2352277    714.91315  0.015048269  0.014213314            5 
 3960000   0.61591804   -8.2156154    716.42448  0.015076273  0.014208641            3 
 3961000   0.61782443   -8.2182604    715.43399  0.015051628  0.014203964            5 
 3962000   0.62457684    -8.233945    716.98238  0.015080397  0.014199287            6 
 3963000   0.62121761   -8.2237558    717.35538  0.015084435  0.014194623            3 
 3964000   0.63394116    -8.215877    715.89097  0.015049844  0.014189955            6 
 3965000   0.63071869   -8.2262464    715.53015  0.015038465  0.014185291            4 
 3966000   0.61125462   -8.2108904    716.35402  0.015051984  0.014180632            6 
 3967000   0.62309026   -8.2192858    716.54446   0.01505219  0.014175966            3 
 3968000   0.60952029   -8.2144798     715.7501  0.015031714  0.014171299            4 
 3969000   0.62328542   -8.2071052    716.12057  0.015035705  0.014166636            2 
 3970000   0.61319618   -8.2076283    716.74774  0.015045083  0.014161973            3 
 3971000   0.61931093   -8.2151881    715.93983   0.01502434  0.014157311            7 
 3972000   0.62354079   -8.2310498    716.03411  0.015022535  0.014152646            6 
 3973000   0.63093102   -8.2349771    716.25839  0.015023458  0.014147989            5 
 3974000   0.61781334   -8.2138316    716.55194  0.015025833  0.014143327            3 
 3975000    0.6151882   -8.2021405    715.92002  0.015008805  0.014138662            5 
 3976000   0.61644944   -8.2024229    716.09463   0.01500869   0.01413401            5 
 3977000   0.61664517   -8.2278405    716.09136  0.015004848  0.014129361            6 
 3978000   0.60882308   -8.2212629    714.72688  0.014972492  0.014124708            4 
 3979000   0.61176556   -8.2227355     716.7319  0.015010721   0.01412005            9 
 3980000   0.61631279   -8.2390663    715.92461  0.014990046  0.014115401            3 
 3981000   0.62046553   -8.2387606    715.52082  0.014977829  0.014110755            5 
 3982000   0.59035962   -8.2457615    716.01221  0.014984351  0.014106103            4 
 3983000   0.61975598   -8.2337039    714.78698  0.014954954  0.014101453            5 
 3984000   0.61192716    -8.212486    714.72878  0.014949983  0.014096808            4 
 3985000   0.61993259   -8.2291585    716.73484  0.014988181  0.014092165            3 
 3986000   0.61183408   -8.2285612    715.14902  0.014951267  0.014087527            5 
 3987000   0.61877965   -8.2158018    716.36186  0.014972867  0.014082892            3 
 3988000    0.6218825   -8.2151832    715.89529  0.014959363  0.014078262            5 
 3989000   0.61956636   -8.2200456    715.35629  0.014944353  0.014073628            2 
 3990000   0.60446384   -8.2175903    716.50313   0.01496456  0.014069007            2 
 3991000   0.61469199   -8.2210986    715.86779  0.014947544  0.014064379            6 
 3992000   0.62256834   -8.2051525    714.84537  0.014922457  0.014059748            4 
 3993000   0.61549582   -8.2131789     716.0554  0.014943973  0.014055124            3 
 3994000   0.62099303   -8.2166582    715.85229  0.014935993  0.014050504            6 
 3995000   0.61274319   -8.2092758    715.79641  0.014931089  0.014045883            6 
 3996000   0.60819179   -8.2144329    716.09239  0.014933525  0.014041269            3 
 3997000   0.60769674   -8.2117669    715.52107  0.014917877  0.014036656            4 
 3998000   0.60753559   -8.2136278    716.78509  0.014940493  0.014032047            1 
 3999000   0.60614443    -8.207718    715.99027  0.014920194  0.014027435            3 
 4000000    0.6031966     -8.20777    716.53084  0.014927726  0.014022831            4 
 4001000   0.62161815   -8.2217187    716.33562  0.014919929  0.014018217            3 
 4002000   0.61231033   -8.2397669     714.9754  0.014887877  0.014013601            3 
 4003000    0.6257963   -8.2039024    715.95666  0.014904585  0.014008995            1 
 4004000   0.60762427   -8.2221474    714.31037  0.014866599  0.014004386            3 
 4005000   0.60993013   -8.2326582    716.07392  0.014899582  0.013999778            2 
 4006000    0.6122665   -8.2307362     715.5704  0.014885389  0.013995163            2 
 4007000   0.61397749    -8.227836     715.3807  0.014877729  0.013990547            4 
 4008000   0.62967076   -8.2242155     715.2908  0.014872147   0.01398593            6 
 4009000    0.6056424   -8.2491007    714.06126   0.01484288  0.013981315            4 
 4010000   0.61643589   -8.2229933    715.91455  0.014877692  0.013976707            2 
 4011000   0.61410042   -8.2363328    715.48032  0.014864961  0.013972108            3 
 4012000   0.60949388   -8.2186967    716.38112  0.014879967  0.013967501            2 
 4013000   0.60954622   -8.2284435    715.32289  0.014854284  0.013962897            1 
 4014000   0.60369281   -8.2565656    715.85026  0.014861532  0.013958289            3 
 4015000   0.60537026   -8.2322136    716.05328  0.014862044  0.013953687            3 
 4016000   0.59717905   -8.2181279    715.34984  0.014843747   0.01394908            4 
 4017000   0.60702895   -8.2308008     715.6166  0.014845585  0.013944469            2 
 4018000   0.61256408   -8.2333623    715.62721  0.014842111  0.013939869            6 
 4019000   0.61645487   -8.2482225    715.25888   0.01483078  0.013935272            1 
 4020000   0.61196474   -8.2399567    715.12909  0.014824401  0.013930683            2 
 4021000   0.60773471   -8.2330434    715.51481  0.014828708  0.013926094            4 
 4022000   0.60289737   -8.2149729    715.57371  0.014826241  0.013921499            4 
 4023000   0.60379519   -8.2370553    716.50869  0.014841923  0.013916903            2 
 4024000   0.59812184   -8.2268805    713.92185  0.014784664  0.013912309            3 
 4025000   0.61334551    -8.205015    714.99686  0.014803248  0.013907715            3 
 4026000   0.60147093   -8.2462752    715.52016  0.014810402  0.013903116            4 
 4027000   0.60251619   -8.2252655    714.91799  0.014794263  0.013898516            2 
 4028000   0.60744338   -8.2441885    714.20936   0.01477593  0.013893927            5 
 4029000   0.61144113   -8.2409424    714.42848  0.014776795  0.013889332            2 
 4030000   0.59937163   -8.2214844    715.75897   0.01480064  0.013884742            3 
 4031000   0.61877146   -8.2398654    714.90511  0.014779317  0.013880153            7 
 4032000   0.59859259   -8.2259443    714.46397  0.014766534  0.013875566            6 
 4033000   0.61505763   -8.2543287    716.21888  0.014799134  0.013870976            4 
 4034000    0.6202761   -8.2426118    716.30886  0.014797324  0.013866401            4 
 4035000   0.60165932    -8.230352    715.63857  0.014779814  0.013861831            5 
 4036000   0.60595561   -8.2290623    714.67776  0.014756313  0.013857255            5 
 4037000   0.59801135   -8.2318647    714.92448  0.014757751  0.013852683            5 
 4038000   0.60072095   -8.2568132    714.44622  0.014744226   0.01384811            4 
 4039000   0.60061839    -8.215344    714.92574  0.014750469   0.01384353            5 
 4040000   0.60592508   -8.2411172    715.49887   0.01475864  0.013838956            2 
 4041000   0.60058546   -8.2295078    715.40343   0.01475302   0.01383439            3 
 4042000   0.60014765   -8.2407205    714.69162  0.014734694  0.013829825            7 
 4043000    0.5910096   -8.2066478    715.26759  0.014742922   0.01382526            3 
 4044000   0.60336234   -8.2242655    715.32333  0.014740425  0.013820704            3 
 4045000   0.61004114   -8.2437777    715.40182  0.014738398   0.01381614            5 
 4046000   0.59850438   -8.2232733    715.06479  0.014727813  0.013811575            2 
 4047000   0.59500039    -8.233028    715.34059  0.014729853  0.013807022            2 
 4048000   0.61226458   -8.2415945    714.10053  0.014700686  0.013802459            2 
 4049000   0.60068175   -8.2341958    715.76048  0.014731219  0.013797906            4 
 4050000   0.59745007   -8.2335103    715.11705  0.014714343  0.013793362            2 
 4051000   0.60209471   -8.2387771    714.26088  0.014693098  0.013788816            3 
 4052000    0.6045743   -8.2366544    715.39129   0.01471272   0.01378427            3 
 4053000   0.60656033   -8.2248524    715.85337  0.014718591  0.013779718            3 
 4054000   0.60097324   -8.2319605     714.4911  0.014686957  0.013775178            4 
 4055000   0.61771034   -8.2059027     716.3695  0.014721938  0.013770644            2 
 4056000    0.5993737   -8.2166842    715.30289  0.014696394  0.013766111            3 
 4057000   0.60250194   -8.2578542    713.69737  0.014659793   0.01376157            2 
 4058000   0.59393313   -8.2328773    714.77761  0.014678364  0.013757028            3 
 4059000    0.6168241   -8.2388657    714.92718  0.014677818  0.013752489            3 
 4060000   0.60990023    -8.239709    715.93972  0.014694986  0.013747959            2 
 4061000   0.60511229   -8.2334298    715.01692  0.014672431  0.013743422            2 
 4062000   0.60795131   -8.2390444    714.61999  0.014660676  0.013738893            2 
 4063000   0.61239339   -8.2180622    714.66022  0.014657893  0.013734352            2 
 4064000   0.58476182   -8.2500517    714.89948  0.014659192   0.01372982            3 
 4065000   0.59740339   -8.2376052    714.45143  0.014646401  0.013725287            4 
 4066000    0.6088191   -8.2260674    714.16908  0.014637012  0.013720757            2 
 4067000   0.59933423   -8.2294688    714.65342  0.014643337  0.013716228            3 
 4068000   0.60968929   -8.2563155    715.67974  0.014660762  0.013711697            3 
 4069000    0.6035341   -8.2424105    715.56902  0.014654891  0.013707175            4 
 4070000   0.61218778     -8.25631    714.93816  0.014638373  0.013702647            3 
 4071000      0.59661   -8.2495732    714.76167  0.014631165  0.013698131            3 
 4072000    0.5970231   -8.2398741    715.31988  0.014638996  0.013693609            1 
 4073000   0.59588945   -8.2455351    714.83126  0.014625404  0.013689094            2 
 4074000   0.60034468   -8.2490783    716.02825  0.014646299   0.01368458            2 
 4075000   0.58928205   -8.2329231    715.45773  0.014631037  0.013680072            2 
 4076000   0.60058904   -8.2339881     715.6266    0.0146309  0.013675568            3 
 4077000   0.60197219   -8.2644888    717.01786  0.014655749  0.013671066            4 
 4078000   0.59943128   -8.2523918    716.26359  0.014636742  0.013666557            3 
 4079000   0.60148772   -8.2380959    714.30807  0.014593202  0.013662057            3 
 4080000   0.60442418   -8.2300965    715.27011  0.014609275  0.013657554            2 
 4081000   0.59780353   -8.2454006    714.71182  0.014594295  0.013653046            2 
 4082000   0.58818289   -8.2591486    715.29055  0.014602534  0.013648543            3 
 4083000   0.59917928   -8.2592858    714.37986  0.014580371  0.013644042            3 
 4084000   0.59251649   -8.2576873    714.76217  0.014584602  0.013639534            3 
 4085000   0.59986846   -8.2522068    714.60874  0.014577902  0.013635032            4 
 4086000   0.59859958     -8.25274    713.70848  0.014555973   0.01363053            2 
 4087000   0.59464145   -8.2613109    714.84293  0.014575543   0.01362603            4 
 4088000   0.58674034   -8.2602332    717.13637  0.014618729  0.013621536            3 
 4089000   0.59864733   -8.2678155     715.5524  0.014582873  0.013617044            2 
 4090000   0.60239683   -8.2411966      714.522  0.014558313  0.013612543            2 
 4091000   0.59553337   -8.2396065    715.31326  0.014570872  0.013608045            2 
 4092000   0.59548709   -8.2379173    716.11415  0.014583621  0.013603552            1 
 4093000   0.59419685   -8.2422669    715.53369   0.01456824  0.013599066            2 
 4094000   0.58264028   -8.2419119    713.48023  0.014522884  0.013594583            4 
 4095000   0.59488837   -8.2650907    715.94615  0.014569519  0.013590102            3 
 4096000   0.60300102   -8.2483788    714.68163  0.014540235  0.013585624            2 
 4097000   0.61180374   -8.2386201    715.59708  0.014555306   0.01358114            3 
 4098000   0.58929887   -8.2468344    713.70026  0.014513182  0.013576661            1 
 4099000   0.58924036   -8.2507213    714.53017  0.014526514  0.013572181            3 
 4100000    0.5890296   -8.2467456    715.24229  0.014537445  0.013567703            2 
 4101000   0.59317404   -8.2517538    714.78297  0.014524567   0.01356322            3 
 4102000   0.58983228   -8.2657744    715.34253  0.014532393  0.013558737            4 
 4103000   0.59455754   -8.2668783    712.80523  0.014477318  0.013554255            1 
 4104000   0.58584548   -8.2402373    715.69439  0.014532456  0.013549776            2 
 4105000   0.59351173    -8.264747    715.52209  0.014525418    0.0135453            1 
 4106000   0.59783647   -8.2571871    714.13626  0.014493754  0.013540824            4 
 4107000   0.60175594   -8.2636404    713.59503  0.014479243  0.013536345            2 
 4108000   0.59787862   -8.2727796    715.49523  0.014514265  0.013531873            3 
 4109000   0.59835878   -8.2314334    713.89083  0.014478195  0.013527396            2 
 4110000   0.59386206   -8.2583123    714.79689  0.014493043  0.013522925            3 
 4111000   0.58637037   -8.2749241    712.81091   0.01444926  0.013518454            4 
 4112000   0.59824659   -8.2315721    714.71207  0.014484275  0.013513985            8 
 4113000   0.60145941   -8.2552135    714.79207  0.014482374  0.013509525            7 
 4114000   0.58043987   -8.2409205    715.45242   0.01449223  0.013505065            3 
 4115000   0.59000078   -8.2534788    714.67107  0.014472885  0.013500604            4 
 4116000   0.58424032    -8.264125    714.78673  0.014471711  0.013496141            5 
 4117000   0.59829651   -8.2528231    715.50467  0.014482727  0.013491679            4 
 4118000   0.57542406    -8.254294    712.64796  0.014421401  0.013487222            7 
 4119000    0.5892267   -8.2275589    716.49761  0.014495784  0.013482773            3 
 4120000   0.59380476   -8.2631935    712.77517  0.014416974  0.013478324            5 
 4121000   0.60261604    -8.278168    715.17389  0.014461981  0.013473876            3 
 4122000   0.60712357   -8.2659376    713.95227  0.014433775  0.013469433            4 
 4123000   0.58769084    -8.247172    714.80663  0.014447543  0.013464989            2 
 4124000   0.59167955   -8.2783747    715.66178   0.01446132  0.013460549            1 
 4125000   0.58310017   -8.2595396    714.07895  0.014425837  0.013456103            5 
 4126000   0.59255157   -8.2715513    715.30155  0.014447034  0.013451661            3 
 4127000   0.59246273   -8.2695492    715.86067  0.014454823  0.013447217            4 
 4128000   0.60175887   -8.2488842     714.1973  0.014417743  0.013442773            4 
 4129000   0.58649015   -8.2546467     714.0933  0.014412152  0.013438327            2 
 4130000    0.5883705   -8.2771154    715.91436  0.014445407  0.013433894            1 
 4131000   0.59495896   -8.2542733    714.17456  0.014406814  0.013429461            3 
 4132000    0.5846598   -8.2445986    715.13671  0.014422731  0.013425022            3 
 4133000   0.59355074   -8.2550579    713.34792  0.014383174  0.013420579            2 
 4134000   0.58725938   -8.2398962     713.9808  0.014392453  0.013416146            1 
 4135000   0.59364819   -8.2764425    713.38537  0.014376972  0.013411708            5 
 4136000    0.5974373   -8.2628944    713.10283  0.014367804  0.013407267            4 
 4137000   0.58738568   -8.2829142    715.13626  0.014405291  0.013402828            2 
 4138000   0.59128569   -8.2646616    715.03725  0.014399816  0.013398388            2 
 4139000   0.57984624   -8.2572739     715.3078  0.014401784  0.013393953            2 
 4140000   0.59413969   -8.2635755    713.77681  0.014367488   0.01338952            4 
 4141000   0.57654875   -8.2865246    713.92934  0.014367088   0.01338509            3 
 4142000   0.57605482   -8.2631491    713.39486  0.014352866  0.013380657            4 
 4143000   0.58999601   -8.2569431    713.61184  0.014353766  0.013376223            2 
 4144000   0.58878503   -8.2793125    714.69092  0.014372002  0.013371798            2 
 4145000   0.60718614    -8.288741    713.71473  0.014348909  0.013367366            3 
 4146000    0.5835905   -8.2632978    713.55913   0.01434232  0.013362938            7 
 4147000   0.57737105   -8.2740342    715.27539   0.01437335  0.013358518            7 
 4148000   0.58074256   -8.2857356    713.81452  0.014340536  0.013354096            5 
 4149000   0.59650593   -8.2574327    714.24273   0.01434568  0.013349673            4 
 4150000   0.58830486   -8.2694793    714.36473  0.014344673  0.013345258            3 
 4151000   0.58758099   -8.2850575    713.35332  0.014320913   0.01334084            6 
 4152000    0.5758505   -8.2617763    713.95924  0.014329625  0.013336425            5 
 4153000    0.5887923   -8.2576403    713.96689  0.014326328  0.013332014            2 
 4154000   0.60236669   -8.2809925    713.61327  0.014315785  0.013327607            2 
 4155000   0.58139154   -8.2676027    712.80373  0.014296104  0.013323201            4 
 4156000   0.58237105   -8.2906177    714.28977  0.014322461  0.013318788            5 
 4157000   0.59260352    -8.280212    714.66339  0.014326505  0.013314387            4 
 4158000   0.57247834   -8.2690513    713.25402  0.014294814  0.013309977            3 
 4159000   0.58486224   -8.2768404    714.85993  0.014323554   0.01330557            1 
 4160000   0.58530675   -8.2596205     714.7687  0.014318283  0.013301166            6 
 4161000   0.58511677   -8.2970208    714.31003  0.014305656   0.01329677            5 
 4162000   0.58368679   -8.2722711    713.43998  0.014284798  0.013292375            4 
 4163000   0.59307999    -8.294106    713.42744  0.014281116  0.013287977            5 
 4164000   0.57482455   -8.2699132    714.51331  0.014299418   0.01328358            3 
 4165000   0.59148489   -8.2693899    713.74392  0.014280591  0.013279189            5 
 4166000   0.59678955   -8.2745283    714.36303  0.014289547  0.013274797            2 
 4167000   0.58525434   -8.2827812    714.36633  0.014286184  0.013270404            7 
 4168000    0.5841528   -8.2725551    713.48615  0.014265158  0.013266012           11 
 4169000   0.59210413   -8.2686471    713.60368  0.014264086  0.013261624            4 
 4170000   0.58531089   -8.2775897    713.59996  0.014260591  0.013257234            2 
 4171000   0.58722516   -8.2981399    713.43012  0.014253778  0.013252847            2 
 4172000   0.56342316   -8.2714336    714.17478  0.014265236  0.013248461            4 
 4173000   0.59349786   -8.2792336    713.58114  0.014249963  0.013244079            6 
 4174000    0.5906011   -8.2917034    713.08049  0.014236554  0.013239697            9 
 4175000   0.58292126   -8.2857969    713.76645  0.014246835  0.013235322            5 
 4176000   0.58468859   -8.2860391    714.44238  0.014256912  0.013230943            4 
 4177000   0.57452112   -8.2842985     712.8319  0.014221369  0.013226565            3 
 4178000   0.57619735   -8.2962758     713.7072  0.014235424  0.013222188            7 
 4179000   0.58014447   -8.2825094    714.85817  0.014254969  0.013217821            4 
 4180000    0.5814577   -8.2847017     713.7573  0.014229611  0.013213457            7 
 4181000   0.57791651   -8.2849805    713.81546  0.014227367   0.01320909            3 
 4182000   0.58219027   -8.2865558    713.15617  0.014210828  0.013204724            5 
 4183000   0.58088444   -8.2828662    713.65134  0.014217295  0.013200356            6 
 4184000   0.59113533   -8.2812806     713.6769  0.014214406  0.013195998            4 
 4185000   0.58218498   -8.2778762    713.34197   0.01420434  0.013191642            2 
 4186000   0.58245187   -8.2859644    714.01041  0.014214254  0.013187279            2 
 4187000   0.58064043   -8.2782911     714.8547  0.014227663  0.013182917            4 
 4188000   0.58747955   -8.2821726    715.60075  0.014239111  0.013178562            2 
 4189000   0.57212108   -8.2717574    714.81591  0.014220098  0.013174203            3 
 4190000   0.57252124   -8.2873758    715.07248  0.014221807  0.013169851            3 
 4191000   0.57825739   -8.3050506    713.20193   0.01418122  0.013165496            3 
 4192000   0.57541088   -8.2975906    714.43216  0.014202293  0.013161141            3 
 4193000   0.58834885   -8.2882359     712.9932  0.014170308  0.013156788            5 
 4194000   0.58662643   -8.2848497    712.87018  0.014164485   0.01315244            3 
 4195000   0.58249758   -8.2824994    712.77128  0.014159143  0.013148095            2 
 4196000   0.59024253   -8.2740827    714.44893  0.014189087   0.01314375            2 
 4197000   0.57151902    -8.310149     714.1774  0.014180315  0.013139406            3 
 4198000   0.57452893   -8.2944569    714.01805  0.014173774  0.013135062            3 
 4199000   0.58498026   -8.2987467     714.0013  0.014170066  0.013130719            2 
 4200000   0.57514488   -8.2985185    713.99296  0.014166527   0.01312637            8 
 4201000   0.58018676   -8.2759635    714.59864  0.014175169  0.013122027            4 
 4202000   0.56957732   -8.2901569    712.36469  0.014127493  0.013117688            5 
 4203000   0.57975927   -8.3113247    713.13297  0.014139364  0.013113349            8 
 4204000   0.59105573   -8.3236926    712.95501  0.014132473  0.013109009            3 
 4205000   0.58629792   -8.3041267    713.71414  0.014144156  0.013104671            5 
 4206000   0.56856444   -8.2928906    713.59995  0.014138531  0.013100337            2 
 4207000   0.57264194   -8.2877166    712.32678  0.014109951  0.013096003            7 
 4208000   0.57727851   -8.2833409    714.85768  0.014156719  0.013091674            4 
 4209000   0.57402607   -8.2947335    713.00347  0.014116644  0.013087349            2 
 4210000    0.5659075   -8.2942009    713.97525  0.014132527  0.013083016            2 
 4211000   0.56872057   -8.2969484    713.22764  0.014114376  0.013078695            3 
 4212000   0.56906502   -8.3044508    714.00112  0.014126328  0.013074366            3 
 4213000   0.57346708   -8.3125139    713.11676  0.014105482  0.013070037            2 
 4214000   0.57987203   -8.3165333    712.36759   0.01408732  0.013065712            2 
 4215000   0.59712294   -8.2764779    713.49444  0.014106256   0.01306139            3 
 4216000   0.58620778   -8.3152066    713.20146  0.014097119  0.013057079            2 
 4217000   0.58496112   -8.3052764    713.67877  0.014103209  0.013052766            2 
 4218000   0.58657018   -8.3047132    714.51307  0.014116348  0.013048455            1 
 4219000   0.57425936   -8.2983067    713.64498  0.014095856  0.013044144            3 
 4220000   0.57657973   -8.2860373    713.48401  0.014089337  0.013039837            2 
 4221000   0.57939504   -8.2958042    712.69321  0.014070386  0.013035532            2 
 4222000   0.57246883   -8.2955572    713.50557  0.014083088  0.013031235            3 
 4223000   0.57961994   -8.3020018    714.49282  0.014099235  0.013026937            3 
 4224000   0.56677878   -8.3173701    713.45647  0.014075451  0.013022635            4 
 4225000   0.57004676   -8.2864251    714.49164  0.014092537  0.013018332            2 
 4226000    0.5732939   -8.2879061    714.25682  0.014084572  0.013014037            5 
 4227000   0.57470162   -8.3045561     712.7139  0.014050822  0.013009743            3 
 4228000    0.5750961   -8.2924912    712.74921  0.014048195  0.013005446            4 
 4229000   0.56281773   -8.2967382    712.76878  0.014045258  0.013001148            2 
 4230000    0.5794827   -8.3203754    712.49483  0.014036541  0.012996847            3 
 4231000   0.55643135   -8.3069598     713.2325  0.014047753  0.012992548            4 
 4232000   0.57170244   -8.3132363    712.77398  0.014035405  0.012988251            2 
 4233000   0.56927409   -8.3284615    712.99336  0.014036408  0.012983953            3 
 4234000   0.59125146    -8.286655    713.24918  0.014038127  0.012979658            3 
 4235000   0.56950137   -8.3191751    713.38395  0.014037465  0.012975366            2 
 4236000   0.57267822   -8.3128183    714.11514  0.014048535  0.012971078            3 
 4237000   0.57056603   -8.3002868    713.70696  0.014037191  0.012966796            3 
 4238000   0.57278103   -8.3092737    713.44696  0.014028767  0.012962512            4 
 4239000   0.58613845    -8.283265    714.38642  0.014043926  0.012958234            4 
 4240000   0.56347146   -8.2885756    712.13321  0.013996329  0.012953953            3 
 4241000   0.57724443   -8.3054264    713.10863  0.014012195  0.012949678            3 
 4242000   0.57961179   -8.3119569     712.9963  0.014006685    0.0129454            3 
 4243000    0.5755194   -8.3043859     713.2145   0.01400767  0.012941127            4 
 4244000   0.58009066   -8.2902026    714.05355  0.014020844  0.012936856            4 
 4245000    0.5747288   -8.3140683    713.25261  0.014001818  0.012932582            2 
 4246000   0.55942803   -8.3044791    713.12458  0.013996008   0.01292831            2 
 4247000   0.58613613   -8.2937146    713.66988  0.014003412  0.012924038            3 
 4248000   0.58139054   -8.3261828    712.97445  0.013986473  0.012919767            3 
 4249000   0.56169149   -8.3154417    711.69213  0.013958032  0.012915489            3 
 4250000   0.56577267   -8.3061608    712.88076  0.013978054  0.012911218            5 
 4251000   0.57017214     -8.30757    712.53269  0.013967943   0.01290695            2 
 4252000   0.56777072   -8.3216274      713.883  0.013991122  0.012902688            4 
 4253000    0.5719082   -8.2972462    712.37506  0.013958286  0.012898424            4 
 4254000   0.57543175   -8.3128703    712.49083  0.013957272   0.01289416            2 
 4255000   0.57320778    -8.321601    713.23964  0.013968657  0.012889902            2 
 4256000   0.57753112   -8.3002281    711.54997  0.013932291  0.012885643            3 
 4257000   0.58636772    -8.325826    713.06232  0.013958623  0.012881382            2 
 4258000   0.56984875   -8.3151479    713.33448  0.013960672   0.01287712            2 
 4259000   0.56239083   -8.3146087    713.61056  0.013962796  0.012872859            3 
 4260000   0.57297947   -8.3125822    713.20448  0.013951574  0.012868605            2 
 4261000   0.57068766   -8.3089135    714.34529  0.013970611  0.012864351            4 
 4262000   0.56597029   -8.3112757    712.27181  0.013926791  0.012860098            3 
 4263000   0.57500581   -8.3077779    714.01924  0.013957683  0.012855846            4 
 4264000   0.56109934   -8.3020743    713.25461  0.013939466  0.012851594            3 
 4265000   0.56725344   -8.2885447    713.82278  0.013947299  0.012847343            2 
 4266000   0.57498494    -8.319806    712.64192  0.013920963  0.012843094            2 
 4267000   0.58439438   -8.3288285    712.23891   0.01390983  0.012838846            3 
 4268000   0.57798877   -8.3231538    712.51883  0.013912036  0.012834593            5 
 4269000   0.57548789   -8.3126506    713.36875  0.013925368  0.012830349            3 
 4270000   0.56631154   -8.3251614    714.01527  0.013934724  0.012826108            3 
 4271000   0.56556888   -8.3214747    713.62828  0.013923911  0.012821864            4 
 4272000   0.56990975   -8.3298868    712.39928  0.013896678  0.012817622            3 
 4273000   0.57754428   -8.3245119    714.12769  0.013927133  0.012813379            3 
 4274000   0.56366082   -8.3245476    712.65562  0.013895173  0.012809141            4 
 4275000   0.56829615   -8.3180705    712.87676  0.013896233  0.012804907            3 
 4276000   0.57062922    -8.308221    712.29143  0.013881576  0.012800673            3 
 4277000   0.57213825   -8.2883776    713.33552  0.013898673  0.012796441            3 
 4278000   0.56424172   -8.3309065    712.97414  0.013888385   0.01279221            5 
 4279000   0.56605453   -8.3163915    711.94947  0.013865184  0.012787977            3 
 4280000   0.57210502   -8.3290174    711.86963   0.01386039  0.012783744            4 
 4281000   0.56517329   -8.3105199     712.0876  0.013861395  0.012779515            4 
 4282000   0.56933109   -8.3350507    712.63969  0.013868902  0.012775294            3 
 4283000   0.57447189   -8.3192834    712.26647  0.013858403  0.012771066            2 
 4284000   0.56904386   -8.3249267    710.98981  0.013830334  0.012766838            5 
 4285000   0.57731207   -8.3289813    713.20971  0.013870278  0.012762615            3 
 4286000   0.56010532   -8.3342324    713.25206  0.013867866  0.012758396            3 
 4287000   0.56726501   -8.2945524    712.42273   0.01384851  0.012754178            3 
 4288000   0.57494737    -8.312634    712.86622  0.013853899  0.012749964            3 
 4289000   0.57084261   -8.3226623    711.91311   0.01383215  0.012745748            7 
 4290000   0.55164378   -8.3193144    713.16712  0.013853285  0.012741535            2 
 4291000   0.57996322   -8.3007902    713.20164  0.013850727  0.012737325            2 
 4292000   0.56365147   -8.3166705    712.69436  0.013837651  0.012733117            5 
 4293000    0.5606844   -8.3270751    713.96299  0.013859053  0.012728912            5 
 4294000   0.57223598   -8.3344286    712.21993  0.013821998  0.012724714            6 
 4295000   0.56185437   -8.3164728    713.65263  0.013846578  0.012720509            6 
 4296000   0.54332923   -8.3329419    712.36491  0.013818376  0.012716303            3 
 4297000   0.56241721   -8.3106146    712.76981  0.013823012  0.012712104           10 
 4298000    0.5641325   -8.3200921     712.8711   0.01382176  0.012707904            3 
 4299000   0.55783989   -8.3059496    711.78196  0.013797433   0.01270371            3 
 4300000   0.55614548   -8.3032071    712.52122  0.013808551  0.012699515            5 
 4301000   0.57820827   -8.3181155    713.16107  0.013817738  0.012695328            4 
 4302000   0.56965234   -8.3020532    713.71459  0.013825248  0.012691141            5 
 4303000   0.56486201   -8.3404297    712.44887  0.013797522  0.012686953            6 
 4304000   0.56652468   -8.3298135    712.33307  0.013792075  0.012682768            3 
 4305000   0.54501087   -8.3320574    711.80726  0.013778693  0.012678584            2 
 4306000   0.56409656   -8.3038408    711.61146  0.013771703  0.012674398            4 
 4307000   0.55856449     -8.30772    712.88498  0.013793146  0.012670222            3 
 4308000   0.55832678   -8.3298455    712.04972  0.013773788  0.012666043            5 
 4309000   0.56805407   -8.3263265    712.87009  0.013786456  0.012661867            6 
 4310000   0.55254193    -8.321023    712.30641  0.013772359  0.012657691            3 
 4311000   0.55706938   -8.2999958    713.52163  0.013792655  0.012653518            5 
 4312000   0.55842076   -8.3181232    712.01503   0.01376034   0.01264935            6 
 4313000   0.56594514   -8.3299519    712.24969  0.013761683  0.012645176            3 
 4314000   0.56420382   -8.3302531    712.97687   0.01377254  0.012641003            2 
 4315000   0.57098016   -8.3252224    712.44032  0.013758987  0.012636831            5 
 4316000   0.56290819   -8.3267885    712.24833  0.013752092  0.012632658            6 
 4317000   0.54912137   -8.3264937    712.11061  0.013746248  0.012628488            8 
 4318000   0.56121114   -8.3246618    711.68747  0.013734898  0.012624316            7 
 4319000   0.54554176   -8.3214722    713.48831  0.013766464  0.012620151            4 
 4320000   0.54985278   -8.3171536    712.78029   0.01374962  0.012615985            4 
 4321000   0.57072651   -8.3158502      712.228  0.013735786  0.012611816            4 
 4322000   0.55823648   -8.3063613    712.49707  0.013737796  0.012607651            6 
 4323000    0.5513552   -8.3180539    712.83835  0.013741197  0.012603489            5 
 4324000   0.55178495   -8.3276777    710.96564  0.013701928  0.012599326            5 
 4325000   0.56168853   -8.3367627    713.01044  0.013738159  0.012595161            5 
 4326000   0.56575624   -8.3184637    712.59774  0.013727033  0.012591001            7 
 4327000   0.54971813   -8.3314662    713.37669  0.013738862  0.012586844            7 
 4328000   0.56644026   -8.3259959    712.02505  0.013709663  0.012582689            6 
 4329000   0.57119305   -8.3120225    711.20515  0.013690713  0.012578538            3 
 4330000   0.56166219   -8.3414399    713.06641  0.013723372  0.012574388           11 
 4331000   0.55579567   -8.3245911    713.84085  0.013735104  0.012570244           13 
 4332000    0.5625376   -8.3095494    713.17213   0.01371907  0.012566099            7 
 4333000   0.54755536   -8.3315605    712.77458  0.013708258  0.012561954            5 
 4334000   0.55452539    -8.342554    711.51696  0.013680914  0.012557812            3 
 4335000   0.54905153   -8.3333479    712.73666  0.013701205  0.012553672            6 
 4336000   0.56306984   -8.3450402    711.87744  0.013681531  0.012549534            3 
 4337000   0.54767178   -8.3221787    713.13405  0.013702522  0.012545393            4 
 4338000   0.55246895   -8.3095287    712.32615  0.013683843  0.012541257            2 
 4339000   0.55772269   -8.3362694    714.54177  0.013723242  0.012537128            2 
 4340000   0.56779782   -8.3460796    713.39056  0.013697975  0.012532994            2 
 4341000   0.55942426   -8.3281959    712.86517  0.013684734   0.01252886            6 
 4342000   0.56933761   -8.3299593    711.75611  0.013660297  0.012524729            6 
 4343000   0.55063259   -8.3358894    713.61427  0.013692806  0.012520598            5 
 4344000   0.56587606   -8.3514574    712.66034  0.013671354   0.01251647            4 
 4345000    0.5564799   -8.3465946     711.2433   0.01364103  0.012512344            4 
 4346000    0.5576232   -8.3036086    711.18401  0.013636754  0.012508219            5 
 4347000   0.55604995   -8.3029509    713.29888   0.01367416  0.012504096            6 
 4348000   0.55091257    -8.327217     713.0466   0.01366618  0.012499977            5 
 4349000   0.55341232   -8.3327565    712.04344  0.013643815  0.012495862            4 
 4350000   0.55836569   -8.3203663    711.76032  0.013635255  0.012491744            3 
 4351000    0.5680975   -8.3358372    712.51243  0.013646526  0.012487628            7 
 4352000   0.56440525   -8.3284356    712.10505   0.01363559  0.012483514            3 
 4353000    0.5580763   -8.3425332    713.15586  0.013652574  0.012479399            5 
 4354000   0.55456647   -8.3308369    712.87274   0.01364402  0.012475286            4 
 4355000   0.54713844    -8.331442    713.26555  0.013648403  0.012471175            4 
 4356000   0.55284205   -8.3473552     712.2263  0.013625388  0.012467061            7 
 4357000   0.55505737   -8.3686291    714.14943  0.013659043  0.012462957            3 
 4358000   0.55622952   -8.3296998    711.53208  0.013605861  0.012458852            2 
 4359000   0.55510548   -8.3385851    712.70598  0.013625181  0.012454745            3 
 4360000   0.54972461   -8.3536646    711.62944   0.01360148  0.012450645            3 
 4361000   0.57244447   -8.3364058    712.74259  0.013619632  0.012446545            7 
 4362000   0.54608651   -8.3531074    711.93077     0.013601  0.012442451            7 
 4363000   0.55540533   -8.3387924    712.15027  0.013602076   0.01243835            4 
 4364000   0.56477081   -8.3350978    712.18439   0.01359961  0.012434252            5 
 4365000   0.55662132   -8.3330758    712.10612     0.013595  0.012430161            5 
 4366000    0.5595431   -8.3367129     713.2613  0.013613935  0.012426063            5 
 4367000   0.55213665   -8.3380503    712.03833  0.013587481  0.012421971            8 
 4368000   0.54683427   -8.3484652    712.41957  0.013591643   0.01241788            2 
 4369000   0.55753674    -8.347714    712.59575  0.013591893  0.012413789            6 
 4370000   0.55839242   -8.3385363    711.69879  0.013571678  0.012409707            3 
 4371000    0.5523433    -8.341832    712.09277  0.013576084  0.012405621            4 
 4372000   0.55909309   -8.3382568    711.42092  0.013560173   0.01240154            3 
 4373000   0.55179587   -8.3319829    712.46077  0.013576888  0.012397456            2 
 4374000   0.55697365   -8.3248179    710.28531  0.013532337  0.012393374            3 
 4375000   0.56097186   -8.3393171    710.99012  0.013542669  0.012389293            5 
 4376000   0.54579226   -8.3493589    712.72522  0.013572616  0.012385212            5 
 4377000    0.5565705   -8.3499482    713.30525  0.013580558  0.012381129            8 
 4378000   0.55360772   -8.3415744    711.09346  0.013535356  0.012377047            7 
 4379000   0.55295334   -8.3250285    711.65142  0.013542883  0.012372972            5 
 4380000   0.55078843   -8.3250099    712.35829   0.01355324   0.01236889            6 
 4381000   0.56365081   -8.3438318    711.86569  0.013540776  0.012364817            6 
 4382000   0.55441545   -8.3312319    711.26031  0.013526174  0.012360746            7 
 4383000   0.55273889   -8.3332219    710.54765  0.013509538  0.012356672            4 
 4384000   0.55551115   -8.3573747    711.91572  0.013532461  0.012352606            6 
 4385000   0.54809925   -8.3273758    712.27226  0.013536151  0.012348532            4 
 4386000    0.5510251   -8.3313709     710.9895  0.013508692  0.012344463            3 
 4387000   0.54771032   -8.3441923    711.40959  0.013513593  0.012340393            6 
 4388000   0.55732788     -8.34195    712.38219  0.013528984  0.012336326            5 
 4389000   0.56964252   -8.3429734    711.98268  0.013518316  0.012332261            4 
 4390000   0.54882713    -8.353619    712.00504  0.013515661  0.012328197            5 
 4391000   0.54743101    -8.343452    712.04955  0.013513428  0.012324133            3 
 4392000   0.54122311   -8.3418626     710.6549  0.013483889   0.01232007            4 
 4393000   0.54730233    -8.351274    710.68223  0.013481338  0.012316012            3 
 4394000   0.54666828   -8.3579713    712.00123  0.013503285  0.012311957            4 
 4395000    0.5525496   -8.3717279    710.75631  0.013476608  0.012307896            3 
 4396000   0.56198553   -8.3490778    712.13551  0.013499687  0.012303842            2 
 4397000   0.55389254   -8.3533644    711.02307  0.013475534  0.012299793            5 
 4398000   0.54154548   -8.3607626     711.2385  0.013476552  0.012295746            6 
 4399000    0.5570159   -8.3559818    711.86625   0.01348538  0.012291699            4 
 4400000   0.53820573    -8.359365    710.62659  0.013458837  0.012287651            5 
 4401000   0.55000175   -8.3573768    710.87667  0.013460514  0.012283607            4 
 4402000   0.55044973   -8.3764748    711.25312  0.013464583  0.012279566           10 
 4403000   0.54452785   -8.3502269    711.99167  0.013475503  0.012275524            4 
 4404000   0.54842669   -8.3359779    711.33427  0.013460004  0.012271483            5 
 4405000   0.55174966   -8.3583304    711.31602  0.013456603   0.01226744            3 
 4406000   0.55513397   -8.3453896    711.79364  0.013462582  0.012263403            2 
 4407000   0.54671021   -8.3533864    712.55338  0.013473893  0.012259371            3 
 4408000   0.55066472   -8.3534514     711.5497  0.013451862  0.012255336            5 
 4409000   0.54788976   -8.3558499    713.17806  0.013479588  0.012251306            3 
 4410000   0.55982269   -8.3528738    712.60582  0.013465718  0.012247273            5 
 4411000   0.54328967   -8.3477193    711.61041   0.01344386  0.012243245            4 
 4412000   0.56191533   -8.3674219    711.72276  0.013442935  0.012239211            6 
 4413000   0.53796711   -8.3671766    710.62849  0.013419225  0.012235182            4 
 4414000   0.55352603   -8.3554259    712.80553  0.013457286  0.012231158            5 
 4415000   0.55152584   -8.3695592    711.35091  0.013426782  0.012227133            5 
 4416000   0.54442496    -8.362922    712.26744  0.013441037  0.012223113            5 
 4417000   0.52742338   -8.3618761     711.6428  0.013426209   0.01221909            3 
 4418000   0.54154169    -8.362082    711.17602  0.013414366  0.012215073            5 
 4419000   0.55004892   -8.3432495    711.43444  0.013416203  0.012211057            4 
 4420000   0.55054116   -8.3736097    711.61486   0.01341657  0.012207042            3 
 4421000    0.5468369   -8.3560356    710.75323  0.013397294  0.012203026            4 
 4422000   0.54716219   -8.3423708    712.27509  0.013422944  0.012199008            2 
 4423000   0.54165008   -8.3660107    709.66243  0.013370684  0.012194991            3 
 4424000   0.54007592   -8.3525528     711.8142  0.013408194   0.01219097            5 
 4425000   0.54469677   -8.3668936    711.37672  0.013396925  0.012186953            5 
 4426000   0.54182059   -8.3703772    712.07364   0.01340702  0.012182947            4 
 4427000   0.53977346    -8.368675    711.49523  0.013393103  0.012178937            4 
 4428000   0.54216219   -8.3657937    711.47714  0.013389738  0.012174933            4 
 4429000   0.54443898   -8.3626179    711.20339  0.013381564   0.01217093            3 
 4430000   0.54226789   -8.3606973    711.90614  0.013391763  0.012166927            4 
 4431000   0.54279657   -8.3599067    710.72479  0.013366523   0.01216293            2 
 4432000    0.5371143   -8.3760495    711.61618  0.013380268  0.012158932            3 
 4433000    0.5446992   -8.3531774    711.71242  0.013379059  0.012154932            3 
 4434000   0.53579684   -8.3786737    711.39598  0.013370094  0.012150933            3 
 4435000   0.53748034   -8.3716127    710.26047  0.013345743  0.012146933            2 
 4436000   0.54998378   -8.3712219    711.13421  0.013359149  0.012142939            4 
 4437000   0.53966481   -8.3564591    711.41601  0.013361431  0.012138951            1 
 4438000   0.53486162   -8.3714118    712.14175  0.013372047  0.012134958            4 
 4439000   0.52689333   -8.3624855    711.43514   0.01335577  0.012130967            3 
 4440000   0.54155967   -8.3596491     711.3921  0.013351954  0.012126976            5 
 4441000   0.53698652   -8.3591366    711.73852  0.013355448  0.012122991            2 
 4442000   0.54437694   -8.3643655    711.85455  0.013354618  0.012119008            7 
 4443000   0.52723934   -8.3689354    709.84913  0.013313998  0.012115024            3 
 4444000    0.5469636   -8.3775553    711.08749  0.013334224  0.012111036            6 
 4445000    0.5440883   -8.3662799    710.58904  0.013321879  0.012107055            3 
 4446000   0.53934193    -8.357598    711.46884  0.013335373  0.012103077            3 
 4447000   0.53771524   -8.3781596    711.23618  0.013328015    0.0120991            3 
 4448000   0.53622779   -8.3772529    711.31188  0.013326437  0.012095124            6 
 4449000   0.53949006   -8.3487948    711.71865   0.01333106  0.012091153            3 
 4450000   0.54258075   -8.3586411    711.32481  0.013320689  0.012087187            2 
 4451000   0.53672638   -8.3592607    711.63252  0.013323458  0.012083225            4 
 4452000   0.54821175   -8.3864645    711.16177  0.013311653  0.012079261            5 
 4453000    0.5402398   -8.3705163     712.2666   0.01332934  0.012075301            6 
 4454000   0.54838103   -8.3618336    711.51688   0.01331232  0.012071338            3 
 4455000   0.54641253   -8.3495178    711.24244  0.013304198  0.012067378            4 
 4456000   0.54085237   -8.3528213    711.22951  0.013300971  0.012063422            2 
 4457000   0.54995635   -8.3677515    711.73215  0.013307385  0.012059466            3 
 4458000   0.53705025   -8.3801753    712.48228  0.013318422  0.012055512            2 
 4459000    0.5401251   -8.3642188    712.06534  0.013307643  0.012051564            5 
 4460000     0.523698   -8.3729904    711.77085  0.013299156  0.012047611            3 
 4461000   0.53630407   -8.3642184    711.70696  0.013294982  0.012043662            3 
 4462000   0.53110851   -8.3587304     711.2953  0.013284314  0.012039712            3 
 4463000   0.53782322   -8.3775448    712.26474  0.013299439  0.012035764            2 
 4464000   0.54369884   -8.3754402    711.67693  0.013285486  0.012031818            5 
 4465000   0.53367819   -8.3615825    711.28543  0.013275204  0.012027871            5 
 4466000   0.53786948   -8.3797305    710.90692  0.013265169  0.012023926            5 
 4467000   0.53367793   -8.3722938    711.61421  0.013275394  0.012019983            6 
 4468000   0.53325263   -8.3666118    711.50028  0.013270298  0.012016042            5 
 4469000    0.5380075   -8.3839227    711.41126  0.013265668  0.012012097            7 
 4470000   0.52653269   -8.3693829    712.15182  0.013276507  0.012008158            4 
 4471000   0.54037416   -8.3832135    712.59829  0.013281859  0.012004221            6 
 4472000   0.53859049   -8.3690708    711.27996  0.013254322  0.012000284            5 
 4473000   0.52674386   -8.3727039    710.76559  0.013241776  0.011996348            4 
 4474000   0.54721706   -8.3726588    712.27106  0.013266858   0.01199241            4 
 4475000   0.54904495   -8.3674594    711.08983  0.013241896  0.011988478            7 
 4476000   0.53774045   -8.3713405    711.10807  0.013239277  0.011984547            4 
 4477000   0.54437682   -8.3544304    710.22428   0.01321987  0.011980619            7 
 4478000   0.53171912   -8.3705607    710.73732  0.013226465  0.011976688            5 
 4479000   0.53312576   -8.3809412    711.37107  0.013235303  0.011972762            2 
 4480000   0.52698684   -8.3656965    711.67562  0.013238014  0.011968837            3 
 4481000   0.54394882   -8.3425051    710.62467  0.013215515  0.011964911            4 
 4482000   0.53990769   -8.3694815    710.97098  0.013219005   0.01196099            6 
 4483000   0.53775134   -8.3972903    710.81119  0.013213086  0.011957071            3 
 4484000   0.53441812   -8.3669431    711.57318  0.013224301  0.011953154            5 
 4485000   0.53666488   -8.3745126    711.15211  0.013213529  0.011949235            4 
 4486000   0.53490751   -8.3651824    711.56048  0.013218169  0.011945317            6 
 4487000   0.54171506   -8.3993026    710.25633  0.013191002  0.011941405            4 
 4488000   0.54143344   -8.3696167    711.15634  0.013204775  0.011937495            4 
 4489000   0.53771592     -8.37059    711.26909  0.013203926  0.011933583            6 
 4490000   0.52328165   -8.3773341    710.87058  0.013193589  0.011929671            3 
 4491000    0.5302306   -8.3745393    711.69538  0.013205956  0.011925764            6 
 4492000   0.53233586   -8.3757821    710.98518  0.013189841  0.011921856            3 
 4493000   0.52643171   -8.3689643    710.17227  0.013171828  0.011917949            7 
 4494000    0.5373525    -8.380922    710.83678  0.013181219  0.011914039            5 
 4495000   0.54002364   -8.3675662    711.35875  0.013187964  0.011910133            5 
 4496000   0.51986561   -8.3803204      711.456  0.013186833  0.011906226            8 
 4497000   0.52239059   -8.3835769    710.93964  0.013174332  0.011902322            5 
 4498000   0.53543741   -8.3604815    711.81124  0.013187551  0.011898422           15 
 4499000   0.53797519   -8.3839588    711.54186   0.01317963  0.011894522            6 
 4500000   0.52867644   -8.3817991    711.72839  0.013180155  0.011890627            4 
 4501000    0.5242656   -8.3752313    711.92965  0.013180953  0.011886731            3 
 4502000   0.52745095   -8.4000411    711.59218  0.013171779  0.011882837            7 
 4503000   0.52464212   -8.3594611    710.83358  0.013154815  0.011878943            5 
 4504000    0.5464886   -8.3765135    710.85804  0.013152347  0.011875057            3 
 4505000   0.54698533     -8.39222    710.39377  0.013140839  0.011871169            3 
 4506000    0.5328902   -8.3896088    712.30768  0.013173319  0.011867285            5 
 4507000   0.53559786   -8.3771526    710.29836  0.013133244  0.011863396            3 
 4508000   0.53087545   -8.3804856    711.54667  0.013153406  0.011859512            5 
 4509000   0.53734059   -8.3799452    711.15816  0.013143309  0.011855627            4 
 4510000   0.53058426   -8.3674424    709.78249  0.013114976  0.011851743            4 
 4511000   0.53029873   -8.3760908    711.54625  0.013144651  0.011847863            5 
 4512000   0.51104758   -8.3698283    711.15117  0.013134441  0.011843985            5 
 4513000   0.52975905   -8.3710302    711.21764  0.013132758  0.011840112            3 
 4514000    0.5210531   -8.3546217    711.04656   0.01312669  0.011836233            7 
 4515000   0.53324144   -8.3825862    711.83137  0.013138268  0.011832358            5 
 4516000   0.53305599   -8.3689372     710.9925  0.013119879  0.011828486            6 
 4517000   0.53925519   -8.3748778    710.74679  0.013112442  0.011824615            2 
 4518000   0.51940707   -8.3796537    710.79364  0.013110404  0.011820746           11 
 4519000   0.52513735   -8.3942884     710.5367  0.013102764  0.011816872            2 
 4520000   0.53748883   -8.3932506    712.28943   0.01313218  0.011812999            6 
 4521000   0.53117327   -8.3814619    711.60271  0.013116617  0.011809136            2 
 4522000   0.51757602    -8.387534    711.47332  0.013111332  0.011805271            8 
 4523000   0.52229572   -8.3984513    710.09295  0.013083001  0.011801404            6 
 4524000   0.51915535   -8.3894819    709.90872  0.013076715  0.011797538            3 
 4525000   0.52537167    -8.379217    710.89582  0.013092004  0.011793678            5 
 4526000   0.52286136   -8.3833106    711.52488  0.013100694  0.011789823            6 
 4527000   0.52572505   -8.3935176    710.58974  0.013080586  0.011785967            6 
 4528000   0.51676895   -8.4009916    711.48035  0.013094088  0.011782115            4 
 4529000   0.52855085   -8.3774535    710.50403  0.013073232   0.01177826            7 
 4530000   0.53328597   -8.3871924    712.50826  0.013107216  0.011774409            3 
 4531000   0.52280957   -8.3829487    709.47618  0.013048558  0.011770557            6 
 4532000    0.5474981   -8.3807281    711.05406  0.013074692  0.011766708            4 
 4533000   0.51743117   -8.3965551    711.27237  0.013075821   0.01176286            6 
 4534000   0.53003231   -8.3734414    710.84236  0.013065034  0.011759012            6 
 4535000   0.52092195   -8.3877617    709.24837  0.013032862  0.011755166            3 
 4536000   0.52566762   -8.3834347    709.73423  0.013038915  0.011751321            3 
 4537000   0.52148218   -8.3765249    710.63512  0.013052588  0.011747478            4 
 4538000   0.52683971   -8.3839033    710.07441  0.013039415  0.011743636            7 
 4539000   0.51546656   -8.3827532    710.23566  0.013039503  0.011739793            3 
 4540000   0.52194032   -8.3964745    710.36524  0.013039009  0.011735952            3 
 4541000   0.53272947   -8.3711233    709.73794  0.013024626   0.01173211            4 
 4542000   0.53010177   -8.3966641    709.91779  0.013025059  0.011728273            5 
 4543000   0.52520735   -8.4031378     710.5267  0.013033361  0.011724434            4 
 4544000   0.52349813   -8.4078177    710.85648  0.013036541  0.011720599            5 
 4545000   0.52496498   -8.4101507    709.83788  0.013014996  0.011716763            3 
 4546000   0.52286889   -8.3885547     710.7977  0.013029728  0.011712931            8 
 4547000    0.5180149   -8.3898932    711.15229  0.013033361  0.011709101            4 
 4548000   0.52841667   -8.3900333    711.37793  0.013034629  0.011705272            3 
 4549000   0.52602473   -8.3837525    710.52125   0.01301607  0.011701442            6 
 4550000    0.5207129   -8.3874259    710.80331  0.013018376  0.011697615            4 
 4551000   0.51927205   -8.3860508    710.69041  0.013013448  0.011693791            4 
 4552000   0.52445188   -8.4013815    711.72941   0.01302961  0.011689964            6 
 4553000    0.5231663   -8.3809017    710.99547  0.013013315  0.011686137            9 
 4554000   0.52986994   -8.3860484    709.44262  0.012982042  0.011682316            3 
 4555000   0.52268414   -8.4053644    710.90985  0.013006035  0.011678495            6 
 4556000   0.52568135   -8.3963148    711.36689  0.013011539  0.011674675            6 
 4557000   0.52838956    -8.402012    711.36151  0.013008586   0.01167086            3 
 4558000   0.51870459   -8.4091212    710.25103  0.012985429  0.011667045            5 
 4559000   0.51881728   -8.3980647    711.73006  0.013009616  0.011663235            8 
 4560000   0.51508604   -8.3843897    710.49202  0.012984138  0.011659427            5 
 4561000   0.52638557   -8.4097499    709.03634  0.012954694  0.011655616            2 
 4562000   0.52133183   -8.3828315    710.10198  0.012971321  0.011651807            5 
 4563000    0.5175008   -8.3701538    711.00124  0.012984901  0.011648003            5 
 4564000   0.52346954   -8.3829819    710.13575  0.012966253  0.011644199            4 
 4565000   0.51912978   -8.3874654    710.61601   0.01297218  0.011640395            5 
 4566000   0.52423773   -8.3930951    710.74653  0.012971721  0.011636591            3 
 4567000   0.51262756   -8.3971269    710.21652   0.01295921  0.011632786            3 
 4568000   0.52140522   -8.3916261    710.01394  0.012952677  0.011628981            6 
 4569000   0.52656131   -8.4160286    710.30519  0.012955154  0.011625184            7 
 4570000   0.51293779   -8.3996884    711.34764  0.012971328  0.011621381            3 
 4571000   0.50629439   -8.3974496    710.09277  0.012945613  0.011617584            3 
 4572000    0.5205971   -8.4010306    710.97841  0.012958924  0.011613785            6 
 4573000   0.52629499   -8.3992282      710.467  0.012946771   0.01160999            5 
 4574000    0.5211554   -8.4203732     709.5771  0.012927727  0.011606193            3 
 4575000   0.52119919   -8.3906909    709.11181  0.012916426  0.011602397            5 
 4576000   0.52900484   -8.4049855    710.10603  0.012931709  0.011598603            4 
 4577000   0.52374334   -8.4067336    708.98895  0.012908546  0.011594806            2 
 4578000   0.52351424   -8.4039277    709.69445  0.012918568  0.011591017            3 
 4579000   0.51602741   -8.3989469     709.6029   0.01291408  0.011587231            4 
 4580000   0.51545254   -8.4086158    709.87119  0.012916143  0.011583442            3 
 4581000   0.52998002   -8.4030797    709.64214  0.012909156  0.011579654            5 
 4582000   0.51644631   -8.4183139    709.37083  0.012901405  0.011575865            7 
 4583000   0.51030503   -8.4036315    709.85221  0.012907342  0.011572081            5 
 4584000    0.5157197   -8.4010382    709.43095  0.012896869  0.011568299            6 
 4585000   0.51982351    -8.413692    711.39157  0.012929691  0.011564517            5 
 4586000   0.52138565   -8.4159365    709.40746  0.012890817  0.011560737            7 
 4587000   0.51718777   -8.3932783    710.34479  0.012905036   0.01155696            3 
 4588000   0.52532078   -8.4136498    709.26858  0.012882675  0.011553185            5 
 4589000   0.51800706   -8.4096816     709.9515   0.01289227  0.011549411            2 
 4590000   0.51151237   -8.3967958     709.2967  0.012877573  0.011545636            5 
 4591000   0.52241958   -8.4091926    709.98427  0.012887248   0.01154186            3 
 4592000   0.52405477   -8.4078808    709.84779  0.012881965  0.011538088            4 
 4593000   0.51755864   -8.4155729    709.97914  0.012881543  0.011534322            9 
 4594000   0.51801155   -8.4052931    709.67424  0.012873208  0.011530555            3 
 4595000   0.51095238   -8.4265229    711.80505  0.012909051  0.011526794            3 
 4596000   0.52268381   -8.4104155    709.37879   0.01286225  0.011523027            4 
 4597000   0.51021134   -8.4135415    709.52885  0.012862172  0.011519265            4 
 4598000   0.50744599    -8.411264    709.22801  0.012853922  0.011515502            5 
 4599000   0.51591754   -8.4199461    709.26642  0.012851823  0.011511739            3 
 4600000   0.51578533   -8.4018331    711.02986  0.012880976  0.011507977            2 
 4601000   0.51834349   -8.4148989    709.47886  0.012850084  0.011504216            7 
 4602000    0.5202674    -8.404097    709.32619  0.012844527  0.011500456            4 
 4603000   0.51801757   -8.4019044    710.12644  0.012856225  0.011496697            2 
 4604000   0.51189396   -8.4195285    709.71765  0.012846033  0.011492942            4 
 4605000   0.50257924   -8.3998838    710.29368  0.012853668  0.011489192           11 
 4606000   0.51853854   -8.4146611    709.00311  0.012827528  0.011485436            2 
 4607000   0.51865747   -8.4090575    710.26837   0.01284763  0.011481686            5 
 4608000   0.51131122   -8.4231237    709.54529  0.012831765  0.011477934            4 
 4609000   0.51957828   -8.4171919    709.47242  0.012827664  0.011474181            4 
 4610000   0.51364157   -8.4091685    709.16777  0.012819374  0.011470434            6 
 4611000   0.50718442   -8.4172008    709.81746  0.012828336  0.011466689            4 
 4612000   0.52701045   -8.3962146    709.11376  0.012812839  0.011462948            5 
 4613000   0.51192229    -8.412007    709.72704   0.01282114  0.011459205            3 
 4614000    0.5130398   -8.4145486    709.67929  0.012817499  0.011455468            6 
 4615000   0.51847882   -8.4073795    709.38591  0.012809424  0.011451732            5 
 4616000   0.51584734   -8.4178511    711.64016  0.012847345  0.011447999            2 
 4617000   0.51424257   -8.4024543    711.49854  0.012842007  0.011444268            4 
 4618000   0.51116783   -8.4114372    709.63171  0.012805538  0.011440534            3 
 4619000   0.50697688   -8.3947339    709.27074  0.012796253  0.011436801            7 
 4620000   0.50890967   -8.4090234    709.78504   0.01280276  0.011433071            4 
 4621000   0.50514232   -8.4049997    709.78158  0.012799928  0.011429341            3 
 4622000   0.50984916   -8.4218827    710.52959  0.012810645  0.011425614            6 
 4623000   0.51036523   -8.3999072    709.06652    0.0127815  0.011421885            3 
 4624000   0.50754073    -8.409641    709.97976  0.012795195  0.011418163            5 
 4625000   0.51080141   -8.4165911    709.00768  0.012774913  0.011414438            4 
 4626000   0.52141604   -8.4071338    710.38589  0.012796979  0.011410715            5 
 4627000   0.52852181   -8.4167426    708.94675  0.012768294  0.011406993            2 
 4628000   0.52418899   -8.4186801    710.15458  0.012787284   0.01140327            5 
 4629000   0.50080317   -8.4187897    709.75568   0.01277734  0.011399552            4 
 4630000   0.50473302   -8.4327487    710.84067  0.012794109   0.01139583            7 
 4631000   0.50741193    -8.420129    708.53133   0.01274979  0.011392113            4 
 4632000   0.50777754   -8.4241322    709.77037  0.012769329    0.0113884            3 
 4633000   0.51898485   -8.4297472    709.02553  0.012753175  0.011384687            7 
 4634000   0.50679886   -8.4276131    709.41214  0.012757376  0.011380974            5 
 4635000   0.51943685   -8.4038296    709.21753  0.012751124  0.011377263            3 
 4636000   0.50579897    -8.414563    709.84733  0.012759695  0.011373556            2 
 4637000   0.50672027   -8.3985302    709.09301  0.012743387  0.011369848            4 
 4638000   0.52097864   -8.4164285    709.48546   0.01274769  0.011366142            5 
 4639000   0.50733479   -8.4016441    708.50847  0.012727392  0.011362438            4 
 4640000   0.50179064   -8.4241229     709.8441  0.012748637  0.011358736            3 
 4641000   0.50681271   -8.4224737     710.1206  0.012750855  0.011355037            2 
 4642000   0.51723922   -8.4018929    708.83242  0.012724982  0.011351336            6 
 4643000   0.50839206   -8.4422744    709.19746  0.012728794  0.011347636            6 
 4644000   0.51600613   -8.3998741    709.45514  0.012730676  0.011343935            3 
 4645000   0.50535414   -8.4291969    709.80981  0.012734299  0.011340237           10 
 4646000   0.50970463   -8.4104969    709.06395   0.01271818   0.01133654            4 
 4647000   0.50369729   -8.4121618    710.46492  0.012740566  0.011332846            6 
 4648000   0.50409312   -8.4317167    709.51389  0.012720774  0.011329155            5 
 4649000   0.51602268   -8.4158224    711.09761  0.012746426  0.011325462            8 
 4650000   0.50466892    -8.427038    709.81059   0.01272062  0.011321772            4 
 4651000   0.50896915   -8.4212358    709.40503  0.012710618  0.011318084            6 
 4652000   0.51206833    -8.422062    708.59428  0.012693363  0.011314396            5 
 4653000   0.51617278   -8.4184908    709.70874  0.012710594  0.011310713            5 
 4654000   0.49445398   -8.4147373    709.18987  0.012698572  0.011307025            5 
 4655000   0.51388163   -8.4191571    708.06783  0.012675758  0.011303341            4 
 4656000   0.51068301   -8.4188552    708.95865  0.012688979  0.011299661            6 
 4657000   0.51399947   -8.4220029    709.26454  0.012691728  0.011295978            4 
 4658000   0.50485919   -8.4334954    709.26857  0.012689076  0.011292295            5 
 4659000   0.50083513   -8.4186409    708.46345  0.012671951  0.011288617            5 
 4660000   0.50902047   -8.4317091    710.20261  0.012700333  0.011284941            4 
 4661000    0.5054957   -8.4325684    709.18933  0.012679492  0.011281267            2 
 4662000   0.50505495    -8.429282    708.09366  0.012657187  0.011277589            5 
 4663000   0.49700346   -8.4130331    709.48715  0.012679376  0.011273916            8 
 4664000   0.49952928   -8.4348401     709.1857  0.012671271  0.011270243            4 
 4665000   0.50995844   -8.4436779    708.50497  0.012656395  0.011266568           12 
 4666000   0.49996464   -8.4240149    709.08586  0.012664057  0.011262897            4 
 4667000   0.51498737   -8.4255144    709.55785  0.012669771   0.01125923            4 
 4668000    0.5069424   -8.4203179    708.78159  0.012653199  0.011255564           11 
 4669000   0.50024673   -8.4352902    707.85206  0.012633898  0.011251898            5 
 4670000   0.51570658   -8.4170925    708.82882  0.012648623  0.011248236            3 
 4671000    0.4950938   -8.4216754    708.36787  0.012637691  0.011244578            8 
 4672000   0.52062384   -8.4434377    709.26685  0.012651021  0.011240924            4 
 4673000   0.49781222   -8.4273818    709.51373  0.012652716   0.01123727            2 
 4674000   0.50199195   -8.4191124    709.47268  0.012649278  0.011233615            7 
 4675000   0.49772436   -8.4201507    709.10321  0.012639986  0.011229958            3 
 4676000   0.49853872    -8.421684    709.85437   0.01265067  0.011226306            7 
 4677000   0.51234528   -8.4347928    710.61978  0.012661603  0.011222651            3 
 4678000   0.49135751   -8.4213135    708.74789   0.01262555     0.011219            3 
 4679000   0.50794549   -8.4306928    708.52906  0.012618955  0.011215348            5 
 4680000   0.50660445    -8.418884    709.57861  0.012634947    0.0112117            8 
 4681000   0.50898547   -8.4367445    710.09617  0.012641461   0.01120806            4 
 4682000   0.49728599   -8.4240916    708.86448  0.012616839  0.011204417            3 
 4683000   0.49917716   -8.4355407     709.1096  0.012618507  0.011200773            3 
 4684000   0.49970223   -8.4460934    709.67387  0.012625852  0.011197131            5 
 4685000   0.50206781   -8.4270894     709.6364   0.01262249  0.011193489            5 
 4686000   0.51042654   -8.4238569    710.08318  0.012627742  0.011189852            5 
 4687000   0.50790256   -8.4351698    709.24815  0.012610201  0.011186216            3 
 4688000   0.49851761   -8.4443358    707.96137  0.012584638   0.01118258            6 
 4689000   0.49910207    -8.435213    709.34116  0.012606475  0.011178943            4 
 4690000   0.50440501   -8.4237575     709.2262  0.012601745  0.011175308            3 
 4691000   0.50426767   -8.4328981     709.8439  0.012610032  0.011171676            4 
 4692000   0.51115918    -8.439619    709.87435  0.012607885  0.011168046            2 
 4693000   0.50923676   -8.4188679    708.04326  0.012572684  0.011164418            4 
 4694000   0.49625206   -8.4362763    709.53109  0.012596419  0.011160793            4 
 4695000   0.49071122   -8.4431673    710.10121  0.012603855  0.011157167            4 
 4696000   0.50187059    -8.452304    710.01418  0.012599627  0.011153542            5 
 4697000   0.50437138    -8.451827     709.9509  0.012595822  0.011149919            3 
 4698000    0.5030584   -8.4372058    709.27202  0.012581099  0.011146299            4 
 4699000   0.49880408   -8.4531223     709.3989  0.012580671  0.011142678            3 
 4700000    0.5048496   -8.4390556    708.72087  0.012565973  0.011139059            4 
 4701000   0.50159131   -8.4431246    709.73017  0.012581191  0.011135443            3 
 4702000    0.5051957    -8.442977    709.74417  0.012578764   0.01113183            5 
 4703000   0.51484894   -8.4248199    709.93571  0.012579483  0.011128217            3 
 4704000   0.50372373   -8.4422971    709.46787  0.012568521  0.011124603            3 
 4705000   0.50018053   -8.4361492    708.46508  0.012548089  0.011120991            4 
 4706000   0.49986335   -8.4251623     708.6177  0.012548125  0.011117378            3 
 4707000   0.50370137   -8.4360914    708.60036  0.012545152  0.011113768            5 
 4708000   0.49407745   -8.4362768    709.53303  0.012558996  0.011110162            3 
 4709000   0.50134435    -8.431515    708.38774  0.012536061  0.011106555            6 
 4710000   0.48835168   -8.4289713    709.26488  0.012548919  0.011102953            4 
 4711000   0.47615342   -8.4371283    709.23817  0.012545782  0.011099349            5 
 4712000   0.48461966   -8.4219096    709.99917  0.012556578  0.011095742            3 
 4713000   0.50595209   -8.4601515    709.18626  0.012539541   0.01109214            4 
 4714000   0.50131517   -8.4360976    708.83838  0.012530731  0.011088539            4 
 4715000   0.48668825   -8.4389244    708.94477  0.012529954  0.011084943            5 
 4716000   0.51016199    -8.448402     709.7337  0.012541237  0.011081346            6 
 4717000   0.51010674    -8.432364    709.20811  0.012529293   0.01107775            5 
 4718000   0.50314707   -8.4460562    708.96909  0.012522416  0.011074157            4 
 4719000   0.49930693   -8.4441448    708.77805  0.012516388  0.011070569            6 
 4720000   0.48725541   -8.4540235    709.69284  0.012529888  0.011066979            7 
 4721000   0.49211744   -8.4417196    708.48609  0.012505932  0.011063389            4 
 4722000   0.50152486   -8.4366985    709.03472  0.012512966  0.011059799            9 
 4723000   0.49185767   -8.4454964     709.7667  0.012523232   0.01105621            4 
 4724000   0.50867403   -8.4357361    709.76032  0.012520468  0.011052628            4 
 4725000   0.50572146   -8.4492779     708.7861  0.012500637  0.011049044            3 
 4726000   0.49983817   -8.4458136    708.15075  0.012486789  0.011045463            3 
 4727000   0.50821798   -8.4335441    708.57875  0.012491692   0.01104188            8 
 4728000   0.49832527   -8.4600221    709.17066  0.012499483  0.011038301            5 
 4729000   0.49543323   -8.4504002    708.84902  0.012491172  0.011034721            3 
 4730000   0.49286821   -8.4333711    710.43412  0.012516457  0.011031145            3 
 4731000   0.49973559   -8.4364076    709.60862  0.012499271  0.011027569            6 
 4732000   0.49813845   -8.4336771    708.79766  0.012482348  0.011023995            4 
 4733000   0.49845043   -8.4356316    708.26544   0.01247034  0.011020421            4 
 4734000   0.49297429   -8.4542094     708.6278  0.012474085  0.011016852            5 
 4735000   0.49124077     -8.42126    709.20537  0.012481615   0.01101328            5 
 4736000   0.48765401   -8.4392637    708.72771  0.012470575  0.011009714            6 
 4737000   0.50151221   -8.4514015    708.64202  0.012466435  0.011006149            4 
 4738000   0.50132296   -8.4268163    708.58156   0.01246274  0.011002584            4 
 4739000   0.49630641   -8.4529899    709.75473   0.01248074  0.010999023            3 
 4740000   0.50364475    -8.439067    708.89119  0.012462925  0.010995461            5 
 4741000   0.49894767    -8.453907    709.17562  0.012465296  0.010991901            3 
 4742000   0.49440726   -8.4509571    709.05495  0.012460547  0.010988342            8 
 4743000   0.49722598   -8.4613674    709.39671  0.012463924  0.010984784            3 
 4744000   0.49736254    -8.436619    709.51746  0.012463418  0.010981227            7 
 4745000    0.4945849    -8.451779    708.40279  0.012441215  0.010977677            4 
 4746000   0.48962046   -8.4553591    708.51352  0.012440538  0.010974121            4 
 4747000   0.49276521   -8.4521046    709.42711  0.012453955  0.010970567            6 
 4748000   0.49736176   -8.4556981    709.72454  0.012456553  0.010967016            6 
 4749000    0.4945484   -8.4523659    708.69474  0.012435859  0.010963467            8 
 4750000    0.4854918   -8.4362469    709.57891  0.012448753  0.010959923            3 
 4751000   0.48770553   -8.4543036    708.64256  0.012429709  0.010956376            6 
 4752000   0.48363262     -8.44388    708.67893  0.012427731  0.010952832            7 
 4753000   0.48656538   -8.4424409    708.68925  0.012425297  0.010949287            5 
 4754000   0.48945488   -8.4498085    708.99204  0.012427991  0.010945744            6 
 4755000    0.4909132   -8.4629975    709.37044  0.012432009  0.010942205            6 
 4756000    0.4920728   -8.4442388    709.67987  0.012434817  0.010938666            6 
 4757000   0.48571581   -8.4543648    708.91693  0.012418838  0.010935127            4 
 4758000   0.48609634   -8.4545969    709.05025  0.012418563   0.01093159            4 
 4759000   0.48941991   -8.4392403    708.05596  0.012398542  0.010928054            4 
 4760000   0.49180196   -8.4333163    709.05962  0.012413509  0.010924521           10 
 4761000   0.50450915   -8.4385048    708.93831  0.012408778  0.010920991            3 
 4762000   0.48923292   -8.4486436    708.96547  0.012406648  0.010917462            5 
 4763000   0.48694792   -8.4514193    709.55528  0.012414362  0.010913933            7 
 4764000   0.48088085   -8.4472266    708.91015  0.012400471  0.010910407            6 
 4765000   0.48849722   -8.4463931    709.92639  0.012415642   0.01090688            5 
 4766000   0.48826654   -8.4369395    708.57882  0.012389474  0.010903357            8 
 4767000   0.48209237   -8.4589474    708.28694  0.012381773  0.010899834            4 
 4768000   0.49912255     -8.44011    708.78562  0.012387892  0.010896312            6 
 4769000   0.48808732    -8.440953     708.3259  0.012377261  0.010892789            4 
 4770000   0.49020373   -8.4334588    709.19018  0.012389766  0.010889269            5 
 4771000   0.47898522   -8.4394369     709.1748    0.0123869  0.010885752            4 
 4772000   0.48743652   -8.4426894    709.14585  0.012383799  0.010882234            4 
 4773000   0.48580696   -8.4556614    708.97662   0.01237825  0.010878719            5 
 4774000   0.49463391   -8.4660473    708.86543  0.012373716  0.010875206            7 
 4775000   0.47442153   -8.4519384    708.41389  0.012363244  0.010871693            5 
 4776000   0.49731362   -8.4453977    708.65351  0.012364836  0.010868182            4 
 4777000   0.48957496   -8.4483531    708.77993  0.012364453  0.010864672            4 
 4778000   0.49008526   -8.4363506    708.43786    0.0123559  0.010861162            4 
 4779000   0.49620049   -8.4418447    708.46428  0.012353775  0.010857655            4 
 4780000   0.48306972   -8.4387771    708.40317  0.012350125  0.010854147            5 
 4781000   0.48749876   -8.4423677      708.448  0.012348323  0.010850643            6 
 4782000   0.48404662   -8.4683198    708.40681  0.012345023  0.010847139            5 
 4783000   0.49097846   -8.4516672    708.05626  0.012336335  0.010843636            6 
 4784000   0.49037647   -8.4404686    708.55979  0.012342527  0.010840135            4 
 4785000   0.48619336   -8.4522543    708.58218  0.012340337  0.010836635            6 
 4786000   0.48542038     -8.45831    709.68474  0.012356957  0.010833134            3 
 4787000   0.48099312    -8.465767    708.44741  0.012332836  0.010829639            6 
 4788000   0.48042292   -8.4406207    708.08463  0.012323946  0.010826144           12 
 4789000   0.47681432   -8.4469597    708.61091   0.01233053  0.010822648            5 
 4790000   0.48472346   -8.4563631    708.12239  0.012319457  0.010819153            6 
 4791000   0.48297605   -8.4485582    708.59157  0.012325047  0.010815661            6 
 4792000   0.47803341   -8.4703164    708.41509  0.012319405   0.01081217            6 
 4793000   0.49441234   -8.4496117    708.14332   0.01231211   0.01080868            4 
 4794000   0.48950032   -8.4583195    706.62222  0.012283101   0.01080519            3 
 4795000   0.48263346    -8.468115    708.45698  0.012312426    0.0108017            3 
 4796000   0.48669118   -8.4630859    708.69437  0.012313983  0.010798218            3 
 4797000   0.49960298   -8.4586655    709.03512  0.012317336  0.010794734            6 
 4798000   0.49184328   -8.4679596     708.9224  0.012312811  0.010791252            7 
 4799000   0.48857005   -8.4576848    707.77975  0.012290403  0.010787767            4 
 4800000   0.48052935   -8.4569767    708.93231  0.012307853  0.010784284            4 
 4801000   0.48181959    -8.468787    708.95252   0.01230564  0.010780805            6 
 4802000   0.49477925   -8.4534473    709.16109  0.012306697  0.010777327            5 
 4803000   0.49063597   -8.4518086    708.28995   0.01228902  0.010773851            7 
 4804000   0.48799287   -8.4647792    707.91544  0.012279965  0.010770379            6 
 4805000   0.48945462   -8.4499397    708.39227  0.012285679  0.010766904            6 
 4806000   0.47293597   -8.4603172    707.90866  0.012274737  0.010763431            2 
 4807000   0.48397693   -8.4714694    707.93529  0.012272646  0.010759957            6 
 4808000   0.48607203   -8.4528511    707.88012  0.012269137  0.010756488            5 
 4809000    0.4919681   -8.4763766    708.15025  0.012271267  0.010753018            7 
 4810000   0.48544015   -8.4581822    709.12767  0.012285649   0.01074955            4 
 4811000   0.47698978   -8.4714857    708.05452  0.012264507  0.010746084           10 
 4812000   0.47667791   -8.4565138    708.80342  0.012274928  0.010742617            5 
 4813000   0.48163787   -8.4534279    708.36076  0.012264713  0.010739154            5 
 4814000   0.48827488   -8.4524717    707.35024  0.012244673   0.01073569            5 
 4815000   0.48129955   -8.4466084     708.6597  0.012264792  0.010732228            7 
 4816000    0.4856297   -8.4635961    709.71592  0.012280522  0.010728769            6 
 4817000   0.48800894   -8.4749263    708.84579  0.012262919   0.01072531            8 
 4818000   0.47380129   -8.4577324    708.00509  0.012245833  0.010721854            7 
 4819000   0.47631555   -8.4450337    708.54999  0.012252715  0.010718399            6 
 4820000   0.49249443   -8.4719127    706.99807  0.012223341  0.010714945            3 
 4821000   0.47536118   -8.4614999    707.41656   0.01222804  0.010711491            4 
 4822000   0.47993696   -8.4744314    707.90309  0.012233912  0.010708039            4 
 4823000   0.47618892   -8.4693145    707.93288   0.01223189  0.010704586            7 
 4824000   0.48344057   -8.4756658    707.94413  0.012229549  0.010701137            5 
 4825000   0.47419371   -8.4737375     708.5249  0.012237045  0.010697688            3 
 4826000   0.48824028   -8.4754929    709.05434  0.012243651  0.010694241            5 
 4827000   0.49159751   -8.4729952    707.97883  0.012222547  0.010690796            6 
 4828000   0.48485796   -8.4668366    707.42387  0.012210437  0.010687352            4 
 4829000   0.48701913   -8.4561317    707.58295  0.012210653  0.010683907            4 
 4830000    0.4856548   -8.4605167    707.48004   0.01220635  0.010680465            6 
 4831000    0.4813798   -8.4696448    707.99885  0.012212773  0.010677025            5 
 4832000   0.47943037   -8.4524843     708.9954  0.012227432  0.010673588            2 
 4833000   0.47750384   -8.4787572    709.48811  0.012233397  0.010670153            4 
 4834000   0.48386478   -8.4567676    708.20741  0.012208789  0.010666719            4 
 4835000    0.4765551   -8.4682267    707.59042  0.012195629  0.010663285            4 
 4836000   0.49211522   -8.4623484    708.22679  0.012204073  0.010659855            5 
 4837000    0.4692881   -8.4621761    707.37929  0.012186949  0.010656424            3 
 4838000   0.48515885   -8.4642905    708.75878  0.012208192  0.010652993            4 
 4839000   0.48818652   -8.4540512    708.01814  0.012192914  0.010649565            9 
 4840000    0.4700825   -8.4888473    708.06078  0.012191129  0.010646136            6 
 4841000   0.48422676    -8.466723    707.17278  0.012173325  0.010642711            6 
 4842000   0.48344537   -8.4688758    707.71118  0.012180077  0.010639285            3 
 4843000    0.4761476   -8.4712199    707.71005  0.012177542  0.010635862            7 
 4844000   0.47681143   -8.4683858    707.74297  0.012175595   0.01063244            5 
 4845000   0.47581217   -8.4659192    707.86677  0.012175211  0.010629018            5 
 4846000   0.47959253   -8.4621015    707.60315  0.012168165  0.010625598            6 
 4847000   0.48476534   -8.4565356    708.25814  0.012176916   0.01062218            5 
 4848000   0.47999289   -8.4724825    707.50109  0.012161391  0.010618765            3 
 4849000   0.47819619   -8.4739484    707.32303  0.012155823  0.010615349            4 
 4850000   0.46804765   -8.4777227    707.33732  0.012153562  0.010611934            3 
 4851000   0.47072161    -8.459958    708.16821   0.01216533   0.01060852            5 
 4852000   0.47829237   -8.4584746    708.23077  0.012163898  0.010605108            9 
 4853000   0.46230491   -8.4758152    706.99089  0.012140101  0.010601699            7 
 4854000   0.46709384   -8.4709144    707.44072  0.012145322  0.010598291            3 
 4855000    0.4831926   -8.4860414     708.2768  0.012157171  0.010594883            3 
 4856000   0.46840103   -8.4773303    708.73141  0.012162469  0.010591476            6 
 4857000    0.4819545   -8.4813129    707.50827  0.012138979  0.010588068            8 
 4858000   0.47224845   -8.4804795    708.61023  0.012155383  0.010584664            3 
 4859000   0.47208117   -8.4683527    707.49951  0.012133833  0.010581259            6 
 4860000   0.46491792   -8.4602901    707.06682  0.012123917   0.01057786            4 
 4861000   0.47101853   -8.4693348    707.52315  0.012129246  0.010574461            8 
 4862000   0.47578262   -8.4672889    706.53858  0.012109876  0.010571059            3 
 4863000   0.47230486    -8.474225    706.99913  0.012115277  0.010567663            5 
 4864000   0.47023087   -8.4716996    707.30296  0.012117992  0.010564266            4 
 4865000   0.47907544   -8.4656538    707.80545  0.012124108   0.01056087            5 
 4866000   0.46876926   -8.4646428    707.97347  0.012124494  0.010557476            7 
 4867000   0.48412289   -8.4679986    707.34069  0.012111169  0.010554082            3 
 4868000   0.48692375   -8.4689658    706.57231  0.012095527   0.01055069            5 
 4869000   0.48316997   -8.4757631    707.07564  0.012101657    0.0105473            5 
 4870000   0.46744662   -8.4702061    706.66338  0.012092118  0.010543911            5 
 4871000   0.47457076   -8.4865394    707.83509  0.012109681  0.010540524            7 
 4872000   0.47360325   -8.4919473    707.53044  0.012101985  0.010537138            5 
 4873000   0.47125748   -8.4980647     707.4565  0.012098237  0.010533753            6 
 4874000   0.46631885   -8.4650725    706.81499  0.012084786  0.010530372            4 
 4875000    0.4814206   -8.4614888    708.10037   0.01210428  0.010526991            4 
 4876000   0.47312508   -8.4874491    708.32495  0.012105636   0.01052361            7 
 4877000    0.4712698   -8.4792422    707.82687  0.012094643  0.010520229            5 
 4878000   0.47180526   -8.4786055    708.20978  0.012098705   0.01051685            6 
 4879000   0.46685445   -8.4713371    708.40199  0.012099508  0.010513474            4 
 4880000   0.46675476   -8.4742298    707.66696  0.012084477  0.010510097            6 
 4881000   0.48084798   -8.4720727    707.71287  0.012082785  0.010506721            8 
 4882000   0.48361062   -8.4639884    707.20106  0.012071573  0.010503349            4 
 4883000   0.46110629   -8.4911186    707.54206  0.012074921  0.010499976            9 
 4884000   0.47538646   -8.4707029    706.77267  0.012059321  0.010496603            5 
 4885000   0.47005532   -8.4805273    707.48288  0.012068968  0.010493232            5 
 4886000   0.46263076   -8.4831158    706.19762  0.012044577  0.010489865            9 
 4887000   0.48259303   -8.4868575     707.4936  0.012064211  0.010486498            5 
 4888000   0.46359317   -8.4760491    707.30689   0.01205856  0.010483133            5 
 4889000   0.46517777   -8.4832487    707.05074  0.012051727  0.010479768            6 
 4890000   0.45800074   -8.4806414    707.72692  0.012060786  0.010476405            3 
 4891000   0.48350979    -8.476654    708.27388  0.012067639  0.010473045            4 
 4892000   0.48130367   -8.4667809    707.50075  0.012052002  0.010469687            5 
 4893000   0.46093503     -8.46283    707.32786  0.012046595   0.01046633            4 
 4894000   0.45864613   -8.4847113    707.84749  0.012052981  0.010462975            6 
 4895000    0.4733858   -8.4689084    708.30606  0.012058326   0.01045962            5 
 4896000    0.4651936   -8.4900032    707.03063  0.012034154  0.010456266            5 
 4897000    0.4677428   -8.4718055    707.09798  0.012032843  0.010452913            6 
 4898000   0.47035752   -8.4746946    706.88637  0.012026786   0.01044956            6 
 4899000   0.47574788   -8.4791154    707.79235  0.012039742   0.01044621            5 
 4900000   0.46651207   -8.4789144    708.14584  0.012043297  0.010442863            6 
 4901000   0.46501837   -8.4764309    706.76186  0.012017307  0.010439517            4 
 4902000   0.47279222   -8.4875669    707.33077  0.012024527   0.01043617            4 
 4903000   0.46857109   -8.4965292    706.53989  0.012008632  0.010432825            6 
 4904000   0.47280898    -8.466586    707.07761  0.012015321  0.010429479            3 
 4905000    0.4605063   -8.4800215    706.45481   0.01200229  0.010426137            5 
 4906000   0.47225944   -8.4738146    707.10133  0.012010826  0.010422795            8 
 4907000   0.47717421   -8.4888299    707.39574  0.012013378  0.010419454            6 
 4908000   0.46446358   -8.4826623    708.32134  0.012026646  0.010416114            5 
 4909000   0.47017802   -8.4708981    706.86697  0.011999507  0.010412777            5 
 4910000   0.45032463   -8.4824139    706.51533  0.011991095  0.010409439            6 
 4911000   0.45788473   -8.4925755    707.53291  0.012005921  0.010406102            5 
 4912000     0.474898   -8.4817179    707.64907  0.012005447  0.010402769            3 
 4913000   0.46860377   -8.4808776    707.48734   0.01200026  0.010399434            9 
 4914000    0.4552988   -8.4749435    707.97134  0.012006026    0.0103961            5 
 4915000   0.45398026   -8.4756382    706.38125  0.011976623  0.010392767           10 
 4916000   0.46116631   -8.4668759    706.63529  0.011978494  0.010389437            7 
 4917000   0.45999114   -8.4751839    706.32804   0.01197085  0.010386108            6 
 4918000   0.46325482   -8.4843778    707.67743  0.011991281   0.01038278            7 
 4919000   0.46331138   -8.4867017    706.94184  0.011976381  0.010379455            7 
 4920000   0.45949426   -8.4840075    707.24201  0.011979031  0.010376128            7 
 4921000    0.4620556   -8.4970673    707.24105  0.011976581  0.010372801            5 
 4922000   0.46313457   -8.4859609    707.18339  0.011973171  0.010369479            8 
 4923000   0.46238331   -8.4885786    708.42718  0.011991793   0.01036616            5 
 4924000   0.46681154   -8.4871967    707.35279  0.011971175  0.010362842            3 
 4925000   0.46894196   -8.4867641    706.65472  0.011956933  0.010359525            4 
 4926000   0.46599778   -8.4957744    707.25472  0.011964656  0.010356209            4 
 4927000   0.46371999   -8.4881172    706.53091  0.011949985  0.010352894            4 
 4928000   0.45292587   -8.5008494    707.92592   0.01197115  0.010349579            9 
 4929000   0.46116596   -8.4936573    707.28044  0.011957808  0.010346266            5 
 4930000   0.46912878   -8.4876805    707.35544   0.01195665  0.010342957            4 
 4931000   0.46109081   -8.4740885    707.20128   0.01195162  0.010339645            3 
 4932000   0.45769441   -8.4947702    706.75264  0.011941617  0.010336335            8 
 4933000   0.45479953   -8.4888268    706.64539  0.011937384  0.010333026            6 
 4934000   0.46794136    -8.480608    707.10839  0.011942785  0.010329722            5 
 4935000   0.45793024   -8.4775179    707.29358  0.011943492  0.010326416            5 
 4936000   0.45629039   -8.4964511    706.96002  0.011935441  0.010323112            8 
 4937000   0.45843009   -8.4891978    707.27162  0.011938283   0.01031981            5 
 4938000   0.46792019   -8.4882171    706.26638  0.011918901   0.01031651            7 
 4939000   0.46192401   -8.4719472    705.79607  0.011908552   0.01031321            6 
 4940000   0.44717691   -8.4776483    707.04271  0.011927171  0.010309914            5 
 4941000   0.45576449   -8.4833922     706.9935  0.011923927  0.010306618            4 
 4942000   0.46773535   -8.4893957    707.53113   0.01193058  0.010303326            4 
 4943000   0.46182302   -8.4980196    705.90939  0.011900826  0.010300033            7 
 4944000   0.46792867    -8.500086    706.87731  0.011914733  0.010296742            3 
 4945000   0.46022901   -8.4962108    707.44042  0.011921814  0.010293451            3 
 4946000   0.47074655   -8.4906592    706.21378  0.011898736   0.01029016            5 
 4947000   0.46385588   -8.4903735    706.60913   0.01190299   0.01028687            4 
 4948000   0.46176573   -8.5007906     707.4526   0.01191479  0.010283582            3 
 4949000   0.45384796    -8.496786    707.67663  0.011916155  0.010280297            6 
 4950000   0.46134728   -8.4966482    707.24627  0.011906503  0.010277011            6 
 4951000   0.45250127   -8.4831036    707.23666  0.011903936  0.010273727            5 
 4952000   0.45172383    -8.486458    706.38248  0.011887158  0.010270443            3 
 4953000   0.46336105   -8.4965315    706.07041  0.011879508  0.010267162            3 
 4954000   0.45659181   -8.5064749    707.24661  0.011896895  0.010263884            4 
 4955000   0.46315873   -8.4893824    707.04922  0.011891174  0.010260608            3 
 4956000   0.45807408    -8.515253    707.38729  0.011894459  0.010257334            6 
 4957000   0.44741447   -8.4978152     707.0769  0.011886842  0.010254056            4 
 4958000   0.45391114   -8.4947354    706.49873  0.011874727  0.010250782            3 
 4959000    0.4569012   -8.5026026    706.35805  0.011869968  0.010247508            2 
 4960000   0.46728582   -8.5048839    706.45351  0.011869179  0.010244235            4 
 4961000   0.46112598   -8.4692569     706.2821  0.011863907  0.010240964            4 
 4962000   0.45750616   -8.4855474    707.26071  0.011877951  0.010237695            5 
 4963000   0.45725648   -8.5074283    706.95053  0.011870349  0.010234427            3 
 4964000   0.45919721   -8.4924252    707.35158  0.011874691   0.01023116            5 
 4965000   0.45309855   -8.4890768    705.76162  0.011845613  0.010227893            5 
 4966000   0.44914652   -8.4987038    707.33546  0.011869638  0.010224629            4 
 4967000   0.44178572   -8.5036146    706.97277  0.011861163  0.010221365            3 
 4968000   0.45889622    -8.497119    706.04402  0.011843197  0.010218101            4 
 4969000   0.45968836   -8.4951918    706.75561  0.011852747   0.01021484            7 
 4970000   0.46141014   -8.4816305    706.73244  0.011849974  0.010211579            7 
 4971000   0.45193615   -8.5128848    706.78661  0.011848498   0.01020832            5 
 4972000   0.45210611   -8.5159221    706.27808  0.011837592   0.01020506            3 
 4973000   0.46512656   -8.4900806    706.95994  0.011846638  0.010201805            4 
 4974000   0.46395738   -8.4962742     706.8343  0.011842151  0.010198552            7 
 4975000   0.45590111   -8.5062031    705.82644  0.011822889  0.010195297            2 
 4976000   0.45386562   -8.4921577    706.89311  0.011838376  0.010192043            3 
 4977000   0.45494372   -8.4972516    707.52721  0.011846615  0.010188794            5 
 4978000   0.46440707   -8.4934205    706.73103  0.011830907  0.010185543            4 
 4979000   0.44343019   -8.5026362    706.11945  0.011818294  0.010182291            4 
 4980000   0.45192662   -8.4825348     706.0351   0.01181451  0.010179042            5 
 4981000   0.45759109    -8.498604    706.60734  0.011821711  0.010175795            3 
 4982000   0.45292376    -8.503494    706.06992  0.011810349  0.010172547            4 
 4983000   0.44615361   -8.4925908    707.00301  0.011823584  0.010169304            4 
 4984000   0.46696691   -8.4915209    707.97859  0.011837523  0.010166062            5 
 4985000   0.45377008   -8.5101057    705.82462  0.011799141  0.010162823            4 
 4986000   0.44914034   -8.4942431    706.42492  0.011806808  0.010159583            8 
 4987000   0.45291673   -8.4929724    706.81635  0.011810981  0.010156345            5 
 4988000   0.44758206   -8.5035602    705.69783  0.011789926  0.010153108            3 
 4989000   0.46516092   -8.4997936    706.39167  0.011799153  0.010149871            3 
 4990000   0.44899858   -8.4957631    706.00913    0.0117904  0.010146636            6 
 4991000   0.45994601   -8.4994654    707.24545   0.01180868  0.010143402            4 
 4992000   0.45397477   -8.5062097    707.31651    0.0118075  0.010140169            7 
 4993000   0.45980046   -8.5140842     705.8911  0.011781346   0.01013694            6 
 4994000   0.44421089   -8.5198515    706.72367  0.011792879  0.010133708            8 
 4995000   0.45499929   -8.5182379     706.6367  0.011789067  0.010130479            7 
 4996000   0.44246177   -8.4890054    706.59138  0.011785952  0.010127255            4 
 4997000   0.46347368   -8.5069084    707.54863  0.011799557  0.010124032            4 
 4998000   0.44302538   -8.5115396    706.57622  0.011780983  0.010120807            9 
 4999000   0.45612692   -8.5096025    706.22555   0.01177278  0.010117585            4 
 5000000   0.46261322    -8.508177    706.39826  0.011773304  0.010114363            4 
 5001000   0.45685889    -8.524078     705.8191  0.011761299  0.010111145            6 
 5002000   0.44612852    -8.501963    706.17502  0.011764878  0.010107926            4 
 5003000   0.44772343   -8.4963645     707.2278  0.011780062  0.010104709            3 
 5004000   0.44665296   -8.5097448    707.10603   0.01177568  0.010101493            3 
 5005000   0.45311456   -8.5011613    706.51532  0.011763492  0.010098277            4 
 5006000   0.45643087   -8.5033792    707.48667  0.011777312  0.010095062            5 
 5007000   0.45503678   -8.5083986    705.70376  0.011745286  0.010091847            5 
 5008000   0.45332414   -8.5259958    706.74711  0.011760302  0.010088633            6 
 5009000   0.44850633   -8.5120203    706.89684  0.011760445  0.010085423            4 
 5010000   0.45342125   -8.5023655    706.48979  0.011751327  0.010082216            4 
 5011000   0.45639083   -8.5117285    706.05896  0.011741817  0.010079009            6 
 5012000   0.45271831   -8.5236103     706.9631  0.011754508  0.010075802            5 
Loop time of 11786.1 on 48 procs for 5000000 steps with 4000 atoms

Performance: 73306.760 tau/day, 424.229 timesteps/s
99.4% CPU use with 48 MPI tasks x no OpenMP threads

MPI task timing breakdown:
Section |  min time  |  avg time  |  max time  |%varavg| %total
---------------------------------------------------------------
Pair    | 729.04     | 781.38     | 841.99     | 107.0 |  6.63
Neigh   | 76.663     | 80.461     | 84.452     |  21.8 |  0.68
Comm    | 724.05     | 794.26     | 861.53     | 129.2 |  6.74
Output  | 13.915     | 13.949     | 14.05      |   0.5 |  0.12
Modify  | 9978       | 10011      | 10035      |  13.8 | 84.94
Other   |            | 105.4      |            |       |  0.89

Nlocal:        83.3333 ave          91 max          74 min
Histogram: 1 1 2 5 11 10 5 8 3 2
Nghost:        2005.96 ave        2024 max        1978 min
Histogram: 1 0 1 4 5 11 12 7 3 4
Neighs:        12890.1 ave       14533 max       11236 min
Histogram: 1 4 4 7 7 9 8 5 2 1
FullNghs:      25778.8 ave       28286 max       22720 min
Histogram: 1 1 2 8 8 10 7 5 3 3

Total # of neighbors = 1237380
Ave neighs/atom = 309.34500
Neighbor list builds = 268047
Dangerous builds = 1

#clear
#
#next RN
#
#jump SELF
Total wall time: 3:16:29
