
units lj                  # Use reduced LJ style units
atom_style atomic         # Uncharged point particles
atom_modify map hash      # Needed for indexing of clusters etc
                          # Used to be able to find where atoms are in relation to each other.

lattice fcc 1.0 spacing 1 1 1
Lattice spacing in x,y,z = 1.5874011 1.5874011 1.5874011
region box block 0 10 0 10 0 10 units lattice
create_box 2 box
Created orthogonal box = (0.0000000 0.0000000 0.0000000) to (15.874011 15.874011 15.874011)
  3 by 4 by 4 MPI processor grid
create_atoms 1 box
Created 4000 atoms
  using lattice units in orthogonal box = (0.0000000 0.0000000 0.0000000) to (15.874011 15.874011 15.874011)
  create_atoms CPU = 0.002 seconds
set type 1 type/fraction 2 0.38 78393
Setting atom values ...
  1537 settings made for type/fraction
mass 1 1.0
mass 2 1.0
pair_style lj/cut  3.5
pair_modify tail  yes
pair_coeff 1  1  1.0  1.0   # Intearaction between 1 and 1 set with epsilon = 1 and sigma = 1
pair_coeff 1  2  1.5  0.8
pair_coeff 2  2  0.5  0.88

write_data data.0
System init for write_data ...
Neighbor list info ...
  update every 1 steps, delay 10 steps, check yes
  max neighbors/atom: 2000, page size: 100000
  master list distance cutoff = 3.8
  ghost atom cutoff = 3.8
  binsize = 1.9, bins = 9 9 9
  1 neighbor lists, perpetual/occasional/extra = 1 0 0
  (1) pair lj/cut, perpetual
      attributes: half, newton on
      pair build: half/bin/atomonly/newton
      stencil: half/bin/3d
      bin: standard
WARNING: Not all mixed pair coeffs generated from mixing. Use write_data with 'pair ij' option to store all pair coeffs. (../write_data.cpp:312)


#############################
#   M E L T   S Y S T E M   #
#############################

velocity all create 2.4 1741580 mom yes dist gaussian # Assign velocities
                                                    # Temperature 2.4, random number seed, zero linear momentum
                                                                                # Gaussian distribution

timestep 0.002   # simulation timestep
thermo 1000       # output thermodynamic data every 1000 steps bf 100

# Define a fix  in this case with index 1 applied to all
# particles in the simulation. This fix is for simulations
# in the anisotropic NPT ensemble. Note that we use the MTK
# correction.
fix 1 all npt temp 2.4 2.4 0.1 iso 5.68 5.68 0.5 mtk yes tchain 5 pchain 5 # Use NPT ensemble
                                                                         # Set temperature and pressure and damping
                                                                         # Numbers of thermostats in chain and in barostat
run 10000          # run for 10000 steps
Per MPI rank memory allocation (min/avg/max) = 3.642 | 3.644 | 3.648 Mbytes
Step Temp E_pair E_mol TotEng Press Volume 
       0          2.4   -5.9717516            0   -2.3726516   -4.1474152         4000 
    1000    2.4007634   -5.0558312            0   -1.4555865    5.4799631    3946.9291 
    2000    2.4372172   -5.0464839            0   -1.3915721    5.7379734    3932.1798 
    3000    2.4063736   -5.0131615            0   -1.4045036    5.8169966    3940.3446 
    4000    2.3826733    -4.990118            0   -1.4170015    5.5602455    3969.3935 
    5000    2.3593203    -5.029781            0   -1.4916854    5.4829422    3942.4664 
    6000    2.4266588   -4.9985522            0   -1.3594741    5.7408283    3942.0038 
    7000    2.4180147    -5.013146            0   -1.3870307    5.3840715    3985.9127 
    8000    2.4590962   -5.0247485            0   -1.3370263    5.7473508    3940.1375 
    9000    2.4501867   -5.0764727            0   -1.4021115     5.623284    3930.8092 
   10000    2.3382929   -5.0395673            0   -1.5330048    5.4990492    3937.2423 
Loop time of 2.47676 on 48 procs for 10000 steps with 4000 atoms

Performance: 697685.764 tau/day, 4037.533 timesteps/s
99.6% CPU use with 48 MPI tasks x no OpenMP threads

MPI task timing breakdown:
Section |  min time  |  avg time  |  max time  |%varavg| %total
---------------------------------------------------------------
Pair    | 1.1124     | 1.1674     | 1.2193     |   2.6 | 47.14
Neigh   | 0.20788    | 0.21676    | 0.23754    |   1.2 |  8.75
Comm    | 0.7682     | 0.83771    | 0.9043     |   3.7 | 33.82
Output  | 0.00024363 | 0.0002485  | 0.00030532 |   0.0 |  0.01
Modify  | 0.21742    | 0.23973    | 0.2616     |   2.5 |  9.68
Other   |            | 0.01487    |            |       |  0.60

Nlocal:        83.3333 ave          91 max          72 min
Histogram: 1 1 1 4 8 8 10 9 2 4
Nghost:        1662.42 ave        1689 max        1638 min
Histogram: 4 2 8 3 9 7 7 2 4 2
Neighs:        9685.56 ave       10751 max        7971 min
Histogram: 1 1 2 2 6 10 10 6 6 4

Total # of neighbors = 464907
Ave neighs/atom = 116.22675
Neighbor list builds = 911
Dangerous builds = 250

# Equilibrate just above the melting temperature to avoid step fn in T

fix 1 all npt temp 1.25 1.25 0.1 iso 5.68 5.68 0.5 mtk yes tchain 5 pchain 5
run 2000
Per MPI rank memory allocation (min/avg/max) = 3.643 | 3.645 | 3.649 Mbytes
Step Temp E_pair E_mol TotEng Press Volume 
   10000    2.3382929   -5.0395673            0   -1.5330048    5.4990492    3937.2423 
   11000    1.2465012   -6.9914928            0   -5.1222085    5.6769024    3140.2225 
   12000    1.2471186   -7.0163139            0   -5.1461036    5.7137375    3129.9189 
Loop time of 0.594276 on 48 procs for 2000 steps with 4000 atoms

Performance: 581547.591 tau/day, 3365.437 timesteps/s
99.7% CPU use with 48 MPI tasks x no OpenMP threads

MPI task timing breakdown:
Section |  min time  |  avg time  |  max time  |%varavg| %total
---------------------------------------------------------------
Pair    | 0.2701     | 0.2892     | 0.31326    |   1.9 | 48.66
Neigh   | 0.038364   | 0.040654   | 0.043059   |   0.5 |  6.84
Comm    | 0.19254    | 0.21478    | 0.23757    |   2.6 | 36.14
Output  | 6.9212e-05 | 7.0748e-05 | 8.5481e-05 |   0.0 |  0.01
Modify  | 0.040967   | 0.044755   | 0.047536   |   1.0 |  7.53
Other   |            | 0.004819   |            |       |  0.81

Nlocal:        83.3333 ave          90 max          74 min
Histogram: 2 3 0 7 3 8 9 2 7 7
Nghost:        1932.40 ave        1961 max        1905 min
Histogram: 3 4 4 7 10 5 5 4 2 4
Neighs:        12198.8 ave       13537 max       10343 min
Histogram: 1 1 1 7 10 7 3 9 6 3

Total # of neighbors = 585542
Ave neighs/atom = 146.38550
Neighbor list builds = 141
Dangerous builds = 5

#############################
# L I N E A R  Q U E N C H  #
#############################

# Define solid atoms. This closely follows ten Wolde  Ruiz-Montero and Frenkel  Faraday Discuss  1996  104  93-110
# Compute components of the per-atom q6 vector
compute q6 all orientorder/atom degrees 1 6 components 6 nnn NULL cutoff 1.3 # compute the Q6 parameter.
                                                                             # Use all neighbours within 1.3 unit cell.

# get number of connections
compute coord_number all coord/atom orientorder q6 0.5

# An atom is solid if it has 8 or more connections (of a possible 14)
variable is_solid atom c_coord_number>=8
group solid dynamic all var is_solid    # Must be dynamic to update
dynamic group solid defined

# do clustering
compute cluster solid cluster/atom 1.3 # Create a cluster where all atoms within are solid and max 1.3 units from another member

# define chunks one chunk per cluster
compute clus_chunks solid chunk/atom c_cluster nchunk every compress yes  # Says which atoms are in which chunk

# count the size of each chunk
compute size_chunks solid property/chunk clus_chunks count


# Find the maximum entry in the vector of chunk sizes
variable max_n equal max(c_size_chunks)


# Thermo style which includes this variable
# thermo_style custom step temp pe vol v_max_n

thermo ${N}  # Print the thermo information every 100 steps
thermo 1000  

# Reset the npt fix at a lower temperature (below freezing)
fix 1  all npt temp  ${temp} ${temp}  0.1  iso  5.68  5.68  0.5  mtk yes tchain  5  pchain  5
fix 1  all npt temp  0.45 ${temp}  0.1  iso  5.68  5.68  0.5  mtk yes tchain  5  pchain  5
fix 1  all npt temp  0.45 0.45  0.1  iso  5.68  5.68  0.5  mtk yes tchain  5  pchain  5

dump dmp2 all dcd ${N} traj.dcd
dump dmp2 all dcd 1000 traj.dcd


compute msd all msd com yes
variable twopoint equal c_msd[4]/6/(step*dt+1.0e-6)
fix 9 all vector 10 c_msd[4]
variable fit equal slope(f_9)/6/(10*dt)
thermo_style custom step temp pe c_msd[4] v_twopoint v_fit v_max_n

fix 1 all npt temp 1.25 ${temp} 0.1 iso 5.68 5.68 0.5 mtk yes tchain 5 pchain 5
fix 1 all npt temp 1.25 0.45 0.1 iso 5.68 5.68 0.5 mtk yes tchain 5 pchain 5
run 500000 # 5000000  # Run for this many steps
Neighbor list info ...
  update every 1 steps, delay 10 steps, check yes
  max neighbors/atom: 2000, page size: 100000
  master list distance cutoff = 3.8
  ghost atom cutoff = 3.8
  binsize = 1.9, bins = 8 8 8
  4 neighbor lists, perpetual/occasional/extra = 1 3 0
  (1) pair lj/cut, perpetual
      attributes: half, newton on
      pair build: half/bin/atomonly/newton
      stencil: half/bin/3d
      bin: standard
  (2) compute orientorder/atom, occasional
      attributes: full, newton on
      pair build: full/bin/atomonly
      stencil: full/bin/3d
      bin: standard
  (3) compute coord/atom, occasional
      attributes: full, newton on
      pair build: full/bin/atomonly
      stencil: full/bin/3d
      bin: standard
  (4) compute cluster/atom, occasional
      attributes: full, newton on
      pair build: full/bin/atomonly
      stencil: full/bin/3d
      bin: standard
Per MPI rank memory allocation (min/avg/max) = 9.821 | 9.827 | 9.832 Mbytes
Step Temp PotEng c_msd[4] v_twopoint v_fit v_max_n 
   12000    1.2471186   -7.0163139 1.5376871e-30 1.0678382e-32 8.3333333e+20            1 
   13000    1.2585547   -7.0577132   0.48850609 0.0031314492  0.039984797            1 
   14000     1.251226   -7.0670441    0.9245083 0.0055030254  0.036872734            1 
   15000    1.2421456   -7.0820547    1.3621833 0.0075676847  0.036999906            1 
   16000    1.2624496   -7.1164829    1.8181041 0.0094692917  0.037144117            2 
   17000    1.2304706   -7.0857194    2.2781007   0.01116716  0.037340292            2 
   18000    1.2467107   -7.0699022    2.7231368  0.012607114  0.037489514            1 
   19000    1.2185617   -7.0385856    3.2077103  0.014068904  0.037869255            2 
   20000    1.2408105   -7.1217679    3.6065409  0.015027254   0.03769476            1 
   21000    1.2284758   -7.1183855     4.006609  0.015899242  0.037406863            1 
   22000    1.2439053   -7.0886081    4.3591572  0.016511959  0.036965816            1 
   23000    1.2372054   -7.1453172    4.7798041   0.01731813  0.036419827            1 
   24000    1.2197487   -7.1363973    5.1789514   0.01798247  0.036041554            2 
   25000    1.2116928   -7.1310238    5.5715153  0.018571717  0.035705739            2 
   26000    1.2310386   -7.1036703    6.0326786  0.019335508  0.035538384            1 
   27000    1.2207799    -7.148607    6.4216815  0.019820004  0.035454826            2 
   28000     1.228927    -7.102045    6.9130545  0.020574566  0.035348657            1 
   29000    1.2174821   -7.1297025    7.3140296  0.021017326  0.035344645            2 
   30000    1.2484548    -7.126473    7.7511086  0.021530857  0.035333097            5 
   31000    1.2412333   -7.1440439     8.030586  0.021587596  0.035196902            1 
   32000    1.2109573   -7.1621906    8.3381447  0.021713918    0.0350046            2 
   33000    1.2103904   -7.1436234    8.6470017  0.021835862  0.034734238            1 
   34000    1.2297149   -7.2064894    9.0330792    0.0221399  0.034456879            2 
   35000     1.207725   -7.1625951    9.4104585  0.022405853  0.034220642            1 
   36000     1.208619   -7.1522811    9.8001803  0.022685602  0.034005103            2 
   37000     1.226472   -7.1398719    10.143504  0.022845729  0.033777224            1 
   38000    1.2014868   -7.1983508    10.480717  0.022984028  0.033564816            1 
   39000    1.2058931   -7.1664526    10.954203  0.023406415   0.03343059            1 
   40000    1.1813987   -7.1296152    11.435007   0.02382293  0.033347925            2 
   41000    1.2096528    -7.159114    11.765924   0.02391448  0.033293617            2 
   42000     1.194011   -7.2045056    12.113853  0.024035423  0.033223907            2 
   43000    1.2097236   -7.1761215    12.549628  0.024320984  0.033156682            2 
   44000    1.1843024   -7.2002254    12.852848  0.024342515  0.033081985            1 
   45000    1.2023608   -7.1972566    13.169159  0.024387332  0.032994616            2 
   46000    1.2122704   -7.2102766    13.455249   0.02437545  0.032872244            1 
   47000    1.2011892   -7.2237319    13.799114  0.024466513  0.032746955            4 
   48000    1.1834759   -7.2179487    14.198299  0.024649825  0.032624265            1 
   49000    1.1985751   -7.2220851    14.530529  0.024711784   0.03252414            1 
   50000    1.2144964   -7.2045937    14.841254  0.024735423  0.032395116            2 
   51000    1.1607632   -7.2094898    15.194119  0.024826992  0.032269095            2 
   52000      1.19034   -7.1827231    15.643012  0.025068929   0.03215165            2 
   53000    1.1962084    -7.193168    16.024381  0.025195567  0.032068003            1 
   54000    1.1633506   -7.2050697    16.232924  0.025050808  0.031978331            1 
   55000    1.1702429   -7.2348645    16.462338  0.024942936  0.031855166            1 
   56000    1.1940914    -7.247617    16.843436  0.025064636  0.031739981            2 
   57000    1.1641388   -7.2181208    17.240731  0.025205747   0.03163716            1 
   58000    1.1684309   -7.1862025    17.611975  0.025304561  0.031547955            4 
   59000    1.1610847   -7.2128508     17.89438  0.025274548  0.031447875            1 
   60000    1.1686844   -7.2401636    18.184001  0.025255556   0.03134823            1 
   61000    1.1716286   -7.3162239    18.583749  0.025387634  0.031252458            2 
   62000    1.1485063   -7.2610666    18.989891  0.025524047  0.031177003            2 
   63000    1.1955008   -7.2517887    19.369026  0.025620405  0.031114751            2 
   64000    1.1678245   -7.2295607    19.837007  0.025829436  0.031065805            2 
   65000    1.1715066   -7.2582681    20.048056  0.025702636  0.031013853            2 
   66000    1.1590163    -7.276154    20.438985  0.025806799  0.030965317            1 
   67000    1.1563819   -7.2677771    20.777654  0.025842854  0.030906848            2 
   68000    1.1590366   -7.2466706    21.085122   0.02583961  0.030849131            3 
   69000    1.1570739   -7.2303285    21.565897  0.026045769  0.030799033            3 
   70000    1.1684292   -7.3129621    21.677933  0.025807063  0.030747978            1 
   71000    1.1688019   -7.3240166    21.965343  0.025780919  0.030682941            1 
   72000    1.1569227   -7.2786742     22.29831  0.025808229  0.030608487            1 
   73000    1.1483328   -7.2668773    22.701106  0.025914504  0.030535617            1 
   74000    1.1717143   -7.2762518    22.879634  0.025765353  0.030463557            3 
   75000    1.1508249   -7.2882145    23.184405  0.025760449   0.03038615            2 
   76000    1.1739568   -7.3347931      23.4136  0.025672807  0.030303176            3 
   77000    1.1510263   -7.3118769    23.929042  0.025897232  0.030231335            2 
   78000    1.1217208   -7.2909897    24.241991  0.025899563   0.03016652            1 
   79000    1.1517387   -7.3100999    24.585214   0.02593377  0.030103673            1 
   80000    1.1265504   -7.3408034    24.897494  0.025934889  0.030040225            2 
   81000    1.1656738   -7.2798146    25.333827  0.026063608  0.029988259            3 
   82000     1.122241   -7.3373462    25.616864  0.026033398  0.029942122            2 
   83000    1.1449525   -7.3355811     25.79531  0.025898905   0.02989041            1 
   84000    1.1384696   -7.3606172    26.183548  0.025975742    0.0298304            1 
   85000     1.096336   -7.3504236    26.545732  0.026025228   0.02977506            4 
   86000     1.127178   -7.3470466    26.830017  0.025998079  0.029720597            2 
   87000    1.1344591    -7.339466     27.17024  0.026025134  0.029670555            1 
   88000    1.1354225   -7.3594252    27.415853  0.025961982  0.029616333            2 
   89000    1.1153261   -7.4008482    27.737576  0.025971513  0.029560186            1 
   90000    1.1535734   -7.3642676      28.0446  0.025967222  0.029503797            2 
   91000    1.1244312   -7.3352517    28.486072  0.026086146  0.029456635            1 
   92000    1.1048074   -7.3597008    28.865102  0.026145926  0.029416071            1 
   93000    1.1275037   -7.3571903    28.964147  0.025953537   0.02937017            2 
   94000     1.107936   -7.3772112     29.41505  0.026077172  0.029323147            4 
   95000    1.1331433    -7.364513    29.570631   0.02593915  0.029274851            4 
   96000    1.1140661   -7.3716565    29.830995  0.025894961  0.029220953            1 
   97000     1.118342   -7.4000927    30.195972  0.025941557  0.029167746            2 
   98000    1.1372398   -7.4390519    30.428554   0.02587462  0.029119885            1 
   99000    1.1108207   -7.4077149     30.75842  0.025890926  0.029066221            3 
  100000    1.0997745   -7.3981608    31.045115  0.025870929  0.029014307            1 
  101000    1.1093631   -7.3879251    31.306725  0.025830631  0.028956635            2 
  102000    1.1002175   -7.4337084    31.505421  0.025739723  0.028895912            1 
  103000     1.100575   -7.4228423    31.902603  0.025811167   0.02883522            3 
  104000    1.1104227   -7.4012981     32.05386  0.025684182  0.028775785            1 
  105000    1.0945259   -7.4444078    32.330924  0.025659463  0.028718518            2 
  106000     1.118787   -7.4453257    32.647324  0.025666135  0.028660148            2 
  107000    1.0804668   -7.4293647    32.885454  0.025611724  0.028600497            2 
  108000    1.0780495   -7.4245425    33.186587  0.025606934  0.028539249            2 
  109000     1.121866   -7.4343045    33.281442  0.025444527  0.028475144            2 
  110000    1.0666003   -7.4232092    33.524622  0.025397441  0.028404691            2 
  111000    1.0934612   -7.4469114    33.703106  0.025302632  0.028332329            1 
  112000    1.0740932   -7.4457192    33.929741  0.025245343  0.028259071            2 
  113000    1.1120166   -7.4435376    34.181358  0.025207491  0.028185547            2 
  114000    1.0724824   -7.4289607    34.516877  0.025231635  0.028114204            1 
  115000    1.0581169   -7.4575503    34.758782  0.025187523  0.028041841            3 
  116000    1.0600662   -7.4842211     34.79608  0.024997184  0.027964998            1 
  117000    1.0776605   -7.4796556    35.135132  0.025025023  0.027890744            1 
  118000    1.0792631   -7.4266164    35.427627   0.02501951  0.027813908            2 
  119000    1.0712529   -7.5024821    35.595005  0.024926474  0.027738026            2 
  120000    1.0901579   -7.4369571     35.92796  0.024949972  0.027664722            2 
  121000    1.0868208   -7.4822368    36.079204  0.024847937  0.027588988            1 
  122000    1.0668104   -7.4531144    36.492112  0.024926306  0.027513691            1 
  123000    1.0654583   -7.4785168    36.592635  0.024791758  0.027440907            4 
  124000    1.0794635   -7.4733594    36.645592  0.024627414  0.027365668            2 
  125000    1.1072437   -7.4377651    37.122241  0.024748161    0.0272909            2 
  126000    1.0693187   -7.4695583    37.290044  0.024662727  0.027215413            1 
  127000    1.0595665   -7.4948728    37.632484  0.024693231  0.027142786            1 
  128000    1.0727911   -7.5284107    37.765643  0.024587007  0.027070599            2 
  129000    1.0694612   -7.4928968    38.178328  0.024663002  0.026998125            1 
  130000    1.0767376   -7.5024824    38.271576  0.024533062  0.026927443            2 
  131000    1.0564138   -7.4628891    38.542402  0.024518068  0.026857568            1 
  132000    1.0772897   -7.5086258    38.604739  0.024371679  0.026783379            2 
  133000     1.035371   -7.5109966    38.673846  0.024231733  0.026707503            3 
  134000    1.0578312   -7.5590731    38.811575  0.024136552  0.026629721            1 
  135000    1.0480261   -7.5471057    39.228634  0.024215206  0.026554575            1 
  136000    1.0312799   -7.5066512    39.488409  0.024196329  0.026480187            2 
  137000    1.0417404   -7.5283342    39.834757  0.024230388   0.02640791            2 
  138000    1.0383841   -7.5826222    39.995985  0.024152165  0.026338197            1 
  139000     1.024752   -7.5836624    40.429319  0.024238201  0.026272165            2 
  140000    1.0790014   -7.5339779    40.735269  0.024247184  0.026209844            1 
  141000    1.0551892   -7.5707463    40.725582  0.024069493  0.026146574            2 
  142000    1.0342142   -7.5350155    41.090434  0.024114104  0.026083285            2 
  143000    1.0384875   -7.5574699    41.435228  0.024146403  0.026022859            3 
  144000    1.0393059   -7.5885543    41.500719   0.02401662  0.025964636            3 
  145000    1.0462054   -7.5947444    41.809634  0.024028525  0.025904031            3 
  146000    1.0338766   -7.5685406    41.935484  0.023935779  0.025844169            2 
  147000    1.0494102   -7.5251869     42.32746  0.023995158  0.025784638            1 
  148000    1.0411447   -7.5798744     42.42969  0.023890591  0.025725372            1 
  149000    1.0305242   -7.5767418    42.620825   0.02383715  0.025664682            4 
  150000     1.029391    -7.586554    42.935833  0.023853241  0.025605223            2 
  151000    1.0540166   -7.6120009    42.976424  0.023717673  0.025544711            1 
  152000    1.0245626   -7.6085291    43.117659  0.023639067  0.025483197            1 
  153000    1.0302977   -7.6480489    43.255391  0.023559581  0.025420834            2 
  154000    1.0352248   -7.5589023    43.548446  0.023565176   0.02535579            1 
  155000    1.0184248   -7.6007265    43.896703  0.023600378  0.025294699            1 
  156000    1.0176704   -7.5884435    44.250572  0.023638126  0.025237826            2 
  157000    1.0160112   -7.6142442    44.732739  0.023743492  0.025183363            4 
  158000    1.0221575   -7.6153395    44.911382  0.023687438  0.025132734            1 
  159000    1.0100988   -7.6094259    45.089675  0.023631905  0.025080832            2 
  160000    1.0211113   -7.6304027    45.310085  0.023599002  0.025029525            3 
  161000    1.0055432   -7.6594531     45.41916  0.023508882  0.024977844            2 
  162000    1.0261469   -7.6263206    45.617748   0.02346592  0.024924181            2 
  163000    1.0249704   -7.6073938    46.005634  0.023520263  0.024872111            2 
  164000    1.0194812   -7.5847869    46.050106  0.023399444  0.024819124            1 
  165000    1.0185504   -7.6824742    46.276849  0.023372146  0.024764054            6 
  166000   0.98669212    -7.707225     46.12917  0.023157214  0.024708865            1 
  167000    1.0114797   -7.6300803    46.350935  0.023129209  0.024651314            2 
  168000    1.0146959   -7.6608811    46.565317  0.023097875  0.024590956            2 
  169000   0.99978775   -7.6584063    46.745977  0.023050284  0.024531472            4 
  170000    1.0069254   -7.6656043    46.758012  0.022920594  0.024470591            1 
  171000    1.0030995     -7.66996    46.978588  0.022894049  0.024410776            4 
  172000   0.98036508   -7.6806877    47.078749  0.022809471  0.024350936            2 
  173000   0.98339288   -7.7113228    47.389905  0.022827507  0.024289927            1 
  174000   0.99079047   -7.7022746    47.491248   0.02274485  0.024230074            2 
  175000   0.99764228   -7.6473346    47.896903  0.022808049  0.024171434            3 
  176000   0.99520368   -7.6613722    48.001903  0.022728174  0.024114986            1 
  177000   0.97714225   -7.7032939    48.048281  0.022621601  0.024057133            1 
  178000   0.97491634   -7.7425366    48.165984  0.022549618  0.023996287            1 
  179000   0.96909549   -7.6818386    48.314842  0.022492943  0.023934613            2 
  180000   0.99094815    -7.639089    48.546109   0.02247505  0.023872403            2 
  181000   0.98025149   -7.7128412    48.581346  0.022367102  0.023809779            2 
  182000   0.98179979   -7.7297223    48.666227  0.022283071  0.023747046            3 
  183000   0.97988209   -7.7091275    49.073462   0.02234675  0.023684255            5 
  184000   0.97477627   -7.7203148    49.107097  0.022240533  0.023622172            2 
  185000   0.97774375   -7.7307399    49.057883  0.022098146  0.023558938            3 
  186000    1.0000104   -7.7236888    49.359141  0.022114311  0.023496104            2 
  187000   0.97110377   -7.7186583    49.629386  0.022116482  0.023435477            2 
  188000    0.9561042   -7.7377697    49.994532  0.022160697  0.023376441            3 
  189000   0.95513672   -7.7425839    49.898467  0.022001088  0.023317596            2 
  190000   0.97158224   -7.7431534    50.245665  0.022037573  0.023257263            1 
  191000   0.96545924   -7.7642641    50.229113  0.021914971  0.023197039            2 
  192000   0.94092485   -7.7521991    50.513565   0.02192429  0.023136872            2 
  193000    0.9650227   -7.7736303    50.450601  0.021783507  0.023077775            2 
  194000   0.99948603   -7.7719821     50.59135  0.021731679  0.023016764            2 
  195000   0.95964593   -7.7285302    51.046875  0.021814904  0.022956602            1 
  196000   0.98508897   -7.7663201    51.063826   0.02171081  0.022897219            4 
  197000   0.94074921   -7.7672309    51.179037  0.021649339  0.022837636            2 
  198000   0.97650143    -7.773653    51.371342  0.021620935  0.022778029            2 
  199000   0.96841682   -7.7985961    51.456482   0.02154794  0.022718395            1 
  200000   0.94397565   -7.7750474    51.515061  0.021464609  0.022657407            1 
  201000   0.95037271   -7.7916623    51.649987  0.021413759  0.022596486            1 
  202000   0.96556871   -7.7709824    51.698451  0.021327744  0.022534905            2 
  203000   0.93006297   -7.8024434    51.970875  0.021334514  0.022473342            1 
  204000   0.92630371    -7.798148      52.1023  0.021283619  0.022412212            3 
  205000    0.9722207   -7.8351838    52.185785  0.021213734  0.022351869            3 
  206000   0.91654402   -7.8216557    52.335098  0.021171156  0.022291401            1 
  207000   0.92134843   -7.7936027     52.49599  0.021133651  0.022231281            2 
  208000   0.94141022   -7.8133001    52.645204  0.021091828  0.022171117            4 
  209000   0.96080169   -7.8308533    52.737511  0.021027716  0.022112184            3 
  210000   0.93672108   -7.8169902    52.993099  0.021029007  0.022052289            2 
  211000   0.93097906   -7.8024421    53.061781   0.02095647  0.021993093            7 
  212000   0.93468626   -7.8367282    53.109918   0.02087654    0.0219336            2 
  213000   0.95434365   -7.8482683    53.073935   0.02076445  0.021873589            1 
  214000   0.93753621   -7.8446816    53.258971  0.020739475  0.021811836            5 
  215000   0.93355952   -7.8710103    53.171445  0.020609087    0.0217503            7 
  216000   0.92118242   -7.8721134    53.427503  0.020612462   0.02168844            2 
  217000   0.90839965   -7.8738347    53.492372  0.020542386  0.021625562            2 
  218000   0.92122628   -7.8600377    53.685493  0.020521978  0.021563361            2 
  219000   0.91081477   -7.8468838    53.663792  0.020420012  0.021501462            2 
  220000   0.94472334   -7.8720698    53.640788   0.02031848  0.021439437            2 
  221000     0.938828   -7.9098726     53.62968  0.020222353    0.0213768            4 
  222000   0.89584175   -7.8661109    53.937226  0.020246706  0.021313582            2 
  223000   0.90261125   -7.8761225    54.061985  0.020202535   0.02125072            1 
  224000   0.89772443   -7.8759624    54.230581  0.020175067  0.021187983            2 
  225000   0.89985339   -7.9190025     54.37668  0.020139511  0.021126015            3 
  226000   0.91035761   -7.8977237    54.641832  0.020148168   0.02106453            1 
  227000   0.90018396   -7.8620359    54.678526   0.02007288  0.021003691            1 
  228000   0.89871502   -7.9162017    54.806221  0.020031513  0.020943921            4 
  229000   0.88380166   -7.9050641    54.931847  0.019989755   0.02088472            3 
  230000   0.92060265   -7.9306518    55.058371  0.019948685  0.020825989            1 
  231000   0.87863576   -7.9228774    55.323394  0.019957934  0.020767669            2 
  232000   0.89336491    -7.920892    55.308746  0.019866647  0.020709839            3 
  233000   0.90438096    -7.901134    55.507272  0.019852386  0.020652635            2 
  234000   0.88931556   -7.9121978    55.619383  0.019807473  0.020594821            2 
  235000   0.90257475     -7.91044    55.683359  0.019745872  0.020537503            2 
  236000   0.90528086   -7.9381213    55.678861  0.019660615  0.020479919            2 
  237000    0.8890013    -7.943037    55.867252    0.0196439  0.020422736            1 
  238000   0.88804339   -7.9683856    56.030168  0.019618406  0.020365523            2 
  239000   0.87767564   -7.9376074    56.117297    0.0195667  0.020307824            4 
  240000   0.89864964   -7.9462423    56.120203  0.019486181  0.020250691            1 
  241000   0.88895206   -7.9557103    56.378164  0.019494524  0.020193343            2 
  242000   0.88258117   -7.9281634    56.391499   0.01941856  0.020137097            2 
  243000   0.86671304   -7.9809224    56.571222  0.019400282  0.020081556            2 
  244000   0.87526806   -7.9370985    56.726677  0.019373865  0.020025688            4 
  245000   0.87170988   -7.9674088     56.91048  0.019357306   0.01996997            1 
  246000   0.87436785   -7.9636098    56.741107  0.019221242  0.019914181            2 
  247000    0.8629393    -7.976528    56.926798  0.019206072  0.019858511            5 
  248000   0.87926753   -7.9957749    57.134636  0.019198466  0.019803489            3 
  249000   0.85255272    -7.990235    57.183985   0.01913788  0.019749034            3 
  250000   0.88601759   -7.9409731    57.474133  0.019158044  0.019694864            2 
  251000   0.85329471   -7.9715132    57.392266  0.019054537  0.019640656            1 
  252000    0.8774335   -8.0182915    57.262059  0.018935866  0.019585893            3 
  253000   0.87073495   -8.0294568     57.29166  0.018870771  0.019529932            2 
  254000   0.86560316   -8.0070864    57.661193  0.018917714  0.019473988            1 
  255000   0.85404316   -8.0447565    57.469889  0.018781009  0.019418593            2 
  256000   0.85489393   -8.0352157    57.566249  0.018739013  0.019362262            1 
  257000   0.85873508   -8.0142493    57.661521  0.018696991  0.019305801            6 
  258000   0.85187988   -8.0048809    57.736573  0.018648764  0.019249593            3 
  259000   0.87158469   -8.0261426    57.703472  0.018566111  0.019192604            3 
  260000   0.84896956   -8.0183526      57.6379  0.018473686   0.01913523            2 
  261000   0.86245806   -8.0413032    57.685268  0.018418029  0.019078066            3 
  262000   0.84882536    -7.999616    57.772731  0.018375551  0.019020011            2 
  263000   0.83248434   -8.0315518    57.803212   0.01831534  0.018962546            3 
  264000   0.86244387   -8.0459298    57.775706  0.018237281  0.018904679            3 
  265000   0.85596269    -8.066664    57.747435  0.018159571  0.018847168            2 
  266000   0.84150835   -8.0639031    58.038204  0.018182395  0.018789547            2 
  267000    0.8402437   -8.0437372    57.994793  0.018100747  0.018732113            4 
  268000   0.85472856   -8.0762189    58.037576   0.01804651  0.018674396            1 
  269000    0.8494137   -8.0756999    58.023201  0.017974969  0.018617288            2 
  270000   0.84810212   -8.1081323    58.002374  0.017901967  0.018559553            2 
  271000   0.83788372   -8.1045801    58.161746  0.017884916  0.018501453            3 
  272000   0.83079236   -8.1074098    58.165324  0.017820258  0.018443603            3 
  273000    0.8246947   -8.1023396    58.275084  0.017788487  0.018385859            5 
  274000   0.82444359   -8.0947298    58.382508  0.017756237  0.018328431            3 
  275000   0.81457335   -8.1029298    58.445896  0.017710877  0.018271693           12 
  276000     0.830674   -8.1166632    58.602571  0.017694013  0.018214751            5 
  277000   0.82947181   -8.0779094    58.561354  0.017617736  0.018157856            2 
  278000    0.8339716   -8.0973579    58.640064  0.017577957  0.018101394            1 
  279000   0.81370091   -8.0894244    58.733004  0.017542713  0.018045065            5 
  280000    0.8329972   -8.1261007    58.863347  0.017518853   0.01798951            1 
  281000   0.82923512   -8.1262471    58.760041  0.017425872  0.017933588            1 
  282000    0.8247704   -8.1401137    58.738418  0.017357689  0.017878108            1 
  283000   0.81873027   -8.1226053    58.825207   0.01732191  0.017822089            2 
  284000   0.81647087   -8.1400297    58.751647  0.017239333  0.017765406            4 
  285000   0.81399906    -8.177462    58.812545  0.017196651  0.017708286            4 
  286000   0.81292358    -8.142387    58.872386  0.017153958  0.017651277            1 
  287000   0.82778424   -8.1214932    58.806633  0.017075097  0.017594407            5 
  288000   0.78679759   -8.1612038    58.967394  0.017062325  0.017537998            5 
  289000    0.7932873   -8.1542895    58.973377  0.017005011   0.01748176            4 
  290000   0.81671417   -8.1697128    59.107349   0.01698487  0.017426084            1 
  291000   0.81326434   -8.1777379    59.100204  0.016924457  0.017370343            2 
  292000   0.80381639   -8.1776461    59.266297  0.016913898  0.017315465            2 
  293000   0.79491296   -8.1563717    59.430357  0.016902832  0.017260455            3 
  294000   0.78312296   -8.2014619    59.415479  0.016841122  0.017205958            3 
  295000   0.78723273   -8.1999157    59.343231  0.016763625   0.01715131            2 
  296000   0.79160098   -8.1683853    59.417195  0.016727814  0.017096623            8 
  297000   0.78595109   -8.1997438    59.447307   0.01667994  0.017042556            2 
  298000   0.77596835   -8.2031015    59.568449  0.016657844  0.016988271            3 
  299000   0.78595103   -8.2089889    59.677333  0.016632479   0.01693469            1 
  300000   0.78211249   -8.2171764    59.814856  0.016615238  0.016881133            3 
  301000   0.78130912   -8.2535887    59.696915  0.016527385   0.01682761            2 
  302000   0.78314139   -8.2275262     59.56699  0.016436807  0.016773572            1 
  303000   0.78533565    -8.243415    59.333265   0.01631828  0.016718972            1 
  304000   0.78620599   -8.2375412    59.589217  0.016334763   0.01666496            1 
  305000   0.78293892   -8.2017022    59.904569  0.016367369  0.016611036            5 
  306000   0.76989479   -8.2852559    59.557012   0.01621923  0.016556927            2 
  307000   0.78406581   -8.2839777    59.645152  0.016190324  0.016503037            3 
  308000   0.77501418   -8.2554424    59.737103  0.016162636   0.01644914            2 
  309000   0.78754555   -8.2686986     59.66659  0.016091313  0.016395298            3 
  310000   0.78455118   -8.2710112    59.769537   0.01606708  0.016341665            3 
  311000   0.75864304   -8.2842939    59.881876  0.016045519  0.016287997            3 
  312000    0.7656434   -8.2729203    59.660471  0.015934955  0.016234054            2 
  313000   0.77309375   -8.2716177    59.735909  0.015904129  0.016180168            2 
  314000   0.76157893   -8.2854542    59.848942  0.015883477  0.016126321            3 
  315000   0.75818097   -8.2932655    59.722908  0.015799711  0.016072701            4 
  316000   0.76248923   -8.3009004    59.760744   0.01575969  0.016019271            3 
  317000   0.75757372   -8.2899846    59.963278  0.015763217  0.015966205            3 
  318000    0.7551009   -8.3146188    59.786077  0.015667211  0.015913341            2 
  319000   0.75123018    -8.295569    59.908753  0.015650144  0.015860462            4 
  320000    0.7505998   -8.2865331     59.83666  0.015582464  0.015807614            2 
  321000   0.76538579   -8.2883118      59.7973  0.015523702   0.01575502            4 
  322000   0.77739605   -8.3244953     59.86987  0.015494273  0.015702574            2 
  323000   0.75761024   -8.3052999     59.89585  0.015453006  0.015650268            2 
  324000   0.75369687   -8.3187038    59.829345  0.015388206  0.015597897            5 
  325000   0.76629792   -8.3214839    59.768606  0.015325283  0.015545498            2 
  326000   0.74110303   -8.3444815    59.988906  0.015334588  0.015493559            1 
  327000   0.75141168   -8.3538361    59.998467  0.015290129  0.015441567            2 
  328000   0.75359437   -8.3543022    60.067466  0.015261043  0.015389955            2 
  329000    0.7428021   -8.3463043    60.057653  0.015212171  0.015338297            1 
  330000   0.75041952   -8.3370849    60.202808  0.015202729  0.015286936            5 
  331000   0.75155201   -8.3746315    60.029502  0.015113168  0.015235709            1 
  332000   0.74685018   -8.3437567    60.084349  0.015081413  0.015184557            3 
  333000   0.72913285   -8.3584784    60.068549  0.015032169  0.015133607            3 
  334000   0.73481079   -8.3480141    60.368126  0.015061908  0.015082899            1 
  335000   0.73383316   -8.3830943     60.20656  0.014976756  0.015032526            2 
  336000   0.73437349   -8.3949223    60.052373  0.014893942  0.014982154            2 
  337000   0.73912503   -8.3369929    60.169783  0.014878779  0.014931679            3 
  338000   0.72223288   -8.3631293    60.090799  0.014815286  0.014881422            2 
  339000   0.71531382   -8.3526384    60.414972  0.014851271    0.0148317            2 
  340000   0.71976384   -8.3648761    60.412162  0.014806902  0.014782249            3 
  341000   0.72799139   -8.3876792    60.344198  0.014746871  0.014732928            4 
  342000    0.7308432    -8.359857    60.349994  0.014705164  0.014683544            2 
  343000   0.71676139   -8.3856967    60.196935  0.014625106  0.014633986            3 
  344000   0.72171924   -8.3903744    60.223139  0.014588939  0.014584317            2 
  345000   0.71530291   -8.3971337    60.242461  0.014551319  0.014534667            2 
  346000   0.70245712   -8.4033328    60.185196  0.014495471  0.014485025            2 
  347000   0.71151127   -8.3943606    60.139546  0.014442734  0.014435597            4 
  348000   0.68699775   -8.4036142     60.18816  0.014412874  0.014386252            1 
  349000   0.70272173   -8.4304835    60.165862  0.014366252  0.014337026            2 
  350000   0.71691208   -8.4134281    60.188146  0.014330511  0.014288001            4 
  351000   0.70497652   -8.4192967    60.131182  0.014276159  0.014239183            3 
  352000   0.69384125   -8.4463893     60.19247  0.014250111  0.014190608            5 
  353000   0.70492249   -8.4530952    60.191981  0.014209627  0.014142244            1 
  354000   0.71326464   -8.4133585    60.178984  0.014166427   0.01409394            3 
  355000   0.69755857   -8.4487239    60.232493  0.014139083  0.014045578            2 
  356000   0.69602903   -8.4421981    60.146663  0.014079275  0.013997256            3 
  357000   0.69848477   -8.4574277    60.267468  0.014068036  0.013949301            5 
  358000   0.70036653   -8.4710753    60.164275   0.01400472  0.013901488            2 
  359000   0.67824959   -8.4762451    60.263996  0.013988857   0.01385389            2 
  360000   0.70553503   -8.4368091    60.295608  0.013957317  0.013806509            6 
  361000   0.69113317   -8.4785821    60.284777  0.013916154  0.013759278            6 
  362000   0.69505866   -8.4703904    60.356535   0.01389423  0.013712167            2 
  363000   0.68415938   -8.4648518    60.261576  0.013834154  0.013665105            4 
  364000    0.6911918   -8.4681942    60.252668  0.013794109  0.013618186            3 
  365000   0.68571179   -8.4462803    60.279575   0.01376246  0.013571408            3 
  366000   0.67842609   -8.4858566    60.163511  0.013698431  0.013524585            2 
  367000   0.67458016   -8.4863725    60.150542  0.013658161  0.013477816            2 
  368000   0.68014896   -8.4770725    60.221985  0.013637225   0.01343129            2 
  369000   0.68485348    -8.487509     60.20344   0.01359608  0.013385062            7 
  370000   0.67685178   -8.4977021    60.233216   0.01356604  0.013339061            6 
  371000   0.66142158   -8.5036177    60.393309  0.013565433  0.013293468            2 
  372000   0.65935958   -8.5215496      60.2553  0.013498051  0.013247725            2 
  373000   0.65239374   -8.5118262     60.33817  0.013480378   0.01320211            3 
  374000   0.66895941    -8.492594    60.243792  0.013423305  0.013156735            2 
  375000   0.66868674   -8.5107306     60.14502   0.01336556  0.013111555            2 
  376000    0.6631531   -8.5297642    60.327106  0.013370369  0.013066438            3 
  377000   0.64771198   -8.5410748     60.28379  0.013325329  0.013021471            2 
  378000    0.6700358   -8.5346543    60.323554  0.013298843  0.012976921            1 
  379000   0.66334233   -8.5332381    60.336387  0.013266576  0.012932385            4 
  380000   0.64551735   -8.5391611    60.299944  0.013223672  0.012888044            5 
  381000   0.65786359    -8.552328    60.309953  0.013191153  0.012843925            1 
  382000   0.66240419   -8.5494242    60.265947  0.013147022  0.012799845            4 
  383000   0.65996621    -8.547217    60.332005  0.013127068  0.012755994            3 
  384000   0.65279075   -8.5432667    60.419214  0.013111809  0.012712353            3 
  385000   0.65549043    -8.544758    60.393803  0.013072252  0.012668759            2 
  386000    0.6487579   -8.5483069    60.317369  0.013021884  0.012625395            2 
  387000    0.6642622   -8.5490409    60.511715  0.013030085  0.012582466            2 
  388000   0.63806314   -8.5532755    60.334216   0.01295838  0.012539704            4 
  389000   0.64457502    -8.586038    60.465041  0.012953094  0.012496869            4 
  390000   0.64233442   -8.5597156    60.364178  0.012898329  0.012454172            3 
  391000    0.6535289   -8.5654938    60.303709  0.012852453  0.012411657            6 
  392000   0.65590947    -8.598263    60.268632  0.012812209  0.012369126            5 
  393000   0.64677876   -8.5903461    60.198972  0.012764837  0.012326691            5 
  394000   0.65568041   -8.5934494    60.253045  0.012743876  0.012284385            2 
  395000   0.64817389   -8.5805545    60.238335  0.012708509  0.012242121            2 
  396000   0.63223442   -8.5969606    60.285826  0.012686411  0.012200007            4 
  397000   0.62969303   -8.6018944    60.303461  0.012658157  0.012158148            6 
  398000   0.62110197   -8.6283375    60.231603  0.012611307  0.012116471            1 
  399000   0.62694279   -8.5934445    60.338555  0.012602037  0.012074833            2 
  400000   0.63470176   -8.5953748    60.333813  0.012569544  0.012033398            1 
  401000   0.61338529   -8.6176676    60.130841  0.012496019   0.01199208            5 
  402000   0.62231602   -8.6259627    60.340436  0.012508382  0.011950951            5 
  403000   0.62429157   -8.6247914    60.284108  0.012465696  0.011910034            3 
  404000   0.62379602   -8.6383184    60.188492  0.012415118  0.011869216            5 
  405000   0.61239742   -8.6411847    60.238213  0.012394694  0.011828727            6 
  406000   0.61187305   -8.6328599    60.228978   0.01236227  0.011788329            3 
  407000   0.62452683   -8.6201729    60.326903  0.012351946  0.011748102            3 
  408000   0.61484441   -8.6500548    60.293543  0.012314858  0.011708038            5 
  409000   0.61204149   -8.6609598    60.277191  0.012281416  0.011668079            3 
  410000   0.60793693   -8.6504489    60.338834  0.012263991  0.011628195            3 
  411000   0.61323099   -8.6494722    60.257986  0.012217759  0.011588435            3 
  412000   0.61749411   -8.6675204    60.172992  0.012170913    0.0115488            3 
  413000   0.61336783   -8.6620849    60.239855  0.012154934  0.011509375            3 
  414000   0.58822696   -8.6598094     60.31864  0.012141433  0.011470174            8 
  415000   0.60603775   -8.6345275    60.188419  0.012086028  0.011430956           11 
  416000   0.60555934   -8.6850556    60.123676  0.012044006  0.011391842            2 
  417000   0.60257679   -8.6731855    60.236025  0.012037575  0.011352838            6 
  418000   0.60009051   -8.6800704    60.141234  0.011989879  0.011313958            4 
  419000   0.60287653   -8.6683996    60.175165  0.011968012    0.0112752            3 
  420000   0.59658528   -8.6913973    60.129331  0.011930423  0.011236634            5 
  421000   0.58387596   -8.6792683     60.14254  0.011904699  0.011198201           11 
  422000   0.58003606     -8.69226    60.203364    0.0118885  0.011159901           12 
  423000   0.60503148    -8.692909    60.113623  0.011842715  0.011121719            4 
  424000   0.58909244     -8.70071    60.045103  0.011801317   0.01108372            9 
  425000   0.57874923   -8.6993932    60.185583  0.011801095  0.011045842           13 
  426000   0.58435222   -8.7072462    60.080557  0.011752848  0.011008173           10 
  427000   0.58740076    -8.675251    60.206409  0.011749885  0.010970677           13 
  428000   0.57204088   -8.7027685    60.101505  0.011702006  0.010933236            8 
  429000   0.57662458   -8.7073078    60.017202  0.011658353  0.010895865            9 
  430000   0.58156318   -8.7044184    59.990112  0.011625991   0.01085869            9 
  431000   0.59360663   -8.7101077    60.041452  0.011608943  0.010821524            6 
  432000    0.5909243   -8.7206812    59.966492   0.01156761  0.010784568            9 
  433000   0.58073471   -8.7258421    60.049798  0.011556928  0.010747864            8 
  434000   0.56713035   -8.7108046     60.07604  0.011535338   0.01071116            4 
  435000   0.57056448   -8.7226056    59.922317  0.011479371  0.010674692            8 
  436000   0.56846825   -8.7258624    60.047861  0.011477038  0.010638326            5 
  437000   0.57955008   -8.7442977    59.946125  0.011431374   0.01060199            9 
  438000   0.56346455   -8.7398345    59.953435  0.011406666  0.010565797            9 
  439000   0.54050905   -8.7253507    59.875936  0.011365971  0.010529751            9 
  440000   0.56088339   -8.7352703    60.115497  0.011385511  0.010493955            9 
  441000    0.5605632   -8.7326239    59.840392  0.011307708  0.010458307            9 
  442000   0.55588687   -8.7360753    59.967827  0.011306151  0.010422794            5 
  443000   0.56284765   -8.7540306    60.036019  0.011293457  0.010387466            7 
  444000   0.55277873   -8.7295221    60.010162  0.011263169  0.010352292            7 
  445000   0.57482752   -8.7653639    59.896532  0.011216579  0.010317252            6 
  446000   0.56771831   -8.7504842    60.003077  0.011211337  0.010282351            6 
  447000   0.56286522   -8.7574984    59.962998  0.011178784  0.010247645            7 
  448000   0.55733836    -8.745896    59.935343  0.011148687  0.010213028            9 
  449000   0.55832263   -8.7460426    59.896613  0.011116669  0.010178521            3 
  450000    0.5629537   -8.7637671    59.954642  0.011102712  0.010144179            4 
  451000   0.54854009   -8.7510448    59.968081  0.011080577   0.01010994            6 
  452000    0.5349791   -8.7862601    59.971468  0.011056687  0.010075851            5 
  453000   0.54321011   -8.7856855    59.985374  0.011034837  0.010041877            5 
  454000   0.54637334   -8.7905968    59.978999  0.011009361  0.010008058            7 
  455000   0.53041856   -8.7704914    59.889649    0.0109688 0.0099742989            4 
  456000    0.5351455   -8.7876659    59.974977  0.010960339 0.0099407021            5 
  457000   0.53154167   -8.7827761    59.980946  0.010937445 0.0099072621            7 
  458000   0.53810212    -8.779532     59.98887  0.010915005 0.0098740334            7 
  459000   0.53983543   -8.7922351    59.826251  0.010861701 0.0098409266            2 
  460000   0.54270015   -8.7937827    59.884519  0.010848645 0.0098080222            7 
  461000   0.53066672   -8.7927649    59.819974  0.010813444 0.0097752464            4 
  462000   0.52682864   -8.7994279    59.935341  0.010810848 0.0097425002           11 
  463000   0.53225224   -8.7971285     59.88566  0.010778557 0.0097098509            3 
  464000   0.52875252   -8.8046496    59.874169  0.010753263 0.0096773387            5 
  465000   0.52897426   -8.8192504    59.951003  0.010743907 0.0096449388            5 
  466000   0.52940219   -8.7935444    59.881949  0.010708503 0.0096127437            5 
  467000     0.513558   -8.8195215    59.875482  0.010684419 0.0095806853            8 
  468000    0.5280709   -8.8139568    59.806106  0.010649235 0.0095488861            3 
  469000   0.53113189    -8.808886     59.86547  0.010637077  0.009517089            4 
  470000   0.52240485   -8.8093565    59.794155    0.0106018 0.0094854145            2 
  471000   0.51982671   -8.8078101    59.785341  0.010577732 0.0094539139            2 
  472000   0.51031282   -8.8375068    59.853056  0.010567277 0.0094224811            7 
  473000   0.50990986   -8.8254957    59.774198  0.010531043  0.009391111            5 
  474000   0.49911785   -8.8467208    59.852268  0.010522551 0.0093598408            3 
  475000   0.50754436    -8.826843     59.81072  0.010493109 0.0093287701            2 
  476000   0.50160178   -8.8291346    59.789683  0.010467381  0.009297865            1 
  477000    0.5073697   -8.8295746    59.808518  0.010448728 0.0092670436            3 
  478000    0.5023708   -8.8325168    59.873159  0.010438138 0.0092363514            4 
  479000   0.50197174   -8.8322543    59.805374  0.010404554 0.0092058166            6 
  480000   0.51196433   -8.8572065    59.760493  0.010375085 0.0091753145            3 
  481000   0.50487571   -8.8645128     59.80068  0.010360478 0.0091449995            2 
  482000   0.50881507   -8.8587009    59.737907  0.010328131 0.0091147773            2 
  483000   0.49322152    -8.871077    59.756548  0.010309963 0.0090847371            3 
  484000   0.48494612   -8.8620744    59.768187  0.010290666 0.0090547962            6 
  485000   0.49418176   -8.8509775     59.75108  0.010266509  0.009025006            5 
  486000   0.49076029   -8.8536365    59.725796  0.010241049 0.0089952603            4 
  487000   0.48268902   -8.8795244    59.778177  0.010228983 0.0089656768            3 
  488000   0.50049669   -8.8635582    59.755431  0.010204138 0.0089362535            3 
  489000   0.48571693   -8.8566579    59.687382  0.010171674 0.0089069362            2 
  490000   0.48536849   -8.8746523    59.793078  0.010168891 0.0088777471            6 
  491000   0.49216459   -8.8916216     59.72664  0.010136904 0.0088486831            5 
  492000   0.47112618   -8.8831469    59.767845   0.01012328 0.0088197728            2 
  493000   0.47966063   -8.8813528     59.65809  0.010084194 0.0087909361            5 
  494000   0.47882959   -8.8911406     59.68832   0.01006888 0.0087622284            3 
  495000   0.48083726   -8.8702868    59.702291  0.010050891 0.0087336166            3 
  496000   0.47928729   -8.9010135    59.636113  0.010019508 0.0087050694            6 
  497000   0.46749755   -8.8800356     59.60191 0.0099936134 0.0086766888            3 
  498000   0.46375097   -8.8982899     59.62589 0.0099775586 0.0086483465            4 
  499000   0.46696287   -8.9061216    59.727891 0.0099745977 0.0086201443            1 
  500000   0.48410329   -8.8792311    59.725709 0.0099542849 0.0085920752            3 
  501000   0.46155893   -8.8901697    59.652744 0.0099222794 0.0085641185            2 
  502000   0.47370133   -8.8929887    59.689341 0.0099085891 0.0085362263            3 
  503000   0.46414146   -8.9053618    59.588969 0.0098722612 0.0085085051            4 
  504000   0.45924706   -8.8957348    59.602282 0.0098548747 0.0084808625            3 
  505000   0.46588983   -8.9166911    59.625283 0.0098391556 0.0084533797            6 
  506000   0.45675719   -8.9121406    59.540247 0.0098057061  0.008426032            1 
  507000   0.45382236   -8.9227717    59.560207 0.0097896461 0.0083987282            3 
  508000   0.44982876   -8.9073078    59.606992 0.0097780498 0.0083715334            4 
  509000   0.47164059   -8.9134796    59.569044 0.0097526268 0.0083445005            2 
  510000   0.45287788   -8.9182111    59.580343 0.0097353501 0.0083175715            4 
  511000   0.44967427   -8.9322753    59.588518 0.0097176318 0.0082906884            3 
  512000   0.44782003   -8.9236112    59.587229 0.0096984421 0.0082639737            3 
Loop time of 1237.03 on 48 procs for 500000 steps with 4000 atoms

Performance: 69844.850 tau/day, 404.195 timesteps/s
99.4% CPU use with 48 MPI tasks x no OpenMP threads

MPI task timing breakdown:
Section |  min time  |  avg time  |  max time  |%varavg| %total
---------------------------------------------------------------
Pair    | 79.619     | 85.794     | 92.297     |  29.5 |  6.94
Neigh   | 8.0749     | 8.4545     | 8.844      |   6.3 |  0.68
Comm    | 80.151     | 85.917     | 93.271     |  31.7 |  6.95
Output  | 0.85766    | 0.85837    | 0.88027    |   0.3 |  0.07
Modify  | 1040.4     | 1044.4     | 1048.3     |   6.2 | 84.43
Other   |            | 11.63      |            |       |  0.94

Nlocal:        83.3333 ave          91 max          75 min
Histogram: 2 1 2 6 5 16 10 1 3 2
Nghost:        2166.00 ave        2181 max        2151 min
Histogram: 1 3 4 5 10 6 8 9 1 1
Neighs:        14307.0 ave       15998 max       12092 min
Histogram: 1 1 1 2 10 12 9 9 2 1
FullNghs:      28614.4 ave       31462 max       25439 min
Histogram: 2 0 3 5 7 15 9 5 0 2

Total # of neighbors = 1373492
Ave neighs/atom = 343.37300
Neighbor list builds = 26723
Dangerous builds = 0

#clear
#
#next RN
#
#jump SELF
Total wall time: 0:20:40
