
units lj                  # Use reduced LJ style units
atom_style atomic         # Uncharged point particles
atom_modify map hash      # Needed for indexing of clusters etc
                          # Used to be able to find where atoms are in relation to each other.

lattice fcc 1.0 spacing 1 1 1
Lattice spacing in x,y,z = 1.5874011 1.5874011 1.5874011
region box block 0 10 0 10 0 10 units lattice
create_box 2 box
Created orthogonal box = (0.0000000 0.0000000 0.0000000) to (15.874011 15.874011 15.874011)
  3 by 4 by 4 MPI processor grid
create_atoms 1 box
Created 4000 atoms
  using lattice units in orthogonal box = (0.0000000 0.0000000 0.0000000) to (15.874011 15.874011 15.874011)
  create_atoms CPU = 0.002 seconds
set type 1 type/fraction 2 0.44 78393
Setting atom values ...
  1760 settings made for type/fraction
mass 1 1.0
mass 2 1.0
pair_style lj/cut  3.5
pair_modify tail  yes
pair_coeff 1  1  1.0  1.0   # Intearaction between 1 and 1 set with epsilon = 1 and sigma = 1
pair_coeff 1  2  1.5  0.8
pair_coeff 2  2  0.5  0.88

write_data data.0
System init for write_data ...
Neighbor list info ...
  update every 1 steps, delay 10 steps, check yes
  max neighbors/atom: 2000, page size: 100000
  master list distance cutoff = 3.8
  ghost atom cutoff = 3.8
  binsize = 1.9, bins = 9 9 9
  1 neighbor lists, perpetual/occasional/extra = 1 0 0
  (1) pair lj/cut, perpetual
      attributes: half, newton on
      pair build: half/bin/atomonly/newton
      stencil: half/bin/3d
      bin: standard
WARNING: Not all mixed pair coeffs generated from mixing. Use write_data with 'pair ij' option to store all pair coeffs. (../write_data.cpp:312)


#############################
#   M E L T   S Y S T E M   #
#############################

velocity all create 2.4 6229865 mom yes dist gaussian # Assign velocities
                                                    # Temperature 2.4, random number seed, zero linear momentum
                                                                                # Gaussian distribution

timestep 0.002   # simulation timestep
thermo 1000       # output thermodynamic data every 1000 steps bf 100

# Define a fix  in this case with index 1 applied to all
# particles in the simulation. This fix is for simulations
# in the anisotropic NPT ensemble. Note that we use the MTK
# correction.
fix 1 all npt temp 2.4 2.4 0.1 iso 5.68 5.68 0.5 mtk yes tchain 5 pchain 5 # Use NPT ensemble
                                                                         # Set temperature and pressure and damping
                                                                         # Numbers of thermostats in chain and in barostat
run 10000          # run for 10000 steps
Per MPI rank memory allocation (min/avg/max) = 3.642 | 3.644 | 3.648 Mbytes
Step Temp E_pair E_mol TotEng Press Volume 
       0          2.4   -5.6445478            0   -2.0454478   -4.2010474         4000 
    1000    2.3465613   -5.0242118            0   -1.5052498     5.342141    3815.8115 
    2000    2.3817948    -4.993416            0   -1.4216169    5.6115837     3815.751 
    3000    2.3893785   -5.0492935            0   -1.4661218    5.6843688    3794.1898 
    4000    2.3434938   -5.0841522            0   -1.5697903    5.5155509     3778.507 
    5000     2.412937   -4.9709883            0   -1.3524875    5.5332055    3833.7399 
    6000    2.3618122   -5.0168846            0   -1.4750521     5.758388    3784.1849 
    7000    2.3272333   -4.9758599            0   -1.4858826    5.3579288    3831.5328 
    8000    2.4083977   -5.0292323            0   -1.4175389    5.7827662    3786.8167 
    9000    2.3962095   -4.9760172            0   -1.3826015    5.2703838     3843.201 
   10000    2.3693528   -5.1045408            0      -1.5514    5.3553548    3787.9145 
Loop time of 2.52991 on 48 procs for 10000 steps with 4000 atoms

Performance: 683028.179 tau/day, 3952.709 timesteps/s
99.6% CPU use with 48 MPI tasks x no OpenMP threads

MPI task timing breakdown:
Section |  min time  |  avg time  |  max time  |%varavg| %total
---------------------------------------------------------------
Pair    | 1.1422     | 1.2019     | 1.2786     |   2.3 | 47.51
Neigh   | 0.21443    | 0.21986    | 0.2331     |   0.7 |  8.69
Comm    | 0.78532    | 0.85197    | 0.9067     |   3.0 | 33.68
Output  | 0.00026039 | 0.00026412 | 0.00032225 |   0.0 |  0.01
Modify  | 0.21463    | 0.24065    | 0.26007    |   2.5 |  9.51
Other   |            | 0.01523    |            |       |  0.60

Nlocal:        83.3333 ave          92 max          72 min
Histogram: 1 0 1 3 8 15 7 6 5 2
Nghost:        1700.33 ave        1722 max        1668 min
Histogram: 2 2 3 4 4 6 8 8 5 6
Neighs:        10078.6 ave       11343 max        8492 min
Histogram: 1 0 4 5 8 12 7 6 2 3

Total # of neighbors = 483772
Ave neighs/atom = 120.94300
Neighbor list builds = 911
Dangerous builds = 244

# Equilibrate just above the melting temperature to avoid step fn in T

fix 1 all npt temp 1.25 1.25 0.1 iso 5.68 5.68 0.5 mtk yes tchain 5 pchain 5
run 2000
Per MPI rank memory allocation (min/avg/max) = 3.644 | 3.645 | 3.649 Mbytes
Step Temp E_pair E_mol TotEng Press Volume 
   10000    2.3693528   -5.1045408            0      -1.5514    5.3553548    3787.9145 
   11000    1.2269547   -7.0197135            0   -5.1797415    5.9474573    2996.9522 
   12000    1.2720429   -7.0915813            0    -5.183994     6.316296    2967.9484 
Loop time of 0.621315 on 48 procs for 2000 steps with 4000 atoms

Performance: 556239.863 tau/day, 3218.981 timesteps/s
99.7% CPU use with 48 MPI tasks x no OpenMP threads

MPI task timing breakdown:
Section |  min time  |  avg time  |  max time  |%varavg| %total
---------------------------------------------------------------
Pair    | 0.28218    | 0.30118    | 0.32074    |   2.0 | 48.47
Neigh   | 0.039364   | 0.041831   | 0.044176   |   0.6 |  6.73
Comm    | 0.20833    | 0.22747    | 0.24808    |   2.5 | 36.61
Output  | 5.2976e-05 | 5.4268e-05 | 6.9041e-05 |   0.0 |  0.01
Modify  | 0.041398   | 0.045879   | 0.050514   |   1.1 |  7.38
Other   |            | 0.004908   |            |       |  0.79

Nlocal:        83.3333 ave          94 max          76 min
Histogram: 4 8 6 4 7 8 5 5 0 1
Nghost:        2006.62 ave        2020 max        1991 min
Histogram: 2 2 3 5 9 5 9 10 2 1
Neighs:        12876.0 ave       14619 max       11420 min
Histogram: 3 5 9 5 6 4 5 6 4 1

Total # of neighbors = 618049
Ave neighs/atom = 154.51225
Neighbor list builds = 142
Dangerous builds = 5

#############################
# L I N E A R  Q U E N C H  #
#############################

# Define solid atoms. This closely follows ten Wolde  Ruiz-Montero and Frenkel  Faraday Discuss  1996  104  93-110
# Compute components of the per-atom q6 vector
compute q6 all orientorder/atom degrees 1 6 components 6 nnn NULL cutoff 1.3 # compute the Q6 parameter.
                                                                             # Use all neighbours within 1.3 unit cell.

# get number of connections
compute coord_number all coord/atom orientorder q6 0.5

# An atom is solid if it has 8 or more connections (of a possible 14)
variable is_solid atom c_coord_number>=8
group solid dynamic all var is_solid    # Must be dynamic to update
dynamic group solid defined

# do clustering
compute cluster solid cluster/atom 1.3 # Create a cluster where all atoms within are solid and max 1.3 units from another member

# define chunks one chunk per cluster
compute clus_chunks solid chunk/atom c_cluster nchunk every compress yes  # Says which atoms are in which chunk

# count the size of each chunk
compute size_chunks solid property/chunk clus_chunks count


# Find the maximum entry in the vector of chunk sizes
variable max_n equal max(c_size_chunks)


# Thermo style which includes this variable
# thermo_style custom step temp pe vol v_max_n

thermo ${N}  # Print the thermo information every 100 steps
thermo 1000  

# Reset the npt fix at a lower temperature (below freezing)
fix 1  all npt temp  ${temp} ${temp}  0.1  iso  5.68  5.68  0.5  mtk yes tchain  5  pchain  5
fix 1  all npt temp  0.45 ${temp}  0.1  iso  5.68  5.68  0.5  mtk yes tchain  5  pchain  5
fix 1  all npt temp  0.45 0.45  0.1  iso  5.68  5.68  0.5  mtk yes tchain  5  pchain  5

dump dmp2 all dcd ${N} traj.dcd
dump dmp2 all dcd 1000 traj.dcd


compute msd all msd com yes
variable twopoint equal c_msd[4]/6/(step*dt+1.0e-6)
fix 9 all vector 10 c_msd[4]
variable fit equal slope(f_9)/6/(10*dt)
thermo_style custom step temp pe c_msd[4] v_twopoint v_fit v_max_n

fix 1 all npt temp 1.25 ${temp} 0.1 iso 5.68 5.68 0.5 mtk yes tchain 5 pchain 5
fix 1 all npt temp 1.25 0.45 0.1 iso 5.68 5.68 0.5 mtk yes tchain 5 pchain 5
run 500000 # 5000000  # Run for this many steps
Neighbor list info ...
  update every 1 steps, delay 10 steps, check yes
  max neighbors/atom: 2000, page size: 100000
  master list distance cutoff = 3.8
  ghost atom cutoff = 3.8
  binsize = 1.9, bins = 8 8 8
  4 neighbor lists, perpetual/occasional/extra = 1 3 0
  (1) pair lj/cut, perpetual
      attributes: half, newton on
      pair build: half/bin/atomonly/newton
      stencil: half/bin/3d
      bin: standard
  (2) compute orientorder/atom, occasional
      attributes: full, newton on
      pair build: full/bin/atomonly
      stencil: full/bin/3d
      bin: standard
  (3) compute coord/atom, occasional
      attributes: full, newton on
      pair build: full/bin/atomonly
      stencil: full/bin/3d
      bin: standard
  (4) compute cluster/atom, occasional
      attributes: full, newton on
      pair build: full/bin/atomonly
      stencil: full/bin/3d
      bin: standard
Per MPI rank memory allocation (min/avg/max) = 9.833 | 9.836 | 9.840 Mbytes
Step Temp PotEng c_msd[4] v_twopoint v_fit v_max_n 
   12000    1.2720429   -7.0915813 9.8489284e-31 6.8395333e-33 8.3333333e+20            2 
   13000    1.2073587   -7.1240089   0.46562227  0.002984758  0.038197911            2 
   14000    1.2728336   -7.1393161   0.88322021  0.005257263  0.035657164            1 
   15000    1.2356691   -7.1105012    1.2768027 0.0070933483  0.034685144            2 
   16000    1.2758903   -7.1001107    1.6987698 0.0088477589  0.034409513            1 
   17000    1.2354213   -7.1702741    2.1310182  0.010446168   0.03464874            2 
   18000    1.2380161   -7.1862703    2.5317466  0.011721049  0.034848231            1 
   19000    1.2626374    -7.132658    2.9051652  0.012741952  0.034648895            1 
   20000    1.2186325   -7.2285432    3.3164006  0.013818336  0.034339073            2 
   21000    1.2532374   -7.1837972    3.7160992  0.014746425  0.034179899            2 
   22000    1.2333177   -7.1769288    4.1066744  0.015555584  0.033964214            1 
   23000    1.2746452   -7.1619883    4.5292954   0.01641049  0.033801536            2 
   24000    1.2002046   -7.1878619    4.9931428  0.017337301  0.033884264            2 
   25000    1.2374375   -7.1788889    5.3961495  0.017987165  0.034007993            1 
   26000    1.2358025   -7.1944266    5.7204107  0.018334649  0.033923393            2 
   27000    1.2159683   -7.1364793    6.0523276  0.018680023  0.033735895            2 
   28000      1.21124   -7.2071974     6.431789  0.019142229  0.033570385            1 
   29000     1.208795   -7.1364712    6.7813258  0.019486568   0.03336733            2 
   30000    1.2266414   -7.2081453    7.1702696  0.019917415  0.033150752            1 
   31000    1.2203017   -7.2491253    7.4246234  0.019958665  0.032900622            1 
   32000     1.245141   -7.2210034    7.8293013  0.020388805   0.03269021            4 
   33000    1.2086828   -7.2605185    8.2313969  0.020786356  0.032534825            2 
   34000    1.1817381   -7.1991901    8.6932393  0.021306959  0.032443921            2 
   35000    1.2128498   -7.1912133    9.1529928   0.02179284   0.03244473            1 
   36000    1.2356347   -7.2119838    9.4622384  0.021903329  0.032403181            1 
   37000    1.2125606   -7.2495939    9.7975503  0.022066555  0.032353655            2 
   38000    1.2162901   -7.2164851    10.220391  0.022413139  0.032304709            1 
   39000     1.215358   -7.2218453    10.667166  0.022793089  0.032284606            5 
   40000    1.1928561   -7.2605765    11.150193  0.023229568  0.032321828            2 
   41000    1.1844424   -7.2345142    11.529865  0.023434684  0.032371841            1 
   42000    1.1949502     -7.28848    11.777759  0.023368569  0.032388916            3 
   43000    1.1976899   -7.2304867    12.232123  0.023705664  0.032393459            1 
   44000    1.2186454   -7.2387133     12.63714  0.023933978  0.032391291            2 
   45000    1.1954331   -7.3303738    12.972954  0.024023988  0.032385781            3 
   46000    1.2097865   -7.2558081    13.304926  0.024103127  0.032352454            1 
   47000     1.219736   -7.2450757     13.63473  0.024175053  0.032303925            1 
   48000    1.1931448   -7.3325963    13.901644  0.024134799  0.032231106            2 
   49000    1.1909478   -7.3219123    14.195903  0.024142692  0.032140829            1 
   50000    1.1871084   -7.2647635    14.615873  0.024359789   0.03204329            1 
   51000    1.1791301   -7.3229369    14.866548  0.024291744  0.031953139            2 
   52000    1.1792068   -7.3118688      15.1809  0.024328365  0.031848762            4 
   53000    1.1911774   -7.2923232    15.588647   0.02451045   0.03175368            3 
   54000    1.1671511   -7.3198749    15.806771  0.024393166  0.031651976            1 
   55000    1.1715693   -7.3225851    16.134232  0.024445805  0.031531757            1 
   56000     1.181469   -7.2570231    16.500397  0.024554162  0.031416426            3 
   57000    1.1633347   -7.3068476    16.759544  0.024502256  0.031309585            1 
   58000    1.1506219   -7.3208519    17.150587  0.024641647  0.031207769            1 
   59000    1.1849486   -7.2778046    17.575585  0.024824272  0.031117269            1 
   60000    1.1460238   -7.3183329    18.006391  0.025008876  0.031056972            2 
   61000      1.13488   -7.3215342    18.289265  0.024985335  0.030997864            2 
   62000    1.1591757   -7.3008013    18.415397  0.024751878  0.030909352            2 
   63000     1.149224   -7.2955868    18.806221  0.024875953  0.030800571            1 
   64000    1.1610141   -7.3552135    19.069268  0.024829776  0.030709969            2 
   65000    1.1376498   -7.3787892    19.295873  0.024738298  0.030609256            1 
   66000     1.177602   -7.3409934    19.578242  0.024720002   0.03049525            3 
   67000    1.1607008   -7.3496143    19.832606  0.024667421  0.030373061            2 
   68000    1.1501583   -7.3763382    20.206035  0.024762297  0.030261023            4 
   69000    1.1269597   -7.3905079    20.527768   0.02479199  0.030158981            2 
   70000    1.1564806   -7.3618113    20.883507  0.024861317   0.03006149            3 
   71000    1.1654931   -7.3776383    21.218019  0.024903778  0.029968918            1 
   72000    1.1881285   -7.3477328    21.539018  0.024929419  0.029884907            1 
   73000    1.1632798   -7.3438907    21.814309  0.024902179  0.029791887            2 
   74000    1.1354567   -7.4151181    22.057175  0.024839161  0.029696562            1 
   75000    1.1571748   -7.4211572    22.402225  0.024891361  0.029606291            4 
   76000    1.1306745   -7.4118816    22.768569  0.024965536  0.029522382            2 
   77000    1.1459376   -7.4044429    22.982815  0.024873176  0.029437383            1 
   78000    1.1218322   -7.3584673    23.454093  0.025057792  0.029351919            2 
   79000    1.1124866   -7.3952793    23.691054  0.024990563  0.029279377            2 
   80000    1.1274198   -7.4008594    23.969784  0.024968525  0.029201138            2 
   81000    1.1396014   -7.4304307    24.060039  0.024753126  0.029125026            3 
   82000    1.1306791   -7.3928638    24.518318   0.02491699  0.029044886            3 
   83000    1.1315365   -7.3747667    24.801995  0.024901601  0.028969935            1 
   84000    1.1381782   -7.3808273    25.138715  0.024939202  0.028894664            5 
   85000    1.1078531   -7.4027284    25.370782  0.024873316   0.02881702            2 
   86000    1.1190878   -7.4197032    25.529987   0.02473836  0.028735355            2 
   87000    1.1146641   -7.4035699    25.868147  0.024777919  0.028653716            1 
   88000     1.123443   -7.4770626    26.035908  0.024655215  0.028570376            4 
   89000    1.1349512   -7.4361346    26.285006  0.024611429  0.028488376            2 
   90000    1.1127009   -7.4236676     26.76402    0.0247815  0.028411092            4 
   91000    1.1279769   -7.4270334    26.961255  0.024689794  0.028334756            1 
   92000    1.0859106   -7.4748975    27.102561  0.024549421  0.028251717            2 
   93000    1.1141371   -7.4573877    27.355966  0.024512515  0.028168709            2 
   94000    1.1193952   -7.4429045    27.690191  0.024548041  0.028084005            1 
   95000    1.1101595   -7.4472098    27.689164   0.02428874  0.027991571            2 
   96000    1.1247433   -7.4087223    28.062224   0.02435957  0.027898648            2 
   97000    1.1188116   -7.4169678    28.263895  0.024281697  0.027806909            1 
   98000    1.1219946   -7.4916831    28.419175  0.024165965  0.027711108            3 
   99000     1.117574   -7.5133896    28.655078  0.024120436  0.027612574            2 
  100000    1.1057194   -7.4996801    29.070594  0.024225495  0.027520263            4 
  101000    1.0860494   -7.4891899    29.249303  0.024133088  0.027430747            4 
  102000    1.1060743   -7.4549789    29.609943   0.02419113  0.027342201            5 
  103000    1.0917038   -7.4968864    29.754672  0.024073359  0.027254806            1 
  104000    1.0727043   -7.5132564    29.885161  0.023946443  0.027166222            2 
  105000    1.1216658    -7.506157    30.267209  0.024021594   0.02707866            1 
  106000    1.0887402   -7.4473634    30.674329  0.024115038   0.02699989            2 
  107000    1.1172007   -7.5161351    30.845382  0.024022883  0.026921521            2 
  108000    1.1224622   -7.5045577    31.136412  0.024025009  0.026845475            3 
  109000    1.1023248   -7.5017988    31.341947  0.023961733  0.026769685            2 
  110000    1.0954281   -7.5497254    31.446214   0.02382289  0.026692739            1 
  111000    1.0955487   -7.5518194    31.634427  0.023749569  0.026612206            2 
  112000    1.1010912   -7.5503358     31.86962  0.023712515   0.02653009            3 
  113000    1.0516479   -7.5465395    32.062891    0.0236452  0.026447782            3 
  114000    1.0897997   -7.5506615    32.207956  0.023543827  0.026363143            3 
  115000     1.089229   -7.5421647    32.541833  0.023581038  0.026277311            3 
  116000    1.0590584   -7.5240746    32.860985  0.023607029  0.026195677            2 
  117000    1.1030288   -7.5633012    32.834303  0.023386256  0.026114625            2 
  118000    1.0770677   -7.5584219    33.320005  0.023531077  0.026031584            3 
  119000    1.0845285   -7.5765064    33.339188   0.02334677   0.02595244            6 
  120000    1.0585114   -7.5324471    33.628305  0.023352989  0.025869711            3 
  121000    1.0747682   -7.5891485     33.86345  0.023321935  0.025788227            1 
  122000    1.0718029   -7.5917376    34.036662  0.023249086  0.025708023            2 
  123000    1.0877347   -7.5282902     34.46481  0.023350142  0.025631541            3 
  124000     1.057304   -7.5678351    34.706904  0.023324532  0.025561064            2 
  125000    1.0571977   -7.5795336    34.861012  0.023240674  0.025492221            4 
  126000    1.0507499   -7.6133322    35.009232  0.023154254  0.025418184            4 
  127000    1.0303348   -7.5982127    35.268539  0.023142086  0.025345336            1 
  128000    1.0754926   -7.5800811    35.660058  0.023216184  0.025276764            2 
  129000    1.0689197   -7.5706716    35.996062   0.02325327  0.025212313            1 
  130000    1.0373549   -7.6231742    36.185073   0.02319556  0.025147177            7 
  131000    1.0297305   -7.6002117    36.388739  0.023148052  0.025084339            1 
  132000    1.0467764   -7.6165677    36.528148    0.0230607  0.025020806            4 
  133000    1.0456356   -7.5768378    36.931258  0.023139886  0.024959561            3 
  134000    1.0677487   -7.6591137    37.054665  0.023043946  0.024899253            3 
  135000    1.0589986   -7.6056265    37.177719  0.022949209  0.024835762            2 
  136000    1.0574757   -7.6176259    37.424588  0.022931733  0.024772339            3 
  137000    1.0435336    -7.654412    37.472518  0.022793502  0.024709013            1 
  138000     1.020581    -7.692152    37.686947  0.022757818  0.024642348            1 
  139000      1.03976   -7.6618688    37.946375  0.022749625  0.024575651            1 
  140000     1.053174   -7.6706888    38.043431  0.022644899  0.024508898            3 
  141000    1.0531062   -7.6320249    38.161321  0.022553972  0.024441424            2 
  142000    1.0359192   -7.6559311    38.521727  0.022606647  0.024373716            3 
  143000    1.0597589   -7.6488369    38.748441  0.022580676  0.024308918            3 
  144000    1.0379736   -7.6819603     38.92279  0.022524763  0.024243734            2 
  145000     1.052223   -7.6147549    39.196498  0.022526723  0.024180216            1 
  146000    1.0246688   -7.6025753    39.436654  0.022509505  0.024115956            1 
  147000    1.0220958   -7.6760699    39.471781  0.022376293  0.024051849            3 
  148000    1.0360457   -7.6560315    39.659986  0.022331073  0.023986841            1 
  149000    1.0317955   -7.6928899    39.863023  0.022294755  0.023922316            2 
  150000    1.0392134    -7.717486    39.872758  0.022151532  0.023857163            5 
  151000    1.0328266   -7.7043208    40.207207  0.022189408  0.023793228            2 
  152000    1.0191504   -7.6748766    40.396525  0.022147218  0.023728152            3 
  153000    1.0295354   -7.6891521    40.503833  0.022060911  0.023661226            2 
  154000    1.0263965   -7.6998945    40.572163  0.021954633  0.023594594            3 
  155000    1.0286867   -7.7379779    40.737208  0.021901725   0.02352653            8 
  156000    1.0110609   -7.7279264    40.971067  0.021886254  0.023460084            2 
  157000    1.0013402   -7.7296896    41.291816    0.0219171  0.023395748            2 
  158000    1.0384988   -7.6880377    41.456098  0.021865031  0.023331804            3 
  159000    1.0321329   -7.7111065    41.617777  0.021812252   0.02326777            3 
  160000    1.0204075   -7.7396694    41.806515  0.021774227  0.023205164            3 
  161000     1.019428   -7.6943722    42.107742  0.021794897  0.023143226            3 
  162000    1.0201939   -7.7251808    42.113901  0.021663529  0.023080954            3 
  163000   0.99878494   -7.7542257     42.22973  0.021589842  0.023017633            1 
  164000    1.0042303   -7.7659031    42.344828  0.021516681  0.022952591            1 
  165000   0.99809361   -7.7959635    42.368627  0.021398297   0.02288629            5 
  166000    1.0169215   -7.7803539    42.665763  0.021418556  0.022819096            2 
  167000    1.0210617   -7.7406906    42.898023  0.021406199  0.022753246            4 
  168000    1.0093208   -7.7687787    42.908152  0.021283805  0.022686899            5 
  169000   0.97999254   -7.7870403     43.03292  0.021219389  0.022620224            1 
  170000    0.9806772   -7.7630606    43.323261  0.021236892  0.022554662            5 
  171000   0.98600998   -7.8079676    43.497218  0.021197475  0.022491653            2 
  172000   0.98205881   -7.7209561    43.765717   0.02120432  0.022429346            2 
  173000     0.968018   -7.7800318    43.795278  0.021095991  0.022367269            2 
  174000   0.95968104   -7.7934814    44.006194  0.021075763   0.02230421            3 
  175000   0.97918175    -7.758771    44.314734  0.021102254  0.022243478            1 
  176000   0.94669787   -7.8025395    44.537697  0.021087925  0.022183029            2 
  177000   0.98835872   -7.7765402    44.595866   0.02099617  0.022124119            2 
  178000    1.0117193   -7.8378055    44.771508  0.020960444  0.022064073            3 
  179000   0.97685442   -7.8109147    44.992426  0.020946194  0.022006193            2 
  180000    1.0134081    -7.800721    45.143731  0.020899875  0.021948096            1 
  181000   0.99725344   -7.8127753    45.211912  0.020815798  0.021889337            2 
  182000   0.98384617   -7.8005759    45.350964  0.020765093  0.021830567            2 
  183000   0.98194367   -7.8356296    45.446102  0.020694946  0.021770591            3 
  184000   0.97930974   -7.8459262    45.618569  0.020660584  0.021711464            2 
  185000   0.97389669   -7.8219115    45.758714  0.020612033  0.021651293            1 
  186000   0.97573069    -7.851718    45.703614   0.02047653  0.021591667            3 
  187000   0.95223489   -7.8688734    45.750049  0.020387722  0.021528787            5 
  188000   0.96002282   -7.8332204    46.019926  0.020398903  0.021467017            2 
  189000    0.9715302   -7.8749707    45.905576  0.020240554  0.021403771            2 
  190000   0.97126051   -7.8714768    46.079743  0.020210413  0.021340352            5 
  191000   0.97188419   -7.8730632     46.23935  0.020174237  0.021276678            5 
  192000   0.95657905   -7.8437543    46.378668   0.02012963    0.0212129            1 
  193000   0.95885098   -7.8633604     46.57278  0.020109145  0.021149893            3 
  194000   0.94351058   -7.8649424    46.449137  0.019952378  0.021086385            3 
  195000   0.97118342   -7.8606813    46.867852  0.020028997  0.021022792            2 
  196000    0.9603735   -7.8280282    47.052026  0.020005113  0.020960351            2 
  197000   0.95772376   -7.8683845    46.984118  0.019874838  0.020898824            4 
  198000    0.9570084   -7.9087014    47.073268  0.019811981  0.020837791            3 
  199000   0.96209274   -7.9371429    47.190783  0.019761634  0.020775488            3 
  200000   0.95146745   -7.9248059    47.313314  0.019713881  0.020712541            2 
  201000   0.94946797   -7.9448348    47.546535  0.019712494  0.020649726            2 
  202000   0.96659773   -7.9483017    47.408135  0.019557812  0.020587058            7 
  203000   0.91972193   -7.8743623    47.718879  0.019589031  0.020524331            5 
  204000   0.92703709   -7.9112865    47.759632  0.019509654  0.020461917            2 
  205000   0.95318265   -7.9446573    47.738094  0.019405729  0.020399786            2 
  206000   0.94828605   -7.9012873     47.96186  0.019402047  0.020336782            3 
  207000   0.95390308   -7.9173937    48.033231   0.01933705  0.020274275            2 
  208000   0.94670735   -7.9321482    48.153737  0.019292362  0.020211875            4 
  209000   0.96294495   -7.9635547    48.231068  0.019230888  0.020149355            2 
  210000   0.93448499    -7.960987    48.190033  0.019123029   0.02008611            1 
  211000   0.92043263   -7.9300601    48.299191   0.01907551  0.020023439            2 
  212000   0.94027784   -7.9521261    48.326917   0.01899643  0.019960146            1 
  213000   0.92970236   -7.9615092     48.46395  0.018960857  0.019896443            2 
  214000   0.93014016   -8.0080098    48.476626  0.018877191  0.019833542            3 
  215000   0.94400804     -7.95894    48.724252  0.018885369  0.019769178            5 
  216000    0.9176259     -7.98485    48.745156  0.018806001  0.019705679            3 
  217000    0.9187897   -7.9597363    48.947406  0.018797007  0.019642422            1 
  218000   0.90508695   -7.9646865    49.118359  0.018776131  0.019580985            4 
  219000   0.92830424   -7.9571702    49.063966  0.018669698  0.019519095            3 
  220000   0.93697367   -7.9719785    49.158813  0.018620762  0.019456573            5 
  221000   0.91258547    -8.014668    49.228344  0.018562724  0.019394428            3 
  222000   0.92862655   -8.0104158    49.476925  0.018572419  0.019332552            1 
  223000   0.89620298   -8.0144914    49.488371  0.018493412  0.019270742            2 
  224000   0.91874711    -8.004576    49.632228   0.01846437  0.019209194            5 
  225000   0.92055148   -8.0158106    49.705247  0.018409351  0.019147836            2 
  226000   0.91494717   -7.9944525    49.900635  0.018399939  0.019087093            4 
  227000    0.9329812    -7.989705    50.083808  0.018386126  0.019028038            2 
  228000   0.90814715    -8.019072    50.254895  0.018368017  0.018969488            2 
  229000   0.89933582   -8.0116904    50.104098  0.018232932  0.018911062            5 
  230000   0.91756775   -8.0564562    50.227154  0.018198244  0.018851987            2 
  231000   0.91622143   -8.0486812    50.149064  0.018091293  0.018792601            3 
  232000   0.90464152   -8.0511557    50.239631  0.018045844  0.018732943            2 
  233000   0.91493785   -8.0184544     50.46009  0.018047242  0.018673275            2 
  234000   0.89256308   -8.0219206    50.462572  0.017971002  0.018613874            1 
  235000    0.8783417    -8.033261    50.581676  0.017936765  0.018554792            1 
  236000   0.92082065   -8.0368043    50.662375  0.017889257  0.018495496            1 
  237000   0.89607205   -8.0118726    50.654959  0.017811167  0.018436117            2 
  238000   0.88951353   -8.0475206    50.893529  0.017819863  0.018377095            4 
  239000   0.88991848   -8.0670274    50.733928  0.017689654  0.018317538            2 
  240000    0.8704433    -8.059842    50.804483  0.017640446  0.018258008            3 
  241000   0.87293254    -8.059042     50.92605  0.017609284  0.018198822            3 
  242000   0.86214317   -8.0664336    50.975937  0.017553697  0.018139926            1 
  243000   0.88588955   -8.0793758     50.94684  0.017471482  0.018080845            4 
  244000   0.87115891   -8.0926417    51.240426  0.017500145  0.018022554            5 
  245000   0.87196179   -8.1100348    51.303899  0.017450306  0.017964616            3 
  246000    0.8695341   -8.0887747    51.436345  0.017424236  0.017907492            4 
  247000   0.87838383   -8.0963138    51.385631  0.017336583  0.017850619            4 
  248000   0.86697618   -8.0822269    51.563287  0.017326373  0.017793417            2 
  249000   0.85100904   -8.1087733    51.664727  0.017290739  0.017736239            1 
  250000   0.86239401   -8.1230436    51.611116  0.017203705   0.01767885            3 
  251000   0.85727325   -8.1369877    51.563992  0.017119519  0.017621318            2 
  252000   0.88499164   -8.1244646    51.637237  0.017075806  0.017563511            4 
  253000   0.86471794   -8.1361888    51.766473   0.01705088  0.017506429            5 
  254000    0.8629574   -8.1442568    51.735492  0.016973587  0.017449028            5 
  255000   0.85215937   -8.1397225    51.736875  0.016907475  0.017392059           19 
  256000   0.85933238   -8.1668435    51.877719  0.016887278  0.017334828            8 
  257000   0.86634632   -8.1463172    52.085978  0.016889098  0.017278376            4 
  258000    0.8564401   -8.1764399    51.950023  0.016779723  0.017222346            3 
  259000   0.84140146   -8.1355052    52.217484  0.016800992  0.017165991            6 
  260000   0.83050793   -8.1391499     52.09697  0.016697747  0.017109577            5 
  261000   0.86422281   -8.1703552    52.204628  0.016668144  0.017053641            3 
  262000   0.84215511   -8.2038683    52.237628  0.016615022  0.016997575            8 
  263000    0.8267855   -8.1821169    52.280318  0.016565373  0.016941353            5 
  264000   0.85019526   -8.2141849    52.320945   0.01651545  0.016885092            2 
  265000   0.84865049   -8.2099561     52.39314   0.01647583  0.016829277            6 
  266000   0.85369246   -8.1933455    52.534045  0.016458034  0.016773788            7 
  267000   0.86006283   -8.1985326    52.587005  0.016412923  0.016718745            6 
  268000   0.82489056   -8.1779574    52.572963  0.016347314  0.016663338            3 
  269000   0.85597566   -8.2312782    52.606148  0.016296824  0.016607698            9 
  270000   0.84332431    -8.216196    52.686252  0.016261189  0.016552455            2 
  271000   0.83258576   -8.2304099    52.762189  0.016224535  0.016497634            4 
  272000    0.8468887   -8.2042283     52.88054  0.016201146  0.016443203            2 
  273000   0.83396042   -8.2423507    52.749476  0.016101794  0.016389033            3 
  274000   0.82259427   -8.2382397    53.004746  0.016120665  0.016335452            3 
  275000   0.83498316   -8.2007678    53.017885  0.016066026   0.01628208            5 
  276000   0.81802494   -8.2351577    53.088164  0.016029035  0.016228969            2 
  277000   0.83418897   -8.2453845     53.01322  0.015948622  0.016175933            3 
  278000   0.83451203   -8.2475287    53.253442  0.015963262   0.01612259            2 
  279000   0.83210941   -8.2405194    53.174246  0.015882391  0.016069462            5 
  280000   0.81234194   -8.2164067    53.405481  0.015894488  0.016016853            4 
  281000   0.82026728     -8.27008    53.330856  0.015815794   0.01596456            3 
  282000   0.83659611   -8.2922953    53.441355  0.015792363  0.015912557            2 
  283000   0.83287005     -8.24651     53.45595  0.015740857  0.015860464            6 
  284000   0.80401547   -8.2679359    53.378378  0.015662669  0.015808354            4 
  285000   0.84069724   -8.2836985    53.310977  0.015588005  0.015755982            3 
  286000   0.80214938   -8.2744103     53.53168  0.015597809  0.015703891            2 
  287000   0.80040046   -8.2895399    53.573251  0.015555532  0.015652219            6 
  288000   0.80108806   -8.2916637    53.550103  0.015494821  0.015600099            3 
  289000   0.80005289   -8.2778288    53.603125  0.015456495  0.015548595            4 
  290000   0.78711464   -8.2763547    53.678495  0.015424855  0.015497388            3 
  291000   0.81861342   -8.2592442    53.780323  0.015401009  0.015446169            7 
  292000   0.80106554    -8.285935    53.722648  0.015331806  0.015395111            3 
  293000   0.80507532   -8.3002589    53.689102  0.015269938  0.015344021            7 
  294000   0.79763222   -8.3150541    53.719826  0.015226708  0.015293098            3 
  295000   0.80745151   -8.3245781    53.797159  0.015196938  0.015242149            3 
  296000   0.78341472   -8.3380142     53.73781  0.015128888  0.015191774            4 
  297000    0.7985231   -8.2842879    53.983344  0.015146842   0.01514113            7 
  298000   0.78829981   -8.3267179    53.825352  0.015051832  0.015090671            2 
  299000    0.7919497   -8.3171427    53.993778  0.015048433  0.015040338            3 
  300000   0.80522694   -8.3463784    53.908285  0.014974524  0.014990233            5 
  301000   0.78186465   -8.3287964    53.962544  0.014939796  0.014940322            6 
  302000   0.78927518   -8.3702627     53.87877   0.01486721  0.014890287            3 
  303000   0.78653915   -8.3201148    54.108256  0.014881258  0.014840479            3 
  304000   0.77587188   -8.3764031    54.029316  0.014810668  0.014790882            4 
  305000    0.7616224   -8.3300712    54.044737  0.014766322  0.014741282            5 
  306000   0.76975624   -8.3458363     53.97069    0.0146979  0.014691609            4 
  307000   0.77257856   -8.3769442    54.058992  0.014673993  0.014641618            5 
  308000   0.76541941   -8.3632215    54.005925  0.014611993   0.01459183            5 
  309000   0.78562617   -8.3483579      53.9533  0.014550512   0.01454204           11 
  310000   0.77998728   -8.3985061    53.863297  0.014479381  0.014492113            7 
  311000   0.77081211   -8.3657748    54.114885  0.014500237  0.014442488            5 
  312000   0.77180088   -8.3899109    54.028582  0.014430711  0.014393092            5 
  313000   0.77700817   -8.3939721    54.143903   0.01441531  0.014343719            2 
  314000   0.76053332    -8.415059    54.094669  0.014356335  0.014294478            3 
  315000   0.76540372    -8.415367    54.117511  0.014316802  0.014245449            6 
  316000   0.76753351   -8.4172865    54.248976  0.014306164  0.014196649            3 
  317000   0.75233192   -8.4120667    54.086413    0.0142183  0.014147648            2 
  318000   0.77069429   -8.4143249     54.14409  0.014188703  0.014099043            3 
  319000    0.7607915   -8.4264339    54.192375  0.014156838  0.014050576            3 
  320000   0.74891955   -8.4539005    54.145241  0.014100323  0.014002111            3 
  321000    0.7512601   -8.4843862    53.993739  0.014017066  0.013953476            8 
  322000   0.76053385   -8.4582415    54.176152  0.014020743  0.013904853            7 
  323000    0.7485447    -8.459008     54.17381  0.013976731   0.01385651            2 
  324000   0.75500924   -8.4633705    54.060977  0.013904572  0.013808358            4 
  325000   0.73944221   -8.4631832    54.284511  0.013919105  0.013760597            3 
  326000    0.7474049   -8.4755336    54.249948  0.013867574  0.013712912            8 
  327000   0.74622896   -8.4761462    54.185089  0.013808636  0.013665176            5 
  328000   0.75460812   -8.4687964    54.306963  0.013797501  0.013617793            3 
  329000   0.74449603    -8.474605    54.265552  0.013745074  0.013570529            6 
  330000   0.75097834   -8.4499178    54.392029  0.013735361   0.01352338            4 
  331000   0.73632909   -8.4612682    54.327021  0.013677498  0.013476247            7 
  332000    0.7391003   -8.4980386    54.295767  0.013628455  0.013429555            3 
  333000   0.73815665   -8.5071783     54.31082  0.013591296  0.013382701            3 
  334000   0.72883632    -8.474291     54.26585  0.013539384  0.013335872            5 
  335000    0.7320349   -8.5024631    54.352735  0.013520581  0.013289315            4 
  336000    0.7326628   -8.5016106    54.442091  0.013502503  0.013243156            7 
  337000   0.71971659   -8.5201814    54.370451  0.013444721  0.013196993            3 
  338000   0.72799416   -8.4981578    54.484616  0.013433091  0.013151045            2 
  339000   0.73497851   -8.5153917     54.41755  0.013376979  0.013105315            5 
  340000   0.71783197   -8.5201442    54.453838  0.013346529  0.013059574            4 
  341000    0.7325869   -8.5275577    54.461152  0.013309177  0.013014159            8 
  342000   0.70944852   -8.5093494    54.326268  0.013237395  0.012968681            5 
  343000   0.72670614   -8.5230839    54.489669  0.013238501  0.012923423            4 
  344000   0.71103925    -8.546955    54.414057    0.0131817  0.012878255            2 
  345000    0.7206436   -8.5604403    54.387596  0.013137101  0.012833142            5 
  346000   0.72550885   -8.5569717    54.429287  0.013109173   0.01278832            3 
  347000   0.71523832   -8.5524783    54.419434  0.013069028  0.012743473            3 
  348000     0.714626   -8.5812147    54.355128  0.013016075  0.012698599            4 
  349000   0.70409807   -8.5582703    54.230214  0.012948953  0.012653782            3 
  350000   0.71779314   -8.5856317    54.231094  0.012912165  0.012609108            1 
  351000      0.70892    -8.589089    54.351355   0.01290393   0.01256458            3 
  352000   0.71486204   -8.5394753    54.363786  0.012870214  0.012520311            3 
  353000   0.70666019   -8.5671553    54.445277  0.012852993  0.012476099            4 
  354000   0.70245971    -8.582742    54.374465  0.012800015  0.012432073            3 
  355000   0.68645633   -8.5438427    54.382037  0.012765736  0.012388164            3 
  356000   0.69690247   -8.5525189    54.406124  0.012735516   0.01234441            6 
  357000    0.6792688   -8.5837015     54.32068  0.012679897  0.012300683            8 
  358000   0.69757882   -8.5929527    54.261276  0.012630651  0.012257104            2 
  359000   0.70107439   -8.6043281     54.40009   0.01262769   0.01221374            2 
  360000   0.69727491   -8.5993812    54.450154  0.012604202  0.012170602            3 
  361000    0.6789913   -8.6034633    54.353704  0.012547023  0.012127546            4 
  362000    0.6833019   -8.5958507    54.460236  0.012536887  0.012084662            7 
  363000   0.68988858   -8.6191507    54.448915  0.012499751  0.012042032            6 
  364000   0.68879921   -8.6459663    54.443165  0.012464094  0.011999587            4 
  365000   0.68784094   -8.6216731    54.553973  0.012455245  0.011957465            2 
  366000   0.68824201   -8.6217418    54.531469   0.01241609   0.01191546            6 
  367000   0.68638614   -8.6086648    54.446699  0.012363011  0.011873454            5 
  368000   0.68527271   -8.6431345    54.344712  0.012306321  0.011831616            2 
  369000   0.66402312   -8.6385199    54.475505  0.012302508  0.011789938            6 
  370000   0.65815831   -8.6314074    54.436499  0.012260473  0.011748409            3 
  371000   0.66317742   -8.6512217    54.431033  0.012226198  0.011706773            3 
  372000   0.67116659   -8.6482274     54.37726  0.012181286  0.011665389            8 
  373000   0.67142163   -8.6500975    54.479994   0.01217158  0.011624088            6 
  374000   0.67120511   -8.6448035    54.447565   0.01213181  0.011582978            4 
  375000   0.66901271   -8.6526248    54.386066  0.012085792  0.011541883            2 
  376000   0.66295227   -8.6718788    54.410129  0.012058982   0.01150099            5 
  377000   0.65372787   -8.6570553    54.300976  0.012002868  0.011460214            5 
  378000   0.65347136   -8.6744891    54.388865  0.011990491  0.011419592            4 
  379000   0.66835239   -8.6996067    54.416193  0.011964862  0.011379042            2 
  380000   0.66511095    -8.665632    54.339107  0.011916471  0.011338615            1 
  381000   0.67299833   -8.6789064    54.283864  0.011873111  0.011298367            2 
  382000   0.67108663   -8.6683189     54.33376  0.011852914  0.011258172            3 
  383000   0.65243069   -8.6917425     54.37326  0.011830561  0.011218047            4 
  384000   0.65764537   -8.6751295    54.308594  0.011785719  0.011178086            4 
  385000   0.64635332   -8.7182766    54.261617  0.011744939  0.011138384            5 
  386000   0.65844143   -8.6745112    54.529019  0.011772241  0.011098748            8 
  387000   0.64401942   -8.7021171    54.207383  0.011672563  0.011059262            3 
  388000   0.64482604   -8.7227425     54.30625  0.011663713  0.011020004            4 
  389000   0.65210923   -8.7222782    54.340077  0.011640976  0.010980824            3 
  390000   0.64825956   -8.7288929    54.322503  0.011607372  0.010941865            4 
  391000   0.63999038   -8.7230367    54.350406  0.011583633  0.010903112            5 
  392000    0.6452629    -8.724956    54.382068  0.011560814  0.010864474            3 
  393000   0.64488877   -8.7224598    54.280883  0.011509941  0.010825961            3 
  394000   0.63289074   -8.7252226    54.289391  0.011482528  0.010787533            2 
  395000   0.63291427   -8.7258911    54.187334  0.011431927  0.010749195            2 
  396000   0.63721982   -8.7173949    54.358691  0.011439118  0.010710984            1 
  397000   0.63807208   -8.7330199    54.224069  0.011382046   0.01067293            9 
  398000   0.63397361   -8.7489722    54.283833  0.011365962  0.010634936            3 
  399000   0.63808416   -8.7050449    54.404834  0.011362747  0.010597237            5 
  400000   0.61676604   -8.7381843    54.181902  0.011287896  0.010559635            4 
  401000   0.63472975   -8.7629771    54.088968  0.011240434  0.010522084            5 
  402000   0.63051163   -8.7498332    54.121824  0.011219284   0.01048463            4 
  403000   0.62741194   -8.7656696    54.253181  0.011218607  0.010447416            5 
  404000   0.63208064   -8.7649135    54.189446  0.011177691  0.010410294            7 
  405000   0.62745855   -8.7541184    54.167807  0.011145639  0.010373288            5 
  406000   0.62831062   -8.7653677      54.1304  0.011110509  0.010336416            6 
  407000   0.61258635   -8.7784873    54.287433  0.011115363   0.01029973            6 
  408000   0.62085237   -8.7636021    54.150296  0.011060109  0.010263154            3 
  409000   0.61796633   -8.7821159    54.214219  0.011046092  0.010226812            2 
  410000   0.60485234   -8.7818006    54.123019  0.011000614  0.010190595            3 
  411000   0.60497914   -8.7904453    54.179775  0.010985356  0.010154569            5 
  412000   0.62092104   -8.7823729    54.213405  0.010965495    0.0101186            3 
  413000   0.62257126    -8.799199     54.13199  0.010922516   0.01008279            7 
  414000   0.61258117   -8.7932697     54.07266  0.010884191  0.010046914            4 
  415000   0.61175918   -8.8199265    53.992823  0.010841932  0.010011236            3 
  416000   0.59859528   -8.8028659    54.138905  0.010845133 0.0099757335            4 
  417000   0.59322224   -8.8091071    54.120872  0.010815522 0.0099404181            4 
  418000   0.57980636   -8.8253984    54.120963  0.010789666 0.0099051569            3 
  419000   0.59115848   -8.8057052    54.117293  0.010763185  0.009870067            6 
  420000   0.59795609   -8.8084585    54.111983  0.010736505 0.0098351023           12 
  421000   0.58903557    -8.801501    54.140353  0.010716618 0.0098003582            8 
  422000   0.59509661   -8.8137351     54.05464  0.010674297 0.0097657082            9 
  423000   0.58542438   -8.8315577    54.135933  0.010665077 0.0097312798            6 
  424000   0.59293199   -8.8245797    54.119716  0.010636737 0.0096970328            3 
  425000   0.59772756   -8.8280813     54.05301  0.010598629 0.0096628121            5 
  426000   0.58232493   -8.8197564      53.9812  0.010559703 0.0096287728            5 
  427000   0.58975139   -8.8233367    54.042666  0.010546968  0.009594834           10 
  428000   0.56654706   -8.8351255    53.973541  0.010508867 0.0095610385            5 
  429000   0.58045639   -8.8526263    54.049868  0.010499197 0.0095272923            2 
  430000   0.58859528   -8.8402823    54.119576   0.01048829 0.0094937521            7 
  431000   0.58554221    -8.819794    54.158395  0.010471461 0.0094603762           10 
  432000   0.57897151   -8.8257781    54.042989  0.010424959  0.009427185           11 
  433000   0.57296638   -8.8511434    54.058845  0.010403935 0.0093940874           11 
  434000   0.56035445   -8.8566539    54.044046  0.010377121 0.0093611446            5 
  435000   0.56819683   -8.8509915    54.051262  0.010354648 0.0093284197            5 
  436000    0.5669255   -8.8463474    53.997741  0.010320669 0.0092958514            6 
  437000   0.56952222   -8.8639024    54.010658  0.010299515 0.0092634012            5 
  438000   0.57259635   -8.8657268    53.967467  0.010267783 0.0092310557            6 
  439000   0.56489202   -8.8811082     53.95945  0.010242872 0.0091989039            4 
  440000   0.57067939   -8.8698798    53.949358  0.010217681 0.0091667713            5 
  441000   0.55705461   -8.8776174    53.906915  0.010186492 0.0091347723            8 
  442000   0.55729923     -8.87603     53.90489  0.010163064 0.0091028348            4 
  443000   0.55055411   -8.8927123    53.880159   0.01013547 0.0090710012            6 
  444000   0.56828666   -8.8816981    53.917779  0.010119703 0.0090393157            6 
  445000   0.56482608   -8.8678572    54.017589  0.010115653 0.0090078087            8 
  446000   0.56111851   -8.8777705    53.923622  0.010075415 0.0089764791            4 
  447000   0.55852094   -8.8935291     53.85649   0.01004036 0.0089451707            2 
  448000   0.54575553   -8.8906807    53.942061  0.010033865 0.0089140689            4 
  449000   0.55744061   -8.9063998    53.903241  0.010004313 0.0088830457            6 
  450000   0.55562822   -8.9136798    53.764012 0.0099562985 0.0088521828            5 
  451000   0.54910869    -8.915689    53.931304 0.0099651338  0.008821444            5 
  452000   0.53976432   -8.9009712    53.927818 0.0099424443 0.0087908849            7 
  453000   0.54783505   -8.9175612    53.821829 0.0099009988 0.0087603766            7 
  454000   0.54587569   -8.9126024    53.834269 0.0098814737 0.0087300565            5 
  455000     0.541118   -8.9310506    53.884605 0.0098689753 0.0086998004            7 
  456000   0.53257984   -8.9182888    53.863943 0.0098435569 0.0086697139            9 
  457000   0.54670096    -8.914654    53.857995 0.0098209327 0.0086397376            6 
  458000   0.54131974   -8.9368427    53.809332 0.0097906354 0.0086098873            5 
  459000   0.52840413   -8.9215267    53.800858 0.0097677665 0.0085801474            5 
  460000   0.53406287   -8.9170226    53.800353 0.0097464408 0.0085506249            5 
  461000   0.53326871   -8.9238197    53.871758 0.0097382065 0.0085212115            5 
  462000   0.53362304   -8.9355172    53.876868 0.0097180498 0.0084919001            8 
  463000   0.52670265   -8.9405162     53.82415  0.009687572 0.0084627723            5 
  464000   0.53941214   -8.9495188     53.88936 0.0096784051 0.0084337109            7 
  465000   0.52594972   -8.9364529    53.876182 0.0096552297 0.0084047968           11 
  466000   0.51552427   -8.9554074    53.748934  0.009611755 0.0083760318            7 
  467000   0.50479016   -8.9471306     53.85436 0.0096099858 0.0083473585            8 
  468000   0.52734227   -8.9381047    53.868833 0.0095920286 0.0083188277            8 
  469000    0.5170865   -8.9370257    53.810141  0.009561148 0.0082904243           10 
  470000   0.51774504   -8.9605053    53.780174 0.0095354918 0.0082621418            7 
  471000    0.5279825   -8.9573886    53.773626 0.0095140882 0.0082339925            7 
  472000   0.51888351   -8.9575043    53.837385  0.009505188  0.008205934           13 
  473000   0.51305159   -8.9697903    53.916374 0.0094990087 0.0081780295           14 
  474000   0.51648588   -8.9616496    53.804822 0.0094593569 0.0081502448            5 
  475000   0.50267986    -8.973714    53.775325 0.0094342675 0.0081225639            8 
  476000     0.511238   -8.9679148    53.804364 0.0094195315 0.0080950108           10 
  477000   0.50417043   -8.9566276    53.835091 0.0094051522 0.0080676075            9 
  478000   0.49956274   -8.9709516    53.826938 0.0093840548 0.0080402888            5 
  479000   0.49403129   -9.0005012    53.696079 0.0093416978 0.0080130779           10 
  480000   0.50654954   -8.9732247    53.658615 0.0093157318 0.0079859562            9 
  481000   0.50327658   -8.9778311    53.766778 0.0093151036 0.0079589156            9 
  482000   0.50193204   -8.9700027    53.724069 0.0092883936 0.0079319689           14 
  483000   0.48872774   -8.9882623    53.737945  0.009271557 0.0079051569           10 
  484000   0.50864918   -8.9862785    53.675956 0.0092417279 0.0078784921           14 
  485000   0.49153523   -9.0026877    53.718805 0.0092300353 0.0078519231            9 
  486000   0.49398693   -9.0013306     53.73155 0.0092132288 0.0078254797            8 
  487000   0.48359271   -9.0009552    53.777265  0.009202133 0.0077990992            7 
  488000   0.48880035   -9.0131947    53.620306 0.0091564731 0.0077728394            8 
  489000   0.48789651   -8.9983023    53.645941 0.0091421167 0.0077466794           15 
  490000   0.48852429    -9.014933    53.650996 0.0091243191 0.0077206021            7 
  491000   0.48369652   -9.0019752    53.622247 0.0091008566 0.0076946241           22 
  492000   0.47871548    -8.989057    53.613437 0.0090808667 0.0076687598           10 
  493000   0.47601633   -9.0169998    53.693987 0.0090760627 0.0076430441            9 
  494000   0.48536881   -9.0082198      53.6811 0.0090555162 0.0076173933            6 
  495000   0.48713019    -9.006109    53.660105 0.0090336877  0.007591902           11 
  496000   0.47253479   -9.0131305    53.765045 0.0090331056  0.007566477           12 
  497000   0.47321007   -9.0263244    53.651647 0.0089959167 0.0075411769           13 
  498000   0.47624013   -9.0180817    53.605129 0.0089700684 0.0075160063           15 
  499000   0.46095521   -9.0337068    53.510145 0.0089362299 0.0074909113           15 
  500000   0.46209851   -9.0277009     53.64774 0.0089412901 0.0074659381           11 
  501000    0.4654536   -9.0256696    53.607646 0.0089167741  0.007441108           16 
  502000   0.47224722    -9.020838    53.586466 0.0088954957  0.007416336           16 
  503000   0.47221308   -9.0189181    53.684841 0.0088941088  0.007391731           13 
  504000   0.45676068   -9.0278884    53.580629  0.008859231 0.0073672454            8 
  505000   0.45898409   -9.0501479    53.555344 0.0088375155 0.0073428638           12 
  506000   0.45175735   -9.0507344     53.60088 0.0088275495  0.007318555           14 
  507000   0.45836224   -9.0406259    53.569074 0.0088049103  0.007294397           17 
  508000   0.45485896   -9.0565774    53.587908 0.0087906673 0.0072703424           11 
  509000   0.44131261   -9.0514175    53.580555 0.0087721931 0.0072463261           10 
  510000   0.45554803   -9.0497897    53.623461 0.0087620034 0.0072224383           12 
  511000   0.45412082   -9.0645663    53.587635 0.0087390142 0.0071986617           10 
  512000   0.44370547   -9.0556714    53.638692 0.0087302559 0.0071749796           16 
Loop time of 1254.6 on 48 procs for 500000 steps with 4000 atoms

Performance: 68866.404 tau/day, 398.532 timesteps/s
99.4% CPU use with 48 MPI tasks x no OpenMP threads

MPI task timing breakdown:
Section |  min time  |  avg time  |  max time  |%varavg| %total
---------------------------------------------------------------
Pair    | 85.386     | 90.61      | 99.45      |  31.0 |  7.22
Neigh   | 8.4208     | 8.6792     | 8.9856     |   4.9 |  0.69
Comm    | 77.16      | 86.386     | 91.785     |  32.7 |  6.89
Output  | 0.85783    | 0.85882    | 0.88976    |   0.5 |  0.07
Modify  | 1052.6     | 1056.1     | 1059.5     |   4.8 | 84.18
Other   |            | 11.95      |            |       |  0.95

Nlocal:        83.3333 ave          88 max          79 min
Histogram: 2 3 6 5 7 12 6 4 1 2
Nghost:        2235.19 ave        2250 max        2215 min
Histogram: 1 2 1 7 7 8 6 6 7 3
Neighs:        15019.4 ave       16140 max       14167 min
Histogram: 4 3 7 13 6 4 3 4 2 2
FullNghs:      30039.4 ave       32053 max       28465 min
Histogram: 5 2 7 6 10 7 5 4 1 1

Total # of neighbors = 1441892
Ave neighs/atom = 360.47300
Neighbor list builds = 26659
Dangerous builds = 0

#clear
#
#next RN
#
#jump SELF
Total wall time: 0:20:58
