
units lj                  # Use reduced LJ style units
atom_style atomic         # Uncharged point particles
atom_modify map hash      # Needed for indexing of clusters etc
                          # Used to be able to find where atoms are in relation to each other.

lattice fcc 1.0 spacing 1 1 1
Lattice spacing in x,y,z = 1.5874011 1.5874011 1.5874011
region box block 0 10 0 10 0 10 units lattice
create_box 2 box
Created orthogonal box = (0.0000000 0.0000000 0.0000000) to (15.874011 15.874011 15.874011)
  3 by 4 by 4 MPI processor grid
create_atoms 1 box
Created 4000 atoms
  using lattice units in orthogonal box = (0.0000000 0.0000000 0.0000000) to (15.874011 15.874011 15.874011)
  create_atoms CPU = 0.016 seconds
set type 1 type/fraction 2 1.0 78393
Setting atom values ...
  4000 settings made for type/fraction
mass 1 1.0
mass 2 1.0
pair_style lj/cut  3.5
pair_modify tail  yes
pair_coeff 1  1  1.0  1.0   # Intearaction between 1 and 1 set with epsilon = 1 and sigma = 1
pair_coeff 1  2  1.5  0.8
pair_coeff 2  2  0.5  0.88

write_data data.0
System init for write_data ...
Neighbor list info ...
  update every 1 steps, delay 10 steps, check yes
  max neighbors/atom: 2000, page size: 100000
  master list distance cutoff = 3.8
  ghost atom cutoff = 3.8
  binsize = 1.9, bins = 9 9 9
  1 neighbor lists, perpetual/occasional/extra = 1 0 0
  (1) pair lj/cut, perpetual
      attributes: half, newton on
      pair build: half/bin/atomonly/newton
      stencil: half/bin/3d
      bin: standard
WARNING: Not all mixed pair coeffs generated from mixing. Use write_data with 'pair ij' option to store all pair coeffs. (../write_data.cpp:312)


#############################
#   M E L T   S Y S T E M   #
#############################

velocity all create 2.4 2750902 mom yes dist gaussian # Assign velocities
                                                    # Temperature 2.4, random number seed, zero linear momentum
                                                                                # Gaussian distribution

timestep 0.002   # simulation timestep
thermo 1000       # output thermodynamic data every 1000 steps bf 100

# Define a fix  in this case with index 1 applied to all
# particles in the simulation. This fix is for simulations
# in the anisotropic NPT ensemble. Note that we use the MTK
# correction.
fix 1 all npt temp 2.4 2.4 0.1 iso 5.68 5.68 0.5 mtk yes tchain 5 pchain 5 # Use NPT ensemble
                                                                         # Set temperature and pressure and damping
                                                                         # Numbers of thermostats in chain and in barostat
run 10000          # run for 10000 steps
Per MPI rank memory allocation (min/avg/max) = 3.642 | 3.644 | 3.648 Mbytes
Step Temp E_pair E_mol TotEng Press Volume 
       0          2.4   -2.7016284            0   0.89747158   -1.6956087         4000 
    1000    2.3994813   -1.4518517            0    2.1464704    5.6734669    4246.9035 
    2000    2.3877869    -1.461132            0     2.119653     5.478723    4273.7023 
    3000    2.3535095   -1.4466107            0     2.082771    5.6671783    4248.4872 
    4000    2.4278343   -1.4060547            0    2.2347862    5.9347813    4252.9526 
    5000    2.4429623   -1.4229641            0    2.2405631    5.8624518    4260.0003 
    6000    2.4379331   -1.4458736            0    2.2101117    5.5624027    4281.3322 
    7000    2.4100392   -1.4206028            0    2.1935522    5.6075704    4297.8551 
    8000    2.3944992   -1.4327234            0    2.1581274    5.9513422    4200.4197 
    9000    2.4186132   -1.4193604            0    2.2076524    5.6716527    4286.2955 
   10000    2.3805577   -1.3906015            0    2.1793423    5.6838033     4308.803 
Loop time of 2.39359 on 48 procs for 10000 steps with 4000 atoms

Performance: 721927.723 tau/day, 4177.822 timesteps/s
99.7% CPU use with 48 MPI tasks x no OpenMP threads

MPI task timing breakdown:
Section |  min time  |  avg time  |  max time  |%varavg| %total
---------------------------------------------------------------
Pair    | 1.0093     | 1.08       | 1.192      |   3.7 | 45.12
Neigh   | 0.20192    | 0.20982    | 0.23425    |   1.3 |  8.77
Comm    | 0.69914    | 0.83123    | 0.90924    |   4.9 | 34.73
Output  | 0.00024151 | 0.00025112 | 0.00041074 |   0.0 |  0.01
Modify  | 0.21017    | 0.25741    | 0.30517    |   4.7 | 10.75
Other   |            | 0.01485    |            |       |  0.62

Nlocal:        83.3333 ave          92 max          75 min
Histogram: 2 4 7 4 8 7 3 7 4 2
Nghost:        1558.08 ave        1592 max        1524 min
Histogram: 1 6 5 6 5 8 5 7 3 2
Neighs:        8854.62 ave        9958 max        7727 min
Histogram: 3 4 5 4 7 8 4 6 5 2

Total # of neighbors = 425022
Ave neighs/atom = 106.25550
Neighbor list builds = 910
Dangerous builds = 225

# Equilibrate just above the melting temperature to avoid step fn in T

fix 1 all npt temp 1.25 1.25 0.1 iso 5.68 5.68 0.5 mtk yes tchain 5 pchain 5
run 2000
Per MPI rank memory allocation (min/avg/max) = 3.643 | 3.645 | 3.649 Mbytes
Step Temp E_pair E_mol TotEng Press Volume 
   10000    2.3805577   -1.3906015            0    2.1793423    5.6838033     4308.803 
   11000    1.2404352   -2.2212707            0  -0.36108304     5.686601    3339.0662 
   12000    1.2685561   -2.2094007            0  -0.30704223    5.9050288     3333.014 
Loop time of 0.571187 on 48 procs for 2000 steps with 4000 atoms

Performance: 605056.316 tau/day, 3501.483 timesteps/s
99.7% CPU use with 48 MPI tasks x no OpenMP threads

MPI task timing breakdown:
Section |  min time  |  avg time  |  max time  |%varavg| %total
---------------------------------------------------------------
Pair    | 0.24522    | 0.26818    | 0.31448    |   2.4 | 46.95
Neigh   | 0.038011   | 0.04014    | 0.045874   |   0.7 |  7.03
Comm    | 0.16389    | 0.21552    | 0.24381    |   3.0 | 37.73
Output  | 5.1176e-05 | 5.3349e-05 | 6.8586e-05 |   0.0 |  0.01
Modify  | 0.038888   | 0.042785   | 0.046067   |   0.9 |  7.49
Other   |            | 0.004513   |            |       |  0.79

Nlocal:        83.3333 ave          91 max          75 min
Histogram: 1 2 2 7 4 17 12 0 2 1
Nghost:        1857.69 ave        1877 max        1819 min
Histogram: 1 0 2 4 5 5 5 10 10 6
Neighs:        11465.0 ave       12961 max        9730 min
Histogram: 1 1 1 8 10 8 9 8 1 1

Total # of neighbors = 550322
Ave neighs/atom = 137.58050
Neighbor list builds = 145
Dangerous builds = 14

#############################
# L I N E A R  Q U E N C H  #
#############################

# Define solid atoms. This closely follows ten Wolde  Ruiz-Montero and Frenkel  Faraday Discuss  1996  104  93-110
# Compute components of the per-atom q6 vector
compute q6 all orientorder/atom degrees 1 6 components 6 nnn NULL cutoff 1.3 # compute the Q6 parameter.
                                                                             # Use all neighbours within 1.3 unit cell.

# get number of connections
compute coord_number all coord/atom orientorder q6 0.5

# An atom is solid if it has 8 or more connections (of a possible 14)
variable is_solid atom c_coord_number>=8
group solid dynamic all var is_solid    # Must be dynamic to update
dynamic group solid defined

# do clustering
compute cluster solid cluster/atom 1.3 # Create a cluster where all atoms within are solid and max 1.3 units from another member

# define chunks one chunk per cluster
compute clus_chunks solid chunk/atom c_cluster nchunk every compress yes  # Says which atoms are in which chunk

# count the size of each chunk
compute size_chunks solid property/chunk clus_chunks count


# Find the maximum entry in the vector of chunk sizes
variable max_n equal max(c_size_chunks)


# Thermo style which includes this variable
# thermo_style custom step temp pe vol v_max_n

thermo ${N}  # Print the thermo information every 100 steps
thermo 1000  

# Reset the npt fix at a lower temperature (below freezing)
fix 1  all npt temp  ${temp} ${temp}  0.1  iso  5.68  5.68  0.5  mtk yes tchain  5  pchain  5
fix 1  all npt temp  0.45 ${temp}  0.1  iso  5.68  5.68  0.5  mtk yes tchain  5  pchain  5
fix 1  all npt temp  0.45 0.45  0.1  iso  5.68  5.68  0.5  mtk yes tchain  5  pchain  5

dump dmp2 all dcd ${N} traj.dcd
dump dmp2 all dcd 1000 traj.dcd


compute msd all msd com yes
variable twopoint equal c_msd[4]/6/(step*dt+1.0e-6)
fix 9 all vector 10 c_msd[4]
variable fit equal slope(f_9)/6/(10*dt)
thermo_style custom step temp pe c_msd[4] v_twopoint v_fit v_max_n

fix 1 all npt temp 1.25 ${temp} 0.1 iso 5.68 5.68 0.5 mtk yes tchain 5 pchain 5
fix 1 all npt temp 1.25 0.45 0.1 iso 5.68 5.68 0.5 mtk yes tchain 5 pchain 5
run 5000000 # 5000000  # Run for this many steps
Neighbor list info ...
  update every 1 steps, delay 10 steps, check yes
  max neighbors/atom: 2000, page size: 100000
  master list distance cutoff = 3.8
  ghost atom cutoff = 3.8
  binsize = 1.9, bins = 8 8 8
  4 neighbor lists, perpetual/occasional/extra = 1 3 0
  (1) pair lj/cut, perpetual
      attributes: half, newton on
      pair build: half/bin/atomonly/newton
      stencil: half/bin/3d
      bin: standard
  (2) compute orientorder/atom, occasional
      attributes: full, newton on
      pair build: full/bin/atomonly
      stencil: full/bin/3d
      bin: standard
  (3) compute coord/atom, occasional
      attributes: full, newton on
      pair build: full/bin/atomonly
      stencil: full/bin/3d
      bin: standard
  (4) compute cluster/atom, occasional
      attributes: full, newton on
      pair build: full/bin/atomonly
      stencil: full/bin/3d
      bin: standard
Per MPI rank memory allocation (min/avg/max) = 9.806 | 9.816 | 9.821 Mbytes
Step Temp PotEng c_msd[4] v_twopoint v_fit v_max_n 
   12000    1.2685561   -2.2094007 4.0137243e-30 2.7873084e-32 8.3333333e+20            3 
   13000    1.2522791   -2.2274559    1.1556454 0.0074079833  0.098548906            2 
   14000    1.2549774   -2.2371434    2.5079706  0.014928396    0.1053021            1 
   15000    1.2777627   -2.2047843    3.8316497  0.021286942   0.10847531            1 
   16000    1.2516879   -2.2008285     5.130718  0.026722489   0.10918159            1 
   17000    1.2291363   -2.2351246    6.3675455  0.031213457   0.10878205            1 
   18000    1.2093227   -2.1994176    7.7932405  0.036079816   0.10895526            2 
   19000    1.2628189   -2.2353883    9.2103499  0.040396271   0.10977732            1 
   20000    1.2616185   -2.2429913    10.502762  0.043761505   0.11052009            1 
   21000    1.2620425   -2.2379362    11.680364  0.046350651   0.11037474            2 
   22000    1.2284728   -2.2531258    13.010063  0.049280539   0.11009631            2 
   23000    1.2734453   -2.2420882     14.41327  0.052221992   0.11028512            1 
   24000    1.2379692   -2.1910048    15.925214  0.055295881   0.11066806            1 
   25000    1.2451876   -2.2216911    17.229353  0.057431175   0.11102386            2 
   26000    1.2581542   -2.2384638    18.611409  0.059651952   0.11121634            1 
   27000    1.2187218   -2.2425066    19.881781   0.06136352   0.11148208            3 
   28000    1.2639614   -2.2389354    21.287776  0.063356476   0.11160843            1 
   29000     1.250601   -2.2328936     22.72616  0.065305056   0.11193211            3 
   30000    1.2469166   -2.2327945    24.426796  0.067852211   0.11239972            2 
   31000    1.2497835   -2.2349131    25.797051   0.06934691   0.11305028            1 
   32000    1.2423317   -2.2162849    27.259768  0.070988977   0.11343881            1 
   33000    1.2399509   -2.2113567    28.503983  0.071979754   0.11371178            2 
   34000    1.2455166   -2.2442256     29.79791  0.073034091   0.11386239            1 
   35000    1.2662599   -2.2273523    31.421671  0.074813501   0.11414218            1 
   36000    1.2526499   -2.2286413    33.064251  0.076537618   0.11443937            1 
   37000    1.2326622   -2.2168668    34.012303  0.076604284   0.11461939            1 
   38000    1.2485597   -2.2600324    35.490326   0.07782966   0.11479505            1 
   39000    1.2046943   -2.2318118    36.896568   0.07883882   0.11495297            2 
   40000    1.2519028   -2.2337481    38.483917  0.080174827    0.1151012            1 
   41000    1.2375858   -2.2325311    39.712949  0.080717374   0.11521189       -1e+20 
   42000    1.2540618    -2.211736    41.382756  0.082108641   0.11533711            3 
   43000    1.2086881   -2.2465785    42.911698  0.083162204   0.11548497            2 
   44000    1.2393141   -2.2566717    44.080216  0.083485257   0.11564305            1 
   45000    1.2513948   -2.2119635    45.509339  0.084276553   0.11578765            1 
   46000    1.2440096   -2.2402202     46.90827   0.08497875   0.11582928            1 
   47000    1.2129519   -2.2472177    48.185648  0.085435545   0.11587414            1 
   48000     1.227382   -2.2383636     49.24819  0.085500329   0.11585626            1 
   49000    1.2361707    -2.224987    50.910653  0.086582743   0.11577561            1 
   50000    1.2486521   -2.2147422    52.257899  0.087096497   0.11573492            1 
   51000    1.2412912    -2.249513    53.339299  0.087155716   0.11569251            3 
   52000    1.2399723   -2.2200623    54.714682  0.087683784   0.11563341            1 
   53000    1.2475634   -2.2427008    55.442952  0.087174453   0.11549331            1 
   54000     1.265639   -2.2564268    57.050967  0.088041615   0.11535064            2 
   55000    1.2568135   -2.2244893    58.734938  0.088992329   0.11523289            1 
   56000    1.2210649   -2.2426663    59.369667  0.088347718   0.11504272            1 
   57000    1.2576369   -2.2503921     60.70927  0.088756241   0.11484363            1 
   58000    1.2281722   -2.2052837    62.515889  0.089821679   0.11468055            2 
   59000    1.2638274    -2.227865    63.327384  0.089445457   0.11448441            1 
   60000    1.2252664   -2.2545549    64.024149  0.088922429   0.11424107            1 
   61000    1.2394124    -2.195269    65.943914  0.090087314   0.11402725            1 
   62000    1.2381946   -2.2096483     66.86235  0.089868749   0.11383062            1 
   63000    1.2428459   -2.2470596    68.488198  0.090592854   0.11364638            2 
   64000    1.2376583   -2.2162473    69.738523  0.090805367   0.11347654            1 
   65000    1.2356672   -2.2332122     70.95459  0.090967423   0.11329804            3 
   66000    1.2467968   -2.2271891    72.694655   0.09178618    0.1131983            1 
   67000    1.2368182   -2.2520246    74.089111  0.092150635   0.11305458            1 
   68000    1.2530527   -2.2436317    75.643266   0.09270008   0.11293452            2 
   69000    1.2188871   -2.2427244    76.307674  0.092159026    0.1128074            1 
   70000    1.2397646     -2.22402    77.445656  0.092197208   0.11267042            5 
   71000    1.2656481    -2.221896    79.068974  0.092803959   0.11249773            2 
   72000    1.2298362   -2.2281318    80.393462  0.093047987   0.11237175            2 
   73000    1.2521074   -2.2635928    81.955706  0.093556741   0.11229487            3 
   74000    1.2497457   -2.2383825    83.529533  0.094064789   0.11223554            1 
   75000    1.2521716   -2.2378012    84.580416   0.09397824   0.11222005            1 
   76000    1.2309589   -2.2232812    85.919655  0.094210147   0.11218049            1 
   77000    1.2309539   -2.2392383    87.390742  0.094578724   0.11213157            1 
   78000     1.257512   -2.2007097    88.710106  0.094775754   0.11209025            2 
   79000    1.2510942   -2.2349794    90.050347  0.094989817   0.11205209            2 
   80000    1.2256604   -2.2625645    90.876624  0.094663149   0.11200832            4 
   81000    1.2314005   -2.2532192    91.762566  0.094405932   0.11194464            1 
   82000    1.2575827   -2.2373571     93.58313  0.095104806   0.11186395            1 
   83000    1.2450968   -2.2430621    95.067245  0.095449041    0.1117875            2 
   84000    1.2597693   -2.2559861    96.052072  0.095289753   0.11172223            2 
   85000    1.2490578     -2.23408    98.243249   0.09631691   0.11165457            2 
   86000    1.2181707   -2.2202006     98.06204  0.095021356   0.11157417            3 
   87000     1.253106   -2.2261424    99.952501  0.095739943   0.11150478            2 
   88000    1.2546178   -2.2519674    101.01795  0.095660941   0.11142836            1 
   89000    1.2213317   -2.2384732    102.54356  0.096014568   0.11136233            1 
   90000    1.2527162   -2.2443106    104.57537  0.096829044   0.11131742            1 
   91000    1.2046525   -2.2422236    105.67409  0.096771141   0.11129564            1 
   92000    1.2882666   -2.2593103    107.55878  0.097426427   0.11128854            2 
   93000    1.2209979   -2.2476718    108.63299  0.097341391   0.11130162            1 
   94000    1.2499733   -2.2612594    110.21893  0.097711819   0.11132901            2 
   95000    1.2248654    -2.249818     111.4631  0.097774647   0.11133725            2 
   96000    1.2316739   -2.2220191    112.47945  0.097638408    0.1113514            1 
   97000     1.229925   -2.2373094    113.89518  0.097848095   0.11136586            1 
   98000    1.1994072    -2.213272    115.05195   0.09783329   0.11135847            1 
   99000    1.2229113   -2.2333878    116.27334   0.09787318   0.11134013            1 
  100000    1.2094519   -2.2221022    117.25104  0.097709198   0.11130834            1 
  101000      1.25414   -2.2433068    118.61117  0.097863998    0.1112763            1 
  102000    1.2084956   -2.2476561    120.71208  0.098620977   0.11125882            1 
  103000    1.2292939   -2.2306668    121.44935  0.098259988   0.11124466            2 
  104000    1.2710052   -2.2442177    122.25021    0.0979569   0.11123476            1 
  105000     1.241981   -2.2424271    124.51257  0.098819497   0.11122111            4 
  106000    1.2267363   -2.2426574    125.61673  0.098755287   0.11121564            1 
  107000    1.2586697   -2.2481891    127.75595  0.099498403   0.11121562            3 
  108000     1.219021   -2.2394532    129.28405  0.099756208   0.11122191            1 
  109000    1.2287921   -2.2409267    130.32395  0.099636044   0.11123451            2 
  110000    1.2171499   -2.2300544    131.75336  0.099813154   0.11123596            1 
  111000    1.2130474   -2.2522628    132.38958  0.099391576   0.11125034            1 
  112000    1.2579256    -2.201026    134.50073   0.10007495   0.11126639            2 
  113000    1.2081411     -2.22388    135.20618  0.099709571   0.11127416            2 
  114000    1.1969106    -2.208469    137.74265   0.10068907   0.11128831            1 
  115000    1.2354537   -2.2448375    138.86147   0.10062425   0.11131874            1 
  116000    1.2318862   -2.2522388    139.99668   0.10057233   0.11133941            4 
  117000    1.2409916   -2.2602962    141.95719   0.10110911   0.11136603            1 
  118000    1.2107028    -2.209456    143.19295   0.10112497   0.11140482            1 
  119000    1.2220017    -2.258406    144.18744    0.1009716   0.11144527            1 
  120000    1.2232041   -2.2449693    145.27124   0.10088281   0.11147922            1 
  121000    1.2262939   -2.2133702    147.16001   0.10134987   0.11152996            2 
  122000    1.2464326   -2.2573548    147.59218   0.10081433   0.11157586            1 
  123000    1.2186389   -2.2527249    148.91984    0.1008942   0.11160231            3 
  124000    1.2235409   -2.2167471    150.18767   0.10093257   0.11161631            1 
  125000     1.235786   -2.2592769    151.77248   0.10118166   0.11162856            1 
  126000    1.2672391   -2.2232807    153.35908   0.10142797   0.11165036            1 
  127000    1.1872199   -2.2429895    155.20443   0.10184018   0.11166905            1 
  128000    1.2051199   -2.2554534    155.53286   0.10125837   0.11166758            1 
  129000     1.237445   -2.2541272      157.722   0.10188759    0.1116645            2 
  130000    1.2189399   -2.1984302    158.88236   0.10184767   0.11167489            3 
  131000     1.223527   -2.2273388    160.41111   0.10204269   0.11168349            2 
  132000    1.2275712   -2.2235974    160.25936   0.10117384   0.11168165            3 
  133000    1.2210793   -2.2341475    162.15931   0.10160358    0.1116629            2 
  134000    1.2442245   -2.2473736    162.86519   0.10128432   0.11163599            2 
  135000    1.2257798    -2.235637    163.12068   0.10069177   0.11160579            2 
  136000    1.2218075   -2.2301316     165.9438   0.10168125   0.11156531            2 
  137000     1.226089   -2.2366715    167.43084   0.10184358   0.11155282            1 
  138000    1.2111507   -2.2349444    167.79573   0.10132592   0.11154091            2 
  139000    1.2277121   -2.2268014    169.30613   0.10150248   0.11153511            1 
  140000    1.2329769    -2.239829     171.4381   0.10204649   0.11152946            1 
  141000    1.2402635   -2.3024055    171.86839   0.10157706    0.1115203            1 
  142000    1.2330346   -2.2553207    173.66974   0.10191886   0.11150337            1 
  143000    1.2099329   -2.2304484    175.40822   0.10221924   0.11148773            1 
  144000    1.2442532   -2.2622709    176.00208   0.10185306   0.11147455            1 
  145000    1.2271211   -2.2337122    177.18097   0.10182814   0.11144671            2 
  146000    1.2465903   -2.2384855    178.01792    0.1016084   0.11140806       -1e+20 
  147000    1.2432639   -2.2696696    178.80482   0.10136327   0.11137141            1 
  148000    1.2385222   -2.2667608    180.88472    0.1018495   0.11133513            2 
  149000    1.2659628   -2.2293383    181.91662   0.10174308   0.11130546            1 
  150000    1.2193718   -2.2521672    184.27294   0.10237385   0.11127451            1 
  151000    1.2181344   -2.2593282     184.2163   0.10166463   0.11124126            1 
  152000    1.2457536   -2.2440639    186.41464   0.10220101   0.11120907            1 
  153000    1.2114943   -2.2602472    188.18316   0.10249628   0.11118375            3 
  154000    1.2341429   -2.2383095    189.54867   0.10256963   0.11116103            1 
  155000     1.193761   -2.2304785    190.71619   0.10253558   0.11114137            1 
  156000    1.2453469   -2.2605329    190.71095   0.10187551   0.11112159            1 
  157000     1.241426   -2.2376774    192.88753   0.10238191   0.11110102            1 
  158000     1.243848   -2.2611612    193.81974    0.1022256   0.11107572            1 
  159000    1.2060691   -2.2559698    196.19964      0.10283   0.11104154            1 
  160000    1.2253571   -2.2178002    195.96377   0.10206446   0.11101144            2 
  161000    1.2292645   -2.2479067     197.4192   0.10218385   0.11097441            1 
  162000    1.2197313   -2.2556607    198.58156   0.10215101   0.11093556            1 
  163000    1.2201443   -2.2406932    200.65142   0.10258253   0.11089462            1 
  164000    1.2174645    -2.246133    201.55798   0.10241767   0.11085803            2 
  165000    1.2311049    -2.238121    202.57795    0.1023121   0.11082639            1 
  166000    1.2170504   -2.2384772    204.48685   0.10265404   0.11080197            2 
  167000    1.2188945   -2.2565617    205.86405   0.10272657   0.11078104            2 
  168000    1.2237347   -2.2593478    206.83819   0.10259831   0.11075903            1 
  169000    1.2179382    -2.260871    210.25267   0.10367489   0.11074399       -1e+20 
  170000    1.2040671   -2.2006077    210.09473   0.10298761   0.11072864            3 
  171000    1.2289381   -2.2592994    212.03698   0.10333186   0.11071333            2 
  172000    1.2475566   -2.2628841    212.61123   0.10300932   0.11069587            1 
  173000    1.2227231    -2.244046    213.50395    0.1028439    0.1106687            1 
  174000    1.2146019   -2.2475016    214.07965   0.10252857   0.11064549            1 
  175000    1.2098366   -2.2189924    216.71384   0.10319706   0.11061891            1 
  176000    1.2252994   -2.2530556     217.1274   0.10280653   0.11059643            1 
  177000    1.2322876   -2.2667985    218.10771   0.10268725    0.1105722            1 
  178000     1.217137   -2.2438112    219.40119   0.10271591   0.11054934            1 
  179000    1.2146302   -2.2681272      220.433   0.10262244   0.11052187            2 
  180000    1.2030943   -2.2677129     221.2152   0.10241444   0.11049596            2 
  181000    1.2178726   -2.2459227    224.30564   0.10327147   0.11046684            2 
  182000    1.2394376   -2.2415088    225.05264   0.10304608   0.11044522            1 
  183000     1.235723    -2.230366    225.84883   0.10284555   0.11041901            1 
  184000    1.2466435   -2.2440921    227.15393   0.10287769   0.11039398            2 
  185000    1.2276601    -2.277989    227.87601   0.10264685   0.11036388            2 
  186000    1.2199734   -2.2428703     230.4373   0.10324252   0.11034247       -1e+20 
  187000    1.2449646   -2.2552323     231.6358   0.10322451   0.11031972            2 
  188000    1.2133911   -2.2390704    234.12576   0.10377915   0.11030256            2 
  189000    1.2062289   -2.2357366    234.99013   0.10361117   0.11029256            1 
  190000    1.2240674   -2.2495071    235.24445   0.10317739   0.11028443            2 
  191000     1.237396   -2.2412916    239.62413   0.10454805   0.11028597            1 
  192000    1.2242615   -2.2479267    239.02007   0.10374135   0.11027973            2 
  193000    1.1994714   -2.2620955    239.23152   0.10329513   0.11026394            1 
  194000    1.2075279    -2.261134    239.35564   0.10281599   0.11024562            1 
  195000    1.1999025   -2.2281149    241.06724   0.10302019   0.11021311            1 
  196000     1.237393   -2.2795907    243.62197   0.10358077   0.11018943            2 
  197000    1.2356285   -2.2589196    243.45828   0.10298574   0.11017076            3 
  198000    1.2185963   -2.2742585    244.20723   0.10278082   0.11014333            1 
  199000    1.2004131   -2.2615936    247.19954   0.10351739   0.11011496            2 
  200000    1.2341202   -2.2438018    247.65177   0.10318824   0.11009181            1 
  201000    1.2288104   -2.2747375    248.77083   0.10313882   0.11006265            1 
  202000    1.2023211   -2.2990164     250.1457   0.10319542   0.11004153            1 
  203000    1.2112648   -2.2772542    250.87807   0.10298771   0.11002085            4 
  204000    1.2167751   -2.2765631    252.38283   0.10309756   0.10999811            1 
  205000     1.209932   -2.2453556    253.40874   0.10301168   0.10996819            1 
  206000    1.2084015   -2.2215457    257.78431   0.10428168   0.10995265            1 
  207000    1.2024581   -2.2448022    257.63147   0.10371637   0.10993222            2 
  208000     1.197942   -2.2457999    257.75971   0.10326911   0.10990581            1 
  209000    1.2249618   -2.2502813    258.94502   0.10324761    0.1098826            1 
  210000    1.2265989   -2.2485844    261.28882   0.10368604    0.1098586            3 
  211000     1.219445   -2.2613389    260.88977   0.10303703   0.10983524            3 
  212000    1.1851454   -2.2592806    263.51956   0.10358473   0.10980965            1 
  213000    1.2307457   -2.2744084    265.83274   0.10400342   0.10979532            2 
  214000    1.2399012   -2.2286952    266.03931   0.10359786   0.10978772            1 
  215000    1.2395377   -2.2668447    268.20921   0.10395706   0.10977817            3 
  216000    1.2312128   -2.2913745    268.54135   0.10360392   0.10976566            2 
  217000    1.2235716   -2.2631456    268.59847   0.10314842   0.10974664            3 
  218000    1.2027053   -2.2675635    270.75892   0.10350112   0.10972894            1 
  219000     1.246987   -2.2479893    272.81692   0.10381161   0.10971448            3 
  220000     1.215444   -2.2559307    273.41375   0.10356582   0.10969637            6 
  221000     1.234778   -2.2750775    276.02942   0.10408349   0.10967784            1 
  222000    1.2385495   -2.2549213    275.08921   0.10326171   0.10965731            2 
  223000    1.2059595    -2.282075    278.12968   0.10393486   0.10963337            1 
  224000    1.2147888   -2.2769615    278.06547   0.10344697   0.10961227            1 
  225000    1.2325547   -2.2649399    279.94624   0.10368379   0.10958942            2 
  226000    1.1891405   -2.2559736    280.58182   0.10345937   0.10956864            1 
  227000    1.1945211   -2.2470926    282.15395   0.10358075   0.10954378            1 
  228000       1.2351    -2.301511    281.96275   0.10305656   0.10951245            2 
  229000    1.2422448   -2.2639174    284.65351    0.1035857   0.10948594            1 
  230000    1.2102256   -2.2544821    284.49069   0.10307634   0.10945731            2 
  231000     1.226523   -2.2452668    285.94715   0.10315554   0.10942546            1 
  232000    1.2045856   -2.2493062    289.22436   0.10388806   0.10938973            1 
  233000    1.1934726    -2.265631    286.66285   0.10252605   0.10935853            1 
  234000    1.1934141   -2.2841985    289.45591   0.10308259   0.10931825            1 
  235000    1.1928063   -2.2743642    291.67404   0.10343051    0.1092838            1 
  236000    1.2178094   -2.2373663    293.74032   0.10372187   0.10925121            1 
  237000    1.2251729   -2.2996671    292.71238   0.10292278   0.10922048            1 
  238000    1.2077776   -2.2697301    296.39539    0.1037799   0.10919115            2 
  239000    1.2128523   -2.2385475    296.79699    0.1034857    0.1091622            1 
  240000    1.2280853   -2.2530183    297.91097   0.10344131   0.10913798            2 
  241000    1.2501505   -2.2599611     299.3912   0.10352393   0.10910912            3 
  242000    1.2020318   -2.2798563    299.98454   0.10330046   0.10908111            5 
  243000    1.2153237   -2.2302543    302.10337   0.10360198   0.10905239            1 
  244000    1.2220784   -2.2709238    303.46115    0.1036411   0.10902483            1 
  245000    1.2313647   -2.2470538    303.85155   0.10335087   0.10899869            2 
  246000    1.2333861   -2.2542795    305.85979   0.10361104   0.10897119            2 
  247000    1.2140537   -2.2760621    305.90162   0.10320568   0.10894689            1 
  248000    1.2375458   -2.3012453    307.45912   0.10331288   0.10891557            3 
  249000    1.2048055   -2.2819209    308.15754   0.10313171   0.10889193            2 
  250000    1.2335021   -2.2419828    312.80793   0.10426931   0.10886578            2 
  251000     1.201413   -2.2563859    311.65855   0.10347229   0.10883921            2 
  252000     1.199462   -2.2610999    312.40456   0.10330839   0.10880985            1 
  253000    1.1997848   -2.2660889    314.99827   0.10375437   0.10878693            4 
  254000    1.2176317   -2.2425811    316.24686   0.10375553   0.10876599            1 
  255000    1.2134656   -2.2986245    316.27219   0.10335692   0.10874898            1 
  256000    1.2207489   -2.2843779    317.56413   0.10337374   0.10872794            1 
  257000    1.2146898   -2.2625316     320.5425   0.10393726   0.10870559            1 
  258000    1.2203723   -2.2658033    321.05339   0.10369941    0.1086888            1 
  259000    1.1999412    -2.267866     321.7246   0.10351499   0.10866816            1 
  260000    1.2298227   -2.2603924     324.0715   0.10386907   0.10865135            1 
  261000    1.1973972   -2.2686652    324.60001   0.10363985    0.1086348            1 
  262000    1.2081781   -2.2660755    326.85956   0.10396296   0.10862111            1 
  263000    1.1791665   -2.2794464    328.59306   0.10411694   0.10861371            3 
  264000    1.1821034     -2.28638    329.63983   0.10405298   0.10860828            2 
  265000    1.2131433   -2.2864101    331.09601   0.10411824   0.10860077            1 
  266000    1.2056599   -2.2595698    333.03646   0.10433473   0.10859487            2 
  267000    1.2243056   -2.2555584    334.24122   0.10431998   0.10858408            2 
  268000    1.2038015   -2.2130851    335.23378   0.10423936   0.10857513            2 
  269000    1.2235867   -2.2428156    335.83046    0.1040367   0.10856324            1 
  270000    1.2049742   -2.2582768    337.82382   0.10426661   0.10855142            3 
  271000    1.2274372   -2.2318143     338.1401   0.10397912     0.108541            1 
  272000    1.2009775   -2.2783722    342.79977   0.10502444   0.10853525            1 
  273000    1.1943957   -2.2623422    343.57382   0.10487601   0.10853681            1 
  274000    1.1914299   -2.2771527    343.40768   0.10444273   0.10853751            1 
  275000    1.2229523   -2.2448962    347.31035   0.10524556   0.10853585            1 
  276000    1.2225424   -2.2708121    346.62359   0.10465688   0.10853902            1 
  277000    1.2185131   -2.2670195    347.87477   0.10465547   0.10854548            1 
  278000    1.2176342   -2.2722206    349.74864   0.10484072   0.10854566            2 
  279000    1.2074909   -2.2857438    349.82275   0.10448708   0.10854833            1 
  280000    1.1852493   -2.2819053     352.2589   0.10483896   0.10855338            1 
  281000    1.1968637   -2.2597144    352.18533   0.10444405   0.10855492            1 
  282000    1.2198747   -2.2945655    354.33958   0.10471028   0.10855667            1 
  283000    1.2122439   -2.2841657    355.55471   0.10469809    0.1085576            2 
  284000    1.2262688   -2.2576477    356.94002   0.10473592   0.10855248            1 
  285000    1.2227126   -2.2450374    357.34513   0.10448688   0.10854439            3 
  286000    1.1857712   -2.2500294    360.32869   0.10499088   0.10854483            2 
  287000     1.196815   -2.2698546    360.19267   0.10458556   0.10854217            2 
  288000    1.2136681   -2.2444432    362.40206   0.10486171   0.10853887            1 
  289000    1.1805603    -2.262656    360.60615   0.10398101   0.10853492            3 
  290000    1.2055352   -2.2759996    362.63809   0.10420635   0.10852813            1 
  291000    1.2287061    -2.277816    365.16537   0.10457198   0.10851988            1 
  292000    1.1763855    -2.291486    365.33001   0.10426085   0.10850994            2 
  293000    1.2322979   -2.2782649    364.23346   0.10359313   0.10849962            2 
  294000     1.211328   -2.2753944    370.03378   0.10488486   0.10848918            1 
  295000    1.2114021   -2.2629021    368.05597   0.10397061    0.1084807            1 
  296000    1.2097347   -2.2824244    373.54117   0.10516362    0.1084758            1 
  297000    1.2145405   -2.2829982    371.95012   0.10436311    0.1084732            3 
  298000    1.2059172   -2.2442681    373.41179   0.10442164   0.10846347            3 
  299000    1.1869666   -2.2588919    375.71907   0.10471546   0.10845641            1 
  300000    1.1930536    -2.274893    378.07432   0.10502064   0.10845405            1 
  301000    1.2211023   -2.2947927    377.18779    0.1044263   0.10845073            2 
  302000    1.2237951   -2.2534652    379.38397   0.10468653   0.10844238            1 
  303000    1.1991766   -2.2606368    383.60411   0.10550168   0.10844481            1 
  304000    1.1867439   -2.2683342    382.53297   0.10486101   0.10844547            4 
  305000    1.2037897   -2.2700607    382.84347   0.10460204   0.10844006            1 
  306000    1.2149056   -2.2889749    383.52625   0.10444615    0.1084337            2 
  307000    1.2184969   -2.2976738    384.60298    0.1043982   0.10842757            2 
  308000    1.1857095   -2.2713717    387.63892   0.10488066   0.10842104            1 
  309000    1.2142416   -2.2844252     387.0046   0.10437017   0.10840897            2 
  310000    1.1967181   -2.2635405    387.20913   0.10408848   0.10839788            1 
  311000    1.1804279   -2.2493485    390.16521   0.10454587   0.10838735            1 
  312000     1.190341   -2.2761093    389.72836   0.10409411   0.10837035            2 
  313000    1.2312519   -2.2894205    390.43837   0.10395058   0.10835137            1 
  314000    1.1990438   -2.2800485    392.11685   0.10406498   0.10833167            2 
  315000    1.1854558   -2.2957996    392.10962    0.1037327    0.1083096            1 
  316000    1.1924651   -2.3080144    394.03662   0.10391261   0.10828372            2 
  317000    1.1955042    -2.260596     393.2785   0.10338551   0.10826178            2 
  318000     1.164835   -2.2675832    397.25439    0.1041023   0.10823887            1 
  319000    1.2008138   -2.2647024    398.68808   0.10415049    0.1082164            1 
  320000    1.1984579   -2.2737727    399.25016    0.1039714   0.10819505            1 
  321000    1.2313675   -2.2872227     398.6544   0.10349283   0.10817204            2 
  322000    1.2186542   -2.2844334    400.49681   0.10364824    0.1081451            2 
  323000    1.2076376   -2.2659096    400.79842   0.10340516   0.10811333            1 
  324000    1.2047463   -2.2669998    402.56592   0.10354062   0.10808581            1 
  325000    1.2101316   -2.2849876    402.34124   0.10316442   0.10806122            2 
  326000    1.1952681   -2.2626766    405.26737   0.10359595   0.10803189            3 
  327000    1.2045699   -2.2665846    405.64662    0.1033758   0.10800238            1 
  328000     1.196975   -2.2790964    406.88267   0.10337466   0.10797554            1 
  329000    1.2065949   -2.2475118    408.64433   0.10350667   0.10794504            1 
  330000    1.1829105   -2.2966091    408.91481   0.10326131   0.10791506            3 
  331000    1.1887457   -2.2479062    409.67591   0.10314096   0.10789039            3 
  332000    1.1771599   -2.2894946    411.54717   0.10329999   0.10786014            4 
  333000    1.2162634   -2.2822879    413.59452   0.10350213   0.10782917            1 
  334000    1.2169508   -2.2873517    412.45806    0.1029087   0.10779691            1 
  335000     1.190286   -2.2689125    414.21033   0.10303739   0.10776296            1 
  336000    1.1791333   -2.2608842    415.13797   0.10296081   0.10773234            1 
  337000    1.1847261   -2.2617553    417.44309   0.10322529   0.10770129            1 
  338000    1.1949642   -2.2664496     417.6654    0.1029747   0.10766851            1 
  339000    1.1908472   -2.2637596    419.57056   0.10313927   0.10763643            2 
  340000    1.1882074   -2.2860439    418.95103   0.10268408   0.10760379            1 
  341000    1.1999028   -2.2676159     422.6315   0.10328238   0.10757379            3 
  342000    1.1561833   -2.2566583    423.78164   0.10326063   0.10754259            2 
  343000    1.1863922   -2.2691543    424.15054   0.10304921   0.10751323            2 
  344000    1.1852772   -2.2922329     425.0181   0.10295981    0.1074833            2 
  345000    1.1978728   -2.2883661     427.4035   0.10323756   0.10745567            1 
  346000    1.2065696   -2.2724157    427.90959   0.10306108   0.10742577            1 
  347000     1.198955   -2.2827137    429.51935   0.10315066   0.10739561            2 
  348000    1.1792044   -2.2654462    430.37444   0.10305901   0.10736758            2 
  349000    1.1955439    -2.265571    431.92455   0.10313385   0.10733785            2 
  350000    1.1923432   -2.2500466    432.12627   0.10288721   0.10730857       -1e+20 
  351000    1.2112185   -2.3025183    432.20856   0.10261362    0.1072775            1 
  352000    1.1758262   -2.2859888    437.12745   0.10348661   0.10724912            2 
  353000    1.1919006   -2.2455996    436.76117   0.10310698   0.10722524            1 
  354000    1.1849372   -2.2820396    440.62884   0.10372619   0.10720307            1 
  355000    1.2009858   -2.2723661    440.57726   0.10342189   0.10717926            1 
  356000     1.206559   -2.2663305    441.35678   0.10331385   0.10715703            3 
  357000     1.194289   -2.2846761    441.05692   0.10295446   0.10713434            2 
  358000    1.2125551   -2.2944991    441.25595   0.10271321   0.10710997            3 
  359000    1.2293645   -2.2981544    443.43954   0.10293397    0.1070836            2 
  360000    1.1991046   -2.2810848     444.9945   0.10300799   0.10705486            2 
  361000    1.1934772   -2.3029415    444.20403   0.10254017   0.10702318            1 
  362000    1.1867625   -2.2707535    446.24577   0.10272693   0.10699438            2 
  363000    1.2156235   -2.2704975    449.08808   0.10309644   0.10696565            2 
  364000    1.1696469   -2.2718774     451.6771   0.10340593    0.1069379            2 
  365000    1.1990049   -2.2728191    449.96286   0.10273125   0.10690881            2 
  366000    1.1836484   -2.2973413    453.55501   0.10326844   0.10688141            2 
  367000    1.1818283   -2.2800428    454.61733   0.10322828   0.10685566            1 
  368000    1.1905223   -2.2911789    453.60443   0.10271839   0.10683137            2 
  369000    1.2031027   -2.2914475     453.2021   0.10234916   0.10680586            4 
  370000     1.207625   -2.2836917    456.42468   0.10279835   0.10677926            1 
  371000    1.1903078   -2.3040083    454.91736    0.1021827   0.10675331            2 
  372000    1.1938545   -2.2622801    458.45329   0.10270011   0.10672609            1 
  373000     1.222323   -2.2748314    461.47699   0.10310031   0.10669857            2 
  374000    1.2095498   -2.2759487    461.32548   0.10279088   0.10666959            1 
  375000    1.1877325   -2.2735605    463.27812   0.10295069   0.10663822            4 
  376000    1.2138481   -2.2579029    464.57431   0.10296416   0.10660931            1 
  377000    1.2010472   -2.2635449    464.49596   0.10267373    0.1065807            3 
  378000    1.1973925   -2.2892109    465.46328   0.10261536   0.10655056            2 
  379000    1.1903366   -2.2769528    466.31757   0.10253245   0.10652216            1 
  380000    1.1804384    -2.303285    468.88171   0.10282494   0.10649349            1 
  381000    1.1991543   -2.2521838    470.30444   0.10286624   0.10646401            2 
  382000    1.1659047   -2.2887356    469.44399   0.10240925    0.1064354            2 
  383000    1.1938319   -2.2448349    470.16048   0.10229775   0.10640576            1 
  384000    1.2104809   -2.2536279    474.75973   0.10302946   0.10637549            1 
  385000    1.2287018   -2.2665352     473.8387   0.10256249   0.10634811            1 
  386000    1.1762477   -2.2748898    474.60914   0.10246311   0.10632165            1 
  387000    1.2085054   -2.2983998    475.47399   0.10238458   0.10629342            1 
  388000    1.1893922   -2.2723119    477.06681    0.1024628   0.10626546            2 
  389000    1.1827001   -2.3040927    476.84092   0.10215101   0.10623413            1 
  390000    1.2062898   -2.2880187    479.05339   0.10236184   0.10620144            2 
  391000    1.1942028   -2.2526633     480.8752   0.10248832   0.10617053            2 
  392000    1.2014176   -2.2742589    482.29492   0.10252868    0.1061385            3 
  393000    1.1722433   -2.2870012    481.83219   0.10216967    0.1061044            2 
  394000    1.1704381   -2.2860655    481.82335   0.10190849   0.10606883            1 
  395000    1.2009476   -2.3121672    480.02283   0.10127064   0.10603271            1 
  396000    1.1939397   -2.2652866    483.93697   0.10183859   0.10599787            1 
  397000    1.1770708   -2.3117233    486.22354   0.10206204   0.10596222            2 
  398000    1.1857014   -2.2887091    486.90916   0.10194915   0.10592796            1 
  399000     1.200979   -2.2582931    487.89647   0.10189985   0.10589417            2 
  400000    1.1796668   -2.2850515    489.76902   0.10203521   0.10586175            3 
  401000    1.1959055   -2.2706673    489.06348   0.10163414    0.1058261            1 
  402000    1.1654919   -2.2655313     492.4191   0.10207693   0.10579462            1 
  403000    1.1669426   -2.2720226    492.48392   0.10183704   0.10575986            2 
  404000    1.2250939   -2.3099261    492.57453   0.10160366    0.1057231            1 
  405000    1.1903075    -2.264205    495.57301   0.10196976   0.10569073            2 
  406000    1.1644278   -2.2769604    495.30321   0.10166322   0.10565754            1 
  407000    1.1715906   -2.2996532    496.74101   0.10170782   0.10562724            2 
  408000    1.1769505   -2.2830693    499.49173   0.10202037   0.10559502            1 
  409000     1.187141   -2.2900623    497.40347   0.10134545   0.10556105            1 
  410000    1.1828319    -2.284049    502.38881   0.10211155   0.10552772            1 
  411000    1.2039539   -2.2935275    498.94371   0.10116458   0.10549263            2 
  412000    1.1789131   -2.2946959    502.15462   0.10156849   0.10545814            1 
  413000    1.1749965   -2.2893393    501.71933   0.10123473   0.10542159            2 
  414000     1.194989   -2.2697505    506.22144   0.10189643   0.10538605            1 
  415000    1.1816627   -2.2884828    506.83784   0.10177467    0.1053508            1 
  416000    1.2161744   -2.2784032    505.84488   0.10133111   0.10531618            1 
  417000    1.1973371   -2.2973874    507.66404   0.10145165   0.10528186            1 
  418000    1.2037127   -2.3006373    508.85891   0.10144715   0.10524681            1 
  419000    1.1693214   -2.2989534    509.53153   0.10133881   0.10521235            1 
  420000    1.1890026   -2.3054568    514.83623   0.10215005   0.10518211            2 
  421000    1.1568806   -2.2761925    515.06745   0.10195318   0.10515329            3 
  422000    1.1876253   -2.3002533    514.06272   0.10151317   0.10512362            2 
  423000    1.1718999    -2.292301    512.91521   0.10104713   0.10509084            1 
  424000    1.2148364    -2.305371    514.88032   0.10119503    0.1050551            3 
  425000    1.1628083   -2.3063898    515.01015   0.10098238   0.10501963            1 
  426000    1.1700734   -2.2916114    517.70893   0.10127326   0.10498623            2 
  427000    1.1817882   -2.3158185    519.55552   0.10139647   0.10495603            1 
  428000    1.1777898    -2.283476    521.27266    0.1014939     0.104923            1 
  429000    1.1558468   -2.2951822    521.51887   0.10130514   0.10489165            2 
  430000    1.1942046   -2.2713021    523.96068   0.10154277   0.10485676            1 
  431000    1.1903804   -2.2755467    526.25694   0.10175115   0.10482559            2 
  432000    1.1881022   -2.3090905    522.88601   0.10086536   0.10479366            1 
  433000    1.2148053   -2.2863271    529.33469    0.1018735   0.10476383            1 
  434000    1.1901939   -2.2817711    528.70725   0.10151829   0.10473442            4 
  435000    1.1844211   -2.3020284    528.87114   0.10131631   0.10470704            3 
  436000    1.1823991   -2.2905412    532.04466   0.10169049   0.10467476            1 
  437000    1.1921323   -2.3102792    529.04007   0.10088483   0.10464479            3 
  438000    1.1830827   -2.2845161    531.56234   0.10113439   0.10461495            1 
  439000    1.1734445    -2.268344    533.50517   0.10127281   0.10458538            2 
  440000    1.1727357     -2.28654    535.84867   0.10148649   0.10455752            4 
  441000    1.1766553    -2.305291    537.09959   0.10149274   0.10452782            1 
  442000    1.1895034   -2.2991083    535.46211   0.10095439   0.10449875            1 
  443000    1.1592838   -2.2667358    542.46489   0.10204381    0.1044709            1 
  444000    1.2041654   -2.2806146    538.73744   0.10111438   0.10444336            2 
  445000    1.1965492   -2.3107014    540.14041   0.10114989   0.10441544            5 
  446000     1.174113   -2.3035686    543.40029   0.10153219    0.1043891            1 
  447000    1.1842779   -2.2999353    541.39595   0.10093139   0.10435921            3 
  448000    1.1613158   -2.3019631    544.35613   0.10125672   0.10433363            2 
  449000    1.1721647   -2.2831556    544.72367   0.10109942   0.10430651            5 
  450000    1.1884975   -2.2985499     545.0009   0.10092609   0.10427957            1 
  451000    1.1673415   -2.2911986    547.09343   0.10108896   0.10425016            2 
  452000    1.1891374   -2.3192201    549.03586   0.10122343   0.10422318            1 
  453000    1.1702073   -2.2699787    551.45073   0.10144421   0.10419741            1 
  454000    1.1496089   -2.2801425    550.78678   0.10109889   0.10417046            1 
  455000    1.1711469   -2.2973693    549.93108   0.10071998   0.10413996            2 
  456000    1.1813569   -2.2775545    551.71433   0.10082499   0.10411082            2 
  457000    1.1852699    -2.290719    552.48747   0.10074534   0.10408286            1 
  458000    1.1684549    -2.313512    556.31222   0.10122129   0.10405411            1 
  459000    1.1688412   -2.3120001    556.65015   0.10106212   0.10402621            2 
  460000    1.1556063   -2.2845594     560.7055   0.10157708   0.10399901            1 
  461000    1.1639039   -2.2977416    560.37085   0.10129625    0.1039725            2 
  462000     1.180981   -2.2995913    560.05078   0.10101926   0.10394587            3 
  463000    1.1962155   -2.3153935    560.57754   0.10089588   0.10392028            1 
  464000    1.1683717   -2.2895435    561.22316   0.10079439   0.10389321            2 
  465000    1.1758231   -2.2948468    564.67803   0.10119678   0.10386819            2 
  466000    1.1823321   -2.2979264    561.22574   0.10036226   0.10384298            1 
  467000    1.1958804   -2.3294578    564.85467   0.10079491   0.10381577            1 
  468000    1.1975108   -2.3252228    567.03109   0.10096707   0.10378825            3 
  469000    1.1711065   -2.2944641    571.30286   0.10151081   0.10376204            2 
  470000    1.2002278   -2.3096017    567.53919   0.10062752   0.10373711            1 
  471000    1.1793093   -2.3062753    571.84198   0.10117516   0.10371392            2 
  472000    1.1720698    -2.322631    572.68857   0.10111027   0.10369263            1 
  473000    1.1886855   -2.2618682    577.25479   0.10170099   0.10367239            1 
  474000    1.1699489   -2.2838763     579.0553   0.10180297   0.10365142            3 
  475000     1.150747   -2.2892494    576.57319   0.10115319   0.10363007            2 
  476000    1.1680086    -2.305276    572.44348    0.1002177   0.10360732            1 
  477000    1.1856188   -2.2617413      581.384   0.10156953   0.10358568            3 
  478000    1.1694206   -2.3242045    577.28052   0.10064165   0.10356358            3 
  479000    1.1828182   -2.3077875    580.27324    0.1009522   0.10354081            1 
  480000    1.1964778    -2.284183    579.11904    0.1005415   0.10351718            1 
  481000    1.1540802   -2.2989258    580.85867   0.10063386    0.1034921            3 
  482000    1.1698519   -2.2939318    582.22436    0.1006612     0.103468            1 
  483000    1.1876028   -2.2839052    581.59841   0.10034479   0.10344335            1 
  484000    1.1832166    -2.286108     587.2171   0.10110487   0.10341762            1 
  485000    1.1701735   -2.2784845    586.21065   0.10072348   0.10339387            2 
  486000    1.1701122   -2.3020643    589.05816   0.10100449   0.10336843            2 
  487000    1.1825613   -2.3110613    587.13668   0.10046829   0.10334395            1 
  488000    1.1903826   -2.3347732    585.75595   0.10002663   0.10331926            2 
  489000    1.1654352   -2.2777394    593.35401   0.10111691   0.10329513            5 
  490000    1.2096801      -2.2869    596.29887   0.10141137   0.10327412            1 
  491000      1.17223    -2.276671    596.38228   0.10121899   0.10325256            1 
  492000    1.1903052     -2.30552    595.84199   0.10092175   0.10323169            2 
  493000    1.1681049   -2.3058998    594.53441   0.10049601   0.10320887            1 
  494000    1.1632697   -2.3047519    600.05999   0.10122469   0.10318788            1 
  495000    1.1852988   -2.2894204    599.54522   0.10093354   0.10316859            2 
  496000    1.1809103   -2.2737047    598.85266   0.10061369   0.10315096            1 
  497000    1.1801508   -2.3097334     601.9789   0.10093543   0.10313562            1 
  498000     1.170539   -2.3226272    602.23772   0.10077606   0.10311789            2 
  499000    1.1752105   -2.2847404     605.4637   0.10111284   0.10309977            1 
  500000    1.1652914   -2.3322271    607.16827   0.10119471   0.10308241            1 
  501000    1.1780807   -2.3230767    606.35122   0.10085682   0.10306469            2 
  502000    1.1408451   -2.2762619    610.06911   0.10127309   0.10304856            2 
  503000    1.1771903    -2.314073    609.26145   0.10093795   0.10303003            2 
  504000    1.1814024   -2.3012814    610.63794   0.10096527   0.10301337            2 
  505000    1.1986041   -2.3137131    611.88254   0.10097072   0.10299912            1 
  506000    1.1743274   -2.2934177    617.19016   0.10164528   0.10298404            2 
  507000    1.1737753    -2.298429     616.3333   0.10130396   0.10297112            1 
  508000    1.1914213   -2.3024671    617.31158   0.10126502   0.10295961            1 
  509000    1.1758392   -2.2798335     619.3661   0.10140244   0.10294652            2 
  510000    1.1609694   -2.2993997    616.94314    0.1008077   0.10293137            1 
  511000    1.1677096    -2.296223    620.55461   0.10119938    0.1029151            2 
  512000    1.1875717   -2.3301298    622.99184   0.10139841   0.10289938            1 
  513000    1.1848488   -2.2983494    620.08607   0.10072873   0.10288153            1 
  514000    1.1716315   -2.3137325     623.0772    0.1010177   0.10286448            2 
  515000    1.1589579   -2.3111009     621.3692   0.10054518   0.10284474            1 
  516000    1.1676568   -2.2994295    618.60153  0.099903348   0.10282441            1 
  517000    1.1560731   -2.3115362    624.12936   0.10060112   0.10280105            1 
  518000    1.1841551   -2.2873446    620.58305  0.099836398   0.10277636            1 
  519000    1.1466879   -2.2902465    627.29838   0.10072228   0.10275504            1 
  520000    1.1786895   -2.3094601      625.944   0.10031154   0.10273411            1 
  521000    1.1457351   -2.2877156    629.62191   0.10070728   0.10271151            1 
  522000    1.1802771   -2.3003954    632.34695   0.10094939   0.10269309            2 
  523000    1.1681413    -2.302903    631.50303    0.1006219   0.10267235            2 
  524000     1.162783   -2.3115469    633.43186   0.10073662   0.10265302            2 
  525000    1.1651018    -2.313536    630.74224   0.10011782   0.10263309            6 
  526000    1.1667883   -2.3308458    632.73916   0.10024385   0.10261047            2 
  527000    1.1898713   -2.3334349    634.18979   0.10028302   0.10258745            1 
  528000    1.1703736   -2.3089228    636.87341   0.10051664   0.10256489            2 
  529000    1.1762602   -2.3197935    636.66336   0.10029353   0.10254273            1 
  530000    1.1636866   -2.3073499    637.90552   0.10029961   0.10251888            2 
  531000    1.1859747   -2.2804341    637.95598   0.10011864   0.10249558            2 
  532000    1.1769299   -2.3240429    636.83494  0.099754847   0.10247189            4 
  533000    1.1728838   -2.2967265    637.62854  0.099691767   0.10244501            2 
  534000    1.1625471   -2.3206143    638.84383  0.099694729   0.10241598            1 
  535000    1.1678009    -2.317588    642.02491   0.10000388   0.10238799            2 
  536000     1.148523    -2.293852    640.88269  0.099639722    0.1023602            1 
  537000    1.1452387   -2.2991718    644.29209  0.099983253    0.1023346            1 
  538000    1.1648386    -2.305113    642.66865   0.09954595   0.10230885            2 
  539000    1.1887821   -2.3384946    644.99408  0.099720792   0.10228135            1 
  540000    1.1813147   -2.3054696    647.02162  0.099849015   0.10225405            1 
  541000    1.1954304   -2.3086066    644.69459  0.099306005   0.10222776            1 
  542000    1.1781813   -2.2936812    649.97468  0.099934606   0.10220314            1 
  543000    1.1728145   -2.3172123    649.61897  0.099695974   0.10217795            1 
  544000    1.1910757   -2.2872536    653.94524   0.10017543   0.10215302            1 
  545000    1.1704817   -2.3231886    651.60437  0.099633696   0.10212767            1 
  546000    1.1420426   -2.3191101    651.52517  0.099439128   0.10210129            2 
  547000    1.1421781   -2.2886618    656.39123  0.099998664   0.10207672            1 
  548000    1.1808776   -2.2861057    654.76858  0.099569432   0.10205116            1 
  549000    1.1670514   -2.3184401    652.60037  0.099058951    0.1020247            2 
  550000     1.168361    -2.313797    655.32975  0.099292387   0.10199825            1 
  551000    1.1839774   -2.3159931     654.9469  0.099054281   0.10197132       -1e+20 
  552000    1.1605452    -2.352637    656.27343  0.099075094   0.10194476            2 
  553000    1.1425443   -2.3272972    659.57215  0.099393031     0.101918            1 
  554000    1.1723326   -2.3098595    662.14838   0.09960114   0.10189289            2 
  555000     1.141913   -2.3063323    659.16691  0.098974011   0.10186795            1 
  556000    1.1648135   -2.3119071    663.26012   0.09940949   0.10184063            3 
  557000    1.1910957   -2.3229442    661.39739  0.098952333   0.10181249            2 
  558000    1.1525409   -2.2999222    663.97857  0.099160479   0.10178405            3 
  559000    1.1708225   -2.3262702    664.63491  0.099080934   0.10175515            4 
  560000    1.1252371   -2.3109987     664.2879  0.098852366   0.10172748            2 
  561000    1.1548472   -2.3253931    665.97429  0.098926661   0.10170025            2 
  562000    1.1510499   -2.3246281    668.73503  0.099159998   0.10167377            2 
  563000    1.1701038   -2.2985308    668.87925  0.099005218   0.10164563            1 
  564000    1.1337361   -2.3126772     669.4049  0.098907343   0.10161895            2 
  565000    1.1592638   -2.3056943    671.75762  0.099079295   0.10159365            1 
  566000     1.156886   -2.2956976    674.49649  0.099307493   0.10156836            1 
  567000    1.1580749   -2.3396112    672.76034  0.098877181    0.1015417            2 
  568000     1.160941   -2.3253305    679.99881  0.099765084   0.10151725            3 
  569000    1.1819282   -2.3082052    674.98673  0.098855701   0.10149498            1 
  570000    1.1667924   -2.3226706    679.92486  0.099404219   0.10147256            2 
  571000     1.162259   -2.3061235    679.20444  0.099124992   0.10144882            1 
  572000    1.1294453   -2.2874387    682.48144  0.099429115   0.10142504            1 
  573000    1.1767456   -2.2961585    680.14088  0.098915195   0.10140132            1 
  574000    1.1795697   -2.3171249    682.73715  0.099119795   0.10137834            2 
  575000    1.1620306   -2.3150241     685.0711  0.099285667   0.10135692            1 
  576000    1.1623766   -2.2984811    689.24616  0.099717326   0.10133414            2 
  577000    1.1637839   -2.3043513    689.32989  0.099556599   0.10131158            4 
  578000    1.1620967   -2.2968787    686.39583  0.098961336    0.1012893            1 
  579000    1.1922232   -2.3054262    687.31334  0.098922472   0.10126754            1 
  580000     1.156318   -2.3579406    689.07402  0.099004888   0.10124565            3 
  581000    1.1390134   -2.3110462     696.2539    0.0998643   0.10122421            1 
  582000    1.1395288   -2.3043288    695.38269  0.099567968   0.10120476            2 
  583000    1.1563995   -2.3269133    694.67737  0.099296366   0.10118398            2 
  584000    1.1708991   -2.3375337     694.0138  0.099031649   0.10116386            1 
  585000    1.1491457   -2.3031825    700.84335  0.099835235   0.10114419            2 
  586000    1.1894047   -2.2869136    696.09824  0.098990079   0.10112502            1 
  587000      1.17045   -2.2914827    701.63172  0.099607001   0.10110556            2 
  588000    1.1682334    -2.323843    700.58238  0.099288886   0.10108645            1 
  589000       1.1577   -2.2834397    700.46687  0.099103971   0.10106671            1 
  590000    1.1749399   -2.3090963    704.41803  0.099494072   0.10104676            1 
  591000    1.1752776   -2.3247011    703.44311  0.099188256     0.101026            2 
  592000    1.1492696   -2.3026697    709.16695  0.099826429   0.10100683            1 
  593000    1.1551573   -2.3063144    707.28981  0.099394295   0.10098706            2 
  594000     1.140639   -2.3026859    707.72764   0.09928839   0.10096805            1 
  595000    1.1550332   -2.3176509    711.47272  0.099646038   0.10094829            1 
  596000    1.1618799   -2.3100155    712.36528  0.099603646   0.10092877       -1e+20 
  597000    1.1726044   -2.3308715    711.44203  0.099307932   0.10090991            3 
  598000    1.1395728   -2.3290096    712.15084  0.099240641   0.10089046            2 
  599000    1.1545911   -2.3160714    714.50945  0.099403095   0.10087189            1 
  600000    1.1621868   -2.3360662    712.02931   0.09889296   0.10085312            1 
  601000    1.1647668   -2.3211257    718.07691  0.099566959   0.10083468            1 
  602000    1.1586207   -2.3441913    718.87455  0.099511981   0.10081661            1 
  603000    1.1609106   -2.3134774    718.27921  0.099264678   0.10079859            1 
  604000    1.1565151   -2.3179068     718.5737  0.099140963   0.10078148            3 
  605000    1.1689243   -2.3338961    719.93149  0.099164117   0.10076176            1 
  606000    1.1537123   -2.3057207    719.34734  0.098920151   0.10074309            1 
  607000    1.1538197    -2.317191    722.63911  0.099209103   0.10072678            1 
  608000    1.1691461   -2.3285831     721.9222  0.098947671   0.10070951            1 
  609000    1.1577574   -2.3127426    724.86963   0.09918851   0.10069114            2 
  610000    1.1418416   -2.3436515    727.08042  0.099327926     0.100673            1 
  611000    1.1588014   -2.2906747     730.2566  0.099598555   0.10065457            1 
  612000    1.1677743   -2.2922115    731.22364  0.099567489   0.10063771            4 
  613000    1.1488189    -2.345506    727.86042  0.098947855   0.10062034            1 
  614000    1.1370418   -2.3223702    729.96562  0.099072424   0.10060193            1 
  615000    1.1589859   -2.2948309    731.36985  0.099101606   0.10058409            1 
  616000    1.1604032    -2.310204    733.56736  0.099238009   0.10056786            1 
  617000     1.172302   -2.3121766    733.94619  0.099128335   0.10054864            1 
  618000    1.1599472   -2.3365195    735.78239  0.099215533    0.1005303            3 
  619000    1.1805158   -2.3215437    735.99275  0.099083569    0.1005136            1 
  620000    1.1720802   -2.2960901    733.30841  0.098562958   0.10049633            2 
  621000    1.1407102   -2.3145513    740.08992  0.099314268    0.1004761            4 
  622000    1.1472614   -2.3367962    736.51707   0.09867592    0.1004578            3 
  623000    1.1370447   -2.3010232    739.97232  0.098979711   0.10043941            1 
  624000    1.1714557   -2.3225862    740.96355  0.098953466   0.10042163            1 
  625000    1.1389219   -2.3230769    742.22564  0.098963419   0.10040417            1 
  626000    1.1374875   -2.3131905    740.75481  0.098609532   0.10038669            1 
  627000    1.1532626   -2.3146913    743.06609  0.098759449   0.10036858            1 
  628000    1.1528298   -2.3188603    747.81303   0.09923209   0.10035021            3 
  629000    1.1749211    -2.321622    746.87254  0.098949728   0.10033209            2 
  630000    1.1567437   -2.3367552    745.77203  0.098647094   0.10031347            1 
  631000    1.1316131   -2.3368239    746.31983  0.098563105   0.10029451            1 
  632000     1.164712   -2.3326435    746.82863  0.098474239    0.1002764            3 
  633000    1.1460344   -2.3123441    753.46973  0.099192961   0.10025913            3 
  634000    1.1551089   -2.3090012    752.94789  0.098967914   0.10024131            1 
  635000    1.1406637   -2.3271119    750.44839   0.09848404    0.1002234            3 
  636000    1.1450879   -2.3436035    751.53068  0.098471001   0.10020527            2 
  637000    1.1424452   -2.3039071    757.81689  0.099138787   0.10018682            2 
  638000     1.120031   -2.3469453    755.80128  0.098720125   0.10017027            3 
  639000    1.1216835   -2.3371282    753.78613  0.098302834   0.10015325            1 
  640000     1.136823   -2.3010387    758.64382  0.098781748   0.10013601            1 
  641000    1.1429576   -2.3193326     760.5844  0.098879927   0.10011972            2 
  642000     1.156168   -2.3194631    761.23835  0.098810793   0.10010254            1 
  643000    1.1533451    -2.346116    758.91193  0.098355616    0.1000866            1 
  644000    1.1561364   -2.3540156     763.4962  0.098796093   0.10007087            2 
  645000    1.1371438   -2.3337232     762.0372  0.098454419   0.10005481            1 
  646000    1.1798766   -2.3433995    765.20118  0.098710162   0.10003933            1 
  647000    1.1570762   -2.3362675     768.1484  0.098937197   0.10002214            2 
  648000    1.1368451   -2.3521035    768.36456  0.098812314   0.10000589            4 
  649000    1.1228219   -2.3258323    768.50871  0.098678571  0.099990792            2 
  650000    1.1564767   -2.3067299    773.78515  0.099203224  0.099976423            1 
  651000    1.1511721   -2.3400198    771.68265  0.098781701  0.099962215            2 
  652000    1.1478644   -2.3386612    773.99239  0.098925408  0.099948849            2 
  653000    1.1598182   -2.3322376    778.90995  0.099401474  0.099936146            2 
  654000    1.1458567   -2.3486278    773.24769  0.098527993  0.099921307            1 
  655000    1.1456932   -2.3295398    776.97375  0.098851623  0.099907317            1 
  656000    1.1437925   -2.2999416    776.77148  0.098675238  0.099892495            2 
  657000     1.168474    -2.326556    781.23699  0.099091449  0.099878154            4 
  658000     1.137376   -2.3168615    774.32182  0.098065073  0.099863183            3 
  659000    1.1496581   -2.3315863    780.78601  0.098733688   0.09984968            3 
  660000    1.1326442   -2.3391475    783.49066  0.098925588  0.099835217            2 
  661000    1.1323767   -2.3232602    783.71543  0.098804265  0.099821277            2 
  662000    1.1381707   -2.3337383    784.69012  0.098777708    0.0998073            2 
  663000    1.1324038   -2.3490464    785.88796  0.098779281  0.099793405            1 
  664000     1.142091   -2.3567654    785.92972  0.098635758  0.099778664            2 
  665000    1.1570633   -2.3320424    791.07303  0.099131959  0.099762318            2 
  666000    1.1581719   -2.3356385    789.36659  0.098769593  0.099747815            1 
  667000    1.1339682   -2.3369338    790.67431  0.098784897  0.099733591            2 
  668000    1.1411322   -2.3353285    787.55989  0.098248489  0.099718846            4 
  669000    1.1527715   -2.3580398    789.90562  0.098393824     0.099703            3 
  670000    1.1545872   -2.3346922    801.34127  0.099669312  0.099689335            2 
  671000    1.1181482   -2.3353974    793.37085  0.098530906  0.099675535            1 
  672000    1.1844986    -2.352222    794.32956  0.098503169  0.099662077            2 
  673000    1.1540578   -2.3327874    797.00981  0.098688683  0.099648361            1 
  674000    1.1387484   -2.3299548    799.22679  0.098816369  0.099635148            2 
  675000    1.1741446   -2.3616117    800.79808   0.09886396  0.099622084            2 
  676000    1.1466503   -2.3338804    802.10361   0.09887865  0.099609174            3 
  677000    1.1338837   -2.3112948    802.40384  0.098769551  0.099597033            2 
  678000    1.1284048   -2.3563088     800.6851  0.098412623  0.099584927            2 
  679000    1.1392404   -2.3414141    804.79081  0.098771577  0.099572104            2 
  680000     1.164564   -2.3379798    808.26915  0.099052592   0.09955958            1 
  681000     1.136833   -2.3264929    808.24379  0.098904037  0.099548223            2 
  682000    1.1783027   -2.3526749     812.1328  0.099234213  0.099536305            1 
  683000    1.1402279   -2.3401761    813.86662  0.099300466  0.099525191            2 
  684000    1.1416627   -2.3193595     813.7847   0.09914531  0.099514065            1 
  685000    1.1210624   -2.3533938    812.14511  0.098801108  0.099502479            2 
  686000    1.1349988   -2.3395289    814.37701  0.098928208  0.099490593            2 
  687000    1.1614292   -2.3342165    809.79262   0.09822812   0.09947959            2 
  688000    1.1353652   -2.3268106    817.80917  0.099056343  0.099468411            3 
  689000    1.1367238   -2.3175987    819.01613  0.099058555  0.099457859            3 
  690000     1.131696   -2.3016388    815.86311  0.098534191   0.09944902            1 
  691000    1.1352206   -2.3433825    819.23876  0.098798693  0.099439237            1 
  692000      1.14002   -2.3394568     821.2232  0.098894893  0.099429692            1 
  693000       1.1403   -2.3517581    824.29561  0.099121647  0.099421742            2 
  694000    1.1324886   -2.3404056    828.34639  0.099465225  0.099414244            1 
  695000     1.145598   -2.3254201     827.4962  0.099220168   0.09940643            3 
  696000    1.1295309    -2.326896    827.81448  0.099115719  0.099397411            1 
  697000    1.1510347   -2.3317508    830.52092  0.099297096  0.099388759            1 
  698000    1.1638645   -2.3321508    830.68334  0.099174228  0.099379357            1 
  699000    1.1474623    -2.328202    831.55777  0.099136596   0.09936892            1 
  700000      1.14493   -2.3414985     834.1572  0.099304428  0.099359093            1 
  701000    1.1377812   -2.3230841     832.0398  0.098911055  0.099350119            2 
  702000    1.1387048   -2.3504432     832.2782  0.098798456  0.099341125            2 
  703000    1.1229956   -2.3448309    831.24615  0.098535579  0.099329849            1 
  704000    1.1389951   -2.3475385    834.93189    0.0988319  0.099319731            2 
  705000    1.1330384   -2.3531995    832.42759  0.098395696  0.099309199            2 
  706000    1.1375581   -2.3337624    833.50981  0.098384066  0.099299208            1 
  707000    1.1532132   -2.3461135    838.05943  0.098781168  0.099288846            2 
  708000    1.1297834    -2.388292    838.41058  0.098682978  0.099277321            5 
  709000    1.1407336   -2.3461888    838.44061  0.098547321  0.099267072            1 
  710000    1.1458017   -2.3653122    844.98272  0.099176376  0.099256776            1 
  711000    1.1504621   -2.3196011     841.8634  0.098671285  0.099244902            1 
  712000    1.1707874   -2.3371281    842.20618  0.098572821  0.099233582            1 
  713000    1.1628299   -2.3234103     843.8356  0.098625012  0.099223069            2 
  714000    1.1286343   -2.3332324    847.34946  0.098896996  0.099212499            3 
  715000    1.1580423   -2.3391576     848.4546  0.098887482   0.09920296            1 
  716000    1.1432196   -2.3387494    850.39769  0.098975523  0.099193393            1 
  717000    1.1288219   -2.3413746    851.98086  0.099021485  0.099184949            1 
  718000    1.1575894    -2.328134    850.53764  0.098716067  0.099176336            1 
  719000    1.1383974   -2.3656763    851.95856  0.098743458  0.099168818            2 
  720000    1.1523229   -2.3178728    858.74875  0.099392217  0.099161149            2 
  721000    1.1263997   -2.3176092    855.84643  0.098918912    0.0991537            1 
  722000    1.1416533   -2.3286405    859.43464  0.099196057  0.099145653            1 
  723000    1.1252286   -2.3446951    859.31321  0.099044861  0.099138592            2 
  724000    1.1120326   -2.3194529    862.47891  0.099272434  0.099131004            2 
  725000    1.1494781   -2.3304464    861.63598  0.099038618  0.099124286            1 
  726000    1.1313403   -2.3156831    862.23779   0.09897128  0.099116741            1 
  727000    1.1696986   -2.3395793    860.57825  0.098644916  0.099108496            3 
  728000    1.1572606   -2.3208267    870.59121  0.099655587  0.099102413            1 
  729000    1.1474425   -2.3529502     867.3505  0.099148434  0.099096627            1 
  730000    1.1053266   -2.3392281    867.99928  0.099086676  0.099089632            3 
  731000    1.1547287   -2.3325177    868.02372  0.098953912   0.09908236            3 
  732000    1.1508172   -2.3193552    869.79922  0.099020858   0.09907596            1 
  733000    1.1330322   -2.3344221    870.79347  0.098998803  0.099069187            1 
  734000    1.1561324   -2.3506081    874.41903  0.099275548  0.099063369            1 
  735000    1.1257293   -2.3277156    878.05794  0.099553054  0.099058813            1 
  736000    1.1299472   -2.3568555    875.06701  0.099079145  0.099053613            4 
  737000     1.155055    -2.332037    877.17853  0.099183462  0.099047267            1 
  738000    1.1258636   -2.3412519    877.02412  0.099031631  0.099040534            2 
  739000    1.1239384   -2.3362181    879.09704  0.099131376   0.09903445            2 
  740000    1.1038358   -2.3289564    883.45275  0.099487922   0.09902682            2 
  741000    1.1253206   -2.3487411    877.39916   0.09867287  0.099020496            2 
  742000    1.1284292   -2.3273147    881.30812  0.098978899  0.099013699            3 
  743000    1.1326393   -2.3152814    882.21257  0.098947125  0.099007397            3 
  744000    1.1355271   -2.3612493    886.66693  0.099313053  0.099002061            3 
  745000    1.1314242   -2.3581114    883.50317  0.098825857   0.09899746            3 
  746000    1.1364476   -2.3508858    886.44229  0.099021703  0.098992843            1 
  747000    1.1088371   -2.3436201    891.94252  0.099502736  0.098990448            2 
  748000    1.1314847   -2.3497169    892.31031  0.099410685  0.098987658            2 
  749000     1.149078   -2.3280351    894.30703  0.099500115  0.098984306            1 
  750000    1.1368536   -2.3285515    897.45919  0.099717688  0.098981784            2 
  751000    1.1297911   -2.3426868     895.6386   0.09938289  0.098979269            2 
  752000    1.1368588   -2.3526892    898.57933   0.09957661  0.098976489            1 
  753000    1.1267401   -2.3544622    900.55521  0.099663038  0.098973201            2 
  754000    1.1713449   -2.3259682    901.80622  0.099669122  0.098971384            1 
  755000    1.1149555    -2.347709    893.47401   0.09861744  0.098968253            1 
  756000    1.0832244   -2.3677668    897.93838  0.098979098  0.098962785            1 
  757000    1.1464734   -2.3574734     901.5475  0.099245652  0.098957782            3 
  758000    1.1224777   -2.3503384    899.86728      0.09893  0.098954116            1 
  759000    1.1437615   -2.3512197    904.62774  0.099322325  0.098950097            1 
  760000    1.1381471   -2.3494276    904.87314  0.099218546  0.098946343            2 
  761000    1.0992179   -2.3340285    910.33583  0.099686359  0.098942931            1 
  762000    1.1325223    -2.377853    905.55275  0.099032453  0.098939862            1 
  763000    1.1249439   -2.3421235     910.8387   0.09947998  0.098937099            1 
  764000    1.1466609   -2.3478712     906.8465  0.098914321  0.098933763            1 
  765000    1.1425005   -2.3360227    917.28917  0.099922568  0.098932126            3 
  766000    1.1474164   -2.3507067    915.10483  0.099554486  0.098930422            3 
  767000    1.1400738   -2.3275478    911.31205  0.099012608  0.098928142            2 
  768000    1.1227309   -2.3325471    917.32618  0.099536261  0.098924663            1 
  769000    1.1359125   -2.3539909     911.1229  0.098734601  0.098920193            3 
  770000    1.1130347   -2.3624701    914.54275  0.098976488  0.098916391            3 
  771000    1.1291689   -2.3646401    916.54619  0.099064656  0.098912039            3 
  772000    1.1403302    -2.376915     920.4788  0.099360838  0.098907805            1 
  773000    1.1381104   -2.3165201    921.22254  0.099312477   0.09890272            3 
  774000    1.1406688   -2.3631471    919.68468  0.099018591  0.098898044            1 
  775000    1.1303574   -2.3423904    922.41854  0.099184789  0.098892459            2 
  776000    1.1136651   -2.3198071    921.83551  0.098994363  0.098886051            1 
  777000    1.1212931   -2.3465862    921.67067  0.098849278  0.098881145            4 
  778000    1.1179298   -2.3309482    925.57807  0.099140753  0.098875041            4 
  779000    1.1096277    -2.331648    923.02194  0.098740044  0.098869106            2 
  780000     1.118176   -2.3791625    922.93856  0.098604546  0.098863666            1 
  781000    1.1406628   -2.3753685       922.09  0.098387751  0.098857342            4 
  782000    1.1222769   -2.3438996    934.07312  0.099538909  0.098850421            1 
  783000    1.1209304   -2.3327856    929.19806  0.098892939  0.098844288            1 
  784000    1.1020714     -2.33769    930.12655  0.098865492  0.098837246            3 
  785000    1.1253303   -2.3536804    926.69271  0.098375022  0.098830173            3 
  786000    1.1082626   -2.3513076    930.52995  0.098656695  0.098822379            2 
  787000    1.1096675   -2.3581901    929.23492   0.09839421   0.09881448            3 
  788000    1.1288154   -2.3472757    930.26755  0.098378548  0.098806215            1 
  789000    1.1435186    -2.358627    931.23894  0.098356458  0.098796984            1 
  790000    1.1320762   -2.3665198    932.22999  0.098336497  0.098788654            2 
  791000    1.1212787   -2.3248687    938.78408  0.098902664  0.098779904            3 
  792000    1.1286355   -2.3320138    933.20674  0.098190944  0.098771555            2 
  793000     1.112955   -2.3803044    936.25001  0.098386928  0.098761935            2 
  794000    1.1012603   -2.3451901    938.48879  0.098497984  0.098753246            1 
  795000    1.1301877   -2.3664676    935.95807  0.098108813  0.098743974            2 
  796000    1.1193884   -2.3546954    938.94332  0.098298086  0.098734442            2 
  797000    1.1240908     -2.35683    939.40284  0.098222798  0.098724378            1 
  798000    1.1226711   -2.3345836    936.48315  0.097794815   0.09871429            1 
  799000    1.1147007    -2.366039    940.26611   0.09806697   0.09870582            2 
  800000    1.1165288   -2.3493933    939.60893   0.09787593  0.098695214            1 
  801000    1.1236611   -2.3649562    942.57661  0.098062485  0.098684452            3 
  802000    1.1016805   -2.3418181    943.39872  0.098025636  0.098675477            2 
  803000    1.1366811     -2.35927    942.50447  0.097810758  0.098663924            3 
  804000    1.1332606   -2.3464327    943.59397  0.097802028  0.098653077            2 
  805000    1.1293921   -2.3431227    946.61336  0.097993102  0.098642394            2 
  806000    1.1305514   -2.3737741    949.49349  0.098169302   0.09863187            2 
  807000    1.1218577   -2.3417057    950.99054  0.098202245  0.098620929            1 
  808000    1.1215974      -2.3517    953.25395  0.098314145  0.098609583            1 
  809000    1.1410261   -2.3480021    946.68527  0.097515994  0.098598033            4 
  810000    1.1013448   -2.3609209    948.08215  0.097539316  0.098586207            6 
  811000    1.1130998   -2.3468954    947.65516   0.09737517  0.098573235            2 
  812000    1.1127689   -2.3745509    953.42302   0.09784719  0.098560539            1 
  813000    1.1056896   -2.3640193    952.30213  0.097611944  0.098548114            1 
  814000    1.1079541   -2.3473896    957.78775  0.098053619  0.098536269            1 
  815000    1.1046213   -2.3752771    952.40759  0.097383189  0.098522906            1 
  816000    1.1443697   -2.3470077    955.33782  0.097563095   0.09850971            1 
  817000    1.1395967   -2.3557638    960.60508  0.097980935   0.09849939            2 
  818000    1.1145055   -2.3590806    960.27276  0.097827298  0.098488477            1 
  819000    1.1421496   -2.3633498    963.27722  0.098013555  0.098476865            4 
  820000    1.1234347   -2.3466669    963.83787  0.097951003  0.098466083            1 
  821000    1.1051756   -2.3698242    962.98603  0.097745232  0.098455379            1 
  822000    1.1258934   -2.3468378    965.10684  0.097841326  0.098445908            2 
  823000    1.1326401   -2.3391292    968.75547  0.098091886  0.098435957            1 
  824000    1.1080544    -2.354293    970.40574  0.098139739  0.098426099            1 
  825000    1.1207319   -2.3660382    966.28927  0.097604977  0.098416069            5 
  826000    1.0994281   -2.3643456    967.94059  0.097653409  0.098404635            1 
  827000       1.1382   -2.3796895    966.64024  0.097404297  0.098393984            6 
  828000    1.1288169   -2.3412806    971.86792  0.097812794  0.098381958            2 
  829000    1.1197823   -2.3757741    968.49034  0.097355281  0.098369085            2 
  830000    1.1112592    -2.351975     971.6001  0.097550211  0.098354701            2 
  831000     1.128786   -2.3468551    966.46706  0.096918077  0.098340975            1 
  832000    1.1132199   -2.3251469    970.50578  0.097206108  0.098328145            2 
  833000    1.1136251   -2.3558826    972.21974  0.097260878  0.098313109            1 
  834000    1.1244035   -2.3840521    969.28703  0.096851222  0.098298964            1 
  835000    1.1202536    -2.325155    971.80586  0.096986612  0.098283547            1 
  836000    1.0879305   -2.3787568    972.93312  0.096982966  0.098267687            3 
  837000    1.1162658   -2.3664819    973.26683  0.096900321  0.098252304            2 
  838000    1.1382609   -2.3181233    979.81545  0.097435904  0.098238013            1 
  839000     1.143638   -2.3443489    980.11585  0.097349608  0.098223393            1 
  840000    1.1331542   -2.3688133    976.03388  0.096828758  0.098206963            5 
  841000    1.1009176   -2.3483409    984.07178  0.097510085  0.098192066            1 
  842000    1.1346285   -2.3525419    978.00669  0.096794012  0.098176208            1 
  843000    1.1113431   -2.3529016    984.81135  0.097351854  0.098160052            3 
  844000    1.0908365   -2.3724857    983.79049  0.097135712  0.098143364            2 
  845000    1.1461118   -2.3909398    980.71255  0.096717213  0.098126437            2 
  846000    1.1141243   -2.3617385    986.77018  0.097199585  0.098109385            1 
  847000    1.1411047   -2.3810166      984.339  0.096845632  0.098092054            2 
  848000    1.0956388   -2.3455967    985.69548  0.096864729  0.098075011            1 
  849000    1.1207475   -2.3617349    986.51078  0.096830662  0.098057703            1 
  850000    1.1052784   -2.3528706    986.51873  0.096717522  0.098040505            1 
  851000    1.1320314   -2.3799369    988.03745   0.09675259  0.098023191            1 
  852000     1.110861   -2.3264749    986.56598  0.096495107  0.098005094            2 
  853000    1.1284135   -2.3920605    987.77246   0.09649985  0.097987425            2 
  854000    1.1123051   -2.3639625    985.70257  0.096184872  0.097970202            5 
  855000    1.1108377   -2.3443893    987.89095  0.096285668  0.097953062            2 
  856000    1.1128985   -2.3344565    993.03737  0.096674199  0.097935373            2 
  857000    1.1254327   -2.3785754    987.79908   0.09605203  0.097917459            1 
  858000    1.1170047   -2.3316476    996.40805  0.096776229   0.09789888            1 
  859000    1.1175127   -2.3690163    994.77222  0.096504872  0.097880519            2 
  860000    1.0971462   -2.3553003    990.98246  0.096025432  0.097862078            3 
  861000    1.1206917   -2.3664022    991.33669  0.095948189  0.097843721            2 
  862000    1.1390793   -2.3411925    994.21323  0.096114968  0.097825326            1 
  863000    1.1104557   -2.3770976      993.241  0.095909714   0.09780629            2 
  864000    1.1133708   -2.3558271    997.56004  0.096215282   0.09778701            3 
  865000    1.1188128   -2.3571587    999.85678  0.096325316  0.097768564            2 
  866000    1.1038064   -2.3586375    997.73795  0.096010195  0.097750941            3 
  867000    1.1462585   -2.3208138    997.73349  0.095899028  0.097732289            3 
  868000    1.0984089    -2.351039    1000.0171  0.096007787  0.097714365            4 
  869000    1.1003453   -2.3805055    999.39261  0.095837419  0.097695661            1 
  870000    1.1159802   -2.3402813    1006.0674  0.096366613  0.097677578            5 
  871000    1.1002805   -2.3777781    1002.1688  0.095882967   0.09765886            2 
  872000    1.1365142   -2.3584392    1007.7123  0.096302776  0.097639907            4 
  873000    1.1066598   -2.3640503    1004.2206  0.095859163  0.097621127            2 
  874000    1.1059262   -2.4033955    1007.2403  0.096037408  0.097602506            1 
  875000    1.1203811   -2.3791016    1009.9044  0.096181376  0.097583223            2 
  876000     1.130002   -2.3834642    1008.4953   0.09593753  0.097564124            5 
  877000    1.1282108   -2.3675707    1015.9078  0.096532481  0.097546139            1 
  878000    1.1041978   -2.3665732    1012.7775  0.096125429  0.097527789            2 
  879000    1.1092918   -2.3833861    1003.9478  0.095178971  0.097508232            5 
  880000    1.1002098   -2.3673606    1010.2543  0.095668019   0.09748736            1 
  881000    1.0903521    -2.378871    1010.8362  0.095614474  0.097467067            2 
  882000    1.1000067    -2.357972    1013.0273  0.095713084  0.097446707            1 
  883000    1.0965463   -2.3418542    1018.5322  0.096124219  0.097426706            2 
  884000    1.0966905   -2.3647567    1014.0208  0.095590193  0.097407171            2 
  885000    1.1078664   -2.3818586    1013.8519  0.095466284  0.097387529            1 
  886000    1.1224812   -2.3598589    1017.2334  0.095676579  0.097367983            1 
  887000    1.1000753    -2.348896    1021.4468  0.095964561   0.09734769            2 
  888000    1.0916539   -2.3581874    1020.1864   0.09573821  0.097328822            1 
  889000    1.1030914   -2.3713398    1018.4322  0.095466083  0.097308994            1 
  890000    1.1031406   -2.3408673    1026.6562  0.096128853  0.097290324            3 
  891000    1.0890756   -2.3689161    1021.5807  0.095546273  0.097271579            1 
  892000    1.0966986   -2.3602678    1025.3365  0.095790035  0.097253121            1 
  893000    1.1030554    -2.368057    1028.7728  0.096003438  0.097234748            4 
  894000    1.1176924   -2.3596274    1024.0391  0.095454796  0.097217013            2 
  895000    1.1129437   -2.3669085    1032.6079  0.096145984  0.097198991            2 
  896000    1.1141288    -2.374165    1031.6198  0.095946782  0.097180379            2 
  897000    1.0866807   -2.3336604    1032.3898  0.095911355  0.097163194            1 
  898000     1.111368   -2.3613385    1029.3517  0.095522619  0.097144879            2 
  899000    1.1140444   -2.3643905    1035.7126  0.096005985  0.097126823            2 
  900000    1.1068873   -2.4071783    1031.8641  0.095542969  0.097109186            4 
  901000    1.1008842   -2.3642282    1035.0312  0.095729853  0.097090183            2 
  902000    1.1039609   -2.3515492    1035.6079  0.095677001   0.09707205            1 
  903000    1.1367593   -2.3780776    1037.0905  0.095707874  0.097053689            2 
  904000     1.109712    -2.360258    1036.9274  0.095586966  0.097035994            5 
  905000    1.1260981   -2.3556248    1042.0429  0.095952382  0.097017869            2 
  906000    1.0847629   -2.3547119    1037.9456   0.09546961   0.09700074            1 
  907000    1.1106151   -2.3611738    1038.8777  0.095449988   0.09698247            1 
  908000    1.1012138   -2.3696704    1042.2151  0.095651161  0.096965258            2 
  909000    1.1214465    -2.357664    1041.5034   0.09548069  0.096946718            3 
  910000    1.0783763   -2.3908127    1044.1911  0.095621897  0.096928743            2 
  911000    1.1121209   -2.3655787    1051.0045  0.096140187  0.096911471            2 
  912000    1.1044235   -2.3730522    1051.0788  0.096041556  0.096894742            1 
  913000    1.1143519   -2.3895453    1045.8945  0.095463172  0.096877838            1 
  914000    1.0974627    -2.371007    1048.0627  0.095556406  0.096860365            4 
  915000    1.0945639   -2.3850783     1047.474  0.095398359  0.096842686            2 
  916000    1.1042447   -2.3521607    1049.0909  0.095441309  0.096824723            2 
  917000    1.1080696   -2.3638235    1052.3558  0.095633933  0.096807577            1 
  918000    1.1011659   -2.3850733    1056.3055    0.0958883  0.096791215            3 
  919000    1.1049249   -2.3566714     1054.216  0.095594485  0.096773481            2 
  920000    1.0847794   -2.3433191    1056.8188  0.095726341  0.096756798            1 
  921000    1.1051858    -2.347796    1056.8332  0.095623705  0.096740278            1 
  922000    1.1087246   -2.3577759    1058.1856  0.095642223  0.096723507            4 
  923000    1.1289132    -2.372748    1052.3464  0.095011409  0.096707108            3 
  924000    1.0673176   -2.3749935    1058.1733  0.095434103   0.09669039            2 
  925000    1.1041965   -2.3626707    1059.6582  0.095464703  0.096673783            2 
  926000     1.089713   -2.3796719    1061.0798  0.095489542  0.096657275            3 
  927000    1.0960468   -2.3828099    1064.7772   0.09571891  0.096640873            2 
  928000    1.0973048   -2.3547755    1056.9139  0.094909653  0.096623789            2 
  929000    1.1089486   -2.3789153     1067.412  0.095749191  0.096606296            2 
  930000    1.1044016   -2.3689125    1064.8596  0.095417526  0.096589808            1 
  931000    1.1038275   -2.3443129    1064.4266  0.095276282   0.09657301            1 
  932000    1.1151688   -2.3919311    1062.5057  0.095002297  0.096555394            2 
  933000    1.1014264   -2.3925795    1070.4973  0.095614263  0.096538662            2 
  934000     1.104193   -2.3726764    1071.8661   0.09563402  0.096521466            5 
  935000    1.0634303   -2.3756612    1069.8197  0.095349354  0.096504788            1 
  936000    1.0785768   -2.3686047    1075.7464  0.095775143  0.096487444            3 
  937000    1.1096346   -2.3463811    1073.1449  0.095441564  0.096470384            1 
  938000    1.0986572   -2.3751799    1070.9958  0.095148884   0.09645239            2 
  939000    1.1009415   -2.3899363    1071.4571  0.095088487  0.096435675            2 
  940000    1.0906339   -2.3961706    1078.0279  0.095569851  0.096418825            1 
  941000    1.1022852   -2.3669326    1078.2573  0.095488606   0.09640223            1 
  942000     1.099912   -2.3815293     1076.574  0.095238327  0.096385808            3 
  943000    1.0932503    -2.393353    1079.6529  0.095409412  0.096369721            2 
  944000    1.1098406   -2.4012604    1081.1653  0.095441849  0.096353539            2 
  945000    1.1170782   -2.3921532    1079.3475  0.095180553  0.096338177            5 
  946000    1.1105512   -2.3748032    1084.8718  0.095566581  0.096321949            2 
  947000    1.0931159   -2.3747353    1081.6909  0.095185756  0.096305882            2 
  948000    1.1162915   -2.3820319    1079.8937  0.094927369  0.096289555            1 
  949000    1.0949041   -2.3971958    1081.7918  0.094994009   0.09627199            3 
  950000    1.1052185   -2.3760104    1081.8673  0.094900645  0.096255183            2 
  951000    1.1021512   -2.3700821    1087.4859  0.095293195  0.096238454            2 
  952000     1.108019    -2.371803    1085.8248  0.095047689  0.096222088            4 
  953000    1.1026158   -2.3959169    1086.9699  0.095048082  0.096204557            4 
  954000    1.0943543   -2.3820549    1080.9538  0.094422938  0.096187384            2 
  955000    1.0924697   -2.3918659    1084.2617   0.09461271  0.096170754            1 
  956000    1.0866839   -2.3873382    1089.0474  0.094930912  0.096154432            2 
  957000    1.0930435   -2.3729023     1091.758  0.095067751  0.096137187            3 
  958000    1.1113352   -2.3806098     1091.823  0.094974167  0.096120596            2 
  959000    1.1037991   -2.3721063    1096.7064  0.095299475  0.096103889            2 
  960000    1.0908321   -2.3620566    1094.5621  0.095014072  0.096087447            1 
  961000    1.1258446   -2.3339159    1095.3296  0.094981755  0.096070889            2 
  962000    1.0832402   -2.3434965    1098.4236  0.095151041  0.096055463            2 
  963000    1.0907618    -2.390673    1099.6506  0.095158408  0.096038782            1 
  964000    1.1038809   -2.3872159    1098.0561  0.094921866  0.096022468            3 
  965000    1.1019933   -2.3761515    1100.5621  0.095039907  0.096006768            2 
  966000    1.1022645   -2.4024326    1098.5784  0.094770395  0.095990505            1 
  967000    1.0825254   -2.3759149    1097.9291   0.09461643  0.095973802            2 
  968000    1.0921246    -2.394704    1098.1963  0.094541693  0.095957461            2 
  969000    1.1046106   -2.3656973    1104.7416  0.095007014  0.095940756            2 
  970000    1.0862928   -2.3685411    1108.1487  0.095201776   0.09592455            5 
  971000    1.0915693    -2.374394    1104.0397   0.09475109  0.095908135            5 
  972000    1.0869971   -2.3645193    1106.4278  0.094858347  0.095890842            3 
  973000    1.0793089   -2.3725528    1101.9864  0.094380476  0.095873717            1 
  974000    1.0934363   -2.4086291    1104.0949  0.094463969  0.095856378            1 
  975000    1.0933837   -2.3843676    1109.4355  0.094823551  0.095839509            2 
  976000     1.082116   -2.3972409    1107.2312  0.094538179  0.095821876            1 
  977000    1.1057198   -2.3969354    1107.5636  0.094469768  0.095803693            4 
  978000    1.0639817   -2.3759516    1112.4277  0.094787633  0.095785713            2 
  979000     1.081762   -2.3990735    1109.7287  0.094461078  0.095768167            2 
  980000    1.1099257   -2.3891346    1109.5142  0.094346442  0.095750683            1 
  981000    1.0942263   -2.3917339    1115.1379  0.094727987   0.09573355            1 
  982000     1.090692   -2.3936805    1114.0945   0.09454298  0.095716632            1 
  983000    1.0908372   -2.3791843    1112.9872  0.094352933  0.095699347            1 
  984000    1.0681022   -2.3919865     1115.679  0.094485009  0.095682677            2 
  985000    1.0900943   -2.3736895    1117.9444  0.094580745  0.095665022            1 
  986000    1.0802778   -2.3725387     1122.945  0.094907455  0.095648948            1 
  987000    1.0860029   -2.3455718    1117.7948  0.094376459  0.095631902            3 
  988000    1.0871777   -2.3764124    1120.5012   0.09450921  0.095614401            1 
  989000    1.0964709   -2.3978659    1118.5444  0.094248772  0.095596487            1 
  990000    1.0647237   -2.3938019    1121.2581  0.094381997  0.095579503            1 
  991000    1.1087323   -2.3821131     1121.489  0.094306175  0.095562267            2 
  992000    1.0791863   -2.3843545    1123.9723  0.094419715  0.095545171            1 
  993000    1.1390694   -2.3654093    1125.7314  0.094472252  0.095528795            2 
  994000    1.0867448   -2.3644135    1127.7158  0.094543576    0.0955118            1 
  995000    1.0874613   -2.3753809    1128.2241  0.094491131  0.095495812            1 
  996000    1.0885759   -2.3987414    1131.5852  0.094677479   0.09548039            1 
  997000    1.1028258   -2.3600014    1125.5151   0.09407515  0.095464251            3 
  998000    1.0798894   -2.4127451    1134.1168  0.094699133  0.095448743            2 
  999000     1.103684   -2.3710892    1129.0048  0.094177915   0.09543378            2 
 1000000    1.0991297   -2.3928294    1138.4964  0.094874698  0.095419595            2 
 1001000    1.1019769   -2.3626303    1136.1075  0.094581046  0.095406111            1 
 1002000    1.0852768   -2.4129176    1133.5949  0.094277689  0.095391972            2 
 1003000    1.0969818   -2.4121075    1137.3259  0.094493674  0.095377341            2 
 1004000    1.0844793   -2.3924279    1145.2925  0.095060797  0.095363873            1 
 1005000    1.0816789   -2.3873842    1142.5052  0.094735092  0.095350302            2 
 1006000    1.1014174   -2.4120293    1142.4747  0.094638393  0.095337424            2 
 1007000    1.0772854   -2.4046351    1150.4137  0.095201399  0.095324871            2 
 1008000    1.1405769   -2.3939252    1146.6455  0.094795431  0.095312527            2 
 1009000    1.0838287   -2.3818083    1144.1249  0.094493303  0.095299584            1 
 1010000    1.0887297   -2.4271719    1145.2634  0.094493682  0.095286343            1 
 1011000    1.0779653   -2.4002108    1148.0416  0.094629214  0.095272934            1 
 1012000    1.0658465   -2.3927029    1144.9337  0.094279785  0.095259607            1 
 1013000    1.0711003   -2.3497832    1152.7293   0.09482801  0.095246286            3 
 1014000    1.0885248    -2.404273    1153.5026  0.094798046  0.095232991            1 
 1015000    1.1089786   -2.3746878    1154.3567  0.094774774  0.095220251            2 
 1016000    1.0873385   -2.3761013    1158.3946  0.095012679  0.095207717            5 
 1017000    1.0706425   -2.3990709    1157.0219  0.094806779  0.095195913            1 
 1018000    1.1022482   -2.3717865    1162.0811  0.095127792    0.0951838            2 
 1019000    1.0708998   -2.3909529     1158.065     0.094706  0.095171058            7 
 1020000    1.1206195   -2.3933079    1159.0854  0.094696524  0.095159162            5 
 1021000     1.074378   -2.4168115    1154.3025  0.094213391  0.095147123            1 
 1022000    1.0699792   -2.4135693    1165.5474  0.095038115  0.095135199            1 
 1023000    1.0834796   -2.3953727    1162.5843  0.094703838    0.0951222            2 
 1024000    1.1031056   -2.3928429     1162.223  0.094581949   0.09510897            4 
 1025000    1.0945397   -2.3596095    1168.6921  0.095015622  0.095096247            3 
 1026000    1.0977598   -2.3898154    1165.4582  0.094660344  0.095084015            2 
 1027000     1.090909   -2.3989621    1168.2809  0.094797219  0.095072318            2 
 1028000    1.0918894   -2.4018055    1164.8113  0.094423747  0.095060996            3 
 1029000    1.1047398   -2.3644948    1170.3797  0.094782939  0.095049575            3 
 1030000    1.0766647   -2.3925983     1173.665  0.094956718  0.095037247            1 
 1031000    1.0948428   -2.4230928    1171.1298  0.094659701  0.095024983            1 
 1032000    1.1015579   -2.3851893    1174.7637  0.094861408  0.095012908            1 
 1033000    1.1017612   -2.3941747    1171.7117  0.094523367  0.095001258            1 
 1034000    1.0605652   -2.3882373    1172.5863  0.094502445  0.094988691            1 
 1035000    1.0793262   -2.4100612    1176.1155  0.094695291  0.094977135            4 
 1036000    1.0757567   -2.3763664    1182.5628  0.095122489  0.094965868            3 
 1037000    1.0742513   -2.3724873    1177.4243  0.094617835  0.094953996            2 
 1038000    1.0814128   -2.3605687    1184.1534  0.095066911  0.094942521            3 
 1039000     1.075468   -2.4127603    1177.2182  0.094419171  0.094930353            2 
 1040000    1.0869277   -2.3899482     1182.247   0.09473133  0.094918445            1 
 1041000    1.0780855   -2.3869798    1180.6951    0.0945161  0.094906371            1 
 1042000    1.0974465   -2.3845668    1185.7713  0.094831359   0.09489434            2 
 1043000    1.1085236   -2.4110439    1181.0133  0.094360281  0.094882078            3 
 1044000    1.0925997   -2.3922686    1187.6751  0.094801652  0.094869798            1 
 1045000    1.0680963   -2.4008947    1182.8644  0.094327301  0.094856759            2 
 1046000     1.084721   -2.3853771    1182.3937  0.094199627  0.094843987            3 
 1047000    1.0777317   -2.3799372    1183.0997  0.094165847  0.094830482            2 
 1048000    1.0819134    -2.375438    1191.1801  0.094718516  0.094818406            2 
 1049000     1.066578   -2.3987603    1194.4465  0.094887709  0.094807308            3 
 1050000    1.0820448   -2.4073899    1190.4517  0.094480295  0.094795692            4 
 1051000    1.1071785   -2.3741866    1196.2389  0.094849266  0.094784222            1 
 1052000    1.0593591   -2.3470465    1197.9056  0.094891131  0.094772671            2 
 1053000    1.0662715   -2.3969678    1195.8869  0.094641258  0.094761565            2 
 1054000    1.0679354   -2.3822233    1198.5579  0.094762643  0.094750087            1 
 1055000    1.0979982   -2.3908468    1196.0495  0.094474683  0.094738716            2 
 1056000     1.083765   -2.3774762    1197.0621  0.094465129  0.094727041            2 
 1057000    1.0834791   -2.4105622    1197.1419  0.094382046  0.094715318            2 
 1058000    1.0915556   -2.3767246    1200.4109  0.094550321  0.094704159            2 
 1059000    1.0682063   -2.4041677    1198.6164  0.094319834  0.094693112            3 
 1060000    1.0712558   -2.3648718    1207.2025  0.094905859  0.094682573            3 
 1061000    1.0911453   -2.3902054     1202.676  0.094460882   0.09467179            1 
 1062000     1.084617   -2.4004398     1202.285  0.094341255  0.094661258            2 
 1063000    1.0599104   -2.4010915    1205.0889  0.094472317  0.094650523            6 
 1064000    1.0818868   -2.3915411    1210.1744   0.09478183  0.094640633            1 
 1065000    1.0724631   -2.4129313    1208.1614  0.094535324  0.094630797            4 
 1066000    1.0632737   -2.3995228    1211.0986  0.094676251   0.09461985            2 
 1067000    1.0640886   -2.3868544    1210.7939  0.094563724  0.094609211            2 
 1068000     1.083839   -2.3684898    1210.9392  0.094486514  0.094599456            2 
 1069000    1.0907589   -2.4101558    1213.5024  0.094597942  0.094589685            2 
 1070000    1.0773453   -2.3785444     1219.107  0.094946031  0.094580103            2 
 1071000    1.1004498   -2.3998443    1213.8941  0.094451765  0.094570201            2 
 1072000    1.0826893   -2.3897877    1213.6835  0.094347288  0.094560416            1 
 1073000    1.0746404   -2.3952662    1213.9913  0.094283265  0.094550069            3 
 1074000    1.0526156   -2.3912165    1215.5731  0.094318208  0.094539959            1 
 1075000    1.0859995    -2.380275    1220.8025  0.094635849  0.094529727            3 
 1076000     1.100315   -2.3921653    1220.0296  0.094488044  0.094520139            3 
 1077000    1.0818492   -2.3913408    1222.8517  0.094618669   0.09451018            1 
 1078000    1.0950528   -2.3765711     1220.133  0.094320732  0.094499536            3 
 1079000    1.0898861   -2.3788376    1224.6166  0.094579594  0.094488708            1 
 1080000    1.0702048   -2.4015335    1229.4239  0.094862957  0.094478498            2 
 1081000    1.0794114   -2.3775503    1227.9636  0.094662627  0.094469294            1 
 1082000    1.0614292   -2.3839604    1223.0354  0.094195579  0.094460046            4 
 1083000     1.107934   -2.3880231    1234.6146  0.094999587  0.094451512            1 
 1084000    1.0715439   -2.4044298    1232.1951  0.094725948  0.094443205            2 
 1085000    1.0898885   -2.4163345    1236.2902  0.094953163  0.094434508            3 
 1086000    1.0979489   -2.3992282    1231.1553  0.094471709  0.094425784            1 
 1087000    1.0753462      -2.3742    1235.2377  0.094697767  0.094417133            2 
 1088000    1.0830982   -2.4169096    1241.9363  0.095123794   0.09440811            1 
 1089000    1.0864072   -2.4047619    1232.2183    0.0942928  0.094398628            2 
 1090000    1.0650478   -2.3773915     1241.482  0.094914525  0.094389419            2 
 1091000    1.0840754   -2.4208204    1236.3339  0.094434304      0.09438            1 
 1092000    1.0814149   -2.4100398    1238.5084  0.094513764  0.094370534            2 
 1093000     1.083227   -2.4172366    1233.7737  0.094066311  0.094361481            2 
 1094000    1.0764564   -2.3901477    1237.3037  0.094249218  0.094352209            1 
 1095000    1.0808557   -2.4161424     1238.691  0.094268719  0.094343024            3 
 1096000    1.0914522    -2.380895     1244.057  0.094590706  0.094333227            2 
 1097000    1.0915384   -2.4143198    1247.0718    0.0947335  0.094323541            3 
 1098000    1.0751681   -2.4067577     1245.325  0.094514646  0.094313611            1 
 1099000    1.0721618   -2.4155757    1244.5352  0.094368757  0.094303457            2 
 1100000    1.0609138   -2.3974545    1241.7901  0.094075009  0.094293299            1 
 1101000    1.0688381   -2.3752459    1246.1468  0.094319315  0.094283342            2 
 1102000    1.0478067   -2.3894375    1248.0596  0.094378372   0.09427322            1 
 1103000    1.0908344   -2.3783805    1252.7704  0.094648715  0.094262823            2 
 1104000    1.0852999   -2.4157098     1248.446  0.094236565  0.094252758            2 
 1105000     1.094444   -2.3759031     1246.283  0.093988159  0.094242859            1 
 1106000    1.0932068   -2.4008878    1247.8836  0.094023781  0.094232318            1 
 1107000    1.0886727   -2.4102125    1251.8797  0.094239666  0.094221271            2 
 1108000    1.0765787   -2.3733032    1249.0297  0.093940258  0.094210841            2 
 1109000    1.0715436   -2.3863397    1255.2935  0.094326233  0.094200219            1 
 1110000    1.0568444   -2.3864488    1255.1696  0.094231949  0.094190177            2 
 1111000    1.0603568    -2.424598    1252.1062  0.093917359  0.094179747            3 
 1112000     1.080172   -2.4344176    1259.9907  0.094423762  0.094169171            1 
 1113000    1.0828557   -2.3983028    1257.1577   0.09412681  0.094157814            4 
 1114000    1.0727936   -2.4066922    1253.6187  0.093777579  0.094146876            1 
 1115000    1.0576786   -2.4141086    1257.1183   0.09395503  0.094136126            1 
 1116000    1.0851984   -2.3899571    1258.8578  0.094000734  0.094125447            2 
 1117000    1.0614233   -2.4028677    1261.7545  0.094132683  0.094114835            2 
 1118000    1.0641755   -2.3770059    1269.9056  0.094656054  0.094104327            1 
 1119000    1.0692438   -2.4077722    1260.0633  0.093838493  0.094094057            2 
 1120000    1.0965742   -2.4008154    1259.6968  0.093727437  0.094082524            1 
 1121000    1.0652118   -2.3934459    1267.2157  0.094202772  0.094072177            2 
 1122000    1.0725725   -2.4215119    1263.5086  0.093843476  0.094061472            3 
 1123000    1.0786207   -2.4022572    1270.3617  0.094268454  0.094051509            1 
 1124000    1.0740375    -2.401612    1266.8069  0.093921032  0.094040713            1 
 1125000    1.0929863   -2.3900379    1266.3068  0.093800504  0.094029384            2 
 1126000    1.0719059   -2.3923104    1268.4219  0.093873735  0.094018446            1 
 1127000    1.0737721   -2.4148906    1263.7081  0.093441889  0.094006621            2 
 1128000    1.0815693   -2.4208967    1261.5518  0.093199749  0.093994644            3 
 1129000    1.0703962   -2.4183285    1269.0949  0.093673963  0.093982608            3 
 1130000    1.0353652    -2.409156    1272.2732  0.093825455  0.093970516            1 
 1131000     1.066641   -2.4258741    1271.0248  0.093650519  0.093958056            1 
 1132000    1.0521369   -2.4386211    1267.5283  0.093310388  0.093945514            2 
 1133000    1.0723177   -2.4200342    1272.4422  0.093589453  0.093933133            3 
 1134000    1.0786957   -2.4077118    1269.9091  0.093320778  0.093922204            2 
 1135000    1.0499609   -2.3966973    1278.6552  0.093880705  0.093910459            1 
 1136000    1.0785954   -2.4045796    1275.1967  0.093544362  0.093898682            1 
 1137000    1.0741138   -2.3999561    1274.7779  0.093431391  0.093886981            2 
 1138000    1.0686314   -2.4265514    1275.9972  0.093438574  0.093875711            1 
 1139000    1.0400341   -2.3923751     1279.707  0.093627964  0.093863478            1 
 1140000    1.0516997   -2.4069475    1280.0472  0.093570699  0.093851287            2 
 1141000    1.0615279   -2.4071692    1277.6768  0.093315568  0.093838433            3 
 1142000    1.0436443   -2.4159398     1281.985  0.093548235  0.093826674            5 
 1143000     1.060968   -2.3925584    1286.6752  0.093808341  0.093814733            1 
 1144000    1.0770062   -2.4162522    1279.5851  0.093209873  0.093802803            2 
 1145000    1.0671983    -2.373055    1284.8202  0.093509477  0.093791053            2 
 1146000    1.0761014   -2.4266556    1281.1557   0.09316141  0.093778716            2 
 1147000    1.0507703   -2.3908695    1284.6719  0.093335653  0.093766103           11 
 1148000    1.0714419   -2.4347459    1286.0138  0.093351758  0.093753113            1 
 1149000    1.0784151    -2.425976    1286.2693  0.093289041  0.093740206            1 
 1150000    1.0878768    -2.402299     1286.756  0.093243192  0.093727159            1 
 1151000    1.0790544   -2.4086562    1286.9865  0.093178867   0.09371452            1 
 1152000    1.0713396   -2.4099641    1297.2193  0.093838198  0.093702063            1 
 1153000    1.0695549   -2.4220635     1291.853  0.093368967  0.093689349            2 
 1154000    1.0693801   -2.4416309    1289.1967  0.093096236  0.093677294            2 
 1155000     1.057836   -2.4034473    1291.2272  0.093162135  0.093665106            2 
 1156000    1.0659841   -2.4424532    1289.4768  0.092955361  0.093653376            1 
 1157000    1.0648915   -2.4197963    1297.9368  0.093484356  0.093641064            3 
 1158000    1.0768285   -2.3688979    1300.1206  0.093560783  0.093630031            1 
 1159000    1.0503956   -2.4372957    1293.8517  0.093029312  0.093617878            2 
 1160000    1.0818548   -2.4139846     1299.215  0.093334408  0.093604744            2 
 1161000    1.0738353   -2.4143256    1302.4079    0.0934832  0.093592678            1 
 1162000    1.0626207   -2.4276062    1298.4703  0.093120358  0.093581001            1 
 1163000    1.0853086   -2.3807132    1310.0929  0.093873093  0.093569434            3 
 1164000    1.0967129   -2.3829797    1306.9487  0.093567346  0.093558713            5 
 1165000    1.0721789   -2.3839316    1306.9162  0.093484706  0.093546759            2 
 1166000    1.0581601   -2.4248699    1306.5873  0.093381025  0.093535525            2 
 1167000    1.0546038   -2.4094509    1302.8093  0.093031224  0.093523505            1 
 1168000    1.0586638   -2.4218651    1301.5255  0.092859982  0.093511564            1 
 1169000    1.0770451   -2.4013019    1307.9082  0.093235541  0.093499145            1 
 1170000     1.055895   -2.4276809    1309.7949  0.093290233  0.093486762            1 
 1171000    1.0639373   -2.4191631     1302.695  0.092705308  0.093474211            3 
 1172000    1.0747246   -2.4089923     1316.152  0.093583048   0.09346152            1 
 1173000    1.0548847   -2.4050062    1312.7063  0.093258474  0.093448634            2 
 1174000    1.0668705    -2.422104    1312.2275   0.09314505  0.093436729            3 
 1175000    1.0485948   -2.4231601    1313.4347    0.0931514  0.093424612            2 
 1176000    1.0895614    -2.403422    1309.0906  0.092764358  0.093412743            1 
 1177000    1.0813537   -2.4207683    1316.8929   0.09323796  0.093400801            3 
 1178000    1.0444081   -2.3927869    1319.2353  0.093324509  0.093388975            2 
 1179000     1.067233   -2.4362284     1323.102  0.093518661  0.093377542            1 
 1180000    1.0556051    -2.417822    1317.3482  0.093033067  0.093365597            1 
 1181000    1.0459009   -2.4206983    1320.3553  0.093166476  0.093353615            1 
 1182000    1.0744993   -2.4320131     1320.304  0.093084039  0.093341772            2 
 1183000    1.0565512   -2.4367288    1321.7337  0.093106068  0.093330429            1 
 1184000    1.0622928   -2.4126946    1326.4832  0.093361709   0.09331862            3 
 1185000    1.0519293   -2.3864115    1322.9674  0.093035679  0.093306853            2 
 1186000    1.0673769    -2.421234    1319.8778  0.092740146  0.093295371            2 
 1187000     1.041767   -2.4012231    1318.8195  0.092587718  0.093283166            2 
 1188000    1.0556781   -2.3924318    1330.2912  0.093314479  0.093271306            2 
 1189000     1.048676   -2.4138605    1319.9277  0.092509652  0.093259792            2 
 1190000    1.0686795   -2.4261346    1325.7438  0.092839203  0.093247461            4 
 1191000    1.0635165   -2.4002785    1330.2911  0.093079422  0.093235098            1 
 1192000    1.0621559   -2.4425992    1329.6809  0.092958675  0.093222537            2 
 1193000    1.0625457   -2.4112616    1331.8652  0.093033333  0.093209458            5 
 1194000    1.0609135   -2.3974271    1333.1248  0.093043331  0.093196673            2 
 1195000    1.0765016   -2.3924641    1330.9579   0.09281436   0.09318344            1 
 1196000     1.068459   -2.4355205    1332.9774  0.092877463  0.093170294            2 
 1197000    1.0471135   -2.3996942    1332.9572   0.09279847  0.093157326            2 
 1198000    1.0692386   -2.4149278    1331.3984  0.092612576  0.093145001            1 
 1199000    1.0588358   -2.4331417    1328.7062  0.092348221  0.093131771            2 
 1200000    1.0474068   -2.4371943    1331.6857  0.092478175  0.093118626            3 
 1201000    1.0810708   -2.4125455    1332.9063  0.092485866   0.09310578            1 
 1202000    1.0838755   -2.4266649    1340.3551  0.092925337  0.093093222            1 
 1203000    1.0419988   -2.4340448    1335.4483  0.092508198  0.093079597            4 
 1204000    1.0475906   -2.4200222    1337.5082  0.092573933  0.093066348            2 
 1205000    1.0485855   -2.4314499    1340.1016  0.092676459  0.093053202            2 
 1206000    1.0635141   -2.4084834    1336.7035  0.092364809  0.093039512            2 
 1207000    1.0773305   -2.4191962    1340.1363  0.092525292  0.093025746            1 
 1208000    1.0629244   -2.4191377    1338.5757  0.092341038  0.093011415            1 
 1209000    1.0605065    -2.432625    1337.3881  0.092182805  0.092997251            2 
 1210000    1.0647972   -2.4527207     1335.467  0.091974308  0.092982524            5 
 1211000    1.0497204   -2.3964752    1339.2436  0.092158244  0.092969042            1 
 1212000    1.0547562   -2.4144449    1332.2632  0.091602253  0.092954481            5 
 1213000    1.0851549    -2.412795    1343.3911  0.092291228  0.092939746            1 
 1214000     1.062165   -2.4057665    1341.5938   0.09209183  0.092925462            2 
 1215000    1.0566802   -2.4327293    1333.4096  0.091454706  0.092910195            2 
 1216000    1.0751596    -2.442704    1347.1564  0.092321572  0.092894808            1 
 1217000    1.0583634   -2.4136494    1347.9139  0.092297582  0.092880258            2 
 1218000    1.0701574   -2.4383183    1347.2554  0.092176752  0.092865798            1 
 1219000    1.0770051   -2.4308992    1346.2999  0.092035815   0.09285144            2 
 1220000    1.0627979   -2.4233911    1346.1353  0.091949131   0.09283696            2 
 1221000    1.0494355   -2.4386614    1349.7604  0.092121241  0.092822385            2 
 1222000    1.0559957    -2.411834    1351.6402  0.092174045   0.09280771            2 
 1223000     1.049243    -2.405431    1346.1241  0.091722822  0.092792872            1 
 1224000    1.0535006    -2.447826    1349.2279  0.091859198  0.092777057            2 
 1225000    1.0587435   -2.4126853     1351.173  0.091916533  0.092762625            2 
 1226000    1.0613717   -2.4081556    1351.8327  0.091886402  0.092747066            3 
 1227000    1.0655302   -2.4506314    1355.3123  0.092047836  0.092731264            5 
 1228000     1.058181   -2.4174904    1354.0912   0.09189001  0.092715625            2 
 1229000    1.0695996   -2.4137521    1357.9187  0.092074768   0.09270022            1 
 1230000    1.0602978   -2.3749701    1355.5437  0.091839002  0.092685303            1 
 1231000     1.050589   -2.4258888    1353.2333  0.091607994  0.092670562            3 
 1232000    1.0491037   -2.4193556    1361.0573  0.092062859  0.092654843            1 
 1233000    1.0678309   -2.4367637    1361.0618  0.091988495   0.09264029            1 
 1234000    1.0499751   -2.4234456    1357.5543  0.091677088  0.092624077            3 
 1235000    1.0723956   -2.4139249    1359.9248  0.091762804  0.092609539            2 
 1236000    1.0584367   -2.4347546    1354.3957  0.091315781  0.092593847            2 
 1237000    1.0780302   -2.4439171    1363.4813  0.091854035  0.092578481            2 
 1238000    1.0698177   -2.4144488    1361.4771  0.091644932  0.092562998            4 
 1239000     1.053733    -2.434465    1363.8599  0.091731226  0.092547601            2 
 1240000     1.066296   -2.4722381    1363.7681  0.091651079  0.092531897            1 
 1241000    1.0718161   -2.4340988    1364.3591  0.091616916  0.092516261            3 
 1242000    1.0354754   -2.4246992    1360.7596  0.091301635  0.092500968            2 
 1243000    1.0607115    -2.414581    1368.1085  0.091720871  0.092485426            4 
 1244000    1.0500656   -2.4324364    1367.8508  0.091629877  0.092471004            2 
 1245000    1.0507889   -2.4491764    1367.3601  0.091523433  0.092455479            2 
 1246000     1.043809    -2.408305    1376.5806  0.092066656   0.09244095            1 
 1247000    1.0481317   -2.4240363    1368.1943  0.091432388  0.092425625            4 
 1248000    1.0477969   -2.4376742    1369.1999  0.091426275  0.092410753            3 
 1249000    1.0486152   -2.4063133    1374.0744  0.091678301  0.092395803            2 
 1250000     1.055098   -2.4011249    1374.6117  0.091640779  0.092381057            4 
 1251000    1.0802752   -2.3922449    1378.1617  0.091804004  0.092365968            2 
 1252000    1.0552762   -2.4450237    1374.9255  0.091515275  0.092350835            1 
 1253000    1.0717222   -2.4331079    1380.0361  0.091782126  0.092335412            2 
 1254000    1.0357871   -2.4116271    1376.3016  0.091460764  0.092320043            3 
 1255000    1.0601343   -2.4143455    1379.3048  0.091587303  0.092304703            4 
 1256000    1.0629944   -2.4208972    1375.3988  0.091255229  0.092289422            1 
 1257000    1.0296195   -2.4106565    1379.0766  0.091426449  0.092273853            2 
 1258000    1.0353415   -2.4139049     1383.079  0.091618903  0.092258357            2 
 1259000    1.0558929    -2.435133    1379.6713   0.09132058  0.092242208            2 
 1260000     1.064079    -2.431309    1381.4737  0.091367309  0.092226436            3 
 1261000    1.0511734   -2.4209428    1380.1513   0.09120746  0.092210303            2 
 1262000    1.0565799   -2.4213094    1382.2402  0.091273125  0.092194258            1 
 1263000    1.0412839   -2.4298845    1386.0519  0.091452356  0.092178009            2 
 1264000    1.0499701   -2.4196302    1381.2647  0.091064395  0.092161781            1 
 1265000    1.0432731   -2.4622691    1385.6877  0.091283777  0.092145339            1 
 1266000    1.0271413    -2.429546    1386.6419  0.091274478  0.092129326            2 
 1267000    1.0515919   -2.4711891    1386.2939  0.091179549  0.092113478            2 
 1268000    1.0329799    -2.437558     1392.625  0.091523726  0.092097641            2 
 1269000    1.0540492   -2.4421209    1380.9791  0.090686835  0.092081795            1 
 1270000    1.0518671   -2.4365303    1391.9941  0.091338196  0.092065024            3 
 1271000    1.0248895   -2.4205302    1379.5518  0.090450553  0.092048964            3 
 1272000    1.0603065   -2.4249231    1389.5935  0.091037308  0.092032459            1 
 1273000    1.0618528   -2.4301935    1389.2314  0.090942092   0.09201644            1 
 1274000    1.0518607   -2.4304116    1386.0292  0.090661251  0.091999888            2 
 1275000     1.044645   -2.4301412    1388.8678  0.090775671   0.09198368            2 
 1276000    1.0467978   -2.4380672    1394.4465  0.091068865  0.091966746            2 
 1277000    1.0401401   -2.4352662    1395.9914  0.091098371  0.091950719            1 
 1278000    1.0393617   -2.4302834    1389.5015  0.090603903  0.091934225            3 
 1279000    1.0326772   -2.4561788    1391.9751  0.090694237  0.091917557            3 
 1280000    1.0521919   -2.4134364    1393.6591  0.090733015  0.091900551            2 
 1281000     1.014435   -2.4274778    1398.7903  0.090995987  0.091883779            2 
 1282000    1.0367972   -2.4149721    1399.8136  0.090991523  0.091867272            2 
 1283000    1.0362484   -2.3830599    1395.9016  0.090666509   0.09185076            5 
 1284000    1.0547895   -2.4258257    1397.9235  0.090727124  0.091834165            2 
 1285000    1.0671056   -2.4348411    1396.3252  0.090552868  0.091817627            1 
 1286000    1.0448939   -2.4605969    1393.8042  0.090319092  0.091800706            2 
 1287000    1.0483138   -2.4495726    1393.5353  0.090231502  0.091784068            3 
 1288000    1.0201357   -2.4332409    1395.5496  0.090291769  0.091767023            2 
 1289000    1.0299758   -2.4215666    1399.2117  0.090458476  0.091749727            3 
 1290000    1.0430558   -2.4316581     1398.986   0.09037377  0.091732624            2 
 1291000    1.0340409   -2.4784481    1396.3928  0.090136379  0.091715289            2 
 1292000    1.0277013   -2.3881405    1402.0986  0.090434634  0.091697977            2 
 1293000    1.0672447   -2.4274575     1405.757  0.090600474  0.091681346            5 
 1294000    1.0194295   -2.4722662    1408.0936   0.09068094  0.091664381            2 
 1295000    1.0509842   -2.4451416     1406.434  0.090504121  0.091647777            5 
 1296000     1.044152   -2.4257539    1406.7565  0.090455021  0.091630936            1 
 1297000    1.0341484     -2.45076    1409.1375  0.090538261  0.091614188            1 
 1298000    1.0433277   -2.4408319    1412.6877  0.090696437  0.091597426            1 
 1299000    1.0665638   -2.4302878    1412.9355  0.090642514  0.091580516            3 
 1300000    1.0364874   -2.4456134    1415.7695  0.090754455  0.091564234            3 
 1301000     1.026593    -2.451251     1414.268  0.090588522  0.091548139            2 
 1302000    1.0478952   -2.4236427    1412.7677  0.090422919  0.091532551            2 
 1303000    1.0180308   -2.4249709    1410.2609  0.090193203  0.091516627            5 
 1304000     1.073967   -2.4173567    1415.0257  0.090428536  0.091500973            1 
 1305000    1.0392304   -2.4248681    1416.2216   0.09043561   0.09148532            2 
 1306000    1.0609322   -2.4407916    1417.1134  0.090423267  0.091469416            2 
 1307000    1.0461255    -2.453965    1419.8859  0.090530852  0.091453886            3 
 1308000    1.0336242   -2.4440338     1418.045  0.090344358  0.091438163            1 
 1309000    1.0635952    -2.449865    1422.1511  0.090536737  0.091422395            3 
 1310000    1.0266511   -2.4372875    1422.4676  0.090487762  0.091407082            2 
 1311000    1.0349123   -2.4614971    1421.4551  0.090354383  0.091391707            1 
 1312000    1.0235843   -2.4142957    1425.9544  0.090571291  0.091376856            3 
 1313000    1.0442016   -2.4362261    1430.2304  0.090773698  0.091362123            3 
 1314000    1.0541476    -2.460062    1423.1071  0.090252858  0.091347896            1 
 1315000    1.0248874   -2.4557474    1427.2886  0.090449212  0.091333019            2 
 1316000    1.0198925   -2.4168314    1433.2205  0.090756112   0.09131763            3 
 1317000    1.0273371   -2.4407826    1429.4543   0.09044889  0.091303204            2 
 1318000    1.0439722   -2.4421833     1430.625  0.090454288  0.091287979            5 
 1319000    1.0411664   -2.4477571    1430.6593  0.090387877  0.091272981            3 
 1320000    1.0558841   -2.4286685    1431.3349  0.090362055  0.091258002            1 
 1321000    1.0477624   -2.4430718    1429.4304  0.090173505  0.091242949            1 
 1322000    1.0594454   -2.4465236    1441.7604  0.090882527  0.091228613            3 
 1323000    1.0181617   -2.4303263    1438.2252  0.090591156  0.091214889            1 
 1324000    1.0239862   -2.4152346    1437.1879  0.090457445  0.091200739            6 
 1325000    1.0590622   -2.4211609    1443.8235  0.090806511  0.091186604            1 
 1326000    1.0439561   -2.4518882     1446.431  0.090901897  0.091172482            2 
 1327000     1.026059   -2.4334428     1439.824  0.090418487  0.091158016            2 
 1328000    1.0357533   -2.4400515     1445.237  0.090690072  0.091143536            1 
 1329000    1.0542582   -2.4669444    1447.2955  0.090750906  0.091129023            3 
 1330000    1.0455559   -2.4158504    1450.3157  0.090871909     0.091115            1 
 1331000    1.0348171   -2.4294665    1446.6821  0.090576143  0.091101441            5 
 1332000    1.0329831    -2.432136    1446.5778  0.090501617  0.091087747            4 
 1333000    1.0378422    -2.440458    1448.7398   0.09056888   0.09107395            4 
 1334000    1.0325536   -2.4331188    1453.0905  0.090772769  0.091060637            2 
 1335000    1.0539607    -2.458071    1449.4845  0.090479681  0.091046996            1 
 1336000    1.0357438   -2.4353174    1454.7897  0.090742872  0.091033566            2 
 1337000    1.0385272   -2.4396283      1452.57  0.090536651  0.091020629            2 
 1338000    1.0479252   -2.4334848    1451.6447  0.090411352  0.091007462            1 
 1339000    1.0209588   -2.4521804    1449.0477  0.090182204  0.090994009            1 
 1340000    1.0598251   -2.4375921    1455.1195  0.090492506   0.09098067            2 
 1341000    1.0249767   -2.4391959    1458.2663  0.090620574  0.090966647            2 
 1342000    1.0487744   -2.4333027    1461.1344  0.090731149  0.090953101            2 
 1343000    1.0534441   -2.4447022    1456.9041  0.090401096  0.090939185            3 
 1344000    1.0299179    -2.432576    1461.3795   0.09061133  0.090925446            2 
 1345000    1.0163276   -2.4454868    1456.1305   0.09021874  0.090911264            4 
 1346000    1.0288007   -2.4418765    1462.9162  0.090571829  0.090896687            2 
 1347000    1.0255128   -2.4593046    1461.9754  0.090446384  0.090882682            2 
 1348000    1.0263128   -2.4676682    1456.7101  0.090053788   0.09086804            4 
 1349000      1.02564   -2.4329122    1456.5361  0.089976284  0.090853858            2 
 1350000    1.0645849   -2.4769205    1465.1515  0.090441452  0.090839685            2 
 1351000     1.046064   -2.4473321    1466.5706   0.09046204  0.090825593            2 
 1352000    1.0311591   -2.4484801    1463.2968  0.090193346  0.090811634            5 
 1353000    1.0310127   -2.4409354    1473.9644  0.090783716  0.090797522            2 
 1354000    1.0652858   -2.4638937    1467.1471  0.090297089  0.090783826            1 
 1355000    1.0612979   -2.4607549    1467.4074  0.090246458  0.090770299            1 
 1356000    1.0266565   -2.4480205    1464.8874  0.090025034  0.090756611            3 
 1357000    1.0083723   -2.4422721    1465.8106  0.090015389  0.090743502            5 
 1358000    1.0200221   -2.4510987    1469.6343  0.090183747  0.090730216            3 
 1359000    1.0255391   -2.4327168    1479.7278  0.090736311  0.090716365            2 
 1360000    1.0408386   -2.4608572    1476.2392   0.09045583  0.090703365            5 
 1361000    1.0442159   -2.4579698    1482.3154  0.090761415  0.090690838            2 
 1362000    1.0428154   -2.4949046    1473.4214  0.090150598  0.090678267            3 
 1363000    1.0244013   -2.4475339    1479.1153  0.090432582  0.090665114            2 
 1364000    1.0476462   -2.4458513    1474.7369  0.090098783  0.090651348            1 
 1365000    1.0207733   -2.4518903    1473.0841  0.089931874  0.090637697            2 
 1366000    1.0275768   -2.4461129    1481.0075   0.09034941  0.090624122            2 
 1367000    1.0500916   -2.4503102    1480.6445  0.090261185  0.090610615            3 
 1368000    1.0086817   -2.4464089    1483.6642  0.090379153  0.090597625            3 
 1369000     1.033209   -2.4454254    1485.7555  0.090440437  0.090584575            2 
 1370000    1.0540058    -2.452778     1486.583  0.090424757  0.090571653            2 
 1371000    1.0527972   -2.4606517    1486.5325  0.090355734    0.0905584            2 
 1372000    1.0092958   -2.4502666    1487.9889  0.090378333  0.090545364            2 
 1373000    1.0396119    -2.459369     1487.144   0.09026123  0.090531854            2 
 1374000    1.0371605   -2.4285116    1489.0328  0.090310095  0.090518313            3 
 1375000    1.0343228   -2.4434739    1486.4249  0.090086356  0.090505528            1 
 1376000    1.0236281   -2.4365806    1501.8937  0.090957708  0.090492706            1 
 1377000      1.03592   -2.4772068    1482.3123  0.089706627  0.090479415            2 
 1378000    1.0457977   -2.4516396    1488.5114  0.090016413  0.090465775            2 
 1379000    1.0407083   -2.4390721    1489.6593  0.090020501  0.090452411            2 
 1380000    1.0282654   -2.4443775    1492.6723  0.090137214  0.090438975            2 
 1381000    1.0381167    -2.438324    1486.6241  0.089706982  0.090424995            2 
 1382000    1.0288785   -2.4742667    1489.9131  0.089840394   0.09041177            2 
 1383000    1.0522855   -2.4333095    1486.3404  0.089560157  0.090398354            2 
 1384000     1.043146   -2.4587309    1489.0556  0.089658934  0.090384207            3 
 1385000    1.0134942   -2.4614917    1495.1301   0.08995969  0.090370449            3 
 1386000    1.0477096   -2.4619103    1492.9998  0.089766705  0.090356516            3 
 1387000    1.0220713   -2.4630252    1493.7506  0.089747089  0.090342947            1 
 1388000    1.0129101   -2.4476164    1495.9985  0.089817394  0.090328865            1 
 1389000    1.0139362   -2.4384527    1493.9504  0.089629856  0.090315216            3 
 1390000    1.0384817   -2.4487078    1503.8595  0.090159442  0.090301107            2 
 1391000    1.0273554   -2.4191701    1498.9908   0.08980295  0.090287868            3 
 1392000    1.0372819    -2.446498    1498.1855  0.089690225  0.090274281            2 
 1393000    1.0135455   -2.4732478     1496.602  0.089531108  0.090260231            3 
 1394000    1.0338723   -2.4489472    1500.5586  0.089703405  0.090245816            3 
 1395000     1.036142   -2.4652503    1501.0613  0.089669136  0.090231602            1 
 1396000    1.0073428   -2.4577807     1497.305   0.08938067  0.090217592            1 
 1397000    1.0218672   -2.4471676    1500.7171   0.08952023  0.090203331            4 
 1398000    1.0208576   -2.4443056    1502.1393  0.089540969  0.090189028            3 
 1399000    1.0460475    -2.434141    1514.5066  0.090213642   0.09017517            2 
 1400000    1.0189842   -2.4605329    1506.8633  0.089694245  0.090161014            2 
 1401000    1.0039316   -2.4314367    1505.9849  0.089577973  0.090146975            2 
 1402000    1.0164556   -2.4605148    1504.0695  0.089400233  0.090132492            1 
 1403000    1.0329494   -2.4522525    1502.2612  0.089229102  0.090118424            3 
 1404000     1.049746   -2.4658555    1509.6317  0.089603021  0.090104194            2 
 1405000    1.0231606   -2.4466322    1516.4924  0.089946168   0.09009002            2 
 1406000    1.0162947   -2.4515622    1510.8764  0.089549337  0.090076334            1 
 1407000    1.0246617   -2.4559072    1510.9941  0.089492663  0.090062029            3 
 1408000    1.0327082   -2.4365114    1516.6991  0.089766755  0.090048068            2 
 1409000    1.0395211   -2.4816159     1507.574  0.089163355  0.090033623            1 
 1410000    1.0251182   -2.4499954    1511.2366  0.089316584  0.090018903            3 
 1411000    1.0101946   -2.4750796    1511.8157  0.089287484  0.090004249            1 
 1412000    1.0250426   -2.4398963    1511.2482  0.089190756  0.089989774            1 
 1413000    1.0259342   -2.4452999    1515.9424  0.089404485  0.089975412            3 
 1414000   0.99915078   -2.4381932    1519.1769  0.089531876  0.089960888            4 
 1415000    1.0246508   -2.4533963    1517.7274  0.089383242  0.089945899            2 
 1416000    1.0142301   -2.4566053    1518.2317  0.089349793  0.089930775            3 
 1417000    1.0351328   -2.4513802    1519.9629   0.08938855  0.089916054            4 
 1418000    1.0415079   -2.4414523    1521.5685  0.089419871  0.089901491            2 
 1419000    1.0347474   -2.4519205    1522.3808  0.089404555  0.089887232            2 
 1420000    1.0400899   -2.4489977    1525.7763  0.089540863  0.089872625            1 
 1421000    1.0194809   -2.4146659    1519.6516  0.089118671  0.089857585            1 
 1422000    1.0316392   -2.4442686     1519.259  0.089032995  0.089842691            2 
 1423000    1.0085722    -2.476044    1517.3795  0.088860361  0.089827477            2 
 1424000    1.0088335   -2.4261252    1517.8647  0.088826354  0.089812098            2 
 1425000    1.0335961   -2.4549706    1523.0866  0.089069392  0.089797399            2 
 1426000    1.0082606   -2.4585556    1525.9489  0.089174199  0.089782636            1 
 1427000    1.0219873   -2.4715624     1526.201  0.089126433  0.089767599            3 
 1428000   0.99946174    -2.436805    1520.8163  0.088749783   0.08975264            2 
 1429000    1.0324282   -2.4818286    1525.1081  0.088937956  0.089737396            2 
 1430000     1.026634   -2.4683729    1524.0462  0.088813882  0.089722715            3 
 1431000    1.0107832    -2.449403    1526.6072  0.088900952  0.089707887            1 
 1432000      1.00236   -2.4756537    1524.3893  0.088709803   0.08969293            5 
 1433000    1.0102858   -2.4562329    1531.7537  0.089076162  0.089678288            1 
 1434000    1.0293268   -2.4492364    1531.7797  0.089015557  0.089663639            3 
 1435000    1.0209849   -2.4756893    1529.5912  0.088826437  0.089649003            2 
 1436000    1.0316784   -2.4641686    1533.1794  0.088972805  0.089634943            2 
 1437000    1.0306209    -2.431843    1535.1448  0.089024866  0.089620306            3 
 1438000    1.0240544   -2.4752782    1535.3038  0.088972171  0.089606062            3 
 1439000    1.0124518   -2.4620094    1537.2326  0.089022041  0.089592098            3 
 1440000    1.0154785   -2.4451813    1538.7123  0.089045853  0.089578353            7 
 1441000    1.0206091   -2.5022722    1537.1752  0.088895164  0.089564515            1 
 1442000    1.0171382   -2.4801141    1548.9268  0.089512643  0.089550602            2 
 1443000    1.0294945   -2.4771567    1543.6693  0.089146994  0.089536659            1 
 1444000    1.0262559   -2.4679681    1541.8996  0.088983126  0.089522721            2 
 1445000    1.0034418    -2.454156    1545.7034  0.089140912  0.089509302            2 
 1446000    1.0263864   -2.4441262    1549.3254  0.089288004  0.089495963            2 
 1447000    1.0098558   -2.4353129    1550.6964   0.08930525   0.08948243            1 
 1448000    1.0200484   -2.4496617    1541.6718  0.088724204  0.089468498            1 
 1449000    1.0209973   -2.4649594    1548.1325  0.089034537  0.089454814            3 
 1450000    1.0457155   -2.4610982    1549.5478  0.089054473  0.089441517            2 
 1451000    1.0184347   -2.4699048    1558.2852    0.0894949  0.089427943            3 
 1452000    1.0076022   -2.4513944    1551.5967  0.089049399  0.089414522            1 
 1453000    1.0058932   -2.4392351    1549.9705  0.088894845  0.089400963            3 
 1454000    1.0260612   -2.4437416    1554.5848  0.089098164  0.089387005            2 
 1455000    1.0126852   -2.4780871    1558.3625  0.089253294  0.089373346            6 
 1456000    1.0675048   -2.4661136    1554.7157   0.08898327  0.089359831            3 
 1457000    1.0026463    -2.468336    1548.0978  0.088543686  0.089345895            3 
 1458000    1.0181605   -2.4624073    1552.4923   0.08873413  0.089332058            3 
 1459000    1.0258736   -2.4925484    1554.0194  0.088760532  0.089317898            3 
 1460000    1.0083378   -2.4742667    1560.2142  0.089053322  0.089304304            3 
 1461000    1.0069472   -2.4893725    1551.8159  0.088513341  0.089289878            2 
 1462000    1.0134229   -2.4678673    1560.8759  0.088969212   0.08927562            3 
 1463000    1.0226142   -2.4657961    1564.8793  0.089136438  0.089262183            7 
 1464000    1.0188193   -2.4539465    1566.6051  0.089173785  0.089248538            3 
 1465000    1.0252116   -2.4534247    1563.9713    0.0889631  0.089235097            3 
 1466000    1.0246269   -2.4546131    1564.4123  0.088927482  0.089221738            4 
 1467000    1.0205187   -2.4649792    1566.9749  0.089012433  0.089208297            2 
 1468000    1.0037452    -2.448359    1568.1001  0.089015672  0.089195114            2 
 1469000    1.0267319   -2.4877609    1564.2869  0.088738762  0.089182365            2 
 1470000   0.99717769   -2.4572875    1566.0189   0.08877658  0.089169178            1 
 1471000    1.0262712   -2.4663952    1569.9244  0.088937481  0.089155926            2 
 1472000    1.0167575   -2.4829759    1567.5128  0.088740535  0.089142963            2 
 1473000    1.0124286   -2.4674875    1573.7314  0.089032098  0.089130425            3 
 1474000    1.0105413   -2.4697705    1575.3743  0.089064583  0.089117784            2 
 1475000    1.0252407   -2.4755758    1572.9437  0.088866878  0.089105195            4 
 1476000    1.0152964   -2.4531325     1572.893  0.088803806  0.089092165            3 
 1477000    1.0043437   -2.4676292    1577.2803  0.088991217  0.089079214            4 
 1478000    1.0184023   -2.4519902    1578.4279  0.088995712  0.089065977            2 
 1479000    0.9913269   -2.4501321    1583.1861  0.089203637  0.089053108            1 
 1480000    1.0116975    -2.453463    1579.5696  0.088939732  0.089040643            1 
 1481000     1.001797   -2.4561698    1577.3778  0.088756345  0.089027935            4 
 1482000    1.0361391   -2.5027214    1577.5238  0.088704667  0.089015132            3 
 1483000    1.0207083   -2.4823293    1581.2874  0.088856336  0.089002349            3 
 1484000   0.99972176   -2.4959108    1582.6332  0.088872033  0.088989763            3 
 1485000    1.0223742   -2.4821941    1586.3686  0.089021809  0.088976764            1 
 1486000   0.99918727   -2.4668782    1577.4406  0.088461227  0.088963846            1 
 1487000    1.0118805    -2.470304    1583.2804   0.08872901  0.088950744            2 
 1488000    1.0018894   -2.4659297    1585.0654  0.088769343  0.088937925            2 
 1489000    1.0175202   -2.4852762    1577.8461  0.088305692  0.088924784            3 
 1490000   0.98779889   -2.4735897    1585.6976  0.088685549   0.08891172            2 
 1491000    1.0095621   -2.4738269    1587.2245  0.088711409  0.088898309            2 
 1492000     1.029708   -2.4519045    1589.2121  0.088762961  0.088885397            2 
 1493000    1.0088108    -2.476642    1590.7593   0.08878987  0.088873041            2 
 1494000   0.99713901   -2.4543479     1595.541  0.088997156  0.088860572            3 
 1495000   0.98252974   -2.4422179    1587.8452   0.08850865  0.088848211            2 
 1496000    1.0260659   -2.4524986    1589.8228  0.088559645  0.088835507            2 
 1497000    1.0254802   -2.4923899    1584.9532  0.088229417  0.088822533            4 
 1498000    1.0101001   -2.4710374    1589.4203  0.088419022  0.088809557            2 
 1499000    1.0110137   -2.4879173    1590.6613  0.088429025  0.088796626            2 
 1500000    1.0240354   -2.4684289    1597.0216  0.088723422  0.088783548            4 
 1501000    1.0340481   -2.4589745    1594.6618  0.088533302  0.088770395            5 
 1502000    1.0027023   -2.4407239    1601.8843  0.088875074  0.088757698            2 
 1503000    1.0166235   -2.4432624    1600.8272   0.08875733  0.088744677            3 
 1504000    1.0036473   -2.4696742    1604.3927  0.088895873  0.088732269            1 
 1505000    1.0207085   -2.4802478    1600.6518   0.08862967  0.088719864            1 
 1506000    1.0073484   -2.4834882    1598.6513  0.088460121  0.088707109            1 
 1507000    1.0244375   -2.4937057    1600.3902  0.088497576  0.088694603            5 
 1508000   0.98172127      -2.4651    1606.5519  0.088779395  0.088681815            1 
 1509000    1.0267113    -2.458046    1599.2645   0.08831812  0.088668966            3 
 1510000    1.0103999   -2.4604707    1604.0065   0.08852133  0.088656187            4 
 1511000    1.0242638   -2.4627992    1604.7619  0.088504408  0.088643265            2 
 1512000   0.99455192   -2.4630135    1604.7127   0.08844316  0.088630911            2 
 1513000   0.99789627   -2.4748397    1610.5069   0.08870384  0.088618735            2 
 1514000   0.99551685   -2.4482707    1608.2063  0.088518619   0.08860626            2 
 1515000   0.99911327   -2.4820454    1611.3251  0.088631743  0.088593635            1 
 1516000   0.99659851   -2.4752923    1610.3042  0.088517162  0.088581429            2 
 1517000   0.99911149   -2.4674349    1611.6246  0.088531346  0.088569266            2 
 1518000    1.0236255    -2.457976    1607.7551    0.0882606  0.088556906            3 
 1519000   0.97669811   -2.4651523    1614.3236  0.088562848  0.088544369            2 
 1520000   0.98647549   -2.4695666     1603.178  0.087893532  0.088532006            1 
 1521000    1.0000586   -2.4755413    1615.4752  0.088509489  0.088519731            1 
 1522000      1.00737    -2.452732    1617.5343  0.088564076  0.088507572            2 
 1523000    1.0338542   -2.4737547    1612.5176   0.08823143   0.08849496            1 
 1524000   0.98278899   -2.4743819    1617.5639  0.088449467  0.088482353            1 
 1525000    1.0027713   -2.4610334    1621.4657  0.088604685  0.088469751            1 
 1526000     1.002604   -2.4725108    1620.0535  0.088469499  0.088457794            2 
 1527000   0.99611683   -2.4758518    1621.7891  0.088506279  0.088445404            2 
 1528000    1.0050196   -2.4470859    1621.4232  0.088428403  0.088433261            1 
 1529000    1.0242525   -2.4837496    1624.0591  0.088514229  0.088421222            2 
 1530000   0.99155227   -2.4646811    1627.3979   0.08863823  0.088409013            1 
 1531000    1.0177589   -2.4572801    1627.4366   0.08858244  0.088397141            2 
 1532000      1.02221   -2.4758428    1625.0824  0.088396562  0.088384504            2 
 1533000   0.99769055   -2.4826199    1624.5715  0.088311129  0.088372131            3 
 1534000   0.99113276   -2.4690514    1633.1644  0.088720359  0.088359611            1 
 1535000    1.0169037   -2.4782729    1621.1298  0.088009217  0.088347505            1 
 1536000    1.0168225   -2.4568229    1625.8734   0.08820928  0.088335661            2 
 1537000    1.0135241    -2.473348    1630.6019  0.088408259  0.088323512            2 
 1538000   0.99835784   -2.4904374    1623.5647  0.087969479  0.088310955            2 
 1539000    1.0079151   -2.4679954    1633.3745  0.088443499  0.088298119            7 
 1540000    1.0098922   -2.4723266    1626.9668  0.088039326  0.088285494            1 
 1541000    1.0101059    -2.480535    1636.0526  0.088473532  0.088273258            2 
 1542000    1.0052557   -2.5034373    1625.2859  0.087834299  0.088260572            2 
 1543000   0.98612506   -2.4792491    1631.1578  0.088094502  0.088247921            2 
 1544000    1.0114882   -2.4608723    1637.2285  0.088365093  0.088235032            1 
 1545000   0.99883638   -2.5034112    1631.1498  0.087980034  0.088222092            2 
 1546000    1.0024347   -2.4545238     1629.614  0.087840343  0.088208853            3 
 1547000    1.0033549   -2.4862579    1632.4009  0.087933682  0.088195629            1 
 1548000     1.010731   -2.4868789    1632.8894  0.087903178  0.088181844            2 
 1549000    0.9875176   -2.4752838    1625.9935  0.087475442  0.088167662            2 
 1550000    1.0064873   -2.5079905    1633.5656  0.087826105  0.088153634            3 
 1551000    0.9813546   -2.4845802    1624.4802  0.087281334  0.088139215            2 
 1552000    1.0132524   -2.4855873     1635.194  0.087800363  0.088124648            2 
 1553000   0.97762156   -2.5010118     1632.742  0.087612258   0.08811064            2 
 1554000    1.0030441   -2.4994062    1638.2512   0.08785131  0.088096477            6 
 1555000    1.0110599   -2.4741016    1643.4361  0.088072675  0.088082389            2 
 1556000    1.0034623   -2.4695292    1634.4906  0.087536987   0.08806846            1 
 1557000    1.0092963   -2.4843369     1640.618  0.087808713  0.088054623            2 
 1558000    1.0118747   -2.4746572    1634.6835  0.087434934  0.088040315            2 
 1559000   0.99937691   -2.4731225    1637.4929  0.087529017  0.088026126            1 
 1560000    0.9958659   -2.4685273    1634.4972  0.087312885  0.088011441            1 
 1561000     1.019151   -2.4719455    1636.1897  0.087347304  0.087996787            3 
 1562000   0.98758741   -2.4776641    1638.2678  0.087402249  0.087982132            2 
 1563000   0.99776801   -2.4869802    1636.7769  0.087266843  0.087967378            3 
 1564000    1.0168964   -2.4579193    1642.0043  0.087489575  0.087952783            2 
 1565000   0.99638247   -2.4562825     1640.002  0.087327051  0.087937684            1 
 1566000   0.99749805   -2.4775128    1638.2993  0.087180679  0.087922905            2 
 1567000   0.98943417   -2.4754707    1646.5208  0.087562265  0.087908302            2 
 1568000   0.99810217   -2.5070015    1638.9634  0.087104771  0.087893539            3 
 1569000   0.97673711   -2.4678988    1637.8273  0.086988917  0.087878885            3 
 1570000   0.97383668   -2.4568547    1638.5438  0.086971541  0.087864027            2 
 1571000    1.0175402   -2.4915356    1644.8326  0.087249768  0.087849322            1 
 1572000   0.99596884   -2.4930931    1647.9314  0.087358537  0.087834421            2 
 1573000   0.99407925   -2.4718476     1643.188  0.087051706  0.087819129            2 
 1574000   0.96681969   -2.4774292    1644.5415   0.08706806  0.087804428            4 
 1575000    1.0213247   -2.5069327    1645.5525  0.087066269  0.087789392            4 
 1576000   0.98418507   -2.4843609    1646.0923  0.087039566  0.087774434            3 
 1577000    1.0094016    -2.487716    1651.5299  0.087271712   0.08775986            2 
 1578000   0.98192172   -2.4716282    1647.2435  0.086990045  0.087745022            1 
 1579000   0.98676326   -2.5055114    1653.7696  0.087279373  0.087730342            3 
 1580000    1.0007346   -2.4666916    1655.4164  0.087310993  0.087715847            2 
 1581000   0.97599024   -2.4613558    1654.5001  0.087207467  0.087701813            2 
 1582000   0.98503164     -2.48546    1657.5975  0.087315504  0.087687328            2 
 1583000   0.99654593   -2.4943068    1660.4853  0.087412364   0.08767302            3 
 1584000    1.0137416   -2.4777899    1655.2621   0.08708239  0.087659292            4 
 1585000   0.97823905   -2.5118459    1655.9912  0.087065782  0.087644736            1 
 1586000    1.0006574   -2.4757168    1662.2519  0.087339841  0.087630333            3 
 1587000    1.0129192   -2.4434102    1664.1011  0.087381909  0.087616784            3 
 1588000    1.0081541    -2.477874    1660.9753  0.087162851  0.087602845            2 
 1589000    1.0187914   -2.4983229    1665.0789  0.087323208  0.087589131            2 
 1590000    1.0046046    -2.496839    1662.9467  0.087156535  0.087575077            1 
 1591000    0.9790795   -2.4886037    1672.1028  0.087581334  0.087561266            2 
 1592000    1.0020168   -2.4832418    1666.7364  0.087245416  0.087547735            1 
 1593000    1.0184685   -2.4945474    1662.6181   0.08697521  0.087534282            3 
 1594000    1.0077716   -2.4719502     1662.012  0.086888958  0.087520516            2 
 1595000    1.0059496   -2.4891339    1666.0909  0.087047589  0.087506931            3 
 1596000   0.99432401   -2.4682543    1669.7271  0.087182908  0.087492999            2 
 1597000    1.0213076    -2.502696    1669.1541  0.087098419  0.087479347            1 
 1598000    1.0005142   -2.4952605    1671.5154  0.087167053    0.0874657            1 
 1599000    1.0090646   -2.4917753    1662.0688  0.086620222   0.08745142            3 
 1600000   0.99056666   -2.4918469    1666.1126  0.086776696  0.087437796            5 
 1601000   0.97970574   -2.4942533    1674.1015  0.087138326  0.087424435            2 
 1602000     1.001182   -2.4954459    1674.9329  0.087127179  0.087410685            3 
 1603000    1.0035634   -2.4711499    1674.7016  0.087060802  0.087397028            4 
 1604000   0.99797666   -2.4914699    1680.1113  0.087287578  0.087383499            2 
 1605000   0.98698737   -2.4917806    1681.2711  0.087293409  0.087370311            4 
 1606000    1.0021811   -2.4887574    1680.0143  0.087173845  0.087356965            1 
 1607000   0.96116784   -2.4671234    1689.0382  0.087587542  0.087343962            3 
 1608000    1.0045459   -2.4936647    1686.1167   0.08738167  0.087330921            4 
 1609000   0.98402875    -2.513234    1679.3647  0.086977661  0.087317813            1 
 1610000   0.98815054   -2.5236952    1688.1916  0.087380518  0.087305074            6 
 1611000   0.99690169   -2.4831948    1684.9435  0.087158261  0.087292103            3 
 1612000    1.0116485   -2.4636701       1686.4  0.087179487  0.087279116            2 
 1613000     1.011501   -2.4951874    1688.8284    0.0872509  0.087266253            4 
 1614000     0.998236   -2.4738175    1691.0186  0.087309923  0.087253681            5 
 1615000   0.99828248   -2.4728923    1685.3921  0.086965537  0.087241207            1 
 1616000   0.99976533   -2.4945068    1684.5485  0.086868219   0.08722859            3 
 1617000    1.0223656   -2.4803642    1693.0745   0.08725389   0.08721608            2 
 1618000     1.001194   -2.4822538     1689.895  0.087036207  0.087203746            2 
 1619000   0.97889263   -2.4954573    1697.6573  0.087381989  0.087191855            2 
 1620000   0.99373551   -2.4917791    1690.6703  0.086968637  0.087179439            1 
 1621000   0.98927759   -2.5088872     1694.737   0.08712405  0.087166978            2 
 1622000   0.97716886   -2.4823405     1689.819  0.086817662  0.087153973            3 
 1623000    1.0096764   -2.4934039    1694.3499  0.086996812  0.087141418            3 
 1624000   0.99574627   -2.4974299    1694.9255  0.086972778  0.087128367            1 
 1625000    0.9811776   -2.4672918    1706.6408  0.087520042  0.087115745            1 
 1626000   0.98138116   -2.5080172    1693.5373  0.086794654  0.087103064            4 
 1627000   0.98521574   -2.5002669    1702.7465  0.087212992  0.087090592            3 
 1628000   0.99622045   -2.4922208    1701.6672  0.087104177  0.087077964            2 
 1629000   0.99760867   -2.5175386     1700.332    0.0869824  0.087065187            2 
 1630000   0.96771877   -2.4737928    1706.8884  0.087264235  0.087052367            2 
 1631000   0.97545413   -2.5024461     1699.277  0.086821837  0.087039766            4 
 1632000    0.9756522   -2.4779773     1700.781  0.086845435  0.087027135            2 
 1633000   0.99818387   -2.4824456     1700.091  0.086757044  0.087014415            2 
 1634000   0.97669984   -2.4857779    1702.1317  0.086808022  0.087001477            2 
 1635000   0.95882123   -2.4797521    1706.2245  0.086963533  0.086988608            1 
 1636000   0.99734032   -2.4940346    1706.5431  0.086926603  0.086975892            2 
 1637000   0.98982048    -2.501157     1715.467  0.087327782  0.086963363            2 
 1638000   0.98502607   -2.5095218    1703.0482  0.086642663  0.086950963            1 
 1639000      0.98328   -2.4965821    1707.6555  0.086824053  0.086938134            2 
 1640000    1.0040447   -2.5064305    1704.7446  0.086623201  0.086925888            2 
 1641000   0.98360926   -2.4902222    1705.9655  0.086632416  0.086913064            5 
 1642000   0.98767209   -2.4794369     1713.262   0.08694996  0.086900162            2 
 1643000   0.95707536   -2.4771393    1709.2121  0.086691626  0.086887135            2 
 1644000    1.0042119   -2.5024294    1701.9502  0.086270792  0.086874034            3 
 1645000   0.99233466   -2.4676864    1715.4742  0.086903457  0.086860825            1 
 1646000   0.99764821   -2.4883419    1714.8833  0.086820742  0.086847881            2 
 1647000   0.96481862   -2.4927646    1711.8409  0.086614089   0.08683474            1 
 1648000   0.96993091   -2.4559661     1710.528  0.086495146  0.086821811            2 
 1649000   0.98876653   -2.5035942     1707.776  0.086303619  0.086808244            2 
 1650000   0.97859745   -2.4844654    1722.4753  0.086993702  0.086794919            2 
 1651000   0.99880596   -2.5100611    1713.5803  0.086492038  0.086781708            4 
 1652000   0.97726268   -2.5256794    1718.2941  0.086677469  0.086768302            3 
 1653000    1.0031886   -2.4979126     1717.213   0.08657053   0.08675517            3 
 1654000   0.99424494    -2.510089    1715.7683  0.086445401  0.086742014            4 
 1655000    0.9895168   -2.5091884    1712.9081  0.086249149  0.086728899            2 
 1656000   0.98775872   -2.4623388    1719.4473  0.086526132  0.086716268            4 
 1657000   0.97387547   -2.5094532    1718.3319  0.086417818  0.086703782            1 
 1658000   0.98389138   -2.4975409    1718.8979  0.086394147  0.086690909            2 
 1659000   0.98292934   -2.5188634    1729.3668  0.086867931  0.086678091            5 
 1660000   0.99236797   -2.4678312    1731.7118  0.086933323  0.086665745            2 
 1661000   0.99116806   -2.5122557    1723.1426  0.086451063  0.086653178            3 
 1662000   0.98812479   -2.5040051    1725.4402  0.086514249  0.086640634            1 
 1663000   0.97490975   -2.4854786      1725.36  0.086458206  0.086627831            4 
 1664000    1.0070812   -2.5185258     1726.343  0.086455478  0.086615188            3 
 1665000   0.97828244    -2.499638    1721.4024  0.086156277  0.086602443            2 
 1666000   0.99979528   -2.4817799    1734.6645   0.08676793  0.086589963            2 
 1667000   0.97954209   -2.5050141    1728.8127  0.086423352  0.086577398            1 
 1668000   0.98620375   -2.5037217    1731.4578  0.086503687  0.086564912            1 
 1669000   0.97735594   -2.5093081    1733.7605  0.086566831   0.08655202            2 
 1670000    0.9743142   -2.4939048    1732.8671  0.086470415  0.086539294            2 
 1671000   0.96350209   -2.4910405    1736.3483  0.086592275  0.086526673            1 
 1672000    0.9619995    -2.508412    1740.3061  0.086737745  0.086514504            2 
 1673000    1.0058763   -2.5044685     1730.987  0.086221705  0.086502072            4 
 1674000   0.96163437   -2.4882003    1737.9205  0.086515357  0.086489284            2 
 1675000   0.99114108   -2.5105414    1738.4649  0.086490789  0.086476226            5 
 1676000    1.0076865   -2.5144258    1744.7967  0.086754015   0.08646336            1 
 1677000   0.96410923   -2.4875533    1733.3518   0.08613356  0.086450694            2 
 1678000   0.99208161   -2.5110471     1734.765  0.086152412  0.086438387            1 
 1679000   0.96796537   -2.5017477    1740.6895  0.086395149  0.086425664            4 
 1680000   0.96026653   -2.4825604    1743.9307  0.086504498  0.086413129            3 
 1681000   0.96469387   -2.4832927    1739.6375   0.08624021  0.086400832            4 
 1682000    1.0008846   -2.4957138    1743.5383    0.0863822  0.086388663            1 
 1683000   0.97931939   -2.5085724    1742.3543  0.086272249  0.086376387            3 
 1684000   0.95383339    -2.496929    1745.2368  0.086363657  0.086363626            2 
 1685000   0.98542205   -2.5152695     1748.379  0.086467806  0.086351287            2 
 1686000   0.98952163   -2.5087591    1745.5226  0.086275338  0.086338629            1 
 1687000   0.98036789   -2.5100971    1740.0904  0.085955858  0.086325966            6 
 1688000   0.97751545   -2.5124827    1744.7319   0.08613408  0.086313262            4 
 1689000   0.99934575   -2.5196284    1747.9294  0.086240844  0.086300359            1 
 1690000   0.96069422   -2.5071166    1749.9844  0.086291145  0.086287265            3 
 1691000   0.99804164   -2.5017446    1750.8016  0.086280384  0.086274472            1 
 1692000   0.98078077   -2.4960901     1746.816  0.086033098  0.086261678            2 
 1693000     1.002045   -2.5125495    1753.7885  0.086325483  0.086248975            1 
 1694000    0.9651858   -2.5034643    1756.5717  0.086411439  0.086236037            3 
 1695000   0.98294929   -2.4876407    1757.5811  0.086410082  0.086223894            1 
 1696000   0.98503074   -2.4920265    1754.5575   0.08621057  0.086210982            2 
 1697000   0.97514233   -2.5045137    1754.9663  0.086179843  0.086198452            4 
 1698000   0.97565448   -2.5017739    1754.6412  0.086113133  0.086185784            2 
 1699000    0.9739334   -2.5080634    1745.7134  0.085624553  0.086173073            2 
 1700000   0.95273078   -2.5349948    1749.3189  0.085750925  0.086160131            3 
 1701000   0.98230525   -2.4924427    1750.8399  0.085775027  0.086147343            1 
 1702000    1.0030916   -2.5065641    1762.6344  0.086302113  0.086134513            1 
 1703000   0.98235521   -2.4880901    1758.8105  0.086064323  0.086121413            2 
 1704000   0.94919524   -2.5365884    1753.1158   0.08573532  0.086108363            3 
 1705000   0.98501405   -2.4719633    1764.9864  0.086265221  0.086095153            2 
 1706000   0.97545536   -2.5295253    1760.4384  0.085992498  0.086082241            2 
 1707000    0.9874273   -2.5220333    1758.4067  0.085842938  0.086068721            2 
 1708000   0.98503282   -2.5044451    1755.0303  0.085627943  0.086055383            3 
 1709000   0.98422823   -2.5193656    1764.9285   0.08606049  0.086042113            2 
 1710000    0.9989003   -2.4895803    1763.2588  0.085928789  0.086029054            1 
 1711000   0.97284108   -2.5086835     1754.861  0.085469558  0.086015743            2 
 1712000   0.96507083   -2.5126069    1764.6625  0.085896735  0.086002775            3 
 1713000   0.99398653   -2.4987257    1768.2171   0.08601951  0.085989889            1 
 1714000   0.96546594   -2.5285268    1757.8076  0.085463224  0.085977043            3 
 1715000   0.97392385   -2.5096104     1766.362  0.085829059  0.085964246            1 
 1716000   0.99262865    -2.521624    1770.4571  0.085977907   0.08595148            3 
 1717000   0.96886463   -2.5147966    1768.1733  0.085816993  0.085938648            2 
 1718000   0.99325306   -2.5132871    1771.8845  0.085947057  0.085925985            3 
 1719000   0.99535637   -2.5154437    1765.9622  0.085609956  0.085913419            2 
 1720000   0.97365333    -2.508498    1773.5168    0.0859262  0.085900812            2 
 1721000   0.97131596   -2.5065543    1772.9481  0.085848738  0.085888237            2 
 1722000   0.96822209   -2.4817217    1785.1457  0.086389165  0.085876111            2 
 1723000   0.97742883   -2.5134406    1777.2853  0.085958854  0.085864201            2 
 1724000   0.98291501   -2.5235154    1788.4979  0.086450983  0.085852038            1 
 1725000   0.96470223   -2.4981117    1773.8753  0.085694457  0.085839994            2 
 1726000   0.96924963   -2.5120465    1781.5528  0.086015488  0.085827824            2 
 1727000   0.97893891   -2.5020788    1774.0697    0.0856046  0.085815286            3 
 1728000   0.95618202   -2.5113658    1777.6079  0.085725692  0.085802967            3 
 1729000   0.96810373    -2.508832     1782.747  0.085923799   0.08579061            2 
 1730000   0.97282356    -2.530405    1777.5031  0.085621535  0.085778223            5 
 1731000   0.97680975   -2.5209379    1779.5921   0.08567264  0.085765779            2 
 1732000   0.97385049   -2.5033807    1784.4514  0.085856976  0.085753224            2 
 1733000   0.98812437   -2.5004508    1784.4134  0.085805607  0.085741047            4 
 1734000   0.97455199   -2.5252974    1777.4858  0.085423191  0.085728657            2 
 1735000   0.99555997   -2.5071889    1788.4238  0.085899318  0.085716491            3 
 1736000   0.96128831   -2.4858006    1791.7635  0.086010154  0.085704762            1 
 1737000   0.96905929   -2.5251206    1789.3529  0.085844989     0.085693            3 
 1738000   0.96247689   -2.5246127    1786.5398  0.085660713  0.085680863            2 
 1739000   0.98843256   -2.4915638    1792.0281  0.085874451  0.085668773            2 
 1740000   0.98499177   -2.5242813     1790.685  0.085760777  0.085657003            1 
 1741000   0.94510251   -2.5034138    1798.2868  0.086075379  0.085645125            2 
 1742000   0.96795811    -2.492677    1790.7594   0.08566587  0.085633048            2 
 1743000   0.97849478   -2.5153614    1800.7911  0.086096341  0.085621451            1 
 1744000   0.96081604   -2.4961593    1800.2389  0.086020587  0.085609628            2 
 1745000   0.96616842   -2.5101925    1795.6408   0.08575171  0.085597966            3 
 1746000   0.99362844   -2.5228086     1790.773  0.085470264  0.085585831            2 
 1747000   0.97033206   -2.5273431    1796.1192  0.085676357  0.085573782            2 
 1748000   0.98562619   -2.5041984    1794.9798  0.085573025  0.085561727            2 
 1749000   0.95955038   -2.5133373    1799.0614  0.085718571  0.085550205            2 
 1750000   0.99553007   -2.5147551    1789.7766  0.085227459  0.085538079            6 
 1751000   0.97640876   -2.5077364    1796.2557  0.085487136  0.085526167            3 
 1752000    0.9734498   -2.5083754    1802.0482  0.085713863  0.085513751            2 
 1753000   0.98420149   -2.5309165    1798.9696  0.085518616  0.085501786            2 
 1754000   0.96323384   -2.5245668    1796.2887   0.08534249  0.085489656            2 
 1755000   0.98185138   -2.5209394    1808.1482  0.085856989  0.085477466            2 
 1756000   0.96103535   -2.4946683    1803.1047   0.08556875   0.08546547            1 
 1757000   0.98351474    -2.506073    1804.9036  0.085605368  0.085453127            2 
 1758000   0.97339826   -2.5186985    1804.8653  0.085554857  0.085441164            2 
 1759000   0.96652888   -2.5132416    1805.3933  0.085531233  0.085429241            2 
 1760000   0.96942883   -2.5195932    1811.1227  0.085753914  0.085417175            2 
 1761000   0.95799908   -2.5121517    1806.0594  0.085465618  0.085405377            3 
 1762000   0.97171191   -2.5072705    1806.1613   0.08542193   0.08539352            6 
 1763000   0.95292228     -2.53686    1816.0437  0.085840601  0.085381544            6 
 1764000   0.96737037   -2.5465939      1804.69  0.085255574  0.085369457            2 
 1765000   0.98215622   -2.5150342    1806.9629  0.085314584  0.085357262            4 
 1766000   0.95123511   -2.5276659    1810.6497  0.085440245  0.085344726            2 
 1767000   0.97852489   -2.5332408     1813.401  0.085521646    0.0853326            1 
 1768000   0.95910028   -2.5407789    1806.8262  0.085163379  0.085320343            3 
 1769000   0.95033443   -2.5487228    1808.8122  0.085208788  0.085308138            4 
 1770000   0.97918774    -2.499045    1818.1729  0.085601363  0.085296152            3 
 1771000   0.95097915   -2.5327008    1811.1065  0.085220522  0.085283981            3 
 1772000   0.97445146   -2.5176672    1813.2731  0.085274316  0.085272012            2 
 1773000    0.9805493   -2.5337431    1814.6244  0.085289736  0.085259951            2 
 1774000   0.97874215   -2.5132699    1822.9561  0.085633037  0.085248173            2 
 1775000   0.98899161   -2.5241337    1812.8819  0.085111824  0.085236346            2 
 1776000   0.97557011   -2.5206398    1815.0642    0.0851663  0.085224161            3 
 1777000   0.97719701   -2.5410649    1817.2041  0.085218726  0.085211997            2 
 1778000   0.94470571   -2.5044656    1825.5699  0.085562893  0.085199626            2 
 1779000   0.96478393   -2.5390184    1810.9359  0.084829299  0.085186939            2 
 1780000   0.96030788   -2.5104381    1815.7461  0.085006838   0.08517461            4 
 1781000   0.97858032   -2.5256894    1822.0309  0.085253175  0.085162136            2 
 1782000   0.98036372   -2.5560099    1819.4543  0.085084844  0.085149365            3 
 1783000   0.95642957    -2.500373    1820.1166  0.085068078  0.085136836            4 
 1784000   0.95920956   -2.5132065    1817.9767  0.084920436   0.08512439            5 
 1785000   0.94461444   -2.5257529    1820.5759  0.084994205   0.08511162            3 
 1786000    0.9591886   -2.5405238    1826.1508   0.08520674  0.085099071            2 
 1787000   0.98731646    -2.519631     1825.632  0.085134862  0.085086762            3 
 1788000   0.97128193   -2.5225666    1826.6695  0.085135602  0.085074077            1 
 1789000   0.94814718   -2.5171752    1825.0804  0.085013991  0.085061295            5 
 1790000   0.97923724   -2.5216287    1836.9182  0.085517607  0.085049098           10 
 1791000    0.9574658   -2.5233693    1829.4192  0.085120938  0.085037104            4 
 1792000   0.95470011   -2.5432609    1829.2095  0.085063687  0.085024715            2 
 1793000   0.94524507   -2.5267056    1824.5958  0.084801814  0.085012756            2 
 1794000   0.96449785   -2.5178619    1831.6511  0.085082268   0.08500042            1 
 1795000   0.97026596   -2.5312737    1831.7637  0.085040098  0.084988157            1 
 1796000   0.96800101   -2.5429125    1834.1883  0.085105248   0.08497579            1 
 1797000   0.95141327    -2.551194    1833.8477  0.085042094  0.084963172            3 
 1798000   0.95735435   -2.5055825    1832.3547  0.084925598  0.084951001            3 
 1799000   0.94899466   -2.5288362    1824.7767  0.084527364  0.084938427            4 
 1800000   0.95215397   -2.5020639    1840.5681  0.085211487  0.084925899            4 
 1801000    0.9368841    -2.521529    1837.2235  0.085009414  0.084913874            2 
 1802000   0.98281987   -2.5315178    1825.1866  0.084405595  0.084901357            2 
 1803000   0.96274849   -2.5270555     1835.965  0.084856949  0.084888576            2 
 1804000   0.97040848   -2.5160352    1832.9326  0.084669835   0.08487637            5 
 1805000   0.95307951   -2.5409401    1837.2826   0.08482376  0.084863916            3 
 1806000   0.96219271   -2.5188163    1841.6759  0.084979507  0.084851402            2 
 1807000   0.94535747   -2.5535404     1842.474  0.084969284  0.084839313            3 
 1808000   0.97739599   -2.5385525    1838.9463  0.084759693  0.084826609            3 
 1809000   0.97281288   -2.5194458    1837.2678  0.084635516  0.084814022            3 
 1810000   0.96391472   -2.5384113    1834.2378  0.084449255  0.084801121            1 
 1811000   0.95745642    -2.536165    1839.5222  0.084645786  0.084788456            5 
 1812000    0.9763099   -2.5131223     1835.874  0.084431291  0.084775728            2 
 1813000   0.94123059   -2.5492903    1842.4994  0.084689252  0.084762924            3 
 1814000   0.95348995    -2.528283    1834.5594  0.084277813  0.084749642            7 
 1815000   0.94383103     -2.52646     1844.883  0.084705373  0.084736957            2 
 1816000   0.96652001   -2.5114253    1831.7345  0.084055366  0.084723834            2 
 1817000   0.95076769   -2.5363471    1842.6639  0.084510362   0.08471032            4 
 1818000   0.98726194   -2.5161979    1845.9155  0.084612924  0.084696752            2 
 1819000   0.97422749   -2.5295645    1842.4328  0.084406854  0.084682721            2 
 1820000   0.95434808   -2.5076844    1844.4371  0.084452249   0.08466888            1 
 1821000   0.96251828   -2.5278671     1838.769  0.084146486  0.084655522            2 
 1822000   0.96108922    -2.514917    1844.6581  0.084369653  0.084641754            2 
 1823000   0.96072526   -2.5380666    1837.0577  0.083975941  0.084628062            2 
 1824000   0.95170415   -2.5283948    1836.2888  0.083894774  0.084614129            1 
 1825000   0.98015912    -2.491436    1847.4461  0.084358268  0.084600369            1 
 1826000   0.94527346   -2.5401772    1844.1749  0.084162782  0.084586759            1 
 1827000   0.97713892   -2.5403772    1842.6354  0.084046498  0.084573123            2 
 1828000   0.96887872   -2.5556398    1848.1593  0.084252339  0.084559533            3 
 1829000   0.95468358   -2.5179358     1846.284  0.084120831  0.084545175            3 
 1830000   0.96658463    -2.529513    1839.9221   0.08378516  0.084531133            2 
 1831000   0.96188967    -2.527348    1851.4676  0.084264866  0.084517277            1 
 1832000   0.97505105    -2.512266    1853.9437  0.084331502  0.084503519            4 
 1833000    0.9729191   -2.5430868    1851.0236  0.084152736  0.084490123            2 
 1834000   0.94549917   -2.5388576    1853.2211    0.0842067  0.084476135            2 
 1835000   0.97376298   -2.5213444    1851.4912  0.084082254  0.084462828            2 
 1836000   0.96529966   -2.5866623    1849.5194  0.083946957  0.084449354            2 
 1837000   0.96486541   -2.5268062    1855.4073  0.084168359  0.084435659            1 
 1838000   0.97237254    -2.534572    1855.7288   0.08413714   0.08442209            4 
 1839000   0.98173715   -2.5516135    1856.4603  0.084124536  0.084408603            4 
 1840000   0.95377338   -2.5483063    1850.8859  0.083826355  0.084395033            3 
 1841000   0.95044857   -2.5270409    1851.8697  0.083825353  0.084381592            4 
 1842000   0.95274334    -2.520741    1858.5619  0.084082606    0.0843679            3 
 1843000   0.96478846    -2.498256     1866.672  0.084403689  0.084354289            2 
 1844000   0.95811572   -2.5403382    1859.3817  0.084028457   0.08434097            3 
 1845000   0.94519777   -2.5319158     1860.231  0.084021272  0.084327615            4 
 1846000   0.96845141   -2.5458887    1864.4822   0.08416767  0.084314393            2 
 1847000   0.94500953   -2.5353931     1861.071  0.083968191  0.084301171            4 
 1848000   0.96529662   -2.5020718    1873.2916  0.084473828  0.084288372            1 
 1849000   0.95164283   -2.5359736    1861.7772  0.083909194  0.084275084            3 
 1850000   0.95707721   -2.5416613    1863.7694  0.083953574  0.084261748            3 
 1851000   0.96304075   -2.5278059    1865.9772  0.084007616  0.084248551            3 
 1852000   0.95435481    -2.536549    1871.7792  0.084223328  0.084235625            1 
 1853000   0.93968924   -2.5152427    1873.1134  0.084237877  0.084222927            5 
 1854000   0.96506944    -2.547476    1871.4956  0.084119723  0.084209785            1 
 1855000   0.93056964   -2.5135403    1866.2849  0.083840294  0.084196974            3 
 1856000   0.94612832   -2.5207178    1875.1419  0.084192792  0.084184264            4 
 1857000    0.9557255   -2.5063257    1882.2461  0.084466258  0.084171564            2 
 1858000   0.94236329   -2.5062553    1872.0046  0.083961457  0.084158992            1 
 1859000   0.94778289   -2.5382767    1868.8941  0.083776854  0.084146051            2 
 1860000   0.95532791   -2.5482674    1874.1183  0.083965875  0.084133305            4 
 1861000   0.93467949   -2.4931862    1877.1936  0.084058465  0.084120704            2 
 1862000   0.96673153   -2.5657514    1886.8499  0.084445483  0.084107859            2 
 1863000   0.96320484    -2.520346    1879.0371  0.084050683  0.084094956            2 
 1864000   0.93060929    -2.547491    1880.4404  0.084068331  0.084082281            1 
 1865000   0.95562635    -2.568306    1876.4098  0.083843153  0.084069637            1 
 1866000   0.96312165   -2.5389163    1879.3178  0.083928091  0.084056532            1 
 1867000   0.93793961   -2.5229097     1878.337  0.083839361  0.084043742            2 
 1868000   0.95284701   -2.5201261    1879.6515  0.083853118  0.084030713            2 
 1869000   0.93678937   -2.5577163    1875.3391  0.083615976  0.084017453            3 
 1870000   0.96854301   -2.5139238    1880.6789   0.08380922   0.08400404            1 
 1871000    0.9390387   -2.5420424    1878.4126  0.083663485  0.083990759            3 
 1872000   0.96495576   -2.5232035    1875.6806  0.083497176  0.083977235            2 
 1873000   0.96551924   -2.5346177    1878.8553  0.083593846  0.083964055            3 
 1874000   0.95133899   -2.5341539     1880.319  0.083614326  0.083950915            1 
 1875000   0.96143385   -2.5562913     1887.175  0.083874446  0.083937519            2 
 1876000   0.95378208    -2.545885    1880.7897  0.083546094  0.083924181            1 
 1877000   0.95228458    -2.556864    1887.9724  0.083820475  0.083910886            2 
 1878000   0.94732723   -2.5374279     1887.929  0.083773918  0.083897604            3 
 1879000   0.94826264   -2.5531337    1894.8018  0.084034142  0.083884712            2 
 1880000   0.94183635   -2.5270328    1885.0301  0.083556297  0.083871781            2 
 1881000   0.94259439   -2.5641402    1885.6495  0.083539319  0.083858798            6 
 1882000   0.95811546   -2.5382457    1898.7824  0.084076442  0.083845565            2 
 1883000   0.96183693   -2.5175673     1885.382  0.083438752  0.083832746            3 
 1884000   0.95416337    -2.556839    1887.9796  0.083509359  0.083819847            3 
 1885000   0.94053588   -2.5226647    1892.8934   0.08368229  0.083807085            1 
 1886000   0.96382734   -2.5341398    1894.1472  0.083693319   0.08379396            2 
 1887000   0.94229268   -2.5268596     1892.719  0.083585894  0.083781411            2 
 1888000   0.95913982   -2.5248224    1894.1623  0.083605328  0.083768629            2 
 1889000   0.96560859   -2.5444395    1904.2572  0.084006405  0.083756059            3 
 1890000   0.94892241   -2.5411566    1900.4831  0.083795552  0.083743415            3 
 1891000   0.94085358    -2.562176    1890.9568  0.083331428  0.083730648            2 
 1892000   0.96496273   -2.5457555    1896.5946  0.083535705  0.083717902            2 
 1893000   0.94038694   -2.5474059      1904.85  0.083854992  0.083705399            2 
 1894000   0.96021617   -2.5491851    1904.4764  0.083794278  0.083692796            1 
 1895000    0.9390874   -2.5471403    1897.7343  0.083453575  0.083680353            3 
 1896000    0.9446386   -2.5276847    1904.0421  0.083686799  0.083667657            2 
 1897000   0.95077436   -2.5537093     1906.341  0.083743674  0.083655379            2 
 1898000   0.94313294   -2.5416943    1907.4458   0.08374806  0.083643033            1 
 1899000   0.94780277   -2.5280098    1904.7016  0.083583537  0.083630307            3 
 1900000   0.93381477   -2.5175459    1904.1156  0.083513843  0.083617765            2 
 1901000   0.94418815    -2.550171       1907.5  0.083618273  0.083605033            2 
 1902000   0.94461852   -2.5459237    1913.8516  0.083852595  0.083592263            3 
 1903000   0.94832857   -2.5451866    1904.1363  0.083383094  0.083579529            2 
 1904000   0.93738452   -2.5297059    1909.7604  0.083585454  0.083566608            2 
 1905000   0.95514545   -2.5600664    1903.7182  0.083277261  0.083553661            3 
 1906000   0.95796018   -2.5488166    1903.6061  0.083228668  0.083541002            2 
 1907000   0.94188813   -2.5620182    1912.9687  0.083594158  0.083528174            3 
 1908000   0.95312233   -2.5390957     1913.898  0.083590931    0.0835156            2 
 1909000   0.94947433   -2.5319741    1912.0183  0.083465091  0.083503212            1 
 1910000   0.96546188   -2.5132634    1918.5865  0.083707962   0.08349082            3 
 1911000    0.9473242    -2.566339    1906.6822  0.083145047  0.083478406            3 
 1912000   0.93951534   -2.5578445    1911.4035  0.083307334  0.083465358            7 
 1913000   0.94808697   -2.5473073    1921.2413  0.083692337  0.083452741            3 
 1914000   0.96181368   -2.5535764    1911.5635  0.083227252  0.083440383            3 
 1915000   0.94008334   -2.5662473    1922.4033  0.083655494  0.083427771            6 
 1916000   0.94803407   -2.5319468    1918.5563  0.083444514   0.08341538            3 
 1917000   0.94884859   -2.5616787    1913.8935  0.083198292  0.083402515            2 
 1918000   0.93958901   -2.5463646    1919.5167  0.083399233  0.083389794            2 
 1919000   0.93561318   -2.5370776    1925.8847  0.083632302  0.083377101            2 
 1920000   0.93514514   -2.5659868    1913.4995  0.083051192  0.083364162            2 
 1921000   0.93930637   -2.5295079    1925.1122  0.083511721  0.083351219            4 
 1922000    0.9584122   -2.5611144    1923.1822   0.08338459  0.083338715            2 
 1923000    0.9475913   -2.5540734    1924.3799  0.083393131  0.083325951            2 
 1924000   0.92748392   -2.5571537    1924.9641  0.083375092  0.083312916            2 
 1925000   0.94970379   -2.5383397    1924.8299  0.083325968  0.083300131            1 
 1926000   0.94278005   -2.5690972    1920.5354  0.083096895  0.083287344            3 
 1927000   0.96667158   -2.5449511    1925.7201  0.083277982  0.083274658            2 
 1928000   0.96370711   -2.5562324    1926.2851  0.083259212  0.083261913            2 
 1929000   0.94387154   -2.5370866    1930.6997  0.083406763  0.083249389            3 
 1930000   0.94792371   -2.5644383    1924.1989  0.083082854  0.083236755            5 
 1931000   0.95023016   -2.5320266    1930.5652  0.083314569  0.083223831            4 
 1932000   0.95472507   -2.5458604    1925.1905  0.083039618  0.083210888            6 
 1933000    0.9349888   -2.5767001    1919.8412  0.082766048  0.083197902            2 
 1934000   0.95260191   -2.5254614    1932.7429  0.083279167  0.083185173            3 
 1935000   0.92796626   -2.5637124    1925.2485  0.082913372  0.083172494            2 
 1936000   0.90564609   -2.5282542     1934.482  0.083267991  0.083159935            3 
 1937000   0.93068504   -2.5498581    1930.1169   0.08303721   0.08314705            3 
 1938000   0.93603764   -2.5456875     1930.653  0.083017415  0.083134554            2 
 1939000   0.92552914   -2.5373887    1933.3021  0.083088453   0.08312193            3 
 1940000   0.94627702   -2.5490547    1932.8113   0.08302454     0.083109            2 
 1941000   0.93839334   -2.5570629     1936.212   0.08312777   0.08309609            8 
 1942000   0.93619173   -2.5488805    1938.1458  0.083167946  0.083083457            3 
 1943000   0.95576347   -2.5696625    1936.3978  0.083050169  0.083070361            4 
 1944000   0.95253805   -2.5555768    1934.7164  0.082935374  0.083057613            1 
 1945000   0.93732749   -2.5399055    1932.2677   0.08278782  0.083044806            2 
 1946000   0.93383441   -2.5779886     1933.112  0.082781434  0.083031698            1 
 1947000   0.93567304   -2.5611467     1937.885  0.082943204  0.083018376            1 
 1948000   0.94848617   -2.5615938    1931.9767  0.082647873  0.083005559            3 
 1949000   0.94132395   -2.5347742    1935.5091  0.082756505   0.08299236            2 
 1950000   0.91825526   -2.5534312     1935.598  0.082717865  0.082979565            2 
 1951000   0.93576617   -2.5547658    1939.7309  0.082851995  0.082966662            3 
 1952000   0.94320981   -2.5682701    1947.6901  0.083149338  0.082953608            2 
 1953000   0.93120663   -2.5685364    1936.8557  0.082644465  0.082940697            4 
 1954000   0.93617331   -2.5659388    1938.3929   0.08266773  0.082927653            2 
 1955000   0.92497716   -2.5754437    1939.2785  0.082663191  0.082914687            4 
 1956000   0.94931733   -2.5440178    1950.2669  0.083089083  0.082901756            2 
 1957000   0.92208365   -2.5470494    1947.5964  0.082932905  0.082888915            2 
 1958000   0.95372447    -2.553698     1947.247   0.08287568  0.082876282            3 
 1959000   0.96284386   -2.5467368    1948.1338  0.082871098  0.082863625            3 
 1960000   0.93481882   -2.5433629    1947.5236  0.082802873  0.082850693            2 
 1961000   0.94865087   -2.5499177    1941.3993  0.082500397  0.082837852            2 
 1962000    0.9269412   -2.5129523    1951.5365  0.082888911  0.082825207            2 
 1963000   0.94600473   -2.5657308    1945.4822  0.082589667  0.082812376            3 
 1964000   0.94724549   -2.5597942    1958.0898  0.083082559  0.082799379            4 
 1965000   0.93766426   -2.5610436    1948.0601  0.082614933  0.082786292            3 
 1966000     0.929353    -2.546512    1953.9046  0.082820644  0.082773466            3 
 1967000   0.92377775   -2.5517398     1947.836  0.082521439  0.082760182            1 
 1968000   0.93058703   -2.5487127    1949.6733  0.082557303  0.082746865            4 
 1969000   0.96189119   -2.5635962    1952.4215  0.082631688   0.08273396            2 
 1970000   0.94079105   -2.5562503    1953.4519  0.082633329  0.082720678            2 
 1971000   0.95034621   -2.5425802    1946.0158  0.082277008  0.082707856            2 
 1972000     0.932637   -2.5266603    1958.1787  0.082749267  0.082694693            3 
 1973000   0.93376373    -2.571305    1949.1579  0.082326319   0.08268151            3 
 1974000   0.95145434   -2.5496274    1946.5809  0.082175824  0.082668271            2 
 1975000   0.94818162   -2.5557862    1954.0713  0.082450267  0.082655183            2 
 1976000   0.93829322   -2.5613255    1957.0186  0.082532838  0.082642312            4 
 1977000   0.93991531   -2.5377233    1955.1608  0.082412779  0.082629643            3 
 1978000    0.9300707   -2.5560101    1953.9826  0.082321479  0.082616679            1 
 1979000   0.92266094   -2.5587124    1959.9047  0.082529252  0.082603974            2 
 1980000    0.9394707   -2.5110942    1970.3073  0.082925393  0.082591574            3 
 1981000   0.93289315    -2.551586    1967.9646   0.08278498  0.082579154            2 
 1982000   0.94901844   -2.5724321    1962.5438  0.082515296  0.082566463            3 
 1983000   0.93298522   -2.5572676    1963.0702  0.082495805  0.082553403            2 
 1984000   0.95439931   -2.5427596    1957.9995  0.082241243  0.082540988            2 
 1985000   0.94062275   -2.5641904    1963.5365  0.082432265  0.082528191            2 
 1986000   0.91388595   -2.5226783    1967.4509  0.082555005  0.082515343            4 
 1987000   0.94803818    -2.562234    1963.2487  0.082337221  0.082502651            6 
 1988000   0.91669693   -2.5666256    1966.0486  0.082413173  0.082489841            3 
 1989000   0.94492028   -2.5539143    1964.0196  0.082286727  0.082476869            1 
 1990000   0.92839289   -2.5666542    1969.5025  0.082474978  0.082463918            2 
 1991000   0.91034376   -2.5550578    1970.0962  0.082458403  0.082450858            3 
 1992000   0.94296527   -2.5396363    1963.5369  0.082142609  0.082438119            1 
 1993000   0.95236396   -2.5564963    1974.4802  0.082558966  0.082425188            9 
 1994000   0.96730635   -2.5693259    1969.1685  0.082295576  0.082412276            2 
 1995000   0.91411011   -2.5460851     1961.023  0.081914078  0.082399037            5 
 1996000   0.93269873   -2.5554333    1975.4531  0.082475496  0.082386038            2 
 1997000   0.94716899   -2.5638698    1979.6316  0.082608561  0.082373018            2 
 1998000   0.94465635   -2.5467966    1974.4537  0.082351255  0.082360057            3 
 1999000   0.92953407   -2.5955769    1965.6874  0.081944613  0.082346762            2 
 2000000   0.93354708    -2.573146     1970.633  0.082109706  0.082333558            3 
 2001000   0.93032164   -2.5755757    1969.2387  0.082010606  0.082320306            2 
 2002000   0.95100881   -2.5600273    1972.9898  0.082125781  0.082307803            3 
 2003000   0.91230192   -2.5577808    1973.0207  0.082086066  0.082294775            7 
 2004000   0.94151222   -2.5643112     1977.852  0.082246007  0.082282117            2 
 2005000   0.94143593   -2.5740985    1972.8852  0.081998555  0.082269234            1 
 2006000   0.92671829   -2.5354547    1978.8584  0.082205818  0.082256331            3 
 2007000   0.91639545   -2.5593091    1983.1084  0.082341321  0.082243701            1 
 2008000   0.92167536    -2.561146    1974.9501   0.08196174  0.082230734            1 
 2009000   0.91549991   -2.6019346    1979.0846  0.082092442  0.082217973            4 
 2010000   0.92396448   -2.5669326    1977.2607  0.081975983  0.082204931            4 
 2011000   0.93838197    -2.542778    1981.2637  0.082101097  0.082192306            1 
 2012000   0.91310327   -2.5274453    1993.3851   0.08256234  0.082180096            3 
 2013000   0.91352454   -2.5468056    1990.8457    0.0824162  0.082167981            4 
 2014000   0.92182205   -2.5624717     1987.994  0.082257282  0.082155942            4 
 2015000   0.91621218   -2.5619638    1991.3109  0.082353634  0.082143715            3 
 2016000   0.93766116   -2.5403836     1989.453  0.082235987  0.082131521            2 
 2017000   0.92473461   -2.5686487    1989.5913   0.08220093  0.082119401            2 
 2018000   0.94116452   -2.5701476    1982.4256  0.081864287  0.082107313            4 
 2019000   0.92585255   -2.5445972    2000.9135  0.082586821   0.08209536            2 
 2020000   0.91222461   -2.5550167    1995.5689  0.082325451  0.082083095            2 
 2021000   0.91083707   -2.5741482    1989.4715  0.082033295  0.082070658            1 
 2022000   0.92183505   -2.5425838    1998.0901  0.082347925  0.082058373            4 
 2023000   0.92539396    -2.557475    1993.5025  0.082118246    0.0820459            1 
 2024000   0.92720284   -2.5314479    1997.2069  0.082230191  0.082033491            2 
 2025000   0.93175471   -2.5801084    1998.1478  0.082228305  0.082021155            2 
 2026000   0.91464877   -2.5747175    1992.8171  0.081968454  0.082008947            2 
 2027000   0.91762852   -2.5804039    1992.0714  0.081897362  0.081996378            3 
 2028000   0.91898236   -2.5720178     1999.585  0.082165723  0.081984249            6 
 2029000   0.92431721   -2.5612296    2002.3501  0.082238791  0.081971594            2 
 2030000   0.94516569   -2.5564649    1997.4933  0.081998905  0.081959045            2 
 2031000    0.9171607   -2.5818767    1998.6175  0.082004656  0.081946325            2 
 2032000   0.93786885   -2.5807881     1996.541  0.081879144  0.081933662            2 
 2033000   0.91508685   -2.5579456    2002.5357  0.082084592  0.081921002            1 
 2034000   0.91787116   -2.5787337    1995.3006  0.081747813  0.081908468            2 
 2035000   0.92671115   -2.5535901    1996.0851  0.081739765  0.081895435            6 
 2036000   0.92041305   -2.5658391    1998.0683  0.081780793  0.081882804            3 
 2037000   0.93432881   -2.5593706    2002.4153  0.081918478  0.081869866            2 
 2038000   0.90162591   -2.5795165    2000.5674  0.081802721  0.081856928            2 
 2039000   0.92813656   -2.5722643    1996.7337  0.081605921  0.081843862            2 
 2040000   0.91134022   -2.5636612    2007.5506  0.082007787  0.081830842            2 
 2041000   0.93713595   -2.5799089    2004.3887  0.081838507    0.0818177            5 
 2042000   0.92577076   -2.5695719    1998.3406  0.081551608  0.081804842            2 
 2043000    0.9213849   -2.5740863    2003.3484  0.081715955  0.081791858            2 
 2044000   0.91673598   -2.5701838    2000.0593  0.081541883  0.081779095            3 
 2045000   0.93405393   -2.5782833    2003.8286  0.081655606  0.081766258            7 
 2046000   0.93587522   -2.5783968     2006.411  0.081720879  0.081753358            3 
 2047000   0.92299553   -2.5316328    2003.2424  0.081551963   0.08174029            3 
 2048000     0.949119   -2.5874222    2014.1772  0.081957078  0.081727278            3 
 2049000   0.92463074   -2.5803808     2011.858  0.081822761  0.081714168            2 
 2050000   0.94758748   -2.6092435    1999.5739  0.081283494  0.081701043            2 
 2051000    0.9334803   -2.5683503    2002.7557   0.08137314  0.081687603            3 
 2052000   0.92939224    -2.560533    2008.2139  0.081555144  0.081674587            3 
 2053000   0.92515966   -2.5607947    2012.4727  0.081688291  0.081661692            4 
 2054000   0.91003339   -2.6138185    2011.5018  0.081609127  0.081648806            2 
 2055000   0.93442128   -2.5613192    2010.3986  0.081524681  0.081635881            1 
 2056000   0.91899125   -2.5505985    2004.3046  0.081238026  0.081622618            2 
 2057000   0.93506135   -2.5747548     2016.135  0.081677808   0.08160922            7 
 2058000   0.92307526   -2.5955287    2015.5627  0.081614945  0.081595946            2 
 2059000   0.93050402   -2.5721774    2005.2161  0.081156551  0.081582854            2 
 2060000   0.92207367   -2.5606167    2022.7208  0.081825275  0.081569544            2 
 2061000   0.90099525   -2.5869914    2008.7827  0.081222009   0.08155634            3 
 2062000   0.93004647   -2.5829871    2011.0713  0.081275109  0.081542955            2 
 2063000   0.91002687   -2.5655759    2011.2989  0.081244906   0.08152938            4 
 2064000   0.91910695   -2.5827111    2005.8584  0.080985884  0.081515909            4 
 2065000   0.94289633   -2.5834232    2007.8845   0.08102843  0.081502442            2 
 2066000    0.9188508    -2.561623    2012.0034   0.08115535  0.081488794            3 
 2067000   0.91150821   -2.5791929    2010.4518  0.081053532   0.08147511            3 
 2068000   0.93467651   -2.5494229    2012.3997   0.08109283  0.081461302            2 
 2069000   0.92442659   -2.5950123    2018.3129  0.081291802  0.081447612            1 
 2070000   0.93197027    -2.559178    2009.9559  0.080916099  0.081433938            2 
 2071000   0.92214425   -2.5885069    2010.1539  0.080884995  0.081420416            2 
 2072000   0.90490336   -2.5738154    2021.8571  0.081316645  0.081406737            3 
 2073000   0.90540279   -2.5688317    2015.7954  0.081033743  0.081393379            3 
 2074000   0.93168885    -2.575631    2015.5569   0.08098509  0.081379675            5 
 2075000   0.90313112   -2.5589609     2017.157   0.08101032  0.081365877            4 
 2076000   0.91690103   -2.5787406    2025.1888  0.081293707  0.081351985            1 
 2077000   0.90314759   -2.5664912    2018.5134  0.080986735   0.08133821            2 
 2078000    0.9243863   -2.5829075    2016.9811  0.080886312  0.081324789            3 
 2079000    0.9256603   -2.5665587    2013.8349  0.080721295  0.081311163            2 
 2080000   0.88767075   -2.5819948    2015.0379  0.080730684  0.081297569            2 
 2081000   0.90754816   -2.5700427    2022.0629  0.080973206   0.08128402            2 
 2082000   0.92535182   -2.5554071    2030.1137  0.081256554  0.081270641            3 
 2083000   0.91030381   -2.5662675    2026.3474  0.081066865  0.081257284            3 
 2084000   0.92195253   -2.5860832    2017.0984  0.080658127  0.081243472            3 
 2085000   0.93728309   -2.5913833    2024.9633  0.080933785  0.081229755            3 
 2086000   0.90334785   -2.5767585    2021.6499  0.080762619  0.081216199            2 
 2087000   0.93446301   -2.5712659    2024.6206  0.080842543  0.081202525            2 
 2088000   0.90790838   -2.5703298    2025.9199   0.08085568  0.081188834            4 
 2089000   0.90991895   -2.5824152    2028.9342   0.08093722  0.081174863            3 
 2090000   0.93132805   -2.5834262    2022.6883  0.080649454  0.081160966            4 
 2091000   0.93599581    -2.565085    2026.0991  0.080746816  0.081147399            2 
 2092000   0.90745897   -2.5690147    2031.7036   0.08093147   0.08113399            5 
 2093000   0.92757425   -2.5950851    2032.4345  0.080921902   0.08112064            2 
 2094000   0.92571227   -2.5824678    2032.3153  0.080878515  0.081107084            3 
 2095000   0.92942924   -2.5687303    2027.5029  0.080648485   0.08109341            5 
 2096000   0.91027768   -2.5926293    2027.7835  0.080621163  0.081079862            2 
 2097000   0.90926219   -2.5872979    2031.1338  0.080715856  0.081066534            2 
 2098000    0.9233981   -2.5944489    2026.6479  0.080499203  0.081053133            2 
 2099000   0.91436408   -2.5712771    2025.0118  0.080395896   0.08103962            5 
 2100000   0.91664362   -2.5906972    2030.4604  0.080573825  0.081026282            3 
 2101000   0.90825314   -2.5732983    2035.4846  0.080734754  0.081013055            4 
 2102000   0.91583091   -2.5828236    2043.2929  0.081005903  0.080999604            2 
 2103000   0.91588233   -2.5825174    2031.9063   0.08051618  0.080986152            3 
 2104000   0.92866059   -2.5713117    2033.0303  0.080522429  0.080973008            4 
 2105000   0.91986231   -2.5926574    2038.3188  0.080693538  0.080959949            4 
 2106000   0.91923174   -2.5908383    2041.5727  0.080783978  0.080946899            3 
 2107000   0.94119377   -2.5766403    2032.6826  0.080394029  0.080933191            2 
 2108000   0.90447311   -2.5601845    2040.9463  0.080682571  0.080919933            2 
 2109000   0.89238688   -2.5819426    2036.0113  0.080449318  0.080906425            4 
 2110000   0.91767575    -2.595496    2036.1021  0.080414776  0.080892909            2 
 2111000    0.9185488   -2.5710806    2045.2557  0.080738027  0.080879505            3 
 2112000   0.92143527   -2.5821988    2044.2187   0.08065888  0.080866344            3 
 2113000   0.89887775   -2.5986552    2036.2983  0.080308341  0.080852991            4 
 2114000   0.92759513   -2.5933273    2044.4523  0.080591783  0.080839406            5 
 2115000   0.91782294   -2.5937567    2034.9525  0.080179373  0.080825941            4 
 2116000   0.86655019   -2.5689667     2046.499  0.080596212  0.080812645            5 
 2117000   0.89507955    -2.579826    2043.5001  0.080440093  0.080799187            2 
 2118000   0.91630559    -2.591399    2050.5407  0.080679128  0.080786037            2 
 2119000   0.92999578   -2.5759127     2045.315  0.080435545   0.08077265            3 
 2120000   0.92326372   -2.6066266    2048.6875   0.08053017   0.08075954            3 
 2121000   0.91759668   -2.5790882    2051.8518  0.080616524  0.080746168            2 
 2122000   0.88920383    -2.612033    2048.8371  0.080460143   0.08073303            4 
 2123000   0.91798182    -2.591792     2048.183   0.08039657  0.080719827            3 
 2124000   0.90475376   -2.5881335    2061.2072   0.08086971  0.080706681            2 
 2125000   0.91542606   -2.5988542     2045.603  0.080219727  0.080693479            3 
 2126000   0.91781594   -2.5731997    2062.8872  0.080859484  0.080680293            2 
 2127000   0.92140302   -2.6001765    2055.9898  0.080551238  0.080667035           10 
 2128000   0.90449518   -2.5761496    2055.0256  0.080475628  0.080653935            3 
 2129000   0.92668756   -2.5926115    2058.3775  0.080569026  0.080640833            6 
 2130000   0.89459371   -2.5873698    2061.4299  0.080650621  0.080627516            2 
 2131000   0.90792891   -2.5578963     2055.717   0.08038937  0.080614275            1 
 2132000    0.9179225   -2.5590472    2063.6369  0.080661228  0.080600854            4 
 2133000    0.9206504   -2.5893862    2060.0363  0.080482745  0.080587796            4 
 2134000   0.91552933   -2.6125466    2060.4888    0.0804627  0.080574479            6 
 2135000   0.91082321   -2.5930922    2052.4759  0.080112251  0.080561291            6 
 2136000   0.90694106   -2.6084536    2058.5973  0.080313567  0.080547907            3 
 2137000    0.8966812   -2.5883145    2052.5218  0.080039066  0.080534431            3 
 2138000   0.91241036   -2.5968361    2066.3129   0.08053917  0.080521014            3 
 2139000   0.90248193   -2.5784813    2060.2829  0.080266591  0.080507774            2 
 2140000   0.90356368    -2.610835    2058.5645   0.08016217  0.080494406            2 
 2141000    0.9159462   -2.5978449    2064.4277  0.080352938  0.080481093            2 
 2142000   0.92604838   -2.5801657    2060.8436   0.08017599  0.080467835            2 
 2143000   0.90599798   -2.5911905    2072.0371   0.08057385  0.080454638            3 
 2144000    0.9164284   -2.5868045    2068.5423  0.080400431  0.080441685            2 
 2145000    0.9026616   -2.5896227     2064.046  0.080188268  0.080428489            3 
 2146000   0.91341927   -2.6101048    2062.5473  0.080092704  0.080415356            3 
 2147000   0.92536881   -2.5774214    2073.0104  0.080461514  0.080402243            3 
 2148000    0.9057844   -2.5907951    2069.1226  0.080273223  0.080389324            3 
 2149000   0.91174564   -2.6105892    2065.0383  0.080077491  0.080376542            4 
 2150000   0.90905741   -2.5888665    2068.2339  0.080164106  0.080363677            2 
 2151000   0.91349867    -2.595296    2070.7788   0.08022543  0.080350513            3 
 2152000   0.95687772   -2.5864859    2077.9907   0.08046742  0.080337619            1 
 2153000   0.91218418   -2.5863096     2081.645  0.080571489  0.080324909            2 
 2154000   0.90860858   -2.5794108    2079.2936  0.080443113  0.080311968            5 
 2155000   0.89990761   -2.5966664    2077.0908  0.080320602  0.080299032            3 
 2156000   0.90787528   -2.5803688    2073.4103   0.08014109  0.080286041            4 
 2157000   0.92442255   -2.5965498    2076.3981  0.080219366  0.080273036            4 
 2158000   0.90588971   -2.5816165    2073.6331  0.080075419   0.08026021            2 
 2159000   0.90608411   -2.6165963    2075.7728  0.080120921  0.080247058            6 
 2160000   0.92036586   -2.6137019    2073.7009  0.080003892  0.080233826            1 
 2161000   0.90580834    -2.604549    2068.9714  0.079784491  0.080220716            1 
 2162000   0.93686687   -2.6000633    2081.3008  0.080222818  0.080207325            4 
 2163000   0.92907828   -2.5984002    2076.8029  0.080012439  0.080194244            1 
 2164000   0.91961047   -2.5864968    2082.6535  0.080200767  0.080181092            3 
 2165000   0.91446089   -2.5841516    2070.2397    0.0796859  0.080167949            3 
 2166000   0.91060719   -2.5836304    2083.0382  0.080141514  0.080154985            4 
 2167000   0.88894063   -2.6021144    2075.1023  0.079799349  0.080142072            3 
 2168000   0.91106786   -2.5938865    2081.6181  0.080012994  0.080129443            5 
 2169000   0.91093453    -2.602926    2080.5974  0.079936889  0.080116404            2 
 2170000   0.90233631   -2.6038785    2086.2869  0.080118543  0.080103381            2 
 2171000   0.90238823    -2.592586     2082.727  0.079944996  0.080090339            2 
 2172000   0.91267015   -2.6017697    2091.9377  0.080261574  0.080077683            2 
 2173000   0.89579964   -2.6010476    2081.6385  0.079829671  0.080064651            5 
 2174000   0.90125513   -2.5955221    2091.0284  0.080152882  0.080051861            6 
 2175000   0.89780898   -2.5915606    2091.9705  0.080152126  0.080039296            4 
 2176000   0.89669405   -2.5858765    2085.1251  0.079853137  0.080026689            5 
 2177000   0.88536607   -2.6077808    2099.3699  0.080361731  0.080014029            1 
 2178000   0.88716996   -2.5987941     2090.224  0.079974902  0.080001859            3 
 2179000   0.89714015    -2.591511    2095.1849  0.080127923  0.079989578            2 
 2180000   0.91559588   -2.6128642    2097.3231    0.0801729   0.07997766            2 
 2181000   0.89265366   -2.5930602    2096.6979  0.080112253  0.079965454            4 
 2182000   0.89529197    -2.599936    2102.6741  0.080303778  0.079953269            3 
 2183000   0.90159913   -2.5892664    2092.1224  0.079864193  0.079940828            4 
 2184000   0.89762494   -2.5888139    2096.4711  0.079993554  0.079928569            2 
 2185000   0.89195409    -2.635771    2091.7996  0.079778778  0.079916068            8 
 2186000   0.89659353   -2.5777116    2102.0154  0.080131723  0.079904143            6 
 2187000   0.91028047   -2.5832855    2100.6594  0.080043417  0.079891981            3 
 2188000   0.90011377   -2.5689656    2100.6305  0.080005731  0.079879778            4 
 2189000   0.90968742   -2.6111969    2104.6964   0.08012397   0.07986741            3 
 2190000   0.89396092   -2.6136386    2100.6076  0.079931795  0.079855138            2 
 2191000   0.91128488   -2.6014617    2098.8979  0.079830288  0.079842933            2 
 2192000   0.90931941   -2.5962357    2103.8289  0.079981329  0.079830832            2 
 2193000     0.902271   -2.6187835    2112.1025  0.080259254  0.079818536            3 
 2194000   0.89861591   -2.5798207    2106.2772  0.080001412  0.079806307            3 
 2195000   0.90149837    -2.624748    2101.0298  0.079765748  0.079793928            2 
 2196000   0.90219007   -2.5801834    2108.2126  0.080001997  0.079781652            2 
 2197000   0.89262571   -2.6060739    2107.9587   0.07995595  0.079769226            1 
 2198000   0.91978529   -2.6204248    2105.2651  0.079817453  0.079757022            2 
 2199000   0.90420178   -2.5839476    2117.6402  0.080250121  0.079744756            3 
 2200000   0.91357469   -2.6085974    2113.6433  0.080062247  0.079732566            2 
 2201000   0.88767775   -2.5831856    2112.5624  0.079984948  0.079720317            1 
 2202000   0.89577409   -2.5899465    2116.7738  0.080107999    0.0797081            2 
 2203000   0.87557037   -2.6033187    2105.2384  0.079635283  0.079695561            3 
 2204000   0.90100542   -2.5941347    2112.1165  0.079859213  0.079683405            3 
 2205000     0.878746   -2.5904803    2112.8107  0.079849233  0.079671073            2 
 2206000   0.89641447   -2.5959817    2114.8779  0.079891128  0.079658763            4 
 2207000    0.9052911   -2.5864368     2114.682  0.079847532  0.079646459            2 
 2208000   0.90393279    -2.605819    2117.0423  0.079900449  0.079633901            5 
 2209000   0.90171453   -2.6123379    2108.7468  0.079551334  0.079621417            2 
 2210000   0.87921946   -2.6092235    2111.3649  0.079614061    0.0796088            2 
 2211000   0.90446471   -2.5986805    2121.0003  0.079941213  0.079596176            2 
 2212000   0.89705228   -2.5970852     2118.492  0.079810579  0.079583855            4 
 2213000   0.88718633   -2.6152761    2106.4692  0.079321779  0.079570959            3 
 2214000   0.90319476   -2.5815697    2114.2546  0.079578991  0.079558175            3 
 2215000   0.89256937   -2.5998979    2112.7471  0.079486347  0.079545566            5 
 2216000    0.9071333   -2.5952046    2119.3426  0.079698503  0.079532911            2 
 2217000   0.88717438   -2.5763785    2112.4639  0.079403995  0.079520513            2 
 2218000   0.90912286   -2.5936764    2121.4813  0.079706992  0.079507985            2 
 2219000   0.88290331   -2.6190716    2106.9282  0.079124539   0.07949554            2 
 2220000   0.87699212    -2.614422    2126.0122  0.079805263  0.079483064            1 
 2221000   0.88090773   -2.6197058     2116.456  0.079410778   0.07947054            2 
 2222000   0.89867114   -2.6158729    2126.2909  0.079743883  0.079458159            2 
 2223000   0.89987484   -2.6101436    2116.5929  0.079344462  0.079445553            3 
 2224000   0.89393063   -2.6078907    2125.5312  0.079643707  0.079432944            2 
 2225000   0.88946026   -2.6502701    2112.4293  0.079117202    0.0794201            2 
 2226000   0.88499118   -2.6053496    2120.3498  0.079378174  0.079407498            2 
 2227000   0.90425787   -2.6318203    2123.2327  0.079450408  0.079394924            4 
 2228000   0.89438866   -2.6272838    2131.1473  0.079710775  0.079382324            2 
 2229000   0.88819122    -2.587166    2127.3777  0.079534085  0.079370043            2 
 2230000   0.89997073   -2.5844082    2124.4725  0.079389855  0.079357696            3 
 2231000   0.89772061   -2.5989967    2124.9963  0.079373834  0.079345322            2 
 2232000   0.87490356   -2.5871105     2122.583   0.07924817  0.079332649            2 
 2233000   0.88461181   -2.6007747    2130.2613  0.079499226  0.079320182            3 
 2234000   0.90997841   -2.6191345    2121.7304   0.07914542  0.079307588            2 
 2235000   0.89765381   -2.6360926    2125.1586  0.079237831  0.079294845            2 
 2236000   0.88090916   -2.6106662     2126.572  0.079255068  0.079282437            2 
 2237000   0.90426371    -2.612928    2130.9959  0.079384439  0.079270311            5 
 2238000   0.89768402   -2.6085686    2135.2343  0.079506787  0.079258146            2 
 2239000   0.88204958    -2.609256    2134.0568  0.079427452  0.079245524            1 
 2240000   0.90139813   -2.6057182    2135.9019  0.079460637  0.079233156            3 
 2241000   0.88774519   -2.6009154    2123.1581   0.07895129  0.079220858            3 
 2242000   0.85873359   -2.6029701    2134.2748  0.079329274  0.079208347            1 
 2243000   0.89004317   -2.6259031    2130.7235  0.079161965  0.079195976            3 
 2244000   0.87918116   -2.6208586    2136.4949  0.079341017  0.079183671            3 
 2245000   0.88992847   -2.6199777    2133.9953   0.07921289  0.079171291            4 
 2246000   0.89949834   -2.5999985    2141.3207  0.079449418  0.079158684            2 
 2247000   0.89675236   -2.5993549    2135.3904  0.079194126  0.079146344            5 
 2248000   0.88830081   -2.6207389    2134.5541  0.079127894  0.079133739            2 
 2249000   0.88813245   -2.6523431    2138.3636  0.079233868  0.079121156            5 
 2250000   0.89912409    -2.612184    2136.1586  0.079116987  0.079108785            2 
 2251000   0.88431216   -2.6006619    2134.1663  0.079008081  0.079096481            2 
 2252000   0.89134205   -2.6366109    2141.5856  0.079247544  0.079084004            2 
 2253000    0.9302632   -2.5966392    2149.7383  0.079513919  0.079071776            1 
 2254000   0.89126069   -2.6085801    2151.5576  0.079545903  0.079059792            3 
 2255000   0.90304646   -2.6227637    2133.5424  0.078844879  0.079047761            2 
 2256000   0.87697468   -2.6103153    2142.4934  0.079140564  0.079035245            5 
 2257000   0.90511153   -2.6262717    2145.4283  0.079213866  0.079022897            2 
 2258000   0.89383971   -2.6047108     2142.653  0.079076358  0.079010595            5 
 2259000   0.89305282   -2.6276759    2145.2615  0.079137579  0.078998549            4 
 2260000   0.89017329    -2.592896    2148.8821  0.079236064  0.078986215            2 
 2261000   0.94370154   -2.5978488    2146.5607  0.079115462   0.07897403            4 
 2262000   0.88143347   -2.6377285    2151.8608  0.079275744  0.078961825            4 
 2263000   0.90082004   -2.6122094    2144.2835  0.078961683  0.078949639            4 
 2264000   0.88712868   -2.6245709    2149.6707    0.0791251  0.078937309            5 
 2265000   0.88611872   -2.6155577    2156.2896  0.079333687  0.078925238            1 
 2266000   0.89867321    -2.601932    2150.8612  0.079099042  0.078913201            2 
 2267000   0.88200946   -2.6198191    2151.4604   0.07908618   0.07890148            2 
 2268000   0.88067862   -2.6025048    2158.9631  0.079326982  0.078889482            2 
 2269000   0.88199938   -2.5950066    2161.0048  0.079367006  0.078877548            2 
 2270000   0.89084736   -2.6143627    2156.6159   0.07917092  0.078865574            4 
 2271000   0.88892503   -2.6089285     2155.889  0.079109387  0.078853572            2 
 2272000   0.90865858   -2.6357171    2155.2894  0.079052575  0.078841741            2 
 2273000   0.88203606   -2.6106696    2151.9526  0.078895461  0.078829872            2 
 2274000   0.86746074   -2.6259824    2162.9363  0.079263278  0.078818356            2 
 2275000   0.88262742   -2.6151456    2163.8209   0.07926084  0.078806818            2 
 2276000   0.88683035   -2.6257022    2161.9806  0.079158632  0.078795199            6 
 2277000   0.89608308   -2.6207452    2168.3033  0.079355267  0.078783493            1 
 2278000   0.88515963   -2.6321201    2160.5235  0.079035831  0.078771647            3 
 2279000   0.87079313   -2.6101944    2163.7049  0.079117481  0.078759718            3 
 2280000   0.87608036   -2.6006933    2164.6234  0.079116353  0.078747905            2 
 2281000   0.88707069   -2.6388084    2159.8319  0.078906618  0.078735842            8 
 2282000   0.88645068   -2.6071263    2158.3154  0.078816658  0.078724002            2 
 2283000   0.89260281    -2.628769    2169.4345  0.079188002  0.078712114            3 
 2284000   0.88653619   -2.6221682    2164.2969  0.078965882  0.078700059            2 
 2285000   0.87009482   -2.6248275    2173.3142  0.079260184  0.078688162            2 
 2286000   0.87360525   -2.6294123    2161.8969  0.078809308  0.078676234            2 
 2287000   0.87915219   -2.6199265    2170.7288  0.079096664  0.078664404            2 
 2288000   0.88479371   -2.6330265    2172.9333  0.079142385  0.078652805            2 
 2289000   0.89175977   -2.6100695    2169.7111  0.078990502  0.078641185            3 
 2290000   0.87542737   -2.6314171    2163.9834  0.078747576  0.078629543            3 
 2291000   0.87727206   -2.6395194    2165.7258  0.078776584  0.078617628            3 
 2292000   0.88510047   -2.6300674    2169.4665  0.078878219  0.078605591            3 
 2293000   0.89404557   -2.6504087    2158.2075  0.078434637  0.078593433            2 
 2294000   0.87803412   -2.6246762    2174.0804  0.078977057  0.078581361            4 
 2295000   0.87952195   -2.6050977    2169.5605  0.078778522  0.078569451            2 
 2296000   0.87061846   -2.6145557    2166.0184   0.07861565   0.07855747            5 
 2297000   0.88551826   -2.6207072    2173.4631  0.078851513  0.078545207            4 
 2298000   0.87885342   -2.6173988    2175.6255  0.078895614  0.078533043            2 
 2299000   0.87651893   -2.6307461    2173.8906  0.078798412  0.078521092            3 
 2300000   0.88326318   -2.6012786    2177.3801  0.078890583  0.078508976            1 
 2301000   0.87273068   -2.6019326    2169.3118  0.078564097  0.078496974            5 
 2302000    0.8811358   -2.6098727    2173.6539  0.078687151  0.078484999            3 
 2303000   0.89083758   -2.6225407    2179.7692  0.078874264  0.078473045            2 
 2304000   0.88667981   -2.6362194    2167.0684  0.078380656  0.078460788            3 
 2305000   0.89987383   -2.6510995    2161.4046  0.078141886  0.078448556            2 
 2306000   0.87116245   -2.6325859    2170.0164  0.078419212  0.078436201            2 
 2307000   0.86777132   -2.6251994    2166.6455  0.078263456  0.078424004            2 
 2308000     0.871645   -2.6346228    2169.5085  0.078332917  0.078411915            3 
 2309000   0.87024601   -2.6223549    2175.5501  0.078517037  0.078399663            4 
 2310000   0.88677494   -2.6145105    2172.8487  0.078385595   0.07838722            4 
 2311000   0.88834654   -2.6129537    2167.3365  0.078152912  0.078375084            3 
 2312000   0.87017687   -2.6155037    2178.8718  0.078534884  0.078362919            2 
 2313000   0.87777894    -2.622314    2190.0395  0.078903282  0.078350956            3 
 2314000   0.89210679    -2.634916    2175.4789  0.078344818  0.078338565            1 
 2315000    0.8799696   -2.6218211    2174.3605  0.078270718  0.078326047            4 
 2316000   0.87795122   -2.6082734    2182.4053  0.078526385  0.078313498            3 
 2317000     0.873428   -2.6316617    2175.4889  0.078243739  0.078300912            2 
 2318000   0.90701022   -2.6332338    2174.5142  0.078174944  0.078288399            3 
 2319000    0.8834514   -2.6336375    2176.8007  0.078223396  0.078275977            2 
 2320000   0.88541099   -2.6203162    2185.0589  0.078486312   0.07826358            1 
 2321000   0.87311778   -2.6308644    2177.7141  0.078188785  0.078250943            2 
 2322000   0.88381171   -2.6102964    2181.7171  0.078298778  0.078238496            3 
 2323000   0.88377361   -2.6272893    2176.4888  0.078077516  0.078225821            6 
 2324000   0.88043875   -2.6100015    2176.3349    0.0780384  0.078213164            3 
 2325000   0.89558365   -2.6555768    2182.2987  0.078218592  0.078200459            3 
 2326000   0.87899403   -2.5967584    2185.1959   0.07828876  0.078188022            3 
 2327000   0.88140932    -2.631171    2187.2492  0.078328648  0.078175427            4 
 2328000   0.85860575   -2.6031972    2189.4684   0.07837444  0.078162961            2 
 2329000   0.89165223    -2.617503    2187.8181   0.07828174  0.078150392            3 
 2330000   0.87037535   -2.6303906    2188.0757  0.078257358  0.078137776            2 
 2331000   0.88790648   -2.6272404    2180.2311  0.077943338  0.078125095            3 
 2332000   0.87397103   -2.6023826    2190.9334   0.07829236  0.078112388            4 
 2333000   0.88008711   -2.6286383    2185.1641  0.078052724  0.078099699            7 
 2334000     0.881084   -2.6208133    2183.0482  0.077943739  0.078086761            2 
 2335000   0.86224295   -2.6208626    2176.6575  0.077682282  0.078073809           12 
 2336000   0.87499787   -2.5971392    2193.4394  0.078247696  0.078060678            3 
 2337000   0.86099054   -2.6503377    2188.9228  0.078053158    0.0780477            3 
 2338000   0.88012957   -2.6338993    2178.5075  0.077648543  0.078034666            4 
 2339000   0.87878545   -2.6097131     2187.561  0.077937902  0.078021604            3 
 2340000   0.87839006   -2.6371127    2192.1095  0.078066576  0.078008679            4 
 2341000   0.88135173   -2.5949664     2193.445   0.07808077  0.077995662            3 
 2342000     0.871949   -2.6248314    2190.2173  0.077932581  0.077982924            5 
 2343000   0.87005593   -2.6295417    2193.2268  0.078006361  0.077970085            5 
 2344000   0.84650781   -2.6149162    2195.7596  0.078063126  0.077957284            2 
 2345000   0.88269958   -2.6274925    2191.5037  0.077878596  0.077944395            5 
 2346000   0.86641461   -2.6249704    2191.0857  0.077830552  0.077931639            2 
 2347000   0.87844104   -2.6039642    2189.1533  0.077728779  0.077918931            2 
 2348000   0.87697225   -2.6244545    2193.1597  0.077837867  0.077905958            3 
 2349000   0.87107994   -2.6290443    2182.9026  0.077440848  0.077892874            4 
 2350000   0.89692729   -2.6560994    2201.9619  0.078083757  0.077879955            3 
 2351000   0.86929926   -2.6480001    2194.6782  0.077792364  0.077867027            3 
 2352000   0.88915505   -2.6234902    2198.7967  0.077905211  0.077854069            3 
 2353000   0.87730701   -2.6372692    2195.1776  0.077743929  0.077841257            2 
 2354000   0.86749849   -2.6278826    2190.6029  0.077548957  0.077828107            3 
 2355000   0.88473992   -2.6407296    2194.5364  0.077655217  0.077815139            4 
 2356000   0.88895865   -2.6417287    2196.8911  0.077705543  0.077801852            3 
 2357000   0.86684858   -2.6463736    2190.2357   0.07743727   0.07778893            3 
 2358000   0.86271534   -2.6294754    2198.8465   0.07770874  0.077775901            2 
 2359000   0.89419901   -2.6363047    2197.7357  0.077636558  0.077762769            4 
 2360000   0.86848047   -2.6484765    2198.2513  0.077621866  0.077749586            6 
 2361000   0.87931455   -2.6696514    2202.6827    0.0777454  0.077736405            3 
 2362000   0.86911746   -2.6492068    2196.7983  0.077504878   0.07772317            3 
 2363000   0.90149536    -2.624919    2191.8955  0.077299179  0.077709869            1 
 2364000   0.87274049   -2.6315486    2200.8887  0.077583498  0.077696711            2 
 2365000   0.86947109   -2.6280506    2194.1555  0.077313442  0.077683359            3 
 2366000   0.87965524   -2.6165232    2200.4941  0.077504018  0.077670059            3 
 2367000   0.88002329   -2.6418207    2202.3988  0.077538333  0.077656813            2 
 2368000   0.88188478   -2.6455166    2191.3172  0.077115611  0.077643263            2 
 2369000   0.89897133   -2.6474628    2210.5832  0.077760772  0.077629789            4 
 2370000   0.86019278   -2.6180386    2194.9843  0.077179474  0.077616714            3 
 2371000    0.8619687   -2.6174597    2204.1095  0.077467646  0.077603415            4 
 2372000   0.89553593   -2.6527177     2195.654  0.077137929  0.077590052            2 
 2373000   0.86886511   -2.6379923    2207.1503  0.077509143  0.077576618            5 
 2374000   0.88466559   -2.6444014    2200.4682  0.077241934   0.07756333            2 
 2375000   0.84796622    -2.639289    2199.7123  0.077182886  0.077549948            2 
 2376000   0.88828786   -2.6599805    2197.6097  0.077076658  0.077536562            3 
 2377000    0.8776669   -2.6410421    2200.7879  0.077155654  0.077523168            3 
 2378000   0.86016577   -2.6273283    2204.1988   0.07724274  0.077509825            2 
 2379000   0.86444017   -2.6274405    2207.1136  0.077312372  0.077496456            2 
 2380000   0.86133586   -2.6370676    2208.6696  0.077334368  0.077483156            2 
 2381000   0.88940699   -2.6240439     2205.516  0.077191515  0.077469746            4 
 2382000   0.88100746   -2.6524992    2211.1379  0.077355789  0.077456382            3 
 2383000   0.85662407   -2.6337891    2204.3463  0.077085827  0.077443008            2 
 2384000   0.88173739   -2.6430727    2216.0444  0.077462402  0.077429669            3 
 2385000    0.8535776   -2.6217652     2210.166  0.077224528  0.077416304            6 
 2386000   0.89616103   -2.6243059    2211.8653  0.077251511  0.077403106            3 
 2387000   0.84832892   -2.6410626    2213.7712  0.077285686  0.077389959            1 
 2388000   0.87865684   -2.6584017    2198.6598  0.076725984  0.077376596            2 
 2389000   0.86192312   -2.6746318    2203.0502  0.076847013  0.077363215            6 
 2390000   0.88404812   -2.6535341    2206.3982  0.076931597  0.077349808            2 
 2391000   0.86040779   -2.6356141    2218.3235  0.077315052  0.077336731            6 
 2392000   0.87338002   -2.6381457    2208.2582  0.076932072   0.07732351            3 
 2393000   0.85637174   -2.6352948      2211.52  0.077013513  0.077310118            4 
 2394000    0.8668168   -2.6305843    2215.1425  0.077107437  0.077296842            2 
 2395000   0.88275142   -2.6178104    2218.4381  0.077189913   0.07728368            2 
 2396000   0.87854244   -2.6192474     2218.769  0.077169206  0.077270468            3 
 2397000   0.86825002     -2.63264    2217.7727  0.077102374  0.077257156            2 
 2398000   0.88480797   -2.6367946    2214.1165  0.076943166  0.077243713            2 
 2399000   0.85241732   -2.6582313    2205.9912  0.076628844   0.07723014            2 
 2400000   0.85892264   -2.6410459    2208.5006  0.076684048  0.077216988            2 
 2401000   0.86928217   -2.6169062    2221.9225  0.077117955  0.077203498            2 
 2402000   0.89676509   -2.6677845    2220.8987  0.077050331  0.077190199            2 
 2403000   0.86029161   -2.6428912    2219.5794  0.076972513  0.077177008            2 
 2404000   0.86567782   -2.6503573    2222.8012  0.077052176  0.077163771            5 
 2405000   0.88025743   -2.6202752    2221.2612  0.076966776  0.077150505            4 
 2406000   0.86063436   -2.6424488     2224.827  0.077058292  0.077137331            4 
 2407000   0.89011151   -2.6372209    2228.6475  0.077158547  0.077124323            4 
 2408000   0.85361845   -2.6358313    2220.0991  0.076830671  0.077111293            2 
 2409000   0.86201808   -2.6193414    2225.3151  0.076979212  0.077098382            5 
 2410000   0.86176419   -2.6482039    2223.0901  0.076870335  0.077085436            2 
 2411000   0.87466963   -2.6316435    2235.1704  0.077255994  0.077072256            4 
 2412000   0.85899718   -2.6339549    2227.5795  0.076961703  0.077059107            2 
 2413000    0.8599287   -2.6392237    2231.6877  0.077071685  0.077046119            2 
 2414000    0.8779261    -2.636446    2226.3223  0.076854541  0.077033052            2 
 2415000   0.84906607   -2.6457821    2233.2772  0.077062704  0.077020107            3 
 2416000   0.84617169   -2.6257633    2228.9538  0.076881686  0.077007153            3 
 2417000    0.8571112   -2.6672193    2235.1223  0.077062552  0.076994321            3 
 2418000   0.85656011   -2.6558956    2241.2329  0.077241276  0.076981299            2 
 2419000   0.86348617   -2.6448402    2232.3163  0.076902173  0.076968607            2 
 2420000   0.86922236   -2.6214834    2234.7105  0.076952841  0.076955831            4 
 2421000   0.85617958   -2.6557167     2234.568   0.07691615   0.07694311            2 
 2422000   0.86747065   -2.6266057    2232.6238  0.076817501  0.076930516            3 
 2423000   0.85638834   -2.6415318     2234.605  0.076853936  0.076918004            3 
 2424000   0.87229727   -2.6364645    2242.7917  0.077103674  0.076905335            5 
 2425000   0.86759301   -2.6444543    2241.6062  0.077031139  0.076892838            4 
 2426000   0.86538328   -2.6558318    2240.9603  0.076977202  0.076880337            3 
 2427000   0.83325322   -2.6403121     2237.352  0.076821591  0.076867777            2 
 2428000   0.85455514   -2.6237495    2242.2205  0.076957046  0.076855222            4 
 2429000   0.85146528   -2.6310046    2246.1638  0.077060649  0.076842733            3 
 2430000    0.8464881   -2.6726338    2238.1443   0.07675392  0.076829986            4 
 2431000   0.86024551   -2.6093026    2237.9142  0.076714458  0.076817419            3 
 2432000   0.86727539   -2.6534225    2241.8157  0.076816602  0.076804955            2 
 2433000   0.85346354   -2.6411341    2234.3974  0.076530941   0.07679246            3 
 2434000   0.85838809   -2.6595159    2236.1901  0.076560878  0.076779985            3 
 2435000   0.85393064   -2.6425809    2254.3095  0.077149539  0.076767395            2 
 2436000   0.86386702   -2.6431427     2248.534  0.076920292  0.076754851            4 
 2437000   0.87099924   -2.6539882    2236.2767  0.076469589  0.076742086            3 
 2438000   0.87141845   -2.6574111    2237.5176   0.07648064  0.076729301            3 
 2439000   0.87046245   -2.6466495    2246.4632  0.076754925  0.076717009            4 
 2440000   0.88055327   -2.6393154    2249.6357  0.076831821  0.076704517            4 
 2441000   0.86643803   -2.6449708    2246.8506  0.076705263   0.07669209            2 
 2442000   0.87023822   -2.6364586    2257.0553  0.077022089  0.076679807            5 
 2443000   0.85778899   -2.6572593     2249.251   0.07672435  0.076667313            6 
 2444000    0.8651693   -2.6478216    2248.1006   0.07665373  0.076654808            2 
 2445000   0.88041678   -2.6531916    2244.7094  0.076506797  0.076642236            6 
 2446000   0.85301937   -2.6406388    2250.2375  0.076663856  0.076629465            2 
 2447000   0.84318459   -2.6603909    2240.1284  0.076288259  0.076616978            8 
 2448000   0.86958106   -2.6590058    2247.9382   0.07652295  0.076604634            2 
 2449000   0.85232097     -2.66435    2255.4728  0.076748089  0.076592003            3 
 2450000   0.83951974   -2.6775256    2245.8811  0.076390512  0.076579246            3 
 2451000    0.8761704   -2.6757394    2256.1366  0.076708031  0.076566369            6 
 2452000    0.8638746   -2.6334645     2251.143  0.076507036  0.076553775            1 
 2453000    0.8510048   -2.6712221     2244.953  0.076265561  0.076541178            2 
 2454000   0.86114128   -2.6467222    2254.9143  0.076572749  0.076528516            2 
 2455000   0.85392598   -2.6668258    2252.8554   0.07647167  0.076515948            1 
 2456000    0.8597094    -2.643128    2248.9375  0.076307596  0.076503035            2 
 2457000   0.86153047   -2.6507346    2246.8038   0.07620417   0.07649017            3 
 2458000   0.86093173   -2.6445313     2251.248  0.076323842  0.076477541            4 
 2459000   0.86312355   -2.6530395    2256.4503  0.076469104  0.076464939            3 
 2460000   0.88974234   -2.6554031    2248.7887  0.076178478  0.076452069            4 
 2461000   0.87927909   -2.6181932    2266.8721  0.076759856  0.076439434            2 
 2462000   0.85457797   -2.6748068    2262.5682  0.076583003  0.076426907            3 
 2463000   0.86402176   -2.6369845    2263.1551  0.076571767  0.076414247            3 
 2464000   0.85960685   -2.6614826    2264.1767  0.076575239   0.07640176            4 
 2465000   0.84926967   -2.6463347      2255.26  0.076242731  0.076389347            5 
 2466000   0.85485983   -2.6573358    2267.8426  0.076637016  0.076376699            2 
 2467000   0.86340786   -2.6284092    2266.8686  0.076573051  0.076364183            3 
 2468000   0.82898342   -2.6633192    2264.5809  0.076464778  0.076351805            3 
 2469000   0.84524812   -2.6384752    2282.0112  0.077022113  0.076339457            2 
 2470000   0.84564875   -2.6439616    2261.2905  0.076291852  0.076326923            2 
 2471000   0.86680249   -2.6252007     2269.863  0.076550081  0.076314594            2 
 2472000   0.86079986   -2.6481791    2274.4124  0.076672478  0.076302267            5 
 2473000   0.86621255   -2.6601669    2266.6007  0.076378243  0.076289901            3 
 2474000   0.86148121    -2.657737    2263.9772     0.076259  0.076277472            3 
 2475000   0.84695479   -2.6505027     2272.638    0.0765198  0.076265302            3 
 2476000   0.85699292   -2.6658983     2271.567  0.076452846  0.076252879            3 
 2477000    0.8603009   -2.6578853    2267.2691  0.076277389   0.07624068            2 
 2478000   0.86233527   -2.6427165    2267.6423  0.076259156  0.076228449            5 
 2479000   0.85919438   -2.6573694    2274.6063  0.076462493  0.076216174            2 
 2480000   0.84093007   -2.6522302    2272.3284   0.07635512   0.07620399            2 
 2481000   0.84275634   -2.6327845    2275.2212   0.07642151  0.076191555            6 
 2482000   0.86533495   -2.6519244    2271.2897  0.076258719   0.07617913            4 
 2483000   0.86017708   -2.6470909    2275.1772  0.076358477   0.07616658            4 
 2484000   0.84970926   -2.6482121    2271.5045  0.076204526   0.07615424            2 
 2485000   0.88311913   -2.6582611    2281.0306  0.076493312  0.076141563            3 
 2486000   0.84310325   -2.6530953    2281.1734  0.076467331  0.076129199            6 
 2487000   0.85387278   -2.6421499    2269.6671  0.076051035  0.076116705            4 
 2488000   0.86188693   -2.6440508    2268.2679  0.075973604  0.076104171            2 
 2489000   0.86385837   -2.6694483    2277.1613  0.076240837  0.076091598            4 
 2490000    0.8401977   -2.6199813    2276.4573  0.076186657   0.07607922            1 
 2491000    0.8338592    -2.654041    2279.5721  0.076260274  0.076067008            4 
 2492000   0.86531578   -2.6476759    2283.6776   0.07636696  0.076054656            3 
 2493000    0.8358689   -2.6476187    2284.8161  0.076374386  0.076042462            2 
 2494000   0.86250798   -2.6797385    2278.1047   0.07611951  0.076029896            3 
 2495000   0.83539288   -2.6574571    2279.8503  0.076147304  0.076017587            3 
 2496000   0.83853161   -2.6397504    2277.6172   0.07604224  0.076005378            4 
 2497000   0.84195946   -2.6469864      2287.55  0.076343278  0.075993144            4 
 2498000   0.85484764   -2.6294325    2283.9517  0.076192678  0.075980793            2 
 2499000   0.85013275    -2.694308    2290.2653  0.076372725  0.075968475            2 
 2500000    0.8241165   -2.6559321    2286.4725   0.07621575  0.075956101            3 
 2501000   0.85670713   -2.6530244    2276.6032   0.07585643  0.075943706            2 
 2502000   0.86959648   -2.6516531    2282.9112  0.076036213  0.075931404            3 
 2503000   0.84428482   -2.6840792    2286.3753  0.076121164  0.075919037            2 
 2504000   0.85380636   -2.6772431    2272.7836  0.075638433  0.075906882            2 
 2505000   0.85357268   -2.6674237    2281.7154   0.07590537   0.07589457            1 
 2506000   0.86439509   -2.6549577    2290.5564  0.076169075  0.075882354            3 
 2507000   0.85538052   -2.6950376    2290.9465   0.07615166  0.075869982            5 
 2508000   0.85223648   -2.6549976    2283.9475  0.075888739  0.075857742            4 
 2509000   0.84480163   -2.6809195    2283.8686  0.075855871  0.075845418            6 
 2510000   0.85519974     -2.65157    2298.2312  0.076302498  0.075833122            2 
 2511000   0.83203523   -2.6524775     2290.156  0.076004114  0.075821144            3 
 2512000   0.84455095   -2.6668675    2288.3191   0.07591292  0.075809066            2 
 2513000   0.85000648   -2.6613933    2302.0064  0.076336596  0.075796928            1 
 2514000    0.8435755   -2.6377415    2294.3581  0.076052707  0.075784831            2 
 2515000   0.85982822   -2.6556091    2293.9225  0.076008035   0.07577276            2 
 2516000   0.84275574   -2.6566792    2293.9576  0.075978986  0.075760715            4 
 2517000   0.84798955   -2.6468577    2298.4781  0.076098466  0.075748518            1 
 2518000   0.86031764   -2.6526079    2298.2944  0.076062165   0.07573631            6 
 2519000   0.85608476   -2.6649111    2299.9216  0.076085803  0.075724047            6 
 2520000    0.8417868   -2.6560204    2291.8911  0.075790051  0.075711607            3 
 2521000   0.86920803   -2.6702627    2290.1412  0.075702141  0.075699239            4 
 2522000   0.84203992   -2.6851283    2293.4944  0.075782923  0.075687053            4 
 2523000    0.8418883   -2.6535301    2299.9817  0.075967159  0.075674973            5 
 2524000   0.84707082   -2.6449702    2299.3582  0.075916474  0.075662891            2 
 2525000   0.85316212   -2.6678585    2306.5101  0.076122445  0.075650627            2 
 2526000   0.85195448   -2.6752987     2301.862  0.075938968  0.075638487            3 
 2527000   0.84858885   -2.6762095     2301.896  0.075910037  0.075626277            2 
 2528000   0.84057333   -2.6602242    2297.1352  0.075723074    0.0756142            4 
 2529000   0.84139708   -2.6532377    2294.3628  0.075601778  0.075602008            3 
 2530000   0.86505168   -2.6508757    2298.6702  0.075713776  0.075589903            5 
 2531000   0.86625926   -2.6780059    2301.6469  0.075781868  0.075577772            3 
 2532000   0.87037209   -2.6507058    2308.8401  0.075988681   0.07556569            6 
 2533000   0.85249866   -2.6816542    2295.5005   0.07551982  0.075553661            3 
 2534000   0.87441134   -2.6566466    2301.2001  0.075677458  0.075541373            4 
 2535000   0.83574338   -2.6827839    2305.9004  0.075802116  0.075529171            4 
 2536000   0.85830991    -2.660151    2297.2424  0.075487724   0.07551661            3 
 2537000   0.82874613   -2.6638796    2301.7864  0.075607225  0.075504245            3 
 2538000   0.85305194     -2.68569    2294.5765  0.075340705  0.075491966            2 
 2539000   0.83933717   -2.6323639    2304.9387  0.075651133  0.075479571            4 
 2540000   0.84195799   -2.6902937    2300.7006  0.075482305  0.075467118            4 
 2541000   0.84652423   -2.6284775    2306.6867  0.075648915   0.07545478            2 
 2542000   0.85332892   -2.6643946    2304.3227  0.075541657  0.075442441            2 
 2543000   0.83461898   -2.6657602    2306.3429  0.075578154  0.075430008            4 
 2544000   0.83067148   -2.6589574    2308.9065  0.075632419  0.075417627            3 
 2545000   0.84440044   -2.6654358    2310.4449  0.075653073  0.075405253            3 
 2546000   0.84228687   -2.6809765     2313.437  0.075721294    0.0753931            4 
 2547000   0.85599302   -2.6736178    2303.4241  0.075363962  0.075380887            3 
 2548000   0.83321547   -2.6814798    2314.7575  0.075705046   0.07536838            3 
 2549000   0.84513764   -2.6706232    2312.6566  0.075606662  0.075356017            5 
 2550000    0.8479556   -2.6820189    2302.3587   0.07524048  0.075343521            2 
 2551000   0.82915296   -2.6663614    2310.7691  0.075485726  0.075331026            3 
 2552000   0.83837947   -2.6641937     2304.303  0.075245003  0.075318489            2 
 2553000     0.852001   -2.6839441    2308.6658  0.075357938  0.075305881            2 
 2554000   0.84592411   -2.6841849    2303.1765  0.075149326   0.07529308            2 
 2555000   0.85944147   -2.6504497    2310.1934  0.075348775   0.07528056            3 
 2556000    0.8455042   -2.6719567    2310.4964  0.075329174  0.075267926            7 
 2557000   0.83169949    -2.673409    2313.4941  0.075397408  0.075255459            2 
 2558000   0.84745852   -2.6752468       2314.8  0.075410476  0.075242899            4 
 2559000   0.84993448   -2.6359003     2319.499  0.075534029  0.075230353            2 
 2560000   0.84312803    -2.694974    2315.5471  0.075375881   0.07521759            3 
 2561000   0.84569532   -2.6424959    2318.7792  0.075451619  0.075204915            2 
 2562000   0.82987124   -2.6811965    2313.4917  0.075250187  0.075192418            3 
 2563000   0.83243914   -2.6751997    2309.2667  0.075083452  0.075179773            3 
 2564000   0.85888075   -2.6644025    2313.0496  0.075177118   0.07516709            3 
 2565000   0.84833612   -2.6710913    2321.6599  0.075427547  0.075154311            1 
 2566000   0.84147574   -2.6552106    2319.4972  0.075327915   0.07514162            1 
 2567000   0.84968296     -2.66575    2310.4089  0.075003535  0.075128941            3 
 2568000   0.84523719   -2.6833947    2317.3613  0.075199937  0.075116329            1 
 2569000   0.83460758   -2.6777642    2322.2378   0.07532885  0.075103667            4 
 2570000   0.83258335   -2.6864902    2309.2181  0.074877371   0.07509089            4 
 2571000   0.83460296   -2.6742683    2314.3478  0.075014515  0.075078106            3 
 2572000   0.85107565   -2.6699009    2321.7831  0.075226255  0.075065296            2 
 2573000   0.82832888   -2.6596869    2318.7919  0.075100139   0.07505253            3 
 2574000   0.83047062   -2.6648878    2318.3476  0.075056579  0.075039647            4 
 2575000   0.84815877   -2.6642509    2312.4372  0.074836157  0.075026808            3 
 2576000    0.8624983    -2.667871    2313.4659  0.074840384   0.07501393            2 
 2577000   0.83513624   -2.6855888    2323.0105  0.075119988  0.075000936            3 
 2578000   0.84536656   -2.6498008    2316.9299  0.074894294  0.074988081            2 
 2579000   0.84324699   -2.6892069     2324.889  0.075122433  0.074975163            4 
 2580000   0.86051973   -2.7015384    2315.3152  0.074784084  0.074962174            2 
 2581000   0.82571466   -2.6684622    2318.9029  0.074870946  0.074949161            7 
 2582000   0.82677813   -2.6863236    2320.1563  0.074882401  0.074936211            3 
 2583000   0.84164295   -2.6564102    2330.8203  0.075197453  0.074923166            3 
 2584000   0.84590052    -2.650145    2324.7845  0.074973699  0.074910108            2 
 2585000    0.8505295   -2.6766812    2318.4038  0.074739001  0.074897076            3 
 2586000   0.82747132   -2.6908941    2323.3091  0.074868172  0.074884021            3 
 2587000   0.83164836    -2.686091    2316.8802   0.07463214  0.074870951            2 
 2588000   0.83530227    -2.672394    2321.7527  0.074760197  0.074857766            4 
 2589000   0.85126072   -2.6803125    2314.0087  0.074482063  0.074844367            1 
 2590000   0.83260126   -2.6554541    2322.7209  0.074733621  0.074831251            2 
 2591000   0.83397248   -2.6615259    2324.8648  0.074773728  0.074818285            2 
 2592000   0.83679793   -2.6772849    2319.8064  0.074582252  0.074804979            3 
 2593000   0.83577046   -2.6670607    2327.3113  0.074794682   0.07479186            3 
 2594000   0.83065128    -2.681234    2327.1787  0.074761587  0.074778838            2 
 2595000   0.84445398   -2.6923198     2321.693  0.074556615  0.074765483            5 
 2596000   0.85551549   -2.6665649    2325.2388  0.074641717  0.074752317            3 
 2597000   0.83119271   -2.6601604    2328.0311  0.074702576  0.074739194            5 
 2598000    0.8439427   -2.6698335    2325.1167  0.074580341  0.074725955            3 
 2599000   0.83031749   -2.6874822    2321.0305  0.074420627  0.074712662            3 
 2600000   0.83253431   -2.6783515     2324.685  0.074509135  0.074699503            2 
 2601000    0.8340177   -2.6657342    2323.9653   0.07445743  0.074686365            3 
 2602000   0.83444681   -2.6664657    2325.9693  0.074492996  0.074673097            2 
 2603000   0.83209755   -2.6942244    2324.0865    0.0744041   0.07465968            3 
 2604000   0.85292613   -2.6488636    2320.6346   0.07426506  0.074646222            5 
 2605000   0.83339406    -2.691791    2319.6518  0.074205111  0.074632885            2 
 2606000   0.83603828   -2.6928259    2323.3132   0.07429372   0.07461932            4 
 2607000   0.83754169   -2.6900415    2319.7978  0.074152851  0.074605706            5 
 2608000   0.84347717   -2.6705046    2324.3775  0.074270753  0.074592318            4 
 2609000   0.83380363   -2.6848731    2339.2837  0.074718401  0.074578988            8 
 2610000   0.84159046   -2.6732787    2332.3187  0.074467393  0.074565616            5 
 2611000   0.85602459   -2.6778685    2327.5986  0.074288221  0.074552308            3 
 2612000   0.83494451   -2.6844795    2328.3685  0.074284344  0.074538935            2 
 2613000   0.84230535   -2.6822045    2331.7065   0.07436237  0.074525445            2 
 2614000   0.82969984   -2.6834825    2330.7098   0.07430215   0.07451224            2 
 2615000   0.82335206   -2.6800552    2329.9894  0.074250779  0.074498846            3 
 2616000   0.84720744   -2.6843083    2328.2677   0.07416755  0.074485582            3 
 2617000   0.83489636   -2.6682201    2330.6973  0.074216576  0.074472286            2 
 2618000   0.85076734   -2.6743786    2334.8982  0.074321943  0.074458942            3 
 2619000   0.81802956   -2.7071216    2328.3869  0.074086383  0.074445773            8 
 2620000   0.84808783   -2.6708763    2338.4316  0.074377595  0.074432366            3 
 2621000   0.81273919   -2.6836768    2330.9251  0.074110551  0.074419047            5 
 2622000   0.85189234   -2.6960561    2333.1902  0.074154278  0.074405738            4 
 2623000   0.81951288   -2.6906978    2328.2276  0.073968343  0.074392429            3 
 2624000   0.82921508   -2.6987596    2336.8095    0.0742127  0.074379296            3 
 2625000   0.83565208   -2.6631729    2344.0133   0.07441312  0.074366187            3 
 2626000    0.8191379   -2.6639825    2333.5886  0.074053967  0.074353161            4 
 2627000   0.82453691   -2.6811322    2347.4979  0.074467007  0.074340192            1 
 2628000   0.81387565   -2.6633669    2346.9964  0.074422769  0.074326992            2 
 2629000   0.82668397   -2.7075588    2327.4841  0.073775963  0.074313689            3 
 2630000    0.8278559   -2.6710713    2338.5541  0.074098672   0.07430057            2 
 2631000   0.81663772   -2.6926172    2340.8888  0.074144459  0.074287173            5 
 2632000   0.80926332   -2.6819617    2345.4209  0.074259779  0.074273766            6 
 2633000     0.829214   -2.7064904    2347.1402  0.074285992  0.074260626            4 
 2634000   0.83516229   -2.7064251    2336.8293  0.073931579  0.074247474            2 
 2635000   0.81188576   -2.6849604     2343.324  0.074108918  0.074234325            2 
 2636000     0.806436   -2.6796038    2339.8163  0.073969913   0.07422116           11 
 2637000   0.82755196   -2.6868498    2346.0645  0.074139314   0.07420798            6 
 2638000    0.8257683   -2.6811098    2334.1897  0.073736091  0.074194819            3 
 2639000   0.83632096   -2.6941374    2351.8915  0.074267132  0.074181621            2 
 2640000   0.83585817   -2.6735406     2345.773  0.074045863  0.074168291            3 
 2641000   0.82268578   -2.6915104    2345.4988  0.074009175  0.074155092            5 
 2642000   0.84244815   -2.6857455    2344.7579  0.073957794  0.074141796            4 
 2643000   0.81800263    -2.650718     2349.648  0.074083996   0.07412862            3 
 2644000    0.8086004   -2.6570879    2347.2852  0.073981504  0.074115557            4 
 2645000   0.82755186   -2.7091584    2344.0564  0.073851808  0.074102576            5 
 2646000   0.83855457   -2.6810262    2345.3072  0.073863291  0.074089232            4 
 2647000    0.8322365   -2.6849141    2346.0133  0.073857616  0.074075993            4 
 2648000   0.83958781   -2.6770594    2344.2769  0.073775077  0.074062752            7 
 2649000    0.8390162   -2.6877785    2342.1957  0.073681758  0.074049427            5 
 2650000   0.82127867   -2.6950519    2356.3795  0.074099985  0.074035993            6 
 2651000   0.82838927   -2.6918252    2343.9156  0.073680234  0.074022549            2 
 2652000   0.84046315   -2.6708106    2338.0809  0.073469108  0.074009288            3 
 2653000   0.82710323   -2.6990135    2345.6396  0.073678843  0.073995891            4 
 2654000   0.82752359   -2.6674937     2350.174  0.073793456  0.073982649            4 
 2655000   0.82191149   -2.6800731    2348.4714  0.073712223   0.07396923            5 
 2656000   0.84424071   -2.6879587    2356.9971  0.073951967  0.073955911            3 
 2657000   0.80137412   -2.6760741    2353.1705  0.073804117   0.07394266            4 
 2658000   0.82967209   -2.6914132    2343.0054  0.073457657  0.073929322            2 
 2659000   0.82876585    -2.711389    2349.9274  0.073646965  0.073916069            4 
 2660000    0.8199762   -2.6800519    2343.2899  0.073411338  0.073902649            2 
 2661000    0.8316701   -2.6867459     2353.538  0.073704686  0.073889397            6 
 2662000   0.83616834   -2.6905366    2359.5713  0.073865868  0.073876047            2 
 2663000    0.8215519   -2.6968298    2346.7867  0.073438063   0.07386273            3 
 2664000   0.83046374   -2.6850878    2351.0958  0.073545288  0.073849123            2 
 2665000   0.82958822   -2.7010182    2348.5034  0.073436628  0.073835814            6 
 2666000   0.81214519   -2.7149751    2354.9969  0.073612057  0.073822338            7 
 2667000   0.82860417   -2.6923756    2350.3541  0.073439384  0.073808764            3 
 2668000     0.812159   -2.7130873    2348.1333  0.073342494  0.073795292            2 
 2669000   0.82920831   -2.7003383    2344.2299  0.073193139  0.073781862            4 
 2670000   0.82985314   -2.6900589    2351.2952  0.073386241  0.073768345            3 
 2671000   0.82602018   -2.7086731    2354.9008  0.073471259  0.073754897            3 
 2672000    0.8323804   -2.6966185    2358.7688  0.073564396  0.073741432            4 
 2673000   0.83124861   -2.6997728    2361.7922  0.073631133  0.073727908            2 
 2674000   0.81982338   -2.6694317    2355.7278  0.073414604   0.07371456            2 
 2675000   0.81983553   -2.7093827    2352.9815  0.073301603  0.073701371            3 
 2676000   0.81511681   -2.6854382    2359.7642  0.073485433  0.073688053            4 
 2677000   0.84890619   -2.6885032    2351.6992  0.073206922  0.073674794            3 
 2678000   0.85296811     -2.70862    2357.0128  0.073344935  0.073661465            2 
 2679000   0.80004769   -2.7217053    2353.3457  0.073203486  0.073648053            3 
 2680000   0.81668823   -2.7101282    2351.7547    0.0731267  0.073634428            3 
 2681000   0.83065435   -2.6932032    2363.8186  0.073474406  0.073621157            3 
 2682000   0.81301049   -2.6872034    2366.2953  0.073523966  0.073607908            4 
 2683000   0.81303062   -2.6994531    2357.9224  0.073236501  0.073594348            4 
 2684000   0.81138035   -2.7063212    2351.0281   0.07299516  0.073580918            6 
 2685000   0.81679557   -2.6928271     2358.629   0.07320388  0.073567371            3 
 2686000   0.83578785   -2.7005322    2358.6043   0.07317586  0.073553889            6 
 2687000   0.83383919   -2.6943309    2357.4685  0.073113401  0.073540327            3 
 2688000   0.84512123   -2.6956098    2366.1893  0.073356564  0.073526718            4 
 2689000   0.79560916   -2.6823179    2361.1449  0.073172956  0.073513292            3 
 2690000   0.82127747   -2.6718665    2365.3273   0.07327532  0.073499636            8 
 2691000   0.80656529    -2.706988    2354.1065  0.072900611  0.073485875            2 
 2692000   0.83364345   -2.6846418    2357.7888  0.072987519  0.073472244            4 
 2693000   0.80078589   -2.6806599    2365.8582  0.073210117  0.073458439            3 
 2694000   0.80586206   -2.7058062    2355.4563  0.072861183  0.073444662            4 
 2695000   0.82592811   -2.7086935    2358.0874  0.072915503  0.073430748            4 
 2696000   0.79591506   -2.6958306     2366.569  0.073150625   0.07341702            3 
 2697000   0.82662006   -2.7156141    2363.8897  0.073040716  0.073403237            4 
 2698000   0.80565828   -2.6799583    2364.3404  0.073027562  0.073389506            2 
 2699000   0.81740561   -2.7006031    2356.7265  0.072765422  0.073375941            5 
 2700000   0.80315533   -2.6958161    2362.5934  0.072919549  0.073362052            3 
 2701000   0.83326204   -2.7048385     2366.403   0.07301009  0.073348596            2 
 2702000   0.83029029   -2.6901214    2367.0212  0.073002135  0.073335071            3 
 2703000   0.81184764    -2.713256    2360.5566  0.072775824  0.073321518            4 
 2704000   0.83238795   -2.7179645    2362.8083  0.072818302  0.073307999            3 
 2705000   0.82959049   -2.7059347    2371.8462  0.073069814  0.073294451            3 
 2706000   0.81787168   -2.7081925    2362.2602  0.072747605  0.073281014            4 
 2707000   0.82447477   -2.6996753    2376.0417  0.073144984  0.073267403            3 
 2708000    0.8162127    -2.700788    2361.5865  0.072673145  0.073254075            3 
 2709000   0.81286826   -2.7255917    2371.1693  0.072941102  0.073240656            5 
 2710000   0.81940059   -2.7014799    2365.7883  0.072748717  0.073227281            2 
 2711000   0.82284473   -2.7189904    2374.1852  0.072979996  0.073213633            5 
 2712000   0.82718276   -2.7115007    2368.1501  0.072767642  0.073200101            3 
 2713000   0.82900957   -2.6937783    2367.4328  0.072718785  0.073186477            2 
 2714000   0.82435285   -2.7050098    2373.3063  0.072872337  0.073173154            1 
 2715000   0.81453648     -2.69003    2377.3516  0.072969663  0.073159747            2 
 2716000    0.8141012    -2.694403    2375.1121  0.072874083   0.07314634            2 
 2717000    0.8156259   -2.6918673    2372.1369  0.072756008  0.073132957            2 
 2718000    0.8138314   -2.7077656    2371.6151  0.072713243  0.073119562            5 
 2719000   0.81211035    -2.704512    2366.5945  0.072532624  0.073106101            4 
 2720000   0.82712438   -2.7006301    2376.7108  0.072815894  0.073092658            2 
 2721000   0.81056907   -2.6950342     2376.573  0.072784913  0.073079348            2 
 2722000   0.81033768   -2.7181807    2376.8631  0.072767055  0.073066094            5 
 2723000   0.81887682   -2.6863775    2373.9948  0.072652553  0.073052766            3 
 2724000   0.82394487    -2.674834    2384.0003  0.072931972   0.07303957            4 
 2725000   0.82193385   -2.7008098    2367.4705  0.072399709  0.073025957            3 
 2726000   0.80082681   -2.7154798    2376.9453  0.072662794  0.073012553            3 
 2727000   0.80415913   -2.7309594    2375.5499  0.072593507  0.072999168            3 
 2728000   0.81404262   -2.6982538    2389.4384  0.072991153  0.072985932            3 
 2729000   0.80911753   -2.6996334    2388.0618  0.072922371  0.072972872            7 
 2730000   0.80683219   -2.7181816    2378.5024  0.072603858  0.072959751            4 
 2731000   0.82110162   -2.6965757    2385.4736  0.072789993  0.072946505            5 
 2732000   0.82654256   -2.6885621    2386.1874   0.07278512  0.072933365            3 
 2733000   0.80386263   -2.6871319     2386.915  0.072780673  0.072920251            3 
 2734000   0.80476924   -2.6974471    2380.0856  0.072545891  0.072906994            6 
 2735000   0.82027324   -2.7040094    2392.1639  0.072887383  0.072893751            3 
 2736000   0.82477501   -2.7015209    2386.7589  0.072696116   0.07288061            4 
 2737000   0.80372878   -2.7241751    2393.8505  0.072885474  0.072867349            2 
 2738000   0.80421869   -2.6847019    2387.2876  0.072659107  0.072854326            7 
 2739000   0.80886352   -2.7166375    2398.0327  0.072959496  0.072841373            6 
 2740000   0.83387119   -2.7342184    2384.0809  0.072508543  0.072828327            3 
 2741000   0.81894012   -2.7011567    2386.6407  0.072559914  0.072815178            2 
 2742000   0.81568618   -2.7118638    2392.0368  0.072697446  0.072802113            6 
 2743000   0.80704691   -2.6973756    2392.5321  0.072685991  0.072788933            5 
 2744000   0.79364199    -2.701681    2397.8734  0.072821713  0.072775707            3 
 2745000    0.8202281   -2.6950584    2384.2717  0.072382263   0.07276267            3 
 2746000   0.80667866   -2.7051414    2395.2977   0.07269051  0.072749514            1 
 2747000   0.82184724   -2.7290592    2404.2025  0.072934186  0.072736361            4 
 2748000   0.80910689   -2.7116891    2388.0827   0.07241881  0.072723353            4 
 2749000   0.79986839   -2.7017302     2399.771  0.072746787  0.072710159            8 
 2750000   0.82997569   -2.7287342    2386.8406  0.072328503  0.072697148            5 
 2751000   0.81215343   -2.7157866    2399.6755  0.072691007  0.072683968            4 
 2752000   0.81706549   -2.7194755    2391.4948  0.072416871  0.072670822            3 
 2753000   0.81632651   -2.6948049    2398.4116  0.072599939  0.072657798            2 
 2754000   0.81765045   -2.7191527    2384.7414  0.072159931  0.072644519            4 
 2755000   0.81405571   -2.7410324    2391.5383  0.072339332  0.072631162            3 
 2756000   0.83032461   -2.7180448    2383.4257  0.072067782  0.072617764            3 
 2757000   0.81762304   -2.7289764    2391.1775  0.072275948  0.072604446            2 
 2758000    0.8262691   -2.7080801    2403.1228  0.072610671   0.07259133            6 
 2759000   0.80280538   -2.6831533     2397.319  0.072409056  0.072578034            7 
 2760000    0.8116337   -2.7269418    2388.6464  0.072120965  0.072564568            2 
 2761000   0.81573043    -2.714953    2392.1809  0.072201523  0.072551469            2 
 2762000   0.81025522    -2.698334    2406.3304  0.072602294   0.07253847            2 
 2763000   0.82661699   -2.7098489    2400.2794  0.072393517  0.072525384            4 
 2764000   0.80238977   -2.7194164    2401.2021  0.072395143   0.07251233            5 
 2765000   0.80934191   -2.7130728    2408.1606   0.07257868  0.072499197            4 
 2766000   0.79904701   -2.7060719    2400.9102  0.072334003  0.072486168            5 
 2767000   0.79865818   -2.7119138    2406.8989  0.072488221  0.072473113            4 
 2768000   0.80803629   -2.7211856    2402.2827  0.072323057  0.072460062            5 
 2769000   0.80600674   -2.7078937    2402.4231  0.072301165  0.072447062            2 
 2770000   0.83103646   -2.7127594    2404.0078  0.072322739  0.072434071            4 
 2771000   0.82113228   -2.7209049    2414.8127  0.072621577  0.072421152            3 
 2772000     0.832782   -2.7150031    2399.1221  0.072123679  0.072408063            2 
 2773000   0.80629318   -2.7386903    2395.3544  0.071984446  0.072394867            3 
 2774000   0.79608787    -2.714424    2405.7209  0.072269914  0.072381684           13 
 2775000   0.79761523   -2.7292429    2412.8512  0.072457994   0.07236861            6 
 2776000   0.81701307   -2.7263684    2401.4684   0.07209019  0.072355594            4 
 2777000   0.80141012   -2.7224684    2409.6622  0.072310113  0.072342631            3 
 2778000   0.80796508   -2.6924816    2408.7857  0.072257791  0.072329558            4 
 2779000   0.82470016   -2.7145504    2412.9753  0.072357421  0.072316661            4 
 2780000   0.79704402   -2.6964862    2405.8797  0.072118696  0.072303628            2 
 2781000   0.81013887   -2.7134632    2413.5991  0.072324078   0.07229057            2 
 2782000    0.8173098   -2.7326099    2407.3145  0.072109827  0.072277574            3 
 2783000   0.78958754   -2.6916127    2411.9212  0.072221859  0.072264791            1 
 2784000   0.82515546   -2.7175904    2415.2407   0.07229528  0.072251813            2 
 2785000   0.81022778      -2.7185    2412.1915  0.072178081  0.072238951            4 
 2786000   0.81388098   -2.7053787    2408.4001  0.072038767  0.072225985            3 
 2787000   0.80058256   -2.7160861     2409.526  0.072046585  0.072212981            2 
 2788000   0.81800179   -2.7164659    2409.8591  0.072030699  0.072200049            3 
 2789000   0.80423582   -2.7151567    2416.6836  0.072208785  0.072186861            3 
 2790000   0.79292768   -2.7136759    2415.3959  0.072144442   0.07217385            5 
 2791000   0.78926219   -2.7175585    2412.1941  0.072022995  0.072160739            2 
 2792000   0.81292445   -2.6872851    2426.4485  0.072422651  0.072147717            3 
 2793000   0.80592231   -2.7032437    2413.0106  0.071995781  0.072134827            5 
 2794000   0.82741001     -2.73593    2412.9739  0.071968918  0.072121654            4 
 2795000   0.80037649    -2.732532    2411.3867  0.071895847  0.072108629            3 
 2796000   0.82445576   -2.7260467    2405.3999  0.071691701  0.072095668            6 
 2797000    0.7978051   -2.7190265    2421.2753  0.072139058    0.0720827            3 
 2798000   0.81268393   -2.7158076    2420.1756  0.072080523   0.07206976            3 
 2799000   0.81617099   -2.7056377    2428.6912  0.072308301  0.072056989            4 
 2800000   0.80316494   -2.7313167    2408.5734  0.071683732  0.072043974            5 
 2801000   0.81130481   -2.7178154     2423.395  0.072099101  0.072030967            3 
 2802000   0.80037067   -2.7226823     2426.557  0.072167411  0.072018184            3 
 2803000   0.79716334   -2.7361314    2418.7407  0.071909284  0.072005351            5 
 2804000   0.79825718   -2.7024239     2423.803  0.072034089  0.071992406            1 
 2805000   0.81822492   -2.7262937    2430.6479   0.07221176  0.071979628            3 
 2806000   0.80672534   -2.7312048      2422.93  0.071956819  0.071966915            3 
 2807000   0.81700537   -2.7231953    2422.4858  0.071917997  0.071953992            4 
 2808000   0.81081655   -2.7161594    2427.6018  0.072044214  0.071941171            4 
 2809000   0.80192155   -2.7405273    2414.9241  0.071642463  0.071928258            4 
 2810000   0.80820809   -2.7315579    2424.4708  0.071900082  0.071915299            4 
 2811000   0.79900013   -2.7143938    2421.7902  0.071795038  0.071902446            5 
 2812000   0.79442803   -2.7074578    2431.1101  0.072045701  0.071889816            3 
 2813000   0.80886133   -2.7256825    2423.9595  0.071808256  0.071876967            5 
 2814000   0.80182956   -2.7161966    2429.0185  0.071932556  0.071864222            5 
 2815000   0.79518149   -2.7015794    2432.4042   0.07200723  0.071851463            3 
 2816000    0.7889919   -2.7110714    2425.3597  0.071773192  0.071838573            5 
 2817000   0.79078313   -2.7315149    2430.4137  0.071897221  0.071825818            3 
 2818000   0.83700829   -2.7280371    2423.4604  0.071666087  0.071813116            4 
 2819000   0.79839529   -2.7244213    2430.2843  0.071842389  0.071800271            3 
 2820000   0.80277323   -2.7298586    2422.7716  0.071594905  0.071787514            2 
 2821000   0.82527278   -2.7214785    2434.1927  0.071906908  0.071774908            5 
 2822000   0.79645107   -2.7332451    2438.2294  0.072000632  0.071762187            5 
 2823000   0.80515484   -2.7157853    2433.8088  0.071844634  0.071749636            6 
 2824000   0.79574123   -2.7206409    2429.9181  0.071704383  0.071736989            4 
 2825000   0.78796746   -2.7266634    2436.9601  0.071886729  0.071724399            3 
 2826000   0.77536573   -2.7260986    2437.9831  0.071891457   0.07171184            4 
 2827000   0.79287871   -2.7218504    2442.1309  0.071988294  0.071699203            5 
 2828000   0.79760265   -2.7238476    2430.9081  0.071632133  0.071686653            2 
 2829000   0.80083113   -2.7317707    2438.7429  0.071837602  0.071673885            4 
 2830000   0.80878724   -2.7195096    2434.4434  0.071685613  0.071661219            4 
 2831000    0.7907121    -2.749712    2440.9854  0.071852862  0.071648549            6 
 2832000   0.81363567   -2.7253223    2438.2163  0.071746008  0.071635835            4 
 2833000   0.79266062   -2.7310677    2447.1441  0.071983294  0.071623043            2 
 2834000   0.78930763   -2.7337851    2440.6705  0.071767541  0.071610336            4 
 2835000   0.78454204   -2.7131787    2434.7109  0.071567045  0.071597691            4 
 2836000    0.8011629    -2.712169    2439.2602  0.071675486  0.071584971            9 
 2837000     0.814672   -2.7317568    2439.9464  0.071670381  0.071572236            3 
 2838000   0.78506601   -2.7240296    2438.2921  0.071596551  0.071559593            2 
 2839000   0.79243832   -2.7078982     2442.695  0.071700571  0.071546648            3 
 2840000   0.79863203   -2.7296734    2438.8177  0.071561553  0.071533996            4 
 2841000   0.79699362   -2.7289996    2436.7331  0.071475219  0.071521202            3 
 2842000   0.79460721   -2.7241143    2439.3277  0.071526146  0.071508384            5 
 2843000   0.80921969   -2.7276546    2445.2213   0.07167374  0.071495694            3 
 2844000   0.79990228   -2.7310625    2440.7958  0.071518864  0.071483211            4 
 2845000   0.79666386   -2.7382031     2441.658  0.071518982  0.071470588            2 
 2846000   0.78761786   -2.7254494    2447.4303  0.071662869  0.071458153            5 
 2847000   0.79303748   -2.7304569     2449.317  0.071692922  0.071445624            2 
 2848000   0.79526682   -2.7099407    2442.8173  0.071477566  0.071433065            2 
 2849000    0.7981778   -2.7298749    2447.0393  0.071575972  0.071420348            5 
 2850000   0.80121034   -2.7319359    2436.0351  0.071229097  0.071407718            3 
 2851000   0.80300818   -2.7225622    2445.3404  0.071476101  0.071395103            3 
 2852000   0.78287132    -2.746863    2442.5456  0.071369377  0.071382271            2 
 2853000   0.79417504   -2.7139611    2440.6477  0.071288927  0.071369409            2 
 2854000   0.78757452   -2.7462952    2444.0677  0.071363807  0.071356817            3 
 2855000   0.79013572   -2.7323306    2442.0666  0.071280402  0.071344062            2 
 2856000   0.80519401   -2.7468679    2452.8152  0.071569071  0.071331357            3 
 2857000   0.78538548   -2.7253955    2441.1705  0.071204366  0.071318537            2 
 2858000    0.8018339   -2.6901406    2447.0538  0.071350998   0.07130591            5 
 2859000   0.79148318    -2.719905    2449.0935  0.071385494  0.071293367            4 
 2860000   0.80716685   -2.7270113    2453.7487  0.071496175  0.071280892            5 
 2861000   0.77721706   -2.7401726    2442.7276  0.071150168   0.07126824            3 
 2862000   0.78975334   -2.7277229    2444.5443  0.071178207  0.071255684            3 
 2863000    0.7981694   -2.7134371    2454.0415  0.071429779  0.071243076            3 
 2864000   0.76854725   -2.7286655    2443.6075  0.071101242  0.071230467            3 
 2865000   0.78383485   -2.7388782    2449.8648   0.07125843  0.071217786            1 
 2866000   0.79714462   -2.7421028    2446.8423  0.071145683  0.071205128            7 
 2867000   0.79484918   -2.7347854    2448.1194  0.071157987  0.071192466            4 
 2868000   0.78495554   -2.7509508    2451.1026  0.071219858  0.071179686            2 
 2869000   0.79031236    -2.709013    2457.5165  0.071381333  0.071167127            2 
 2870000   0.78407822    -2.722586      2452.56  0.071212544  0.071154441            4 
 2871000   0.79009552   -2.7234593    2451.9659  0.071170497  0.071141661            2 
 2872000   0.78610337    -2.728542    2450.4902  0.071102895   0.07112899            6 
 2873000    0.8015277   -2.7488532    2453.7843  0.071173695  0.071116131            3 
 2874000   0.80241824   -2.7512181    2450.6631  0.071058428  0.071103206            2 
 2875000    0.7799697   -2.7269948    2453.9532  0.071129079  0.071090251            7 
 2876000   0.78570025   -2.7160743    2444.5504  0.070831897  0.071077229            6 
 2877000   0.81981369   -2.7501715    2449.3118  0.070945192  0.071064165            2 
 2878000   0.78987937   -2.7279927    2452.6961  0.071018535  0.071051181            5 
 2879000   0.76650647   -2.7299378    2447.8391  0.070853281  0.071038075            7 
 2880000   0.81024603   -2.7510611    2444.2472  0.070724746  0.071025091            3 
 2881000    0.7899681   -2.7382143       2453.6  0.070970727  0.071011899            2 
 2882000   0.81018082   -2.7329781    2453.3636  0.070939265  0.070998886            7 
 2883000   0.79618877   -2.7140185    2456.1331  0.070994712  0.070985899            3 
 2884000   0.78529627   -2.7491485    2458.9957   0.07105281  0.070972779            2 
 2885000   0.78724863   -2.7300653    2452.7977  0.070849153   0.07095977            3 
 2886000   0.79611785   -2.7574363    2454.5435  0.070875015  0.070946721            2 
 2887000   0.80585171   -2.7522671     2467.881  0.071235451  0.070933928            6 
 2888000    0.8006525   -2.7312802     2449.318   0.07067515  0.070920778            3 
 2889000   0.79680434   -2.7451482    2447.7994  0.070606883  0.070907504            2 
 2890000   0.77769619   -2.7285037     2450.662  0.070664995  0.070894414            4 
 2891000    0.7896632   -2.7403738    2460.3228  0.070919025   0.07088136            4 
 2892000   0.79100749   -2.7407397    2461.6823  0.070933676  0.070868282            3 
 2893000   0.79474981   -2.7249544    2456.0531  0.070747006  0.070855132            3 
 2894000   0.78900103   -2.7291216     2453.272  0.070642479  0.070842157            8 
 2895000   0.80742252   -2.7431494    2451.2352  0.070559447  0.070828994            4 
 2896000   0.78655899   -2.7506886    2459.9087  0.070784665  0.070815936            4 
 2897000    0.7975385   -2.7540914    2463.8427  0.070873396   0.07080277            3 
 2898000   0.78301407   -2.7474298    2455.9917   0.07062318  0.070789692            2 
 2899000    0.7869218   -2.7329641    2472.4686  0.071072456  0.070776664            4 
 2900000   0.78305699   -2.7469725    2448.9823  0.070373055  0.070763656            3 
 2901000   0.79938034    -2.740624    2455.0014  0.070521698  0.070750511            4 
 2902000   0.79009534   -2.7291621    2459.2336  0.070618928  0.070737481            6 
 2903000   0.79427499   -2.7283857    2461.7359  0.070666435  0.070724643            2 
 2904000   0.78793083   -2.7527617    2459.8256  0.070587281  0.070711475            4 
 2905000   0.78870754   -2.7512424    2458.6213  0.070528436  0.070698475            2 
 2906000   0.78991549   -2.7279986    2460.7766  0.070565971  0.070685447            5 
 2907000   0.79799284   -2.7417203    2457.5258  0.070448509  0.070672367            4 
 2908000   0.77827079   -2.7463465     2467.806  0.070718879  0.070659367            3 
 2909000   0.77735296    -2.739038    2460.5804  0.070487578  0.070646266            3 
 2910000   0.81990767   -2.7529336    2470.6982  0.070753098   0.07063338            5 
 2911000   0.78431588   -2.7251918    2463.8432  0.070532555  0.070620594            4 
 2912000   0.78083887   -2.7630073    2465.3722  0.070552089  0.070607633            3 
 2913000   0.79976625   -2.7429529    2465.9027  0.070543047  0.070594733            3 
 2914000   0.77041998   -2.7490626    2470.4435  0.070648692   0.07058179            3 
 2915000   0.77850661   -2.7367781     2469.392  0.070594397  0.070568901            4 
 2916000   0.78430979   -2.7243872    2474.0249  0.070702586  0.070555994            5 
 2917000   0.78926811   -2.7483984    2467.9481  0.070504745  0.070543263            3 
 2918000   0.79719803   -2.7574814    2474.3068  0.070662176  0.070530291            4 
 2919000   0.77342527   -2.7617939    2469.9652  0.070514022   0.07051743            5 
 2920000   0.77250708   -2.7549647    2467.9499   0.07043236  0.070504591            2 
 2921000   0.79845861   -2.7232342    2470.7537  0.070488238  0.070491935            4 
 2922000   0.77856317   -2.7495356    2477.2526  0.070649459  0.070479254            4 
 2923000   0.79413392   -2.7464245    2474.5788  0.070549059  0.070466515            2 
 2924000   0.77743465   -2.7550529    2473.2311  0.070486522  0.070453749            3 
 2925000   0.77919386    -2.764941     2464.983  0.070227436   0.07044092            5 
 2926000   0.79538115   -2.7711915    2472.6411  0.070421539  0.070428053            6 
 2927000   0.78421295   -2.7361317    2471.7052  0.070370836  0.070415228            7 
 2928000   0.78507142   -2.7544295    2462.1456  0.070074726  0.070402453            4 
 2929000   0.76605503   -2.7280118    2474.0335  0.070389027  0.070389675            4 
 2930000   0.77140701   -2.7406519    2479.1367  0.070510144  0.070376867            8 
 2931000   0.78731268   -2.7578625    2465.4286  0.070096345  0.070364081            3 
 2932000   0.79730146   -2.7649766    2476.9514  0.070399939  0.070351174            3 
 2933000   0.77720921   -2.7568313    2468.7566  0.070143102  0.070338443            3 
 2934000   0.76935388    -2.709002     2481.068  0.070468871  0.070325646            3 
 2935000   0.77835342   -2.7507629    2479.4569  0.070399116   0.07031284            4 
 2936000   0.78934408   -2.7508608    2471.1864  0.070140394  0.070299914            7 
 2937000    0.7822056   -2.7524972    2481.6655  0.070413844  0.070287132            4 
 2938000    0.7800138   -2.7488099    2478.6855  0.070305353  0.070274276            2 
 2939000   0.79202208   -2.7553226    2477.9907   0.07026173   0.07026153            7 
 2940000   0.78061462   -2.7588521    2479.1094  0.070269541  0.070248822            4 
 2941000   0.79394996   -2.7502269    2482.3541  0.070337587  0.070236034            4 
 2942000   0.76802895   -2.7289483    2475.5982  0.070122316  0.070223241            4 
 2943000   0.78277883   -2.7689676    2480.9039  0.070248722  0.070210421            6 
 2944000   0.77815033   -2.7295766    2486.4495  0.070381837  0.070197671            2 
 2945000   0.79926869   -2.7701018    2481.9247  0.070229902  0.070184874            5 
 2946000   0.78371803   -2.7436053    2492.8151  0.070514119  0.070172274            6 
 2947000    0.7741406   -2.7612586    2480.1911  0.070133217  0.070159587            2 
 2948000   0.77208048   -2.7630457    2480.1602  0.070108554   0.07014674            3 
 2949000   0.78422427   -2.7409551    2491.1868  0.070396372  0.070134126            4 
 2950000   0.79212935   -2.7561155    2483.6426  0.070159394  0.070121463            2 
 2951000    0.7677833   -2.7628991     2485.007  0.070174149  0.070108818            4 
 2952000   0.75330562   -2.7421254    2478.7539  0.069973857  0.070095953            4 
 2953000   0.79437333   -2.7613256    2482.1751  0.070046707  0.070083185            2 
 2954000   0.77384618   -2.7470623    2487.5955  0.070175904  0.070070417            3 
 2955000   0.77647559   -2.7085548    2499.8149  0.070496753  0.070057694            8 
 2956000   0.77413689   -2.7575882    2495.0434  0.070338391   0.07004516            3 
 2957000   0.77891545   -2.7602061    2484.9119  0.070029079  0.070032624            3 
 2958000   0.77635605   -2.7507511    2495.4667  0.070302759  0.070019897            3 
 2959000   0.78789762   -2.7425896    2488.8896  0.070093771  0.070007207            6 
 2960000   0.79880118   -2.7744444    2487.7125  0.070036952  0.069994556            5 
 2961000   0.77446589   -2.7636632    2491.4253  0.070117788  0.069981813            1 
 2962000   0.79219729   -2.7305084    2490.3314  0.070063341  0.069969115            4 
 2963000   0.76667779   -2.7680651    2487.9611   0.06997303  0.069956458            3 
 2964000   0.78958439   -2.7557127    2495.5602  0.070163073  0.069943656            7 
 2965000    0.7811047    -2.765956    2493.0633  0.070069232   0.06993105            4 
 2966000   0.78171076   -2.7269108    2487.9335  0.069901481  0.069918269            2 
 2967000   0.77317899   -2.7575263    2490.7259   0.06995635  0.069905552            3 
 2968000   0.77039726   -2.7583882    2497.9422  0.070135395  0.069892902            3 
 2969000   0.76580328   -2.7550086    2485.5161  0.069762997  0.069880155            4 
 2970000   0.75919062   -2.7273952    2492.4218  0.069933273  0.069867498            3 
 2971000   0.76336227   -2.7402498    2495.9086  0.070007534  0.069855026            2 
 2972000   0.78431691   -2.7773478    2492.2562  0.069881567  0.069842447            5 
 2973000   0.76147819   -2.7715437    2498.6852  0.070038266  0.069829786            3 
 2974000   0.77507992   -2.7525202    2494.2969  0.069891755   0.06981704            2 
 2975000   0.76853465   -2.7744877    2493.6346  0.069849708   0.06980435            3 
 2976000    0.7719392   -2.7418171    2499.5982  0.069993229  0.069791722            2 
 2977000   0.77845646   -2.7500934    2492.8547  0.069780952  0.069779187            2 
 2978000   0.77826781   -2.7673846    2497.2925  0.069881701  0.069766527            8 
 2979000   0.77257788   -2.7717616    2499.6552  0.069924338   0.06975382            2 
 2980000   0.77430638   -2.7374452    2502.0896  0.069968948  0.069741204            3 
 2981000    0.7650616   -2.7820511     2497.542  0.069818349  0.069728667            2 
 2982000   0.76962061   -2.7324266    2502.4281   0.06993148  0.069715968            5 
 2983000    0.7692339   -2.7710733    2499.4145  0.069823848  0.069703416            3 
 2984000   0.77501789   -2.7477668    2495.5682  0.069693036   0.06969083            5 
 2985000   0.78263765   -2.7493608    2500.5637  0.069809148   0.06967819            3 
 2986000   0.79610778   -2.7734626    2498.3746  0.069724676   0.06966559            2 
 2987000   0.76543897   -2.7686396     2501.287  0.069782585  0.069652755            5 
 2988000   0.78205567   -2.7787838    2503.5509  0.069822369  0.069640085            5 
 2989000   0.76724231   -2.7558204    2500.9141  0.069725496  0.069627446            3 
 2990000   0.76852999   -2.7759427    2505.5337  0.069830928  0.069614741            4 
 2991000   0.78201182   -2.7556114    2508.4099  0.069887717  0.069602284            6 
 2992000   0.76404534   -2.7604921    2511.6176  0.069953699  0.069589629            2 
 2993000   0.77404704   -2.7621877    2511.1525  0.069917376  0.069576993            4 
 2994000   0.78871324   -2.7703361    2505.4846  0.069736266  0.069564367            2 
 2995000   0.77314774   -2.7579729    2504.2746  0.069679316  0.069551848            9 
 2996000   0.76494847   -2.7692162    2495.4649  0.069411017  0.069539194            7 
 2997000   0.75835503   -2.7667447     2501.705  0.069561367  0.069526634            8 
 2998000   0.77440411    -2.766512    2510.9749  0.069795833     0.069514            3 
 2999000   0.77784837   -2.7617492    2511.5447  0.069788394  0.069501562            6 
 3000000   0.76309153   -2.7666776    2504.4347   0.06956763  0.069489111            2 
 3001000   0.76521387   -2.7634018    2506.2136  0.069593847  0.069476624            5 
 3002000   0.79146899   -2.7704998    2509.6277  0.069665436  0.069464157            6 
 3003000   0.77511642   -2.7722064    2501.0253   0.06940352  0.069451725            7 
 3004000   0.74799565   -2.7775978    2505.0912  0.069493208  0.069439327            3 
 3005000   0.76691989   -2.7556277    2511.1259  0.069637434  0.069426723            2 
 3006000   0.77712254   -2.7668244    2507.9934   0.06952743  0.069414294            6 
 3007000   0.77006587   -2.7643969    2508.9397  0.069530531  0.069401763            6 
 3008000    0.7731505   -2.7673927    2506.0889  0.069428438  0.069389242            6 
 3009000   0.77890503   -2.7574172     2511.645  0.069559238  0.069376623            4 
 3010000   0.77374328    -2.780611    2515.7394  0.069649485  0.069364081            4 
 3011000   0.76480079   -2.7630154    2504.6428  0.069319241  0.069351491            8 
 3012000   0.77538466   -2.7804933     2515.378  0.069593237  0.069338919            4 
 3013000   0.78181299   -2.7752681    2515.3773  0.069570121  0.069326506            4 
 3014000    0.7731973   -2.7504383    2503.1469  0.069208883  0.069314002            3 
 3015000    0.7410694    -2.810215    2514.5093  0.069499981  0.069301387            5 
 3016000   0.78346106   -2.7511163    2517.7425  0.069566272  0.069288793            6 
 3017000   0.76772096   -2.7427904    2517.0595  0.069524349  0.069276383            8 
 3018000   0.76003981   -2.8010074    2508.6942  0.069270329  0.069263804            3 
 3019000   0.79096881   -2.7551415    2512.2458  0.069345417  0.069251141            4 
 3020000   0.77339706   -2.7649523    2510.9907  0.069287823  0.069238663            5 
 3021000   0.78002794   -2.7664488    2516.7335  0.069423302  0.069226218            3 
 3022000   0.77740695   -2.8006662    2509.2205  0.069193154  0.069213709            6 
 3023000   0.76124172   -2.7973329    2514.9661  0.069328649  0.069201237            3 
 3024000   0.77802477   -2.7514247     2513.582  0.069267581  0.069188737            2 
 3025000   0.76338336   -2.7566259    2519.5013   0.06940775  0.069176335            1 
 3026000   0.77056124   -2.7670216    2520.6178  0.069415561  0.069163961            5 
 3027000   0.76008832   -2.7803818    2518.1267  0.069324046  0.069151513            4 
 3028000   0.76784571   -2.7578583    2522.8775  0.069431901  0.069139127            3 
 3029000   0.76610298   -2.7754353    2518.4361  0.069286785  0.069126698            4 
 3030000   0.76462912   -2.7826176    2522.9696  0.069388603  0.069114421            2 
 3031000   0.79210645    -2.779088    2517.5582  0.069216932  0.069102065            3 
 3032000   0.74438379   -2.7748726     2522.643  0.069333856  0.069089781            3 
 3033000   0.77185128   -2.7715471    2527.4888  0.069444135  0.069077462            4 
 3034000   0.77835113   -2.7646933    2517.9564  0.069159427  0.069065172            6 
 3035000   0.75171395   -2.7505726     2527.189  0.069390144  0.069052836            5 
 3036000   0.76524083   -2.7737248    2527.2771  0.069369706  0.069040595            5 
 3037000   0.77535895   -2.7636524    2535.7026  0.069578053  0.069028413            4 
 3038000   0.75295527    -2.780337    2531.6174  0.069443094   0.06901622            4 
 3039000   0.75382527   -2.7629258    2523.9863  0.069210988  0.069004009            3 
 3040000   0.76940326   -2.7534091    2538.3168  0.069581052  0.068991907            3 
 3041000   0.75818042    -2.763875    2522.5701   0.06912666  0.068979672            3 
 3042000   0.75825167   -2.7605749      2535.56  0.069459786  0.068967627            3 
 3043000   0.76546253   -2.7793673    2536.8943  0.069473498  0.068955317            2 
 3044000   0.77035794   -2.7725144    2535.5856   0.06941485   0.06894321            4 
 3045000   0.78242812   -2.7711105    2532.9384  0.069319606  0.068930915            2 
 3046000   0.74767206    -2.784868    2536.1378  0.069384378  0.068918848            7 
 3047000    0.7704155   -2.7660004    2542.1969   0.06952732  0.068906786            4 
 3048000   0.75244446   -2.7681584    2528.0185  0.069116868  0.068894827            9 
 3049000   0.76716437   -2.7747519     2535.214   0.06929086  0.068882874            3 
 3050000   0.76249859   -2.7926555    2536.3421  0.069298964  0.068870693            3 
 3051000   0.75096253   -2.7848121     2530.563  0.069118403  0.068858562            7 
 3052000   0.77578318   -2.7694772    2533.1971  0.069167681  0.068846425            3 
 3053000    0.7632607   -2.7723777    2529.7861  0.069051919  0.068834308            5 
 3054000   0.77403088   -2.7824919     2537.391  0.069236819  0.068822052            6 
 3055000   0.76064214   -2.7556574    2528.3526   0.06896761  0.068809854            3 
 3056000   0.76231407   -2.7863866    2539.2375   0.06924186  0.068797719            5 
 3057000   0.76920461   -2.7884027    2533.9123  0.069074045  0.068785687            4 
 3058000   0.77680147   -2.7932793    2530.6642  0.068962945  0.068773459            2 
 3059000   0.76425876   -2.7858122    2536.2383   0.06909225    0.0687613            3 
 3060000   0.76279684   -2.7743333    2540.9644  0.069198378  0.068749036            5 
 3061000   0.75466318   -2.7667743    2541.2604  0.069183828  0.068736979            4 
 3062000   0.78487302   -2.7634552    2545.4037  0.069273997  0.068724947            3 
 3063000   0.77212195   -2.7581223    2533.8341  0.068936612  0.068712784            5 
 3064000   0.75828739   -2.8023707    2541.5449  0.069123827  0.068700793            3 
 3065000   0.74614361   -2.7677593    2543.4451   0.06915294  0.068688676            6 
 3066000    0.7851033   -2.7931904    2540.8931  0.069061021  0.068676545            6 
 3067000   0.74860346   -2.7768844    2540.9365  0.069039683  0.068664369            8 
 3068000   0.76346226   -2.7799793    2531.8525  0.068770441  0.068652102            4 
 3069000   0.72929095   -2.7839546    2533.7607  0.068799845   0.06863972            5 
 3070000   0.78267531   -2.7521902    2533.0878  0.068759171  0.068627429            5 
 3071000   0.76292682   -2.7651836    2539.0184  0.068897709  0.068615337           10 
 3072000   0.75583956    -2.802122    2535.0103  0.068766556   0.06860304            4 
 3073000   0.76704485    -2.781205    2534.6389  0.068734107  0.068590656            3 
 3074000   0.74463321   -2.7790676    2534.7063  0.068713573  0.068578339            5 
 3075000   0.77496934   -2.7744817    2539.0081  0.068807807  0.068566158            9 
 3076000   0.76410871   -2.8072674    2536.6929  0.068722717  0.068553868            5 
 3077000   0.76692166   -2.7951391    2534.5543  0.068642463  0.068541492            2 
 3078000   0.76615873   -2.7486256    2548.2637  0.068991327  0.068529236            4 
 3079000   0.76059847   -2.7883205     2546.189   0.06891277  0.068516936            4 
 3080000   0.75048284    -2.771472    2544.2219  0.068837173  0.068504729            4 
 3081000   0.76252417   -2.7778335     2548.315  0.068925539  0.068492442            3 
 3082000   0.76409244   -2.7754122    2539.9453  0.068676868  0.068480229            2 
 3083000   0.76158036   -2.7434653    2551.1502   0.06895746  0.068468058            5 
 3084000   0.76088326    -2.799812      2546.11  0.068798908  0.068455661            4 
 3085000   0.76974236   -2.7756896     2555.218  0.069022635  0.068443354            1 
 3086000   0.78019297   -2.7798176    2555.0371  0.068995386  0.068431154            7 
 3087000   0.74409199   -2.7766474    2540.5315  0.068581458  0.068418834            4 
 3088000   0.74953229    -2.774907    2547.1238  0.068737149  0.068406416            6 
 3089000   0.75867833   -2.7875954    2544.3991   0.06864139  0.068394097            4 
 3090000   0.75472919   -2.7894908    2540.4335  0.068512229  0.068381864            5 
 3091000   0.76213862   -2.7660013    2539.0566  0.068452944  0.068369574            3 
 3092000   0.75818386   -2.7609308    2546.7731  0.068638774  0.068357198            5 
 3093000   0.76147964   -2.7818806    2550.4261  0.068715004  0.068345018            5 
 3094000   0.74001286   -2.7680004    2552.3647  0.068745009   0.06833272            9 
 3095000   0.75109944    -2.778281    2549.3179  0.068640761  0.068320555            6 
 3096000   0.75442008   -2.8036188    2544.9024  0.068499741  0.068308381            5 
 3097000   0.76275876    -2.780868    2548.3387  0.068570086  0.068296277            6 
 3098000   0.77429244   -2.7769758    2557.8707  0.068804356  0.068284123            4 
 3099000   0.76960297   -2.7789953    2555.0256  0.068705646  0.068271944            5 
 3100000   0.75897807   -2.7747408    2549.6888   0.06854002  0.068259809            3 
 3101000   0.75966039   -2.7850585    2548.4882  0.068485655  0.068247517            3 
 3102000   0.75247775    -2.784234    2551.1225  0.068534347  0.068235285            5 
 3103000   0.74806459   -2.7907311    2551.5973  0.068525009  0.068222988            4 
 3104000   0.77076939    -2.792284    2552.7725  0.068534484  0.068210753            2 
 3105000   0.75723797   -2.7952867    2553.1881  0.068523568  0.068198648           11 
 3106000   0.75311387   -2.8052766    2555.3895  0.068560568  0.068186412            3 
 3107000   0.75720785   -2.7931699    2551.9635  0.068446613  0.068174181            7 
 3108000    0.7441743   -2.7796326    2559.9696  0.068639254  0.068161823            8 
 3109000   0.75802729   -2.7789874    2553.5587  0.068445338  0.068149503            6 
 3110000   0.76872244   -2.7970836    2553.3297  0.068417193  0.068137184            6 
 3111000   0.75853196   -2.8216365    2552.6315    0.0683765  0.068124806            3 
 3112000   0.74629456   -2.7865231    2545.0906  0.068152598  0.068112454            4 
 3113000   0.74968346   -2.7958693    2558.8698  0.068499566  0.068100079            5 
 3114000   0.76028382   -2.7841904    2551.3088   0.06827523  0.068087768           10 
 3115000   0.73970454   -2.7782272     2545.548  0.068099196  0.068075474            6 
 3116000   0.75698753   -2.7762749    2550.2634  0.068203449  0.068063186            3 
 3117000   0.76357348   -2.7938274    2556.9632  0.068360687  0.068051008            3 
 3118000    0.7540802   -2.7782737    2556.1606  0.068317314  0.068038566            6 
 3119000   0.75414437   -2.8018474    2544.5859  0.067986156  0.068026273            4 
 3120000   0.74713662    -2.786551     2555.314  0.068250907  0.068013899            2 
 3121000   0.75473701   -2.8076658    2544.6081  0.067943183   0.06800135            5 
 3122000   0.76074819   -2.7903017    2552.4536  0.068130835  0.067988973            6 
 3123000   0.76010072   -2.7970033    2552.1004  0.068099596  0.067976582            5 
 3124000   0.75575595   -2.7749065    2554.1243  0.068131783  0.067964298            4 
 3125000   0.74771281   -2.7903779    2552.8294  0.068075451  0.067951916            5 
 3126000   0.75194266    -2.804255    2552.6096  0.068047815  0.067939426            5 
 3127000   0.72872896   -2.8076897    2565.1008  0.068358939  0.067927164            4 
 3128000   0.74613553   -2.7914655    2555.8808  0.068091453  0.067914694            2 
 3129000   0.75598557    -2.789235    2554.8828  0.068043112  0.067902221            3 
 3130000   0.75267303   -2.8147439    2554.8464  0.068020404  0.067889852            3 
 3131000   0.74435467   -2.8070964    2561.0109  0.068162753  0.067877477           11 
 3132000   0.74703682   -2.7949224    2558.4522  0.068072908  0.067865008            6 
 3133000   0.76190119   -2.7871232    2559.2826  0.068073269  0.067852642            6 
 3134000   0.75386319   -2.7722528    2560.0063   0.06807079  0.067840254            9 
 3135000   0.74144166   -2.8258579    2552.6864  0.067854504   0.06782785            2 
 3136000   0.75812651   -2.8008413      2557.92  0.067971939  0.067815367            4 
 3137000   0.73509639   -2.8003884    2557.3199  0.067934329  0.067802828            4 
 3138000   0.74995773   -2.7861195    2562.2367  0.068043252  0.067790346            6 
 3139000   0.74080157   -2.7918456    2560.4904  0.067975215  0.067777948            3 
 3140000   0.74963535   -2.7867939    2555.7788  0.067828524  0.067765544           15 
 3141000   0.74564377   -2.7898365    2561.3127   0.06795375  0.067753079            3 
 3142000   0.75281239   -2.7862394    2558.2121  0.067849886  0.067740724            4 
 3143000   0.75024879   -2.7866337    2559.4771  0.067861837  0.067728424            3 
 3144000   0.74286028    -2.799676    2566.0387  0.068014172  0.067715988            3 
 3145000   0.74488696   -2.7831197     2561.838   0.06788124  0.067703728            3 
 3146000   0.74341403   -2.8173168    2560.9431  0.067835957  0.067691584            3 
 3147000   0.73761451   -2.8056422     2563.582  0.067884281   0.06767932            5 
 3148000   0.74342728   -2.7849766    2569.5859  0.068021651  0.067666952            4 
 3149000     0.751335   -2.8038983    2564.6376  0.067869101  0.067654557           10 
 3150000   0.75669938   -2.7925411    2572.4219  0.068053489  0.067642071            8 
 3151000   0.72960723    -2.808986    2568.6594  0.067932387  0.067629584            7 
 3152000   0.74460852   -2.7959936    2559.7257  0.067674642   0.06761722            4 
 3153000   0.76066945   -2.7934972    2567.5117  0.067858961  0.067604928            3 
 3154000   0.74826397   -2.8145996    2562.7654  0.067712044  0.067592547           10 
 3155000   0.74756305   -2.8264274    2556.8083  0.067533235  0.067580023            3 
 3156000    0.7403254    -2.813788    2563.9467  0.067700326  0.067567462            3 
 3157000   0.75669863   -2.8082905    2559.3455  0.067557425  0.067555062            5 
 3158000   0.73874823   -2.7966519    2574.3186  0.067931143  0.067542554            4 
 3159000   0.74905646   -2.7911557    2567.2981  0.067724441  0.067530098            3 
 3160000   0.74681586   -2.8039075    2572.8175  0.067848562  0.067517744            5 
 3161000   0.76624032   -2.8013415    2567.7236  0.067692807  0.067505316            4 
 3162000   0.75126601   -2.7716813    2566.8135  0.067647414  0.067493092            2 
 3163000   0.75355285   -2.8209619    2566.7701  0.067624884  0.067480617            2 
 3164000   0.73934903   -2.7875815    2568.8265  0.067657672  0.067468236            4 
 3165000   0.75697988   -2.8070744    2570.1606  0.067671423  0.067455922            5 
 3166000    0.7490356   -2.8197909    2565.9342  0.067538803   0.06744352            5 
 3167000    0.7659673   -2.8027764     2567.376  0.067555415  0.067430999            3 
 3168000   0.74456264   -2.7961536     2567.641  0.067541061  0.067418625            4 
 3169000   0.72927854   -2.8035016    2575.4144  0.067724161  0.067406202            3 
 3170000   0.75588741     -2.81519    2570.6754  0.067578217  0.067393868            4 
 3171000   0.74877725    -2.811146    2577.3221   0.06773158  0.067381445            3 
 3172000   0.75112324   -2.7903257    2572.0493  0.067571703  0.067369194            7 
 3173000    0.7355153   -2.8208024    2573.3712  0.067585126  0.067356844            3 
 3174000   0.72676959   -2.8223038    2574.2986  0.067588181  0.067344394            3 
 3175000   0.74372152   -2.7977114    2568.3147  0.067409834  0.067332078            5 
 3176000   0.74761336   -2.8094151     2568.469  0.067392659  0.067319591           13 
 3177000   0.74124467   -2.8118477    2567.7037  0.067351371  0.067307174            3 
 3178000   0.73407701   -2.8002921    2577.0199  0.067574469  0.067294816            3 
 3179000   0.74530038    -2.809188    2577.5984  0.067568377   0.06728249           12 
 3180000   0.73932906   -2.8111097    2578.3125  0.067565842   0.06727022            2 
 3181000     0.769209   -2.8107253    2577.8999  0.067533793  0.067257822            5 
 3182000   0.74757818   -2.8037397    2575.6154  0.067452741  0.067245463            5 
 3183000   0.74204958   -2.7981699    2572.7064  0.067355388  0.067233216            6 
 3184000   0.77693486   -2.7757876    2577.0873  0.067448892  0.067220733            2 
 3185000   0.73528841   -2.7906941    2575.6342  0.067389696  0.067208369            3 
 3186000   0.73062267   -2.7930142    2574.8993  0.067349322  0.067196143            2 
 3187000   0.76492478   -2.7927217    2572.2025  0.067257675  0.067183646            9 
 3188000   0.76687742   -2.8117286    2588.9291  0.067673806  0.067171324            6 
 3189000   0.74379348   -2.7810118    2581.6545  0.067462489   0.06715898            3 
 3190000   0.73787529   -2.7984531     2575.755  0.067287225  0.067146576            4 
 3191000   0.75729507   -2.8247535    2579.0025  0.067350948   0.06713424            4 
 3192000   0.73446804   -2.8034065    2577.4075  0.067288208  0.067121737            5 
 3193000   0.73705934   -2.8173095    2577.8203  0.067277908  0.067109219            3 
 3194000   0.74391778   -2.8113517    2581.5744  0.067354789  0.067096896            4 
 3195000   0.74282795   -2.8229187    2579.5319  0.067280435  0.067084605            3 
 3196000   0.74119139   -2.8164438    2585.7596  0.067421767  0.067072151            4 
 3197000   0.74038333   -2.8256719     2578.358  0.067207747  0.067059686            4 
 3198000   0.74613089   -2.8003226     2576.657  0.067142406  0.067047237            4 
 3199000   0.72856962   -2.8075638    2586.7414  0.067384115  0.067034946           12 
 3200000   0.74325374   -2.8246252    2576.3925  0.067093554  0.067022265            4 
 3201000   0.73007116   -2.7996645    2588.3621  0.067384206  0.067009984            3 
 3202000   0.76465184    -2.810931    2576.8713  0.067064109   0.06699754            5 
 3203000   0.74424082    -2.803555    2577.8654  0.067069034  0.066985193            5 
 3204000   0.73422854   -2.8182779    2586.8906   0.06728284  0.066972902            6 
 3205000   0.74219101   -2.8113662    2593.6305  0.067437091  0.066960687            6 
 3206000     0.729818   -2.7916072    2578.6386  0.067026373  0.066948299            5 
 3207000   0.73194104   -2.7939776    2583.6991  0.067136969  0.066936018            3 
 3208000   0.72942171   -2.8134492    2593.0545  0.067359064  0.066923768            4 
 3209000      0.73368   -2.7882438    2580.8628   0.06702147  0.066911356            5 
 3210000   0.73590573   -2.8038645    2586.8838  0.067156901  0.066899033            3 
 3211000   0.74458951   -2.8116732    2578.2724    0.0669125  0.066886734            5 
 3212000   0.75531354    -2.814876     2585.425  0.067077236  0.066874347            3 
 3213000   0.74763505    -2.810465    2593.3428  0.067261717  0.066862026            8 
 3214000   0.75138007   -2.7942708    2586.5916  0.067065743  0.066849757            5 
 3215000    0.7332077   -2.8027901    2584.2598  0.066984442  0.066837447            2 
 3216000   0.73744923   -2.8058095    2584.4513  0.066968577  0.066825031            4 
 3217000   0.72901401   -2.8013891    2590.7092  0.067109865  0.066812667            4 
 3218000   0.74033169   -2.8074777    2586.5178   0.06698047  0.066800154            5 
 3219000   0.72417703   -2.8287107    2582.2253  0.066848538  0.066787767            7 
 3220000    0.7294156   -2.7976608    2587.5997  0.066966867  0.066775296            4 
 3221000    0.7300365   -2.8051468    2588.6753  0.066973902  0.066762908            6 
 3222000   0.72387522   -2.8107024    2582.2488  0.066786902  0.066750586            8 
 3223000   0.73267229   -2.8172021    2590.5519  0.066980864  0.066738315            5 
 3224000   0.74281271   -2.7996218    2585.9485  0.066841101  0.066725926            2 
 3225000   0.72520588   -2.8130219    2587.5756   0.06686242  0.066713635            4 
 3226000   0.72202476   -2.8073131    2590.1641  0.066908557  0.066701201            4 
 3227000   0.73167509   -2.8195058    2589.2245  0.066863561  0.066688817            4 
 3228000   0.73092958   -2.8270898    2591.5623  0.066903198  0.066676413            1 
 3229000   0.72356301   -2.8016755    2587.1418  0.066768397  0.066663858            3 
 3230000   0.73378036   -2.8178057    2595.5844  0.066965542  0.066651378            5 
 3231000   0.74168261   -2.8006738    2588.4244  0.066760147  0.066638895            5 
 3232000   0.72322446   -2.7777761    2588.4231  0.066739457  0.066626647            6 
 3233000   0.74603239    -2.815568     2587.403   0.06669252  0.066614346            4 
 3234000   0.73101838   -2.8330257    2593.4004  0.066826439  0.066601976            2 
 3235000   0.73910582   -2.7964047    2588.2574  0.066673298  0.066589518            3 
 3236000   0.72353939   -2.8092709    2584.4972  0.066555861   0.06657702            5 
 3237000    0.7413738   -2.8193164    2588.5573  0.066639822  0.066564527            6 
 3238000   0.75605447   -2.8181966    2598.8108  0.066883128  0.066552144            4 
 3239000   0.74082096   -2.8143631    2599.9089  0.066890731  0.066539651            5 
 3240000   0.71862023   -2.8026458    2594.6435  0.066734657  0.066527151            3 
 3241000   0.72842315   -2.8006458    2596.5112  0.066762089  0.066514651            3 
 3242000    0.7355976   -2.8161056      2599.69  0.066823206  0.066502171            4 
 3243000    0.7475224    -2.817591    2587.0261  0.066477184  0.066489789            5 
 3244000   0.72126175   -2.8320825    2590.8827  0.066555762   0.06647718            5 
 3245000    0.7318463    -2.804776    2594.3138  0.066623364  0.066464633            4 
 3246000    0.7322691   -2.8133976    2590.6822  0.066509607  0.066452152            4 
 3247000   0.74294984    -2.828294    2605.0486  0.066857834  0.066439693            6 
 3248000   0.74287373   -2.8368262    2591.3727  0.066486368  0.066427125            3 
 3249000   0.73468716   -2.8277036    2592.2308  0.066487915  0.066414483            4 
 3250000   0.73366886   -2.8009153     2593.134  0.066490616  0.066402023            3 
 3251000   0.71766268   -2.8316935    2602.2708  0.066704368  0.066389543            4 
 3252000   0.73471619   -2.8298543    2600.1547   0.06662963  0.066377101            4 
 3253000   0.73230232   -2.8340549    2595.2625  0.066483822  0.066364507            2 
 3254000   0.72959836   -2.8133901    2594.3471  0.066439948  0.066351956            6 
 3255000   0.71583133   -2.8185961    2609.8859  0.066817356   0.06633957            2 
 3256000    0.7460536   -2.8292586    2598.7846  0.066512709  0.066327037            4 
 3257000    0.7230356   -2.8081293    2603.4899  0.066612677  0.066314678            4 
 3258000   0.73218753   -2.8034927    2592.0802  0.066300394   0.06630216            4 
 3259000   0.73920921   -2.8327611    2597.0224  0.066406424   0.06628967            5 
 3260000   0.72759478   -2.8223061    2605.5688  0.066604519  0.066277181            4 
 3261000   0.73551605   -2.8184276    2596.9964  0.066365031  0.066264686            5 
 3262000   0.73122539   -2.8320057    2602.1106  0.066475338  0.066252234            9 
 3263000   0.71732507    -2.814386    2601.6889  0.066444195  0.066239911            3 
 3264000   0.72802101    -2.816216    2599.9985   0.06638068  0.066227501            7 
 3265000   0.73021547   -2.8327962    2611.0342  0.066642017  0.066215259            7 
 3266000   0.73380954   -2.8285016    2602.6215  0.066406958  0.066202924            6 
 3267000   0.72182712   -2.8137243    2608.4055  0.066534167  0.066190614            3 
 3268000   0.73680781    -2.824369    2607.9719  0.066502751   0.06617822            4 
 3269000   0.71685459    -2.814699    2601.3292  0.066313073  0.066165805           10 
 3270000   0.72637974   -2.8386552    2608.5117  0.066475834  0.066153416            8 
 3271000   0.71530432   -2.8177336    2605.6455  0.066382491   0.06614096            4 
 3272000   0.73511013    -2.813838     2597.687   0.06615951  0.066128517            4 
 3273000   0.72450995   -2.8133695    2607.5525   0.06639048  0.066116049            3 
 3274000   0.73711044   -2.8440308    2607.8063  0.066376662  0.066103564            6 
 3275000   0.74086037   -2.8018641    2612.9542  0.066487383  0.066091181            4 
 3276000    0.7552578   -2.8346196     2603.947  0.066237968  0.066078755            4 
 3277000   0.72386013   -2.8233417    2603.0081  0.066193879  0.066066252            4 
 3278000   0.72250443   -2.8247765    2594.0151  0.065945066  0.066053826            4 
 3279000   0.72766862   -2.8212909    2609.6336  0.066321886  0.066041251            4 
 3280000   0.74376929   -2.8434917     2595.937  0.065953685  0.066028714            7 
 3281000   0.71506285    -2.836533    2598.4803  0.065998178  0.066016192            5 
 3282000   0.70042436   -2.8468102    2601.2767  0.066049074  0.066003553            4 
 3283000   0.72600702   -2.8358574    2602.7884  0.066067326  0.065991017            3 
 3284000   0.73119949   -2.8342435    2596.7252  0.065893352  0.065978491            5 
 3285000   0.71623246   -2.8237198    2603.8867  0.066054965  0.065965865            6 
 3286000   0.71488691   -2.8093407    2611.1896  0.066220064  0.065953504            4 
 3287000   0.74522458    -2.823634    2611.4613  0.066206807  0.065941017            5 
 3288000   0.72413645   -2.8281334    2605.1482  0.066026669  0.065928582            9 
 3289000     0.725199   -2.8124607    2607.8434  0.066074881  0.065916015           11 
 3290000   0.72258277   -2.8421935    2601.3173  0.065889495  0.065903522            5 
 3291000   0.72837784   -2.8404657    2607.8834  0.066035739  0.065890925            6 
 3292000   0.70878255    -2.815694    2609.0494  0.066045195   0.06587857            8 
 3293000   0.73059037   -2.8213482    2618.9199  0.066274924  0.065866123            4 
 3294000    0.7298482   -2.8275493    2612.0759  0.066081661   0.06585354            4 
 3295000   0.71595423   -2.8349887    2602.3167  0.065814789  0.065841042            4 
 3296000   0.71331073    -2.826945     2613.517  0.066077998  0.065828517           11 
 3297000    0.7447114   -2.8480719    2604.9365  0.065841079  0.065816027            5 
 3298000   0.72023148   -2.8317763    2613.0903  0.066027146  0.065803488            3 
 3299000   0.72405155     -2.82125    2613.6866  0.066022195  0.065791074            4 
 3300000   0.72098476   -2.8297465    2615.8159  0.066055958  0.065778613            3 
 3301000   0.71401334   -2.8205573    2606.8895  0.065810601  0.065766137            4 
 3302000   0.73299976   -2.8254753    2602.6822   0.06568449  0.065753577            4 
 3303000   0.72625573   -2.8393481    2607.0357  0.065774439  0.065741131            3 
 3304000   0.71953758   -2.8226771    2620.4325  0.066092426  0.065728724            3 
 3305000   0.71631711    -2.837099    2619.0449   0.06603744  0.065716294            4 
 3306000   0.72806726   -2.8447944    2616.7614  0.065959907  0.065703863            4 
 3307000   0.71106477   -2.8268847    2616.2317  0.065926612   0.06569141            3 
 3308000   0.73108527   -2.8266132    2611.5756   0.06578939  0.065679025            6 
 3309000   0.70705661   -2.8230636     2613.903   0.06582812  0.065666554            4 
 3310000   0.73329808   -2.8390154    2617.8731  0.065908184  0.065654107            2 
 3311000   0.73433981   -2.8325266    2621.0737  0.065968833  0.065641676           12 
 3312000   0.70616439   -2.8341699     2618.481  0.065883681  0.065629245            5 
 3313000   0.73204541   -2.8278086    2620.6046  0.065917209  0.065616838            5 
 3314000   0.72095712    -2.825357    2617.8758  0.065828703  0.065604474            3 
 3315000   0.72198807   -2.8259202    2626.8804  0.066035205  0.065592048            3 
 3316000    0.7171404   -2.8030854    2613.5645  0.065680653  0.065579531            4 
 3317000   0.70072782   -2.8362557    2619.9582  0.065821481  0.065567209            5 
 3318000   0.73345026   -2.8520364    2620.9609  0.065826827  0.065554768            4 
 3319000   0.72628193   -2.8369548    2623.5942   0.06587311  0.065542413            3 
 3320000   0.72690657   -2.8324822    2616.4759  0.065674596  0.065530045            6 
 3321000   0.71602413    -2.826728    2622.3364  0.065801877  0.065517552            3 
 3322000   0.71600507   -2.8355392    2614.5329  0.065586315  0.065505032            5 
 3323000   0.71825738   -2.8464366    2614.1056  0.065555863  0.065492496            6 
 3324000   0.72382838   -2.8278157    2611.1822  0.065462851  0.065480025            6 
 3325000   0.72280265   -2.8679025    2613.3863  0.065498404  0.065467401            4 
 3326000   0.70854804   -2.8480898    2617.5602  0.065583289  0.065454814            4 
 3327000   0.71093397   -2.8461905    2621.1752  0.065654123  0.065442166            3 
 3328000   0.71735903   -2.8304152    2616.8344  0.065525702  0.065429815            8 
 3329000   0.71720157   -2.8307162    2615.1954   0.06546499  0.065417251            4 
 3330000   0.71523481   -2.8441764    2625.5064  0.065703364  0.065404672           10 
 3331000   0.72245701   -2.8415865    2616.6512  0.065462105  0.065392029            3 
 3332000   0.70857926    -2.845157    2619.9414  0.065524745   0.06537942            7 
 3333000   0.71574696   -2.8284524    2614.9904  0.065381298  0.065366824            6 
 3334000   0.70224482    -2.842542    2615.3341  0.065370278  0.065354079            4 
 3335000   0.71511268   -2.8289808    2617.5706  0.065406563  0.065341491            4 
 3336000   0.71611697   -2.8420282    2616.2011  0.065352746  0.065328921            5 
 3337000   0.72248862   -2.8591485     2615.711  0.065320922  0.065316395            4 
 3338000   0.72406526   -2.8342523    2618.9855  0.065383102  0.065303845            4 
 3339000   0.72053108   -2.8280335     2630.722  0.065656434  0.065291314            6 
 3340000    0.7130563   -2.8306381    2611.1055  0.065147342  0.065278662            3 
 3341000   0.72642358   -2.8095521     2616.364  0.065259003  0.065266006            5 
 3342000   0.72196753   -2.8587809    2614.0554  0.065181913  0.065253318            9 
 3343000   0.71524003   -2.8567216    2609.5208  0.065049377  0.065240528            6 
 3344000   0.69985589   -2.8322379    2618.9846  0.065265766  0.065227753           11 
 3345000   0.72697756   -2.8403749    2620.1991   0.06527651  0.065215118           10 
 3346000   0.71804379   -2.8501244     2623.949  0.065350394  0.065202461            8 
 3347000   0.70549875   -2.8449542    2614.8407  0.065104092  0.065189773            5 
 3348000   0.70888478   -2.8316571    2624.5866  0.065327224  0.065177112            3 
 3349000   0.70531038   -2.8332166    2616.5157  0.065106891  0.065164415            7 
 3350000   0.70785076   -2.8326745    2624.6587  0.065290018  0.065151773            3 
 3351000   0.71461418   -2.8512515    2610.0544  0.064907352  0.065139155            6 
 3352000   0.71457663   -2.8619573    2632.8586  0.065454917  0.065126478            9 
 3353000   0.71599824     -2.84563    2622.1702  0.065169753  0.065113824            9 
 3354000   0.71501883   -2.8605647    2625.4341  0.065231419  0.065101177            6 
 3355000   0.69540984    -2.828478     2629.845  0.065321536  0.065088645            6 
 3356000   0.71871263   -2.8447887    2622.4025  0.065117266  0.065076092            3 
 3357000   0.71949206   -2.8548887    2629.7983   0.06528146  0.065063551            7 
 3358000   0.70934321   -2.8487752    2633.6973  0.065358777  0.065050964            3 
 3359000   0.73783017     -2.84643    2618.8777  0.064971661    0.0650383           16 
 3360000   0.71343843   -2.8421327    2633.7808  0.065321945  0.065025813            5 
 3361000    0.7050615   -2.8579948    2619.8898  0.064958092   0.06501327            4 
 3362000   0.71745154   -2.8594108    2627.0105  0.065115271  0.065000526            8 
 3363000   0.69578813   -2.8524992    2621.3249  0.064955022  0.064987827            4 
 3364000   0.72169097   -2.8260644    2631.3124  0.065183126  0.064975215            3 
 3365000   0.71742193   -2.8486303    2624.1914  0.064987404  0.064962653            4 
 3366000    0.7248346   -2.8212893    2631.6012  0.065151544  0.064949988            4 
 3367000   0.73109731   -2.8575319    2628.4446  0.065054068  0.064937411            3 
 3368000   0.72375324   -2.8386693    2631.5216  0.065110886  0.064924731           12 
 3369000   0.71257367   -2.8477238    2622.7215  0.064873886  0.064912017            4 
 3370000   0.71793104   -2.8765573     2617.056  0.064714541  0.064899166            7 
 3371000   0.71529761   -2.8422691    2630.8091  0.065035328  0.064886528            5 
 3372000   0.72099745   -2.8472942    2622.7184  0.064816093  0.064873722            4 
 3373000   0.70730885   -2.8473008    2634.0271   0.06507627  0.064860967            3 
 3374000   0.70151498   -2.8356038    2624.1417  0.064812827   0.06484823            3 
 3375000   0.69496943   -2.8585849    2623.8142  0.064785536  0.064835614            3 
 3376000   0.71331827   -2.8610413    2619.1229  0.064650544  0.064822958            8 
 3377000    0.6988541    -2.869923     2626.201  0.064806067   0.06481014            5 
 3378000   0.71571976   -2.8435164    2620.3543  0.064642645  0.064797467            3 
 3379000   0.70931745   -2.8504389    2625.1571  0.064741963  0.064784644            5 
 3380000   0.71369794   -2.8495781    2634.5382  0.064954098  0.064771893            5 
 3381000   0.69818605   -2.8564719    2640.5876  0.065083989   0.06475923            4 
 3382000   0.71034597   -2.8546481    2627.2868  0.064737009  0.064746593            5 
 3383000   0.72015999   -2.8512658    2634.5214  0.064896084  0.064733901            6 
 3384000   0.71458039    -2.847332     2626.722   0.06468484  0.064721247            4 
 3385000   0.70568291   -2.8302602     2634.849  0.064865805  0.064708614            7 
 3386000   0.71930065   -2.8597156    2627.8369  0.064674073  0.064695948            4 
 3387000   0.70882946   -2.8470918    2630.1969  0.064713042  0.064683225            8 
 3388000   0.70354902   -2.8374894    2619.1732  0.064422797  0.064670531            4 
 3389000   0.71186686   -2.8464961    2630.5353  0.064683173  0.064657895           13 
 3390000   0.68793277   -2.8461353    2637.6159  0.064838149   0.06464522            3 
 3391000   0.71724304   -2.8715988    2633.3087  0.064713178   0.06463254            4 
 3392000   0.71099502   -2.8291868    2634.7224  0.064728832  0.064619854            6 
 3393000   0.71113727   -2.8354551     2629.826  0.064589499  0.064607091            5 
 3394000   0.71607809   -2.8446635     2638.025  0.064771779  0.064594517            4 
 3395000   0.70104384   -2.8586058    2624.8896   0.06443028  0.064581729            5 
 3396000   0.70002029   -2.8555526    2645.3265  0.064912802   0.06456904           11 
 3397000   0.69828646    -2.861136    2628.4479  0.064479637  0.064556362            3 
 3398000    0.6980998   -2.8621659    2638.0795  0.064696868  0.064543683            3 
 3399000   0.72287351   -2.8438744    2648.8693  0.064942368  0.064531003            3 
 3400000   0.69114505   -2.8579261    2636.3208  0.064615706  0.064518374            4 
 3401000   0.71774116   -2.8313508    2634.1548  0.064543635  0.064505798            5 
 3402000   0.71410352   -2.8409102    2642.7585  0.064735413  0.064493355            3 
 3403000   0.69710983    -2.868603    2642.2625  0.064704245  0.064480717            4 
 3404000   0.72008142   -2.8300125      2639.97  0.064629114  0.064468102            5 
 3405000    0.6862272   -2.8288953     2647.357  0.064790921  0.064455581            3 
 3406000   0.69801113    -2.842975    2630.4302  0.064357755  0.064442983            6 
 3407000   0.71443236   -2.8740305    2633.5937  0.064416243  0.064430396            3 
 3408000   0.70219524   -2.8563626    2635.3524  0.064440346  0.064417923            4 
 3409000   0.69473443   -2.8508166    2639.1459  0.064514176  0.064405401           11 
 3410000   0.71180371   -2.8448383    2651.2159  0.064790222  0.064392964            4 
 3411000   0.70191461   -2.8551894    2635.7394  0.064393125  0.064380371            6 
 3412000   0.71450043   -2.8616235    2637.3543  0.064413694  0.064367856            7 
 3413000   0.69916505   -2.8570437    2636.2666  0.064368263  0.064355367            4 
 3414000   0.72443813    -2.855742     2652.936  0.064756298  0.064342912            2 
 3415000   0.69203645   -2.8495059      2651.33  0.064698147  0.064330397            6 
 3416000    0.7106199   -2.8393632    2643.1397  0.064479402  0.064318009            6 
 3417000   0.70729618   -2.8349038    2646.1931  0.064534998  0.064305709            4 
 3418000   0.69152891   -2.8539593     2645.694   0.06450395  0.064293299            6 
 3419000   0.72012633   -2.8478868     2641.693  0.064387565  0.064280841            3 
 3420000   0.70950219   -2.8477107    2650.4371  0.064581802  0.064268485            5 
 3421000   0.71150537   -2.8538995    2646.1077   0.06445746  0.064256106           15 
 3422000    0.6969637   -2.8666284      2644.37  0.064396308  0.064243629           10 
 3423000   0.69492997   -2.8477073     2650.203  0.064519501  0.064231231            2 
 3424000   0.69904089   -2.8545604    2643.9936  0.064349532   0.06421881            6 
 3425000   0.71201143   -2.8782736    2639.9847  0.064233204  0.064206368            4 
 3426000   0.70737421    -2.866231    2653.0883  0.064533185   0.06419391            5 
 3427000   0.71692326   -2.8588927      2645.56  0.064331291  0.064181355            5 
 3428000   0.72065402   -2.8463142    2648.0504  0.064373064  0.064168981            3 
 3429000   0.68924087   -2.8672906    2648.8468  0.064373646  0.064156457            7 
 3430000   0.70915162   -2.8648506    2646.2758  0.064292415  0.064144073            2 
 3431000   0.69895716   -2.8540522    2643.6767  0.064210548  0.064131664            4 
 3432000   0.70492024   -2.8598614    2654.0885   0.06444465  0.064119229            4 
 3433000   0.70711909   -2.8538219    2650.8427  0.064347091  0.064106753            6 
 3434000   0.70625138   -2.9004555    2648.5015  0.064271538  0.064094354            8 
 3435000    0.6951049   -2.8807362    2645.8593  0.064188726  0.064081803            7 
 3436000   0.70598898   -2.8555961    2652.9625  0.064342318  0.064069329            5 
 3437000    0.6892814    -2.858114    2651.8728  0.064297177  0.064056891           10 
 3438000   0.70041772   -2.8708055    2643.0569  0.064064789  0.064044385            5 
 3439000    0.7148102   -2.8699797     2648.574  0.064179848  0.064031852            8 
 3440000   0.70098097   -2.8591452    2648.4402  0.064157951  0.064019398            3 
 3441000    0.7084711   -2.8654272    2647.4934  0.064116375  0.064007052           10 
 3442000    0.7134176   -2.8785182    2644.0964  0.064015504  0.063994585            2 
 3443000   0.69812168   -2.8640877    2652.7576  0.064206545   0.06398215           10 
 3444000    0.6994667   -2.8465964    2651.7285     0.064163  0.063969862            3 
 3445000    0.7036514   -2.8703986    2650.2977  0.064109765  0.063957525            8 
 3446000   0.69979739   -2.8561212    2651.8373  0.064128392  0.063945138            4 
 3447000    0.7092321   -2.8603142    2655.3153  0.064193872   0.06393279            4 
 3448000   0.69557279   -2.8563734    2649.2076  0.064027639  0.063920326            4 
 3449000   0.70404448   -2.8573105    2654.6176  0.064139789  0.063907959            3 
 3450000   0.70943028     -2.86952    2655.1732  0.064134618  0.063895582            4 
 3451000    0.6809693   -2.8589476    2650.6001  0.064005606   0.06388323            3 
 3452000   0.71604846   -2.8754499    2649.8255  0.063968363  0.063870872            8 
 3453000   0.68961361   -2.8667711    2657.4635  0.064134172  0.063858547            8 
 3454000   0.69184888   -2.8752034    2661.1462  0.064204455  0.063846251            4 
 3455000   0.69475658    -2.864586    2647.6027  0.063859206  0.063833945            4 
 3456000   0.68797447   -2.8550508    2651.6989  0.063939499  0.063821705           10 
 3457000   0.69308694   -2.8596767    2655.8694  0.064021535   0.06380933            5 
 3458000   0.69837691   -2.8728537    2655.8991  0.064003737  0.063796994           12 
 3459000   0.69640414   -2.8779376    2657.6215  0.064026729   0.06378461            4 
 3460000   0.69483964   -2.8499271    2665.8813  0.064207161  0.063772306            4 
 3461000   0.70325072   -2.8967312    2658.6989  0.064015671   0.06375982            6 
 3462000   0.70069871   -2.8447357    2660.9455  0.064051259  0.063747387            6 
 3463000   0.69918284   -2.8871963    2662.1874  0.064062649  0.063735102            3 
 3464000   0.70393222   -2.8667038    2667.1535  0.064163622  0.063722707            4 
 3465000   0.69744902   -2.8634303    2664.7716   0.06408782  0.063710286            3 
 3466000    0.7000817    -2.880442    2659.1775  0.063934832  0.063697804            4 
 3467000   0.70408778   -2.8705417    2657.2493  0.063870043  0.063685524            4 
 3468000   0.71190062   -2.8672362     2650.185  0.063681876  0.063673214            5 
 3469000   0.70746276   -2.8902974    2659.4203  0.063885373  0.063660902            6 
 3470000   0.68091453   -2.8611768    2653.5024  0.063724842  0.063648565            3 
 3471000   0.69769123   -2.8654793     2654.076  0.063720253  0.063636246           11 
 3472000   0.68957104    -2.854224    2664.5565  0.063953449   0.06362389            5 
 3473000   0.69329403   -2.8721221    2663.6193  0.063912548  0.063611604            9 
 3474000   0.69046621   -2.8737729    2657.6141  0.063750099  0.063599124            4 
 3475000   0.69930614   -2.8731386     2664.897  0.063906404  0.063586704            9 
 3476000   0.69196445   -2.8770777    2652.9309  0.063601144  0.063574403            8 
 3477000   0.69756113   -2.8695718    2662.1754  0.063804414   0.06356205            6 
 3478000   0.68540969   -2.8644041    2671.5902  0.064011649  0.063549672            5 
 3479000   0.70125952   -2.8621174    2653.3327  0.063555923  0.063537302            4 
 3480000   0.68317855    -2.872272    2660.7869  0.063716161  0.063524874            5 
 3481000   0.71589661    -2.872741    2660.2795  0.063685712  0.063512381            6 
 3482000    0.6986554   -2.8735241     2666.177  0.063808564  0.063500026            3 
 3483000   0.69168342   -2.8660486    2658.0005  0.063594615  0.063487588            5 
 3484000   0.67981078   -2.8730219    2664.3573  0.063728409  0.063475183            5 
 3485000   0.68288311   -2.8766152    2662.8099   0.06367312  0.063462848            8 
 3486000   0.70331201   -2.8772131     2656.852   0.06351243  0.063450373            6 
 3487000   0.70085367   -2.8778948    2668.7286  0.063778048  0.063438026            3 
 3488000   0.70475898   -2.8708447    2660.6983  0.063567908  0.063425564           10 
 3489000   0.68385311   -2.8824687    2661.7789  0.063575497  0.063413137            2 
 3490000   0.69447445   -2.8817862    2658.7756  0.063485567  0.063400789            5 
 3491000   0.68536311   -2.8672145    2672.6896  0.063799523  0.063388315            4 
 3492000   0.69270059   -2.8751608    2658.6317  0.063445774  0.063375873            5 
 3493000   0.69322782   -2.8760582    2665.6664  0.063595438  0.063363429           11 
 3494000   0.69981222   -2.8752225    2672.6514  0.063743833  0.063350889            5 
 3495000   0.69909759   -2.8848184     2661.237  0.063453433  0.063338382            3 
 3496000   0.70206109    -2.881614    2666.7307  0.063566234  0.063326074            4 
 3497000   0.68460737   -2.8529103    2668.0985  0.063580652   0.06331359            4 
 3498000   0.69841994   -2.8607081    2671.9207  0.063653533  0.063301322           14 
 3499000   0.68242982   -2.8703257    2659.9243  0.063349631  0.063288996           17 
 3500000   0.69279501   -2.8670794    2666.8202  0.063495719  0.063276635            5 
 3501000   0.66625625   -2.8822487    2676.3911  0.063705396  0.063264234            6 
 3502000   0.68160658   -2.8799089    2666.8999  0.063461352  0.063251952            6 
 3503000   0.69737628   -2.9090704    2663.8353  0.063370332  0.063239609            7 
 3504000   0.67822079    -2.870387    2662.4975   0.06332043  0.063227293            5 
 3505000   0.68092667    -2.856415    2676.9588   0.06364619  0.063214929            4 
 3506000   0.68849812   -2.8929742    2667.8214  0.063410854  0.063202666            7 
 3507000   0.69758238   -2.8590592    2660.0902  0.063209062   0.06319035            4 
 3508000   0.68229415   -2.8618384    2673.4963   0.06350951  0.063178064            8 
 3509000   0.69623222   -2.8853756    2671.3537  0.063440526  0.063165674            4 
 3510000   0.70988859   -2.8760678    2670.0952  0.063392573  0.063153293            4 
 3511000   0.68772955   -2.8763247    2674.7181  0.063484243  0.063140882            5 
 3512000   0.68609712   -2.8952037    2675.6255  0.063487697  0.063128517            3 
 3513000   0.68431031    -2.879386    2669.0929  0.063314661  0.063116202           10 
 3514000   0.69239882   -2.8655562    2670.3688  0.063326902  0.063103909            6 
 3515000   0.68434964   -2.8656799    2678.1223  0.063492704  0.063091587            5 
 3516000   0.69683279   -2.8787561    2669.6355    0.0632735    0.0630793            6 
 3517000   0.68725292    -2.887005    2671.3497  0.063296125  0.063066919            3 
 3518000    0.6974824   -2.8859702    2678.3896  0.063444892  0.063054646           10 
 3519000   0.70216307   -2.8672127    2677.7116  0.063410808   0.06304245            7 
 3520000   0.68818424   -2.8629791    2675.0946  0.063330838  0.063030132            4 
 3521000   0.68903629   -2.8616949     2676.074  0.063336032  0.063017728            5 
 3522000   0.68424766   -2.8488845    2669.3026  0.063157832   0.06300534            6 
 3523000   0.68575771   -2.8788507    2678.9119  0.063367204  0.062993017            5 
 3524000   0.69089819   -2.8892841    2685.1056  0.063495687  0.062980729           10 
 3525000   0.68112887   -2.8753918    2677.6397  0.063301176  0.062968405            3 
 3526000     0.703614   -2.8993831    2676.6042  0.063258749  0.062956132            4 
 3527000   0.67959331   -2.8788203     2672.814  0.063151262  0.062943803            5 
 3528000   0.67784013   -2.8704017    2673.2835  0.063144452  0.062931467            5 
 3529000   0.68494565   -2.8582949    2682.8999   0.06335364  0.062919162            4 
 3530000   0.68767583   -2.8810721    2674.5451  0.063138459  0.062906775            4 
 3531000   0.68899995   -2.8821934    2670.8994  0.063034536  0.062894414            4 
 3532000   0.68114956   -2.8670669    2678.6009  0.063198397  0.062882083            7 
 3533000    0.7098607   -2.8613077    2680.2486  0.063219375  0.062869724            7 
 3534000   0.67460018   -2.8870135    2672.0959  0.063009241  0.062857348            9 
 3535000   0.69282729   -2.8854112    2671.0977  0.062967885  0.062844946           13 
 3536000   0.67957878   -2.8992575    2673.0539  0.062996179  0.062832625            6 
 3537000   0.68914901   -2.8616354    2679.4962  0.063130153  0.062820217            4 
 3538000   0.68064827   -2.9081721    2676.1916  0.063034473  0.062807915            4 
 3539000   0.69140455   -2.8728314    2681.0731  0.063131607  0.062795604            8 
 3540000   0.69111738   -2.8700791    2672.2004  0.062904906  0.062783121            4 
 3541000   0.67968704   -2.8758382    2672.9086  0.062903807   0.06277067           11 
 3542000   0.67654663   -2.8913478    2669.9197  0.062815729  0.062758392            8 
 3543000   0.68410431   -2.8608981    2677.6921  0.062980809  0.062745973            7 
 3544000   0.66263505   -2.8731256    2676.9996  0.062946756  0.062733568           11 
 3545000   0.68356764   -2.8703047    2678.2168  0.062957612  0.062721104            8 
 3546000   0.68175118   -2.8748284    2677.6942  0.062927577  0.062708691            7 
 3547000   0.68856011   -2.8933739    2680.3824  0.062972991  0.062696405            8 
 3548000   0.68071163   -2.8895547    2673.8518  0.062801855  0.062684073            3 
 3549000   0.69710192   -2.9008807    2672.5283  0.062753084  0.062671662            8 
 3550000   0.69052614   -2.8968734    2669.9142  0.062674041  0.062659231            3 
 3551000   0.68450535   -2.9001674    2678.9317  0.062868012  0.062646879            7 
 3552000   0.68531362   -2.8848728    2677.8584  0.062825131  0.062634483            5 
 3553000   0.67901039   -2.8835632    2680.4421  0.062868049  0.062622204            4 
 3554000   0.68169541   -2.8869544    2679.2515  0.062822443  0.062609892            4 
 3555000   0.69020761   -2.8792791    2689.0285  0.063033955  0.062597613            6 
 3556000   0.67630925   -2.8971134     2683.191  0.062879429  0.062585239            5 
 3557000   0.67920869     -2.85808    2675.5932  0.062683751  0.062572928            6 
 3558000   0.68742333   -2.8987557    2684.4675  0.062873981  0.062560583            6 
 3559000    0.6848522   -2.8812417    2686.2585  0.062898251  0.062548202            3 
 3560000    0.6842946   -2.9039978    2676.9437  0.062662539  0.062535849            4 
 3561000   0.66035247   -2.8989587    2687.7356  0.062897492  0.062523393            5 
 3562000   0.67824672   -2.8761812    2681.6001  0.062736293  0.062511168            4 
 3563000    0.6837465   -2.8869026    2677.9782  0.062633974  0.062498925            5 
 3564000   0.68326012   -2.8878329    2683.3559  0.062742141  0.062486516            3 
 3565000   0.67067287   -2.8862013    2686.0482  0.062787475  0.062474151            5 
 3566000    0.6985999   -2.8938238    2680.1092   0.06263108  0.062461803            5 
 3567000   0.67042809    -2.870934     2685.736  0.062744977  0.062449517            4 
 3568000   0.68507601   -2.9051413    2684.9364  0.062708717  0.062437344            8 
 3569000   0.67610382   -2.8911663    2691.1126  0.062835356  0.062424867            6 
 3570000    0.6838326    -2.869394    2687.7782  0.062739922  0.062412532            8 
 3571000   0.68900795   -2.8736484    2680.0912  0.062542967  0.062400236            5 
 3572000    0.6738954   -2.9003088    2685.5957  0.062653876  0.062387962            4 
 3573000    0.6955176   -2.8783376    2685.3415  0.062630412  0.062375552            6 
 3574000    0.6808094   -2.8633112    2688.7612  0.062692623  0.062363231            5 
 3575000   0.67430654   -2.9074248    2682.8174  0.062536537  0.062350803            4 
 3576000   0.67401027   -2.8878884    2690.4428  0.062696747  0.062338517            4 
 3577000   0.69787339   -2.9083086    2683.4145   0.06251548  0.062326242            7 
 3578000   0.68843358   -2.8802184    2691.5896  0.062688411  0.062314007            6 
 3579000   0.68430294   -2.8848554    2686.2762  0.062547177  0.062301707            9 
 3580000   0.67603825   -2.8909616    2684.3069  0.062483867  0.062289385            6 
 3581000   0.67117649   -2.8877943    2686.4045  0.062515232  0.062276971           12 
 3582000   0.66620018   -2.8875029    2684.1546  0.062445436  0.062264646            4 
 3583000   0.67890767   -2.8909753    2685.6277  0.062462268  0.062252306            4 
 3584000   0.67286999    -2.930227     2686.162  0.062457264  0.062240023            7 
 3585000   0.68914736   -2.9033815    2683.9111   0.06238752  0.062227714            2 
 3586000    0.6735611   -2.9008095    2685.1896  0.062399834  0.062215347            5 
 3587000   0.67388067   -2.8817211    2690.1344  0.062497315  0.062203027            7 
 3588000    0.6759324   -2.8808255    2685.4076  0.062370114  0.062190735            5 
 3589000   0.68296164   -2.8862081    2690.2534   0.06246525   0.06217838            4 
 3590000   0.67175608   -2.9106163    2690.0805  0.062443836  0.062166088            7 
 3591000   0.69085613   -2.8989905      2682.18  0.062243107  0.062153897           11 
 3592000   0.66998535   -2.8961509    2690.8953  0.062427971  0.062141565            7 
 3593000   0.67380246   -2.8857454    2689.6056  0.062380685  0.062129318            4 
 3594000   0.67728012   -2.9003775    2696.9705  0.062534095  0.062116981            3 
 3595000   0.68599051   -2.8716612    2689.7605  0.062349572  0.062104651            5 
 3596000   0.67490346   -2.9052152    2685.4967  0.062233424  0.062092299            7 
 3597000   0.66980314    -2.918628    2684.7235   0.06219821  0.062079899            4 
 3598000   0.66950128   -2.9011535    2694.4834  0.062406971  0.062067538            6 
 3599000   0.67858845   -2.8996962    2682.2361   0.06210605   0.06205519            4 
 3600000   0.67866752   -2.8959104    2689.6969  0.062261502  0.062042832            4 
 3601000   0.66309397   -2.8979168    2691.1103  0.062276921  0.062030372            6 
 3602000   0.66399023   -2.8989164    2692.8131  0.062299026  0.062018048            4 
 3603000   0.69225287   -2.8983216    2686.3339  0.062131878   0.06200568            4 
 3604000   0.66870246   -2.9092871     2690.319  0.062206784  0.061993306           11 
 3605000    0.6784397   -2.8954916    2694.9064   0.06229557  0.061980977            4 
 3606000   0.66964773   -2.9293428    2681.8725  0.061977087   0.06196866            7 
 3607000    0.6830992   -2.9114025    2694.8655  0.062260085  0.061956306            3 
 3608000   0.67317022   -2.9128367    2691.3885  0.062162521   0.06194397            3 
 3609000   0.67226177   -2.8937835    2699.5278  0.062333237  0.061931717            4 
 3610000   0.67404153   -2.9041749    2697.5989  0.062271442  0.061919477            2 
 3611000   0.67291877   -2.8877746    2696.0155  0.062217656  0.061907308            9 
 3612000   0.67619864   -2.9096661    2695.1441  0.062180327  0.061895073            7 
 3613000   0.67117266   -2.9070931    2693.6888  0.062129551  0.061882839            3 
 3614000   0.64991474   -2.9080396    2705.9928  0.062396071  0.061870642            5 
 3615000   0.66541499   -2.8965622    2693.8269   0.06209836  0.061858443            4 
 3616000   0.67257958    -2.897915    2698.3324  0.062185021  0.061846313            3 
 3617000   0.68567728   -2.8752122    2702.5119  0.062264121   0.06183412            6 
 3618000   0.66541377   -2.9038947    2694.0628  0.062052303  0.061821985            4 
 3619000   0.65645345   -2.8990671    2711.2159  0.062430134  0.061809797            3 
 3620000    0.6803009   -2.9078123    2704.6279  0.062261231  0.061797712            5 
 3621000   0.65617681   -2.8903936    2697.1525     0.062072  0.061785555            6 
 3622000   0.67426116   -2.8851249    2701.6844  0.062159129  0.061773369            6 
 3623000   0.66820249   -2.9250313    2712.4126  0.062388733  0.061761292            3 
 3624000   0.67619705   -2.9100767    2693.6548  0.061940186  0.061749091            6 
 3625000    0.6786189   -2.8776652    2706.1348  0.062209995  0.061737016            5 
 3626000   0.67387971   -2.8998772    2706.4258  0.062199527  0.061725029            3 
 3627000   0.68506819   -2.9214678    2701.5112  0.062069461  0.061712967            3 
 3628000   0.66178104   -2.9405756    2704.3751  0.062118135   0.06170081            7 
 3629000    0.6596933   -2.9077187    2700.4032  0.062009811  0.061688575            7 
 3630000   0.67270672   -2.9062311     2711.646  0.062250827  0.061676428            4 
 3631000   0.67398157   -2.9130761    2692.6435  0.061797564  0.061664228           10 
 3632000   0.66078014   -2.8795692    2704.1714  0.062045049  0.061652093            4 
 3633000   0.67122716   -2.8976739    2705.0446     0.062048  0.061639848            3 
 3634000   0.67115122    -2.914535    2692.9646  0.061753913  0.061627672            5 
 3635000   0.67624437   -2.9036241    2711.6816  0.062166015   0.06161549            4 
 3636000   0.66780755   -2.9142287    2690.7552  0.061669307  0.061603339            7 
 3637000   0.66985048   -2.9045755    2697.6189  0.061809616  0.061591019            7 
 3638000   0.68230752   -2.8983407    2703.7656  0.061933425   0.06157886            4 
 3639000   0.66433837    -2.906914    2708.0519  0.062014563  0.061566621            7 
 3640000   0.68408706   -2.8929289    2705.8723  0.061947626  0.061554464            5 
 3641000   0.66528515   -2.9050649    2711.3354  0.062055649  0.061542366            4 
 3642000   0.67232677   -2.9085436    2695.7313   0.06168157  0.061530196            3 
 3643000   0.68535215   -2.9157045    2703.6288  0.061845292  0.061517925            6 
 3644000   0.66573388   -2.9196451    2704.9933  0.061859525  0.061505666            8 
 3645000   0.65690729   -2.8925733     2694.965  0.061613284  0.061493421            9 
 3646000   0.65993573   -2.9080227    2701.4232  0.061743993   0.06148121            8 
 3647000   0.66588844   -2.9081713    2697.5779    0.0616392  0.061468984            3 
 3648000   0.65388453   -2.8957503    2703.9239  0.061767267  0.061456669            6 
 3649000   0.66186364   -2.8926119    2700.8762   0.06168074  0.061444526            6 
 3650000   0.65961692   -2.8987393    2703.6864     0.061728  0.061432308           11 
 3651000   0.65778855   -2.9242349    2692.9086  0.061465092  0.061419925            7 
 3652000   0.66501685   -2.9034839    2708.1472  0.061795985  0.061407617            3 
 3653000   0.68227725   -2.9014552    2700.1604  0.061596871  0.061395394            3 
 3654000   0.68655353   -2.9218242    2708.1835  0.061762988  0.061383146            7 
 3655000   0.65924913   -2.9125795    2703.7384  0.061644741  0.061370773            5 
 3656000   0.68121921   -2.9201136     2698.409  0.061506406  0.061358434            7 
 3657000   0.65795595   -2.9141262    2697.1428  0.061460733   0.06134603            5 
 3658000   0.65228263   -2.9035287    2701.1495  0.061535209  0.061333684           11 
 3659000   0.65808446   -2.9140218    2707.6315  0.061666017  0.061321332            5 
 3660000    0.6576142   -2.9171089    2707.4477  0.061644984   0.06130898            5 
 3661000   0.66816338   -2.9061346    2712.6352  0.061746227  0.061296666            6 
 3662000   0.66119247    -2.915431    2705.1624  0.061559311  0.061284432            5 
 3663000   0.67382675    -2.892772    2703.9378  0.061514645   0.06127232            9 
 3664000   0.66347428   -2.8872838    2702.0232  0.061454312  0.061260023            3 
 3665000   0.66942109   -2.9232135    2707.8257  0.061569479  0.061247715            5 
 3666000   0.67306987   -2.9213519     2707.484  0.061544917  0.061235344            3 
 3667000    0.6725029   -2.9095804     2701.668  0.061395964   0.06122301            4 
 3668000   0.66127124   -2.9224867    2695.3315  0.061235266  0.061210731            4 
 3669000   0.66030832   -2.8989145    2708.9224  0.061527266  0.061198456            4 
 3670000   0.66819681   -2.9047294    2712.3787  0.061588979   0.06118626            7 
 3671000   0.66303926   -2.9239942    2708.1308  0.061475773  0.061174136            7 
 3672000    0.6695551   -2.8989772    2710.6528  0.061516266  0.061161982            7 
 3673000   0.67020466   -2.9122866    2711.1681   0.06151121  0.061149851            5 
 3674000   0.66364482    -2.891651    2709.3775  0.061453853  0.061137774            5 
 3675000   0.66852617   -2.9088508    2720.5631  0.061690774  0.061125668            2 
 3676000   0.66081806   -2.9304824    2711.3021  0.061464049  0.061113479            4 
 3677000   0.65304102   -2.9203678    2715.8593  0.061550615  0.061101412           12 
 3678000   0.66895283   -2.9157334    2719.3233  0.061612364  0.061089303            7 
 3679000   0.65418547   -2.9262929    2719.2679  0.061594363  0.061077171            3 
 3680000   0.65797086   -2.9167226    2712.3878  0.061421824  0.061065123            7 
 3681000   0.65632425   -2.8919454    2711.0636   0.06137516  0.061053049            6 
 3682000   0.66603443   -2.9051324    2720.0891  0.061562763  0.061040957            6 
 3683000   0.66837374   -2.9114919    2712.1013  0.061365311  0.061028873            7 
 3684000   0.64365603   -2.9427095    2713.2532  0.061374711  0.061016788            9 
 3685000   0.66335903   -2.8957948    2709.1033  0.061264207   0.06100467            6 
 3686000   0.66382824   -2.9238037    2711.5351  0.061302565  0.060992579            5 
 3687000   0.64339417   -2.9324421    2709.1925  0.061232993  0.060980436            3 
 3688000   0.65899973   -2.9157282    2710.6299  0.061248868  0.060968291            8 
 3689000   0.66156795   -2.9183213    2713.5194  0.061297538  0.060956132            8 
 3690000   0.67387922   -2.9166161    2706.8991  0.061131415  0.060944036            6 
 3691000   0.66251108   -2.9240907    2715.1931   0.06130211  0.060932038            4 
 3692000   0.65372864   -2.9080655    2718.9316  0.061369891  0.060919942            9 
 3693000   0.65816782   -2.8993404    2722.5287  0.061434442  0.060907964            5 
 3694000   0.66117119   -2.9091753    2715.1683  0.061251766  0.060895959            3 
 3695000   0.66031041   -2.9122952    2729.2595  0.061552987  0.060883919            4 
 3696000   0.66254481   -2.9184724    2718.9249   0.06130332  0.060871876            3 
 3697000   0.68231445   -2.9330798    2716.4297  0.061230496  0.060859855            6 
 3698000   0.66140222   -2.9300065    2718.2996  0.061256076  0.060847835            6 
 3699000   0.66429989   -2.9201652    2718.0745  0.061234445  0.060835774            3 
 3700000   0.65660304    -2.914623    2712.2013  0.061085614  0.060823684            4 
 3701000   0.65650245   -2.9075325    2722.1798  0.061293789  0.060811626            5 
 3702000   0.66026392   -2.9006369    2724.9105  0.061338703  0.060799541            9 
 3703000   0.65565481    -2.930473    2727.3594  0.061377249  0.060787554            9 
 3704000   0.67535696   -2.9235449    2722.5966  0.061253524   0.06077551            5 
 3705000   0.65814991   -2.9125809    2725.3848  0.061299703  0.060763518            4 
 3706000   0.66404066   -2.9064006    2717.8969  0.061114788  0.060751565            3 
 3707000   0.66604013    -2.943162    2721.1074  0.061170474  0.060739473            6 
 3708000   0.66130701   -2.9221812    2721.8461  0.061170579  0.060727407            5 
 3709000   0.66194839   -2.9119696    2726.2525  0.061253089  0.060715501            8 
 3710000   0.65767488    -2.915014    2721.1855  0.061122765  0.060703577            4 
 3711000   0.67119947     -2.90727    2723.7297  0.061163427  0.060691599            6 
 3712000   0.66140891   -2.9176114       2722.1  0.061110362  0.060679625            8 
 3713000   0.64881889    -2.932991    2718.1516  0.061005288  0.060667554            7 
 3714000    0.6520574   -2.9245656    2721.0157  0.061053126  0.060655541            8 
 3715000   0.66846216   -2.9175225    2720.9808  0.061035908   0.06064342            6 
 3716000   0.65085581   -2.9217053    2726.0813  0.061133864  0.060631343            3 
 3717000   0.65067384   -2.9215031    2721.6559  0.061018202  0.060619378           12 
 3718000   0.65604022   -2.9242504    2723.4262  0.061041469  0.060607311            8 
 3719000   0.65242145    -2.934026    2720.0954  0.060950421  0.060595407           14 
 3720000   0.65835379    -2.929442     2732.493   0.06121176  0.060583412            5 
 3721000    0.6629918   -2.9417167     2720.943  0.060936644  0.060571402            6 
 3722000   0.66214898   -2.9247065    2728.8885  0.061098166  0.060559437            5 
 3723000   0.65458732   -2.9205067    2726.2099  0.061021799  0.060547384            8 
 3724000   0.66079899   -2.9270273    2722.6754   0.06092632  0.060535335            3 
 3725000    0.6475178   -2.9194415    2734.0577  0.061164603  0.060523339            4 
 3726000   0.64933009   -2.9325145     2724.732  0.060939613  0.060511338            5 
 3727000   0.65228425   -2.9196124    2728.4475   0.06100634   0.06049938            4 
 3728000   0.65815299   -2.9328126    2729.2086  0.061006987  0.060487336            5 
 3729000   0.65838526   -2.9280857    2724.4973  0.060885342  0.060475223            8 
 3730000   0.65427486   -2.9367572    2732.4008  0.061045595  0.060463188            6 
 3731000    0.6519954   -2.9168682    2722.8574  0.060816076  0.060451165            5 
 3732000   0.66682055   -2.9341518    2719.2903  0.060720129  0.060439079            3 
 3733000    0.6632376    -2.918211    2725.1382  0.060834409  0.060426912            4 
 3734000    0.6507724   -2.9460208    2720.1781  0.060707421  0.060414755           12 
 3735000   0.66313874    -2.916681    2725.6771  0.060813857  0.060402706            6 
 3736000   0.65921814    -2.942798    2722.3991  0.060724462   0.06039066            6 
 3737000   0.64972921   -2.9092449    2728.0324  0.060833833  0.060378643            6 
 3738000   0.64445359   -2.9381277     2727.007  0.060794698  0.060366643            7 
 3739000   0.65644793   -2.9294356    2723.5147  0.060700603  0.060354557            8 
 3740000   0.64333034   -2.9142079    2724.0743  0.060696842  0.060342447            7 
 3741000   0.65979143   -2.9469826    2726.0653  0.060724968  0.060330382           10 
 3742000   0.63953615    -2.916653    2732.3662   0.06084906  0.060318354           11 
 3743000   0.65055348   -2.9200953    2730.7704  0.060797275   0.06030644            7 
 3744000   0.66456552   -2.9228912    2733.1957  0.060835017  0.060294461            4 
 3745000   0.64830051     -2.92277    2725.1642  0.060640057  0.060282457           18 
 3746000   0.64887836   -2.9242213    2724.2055  0.060602544  0.060270344            3 
 3747000   0.65987641   -2.9394587    2729.9046  0.060713117  0.060258333            8 
 3748000   0.64702059   -2.9242524    2730.4383  0.060708785  0.060246328            4 
 3749000   0.65211316   -2.9492438    2730.9226  0.060703356   0.06023432            4 
 3750000   0.65904725   -2.9089082    2730.2628  0.060672506  0.060222338            6 
 3751000   0.64400824   -2.9495101    2725.5571  0.060551788   0.06021026            5 
 3752000   0.63908476   -2.9328122    2733.4823  0.060711672  0.060198262            9 
 3753000    0.6462466   -2.9400975    2732.3343  0.060670005  0.060186186            7 
 3754000   0.65942412   -2.9447247    2725.5217  0.060502614  0.060174072            6 
 3755000   0.63904717   -2.9366513    2727.4723  0.060529789   0.06016196            5 
 3756000   0.64840934   -2.9320832    2721.3391  0.060377598  0.060149786            8 
 3757000   0.66547518   -2.9441504    2725.4686  0.060453124  0.060137663            6 
 3758000   0.65121208   -2.9273875    2725.2117   0.06043134  0.060125545            5 
 3759000   0.64406814   -2.9508507    2727.3232  0.060462073  0.060113415            4 
 3760000   0.65840723   -2.9158368    2725.3325  0.060401872  0.060101251            5 
 3761000    0.6497251   -2.9433602    2728.5276  0.060456608   0.06008914            5 
 3762000    0.6560754   -2.9283165    2724.2907  0.060346683  0.060077063            5 
 3763000   0.64181293   -2.9468994    2723.6371  0.060316173  0.060064895            5 
 3764000   0.64423861     -2.92658    2735.4265  0.060561161  0.060052732            5 
 3765000   0.65362128   -2.9305907    2732.1146  0.060471772  0.060040591            5 
 3766000   0.64638867   -2.9293127    2726.4575  0.060330535   0.06002846            4 
 3767000   0.64924326   -2.9026682    2738.4984  0.060580887  0.060016477            5 
 3768000    0.6594919   -2.9415867    2732.5482  0.060433215  0.060004486            7 
 3769000   0.66576084   -2.9271408    2737.6658   0.06053033  0.059992435            5 
 3770000   0.64630025   -2.9064397     2722.391  0.060176637   0.05998034           11 
 3771000   0.64922788   -2.9319641    2729.2172  0.060311527  0.059968307           10 
 3772000   0.64525377   -2.9193071    2738.9586  0.060510751  0.059956217            8 
 3773000   0.65240044   -2.9129626    2729.6509  0.060289136  0.059944127            9 
 3774000   0.63215865   -2.9336598    2739.3251  0.060486777  0.059932037            5 
 3775000   0.65556761   -2.9304777    2733.1986   0.06033551  0.059919883            4 
 3776000   0.65867826   -2.9199465    2730.6598  0.060263501  0.059907811            9 
 3777000    0.6489767   -2.9371214    2740.1975  0.060457981  0.059895743            4 
 3778000   0.64712107   -2.9391772    2730.7785  0.060234217   0.05988365            9 
 3779000   0.64757466   -2.9606755    2733.2012  0.060271703  0.059871513            3 
 3780000   0.64429938    -2.923723    2734.4113  0.060282435  0.059859429            5 
 3781000   0.64945275   -2.9541488    2738.4146  0.060354725  0.059847323            6 
 3782000   0.65362751   -2.9375958    2733.6907  0.060234679  0.059835265           16 
 3783000   0.64811776   -2.9525789    2726.8784  0.060068693  0.059823128            6 
 3784000   0.63908433   -2.9207854    2730.7343  0.060137736  0.059810943            7 
 3785000   0.66470619   -2.9395015    2722.9245    0.0599499  0.059798808            6 
 3786000   0.64321625   -2.9395218    2730.2621  0.060095573  0.059786705            8 
 3787000   0.64003889   -2.9480113    2732.8172  0.060135931  0.059774473           10 
 3788000   0.65487311   -2.9680586      2729.27  0.060042018  0.059762247           12 
 3789000   0.64985396   -2.9495046    2732.4793  0.060096755  0.059749965            4 
 3790000   0.64988532   -2.9344565    2731.6701  0.060063106   0.05973772            5 
 3791000   0.64391284   -2.9343667    2731.7646  0.060049341  0.059725526            6 
 3792000   0.63311562   -2.9381542    2732.4378  0.060048298  0.059713292            7 
 3793000    0.6307807   -2.9522839    2726.5289  0.059902648  0.059701063           11 
 3794000   0.65675937   -2.9446843     2730.474   0.05997351  0.059688746            5 
 3795000   0.63848241   -2.9402906    2739.1409  0.060148022  0.059676479            6 
 3796000   0.65884014    -2.935908    2722.7579  0.059772522  0.059664212            7 
 3797000   0.64863893   -2.9453465    2734.8538   0.06002225  0.059651961            5 
 3798000   0.64786691   -2.9598466    2727.7191    0.0598499  0.059639691            4 
 3799000   0.64459109   -2.9499439    2732.5644  0.059940432   0.05962742            8 
 3800000    0.6488635   -2.9541916    2734.0016  0.059956176   0.05961513            5 
 3801000   0.63949731    -2.937123    2732.1097  0.059898923  0.059602816           12 
 3802000   0.65070062   -2.9304923     2727.151  0.059774483  0.059590648            4 
 3803000    0.6253982   -2.9371964    2734.2118  0.059913484  0.059578371           10 
 3804000   0.64826565   -2.9521511     2723.952  0.059672976  0.059566056           10 
 3805000   0.65018093   -2.9503208    2730.0298  0.059790402  0.059553727           11 
 3806000   0.65119991   -2.9378977    2726.3727  0.059694621   0.05954131            8 
 3807000   0.64092699   -2.9674195    2721.4511  0.059571208  0.059528919           13 
 3808000   0.64337258   -2.9398676    2735.8468  0.059870597  0.059516535            4 
 3809000   0.63550633    -2.935947    2723.9916  0.059595511  0.059504216            7 
 3810000   0.64683958   -2.9369902    2732.3737  0.059763205  0.059491945            2 
 3811000   0.63247951   -2.9471606    2731.7849  0.059734647  0.059479676            8 
 3812000   0.64500893   -2.9577657    2732.8643  0.059742574  0.059467295            5 
 3813000   0.64708346   -2.9526815    2732.3193  0.059714996  0.059455083            6 
 3814000   0.65476829   -2.9251443    2734.9308  0.059756396  0.059442856            9 
 3815000   0.64346956   -2.9597223    2730.0151  0.059633358  0.059430604            5 
 3816000   0.65889705   -2.9610859    2731.5217   0.05965063  0.059418285            7 
 3817000   0.65737401   -2.9565312    2736.7156  0.059748398   0.05940601            9 
 3818000   0.65068538    -2.935538    2728.5963  0.059555532  0.059393781            8 
 3819000   0.62992462   -2.9364489    2728.2715  0.059532851  0.059381586            6 
 3820000   0.62672707   -2.9484207     2728.169  0.059515031  0.059369278            7 
 3821000   0.63929192   -2.9407597     2729.578  0.059530184  0.059356987            5 
 3822000   0.62883762   -2.9500579    2723.6517  0.059385393  0.059344627            8 
 3823000   0.65082609   -2.9486385    2743.4418  0.059801242   0.05933226            8 
 3824000   0.63702353   -2.9665514    2729.2534  0.059476407  0.059319888            4 
 3825000   0.63938159   -2.9617462    2736.1568   0.05961126  0.059307657            5 
 3826000   0.65653765   -2.9346726    2734.1899  0.059552839  0.059295376            6 
 3827000   0.63452551   -2.9500583    2741.4901  0.059696239   0.05928309            5 
 3828000   0.64508634   -2.9576274    2729.6533  0.059422965  0.059270807            7 
 3829000   0.64929365   -2.9472351    2739.5513  0.059622863  0.059258418           12 
 3830000   0.63576313   -2.9373599    2730.2919   0.05940583  0.059246086           10 
 3831000   0.62384008   -2.9321764    2726.0476  0.059297999  0.059233785            6 
 3832000   0.65772712   -2.9574922    2731.2705  0.059396105  0.059221338            6 
 3833000   0.65004802   -2.9456965    2741.0106  0.059592368  0.059209026            4 
 3834000   0.63351584   -2.9529441    2730.2002  0.059341857  0.059196668            4 
 3835000   0.64567004   -2.9528772    2736.6845  0.059467286  0.059184243            5 
 3836000   0.64993193   -2.9642689     2740.721  0.059539472  0.059171935            9 
 3837000   0.64259824   -2.9516604    2732.1673  0.059338183  0.059159624            7 
 3838000   0.63703401   -2.9491352    2741.1498  0.059517756  0.059147295            6 
 3839000   0.64459274   -2.9442823    2745.2272  0.059590762   0.05913503            5 
 3840000   0.65019372   -2.9739413     2731.539   0.05927819  0.059122625            5 
 3841000   0.64752393   -2.9533505    2732.5722  0.059285173  0.059110181            7 
 3842000   0.63594099   -2.9648908    2734.8822  0.059319846  0.059097857            8 
 3843000   0.63859971   -2.9544445    2733.3754  0.059271738  0.059085334            3 
 3844000   0.63695628   -2.9583309     2734.351  0.059277467  0.059072971            9 
 3845000   0.60441685   -2.9601241    2728.8344  0.059142487  0.059060582            6 
 3846000   0.63577327   -2.9467178    2736.0497  0.059283449  0.059048058            4 
 3847000   0.63556604   -2.9583562    2739.5366  0.059343571  0.059035692            6 
 3848000    0.6409778   -2.9551735     2735.663   0.05924426   0.05902332            5 
 3849000   0.64899674   -2.9462946     2733.761  0.059187689  0.059010968            4 
 3850000   0.62659048   -2.9585143    2732.4328  0.059143566  0.058998632           14 
 3851000   0.63703509    -2.961042    2735.3407  0.059191135   0.05898625            6 
 3852000   0.64002524   -2.9812046    2730.0536  0.059061388  0.058973873            8 
 3853000   0.63108485   -2.9687636     2736.219  0.059179405  0.058961399            5 
 3854000   0.63919028   -2.9559381    2735.7951  0.059154884  0.058949014            4 
 3855000   0.64310058   -2.9707353    2736.4953  0.059154676  0.058936746            5 
 3856000   0.63718843   -2.9603294    2730.1453  0.059002103  0.058924441            8 
 3857000   0.64477143   -2.9434005    2735.8188  0.059109385  0.058912106            6 
 3858000   0.62915133   -2.9608074    2733.7211  0.059048754  0.058899793           13 
 3859000   0.62422219   -2.9545402    2734.8178  0.059057135  0.058887482            7 
 3860000   0.61503759   -2.9772205     2728.188  0.058898704  0.058875131            6 
 3861000   0.65106533   -2.9661382    2740.0686  0.059139874  0.058862766            6 
 3862000   0.64793638   -2.9636317    2742.3882  0.059174611  0.058850467            4 
 3863000   0.63875288   -2.9682362    2745.3593  0.059223387  0.058838117            9 
 3864000   0.62824634   -2.9568628    2736.3988  0.059014813  0.058825751            4 
 3865000   0.62838212   -2.9522372    2749.7007  0.059286344  0.058813402            6 
 3866000   0.63037633   -2.9772618    2738.5664  0.059031006  0.058801093            8 
 3867000   0.64769953   -2.9610135    2739.0396  0.059025938    0.0587887            5 
 3868000   0.63233663   -2.9585664    2736.4148  0.058954127  0.058776304            7 
 3869000   0.62447558   -2.9575573     2745.886  0.059142888  0.058763931            4 
 3870000    0.6362244   -2.9396627    2747.0841  0.059153404  0.058751571           25 
 3871000   0.63377072   -2.9677002    2737.9161  0.058940757  0.058739205            5 
 3872000   0.60978082   -2.9554045    2737.4341  0.058915162  0.058726871            7 
 3873000   0.63427207   -2.9663609    2741.4734  0.058986863  0.058714652            5 
 3874000   0.61709148   -2.9581565    2741.3341  0.058968638   0.05870234            9 
 3875000   0.63349426   -2.9515066    2739.2708   0.05890905  0.058689969            5 
 3876000   0.63510544    -2.968434     2739.583  0.058900562  0.058677661            2 
 3877000   0.64348827   -2.9705305    2743.7482    0.0589749  0.058665335            7 
 3878000   0.63676586   -2.9449737    2744.3053  0.058971663  0.058653065            4 
 3879000    0.6027816   -2.9624783    2738.0754  0.058822622  0.058640713            5 
 3880000   0.63694792   -2.9793605     2746.013  0.058977943  0.058628443            5 
 3881000   0.63540018   -2.9798683    2739.0532  0.058813304  0.058616169            5 
 3882000   0.63678657   -2.9739914    2735.8097  0.058728526  0.058603868            8 
 3883000   0.63521214   -2.9805083    2737.2048  0.058743344  0.058591545            7 
 3884000   0.62849879   -2.9660342    2748.5585  0.058971819  0.058579263            9 
 3885000   0.63384649   -2.9657405    2748.6042  0.058957618  0.058567071            9 
 3886000   0.61704396   -2.9730053    2750.0049  0.058972484  0.058554895            7 
 3887000   0.62789428   -2.9493071    2741.7864  0.058781117   0.05854267            6 
 3888000   0.62972297   -2.9450315    2750.6321  0.058955592  0.058530556            4 
 3889000   0.61424981    -2.952345    2738.3327  0.058676881  0.058518233            6 
 3890000   0.63545251   -2.9729493    2743.8792  0.058780617  0.058505927            5 
 3891000   0.61438835   -2.9531922    2748.3646  0.058861575   0.05849362            8 
 3892000   0.62695902   -2.9734082    2745.4363   0.05878375  0.058481276           17 
 3893000   0.62992042   -2.9746683    2746.4126   0.05878955  0.058469023            9 
 3894000   0.62601694   -2.9668961    2731.7473  0.058460609  0.058456792           17 
 3895000   0.63864042    -2.976745    2747.1805  0.058775791  0.058444545            5 
 3896000   0.63779517   -2.9609617     2739.005  0.058585836  0.058432311            3 
 3897000   0.62097164   -2.9679251    2735.8702  0.058503767   0.05841995            4 
 3898000   0.63465617   -2.9318571    2742.3907  0.058628158  0.058407696            5 
 3899000   0.63565861   -2.9832726     2739.529  0.058551957  0.058395441            6 
 3900000   0.62007229   -2.9647459    2746.9697  0.058695933  0.058383213            7 
 3901000   0.63571277     -2.99071     2750.092  0.058747586  0.058370932            5 
 3902000   0.62354519   -2.9640785    2752.6564  0.058787298  0.058358684            6 
 3903000    0.6366554   -2.9815753    2745.6344  0.058622308  0.058346408           17 
 3904000   0.64121049   -2.9860364    2743.0626  0.058552395  0.058334113            7 
 3905000   0.61474503   -2.9736145    2750.5089  0.058696307  0.058321812           11 
 3906000   0.62102231   -2.9876884    2746.5755  0.058597361  0.058309555            3 
 3907000   0.63279373   -2.9560802    2739.9446  0.058440931  0.058297272           10 
 3908000   0.61616594   -2.9719333    2744.0431  0.058513372  0.058284954            7 
 3909000   0.63842267   -2.9693772    2742.9617  0.058475349  0.058272719            3 
 3910000   0.62825493   -2.9730851    2745.7674  0.058520191  0.058260508            8 
 3911000   0.63044509   -2.9589543    2743.0677  0.058447705  0.058248253            4 
 3912000   0.62119771   -2.9725643    2751.0762  0.058603362    0.0582359           12 
 3913000   0.61908515   -2.9785179     2739.174   0.05833491  0.058223565            8 
 3914000   0.62531673   -2.9781402    2750.0588  0.058551755   0.05821133            4 
 3915000   0.62478266   -2.9741625    2751.4753   0.05856695  0.058199084            7 
 3916000   0.62820776   -2.9773074    2752.0925  0.058565127  0.058186897            5 
 3917000    0.6303668   -2.9814109    2757.9544  0.058674888  0.058174618           10 
 3918000   0.61836202   -2.9932384    2741.4165   0.05830816  0.058162343           11 
 3919000   0.61234694   -2.9651067    2747.0036  0.058412087  0.058150049            4 
 3920000   0.62974929   -2.9853671     2731.234  0.058061947  0.058137763           20 
 3921000   0.62286286   -2.9709765    2752.8483  0.058506509  0.058125394            8 
 3922000   0.63562278    -2.973888    2741.0349  0.058240585  0.058113191            5 
 3923000   0.61724976    -2.969777    2743.1871  0.058271457    0.0581009            6 
 3924000   0.61338543   -2.9655907    2745.0744  0.058296687  0.058088631            5 
 3925000   0.62698992   -2.9603972    2746.2867  0.058307573  0.058076287            3 
 3926000   0.62467841   -2.9593236    2755.4828  0.058487919  0.058063985            9 
 3927000   0.60923975   -2.9808605    2736.4036  0.058068151  0.058051654            6 
 3928000   0.63556318   -2.9884465    2749.5751  0.058332804  0.058039215            4 
 3929000   0.60148119   -2.9817483    2748.7906  0.058301318  0.058026881            4 
 3930000   0.63410163   -2.9811855    2749.4267  0.058299973  0.058014507            6 
 3931000   0.63532612   -2.9748959    2737.1691  0.058025292  0.058002111            3 
 3932000    0.6116354   -2.9708398     2747.514  0.058229781    0.0579897            4 
 3933000   0.62990047   -2.9794719    2743.5351  0.058130669  0.057977406            8 
 3934000     0.617691   -2.9710205    2746.1374  0.058171018  0.057965169            9 
 3935000   0.61503343   -2.9763602    2752.6468  0.058294088  0.057952926            9 
 3936000   0.62339295   -2.9479745    2753.0919  0.058288701   0.05794064            7 
 3937000   0.62821062   -2.9919973    2751.6191   0.05824272  0.057928321            6 
 3938000    0.6136373   -2.9839386    2755.3387  0.058306643  0.057916013            8 
 3939000   0.63371232   -2.9678013    2746.3359  0.058101378  0.057903709            5 
 3940000   0.60575286   -2.9738062    2745.3993  0.058066821  0.057891365            9 
 3941000     0.632697   -2.9807304    2741.7099  0.057974073  0.057879054            6 
 3942000   0.63031569   -2.9653369    2739.8201  0.057919417  0.057866631            7 
 3943000   0.61676117   -2.9702264    2756.0035  0.058246756  0.057854341            4 
 3944000   0.63051225    -2.993031    2749.9512  0.058104107  0.057841993            5 
 3945000   0.62312815    -2.974516    2747.0186  0.058027431  0.057829689            5 
 3946000   0.61769368   -2.9770075    2746.7127  0.058006267  0.057817295            8 
 3947000   0.62313498   -2.9742873    2760.3399  0.058279282  0.057805003            7 
 3948000   0.62057699   -2.9646812    2747.4971  0.057993439  0.057792672            5 
 3949000   0.63182826   -2.9903936    2750.4522  0.058041112  0.057780331            5 
 3950000   0.62503205   -2.9849653    2746.1422   0.05793549  0.057767984            5 
 3951000   0.62304441   -2.9781769    2760.6689  0.058227218  0.057755708            6 
 3952000   0.61720062   -2.9788147    2744.8753  0.057879455  0.057743435            9 
 3953000   0.61913767   -2.9922528    2757.1835  0.058124283  0.057731161           17 
 3954000   0.62463066    -2.972176    2751.0068  0.057979405  0.057718928            4 
 3955000   0.61245511   -2.9751435    2747.1944  0.057884416  0.057706663            5 
 3956000   0.61914882   -2.9815827    2755.0442  0.058035141  0.057694474            6 
 3957000   0.62069577   -2.9901647    2757.2274  0.058066453  0.057682192            6 
 3958000   0.61598611   -2.9740585    2755.5507  0.058016478  0.057669969            6 
 3959000   0.62487787   -2.9725783     2749.738  0.057879473  0.057657728            7 
 3960000   0.60322908   -2.9694987    2749.6908  0.057863863  0.057645445            5 
 3961000   0.61742501   -2.9848564    2756.0776  0.057983624   0.05763326            7 
 3962000   0.61420377   -2.9892546    2754.6628  0.057939231  0.057621012            6 
 3963000   0.61655969   -2.9776846    2752.1589  0.057871958  0.057608791            7 
 3964000   0.61836042   -2.9880294    2754.9448  0.057915926  0.057596536           11 
 3965000    0.6223181   -2.9864063    2757.0241   0.05794502  0.057584329            5 
 3966000   0.62128607    -2.988062    2756.0832   0.05791064  0.057572162            5 
 3967000   0.60777985   -2.9792606    2753.4491  0.057840709  0.057559902            8 
 3968000   0.61887299   -2.9883658    2751.6725  0.057788821  0.057547782            6 
 3969000   0.61470419   -2.9824059    2765.9387  0.058073795  0.057535694            6 
 3970000   0.60210505   -2.9769162    2757.3994  0.057879919  0.057523519            9 
 3971000   0.62555416   -2.9943333      2747.87  0.057665365  0.057511372            6 
 3972000   0.62063201   -2.9987553    2759.4617  0.057894043  0.057499141            8 
 3973000   0.60652248   -2.9928773    2758.4776  0.057858831  0.057486915            6 
 3974000   0.64530258   -2.9874144    2755.6401  0.057784771  0.057474659            5 
 3975000   0.61450438   -2.9859046    2748.4397  0.057619281  0.057462404            8 
 3976000   0.61910924   -3.0000011    2752.3683   0.05768713  0.057450158            5 
 3977000   0.62374524   -2.9908106    2750.5137  0.057633764  0.057437869            8 
 3978000   0.60673179   -2.9541437     2756.531  0.057745328  0.057425704           21 
 3979000   0.59161619   -2.9856947    2753.5342  0.057668054  0.057413497            5 
 3980000   0.61626167   -2.9954767    2756.1661   0.05770867  0.057401263           13 
 3981000   0.62113607   -2.9946521    2752.8123   0.05762397  0.057389065            6 
 3982000    0.6065106   -3.0131867    2757.0805  0.057698823  0.057376833            5 
 3983000   0.61164416   -2.9844794    2757.2874  0.057688663  0.057364646            7 
 3984000   0.62214999   -2.9714614    2756.2836  0.057653188  0.057352474           10 
 3985000   0.61966068   -3.0060542    2753.9929  0.057590818  0.057340327            8 
 3986000   0.61806961   -3.0019903    2753.3213  0.057562329  0.057328105            3 
 3987000   0.62802629   -2.9964201    2756.2066  0.057608198  0.057316013            6 
 3988000    0.6211029   -2.9808439    2756.7621   0.05760536  0.057303797            9 
 3989000   0.61901961   -2.9876253    2760.4023  0.057666966  0.057291652            5 
 3990000   0.60687484   -2.9836401    2763.3897  0.057714905  0.057279545            6 
 3991000   0.61367793   -3.0093291    2757.4114  0.057575615  0.057267315            4 
 3992000   0.60129597    -3.006347     2753.862  0.057487099  0.057255108            6 
 3993000   0.61340267   -2.9712629    2762.8954  0.057661228  0.057242915            4 
 3994000   0.61156881   -2.9883691    2753.4371  0.057449446  0.057230755            8 
 3995000   0.61166078   -3.0012252    2756.7371  0.057503903  0.057218516            6 
 3996000   0.61081897   -3.0022824    2755.9226  0.057472527   0.05720626            4 
 3997000   0.61203276   -2.9936878    2758.6741  0.057515514  0.057193972            2 
 3998000   0.60874805   -3.0060748    2750.7534   0.05733603  0.057181754           11 
 3999000   0.63235388   -2.9775473    2758.9075  0.057491612  0.057169539            6 
 4000000   0.60911568   -3.0014907    2759.6322  0.057492338  0.057157427            4 
 4001000   0.60266993   -3.0038183    2763.9653  0.057568219  0.057145245            5 
 4002000   0.60703514   -2.9854914    2757.1173  0.057411238  0.057133099            5 
 4003000   0.61785515   -2.9707415    2766.4896  0.057592005  0.057121037            7 
 4004000   0.61363868   -2.9974618    2755.0989  0.057340553  0.057108921           13 
 4005000   0.61221617   -2.9818351    2761.0661  0.057450398  0.057096815            4 
 4006000   0.60187836   -3.0017572    2749.8132  0.057201972  0.057084584            7 
 4007000   0.61130757   -2.9859737    2759.1615  0.057382113   0.05707243            4 
 4008000   0.61092893    -2.991266    2753.7523   0.05725533  0.057060247            5 
 4009000   0.60175837   -2.9940068    2762.2803  0.057418314  0.057048118            9 
 4010000    0.6049133   -3.0129711    2759.8117  0.057352695  0.057035946           18 
 4011000    0.6221924   -2.9994829     2759.348  0.057328762  0.057023795            8 
 4012000   0.61966657   -2.9853398    2762.4218  0.057378318  0.057011615           12 
 4013000    0.6095063   -3.0244249    2756.1574  0.057233935  0.056999364            4 
 4014000   0.60560576   -2.9958151    2751.0733  0.057114129  0.056987166            9 
 4015000   0.61511975   -2.9962834    2754.8753  0.057178815  0.056974885            7 
 4016000    0.6016015   -3.0059351     2761.463  0.057301274  0.056962588            7 
 4017000   0.61088814   -3.0102248    2765.5264  0.057371305   0.05695037            6 
 4018000    0.6229856    -3.003652    2752.0934  0.057078426   0.05693811            5 
 4019000   0.61608904   -2.9982232      2758.47  0.057196441  0.056925932           10 
 4020000   0.60907409    -2.996822    2767.9311   0.05737834  0.056913674            6 
 4021000    0.6098672   -2.9792158     2762.853  0.057258829  0.056901585           12 
 4022000   0.60928829   -3.0000821    2764.0048  0.057268457  0.056889395           10 
 4023000   0.61170957   -2.9897431    2757.2589  0.057114485  0.056877241            8 
 4024000   0.60403479   -2.9978078    2758.4963  0.057125917  0.056865106           11 
 4025000   0.60393938   -3.0051473    2765.1765   0.05725003  0.056852869            9 
 4026000   0.61233743    -2.998317    2761.0785  0.057150987  0.056840753            9 
 4027000    0.6107337   -2.9998506    2762.8628   0.05717372  0.056828597           11 
 4028000   0.59529468   -3.0012428     2757.581  0.057050252  0.056816341            6 
 4029000   0.60440055   -3.0045569     2763.279  0.057153947  0.056804159            7 
 4030000   0.61945565   -3.0061567    2761.7256  0.057107642  0.056792011            9 
 4031000   0.61327864   -2.9845963    2759.2696  0.057042703  0.056779903            3 
 4032000   0.61205363   -3.0040303    2766.2387  0.057172593  0.056767879            6 
 4033000    0.6100866   -3.0082009    2772.4684  0.057287139  0.056755902            9 
 4034000   0.60981321   -2.9884831    2767.8937  0.057178435  0.056743835           17 
 4035000   0.60379398    -3.015222    2763.1085  0.057065437  0.056731806            5 
 4036000    0.5931742   -3.0042223    2770.7078  0.057208206  0.056719732            7 
 4037000   0.61484859   -2.9767646    2764.8611  0.057073345   0.05670765           12 
 4038000   0.60159609   -2.9824882    2770.3356  0.057172189  0.056695608            7 
 4039000   0.60966768    -3.003192    2762.2618  0.056991454  0.056683532            3 
 4040000   0.59609392   -3.0048848     2760.124  0.056933252   0.05667138           18 
 4041000   0.60702031   -3.0048728    2768.4909  0.057091704  0.056659225            6 
 4042000   0.60656364   -3.0033541    2760.7306  0.056917587   0.05664708           11 
 4043000   0.60290606   -3.0120481     2770.718  0.057109366  0.056635011           14 
 4044000   0.59715827    -3.004799    2763.4603  0.056945687  0.056622955            9 
 4045000   0.59579835   -3.0154054    2769.0771  0.057047323  0.056610827            8 
 4046000   0.60236718    -3.017336    2763.0171   0.05690841  0.056598765            8 
 4047000   0.61146905   -3.0109207    2764.0214  0.056915027  0.056586661            5 
 4048000   0.59967049   -2.9985346    2765.2182  0.056925606  0.056574636           11 
 4049000    0.6099591   -3.0144837    2768.9921  0.056989218  0.056562615            5 
 4050000   0.61560223   -3.0175998    2772.2321  0.057041813  0.056550652           12 
 4051000    0.6023273   -3.0125249    2764.6047  0.056870829  0.056538652            8 
 4052000    0.5996785     -3.00959    2768.8553  0.056944211  0.056526637            7 
 4053000   0.59442914   -3.0065595    2777.3427   0.05710467  0.056514668            7 
 4054000   0.59676621   -2.9973157    2769.4249  0.056927827   0.05650271            5 
 4055000   0.61800483   -3.0062447    2772.0695  0.056968136  0.056490745            4 
 4056000   0.60733221   -2.9956662    2772.8739  0.056970618  0.056478752           11 
 4057000    0.6043923   -2.9910333    2777.3105  0.057047705   0.05646685            9 
 4058000   0.60520526   -2.9904393    2770.0027  0.056883577  0.056454904            5 
 4059000   0.59799719   -3.0071586     2772.393  0.056918638     0.056443           12 
 4060000   0.61198522    -3.004022    2777.0371  0.056999941  0.056431056            9 
 4061000   0.59438961   -3.0181241    2769.2891  0.056826913  0.056419116            7 
 4062000   0.60578458   -3.0005891    2772.6871  0.056882633  0.056407202            5 
 4063000   0.60320453   -2.9957125    2773.8777  0.056893053  0.056395307           16 
 4064000   0.59811832   -3.0023728    2775.9235  0.056921004  0.056383376            3 
 4065000   0.59842329   -3.0143079    2769.2947   0.05677111  0.056371428            5 
 4066000   0.59835621   -2.9914373    2777.8513  0.056932515  0.056359559           17 
 4067000   0.59277156   -3.0307369     2778.113  0.056923878  0.056347689           14 
 4068000   0.58899392   -3.0044649    2772.7823  0.056800685  0.056335841           10 
 4069000   0.59609883   -3.0005253    2785.5977  0.057049187  0.056324001           11 
 4070000   0.60610576   -3.0128563    2766.6729  0.056647684  0.056312124           14 
 4071000   0.60452968   -3.0058618    2778.4028   0.05687388  0.056300242            4 
 4072000   0.59724382   -3.0121382    2779.4818  0.056881994  0.056288452           25 
 4073000   0.60479353   -3.0064082    2776.8615  0.056814418   0.05627655           12 
 4074000   0.59225058   -3.0168708    2767.1499  0.056601822  0.056264596           12 
 4075000   0.59269626   -3.0308074    2773.1433  0.056710497  0.056252634            9 
 4076000   0.59428845   -3.0060631    2778.6722  0.056809621  0.056240748            8 
 4077000   0.59753383   -3.0125344    2774.9047  0.056718681  0.056228924            6 
 4078000   0.59866053   -3.0215324    2785.4077    0.0569194   0.05621702            7 
 4079000   0.59433348   -3.0008971    2772.7403  0.056646651  0.056205172            9 
 4080000   0.59047032   -3.0068402    2780.3721  0.056788647   0.05619331            8 
 4081000   0.59297991   -3.0223169    2776.5194  0.056696059  0.056181424            8 
 4082000    0.6015498    -3.004003    2775.1936  0.056655104  0.056169647            4 
 4083000   0.59921092   -3.0047531    2786.6712  0.056875484  0.056157747           12 
 4084000   0.58852046   -2.9922423    2781.3455  0.056752888  0.056145957            5 
 4085000   0.60987547   -3.0117546    2778.8811  0.056688722  0.056134193           10 
 4086000   0.59036634   -3.0156175    2774.0515  0.056576349  0.056122365           13 
 4087000   0.59622361   -3.0004517    2776.4304   0.05661101  0.056110539           10 
 4088000   0.60012723   -3.0068543    2785.2327  0.056776595  0.056098735            5 
 4089000   0.59371589   -3.0040858    2779.3035  0.056641874  0.056086847            7 
 4090000   0.60327763   -3.0171895    2777.2515  0.056586216  0.056074926            5 
 4091000   0.59708864   -3.0249893    2774.0585  0.056507343  0.056063028            4 
 4092000   0.60836793   -3.0295553    2774.8582  0.056509821  0.056051096            6 
 4093000   0.59707278   -3.0163675    2778.9335  0.056578987   0.05603922            9 
 4094000   0.59355026   -3.0349741    2774.0774   0.05646632  0.056027321            6 
 4095000   0.59028922   -3.0151524     2776.701  0.056505921  0.056015452           13 
 4096000   0.60368963   -3.0267957    2772.6909  0.056410541  0.056003551            5 
 4097000   0.58725982   -3.0252962    2784.0222  0.056627251  0.055991627           10 
 4098000   0.60529408   -3.0143224    2775.7868  0.056445966  0.055979736           16 
 4099000    0.5852274   -3.0289339    2787.1871  0.056663965  0.055967845            4 
 4100000   0.59701362   -3.0113761    2786.3889  0.056633922  0.055955968            7 
 4101000   0.58568191   -3.0356101    2776.3377  0.056415868  0.055944145           10 
 4102000    0.5950728   -3.0138542    2782.0406  0.056517971  0.055932245            5 
 4103000   0.58802261   -3.0240078    2782.8869  0.056521385   0.05592037           10 
 4104000   0.60355638   -3.0124483    2780.6851  0.056462905  0.055908563            8 
 4105000   0.58960966    -3.000479     2778.925  0.056413419   0.05589676            8 
 4106000   0.60424029    -3.034762    2778.2186  0.056385342   0.05588486           16 
 4107000   0.59789547   -3.0240485    2778.8245  0.056383908  0.055872864           12 
 4108000   0.60289414   -3.0326247    2782.4458  0.056443642  0.055861092            9 
 4109000   0.60621987   -3.0341279    2778.4932  0.056349745  0.055849221            7 
 4110000   0.58485306   -3.0055177    2782.3483  0.056414199  0.055837375            8 
 4111000   0.59177221   -3.0150712    2781.5258  0.056383804  0.055825525           16 
 4112000   0.59052685   -3.0272505    2788.2703  0.056506775  0.055813681            6 
 4113000   0.58680768    -3.023479    2781.0614  0.056346977  0.055801848            6 
 4114000   0.60380304   -3.0008635    2789.0056  0.056494198   0.05579006            4 
 4115000   0.58740908   -3.0296997    2783.3633  0.056366208   0.05577821           11 
 4116000   0.58412775   -3.0178574     2770.791  0.056097972  0.055766367           10 
 4117000   0.59401412   -3.0239278    2776.0361  0.056190513   0.05575451           16 
 4118000   0.60773998   -3.0207504    2774.5657  0.056147113   0.05574263           11 
 4119000   0.59843067   -3.0260439    2783.1262  0.056306673  0.055730772            9 
 4120000   0.60121038    -3.039267    2775.8872  0.056146586  0.055718922            3 
 4121000   0.59372673   -3.0210072    2778.1456  0.056178631  0.055707042            6 
 4122000   0.57901506   -3.0355874    2782.5052  0.056253138  0.055695121            9 
 4123000   0.59363971   -3.0227803    2781.2208  0.056213534  0.055683175           17 
 4124000   0.58607093   -3.0217384    2770.4894  0.055983055  0.055671196           10 
 4125000   0.58932302   -3.0187579    2770.6229   0.05597218  0.055659163            7 
 4126000   0.59122337   -3.0211622    2775.1564  0.056050178  0.055647126            8 
 4127000   0.59587057   -3.0243475    2773.7076  0.056007342  0.055635131            4 
 4128000   0.60526389   -3.0361384    2778.9186  0.056098971  0.055623181            6 
 4129000    0.5817353   -3.0367836    2779.1875   0.05609081  0.055611155            4 
 4130000   0.59276806   -3.0250854    2783.3483  0.056161185  0.055599231            5 
 4131000   0.59464996   -3.0390012    2777.7832  0.056035326   0.05558729            4 
 4132000   0.59649865   -3.0205184    2785.1602  0.056170544  0.055575357           12 
 4133000   0.59075466    -3.016539    2777.8183  0.056008918  0.055563482            3 
 4134000   0.58255539   -3.0283385    2775.1551  0.055941686  0.055551492            9 
 4135000   0.58814001   -3.0406982    2783.9642  0.056105687  0.055539575            9 
 4136000    0.5955686   -3.0219814    2785.2554  0.056118138  0.055527648            8 
 4137000   0.59358352   -3.0302934    2778.8175  0.055974892  0.055515784            7 
 4138000   0.59955546   -3.0357218    2778.4043  0.055953042   0.05550395           12 
 4139000   0.58776471   -3.0310245    2782.0742  0.056013413  0.055491992            8 
 4140000   0.60336979   -3.0242743    2779.5073  0.055948214  0.055480073            8 
 4141000   0.57733076     -3.04499    2782.1687  0.055988262  0.055468243            3 
 4142000   0.58543599   -3.0295643    2783.6528  0.056004603  0.055456296            8 
 4143000   0.59967879   -3.0348793    2783.8128  0.055994303  0.055444381           10 
 4144000   0.58231427   -3.0457113    2773.8194  0.055779829  0.055432437            7 
 4145000   0.58488281   -3.0374469    2781.0244  0.055911227  0.055420497           18 
 4146000   0.60321104   -3.0639931    2775.3406  0.055783499  0.055408568            8 
 4147000   0.59521755   -3.0293806    2780.0396  0.055864472  0.055396585            5 
 4148000   0.58314167   -3.0373665    2779.0999  0.055832127   0.05538466            5 
 4149000   0.58627386    -3.032302     2787.784  0.055993091    0.0553728            6 
 4150000   0.58358285   -3.0202175    2767.2199  0.055566665  0.055360898           15 
 4151000   0.58884459   -3.0378981    2785.7616  0.055925513  0.055349005            5 
 4152000   0.59557539   -3.0445899    2769.8181  0.055592045  0.055336984           12 
 4153000   0.59607869   -3.0242357     2780.727  0.055797556  0.055324967            6 
 4154000   0.57172236   -3.0443074    2776.6266  0.055701866  0.055312952            5 
 4155000   0.59163194   -3.0359949    2774.2842   0.05564148  0.055300982           10 
 4156000   0.58612625   -3.0146196    2779.7826  0.055738343  0.055289123            7 
 4157000    0.5802495   -3.0313792    2786.7757  0.055865121  0.055277253           13 
 4158000   0.59296586   -3.0353127    2776.8571  0.055652901  0.055265313            5 
 4159000   0.59125813   -3.0531601    2779.5476  0.055693428  0.055253356           16 
 4160000   0.58546085   -3.0340684    2778.6383  0.055661824  0.055241405            9 
 4161000   0.58964417   -3.0210679    2774.9175   0.05557393  0.055229438            8 
 4162000   0.58727951   -3.0452011    2774.4006  0.055550227  0.055217482            2 
 4163000   0.58773082   -3.0492267    2787.8393  0.055805896  0.055205574            4 
 4164000   0.58928282   -3.0374003    2783.9269  0.055714195  0.055193589            6 
 4165000   0.59143607   -3.0338011    2783.5578  0.055693434  0.055181679            9 
 4166000   0.58256834   -3.0192939    2783.8556  0.055686022   0.05516977            9 
 4167000   0.58497814   -3.0377801    2780.8821  0.055613193  0.055157886           12 
 4168000   0.58528699   -3.0508061    2788.2923  0.055748006  0.055146043           17 
 4169000   0.58757912   -3.0255746    2780.2003  0.055572885   0.05513412           14 
 4170000   0.58500362   -3.0051314    2780.4744  0.055565036  0.055122301            9 
 4171000   0.57744609   -3.0447668    2792.6356  0.055794685  0.055110427            7 
 4172000   0.58550044   -3.0263342    2785.7902  0.055644579   0.05509858            4 
 4173000   0.58463617   -3.0604826    2786.9515  0.055654435  0.055086719           12 
 4174000   0.58574133   -3.0365235    2784.6329  0.055594811  0.055074936            7 
 4175000    0.5909124   -3.0334605     2781.501  0.055518981  0.055063012            6 
 4176000   0.57960514   -3.0220263    2790.1628  0.055678536   0.05505113            4 
 4177000   0.59075372   -3.0138085    2778.2829  0.055428195  0.055039248           11 
 4178000   0.58150688   -3.0298052    2781.4548  0.055478196   0.05502741           10 
 4179000   0.56870685   -3.0356607    2791.2871  0.055660985  0.055015589            8 
 4180000   0.58243158   -3.0562103    2784.5602   0.05551356   0.05500379           13 
 4181000   0.58311321   -3.0351547    2787.4947  0.055558771  0.054991954           11 
 4182000   0.58975511   -3.0425419    2788.4163  0.055563852  0.054980183            9 
 4183000   0.59216402    -3.026968    2784.9865   0.05548224  0.054968326            9 
 4184000   0.57226212   -3.0427071    2779.8641  0.055366956  0.054956481            5 
 4185000   0.58135752   -3.0387715    2789.9501  0.055554562  0.054944625            9 
 4186000   0.58778698   -3.0376245    2795.0195  0.055642209  0.054932805            6 
 4187000   0.57681411    -3.036744    2787.7301  0.055483842  0.054921097            9 
 4188000   0.57095072   -3.0425968    2791.6843  0.055549274  0.054909396            7 
 4189000   0.57587719   -3.0487743    2792.7887  0.055557984  0.054897659            5 
 4190000   0.58612695   -3.0331737    2789.2536  0.055474415  0.054885904            7 
 4191000   0.58758657    -3.049217    2787.7054  0.055430394  0.054874189           12 
 4192000   0.57035015   -3.0497472    2784.4157  0.055351775  0.054862444            7 
 4193000   0.57811033   -3.0490577    2790.4443  0.055458389  0.054850638            8 
 4194000   0.58614365   -3.0333642    2789.1127  0.055418708  0.054838846            9 
 4195000   0.58383814   -3.0510926    2790.7445  0.055437911  0.054827056           12 
 4196000   0.57861747   -3.0340757    2793.5941  0.055481294  0.054815302            4 
 4197000   0.58885223   -3.0433376    2784.5539  0.055288578  0.054803562           10 
 4198000   0.58600435   -3.0312797    2797.6891  0.055536151  0.054791805            6 
 4199000   0.57691554   -3.0473768    2792.5214  0.055420365  0.054780076           12 
 4200000   0.58261313   -3.0460541      2790.61  0.055369246  0.054768279            9 
 4201000   0.58724624   -3.0405147    2797.7711  0.055498118  0.054756434            8 
 4202000   0.57887887   -3.0547262     2790.471  0.055340136  0.054744602           15 
 4203000   0.58490911   -3.0282419    2787.2192  0.055262494  0.054732795            8 
 4204000   0.58761399   -3.0337746    2788.4565  0.055273877  0.054721017            7 
 4205000   0.58403335   -3.0329908    2786.7599  0.055227109  0.054709238            9 
 4206000   0.56811962   -3.0339001    2787.5469   0.05522957  0.054697513            5 
 4207000   0.57691765   -3.0367337    2787.0987  0.055207565  0.054685819           12 
 4208000   0.57593253   -3.0555853    2791.6302  0.055284184  0.054674085           12 
 4209000   0.57755167   -3.0572282     2794.892   0.05533563  0.054662276            8 
 4210000   0.57418463    -3.051009    2785.8729  0.055143962  0.054650484           25 
 4211000   0.56525706   -3.0525026     2792.369   0.05525942  0.054638745            6 
 4212000   0.57274765   -3.0349267     2795.534  0.055308918  0.054627019            9 
 4213000   0.58023103   -3.0516663    2784.4693   0.05507693  0.054615221           21 
 4214000   0.57738751   -3.0571545      2793.75   0.05524739  0.054603437           10 
 4215000   0.57871089   -3.0558791    2788.9247  0.055138883  0.054591738           14 
 4216000    0.5789291   -3.0673618    2792.1031  0.055188628  0.054579988           12 
 4217000   0.57294841   -3.0438947    2793.0078  0.055193419  0.054568273            7 
 4218000   0.57612745   -3.0585671    2792.3121  0.055166589  0.054556504           13 
 4219000   0.58436808   -3.0643427    2782.7229  0.054964108  0.054544731           10 
 4220000   0.56677945   -3.0462449     2789.042  0.055075869  0.054532938           11 
 4221000   0.58098512   -3.0505656     2784.962   0.05498227  0.054521125            5 
 4222000   0.57260612   -3.0671347    2787.3083   0.05501556  0.054509301            7 
 4223000   0.57355825   -3.0538221    2782.3297  0.054904288  0.054497588            9 
 4224000   0.56896088   -3.0638321    2789.5511  0.055033757  0.054485761           10 
 4225000   0.56467782   -3.0419076    2790.6944  0.055043282  0.054473954            6 
 4226000    0.5818131   -3.0390967     2784.396  0.054906057  0.054462121            6 
 4227000   0.56376279   -3.0554567    2792.3073  0.055049035  0.054450333           24 
 4228000   0.57911709   -3.0389174      2786.56  0.054922737  0.054438512            5 
 4229000   0.56905876   -3.0555325    2780.7643  0.054795545  0.054426684            8 
 4230000   0.56755429   -3.0571401    2790.7031  0.054978391   0.05441482            6 
 4231000   0.57914475   -3.0620256    2783.9795  0.054832969  0.054402888            8 
 4232000   0.57561846   -3.0486081    2786.6997  0.054873575  0.054391016           11 
 4233000   0.58583311   -3.0557807    2788.9118  0.054904161  0.054379106           12 
 4234000   0.58146965   -3.0336088    2783.2696  0.054780145  0.054367195           11 
 4235000   0.56852377   -3.0576225    2782.0259  0.054742737  0.054355236           11 
 4236000   0.57312928   -3.0703291    2789.0196  0.054867399  0.054343301           21 
 4237000   0.57205694   -3.0526903    2783.9276    0.0547543  0.054331427           13 
 4238000   0.56811029   -3.0593642    2789.4387  0.054849746  0.054319516            6 
 4239000   0.56805951     -3.05592      2784.57  0.054741095  0.054307622           13 
 4240000   0.58522896   -3.0412586    2796.8658  0.054969848  0.054295774           11 
 4241000   0.58164758   -3.0306862    2792.3882  0.054868902  0.054283879           10 
 4242000   0.56657973   -3.0419539    2792.3013   0.05485426  0.054272043            9 
 4243000   0.56722672   -3.0486653    2779.5531  0.054590956   0.05426011            9 
 4244000   0.57358862   -3.0718017    2780.8248  0.054603063  0.054248207            8 
 4245000   0.55908694   -3.0570742    2788.5505  0.054741864  0.054236286            6 
 4246000   0.56989132   -3.0459435    2788.4763  0.054727514  0.054224452            9 
 4247000   0.57108736   -3.0655131    2786.5337  0.054676511  0.054212554            8 
 4248000   0.57927703   -3.0530068     2786.097  0.054655074  0.054200694           11 
 4249000   0.58072768   -3.0717839    2786.0551  0.054641388  0.054188801           12 
 4250000   0.56225977   -3.0293344    2791.4816  0.054734934   0.05417698            4 
 4251000   0.57321939   -3.0706789    2783.5141  0.054565868  0.054165099            9 
 4252000   0.56567763   -3.0672452    2784.8415  0.054579051  0.054153159           15 
 4253000   0.56997081   -3.0608282    2788.3119  0.054634218  0.054141242           10 
 4254000   0.58333042   -3.0503918    2784.7047  0.054550712  0.054129428           17 
 4255000   0.57920628   -3.0425645    2792.8752  0.054697908   0.05411754            5 
 4256000   0.56779387   -3.0489007    2790.1392  0.054631486  0.054105654           14 
 4257000   0.56497608   -3.0344156    2787.4851  0.054566697  0.054093734            9 
 4258000   0.56541058   -3.0630841    2790.7754  0.054618275  0.054081859           18 
 4259000   0.57046682   -3.0704836    2788.3161  0.054557332  0.054070008            6 
 4260000   0.57560545   -3.0901957    2783.8377   0.05445692  0.054058018           22 
 4261000   0.58295833   -3.0496438    2790.2845  0.054570219  0.054046118            5 
 4262000   0.57369259   -3.0557936    2784.7656  0.054449507  0.054034308            6 
 4263000   0.55936245    -3.059927    2790.5564  0.054549934  0.054022454            5 
 4264000   0.57985052   -3.0613312    2794.4008  0.054612274  0.054010601            4 
 4265000   0.55930895   -3.0637016    2783.4827  0.054386141  0.053998779           26 
 4266000   0.56703315   -3.0611259    2795.2679  0.054603607   0.05398694           22 
 4267000   0.57823573   -3.0631322    2786.3001  0.054415672   0.05397506           14 
 4268000   0.57212695   -3.0640793    2784.1887  0.054361698  0.053963157            7 
 4269000   0.57030267   -3.0550336    2789.7034  0.054456614  0.053951349            8 
 4270000   0.56794823   -3.0656935    2789.3173  0.054436325  0.053939493           16 
 4271000   0.57471946   -3.0432852    2796.2841  0.054559511   0.05392764            6 
 4272000   0.56889473   -3.0795433     2789.163  0.054407831  0.053915799           11 
 4273000   0.57380967   -3.0608514    2790.1621  0.054414583  0.053903922            9 
 4274000   0.57646917   -3.0685974    2783.6435  0.054274752  0.053892061           13 
 4275000   0.56844935   -3.0460565    2793.2227  0.054448785  0.053880198            7 
 4276000   0.56359245   -3.0674227    2797.9755  0.054528677  0.053868412            5 
 4277000   0.56873717   -3.0529358    2791.3004  0.054385871  0.053856592           11 
 4278000   0.56173067   -3.0588958    2791.3041  0.054373229  0.053844771            8 
 4279000    0.5585354    -3.060461    2788.9382  0.054314446  0.053832974           14 
 4280000   0.57506437   -3.0646857    2790.1325  0.054325011  0.053821173            9 
 4281000   0.55841024   -3.0669139     2786.176  0.054235304  0.053809306           11 
 4282000   0.55834314   -3.0613869    2794.9757  0.054393891  0.053797384            6 
 4283000   0.57222313   -3.0786782     2786.677  0.054219725  0.053785479           17 
 4284000    0.5721961   -3.0704394    2785.4512  0.054183225  0.053773654           11 
 4285000   0.57291782   -3.0636525    2795.4546  0.054365122  0.053761808            3 
 4286000   0.56352592   -3.0795315    2786.1441  0.054171413  0.053749974           18 
 4287000   0.57190612   -3.0786869    2791.5772  0.054264389  0.053738111           10 
 4288000   0.55573763   -3.0793753    2792.2888  0.054265562   0.05372623           10 
 4289000   0.56801063    -3.063625    2797.5215   0.05435458  0.053714392           10 
 4290000   0.56282136   -3.0527002    2791.8072  0.054230909  0.053702548            5 
 4291000   0.56315578   -3.0894777    2783.8919  0.054064551  0.053690698           12 
 4292000   0.55840514    -3.064454    2797.4389  0.054314984  0.053678897            8 
 4293000   0.57268226   -3.0751951    2797.2725  0.054299101  0.053667058           18 
 4294000   0.56482038   -3.0710666    2788.3563  0.054113421   0.05365522            9 
 4295000   0.54959829   -3.0673995    2797.0744  0.054269974  0.053643323            7 
 4296000   0.56616394    -3.059592    2788.5372  0.054091736  0.053631483            6 
 4297000   0.57019568   -3.0649994    2795.9862  0.054223609  0.053619657           19 
 4298000   0.55895679   -3.0723448    2792.1336  0.054136297  0.053607801            6 
 4299000   0.56039224   -3.0782864    2789.1445  0.054065761   0.05359598            6 
 4300000   0.56204333    -3.074802    2794.5517  0.054157979  0.053584145            8 
 4301000   0.56280836   -3.0688216    2793.3498    0.0541221  0.053572285           13 
 4302000   0.57357845   -3.0623866    2797.5788  0.054191438  0.053560584            9 
 4303000   0.56885104   -3.0920228    2791.8696  0.054068278  0.053548805           19 
 4304000   0.55714681   -3.0694431    2796.4143  0.054143709  0.053536953           23 
 4305000   0.56442854    -3.067432    2790.7082  0.054020677  0.053525118           10 
 4306000   0.56383084   -3.0599412    2787.6368  0.053948691  0.053513281           10 
 4307000   0.56790128   -3.0762386    2792.5547  0.054031318  0.053501425            8 
 4308000   0.57057169   -3.0754365    2795.2957  0.054071799   0.05348961            6 
 4309000   0.56747578   -3.0617332    2798.7121  0.054125322  0.053477814            9 
 4310000   0.55016955   -3.0753064    2794.1788  0.054025113  0.053465997           12 
 4311000   0.55307609   -3.1016986    2787.6561  0.053886495  0.053454148            9 
 4312000   0.56593062   -3.0760717    2788.8228  0.053896544  0.053442398            6 
 4313000    0.5617351   -3.0732686    2796.1361  0.054025351  0.053430635            9 
 4314000   0.55608393   -3.0858264    2791.3181   0.05391976   0.05341877            6 
 4315000    0.5647455    -3.060168    2789.8101  0.053878141  0.053406951            6 
 4316000   0.54693888   -3.0757794    2789.0101   0.05385021   0.05339517            6 
 4317000    0.5656097   -3.0729809    2797.4007  0.053999704  0.053383375           11 
 4318000    0.5589264    -3.068621    2800.7828  0.054052471  0.053371652            8 
 4319000   0.57337919   -3.0687007    2794.9103  0.053926649  0.053359878            8 
 4320000   0.57441671    -3.080477    2799.5482  0.054003629  0.053348121            5 
 4321000   0.56780822   -3.0971126    2783.7124  0.053685728  0.053336332            9 
 4322000   0.56077526   -3.0633293    2792.4594  0.053841959   0.05332455           15 
 4323000    0.5532887   -3.0853544    2794.3531   0.05386601  0.053312743           13 
 4324000   0.54850269   -3.0793108    2794.9954   0.05386593  0.053300926            8 
 4325000   0.56363796   -3.0857836    2787.2771  0.053704761  0.053289115           17 
 4326000   0.56596378    -3.086648    2789.6984  0.053738988  0.053277299           12 
 4327000   0.57706464   -3.0852323     2805.531  0.054031489  0.053265512            6 
 4328000   0.54975398   -3.0812238    2791.3488  0.053745933  0.053253814           14 
 4329000   0.58269357   -3.0809943     2792.561  0.053756854  0.053242015           11 
 4330000   0.55483169   -3.0811491    2795.6235  0.053803378  0.053230229            9 
 4331000   0.54951906   -3.1030462    2794.1781  0.053763145  0.053218425           13 
 4332000   0.57103702   -3.0918446    2790.2445  0.053675064  0.053206628           15 
 4333000   0.55264752   -3.0680564    2790.8412  0.053674152   0.05319487           10 
 4334000    0.5527079   -3.0741812    2799.1529  0.053821583  0.053183129           18 
 4335000   0.55021201   -3.0632697    2798.1407  0.053789709  0.053171366            8 
 4336000   0.55599971   -3.0692893     2800.799  0.053828394  0.053159647           20 
 4337000   0.55468884   -3.0824197    2799.8342  0.053797445  0.053147936            3 
 4338000   0.56495053   -3.0749974    2789.7164   0.05359068  0.053136241           11 
 4339000   0.55878748   -3.0826024    2796.5223   0.05370904  0.053124518            8 
 4340000   0.56072741    -3.067706    2794.4354  0.053656593   0.05311278           10 
 4341000   0.56767845    -3.082237    2794.5379  0.053646202  0.053101068            5 
 4342000   0.55979051   -3.0924176    2795.7599  0.053657299  0.053089344            8 
 4343000   0.54628409   -3.0779343    2806.4248  0.053849582   0.05307763            8 
 4344000    0.5596268   -3.0875008    2800.0836  0.053715538  0.053065923           14 
 4345000   0.54509731   -3.0826248    2796.5634  0.053635661  0.053054144           14 
 4346000    0.5570712   -3.0938329    2799.5633  0.053680843   0.05304239           12 
 4347000   0.53224013   -3.0738289    2795.8439  0.053597192  0.053030609           10 
 4348000   0.55130105   -3.0967258    2792.8227   0.05352696  0.053018822            8 
 4349000    0.5605226    -3.089278    2799.6814  0.053646075  0.053007068           10 
 4350000   0.55164031   -3.0917551    2797.0589  0.053583503  0.052995313            8 
 4351000   0.56964145   -3.0592715    2800.6786  0.053640515   0.05298362            7 
 4352000   0.55644553   -3.0946677    2793.9464  0.053499279  0.052971856            9 
 4353000   0.54736901   -3.0777254    2800.0038  0.053602953   0.05296011           13 
 4354000   0.55583056   -3.0670478    2797.1086  0.053535229  0.052948417            5 
 4355000   0.55807976   -3.0773927    2799.5552  0.053569752  0.052936713            6 
 4356000   0.56464405   -3.0865668    2791.5332  0.053403986  0.052924974            8 
 4357000   0.54673381   -3.1046345    2793.5378   0.05343007  0.052913131           12 
 4358000   0.56364424   -3.0827062    2799.0688  0.053523573  0.052901373            7 
 4359000   0.56071408   -3.0789446    2798.5467  0.053501312  0.052889694            8 
 4360000   0.53954244   -3.0807062    2798.3062  0.053484446  0.052878014            7 
 4361000   0.56507436   -3.0775193    2793.3201  0.053376904  0.052866287            6 
 4362000    0.5611271   -3.0913026    2800.4641  0.053501147  0.052854569            5 
 4363000    0.5507293   -3.0858154    2793.9436  0.053364345  0.052842841           15 
 4364000   0.55877286   -3.0767094    2796.3441  0.053397955  0.052831099            6 
 4365000   0.56359716    -3.080449    2800.4035   0.05346322  0.052819434           13 
 4366000    0.5462044   -3.0829887    2799.1317  0.053426701  0.052807771           14 
 4367000   0.55046951   -3.0800844    2790.6919  0.053253414  0.052796067           11 
 4368000    0.5601256   -3.0945338    2799.0991  0.053401617  0.052784308           27 
 4369000   0.55653614   -3.0801289    2798.9815   0.05338715  0.052772621           16 
 4370000   0.55588263   -3.0680327    2804.3259  0.053476848  0.052760959            5 
 4371000   0.55117223   -3.0886478    2799.9878  0.053381907  0.052749272            6 
 4372000   0.54251506   -3.1015673    2791.1475  0.053201196  0.052737501            8 
 4373000   0.55091593   -3.0982094    2800.5758  0.053368697  0.052725759           11 
 4374000   0.54952017   -3.0790953    2803.3153  0.053408689  0.052714046            7 
 4375000   0.55203526   -3.0825411    2795.5635  0.053248828  0.052702324           16 
 4376000   0.55493304   -3.1225904    2798.1595  0.053286096  0.052690501            9 
 4377000   0.55153719   -3.0934637    2801.3202  0.053334099  0.052678744            5 
 4378000   0.55030502    -3.087244     2797.026  0.053240179  0.052666963           13 
 4379000   0.54655353   -3.0933452     2795.785  0.053204403  0.052655232            6 
 4380000   0.55849605   -3.0913161    2794.2251  0.053162579  0.052643579            9 
 4381000   0.55341884   -3.0975767    2793.6726  0.053139933  0.052631818            8 
 4382000   0.56064117   -3.1036556    2797.4043  0.053198773  0.052620039           10 
 4383000   0.54771726   -3.0831747    2799.0894  0.053218675  0.052608312           17 
 4384000    0.5496248   -3.0979168    2789.5965  0.053026088  0.052596658            8 
 4385000    0.5472806   -3.0903297    2789.1488  0.053005488  0.052584874           12 
 4386000   0.54202954   -3.0864633    2796.1356  0.053126151  0.052573118           11 
 4387000   0.54077394   -3.0893918    2798.1259  0.053151848  0.052561399            8 
 4388000   0.54726115   -3.0847718    2801.5818  0.053205366  0.052549633            9 
 4389000   0.54526415   -3.0723986    2804.1042  0.053241138  0.052537895            7 
 4390000   0.55537149   -3.0757271    2795.5104  0.053065878  0.052526199           11 
 4391000   0.53854892   -3.0784603     2796.514  0.053072839  0.052514436           10 
 4392000   0.56279477   -3.0729498    2806.2157  0.053244834  0.052502745           34 
 4393000   0.54341596   -3.0908494    2793.0811  0.052983555  0.052491002           10 
 4394000   0.55812348   -3.0948186    2792.6862  0.052964007  0.052479249            5 
 4395000   0.53898198   -3.0904789    2795.6863  0.053008842   0.05246749            4 
 4396000   0.55750942   -3.1001291     2802.546  0.053126819  0.052455693           13 
 4397000   0.55762056   -3.0976002    2793.5947  0.052945089  0.052443905           10 
 4398000    0.5495716   -3.1258613    2795.9756  0.052978164   0.05243215           16 
 4399000   0.55668621   -3.0937029    2804.4907  0.053127429  0.052420389            5 
 4400000   0.54952864   -3.0929668    2800.4967   0.05303971  0.052408647            4 
 4401000    0.5350129   -3.1000743    2797.6617  0.052973978  0.052396922           12 
 4402000   0.56526176   -3.0941546    2797.7826  0.052964233  0.052385209           18 
 4403000   0.54736061    -3.104478    2801.8401  0.053028998  0.052373471           10 
 4404000   0.55825106   -3.0816072    2795.3142  0.052893471  0.052361739           10 
 4405000   0.53814704   -3.1068364    2793.2425  0.052842273   0.05235002           12 
 4406000   0.53979007   -3.1039229    2797.3789  0.052908514  0.052338205           26 
 4407000   0.54333193   -3.1095584    2795.0356  0.052852198  0.052326411           10 
 4408000   0.55005931   -3.1077783    2797.5806  0.052888321  0.052314628            9 
 4409000   0.54320376   -3.0952988    2795.2096   0.05283151  0.052302859           27 
 4410000    0.5344138   -3.1154839    2799.9646  0.052909384  0.052291108            9 
 4411000   0.55559345   -3.0963888    2797.7668  0.052855867  0.052279314           10 
 4412000   0.55056927   -3.0938505    2797.7454  0.052843485  0.052267521            7 
 4413000   0.53957115    -3.080733    2797.6472  0.052829654  0.052255807            7 
 4414000   0.54906355   -3.0920485    2798.3678   0.05283129  0.052244136            6 
 4415000   0.55057564   -3.1055572    2798.9353  0.052830036  0.052232357            9 
 4416000   0.54464785   -3.1019736    2798.0707  0.052801756  0.052220637            6 
 4417000   0.55059741   -3.0949842    2799.6028  0.052818707  0.052208936           14 
 4418000   0.53751692   -3.1120722    2799.7295  0.052809143  0.052197195            7 
 4419000   0.55890681   -3.0893033    2797.2915  0.052751217  0.052185482            7 
 4420000   0.54033354   -3.0951537    2793.8096  0.052673634   0.05217375           15 
 4421000   0.55149904   -3.1204003    2803.9401  0.052852674  0.052162009           13 
 4422000   0.53768624   -3.1068224    2800.6415   0.05277856  0.052150252           15 
 4423000   0.53677255   -3.0926866    2801.1153  0.052775554  0.052138551           18 
 4424000   0.55671959   -3.0916432    2801.2214  0.052765624   0.05212682           10 
 4425000   0.54377381    -3.102383    2804.9567  0.052824044  0.052115126            7 
 4426000    0.5437539   -3.1004335    2803.5805  0.052786198  0.052103444            5 
 4427000   0.55316605   -3.0967679    2797.2033   0.05265423   0.05209177            9 
 4428000   0.53263506   -3.1002566    2801.7431  0.052727776  0.052080018            7 
 4429000   0.55003857   -3.1163031    2795.4022  0.052596564  0.052068276           14 
 4430000   0.53307682   -3.0960343    2792.7116  0.052534078  0.052056563           12 
 4431000   0.54791637   -3.1061382    2801.0476  0.052678997  0.052044847           10 
 4432000   0.54357042   -3.0966592    2796.2358  0.052576635  0.052033144            6 
 4433000   0.53668935   -3.1161645    2800.7904  0.052650394  0.052021453            8 
 4434000   0.54713743   -3.1009612    2795.3979  0.052537173  0.052009674           11 
 4435000   0.54125522   -3.1170908    2797.6545  0.052567728  0.051997891           10 
 4436000   0.53543263   -3.1165626    2805.1542  0.052696765  0.051986169            8 
 4437000   0.54459324   -3.1204067    2798.6943  0.052563562  0.051974425            5 
 4438000   0.53609364   -3.1111622    2804.8499  0.052667304  0.051962709            6 
 4439000   0.55436931   -3.1174073    2795.8325  0.052486155  0.051950993           18 
 4440000   0.53934097   -3.1003063    2801.4447  0.052579667  0.051939355           26 
 4441000   0.53521999   -3.1083208    2797.6742  0.052497076  0.051927699           11 
 4442000   0.53625091   -3.1158948    2797.7725  0.052487102  0.051916013            8 
 4443000   0.53336173   -3.1142832    2799.2336  0.052502692  0.051904297           26 
 4444000   0.54494454   -3.1192281    2800.7145  0.052518649  0.051892578            9 
 4445000   0.53806315   -3.1080116    2799.9992  0.052493424  0.051880874            7 
 4446000   0.54021813   -3.0982503     2806.983  0.052612518   0.05186916            6 
 4447000   0.52617629   -3.1106161      2802.76   0.05252155  0.051857482            9 
 4448000   0.54569835   -3.0906659    2800.5727  0.052468763  0.051845779           10 
 4449000   0.54868521   -3.0936255    2808.2946  0.052601607  0.051834139            8 
 4450000   0.54562756   -3.1193607     2799.026  0.052416216  0.051822519           10 
 4451000   0.53388116   -3.1052795    2802.0472  0.052461005  0.051810832           11 
 4452000   0.54546505    -3.113497    2800.2703   0.05241596  0.051799175            7 
 4453000   0.53353963   -3.1290706     2802.846  0.052452391  0.051787473            9 
 4454000    0.5392854   -3.1086053     2800.708  0.052400613  0.051775784            7 
 4455000   0.53835529   -3.1070176    2805.5193   0.05247885  0.051764162           18 
 4456000   0.52988112   -3.1245153    2795.8938  0.052287062  0.051752422            7 
 4457000   0.54763103   -3.1175922    2804.1642  0.052429964   0.05174075           17 
 4458000   0.53551548   -3.1046037    2795.9291  0.052264264  0.051729111            8 
 4459000   0.52069014   -3.1231279    2797.6975  0.052285592  0.051717448           21 
 4460000   0.55069421   -3.1059084    2806.2758  0.052434152  0.051705762            8 
 4461000   0.53283851   -3.1009537    2797.0927  0.052250853  0.051694102            7 
 4462000   0.53798097   -3.1085035    2793.8041  0.052177725  0.051682439           10 
 4463000   0.54176943   -3.1014111    2800.8952  0.052298439  0.051670707            8 
 4464000   0.53616539   -3.1046462    2796.0841   0.05219691  0.051659024           16 
 4465000   0.53662218    -3.098887    2806.7927  0.052385081  0.051647367            9 
 4466000   0.52673228   -3.0955389    2806.8231   0.05237392  0.051635727            8 
 4467000   0.54201898   -3.1061869    2802.1719  0.052275425  0.051624074            6 
 4468000   0.53478251   -3.1252522    2802.0225  0.052260939  0.051612385           12 
 4469000   0.54068592   -3.1006322    2803.2404  0.052271954  0.051600714           18 
 4470000   0.53384444   -3.1272616    2801.5046    0.0522279  0.051589025            6 
 4471000   0.55048222   -3.1163078      2797.53  0.052142138  0.051577292           12 
 4472000   0.55150264   -3.1200251    2801.8682  0.052211319  0.051565619           17 
 4473000   0.53902166    -3.109867    2799.3792  0.052153276  0.051553917           10 
 4474000   0.53919039   -3.1136684    2806.1111  0.052267008  0.051542238            7 
 4475000   0.53698186   -3.1134674    2799.2807  0.052128132   0.05153064            9 
 4476000   0.53047773   -3.1276297    2806.5061  0.052251006  0.051518968           13 
 4477000   0.53279335   -3.1306926     2803.094  0.052175825  0.051507331           20 
 4478000   0.53297468    -3.103038    2809.7806  0.052288606  0.051495749            9 
 4479000   0.53890952   -3.1211852    2798.7051   0.05207087  0.051484196            6 
 4480000   0.54596175   -3.1012799    2809.2329  0.052255077   0.05147265            7 
 4481000   0.54984551   -3.1263617    2800.1455  0.052074416  0.051461051            6 
 4482000   0.53763156   -3.1287091    2805.2487  0.052157681   0.05144948           11 
 4483000   0.52773354   -3.1054224    2810.5318  0.052244252  0.051437912            7 
 4484000   0.52886131   -3.1313833    2814.4124  0.052304721  0.051426365            7 
 4485000   0.53481828    -3.121706    2801.9021  0.052060611  0.051414806           10 
 4486000   0.54084449   -3.1045871    2808.9593  0.052180102  0.051403243            6 
 4487000   0.53364421   -3.0994425    2805.3664  0.052101745   0.05139174           27 
 4488000   0.54313586   -3.1027426    2806.7737  0.052116268  0.051380162           11 
 4489000   0.53010758   -3.1337433    2801.0119  0.051997695  0.051368576            9 
 4490000    0.5331677   -3.1167107    2804.4734  0.052050361   0.05135703            8 
 4491000   0.52922933   -3.1271334    2807.7047  0.052098729  0.051345409            6 
 4492000   0.54429013   -3.1302604    2801.8302   0.05197815  0.051333786           12 
 4493000   0.53249118   -3.1184294    2808.2942  0.052086472   0.05132215            9 
 4494000   0.52975658    -3.119174    2799.5869   0.05191342    0.0513106            7 
 4495000   0.52801196   -3.1384018    2802.7794  0.051961056  0.051298999            9 
 4496000   0.53791503   -3.1374787    2803.8232  0.051968846  0.051287396           15 
 4497000   0.54199918   -3.1223675    2802.0144  0.051923772  0.051275707            8 
 4498000   0.52609895    -3.116808    2804.7785  0.051963438  0.051264102            7 
 4499000   0.52442862   -3.1239695    2811.2736  0.052072193  0.051252584           21 
 4500000   0.53388351   -3.1350843    2803.4545  0.051915824  0.051241022           10 
 4501000   0.53579535   -3.1369355    2807.8513  0.051985695  0.051229446           10 
 4502000   0.53808467   -3.1210862    2814.8199  0.052103138  0.051217873           15 
 4503000   0.51295033   -3.1338647    2811.1075  0.052022864  0.051206325           13 
 4504000   0.54136794   -3.1305683    2800.7322   0.05181935  0.051194788           39 
 4505000   0.52987228   -3.1279594    2805.8298  0.051902142  0.051183238           14 
 4506000   0.52787445   -3.1433411    2806.5437  0.051903826  0.051171666           17 
 4507000   0.53446423   -3.1052808    2813.0892  0.052013334  0.051160137           11 
 4508000   0.51907145   -3.1409792    2807.9257  0.051906347  0.051148594           15 
 4509000   0.52425435   -3.1175322     2805.085  0.051842333  0.051137065           19 
 4510000   0.53254599   -3.0988171    2806.7446  0.051861504  0.051125556           19 
 4511000   0.53702458   -3.1210492    2813.6098  0.051976831  0.051114024           16 
 4512000   0.52202425   -3.1392393    2804.7372   0.05180144  0.051102427           10 
 4513000   0.54493792   -3.1261001    2809.0564  0.051869718  0.051090892            7 
 4514000   0.52999006   -3.1257833    2805.0785  0.051784789   0.05107936           10 
 4515000   0.54338259   -3.1159124     2808.271  0.051832244  0.051067818           12 
 4516000   0.53158294   -3.1327871    2803.9454  0.051740947  0.051056246           12 
 4517000   0.52070866   -3.0868646    2808.8971  0.051820845  0.051044703           10 
 4518000   0.53355639    -3.128051    2802.7858  0.051696655  0.051033166            7 
 4519000   0.53151511   -3.1254968    2806.2989  0.051749998  0.051021591            8 
 4520000   0.52552385   -3.1264217    2805.0321  0.051715194  0.051010003           13 
 4521000   0.52261997   -3.1253458    2811.6405  0.051825565  0.050998387           14 
 4522000   0.53018838   -3.1346096    2802.3638  0.051643148  0.050986818           33 
 4523000   0.52915221   -3.1152494     2805.087  0.051681903  0.050975214           11 
 4524000   0.52305755   -3.1254227    2805.0688  0.051670145  0.050963624            4 
 4525000   0.52812745   -3.1278495    2804.9412  0.051656376  0.050952041            5 
 4526000   0.53391581   -3.1114016    2796.5581  0.051490612  0.050940471           11 
 4527000   0.52062819   -3.1234943    2807.0814  0.051672951  0.050928927            7 
 4528000   0.53376932   -3.1315694    2811.1535  0.051736482  0.050917441           10 
 4529000   0.52229388   -3.1132237    2805.0004  0.051611843  0.050905939           16 
 4530000   0.53122674   -3.1461263    2804.8013  0.051596786  0.050894372           19 
 4531000   0.51928336    -3.146659    2802.1034   0.05153578  0.050882816           15 
 4532000   0.51775894   -3.1247605    2810.5806  0.051680286  0.050871269            7 
 4533000   0.52635764   -3.1260828    2807.1035  0.051604962  0.050859742            7 
 4534000    0.5457903   -3.1303071    2803.8068  0.051532988  0.050848239           12 
 4535000   0.52559712   -3.1430496    2810.9139  0.051652222  0.050836712           11 
 4536000   0.51814816    -3.129296      2803.48  0.051504262    0.0508252           13 
 4537000   0.52682377   -3.1250362    2814.4091  0.051693651  0.050813685            5 
 4538000   0.52449247   -3.1246472    2800.5479   0.05142772  0.050802181           16 
 4539000   0.52112631   -3.1238505    2800.2022  0.051410043  0.050790632           13 
 4540000   0.52535835   -3.1298741    2809.7019   0.05157309   0.05077912           13 
 4541000   0.52013172   -3.1104515    2809.0339  0.051549473  0.050767652            6 
 4542000   0.52556984     -3.12321     2806.843  0.051497928  0.050756131            7 
 4543000   0.52082375    -3.133887    2806.7386  0.051484676  0.050744653           11 
 4544000   0.52218007   -3.1360154    2804.6977  0.051435918  0.050733148           15 
 4545000   0.52119075   -3.1215503    2809.2361  0.051507813  0.050721642            5 
 4546000   0.52531474   -3.1370612    2808.1477   0.05147653   0.05071011           10 
 4547000   0.51868851   -3.1371269    2810.2188  0.051503167  0.050698597           11 
 4548000    0.5225184   -3.1182344    2804.3094  0.051383564  0.050687103           14 
 4549000   0.51718221   -3.1151922    2807.7261  0.051434859  0.050675656           11 
 4550000   0.51627482   -3.1372048    2809.5662  0.051457256  0.050664182           11 
 4551000    0.5170304   -3.1251119    2804.4274  0.051351853  0.050652715           11 
 4552000   0.51630645   -3.1443454    2806.4773    0.0513781  0.050641223            6 
 4553000   0.52311943   -3.1368593    2808.8573  0.051410375  0.050629661           12 
 4554000   0.52199722   -3.1272466    2807.9231  0.051381992  0.050618128           20 
 4555000   0.52740271   -3.1353456    2802.0681  0.051263595   0.05060653           14 
 4556000   0.53595119    -3.133734    2810.2575  0.051402134  0.050594952            9 
 4557000   0.51638212   -3.1301102    2803.0428   0.05125892  0.050583432           10 
 4558000   0.51834573   -3.1217005    2802.1713  0.051231741  0.050571913            9 
 4559000   0.53767521   -3.1207047    2807.5096  0.051318081  0.050560406           13 
 4560000   0.52394971   -3.1390604    2804.6034  0.051253717   0.05054889           11 
 4561000   0.51370691   -3.1362559    2796.8765  0.051101302  0.050537334           19 
 4562000   0.52753004   -3.1237391    2804.5919  0.051231037  0.050525814            6 
 4563000   0.52561675    -3.136865    2810.0519  0.051319524  0.050514329           11 
 4564000   0.52482137   -3.1270332    2800.2289  0.051128924  0.050502837           20 
 4565000    0.5195946   -3.1473009     2804.233  0.051190818  0.050491362           13 
 4566000   0.52365588   -3.1471048    2806.2038  0.051215574  0.050479791           10 
 4567000   0.53667059   -3.1371914    2803.3341  0.051151998  0.050468208           11 
 4568000   0.51562289   -3.1314201    2800.6828  0.051092433  0.050456641           21 
 4569000   0.52526239   -3.1313239    2807.4883  0.051205375  0.050445108            6 
 4570000   0.52051074   -3.1454688    2803.1624  0.051115288  0.050433587           14 
 4571000   0.53081008   -3.1343749    2803.4052  0.051108533  0.050422118            7 
 4572000   0.53328467   -3.1337623    2803.4923   0.05109894  0.050410575            9 
 4573000   0.52227744   -3.1355074    2805.5549  0.051125354  0.050399086           16 
 4574000   0.51731175   -3.1330011    2809.1356  0.051179412  0.050387558            9 
 4575000   0.52711845   -3.1476953    2811.9615  0.051219699  0.050375995           16 
 4576000   0.52971179   -3.1446692    2800.0732  0.050992009  0.050364449            8 
 4577000   0.53188087    -3.140158    2809.3241  0.051149299  0.050352941           10 
 4578000   0.52261594    -3.155509    2800.6833  0.050980838  0.050341421            9 
 4579000    0.5241177   -3.1437683    2809.2906  0.051126348  0.050329848            8 
 4580000   0.52515631    -3.144645    2805.0752  0.051038486  0.050318307            9 
 4581000    0.5250151   -3.1579296    2802.8251  0.050986413  0.050306733            7 
 4582000   0.51834595   -3.1313888    2808.3783  0.051076282  0.050295233           10 
 4583000   0.52632793    -3.126043    2804.3702  0.050992257  0.050283802           11 
 4584000   0.51346102   -3.1398433    2806.3495  0.051017115  0.050272306           11 
 4585000   0.52338872   -3.1426605    2811.2659  0.051095345  0.050260805           17 
 4586000    0.5118522   -3.1361583    2810.5452  0.051071108  0.050249358           38 
 4587000   0.51315556   -3.1255209    2805.8015  0.050973794  0.050237936            9 
 4588000   0.53235126   -3.1379372    2810.3981  0.051046173  0.050226504           33 
 4589000   0.50448397   -3.1502378    2807.1377  0.050975842  0.050215046           24 
 4590000   0.51705057   -3.1207626    2809.9651   0.05101607  0.050203608            7 
 4591000    0.5204615   -3.1431918    2806.0061  0.050933096  0.050192207            9 
 4592000   0.52523741   -3.1450686    2802.0071  0.050849431   0.05018076           11 
 4593000   0.51931154   -3.1420421    2808.6445  0.050958787  0.050169364            7 
 4594000   0.50117239   -3.1440092    2808.2642  0.050940797  0.050157908           15 
 4595000   0.51641041   -3.1578894    2809.1484  0.050945745  0.050146473           10 
 4596000    0.5173892   -3.1636617    2813.1277  0.051006812  0.050135034           13 
 4597000   0.51526594   -3.1496289    2808.5309  0.050912387  0.050123588            9 
 4598000    0.5127387    -3.155236    2808.4342  0.050899562  0.050112172            7 
 4599000   0.51577314   -3.1442769    2809.4067  0.050906116  0.050100778            5 
 4600000   0.51618293   -3.1396318    2807.3466  0.050857728  0.050089311            8 
 4601000   0.51750604   -3.1524013    2811.2422  0.050917231  0.050077892            9 
 4602000   0.52031515   -3.1564204    2810.2353  0.050887935  0.050066461           13 
 4603000   0.51382556   -3.1495545    2800.5164  0.050700927  0.050055009           13 
 4604000   0.50873242   -3.1486266    2809.0597   0.05084455  0.050043567            9 
 4605000     0.513124   -3.1577455    2817.1631  0.050980151  0.050032152           13 
 4606000   0.51055895   -3.1548911    2810.3184  0.050845245  0.050020762           22 
 4607000   0.51843032   -3.1580919    2812.3528  0.050871008  0.050009312           28 
 4608000   0.52648004   -3.1516694    2813.2334  0.050875893  0.049997923           13 
 4609000   0.52772776   -3.1591497    2812.4579  0.050850834  0.049986573           31 
 4610000    0.5148967   -3.1467034    2812.3956  0.050838677  0.049975179            7 
 4611000    0.5193836   -3.1461792    2812.6122  0.050831565  0.049963832           24 
 4612000   0.51599337   -3.1457288    2803.9657  0.050664313  0.049952456           16 
 4613000   0.52795878   -3.1400602     2811.882  0.050796337   0.04994103            9 
 4614000   0.51582528   -3.1393606    2809.3225    0.0507391  0.049929677           20 
 4615000   0.51587916   -3.1498817      2814.98  0.050830263  0.049918313           17 
 4616000   0.50966781   -3.1441855    2814.1086   0.05080352  0.049906974           12 
 4617000   0.52500828   -3.1530788     2811.036  0.050737058  0.049895657           10 
 4618000   0.50565515   -3.1511062    2813.4731   0.05077005  0.049884328           13 
 4619000   0.51843953   -3.1577353    2816.4561  0.050812877  0.049872974           15 
 4620000   0.51762511   -3.1443022    2810.2818  0.050690508   0.04986163           14 
 4621000   0.52361409   -3.1563685    2817.5202  0.050810073  0.049850302           13 
 4622000   0.51619954   -3.1641057    2814.2604  0.050740308  0.049838971           10 
 4623000   0.50751333   -3.1484654    2812.6424  0.050700166  0.049827727           11 
 4624000   0.52347216   -3.1654615     2815.104  0.050733565  0.049816465            9 
 4625000   0.50916958   -3.1499731    2813.1966  0.050688227  0.049805292            8 
 4626000   0.51785864    -3.151957    2816.9005  0.050743992  0.049794076           22 
 4627000   0.49897863   -3.1656723    2823.5578  0.050852925  0.049782822            7 
 4628000   0.51602419   -3.1653853    2815.3313  0.050693807  0.049771581           19 
 4629000   0.51372791   -3.1586032    2820.8763  0.050782679  0.049760345           15 
 4630000   0.52162859   -3.1523993    2817.4767  0.050710524  0.049749073           22 
 4631000   0.51579997   -3.1640966     2809.027  0.050547525  0.049737818           11 
 4632000   0.51589065   -3.1720056    2814.2556  0.050630679  0.049726545           15 
 4633000   0.50903744   -3.1613687     2816.675  0.050663268  0.049715241           12 
 4634000   0.51767598   -3.1479472    2813.2602  0.050590925   0.04970399            6 
 4635000   0.52199914    -3.160543    2813.9424  0.050592276  0.049692719           11 
 4636000   0.51991179   -3.1707015    2818.6212  0.050665466  0.049681477           10 
 4637000   0.51846489   -3.1663461    2812.7505  0.050549036   0.04967022           12 
 4638000   0.52059855   -3.1605075    2812.3468  0.050530883  0.049659007            6 
 4639000   0.51338831   -3.1593063    2818.6362   0.05063297  0.049647748           20 
 4640000   0.51378313   -3.1521788    2823.7497  0.050713895  0.049636532           14 
 4641000   0.51392351   -3.1650147    2816.4891  0.050572598  0.049625368            9 
 4642000   0.51331197   -3.1518983    2813.1573  0.050501891  0.049614169           16 
 4643000   0.52262767   -3.1472069    2820.4799   0.05062244  0.049602962            8 
 4644000   0.51201668   -3.1318992    2821.9136  0.050637267  0.049591867           12 
 4645000   0.52106288   -3.1623811    2825.4734  0.050690229    0.0495807            7 
 4646000   0.51190017    -3.142343    2822.4705  0.050625458  0.049569488           31 
 4647000   0.50362546   -3.1663261    2816.8545  0.050513852   0.04955827           22 
 4648000   0.50548851   -3.1592884    2805.9531  0.050307535  0.049547054           15 
 4649000   0.50073893   -3.1478065    2816.3452  0.050482993  0.049535869           16 
 4650000    0.4983238   -3.1627922     2815.202  0.050451649  0.049524649           12 
 4651000   0.50864935   -3.1671945    2816.7761  0.050469005  0.049513447            8 
 4652000   0.50574283   -3.1563149    2830.6912  0.050707424  0.049502324            8 
 4653000   0.50778258   -3.1530852    2820.5024  0.050514048   0.04949115           16 
 4654000   0.50571491   -3.1462512    2818.8511  0.050473627  0.049479955            9 
 4655000   0.51320869   -3.1541186    2811.4755  0.050330746  0.049468782            9 
 4656000   0.51263696   -3.1578289    2822.7289  0.050521351  0.049457597           12 
 4657000   0.49987253   -3.1561227    2821.0799  0.050480994  0.049446427           15 
 4658000   0.50226067   -3.1715529    2814.1033  0.050345343  0.049435228           52 
 4659000   0.49073512   -3.1761713    2818.1549  0.050407005  0.049423998            7 
 4660000   0.51308384   -3.1703481    2807.6247  0.050207881  0.049412782           31 
 4661000   0.50753323   -3.1812273    2813.1481  0.050295861  0.049401612           30 
 4662000   0.49925434    -3.168052    2813.2368  0.050286659  0.049390437            8 
 4663000   0.50622796   -3.1628767    2818.2171  0.050364878  0.049379298           11 
 4664000   0.50059239   -3.1571362    2821.2701  0.050408627  0.049368134           14 
 4665000   0.49450578   -3.1595986    2821.6558  0.050404713  0.049356957           12 
 4666000   0.51676512    -3.158046    2825.1345  0.050456039  0.049345815           14 
 4667000   0.49789166   -3.1714463    2813.7775  0.050242438   0.04933465            8 
 4668000   0.50593346   -3.1684427    2817.7538   0.05030266   0.04932342            5 
 4669000   0.50573404   -3.1638714    2807.4414  0.050107829  0.049312213           24 
 4670000   0.50333052   -3.1539953    2821.4461  0.050347003   0.04930099           23 
 4671000   0.52052457   -3.1722995    2827.0099  0.050435487   0.04928978           13 
 4672000   0.50480853   -3.1698511    2812.7611  0.050170538  0.049278613           31 
 4673000   0.50557581   -3.1854752     2818.166  0.050256188  0.049267414           17 
 4674000   0.51014661   -3.1660323    2813.2591   0.05015795  0.049256213           15 
 4675000   0.50628479   -3.1711234    2818.8517   0.05024691  0.049245045            8 
 4676000   0.50388446   -3.1723452    2814.0328  0.050150286  0.049233865           30 
 4677000   0.50408251   -3.1610704    2821.0201   0.05026406   0.04922274           15 
 4678000   0.50055384   -3.1703739    2814.7556  0.050141721  0.049211585            8 
 4679000    0.5173833   -3.1615018     2817.246  0.050175359  0.049200437            8 
 4680000    0.4988933   -3.1691817    2812.4835  0.050079835  0.049189304           13 
 4681000   0.50145093   -3.1672093    2819.3377  0.050191158  0.049178203            9 
 4682000   0.50066328   -3.1801141    2817.0467   0.05013966   0.04916704           10 
 4683000   0.50705974   -3.1708988     2821.888  0.050215104  0.049155945           10 
 4684000   0.49960117   -3.1649688     2822.589  0.050216856  0.049144888            7 
 4685000   0.49742191   -3.1765536    2831.5263  0.050365107  0.049133781           11 
 4686000   0.49475146   -3.1749586    2811.9177   0.05000565  0.049122669           12 
 4687000   0.51023399   -3.1765265    2824.3919  0.050216767  0.049111554           18 
 4688000   0.49871132    -3.167829      2820.57  0.050138119   0.04910045           14 
 4689000   0.50598994   -3.1727794    2822.6102  0.050163685  0.049089302            9 
 4690000   0.50006683    -3.180387    2816.2807  0.050040524  0.049078176           22 
 4691000   0.50731764   -3.1469181    2826.0705  0.050203767  0.049067088            9 
 4692000   0.50673451   -3.1693046    2824.3864  0.050163158  0.049056028           12 
 4693000   0.49740415   -3.1704124    2826.4437     0.050189  0.049044905           11 
 4694000   0.48509681   -3.1703436     2826.436   0.05017817  0.049033835           21 
 4695000   0.49601174   -3.1737615    2822.2371  0.050092956  0.049022766           16 
 4696000   0.50757504   -3.1697385    2814.9837  0.049953573  0.049011636           12 
 4697000   0.50736768   -3.1822186    2820.5262   0.05004127  0.049000555           13 
 4698000   0.50312244      -3.1774    2824.4731   0.05010063   0.04898946           19 
 4699000   0.49595699    -3.176908    2816.9696  0.049956898  0.048978355           25 
 4700000   0.49848112   -3.1799709    2823.7027  0.050065651  0.048967273           15 
 4701000   0.50353577   -3.1708069    2821.6322  0.050018298  0.048956169           10 
 4702000    0.4996783   -3.1786112    2822.2609  0.050018802  0.048945046           13 
 4703000   0.49637709   -3.1785524    2813.2529  0.049848552  0.048933887           35 
 4704000   0.49847368   -3.1754113    2812.7002  0.049828164  0.048922747           24 
 4705000   0.47764146   -3.1650427    2820.9393  0.049963502  0.048911593            7 
 4706000   0.49592744   -3.1782482    2818.4976  0.049909647  0.048900486           24 
 4707000    0.4977004   -3.1515395    2824.7255  0.050009303  0.048889398           11 
 4708000    0.4916433   -3.1750817    2824.4466  0.049993744   0.04887831           19 
 4709000   0.50178326   -3.1662178    2813.6164  0.049791471  0.048867184           15 
 4710000   0.49636979   -3.1705086    2821.2184    0.0499154  0.048856097           21 
 4711000   0.49328163   -3.1702245    2823.7373  0.049949361  0.048845036           13 
 4712000   0.50107452   -3.1742965    2822.7135  0.049920655  0.048833972            7 
 4713000   0.48978938   -3.1629843    2823.1329  0.049917479  0.048822933            9 
 4714000   0.50586306   -3.1663322    2822.2855  0.049891909  0.048811883           19 
 4715000   0.49487017   -3.1751598     2818.112  0.049807565  0.048800788            9 
 4716000   0.49719419   -3.1716925    2823.5357  0.049892842  0.048789685           16 
 4717000   0.50361133   -3.1811956    2814.4508  0.049721765  0.048778559            8 
 4718000   0.49300316   -3.1824984    2817.8558  0.049771368  0.048767433           19 
 4719000   0.48758934    -3.173547    2821.6707  0.049828189  0.048756327           18 
 4720000   0.50302252   -3.1664997    2818.9542  0.049769672  0.048745225           13 
 4721000   0.49931607   -3.1702271    2817.4543  0.049732654  0.048734115           11 
 4722000   0.49867937   -3.1875916    2816.2432  0.049700749  0.048723005           21 
 4723000   0.49613433   -3.1898114    2818.2736   0.04972605  0.048711903           12 
 4724000   0.48697691   -3.1750098    2815.7952  0.049671804  0.048700809            6 
 4725000   0.50560903   -3.1839384    2821.5861  0.049763424  0.048689723           27 
 4726000   0.49314797   -3.1822882    2822.0796  0.049761596  0.048678641           22 
 4727000   0.49291598   -3.1798792    2823.4031  0.049774401  0.048667596           12 
 4728000   0.50932982   -3.1966918    2823.4564  0.049764813  0.048656535           10 
 4729000   0.50011027   -3.1867975    2816.2797  0.049627824  0.048645447           11 
 4730000   0.49661867   -3.1920683     2812.944  0.049558562  0.048634377            7 
 4731000   0.49412647   -3.1811584    2817.3371  0.049625469  0.048623283           22 
 4732000    0.4923094   -3.1680546    2819.9583  0.049661143  0.048612171            8 
 4733000   0.48866786   -3.1842391     2822.926  0.049702902  0.048601114           14 
 4734000   0.49862851   -3.1892615    2818.2338  0.049609804  0.048590062            7 
 4735000   0.50468826   -3.1857673     2819.365  0.049619236  0.048579026           11 
 4736000   0.49195878   -3.1990979    2816.6447  0.049560894  0.048567892            7 
 4737000   0.49917264   -3.1793446    2822.1038  0.049646468  0.048556785           10 
 4738000   0.49750592   -3.1897613    2822.0084  0.049634311  0.048545737           14 
 4739000   0.48631895   -3.1928136    2822.0342  0.049624291  0.048534697            7 
 4740000   0.49527056   -3.1820367     2813.003  0.049455045  0.048523631           20 
 4741000   0.49213971   -3.1927982    2818.8974  0.049548221  0.048512596            8 
 4742000   0.49495392   -3.1769414    2816.5313  0.049496192  0.048501585           30 
 4743000   0.49141748   -3.1805131    2820.0552  0.049547671  0.048490562           26 
 4744000   0.49452121   -3.1949724    2821.7615  0.049567199  0.048479478           11 
 4745000   0.50672676   -3.1787593    2818.5626  0.049500572  0.048468412            5 
 4746000   0.49360693   -3.1870361    2819.3825  0.049504538  0.048457376           13 
 4747000   0.48814339   -3.1792349    2812.2754  0.049369345  0.048446302           13 
 4748000   0.49040907   -3.1894497    2822.5922   0.04954002  0.048435233           16 
 4749000   0.49429999   -3.1953133    2814.9137  0.049394849  0.048424161           13 
 4750000   0.50282801   -3.1823579    2817.0204   0.04942141  0.048413118           18 
 4751000   0.49016033   -3.2099869    2821.2265  0.049484784  0.048402063           14 
 4752000   0.48617808   -3.2012111    2818.6884  0.049429862  0.048390959            7 
 4753000   0.49858825   -3.1817122    2816.8408  0.049387068  0.048379884           15 
 4754000   0.48964832   -3.1879309      2819.73  0.049427325  0.048368803           13 
 4755000   0.49363318   -3.1891904    2828.6216  0.049572759   0.04835777           10 
 4756000   0.49004685    -3.181181    2820.2313  0.049415322  0.048346722           19 
 4757000    0.4879515   -3.1903033    2822.2644  0.049440551  0.048335685           13 
 4758000   0.49722962   -3.1786185    2817.4358   0.04934559  0.048324661           11 
 4759000   0.49607812   -3.2073338    2820.5135  0.049389114  0.048313635           21 
 4760000   0.50537222   -3.2009326     2824.062  0.049440861  0.048302604           28 
 4761000    0.4887179   -3.1888899    2819.4013  0.049348898  0.048291574           15 
 4762000   0.49206856   -3.2023046    2819.9318  0.049347819  0.048280521           14 
 4763000   0.49495599   -3.1756294    2816.1997  0.049272162  0.048269462           16 
 4764000   0.47479969    -3.189879    2818.2829  0.049298259   0.04825844           24 
 4765000   0.48741855   -3.1954827    2818.0655  0.049284111  0.048247426           14 
 4766000   0.48525018   -3.1762081     2814.244  0.049206951  0.048236426           15 
 4767000   0.48928902   -3.1933576    2823.7316  0.049362484  0.048225456           13 
 4768000   0.49515056   -3.1977816    2819.1067  0.049271299  0.048214438           12 
 4769000   0.49274641   -3.1910948    2818.0351  0.049242243  0.048203473           15 
 4770000   0.48769803   -3.1734597    2818.5602  0.049241094  0.048192449           24 
 4771000   0.49015814   -3.2072812    2823.6151  0.049319064  0.048181428           25 
 4772000   0.48145241   -3.2017708    2814.7061  0.049153152  0.048170402           30 
 4773000   0.49170726   -3.1875405    2824.8462  0.049319894  0.048159404           35 
 4774000   0.49859091   -3.1782621    2817.6198   0.04918342  0.048148402           12 
 4775000   0.48804249    -3.189162    2824.8932  0.049300056  0.048137407           31 
 4776000   0.48777249   -3.1930264    2822.9451  0.049255742  0.048126389           11 
 4777000   0.48988363   -3.2092079    2812.9441  0.049070968  0.048115346           14 
 4778000   0.49425885   -3.2021891    2822.2566  0.049223117  0.048104298           10 
 4779000   0.49668658   -3.1973614    2822.1979  0.049211792  0.048093298           18 
 4780000    0.4827132   -3.1994631    2825.5636  0.049260174  0.048082351           24 
 4781000   0.49321028   -3.2042999    2823.4188  0.049212487   0.04807133           17 
 4782000   0.48987383   -3.2006913     2824.975  0.049229315  0.048060328           27 
 4783000   0.48282323   -3.2035786     2828.959  0.049288435  0.048049342           26 
 4784000   0.48418367   -3.1995892    2824.5604  0.049201513  0.048038351           13 
 4785000   0.48342409   -3.2037188    2817.0639  0.049060674  0.048027368           21 
 4786000   0.50220249   -3.1961486    2819.0463  0.049084941  0.048016397           12 
 4787000   0.48651332   -3.1943696     2824.312  0.049166353  0.048005458           10 
 4788000   0.49198258   -3.1731926    2823.5266  0.049142415  0.047994527           15 
 4789000   0.47295474   -3.2002575    2824.2492  0.049144727  0.047983599           20 
 4790000   0.48805507    -3.193776     2820.088  0.049062075  0.047972652           29 
 4791000   0.48266549   -3.2126087    2824.4882   0.04912837  0.047961711           15 
 4792000   0.49403066    -3.204967    2825.1942  0.049130394  0.047950769            9 
 4793000   0.47122331   -3.2042843    2820.5379  0.049039187  0.047939788           16 
 4794000   0.48538901   -3.1842285    2818.5454  0.048994324  0.047928848           18 
 4795000   0.48989323   -3.2067342    2817.6426  0.048968414  0.047917919           12 
 4796000   0.47932021   -3.1947526    2823.7162  0.049063736  0.047906996           12 
 4797000   0.48021799    -3.198005    2824.2337    0.0490625  0.047896083           20 
 4798000   0.47626041   -3.2003375    2814.8253  0.048888864  0.047885143           22 
 4799000   0.47595449   -3.2207217    2818.4687  0.048941945  0.047874141           18 
 4800000   0.47969632   -3.2144054    2827.8504  0.049094625  0.047863121           12 
 4801000   0.48772216   -3.2138152    2828.5372   0.04909632  0.047852187            9 
 4802000   0.48183574   -3.1875579    2822.4088  0.048979744  0.047841237           16 
 4803000   0.47630294   -3.1897605    2819.1261  0.048912592  0.047830281           20 
 4804000   0.47920359   -3.1918886    2822.1746  0.048955291  0.047819377           13 
 4805000   0.48621791   -3.1922536    2817.0128  0.048855582  0.047808447           19 
 4806000   0.47921503   -3.2133846    2821.8956  0.048930081  0.047797501           12 
 4807000   0.47931648   -3.2027442    2825.4279  0.048981137  0.047786554           34 
 4808000   0.49477425   -3.2046065    2823.2729  0.048933598  0.047775651           27 
 4809000   0.47629572   -3.2225029    2822.5555  0.048910991  0.047764711           29 
 4810000   0.48832231   -3.1965621    2817.1655  0.048807441  0.047753742           48 
 4811000   0.48844221   -3.1962887    2825.3086  0.048938347  0.047742797           12 
 4812000   0.47868877   -3.2051684    2825.7834  0.048936398  0.047731864           11 
 4813000   0.47954486   -3.1951986    2825.8354  0.048927132  0.047720938           17 
 4814000   0.48825011   -3.2037732    2819.5717  0.048808539  0.047710012           15 
 4815000   0.47342601   -3.2022397    2827.5406  0.048936321  0.047699134            8 
 4816000   0.49324191   -3.2212702    2820.7162  0.048808074  0.047688239           13 
 4817000   0.48549388   -3.2105349    2819.7073  0.048780487  0.047677326           21 
 4818000   0.48813957   -3.1812427    2823.4521  0.048835134  0.047666466           17 
 4819000   0.48017672   -3.1986241     2825.736  0.048864494   0.04765558           31 
 4820000   0.48489992   -3.2133849    2825.9362  0.048857819  0.047644665           17 
 4821000    0.4757302    -3.206304    2820.7138  0.048757412  0.047633733           10 
 4822000   0.47657463   -3.2165391    2821.8819  0.048767487  0.047622821           16 
 4823000   0.48016742   -3.2117093    2823.2466  0.048780955  0.047611936           18 
 4824000   0.47871654   -3.2072986     2821.945  0.048748359  0.047601059           16 
 4825000   0.46812314   -3.2275533    2831.8999  0.048910189   0.04759015            9 
 4826000   0.48451818   -3.2050681    2822.8038  0.048742985  0.047579273           22 
 4827000   0.48050985    -3.215371    2820.4268  0.048691851  0.047568363           22 
 4828000   0.47704545   -3.2111981    2820.0779  0.048675744  0.047557454            9 
 4829000   0.47928257   -3.2339617    2816.8253  0.048609534  0.047546514           12 
 4830000   0.49015725   -3.2216447    2820.1126  0.048656188  0.047535564           16 
 4831000   0.47175875     -3.23196    2808.7903  0.048450809  0.047524527           22 
 4832000   0.47263591   -3.2140115     2817.923  0.048598286  0.047513559           31 
 4833000   0.47230637    -3.205975    2818.6391  0.048600577  0.047502637           16 
 4834000   0.46983706   -3.2171649    2823.9281  0.048681701   0.04749172           11 
 4835000   0.48565979   -3.2038449    2821.6785   0.04863286  0.047480798           16 
 4836000   0.47867746   -3.2188186    2820.5339  0.048603079   0.04746988           19 
 4837000   0.48399255   -3.2328756    2820.7201  0.048596239  0.047458962           13 
 4838000   0.47834351   -3.2030073     2828.499  0.048720184  0.047448086            8 
 4839000   0.48606191    -3.193192     2820.529  0.048572863  0.047437205           15 
 4840000   0.46306813   -3.2162153    2819.0298  0.048537014   0.04742634           23 
 4841000   0.47514806   -3.2109888    2826.5727  0.048656832  0.047415434           30 
 4842000   0.46970741   -3.1976712    2824.0217  0.048602879  0.047404581           16 
 4843000   0.48038561   -3.2177122    2818.1343  0.048491539  0.047393741           30 
 4844000   0.48648936   -3.2153307    2823.2171  0.048568971  0.047382878            8 
 4845000   0.47621556   -3.2225767    2825.2636  0.048594146     0.047372           21 
 4846000   0.48992452   -3.2088423    2824.9351  0.048578468  0.047361163           37 
 4847000   0.47909055   -3.2064817    2826.6144  0.048597319  0.047350324           40 
 4848000   0.48423734   -3.2087919    2831.3537  0.048668758  0.047339507           22 
 4849000   0.47684244   -3.2161001    2821.2686  0.048485403  0.047328695            9 
 4850000   0.47919081   -3.2204258    2830.3928  0.048632179  0.047317855            7 
 4851000   0.48018215   -3.2327347    2821.6001  0.048471107  0.047307001           15 
 4852000   0.47760339    -3.210573    2827.5716  0.048563679  0.047296176           17 
 4853000     0.473626   -3.2181054      2827.44  0.048551411  0.047285357           21 
 4854000   0.48507651   -3.2136064    2831.4415  0.048610107  0.047274561           10 
 4855000   0.46662643    -3.214421    2827.5564  0.048533409   0.04726374           15 
 4856000   0.48065764   -3.1854312    2821.5677  0.048420642   0.04725296           11 
 4857000   0.47437089    -3.214548    2828.3583  0.048527182  0.047242169            9 
 4858000   0.46050687   -3.2215411    2825.6492  0.048470721  0.047231371           17 
 4859000   0.47494575   -3.2219763     2820.766  0.048376998  0.047220518            6 
 4860000   0.47543637     -3.22256    2821.3705   0.04837741  0.047209661           10 
 4861000   0.46756243   -3.2086082    2822.2423  0.048382403  0.047198824           11 
 4862000   0.46266594   -3.2005404     2825.042  0.048420437  0.047187962           31 
 4863000   0.48592846   -3.2193855    2820.6277  0.048334836  0.047177156           14 
 4864000   0.46832306   -3.2098845    2823.2736  0.048370231  0.047166359           21 
 4865000   0.47663095   -3.2276365     2825.426  0.048397157  0.047155522           17 
 4866000   0.46980841   -3.2161084      2825.77  0.048393101  0.047144673           35 
 4867000   0.46836012   -3.2388437    2826.8007  0.048400806  0.047133822           18 
 4868000   0.46652673   -3.2254941    2822.5367   0.04831787  0.047122967           28 
 4869000   0.46947594   -3.2202133    2824.3461  0.048338914  0.047112151           34 
 4870000   0.48161341   -3.2053917    2829.2573  0.048413026  0.047101368           14 
 4871000   0.46619461   -3.2283116    2832.1703  0.048452924  0.047090626           13 
 4872000   0.46496854   -3.2041632    2828.8731  0.048386581  0.047079841           12 
 4873000   0.47078163   -3.2095787    2821.4997  0.048250559  0.047069133           15 
 4874000   0.46264889   -3.2051211    2822.6938  0.048261075  0.047058392           11 
 4875000   0.47924901   -3.2189426    2816.7045  0.048148794  0.047047609           19 
 4876000   0.47173385   -3.2282001    2816.2428   0.04813103  0.047036777           12 
 4877000   0.47531596   -3.2260885    2824.0971  0.048255367  0.047025921           14 
 4878000    0.4793003   -3.2196946    2818.3144  0.048146685  0.047015109           16 
 4879000   0.46866444   -3.2066211    2818.7901  0.048144942  0.047004321           39 
 4880000   0.47131623   -3.2164927    2823.0505   0.04820783  0.046993537            9 
 4881000   0.47142686    -3.226382    2821.1578  0.048165639  0.046982756           20 
 4882000   0.47979708   -3.2232747    2815.2512  0.048054949  0.046971941           13 
 4883000   0.47931344   -3.2300942    2823.1149   0.04817931  0.046961085           29 
 4884000   0.45971378    -3.228205    2823.9507  0.048183707  0.046950251           13 
 4885000   0.46593329   -3.2176679    2822.0981  0.048142239    0.0469394           25 
 4886000   0.47432442   -3.2241323    2821.7685  0.048126765  0.046928557           22 
 4887000   0.46009639   -3.2246519    2822.6109  0.048131282  0.046917731           32 
 4888000   0.46844199   -3.2226977    2823.8681  0.048142868  0.046906904           22 
 4889000   0.48383773   -3.2298754    2821.4363  0.048091572  0.046896045           16 
 4890000   0.47333577   -3.2227118     2820.196  0.048060599  0.046885178           12 
 4891000   0.46966693   -3.2473165    2822.6127   0.04809195  0.046874312           46 
 4892000   0.47249828   -3.2559069    2822.4327  0.048079053  0.046863445           21 
 4893000    0.4659185   -3.2325483    2818.9892   0.04801058  0.046852564           34 
 4894000   0.46431732   -3.2351317    2820.1682  0.048020845  0.046841692           24 
 4895000   0.46424993   -3.2217758    2816.7632  0.047953068  0.046830825           22 
 4896000   0.46843709   -3.2417484    2818.3245  0.047969848  0.046819967           16 
 4897000   0.46144734   -3.2270904    2821.1221  0.048007659  0.046809114           58 
 4898000   0.45999766   -3.2189178    2819.8599  0.047976383  0.046798303           49 
 4899000   0.47364666   -3.2158362    2817.3946  0.047924655  0.046787494           17 
 4900000   0.47168526   -3.2179109    2824.2505   0.04803147  0.046776682           28 
 4901000   0.46524557   -3.2107591    2828.9466   0.04810152  0.046765868           27 
 4902000   0.46829369   -3.2352391    2820.5585  0.047949111  0.046755073           13 
 4903000   0.46474028   -3.2324039    2818.9966  0.047912784  0.046744224           13 
 4904000   0.47850365   -3.2279552    2819.5067  0.047911683  0.046733397           25 
 4905000   0.45316423   -3.2344407    2819.5859   0.04790326  0.046722582           45 
 4906000    0.4738983   -3.2474121    2815.0183  0.047815911   0.04671173           18 
 4907000   0.47867144   -3.2195994     2828.597  0.048036768  0.046700897           34 
 4908000   0.47889608   -3.2357228    2820.7826  0.047894299  0.046690056           48 
 4909000   0.47499666   -3.2087253    2821.5819  0.047898111  0.046679258           22 
 4910000    0.4674081   -3.2328387    2823.3255  0.047917949  0.046668443           18 
 4911000   0.46515428   -3.2192178      2825.67  0.047947975   0.04665764           18 
 4912000   0.46763853   -3.2238312    2822.5623  0.047885489   0.04664679           16 
 4913000    0.4703044   -3.2242454    2824.2926  0.047905092  0.046636028           20 
 4914000    0.4688128   -3.2422589    2815.2757  0.047742431  0.046625239           33 
 4915000   0.46326104   -3.2357617    2824.6239  0.047891216  0.046614425           14 
 4916000   0.47018766   -3.2297904     2820.398  0.047809838  0.046603636           10 
 4917000   0.45940883   -3.2232302    2814.1822  0.047694769  0.046592834            9 
 4918000   0.47486774   -3.2403993    2828.6615  0.047930417  0.046582022           31 
 4919000   0.46674323   -3.2285736     2824.219  0.047845412  0.046571251           17 
 4920000   0.46933171   -3.2399138    2822.6747   0.04780953  0.046560443           18 
 4921000   0.47094943   -3.2302505    2823.7094  0.047817336  0.046549641           29 
 4922000   0.45673323    -3.229027    2819.4667   0.04773579  0.046538846           17 
 4923000   0.46555034   -3.2321241    2822.8292  0.047783012  0.046528037           23 
 4924000   0.46910193   -3.2213886    2818.0954  0.047693193  0.046517224           17 
 4925000   0.46135591   -3.2492828    2818.6522   0.04769293  0.046506431           14 
 4926000   0.47216577   -3.2346621    2821.8481  0.047737313  0.046495625           23 
 4927000   0.47902932   -3.2104684    2815.4964  0.047620195  0.046484813           25 
 4928000   0.45919889   -3.2403206    2822.7423  0.047733062  0.046474025           18 
 4929000   0.46421645    -3.237061    2827.0502  0.047796209  0.046463241           63 
 4930000   0.46498805    -3.230869    2816.8449  0.047614011  0.046452441           99 
 4931000   0.46891866   -3.2377386    2818.4242  0.047631045  0.046441629           96 
 4932000   0.46444529   -3.2374819    2825.4675  0.047740394  0.046430857           23 
 4933000   0.46463754   -3.2409158    2817.6544  0.047598729  0.046420078           21 
 4934000   0.46308124   -3.2430599    2826.5223  0.047738857  0.046409319           13 
 4935000   0.47105697   -3.2348517    2818.4017  0.047592059  0.046398555           24 
 4936000   0.46291592   -3.2370994    2822.5281  0.047652082    0.0463878           28 
 4937000   0.46389953   -3.2489838    2826.9466  0.047717012  0.046377042           58 
 4938000   0.46464199   -3.2315567    2818.2904  0.047561266  0.046366289           19 
 4939000   0.45960244   -3.2372714    2823.8248  0.047645016   0.04635553           20 
 4940000   0.45885768   -3.2472926     2818.699  0.047548903  0.046344779           94 
 4941000   0.45882162   -3.2392469    2827.6185  0.047689714   0.04633403           30 
 4942000   0.46615136   -3.2356517    2815.4818  0.047475411  0.046323259           20 
 4943000   0.46570202   -3.2325229    2818.4443  0.047515751  0.046312526           33 
 4944000   0.44922954   -3.2408885    2817.2265  0.047485614  0.046301784           24 
 4945000   0.46510678   -3.2557471     2816.209  0.047458864  0.046291026           32 
 4946000    0.4600372   -3.2427384    2815.0954  0.047430506  0.046280283           25 
 4947000   0.44905497   -3.2565532    2814.2472   0.04740663  0.046269543           46 
 4948000   0.45255941    -3.243474    2823.2436  0.047548565  0.046258802           79 
 4949000   0.44872228   -3.2520495    2819.3098  0.047472718  0.046248033           65 
 4950000   0.46064492   -3.2411005    2827.2317  0.047596493  0.046237286           69 
 4951000   0.46059714   -3.2537185     2823.313  0.047520921  0.046226596           20 
 4952000   0.45920648   -3.2349803    2822.0897  0.047490739  0.046215907           11 
 4953000   0.46744278   -3.2391375    2822.8286  0.047493584   0.04620521           12 
 4954000   0.45069565   -3.2473693    2822.9592  0.047486193  0.046194533           18 
 4955000   0.45618213   -3.2599922    2820.1772  0.047429822  0.046183803           19 
 4956000   0.46191921   -3.2317072    2818.3408  0.047389373  0.046173104           39 
 4957000   0.46532285   -3.2325538    2822.1521  0.047443885  0.046162437           41 
 4958000   0.45000552    -3.247203    2823.7326  0.047460882  0.046151726           80 
 4959000   0.46101684   -3.2572161    2821.4499  0.047412951  0.046140988           40 
 4960000   0.46920591   -3.2522486     2826.617  0.047490206  0.046130247           17 
 4961000   0.46371424   -3.2401821    2820.1263  0.047371603  0.046119496           24 
 4962000   0.45535583   -3.2507724    2816.2171  0.047296405  0.046108774           31 
 4963000   0.45022268   -3.2506489    2825.1893  0.047437527  0.046098067           40 
 4964000   0.46061715   -3.2385777    2821.3679  0.047363818  0.046087339           69 
 4965000    0.4497851   -3.2385938    2821.2315  0.047351989  0.046076622           41 
 4966000    0.4651957   -3.2594487    2822.6708  0.047366606  0.046065906           13 
 4967000   0.45463812   -3.2684672       2826.4  0.047419637  0.046055167           17 
 4968000   0.45629489   -3.2458121    2821.5705  0.047329081  0.046044465           23 
 4969000   0.45828174   -3.2533754    2823.1884  0.047346689  0.046033792           26 
 4970000   0.46004195   -3.2345732    2818.6663   0.04726134  0.046023074           22 
 4971000   0.46251731   -3.2435176    2827.8264  0.047405392  0.046012393           44 
 4972000   0.45668808   -3.2451247    2822.1572  0.047300837  0.046001736           31 
 4973000   0.46088193   -3.2338791    2820.4658  0.047262983  0.045991038           51 
 4974000   0.46160793   -3.2545905    2825.5981  0.047339467  0.045980371           11 
 4975000   0.45084439   -3.2390463    2818.9895  0.047219255  0.045969708           28 
 4976000   0.45527759   -3.2395519    2825.8771  0.047325112  0.045959042           35 
 4977000   0.45743231   -3.2480089    2821.2207  0.047237638  0.045948412           12 
 4978000   0.44731571   -3.2378283    2819.3032  0.047196049  0.045937748           35 
 4979000   0.45355903   -3.2488252    2825.9803  0.047298325  0.045927116           12 
 4980000   0.45028855   -3.2647149    2825.9899  0.047288987  0.045916478           21 
 4981000   0.45880962   -3.2488339    2823.1778  0.047232446  0.045905841           16 
 4982000   0.47309978   -3.2456081    2820.5479  0.047178976  0.045895193            9 
 4983000   0.45627667    -3.262876     2828.368  0.047300288  0.045884507           86 
 4984000   0.45259409   -3.2550811    2824.9441  0.047233549  0.045873829           38 
 4985000    0.4579596   -3.2511625    2821.1073  0.047159934  0.045863156           30 
 4986000    0.4596231     -3.26613    2818.1127  0.047100426  0.045852463           13 
 4987000   0.45605127   -3.2490755    2819.2896  0.047110648  0.045841746           17 
 4988000   0.45187211   -3.2402273    2816.7525  0.047058816  0.045831038           13 
 4989000   0.45252925   -3.2489081    2821.9185  0.047135674  0.045820385           23 
 4990000   0.44699989   -3.2633509    2824.3171  0.047166284  0.045809709           46 
 4991000   0.46286257   -3.2558305    2825.4447   0.04717566  0.045799053           23 
 4992000    0.4489181   -3.2639271    2821.3022  0.047097059  0.045788374           21 
 4993000   0.45945843   -3.2603454    2822.1834  0.047102334  0.045777736           10 
 4994000   0.44686947   -3.2525402    2824.9698  0.047139398   0.04576708           14 
 4995000   0.44959944   -3.2595714    2820.2512  0.047051237  0.045756433           26 
 4996000   0.45804789   -3.2575694    2811.4643  0.046895255  0.045745748           17 
 4997000   0.45135231    -3.264764    2818.9495  0.047010698  0.045735047           20 
 4998000   0.45366348   -3.2649652    2811.7504  0.046881259  0.045724348           29 
 4999000   0.44657816   -3.2481528    2824.9319  0.047091617  0.045713676           12 
 5000000   0.44440604   -3.2620674    2825.3445  0.047089075  0.045703037           23 
 5001000   0.44539415   -3.2539375    2825.2134  0.047077475  0.045692363           12 
 5002000   0.45927826   -3.2625014    2819.1257  0.046966641  0.045681691           16 
 5003000   0.45650269   -3.2508199    2819.9119  0.046970349  0.045670993           47 
 5004000   0.45456666   -3.2632833    2822.7192  0.047007713  0.045660323           43 
 5005000   0.45129234   -3.2510267      2820.55  0.046962205  0.045649639           35 
 5006000   0.45387419    -3.255097    2816.9238  0.046892458  0.045638939           20 
 5007000   0.44544687   -3.2435309    2812.2152  0.046804727  0.045628213           30 
 5008000   0.44973917   -3.2611651    2818.9025  0.046906657  0.045617489           18 
 5009000   0.45684166   -3.2574211    2821.1986  0.046935493  0.045606828           15 
 5010000   0.45006269   -3.2543781    2820.0945   0.04690776  0.045596177           14 
 5011000   0.44392676   -3.2639629    2822.7585  0.046942702  0.045585533           18 
 5012000   0.45518727    -3.263568    2818.2319  0.046858073  0.045574912           11 
Loop time of 12081 on 48 procs for 5000000 steps with 4000 atoms

Performance: 71517.310 tau/day, 413.873 timesteps/s
99.4% CPU use with 48 MPI tasks x no OpenMP threads

MPI task timing breakdown:
Section |  min time  |  avg time  |  max time  |%varavg| %total
---------------------------------------------------------------
Pair    | 763.16     | 841.65     | 901.03     |  99.4 |  6.97
Neigh   | 80.077     | 83.771     | 87.253     |  21.0 |  0.69
Comm    | 772.08     | 831.56     | 897.2      | 104.2 |  6.88
Output  | 13.801     | 13.818     | 13.894     |   0.3 |  0.11
Modify  | 10172      | 10201      | 10229      |  13.8 | 84.43
Other   |            | 109.6      |            |       |  0.91

Nlocal:        83.3333 ave          90 max          77 min
Histogram: 2 2 3 10 7 7 11 3 1 2
Nghost:        2159.40 ave        2176 max        2145 min
Histogram: 2 6 8 6 5 8 3 4 3 3
Neighs:        14233.8 ave       15426 max       12456 min
Histogram: 1 3 1 4 5 6 11 8 4 5
FullNghs:      28468.3 ave       30733 max       26096 min
Histogram: 2 0 6 8 6 9 8 6 2 1

Total # of neighbors = 1366480
Ave neighs/atom = 341.62000
Neighbor list builds = 271738
Dangerous builds = 0

#clear
#
#next RN
#
#jump SELF
Total wall time: 3:21:24
