
units lj                  # Use reduced LJ style units
atom_style atomic         # Uncharged point particles
atom_modify map hash      # Needed for indexing of clusters etc
                          # Used to be able to find where atoms are in relation to each other.

lattice fcc 1.0 spacing 1 1 1
Lattice spacing in x,y,z = 1.5874011 1.5874011 1.5874011
region box block 0 10 0 10 0 10 units lattice
create_box 2 box
Created orthogonal box = (0.0000000 0.0000000 0.0000000) to (15.874011 15.874011 15.874011)
  3 by 4 by 4 MPI processor grid
create_atoms 1 box
Created 4000 atoms
  using lattice units in orthogonal box = (0.0000000 0.0000000 0.0000000) to (15.874011 15.874011 15.874011)
  create_atoms CPU = 0.002 seconds
set type 1 type/fraction 2 0.31 78393
Setting atom values ...
  1268 settings made for type/fraction
mass 1 1.0
mass 2 1.0
pair_style lj/cut  3.5
pair_modify tail  yes
pair_coeff 1  1  1.0  1.0   # Intearaction between 1 and 1 set with epsilon = 1 and sigma = 1
pair_coeff 1  2  1.5  0.8
pair_coeff 2  2  0.5  0.88

write_data data.0
System init for write_data ...
Neighbor list info ...
  update every 1 steps, delay 10 steps, check yes
  max neighbors/atom: 2000, page size: 100000
  master list distance cutoff = 3.8
  ghost atom cutoff = 3.8
  binsize = 1.9, bins = 9 9 9
  1 neighbor lists, perpetual/occasional/extra = 1 0 0
  (1) pair lj/cut, perpetual
      attributes: half, newton on
      pair build: half/bin/atomonly/newton
      stencil: half/bin/3d
      bin: standard
WARNING: Not all mixed pair coeffs generated from mixing. Use write_data with 'pair ij' option to store all pair coeffs. (../write_data.cpp:312)


#############################
#   M E L T   S Y S T E M   #
#############################

velocity all create 2.4 9622624 mom yes dist gaussian # Assign velocities
                                                    # Temperature 2.4, random number seed, zero linear momentum
                                                                                # Gaussian distribution

timestep 0.002   # simulation timestep
thermo 1000       # output thermodynamic data every 1000 steps bf 100

# Define a fix  in this case with index 1 applied to all
# particles in the simulation. This fix is for simulations
# in the anisotropic NPT ensemble. Note that we use the MTK
# correction.
fix 1 all npt temp 2.4 2.4 0.1 iso 5.68 5.68 0.5 mtk yes tchain 5 pchain 5 # Use NPT ensemble
                                                                         # Set temperature and pressure and damping
                                                                         # Numbers of thermostats in chain and in barostat
run 10000          # run for 10000 steps
Per MPI rank memory allocation (min/avg/max) = 3.642 | 3.644 | 3.648 Mbytes
Step Temp E_pair E_mol TotEng Press Volume 
       0          2.4   -6.3727134            0   -2.7736134   -4.0086663         4000 
    1000    2.3511765   -4.9880173            0   -1.4621343    5.5190256    4141.7029 
    2000    2.3696198   -4.9674348            0   -1.4138938    5.7818213    4130.8393 
    3000    2.4056258   -5.0685959            0   -1.4610594     5.462399    4109.7266 
    4000    2.4151662   -5.0254567            0   -1.4036131    5.5074146    4116.3813 
    5000    2.3758292   -5.0001026            0   -1.4372498    5.6611532    4125.1694 
    6000    2.4410093   -4.9687292            0   -1.3081307    5.5873087    4149.7751 
    7000    2.4468914   -5.0566799            0   -1.3872604    5.6233719    4111.2329 
    8000    2.4659174   -4.9797665            0   -1.2818151    5.8566186    4117.8402 
    9000    2.4370446   -4.9236251            0   -1.2689721    5.9323223    4134.5466 
   10000    2.4066475   -5.0023879            0   -1.3933191     5.448497    4143.7087 
Loop time of 2.40265 on 48 procs for 10000 steps with 4000 atoms

Performance: 719205.254 tau/day, 4162.067 timesteps/s
99.7% CPU use with 48 MPI tasks x no OpenMP threads

MPI task timing breakdown:
Section |  min time  |  avg time  |  max time  |%varavg| %total
---------------------------------------------------------------
Pair    | 1.0574     | 1.1132     | 1.1834     |   2.9 | 46.33
Neigh   | 0.20499    | 0.21008    | 0.21963    |   0.8 |  8.74
Comm    | 0.73961    | 0.81163    | 0.87006    |   3.5 | 33.78
Output  | 0.00023246 | 0.0002409  | 0.00030696 |   0.0 |  0.01
Modify  | 0.23183    | 0.25268    | 0.27205    |   2.0 | 10.52
Other   |            | 0.01487    |            |       |  0.62

Nlocal:        83.3333 ave          94 max          75 min
Histogram: 1 2 11 6 11 9 3 3 1 1
Nghost:        1606.46 ave        1640 max        1578 min
Histogram: 1 3 4 9 9 17 3 0 0 2
Neighs:        9205.62 ave       10418 max        8084 min
Histogram: 1 2 6 8 11 9 4 1 4 2

Total # of neighbors = 441870
Ave neighs/atom = 110.46750
Neighbor list builds = 905
Dangerous builds = 197

# Equilibrate just above the melting temperature to avoid step fn in T

fix 1 all npt temp 1.25 1.25 0.1 iso 5.68 5.68 0.5 mtk yes tchain 5 pchain 5
run 2000
Per MPI rank memory allocation (min/avg/max) = 3.643 | 3.645 | 3.649 Mbytes
Step Temp E_pair E_mol TotEng Press Volume 
   10000    2.4066475   -5.0023879            0   -1.3933191     5.448497    4143.7087 
   11000    1.2527467   -6.8767473            0    -4.998097    5.7300774    3312.9205 
   12000    1.2283511   -6.9055925            0   -5.0635265    5.5664887    3309.3942 
Loop time of 0.696239 on 48 procs for 2000 steps with 4000 atoms

Performance: 496381.464 tau/day, 2872.578 timesteps/s
99.1% CPU use with 48 MPI tasks x no OpenMP threads

MPI task timing breakdown:
Section |  min time  |  avg time  |  max time  |%varavg| %total
---------------------------------------------------------------
Pair    | 0.24366    | 0.27018    | 0.2971     |   2.3 | 38.81
Neigh   | 0.035987   | 0.038502   | 0.04133    |   0.6 |  5.53
Comm    | 0.16965    | 0.20271    | 0.28675    |   4.3 | 29.12
Output  | 4.9826e-05 | 5.1121e-05 | 6.5709e-05 |   0.0 |  0.01
Modify  | 0.10147    | 0.1801     | 0.18538    |   3.1 | 25.87
Other   |            | 0.004697   |            |       |  0.67

Nlocal:        83.3333 ave          89 max          76 min
Histogram: 4 2 4 4 3 3 13 6 4 5
Nghost:        1863.50 ave        1892 max        1839 min
Histogram: 3 3 4 9 5 13 7 2 0 2
Neighs:        11563.9 ave       12816 max        9852 min
Histogram: 2 0 2 7 6 7 7 9 4 4

Total # of neighbors = 555068
Ave neighs/atom = 138.76700
Neighbor list builds = 140
Dangerous builds = 13

#############################
# L I N E A R  Q U E N C H  #
#############################

# Define solid atoms. This closely follows ten Wolde  Ruiz-Montero and Frenkel  Faraday Discuss  1996  104  93-110
# Compute components of the per-atom q6 vector
compute q6 all orientorder/atom degrees 1 6 components 6 nnn NULL cutoff 1.3 # compute the Q6 parameter.
                                                                             # Use all neighbours within 1.3 unit cell.

# get number of connections
compute coord_number all coord/atom orientorder q6 0.5

# An atom is solid if it has 8 or more connections (of a possible 14)
variable is_solid atom c_coord_number>=8
group solid dynamic all var is_solid    # Must be dynamic to update
dynamic group solid defined

# do clustering
compute cluster solid cluster/atom 1.3 # Create a cluster where all atoms within are solid and max 1.3 units from another member

# define chunks one chunk per cluster
compute clus_chunks solid chunk/atom c_cluster nchunk every compress yes  # Says which atoms are in which chunk

# count the size of each chunk
compute size_chunks solid property/chunk clus_chunks count


# Find the maximum entry in the vector of chunk sizes
variable max_n equal max(c_size_chunks)


# Thermo style which includes this variable
# thermo_style custom step temp pe vol v_max_n

thermo ${N}  # Print the thermo information every 100 steps
thermo 1000  

# Reset the npt fix at a lower temperature (below freezing)
fix 1  all npt temp  ${temp} ${temp}  0.1  iso  5.68  5.68  0.5  mtk yes tchain  5  pchain  5
fix 1  all npt temp  0.45 ${temp}  0.1  iso  5.68  5.68  0.5  mtk yes tchain  5  pchain  5
fix 1  all npt temp  0.45 0.45  0.1  iso  5.68  5.68  0.5  mtk yes tchain  5  pchain  5

dump dmp2 all dcd ${N} traj.dcd
dump dmp2 all dcd 1000 traj.dcd


compute msd all msd com yes
variable twopoint equal c_msd[4]/6/(step*dt+1.0e-6)
fix 9 all vector 10 c_msd[4]
variable fit equal slope(f_9)/6/(10*dt)
thermo_style custom step temp pe c_msd[4] v_twopoint v_fit v_max_n

fix 1 all npt temp 1.25 ${temp} 0.1 iso 5.68 5.68 0.5 mtk yes tchain 5 pchain 5
fix 1 all npt temp 1.25 0.45 0.1 iso 5.68 5.68 0.5 mtk yes tchain 5 pchain 5
run 5000000 # 5000000  # Run for this many steps
Neighbor list info ...
  update every 1 steps, delay 10 steps, check yes
  max neighbors/atom: 2000, page size: 100000
  master list distance cutoff = 3.8
  ghost atom cutoff = 3.8
  binsize = 1.9, bins = 8 8 8
  4 neighbor lists, perpetual/occasional/extra = 1 3 0
  (1) pair lj/cut, perpetual
      attributes: half, newton on
      pair build: half/bin/atomonly/newton
      stencil: half/bin/3d
      bin: standard
  (2) compute orientorder/atom, occasional
      attributes: full, newton on
      pair build: full/bin/atomonly
      stencil: full/bin/3d
      bin: standard
  (3) compute coord/atom, occasional
      attributes: full, newton on
      pair build: full/bin/atomonly
      stencil: full/bin/3d
      bin: standard
  (4) compute cluster/atom, occasional
      attributes: full, newton on
      pair build: full/bin/atomonly
      stencil: full/bin/3d
      bin: standard
Per MPI rank memory allocation (min/avg/max) = 9.812 | 9.816 | 9.820 Mbytes
Step Temp PotEng c_msd[4] v_twopoint v_fit v_max_n 
   12000    1.2283511   -6.9055925 9.8647056e-31 6.8504897e-33 8.3333333e+20            2 
   13000    1.2535567   -6.9206302    0.4957927 0.0031781582  0.040106078            2 
   14000    1.2528668   -6.9322373   0.98711345 0.0058756751  0.040892051            1 
   15000      1.26227   -6.8967182    1.4631626 0.0081286807  0.039833662            1 
   16000    1.2502209   -6.9041817    2.0302407   0.01057417  0.041049841            2 
   17000    1.2345111   -6.9107785    2.5599687  0.012548866   0.04218325            1 
   18000    1.2813745   -6.8924224     3.020281  0.013982782  0.042376696            3 
   19000    1.2383163   -6.9453684    3.5158052  0.015420198  0.042244687            4 
   20000    1.2845494   -6.8974096    3.9220561    0.0163419  0.041654712            1 
   21000    1.2571549   -6.9252183    4.4450629  0.017639138   0.04119101            1 
   22000     1.230672   -6.9217528    4.8640369  0.018424382  0.040939835            1 
   23000    1.2505774   -6.9304968    5.2742815  0.019109715  0.040503047            2 
   24000     1.243682   -6.9338089    5.7589132  0.019996226  0.040214992            2 
   25000    1.2492684   -6.9065929     6.262498  0.020874993  0.039979641            3 
   26000    1.2500309    -6.913234    6.7945126  0.021777284  0.039880045            1 
   27000    1.2389006   -6.8864355    7.1895297  0.022189906  0.039849156            2 
   28000    1.2577013   -6.9134184    7.6393972  0.022736301  0.039653228            2 
   29000    1.2647591   -6.9110377    8.0848733  0.023232394  0.039530179            1 
   30000    1.2316047   -6.9335374    8.6169283  0.023935911   0.03944129            1 
   31000    1.2426887   -6.9148839    9.1104422  0.024490436   0.03947438            1 
   32000    1.2711462   -6.8966824     9.618846  0.025049078  0.039481474            1 
   33000    1.2334156   -6.9328093    10.093979  0.025489846  0.039487409            1 
   34000    1.2492152   -6.8511178    10.541854  0.025837878  0.039475723            1 
   35000    1.2701803   -6.8883349    11.079021  0.026378621  0.039507002            2 
   36000    1.2213126   -6.9339944    11.413908  0.026421083  0.039516534            2 
   37000     1.248335   -6.9272845    11.893776  0.026787783  0.039450631            2 
   38000    1.2247113   -6.9179147    12.424645  0.027247029  0.039450673            1 
   39000    1.2300764    -6.904013    12.864102  0.027487396  0.039483559            1 
   40000    1.2420681   -6.9162414    13.367799  0.027849582  0.039442215            3 
   41000    1.2289671   -6.8919565    13.701613  0.027848806  0.039381858            2 
   42000     1.222758   -6.9201267    14.101156  0.027978484  0.039313531            1 
   43000    1.2433251   -6.9216027    14.438675  0.027981929  0.039207887            2 
   44000    1.2487196   -6.8673196     15.10488  0.028607727  0.039125758            2 
   45000    1.2265425   -6.9359255    15.547075  0.028790878   0.03909778            1 
   46000    1.2328737   -6.9160826    16.008892  0.029001616  0.039046151            1 
   47000    1.2570374   -6.9701767    16.371469  0.029027426  0.039014417            1 
   48000    1.2403401   -6.8829267    16.860497  0.029271695  0.038957953            1 
   49000    1.2558001   -6.9125424     17.29124   0.02940687  0.038895816            1 
   50000    1.2503607   -6.9317014    17.676277  0.029460462  0.038842013            2 
   51000    1.2480697   -6.9312997    18.150783  0.029658142  0.038778157            2 
   52000    1.2349628   -6.9246055    18.728317  0.030013329  0.038737305            1 
   53000    1.2179693   -6.9029233    19.119561  0.030062202  0.038701376            1 
   54000    1.2372246   -6.8950253     19.55051   0.03017054  0.038648733            2 
   55000      1.23494   -6.8661176    19.952175  0.030230568  0.038600425            2 
   56000    1.2336714   -6.9131605    20.388955  0.030340707  0.038538184            2 
   57000    1.2175552   -6.9075431    20.929857  0.030599206  0.038491659            1 
   58000    1.2387409   -6.9299162    21.322835  0.030636257  0.038459333            2 
   59000    1.2347601   -6.9268995    21.937381  0.030985001  0.038439621            2 
   60000    1.2576004   -6.9301501    22.327993  0.031011102  0.038430283            1 
   61000    1.2305109   -6.8885664    22.951795  0.031354911  0.038433511            3 
   62000    1.2372986   -6.8917328    23.421135   0.03148002  0.038452143            1 
   63000    1.2152324   -6.9809991    23.718654   0.03137388  0.038463798            2 
   64000    1.2263908   -6.8768003    24.365375  0.031725749  0.038453061            4 
   65000    1.2684412   -6.9293748    24.555568  0.031481497  0.038436038            2 
   66000    1.2306402   -6.9202545    24.856539  0.031384519  0.038403933            2 
   67000    1.2426902   -6.9095165    25.134623  0.031261968  0.038342553            1 
   68000    1.2533821   -6.9214214    25.588133  0.031358006  0.038275053            1 
   69000    1.2012185   -6.9310844    26.012626  0.031416215  0.038206692            2 
   70000    1.2254771   -6.9507292    26.539487  0.031594627  0.038147443            1 
   71000    1.2434482   -6.9400094    27.040282  0.031737421  0.038103872            1 
   72000    1.2069958   -6.9453338    27.482273  0.031808186  0.038053452            2 
   73000    1.2439196   -6.9245289    27.809551  0.031746062  0.037998743            1 
   74000    1.2389276   -6.9433694    28.204032  0.031761297  0.037947949            3 
   75000    1.2318608   -6.9500557    28.716783  0.031907536  0.037904187            2 
   76000     1.249001   -6.9615044    29.281113  0.032106484  0.037864343            2 
   77000    1.2305332   -6.9666843    29.670701  0.032111148  0.037842877            2 
   78000    1.2307406   -6.8871304    30.000317   0.03205162  0.037813161            3 
   79000    1.2389874   -6.9369663    30.298371  0.031960307  0.037772923            3 
   80000    1.2187808   -6.8923729    30.861166  0.032147048  0.037733356            2 
   81000    1.2450132   -6.9281386    31.260443  0.032160949   0.03769849            1 
   82000    1.2050591   -6.9274106    31.718391  0.032234137  0.037660737            2 
   83000    1.2343133   -6.9143703    32.129073  0.032258106  0.037622407            1 
   84000    1.2460081   -6.9407666    32.856611  0.032595844  0.037600822            2 
   85000     1.259293   -6.9720047    33.293382   0.03264057  0.037584386            2 
   86000    1.2307118   -6.9225264    33.785655  0.032738037  0.037569616            1 
   87000    1.2500882   -6.9525842    33.996821  0.032564005  0.037556404            1 
   88000    1.2244766   -6.8921114    34.756815   0.03291365  0.037552656            1 
   89000    1.2219283   -6.8984637    35.281113   0.03303475  0.037556417            2 
   90000    1.2541057   -6.9510003    35.671648  0.033029304  0.037556832            2 
   91000     1.234075   -6.9498515    36.125433  0.033081898  0.037561858            1 
   92000    1.2435257   -6.8703507    36.423917  0.032992678  0.037554121            1 
   93000    1.2140416   -6.9592465    36.627744  0.032820559  0.037538299            2 
   94000    1.2340374   -6.9388288    37.124206   0.03291153  0.037525307            2 
   95000    1.2449984   -6.9015677    37.649914   0.03302624  0.037513517            1 
   96000    1.2504478   -6.9436386    38.191308  0.033152177  0.037501135            2 
   97000    1.2561331   -6.9796774    38.483147  0.033061123  0.037485534            1 
   98000    1.2356505   -6.9420702    39.019139   0.03317954  0.037473337            1 
   99000    1.2627031   -6.9106209    39.504305  0.033252782  0.037467202            2 
  100000    1.2223836   -6.9294683    40.039985  0.033366654  0.037462128            1 
  101000    1.2334873   -6.9780506    40.311683  0.033260464  0.037456741            1 
  102000    1.2371372   -6.9728499    40.584002  0.033156864  0.037451701            1 
  103000    1.2324704   -6.9126147    41.306604  0.033419583  0.037441963            2 
  104000    1.2379241   -6.9729172    41.715811   0.03342613  0.037430901            2 
  105000    1.2392649   -6.8967806    42.298968  0.033570609  0.037426623            2 
  106000    1.2418198    -6.964785     42.68837  0.033560039  0.037425911            2 
  107000    1.2422852   -6.9170384    43.295567  0.033719289  0.037429708            1 
  108000    1.2144844   -6.9161754    43.714937  0.033730661  0.037434525            1 
  109000    1.2298901   -6.9311692    44.120069  0.033730939   0.03743248            1 
  110000    1.2445191    -6.921775    44.627755  0.033808905  0.037435461            1 
  111000    1.2271214   -6.9148826    45.113466  0.033868969   0.03743943            1 
  112000    1.2253931    -6.932558    45.559698  0.033898585  0.037440536            4 
  113000     1.255177   -6.9334936    45.910823  0.033857539  0.037443354            1 
  114000    1.2396474   -6.9381891    46.227509  0.033792039  0.037443197            2 
  115000    1.2307517   -6.9280564    46.650091  0.033804414  0.037441468            1 
  116000     1.255914   -6.9479413    47.251948  0.033945365  0.037438792            2 
  117000    1.2382641    -6.976729    47.606595  0.033907831  0.037434808            2 
  118000    1.2160264   -6.9355045    48.246522  0.034072402  0.037438746            2 
  119000     1.220254   -6.9248652    48.980218  0.034299872  0.037446419            1 
  120000    1.1978623   -6.9336811    49.315477  0.034246859  0.037453867            1 
  121000    1.2321252   -6.9841637     49.84825   0.03433075  0.037462707            1 
  122000    1.2396235   -6.8922589    50.395041  0.034422842  0.037475981            2 
  123000    1.2435566   -6.9263172    50.600069   0.03428189   0.03748938            2 
  124000    1.2106388   -6.9610053    51.009684  0.034280702  0.037494116            2 
  125000    1.2456463   -6.9665707    51.643519  0.034429012  0.037502219            2 
  126000    1.2022554   -6.9206082    51.880457  0.034312471  0.037509774            2 
  127000      1.22133   -6.9790102    52.181373  0.034239746  0.037511934            1 
  128000    1.2508893   -6.9401155    53.027044  0.034522815  0.037518637            1 
  129000    1.2321124   -6.9736846    53.494004   0.03455685  0.037528692            1 
  130000      1.24907   -6.9716236    53.941305   0.03457776  0.037537509            1 
  131000    1.1974797   -6.9219446    54.413339  0.034614083  0.037555155            2 
  132000    1.2434765   -6.9543919     55.08108  0.034773409  0.037567405            2 
  133000    1.2151007   -6.9744222    55.297713   0.03464769  0.037579745            3 
  134000    1.2577844   -6.9584757    55.738013  0.034662943   0.03759064            1 
  135000    1.2290172   -6.9141444    56.218823  0.034702977  0.037599273            2 
  136000    1.2536072   -6.9763736    56.396719  0.034556813  0.037604172            2 
  137000    1.2016332   -6.9486077     56.78033  0.034537914   0.03760747            1 
  138000    1.2299363   -6.9470048    57.391262  0.034656559   0.03760806            1 
  139000     1.215995   -6.9381959    57.992161  0.034767482  0.037605733            2 
  140000    1.2452775   -6.9785213    58.079048  0.034570862  0.037606814            2 
  141000    1.2246531   -6.9113143    58.817514  0.034762124  0.037609023            1 
  142000    1.2318758   -6.9171319    59.361964  0.034836833  0.037613902            2 
  143000    1.2263115   -6.9728442    59.664612  0.034769587  0.037616068            2 
  144000    1.2244485   -6.9713606    60.146569  0.034807042  0.037620724            2 
  145000    1.2425507   -6.9333906    60.725206  0.034899544  0.037628758            1 
  146000    1.2267964   -6.8941849    61.235102  0.034951542   0.03763707            2 
  147000    1.2446014   -6.9511436    61.703682  0.034979412  0.037643245            2 
  148000    1.2605696   -6.9097483    61.864971   0.03483388  0.037645501            1 
  149000    1.2408687   -6.9458268    62.418159  0.034909485  0.037652847            2 
  150000    1.2083128   -6.9575827    62.956088  0.034975604  0.037657873            1 
  151000    1.2460577   -6.9514191    63.468519  0.035026777  0.037662762            1 
  152000    1.2383672    -6.920939    63.871693  0.035017376  0.037668756            2 
  153000    1.2588336   -6.9262285    64.288019  0.035015261  0.037673671            2 
  154000    1.2219581   -6.9361382     64.66615  0.034992505  0.037673873            1 
  155000    1.2197759   -6.9322791    64.780741  0.034828355  0.037671861            3 
  156000    1.2634285   -6.9317273    65.598626  0.035042001  0.037669732            1 
  157000     1.219689   -6.9682696    65.652817  0.034847568  0.037668975            1 
  158000    1.2225156   -6.9678092    66.074915  0.034849638  0.037666374            2 
  159000    1.2519648   -6.9647353     66.89044  0.035057882  0.037664524            2 
  160000     1.254012   -6.9657905    67.199828   0.03499991  0.037665045            3 
  161000    1.2270823   -6.9998777    67.308548  0.034838793  0.037663845            2 
  162000    1.2417303   -6.9402641    67.912013  0.034934163   0.03765941            1 
  163000    1.2180653   -6.9601256    68.438548  0.034989033  0.037653179            1 
  164000     1.218794   -6.9702558    68.776868  0.034947596  0.037645351            2 
  165000    1.2349866    -6.938069    69.141598  0.034919999   0.03763766            1 
  166000    1.2223901   -6.9600844    69.743244  0.035011669  0.037630955            1 
  167000    1.2061391   -7.0275658    70.369243  0.035114393  0.037628751            2 
  168000     1.196491   -6.9534397    70.823088    0.0351305  0.037628997            1 
  169000    1.2093881   -6.9172216    71.597128  0.035304304  0.037632155            2 
  170000    1.2101865   -6.9513891    71.939057  0.035264243  0.037635605            3 
  171000    1.2311766   -6.9601845    72.432061  0.035298275   0.03763942            1 
  172000    1.2051263   -6.9995848    72.889179  0.035314525  0.037642846            1 
  173000    1.2291816    -6.961272    73.394356  0.035353736  0.037648577            1 
  174000    1.2116132   -6.9525025    74.337585  0.035602292  0.037660002            1 
  175000    1.2122617   -6.9435545    74.371732  0.035415111  0.037666698            2 
  176000    1.2359932   -6.9821095    74.724079  0.035380719  0.037674453            1 
  177000    1.2142953   -6.9570439    75.033219  0.035326374  0.037678169            1 
  178000    1.2178011   -6.9424742    75.858484  0.035514271  0.037681013            1 
  179000    1.2470392   -6.9409782    75.826471  0.035300964  0.037680983            2 
  180000    1.1941175   -6.9675199    76.089598  0.035226665  0.037678975            1 
  181000    1.2267268   -6.9867147    76.616282  0.035274531  0.037677744            3 
  182000    1.2263347   -6.9571334    77.093861  0.035299387  0.037676044            1 
  183000    1.2026808   -6.9846847    77.414719  0.035252604  0.037674915            2 
  184000    1.2328508   -6.9442311    78.166386  0.035401443  0.037672419            1 
  185000    1.2430593   -6.9247883    78.385886  0.035308958  0.037671765            1 
  186000    1.2377544   -6.9623297    78.830961  0.035318531  0.037667395            1 
  187000    1.2119627   -6.9298877    79.223345  0.035304521  0.037659954            1 
  188000    1.2160274   -6.9990984    79.343757  0.035170105  0.037655082            1 
  189000    1.1966972    -6.970066    79.900719  0.035229594  0.037646459            1 
  190000     1.216606    -6.941334    80.443137  0.035282077  0.037637365            1 
  191000    1.2373594   -6.9474758     80.59752  0.035164712  0.037629615            2 
  192000    1.2506466   -6.9469913    81.262856  0.035270337   0.03762394            1 
  193000    1.2177844   -6.9690109    81.873774   0.03535137  0.037618269            1 
  194000     1.219944   -6.9734868    82.329437  0.035364878  0.037613351            1 
  195000    1.2344187     -6.93575    82.713969   0.03534785  0.037609967            1 
  196000    1.2062366   -6.9897153    83.137523  0.035347586  0.037603412            1 
  197000    1.2508118   -6.9289528    83.706266  0.035408742  0.037597429            1 
  198000    1.2211503   -6.9883592    83.510278  0.035147423  0.037591585            1 
  199000    1.2173508   -6.9315733    84.369972  0.035330809  0.037584413            3 
  200000    1.2215074   -6.9624806    84.801302  0.035333876  0.037577005            3 
  201000    1.2274477   -6.9950031    85.072266  0.035270425  0.037570898            1 
  202000    1.2133527   -6.9943471    85.624544  0.035323657  0.037565868            1 
  203000     1.217491   -6.9335763    86.418679  0.035475648  0.037559882            2 
  204000    1.2255944   -6.9684522    86.580782  0.035367966  0.037553583            2 
  205000    1.2245454   -6.9895186    86.762993  0.035269509  0.037545973            1 
  206000    1.2057235   -6.9489926    87.427703  0.035367194   0.03753837            1 
  207000    1.2203728   -6.9940116    87.843322  0.035363656  0.037526984            1 
  208000    1.2198326   -6.9641931    87.971219  0.035244879  0.037516263            1 
  209000    1.2055995   -6.9966444    88.083768  0.035121119  0.037504639            1 
  210000    1.2107307   -6.9691118    88.650714  0.035178855  0.037495085            1 
  211000    1.2293763   -6.9788386    89.247228   0.03524772  0.037486664            1 
  212000    1.2321882   -6.9836579    89.741586  0.035275781   0.03747776            3 
  213000    1.2261172   -6.9705417    90.341226  0.035344768  0.037470199            1 
  214000    1.1901704   -7.0075213    90.512524   0.03524631  0.037460529            1 
  215000    1.2430663   -6.9546246    91.390474  0.035422664  0.037451246            2 
  216000    1.1945774   -6.9661077    91.355468  0.035245165  0.037443108            1 
  217000    1.2317176   -6.9701378    91.869686  0.035280217  0.037432989            1 
  218000     1.199549   -6.9681388    92.195914  0.035243086  0.037421912            1 
  219000    1.2106702   -7.0044785    92.317865  0.035128564  0.037410328            8 
  220000    1.2672993   -6.9935536    92.873276  0.035179271  0.037400273            1 
  221000    1.2034458   -6.9731527    93.519076  0.035263603  0.037389661            1 
  222000    1.2064458   -7.0138083    94.111139  0.035327004  0.037379761            3 
  223000    1.2326548     -7.00064    94.293665  0.035236795  0.037370911            2 
  224000    1.2052302   -6.9699897    95.006695  0.035344752    0.0373621            2 
  225000    1.2469763   -6.9705417    95.661491  0.035430182  0.037354823            1 
  226000    1.2336018    -6.974593      95.8781  0.035353282  0.037347901            1 
  227000    1.2170922     -6.98182    96.358578  0.035373927  0.037340537            2 
  228000    1.1978295   -6.9679731    97.177353  0.035518038  0.037335001            3 
  229000    1.2358757    -6.920108    97.695032  0.035551322  0.037329749            1 
  230000    1.2071512   -6.9477021    97.677278  0.035390318  0.037324265            2 
  231000    1.2053659   -6.9376921    97.942953  0.035332955  0.037317299            1 
  232000    1.1796341   -6.9157838     98.50446  0.035382349  0.037310465            1 
  233000    1.2012474   -7.0115867    98.689598  0.035296709  0.037303165            1 
  234000    1.2375251   -6.9694307    99.573949  0.035460808  0.037295931            2 
  235000    1.2023821    -6.932313    100.01669  0.035466913  0.037290058            1 
  236000    1.2034161   -7.0008028    100.42198  0.035459738  0.037283678            1 
  237000    1.2152093   -6.9786366    100.48859   0.03533354  0.037277652            1 
  238000    1.1977989   -6.9745054     101.3134  0.035473879  0.037271919            2 
  239000    1.2085237   -6.9654417    101.83438  0.035507106   0.03726726            1 
  240000    1.2314245   -6.9630595    102.26265  0.035507865  0.037265297            2 
  241000    1.2103119   -6.9635453    103.08761  0.035645786  0.037263393            2 
  242000      1.22724   -7.0022347    102.90996  0.035437313  0.037257496            1 
  243000    1.2055718    -6.979217    103.15009   0.03537383  0.037250016            1 
  244000    1.2321533   -6.9193993    104.05122   0.03553662  0.037241979            2 
  245000    1.2231561   -6.9608996    104.02756  0.035383524  0.037234939            1 
  246000    1.1902927   -6.9852527    104.42378  0.035373909  0.037227243            1 
  247000    1.2118477     -6.98144    104.66536    0.0353122  0.037218697            1 
  248000    1.2363987   -6.9849795    105.42317  0.035424452  0.037211988            1 
  249000    1.2294586   -6.9313593    106.21275  0.035546436  0.037205339            1 
  250000     1.187038   -6.9810155    106.47883  0.035492945  0.037199052            1 
  251000    1.2372663   -6.9535803    107.12202  0.035565079  0.037194477            1 
  252000    1.2186914   -6.9972085    107.48866  0.035545193  0.037192249            2 
  253000    1.2396193   -7.0233804    107.55517  0.035426605  0.037188748            1 
  254000    1.2088298   -6.9693062    108.75401   0.03568045  0.037185936            2 
  255000    1.2450604   -6.9801426    108.73268  0.035533554  0.037181081            1 
  256000    1.2316491   -7.0142454    108.73809  0.035396513  0.037175032            2 
  257000    1.1943555   -6.9555699    109.42758  0.035482353  0.037167035            2 
  258000    1.1963773   -7.0419704    108.82616  0.035150569  0.037157474            2 
  259000    1.2280585   -6.9703089    109.68661  0.035291702  0.037146119            1 
  260000    1.2129822   -6.9743899    110.04707  0.035271496   0.03713421            1 
  261000    1.2224394   -7.0167057    110.31465  0.035221793  0.037123409            2 
  262000    1.2183066    -7.000405    110.87107  0.035264335  0.037112833            1 
  263000    1.2017654   -6.9868848    111.24479  0.035248666  0.037100872            1 
  264000    1.2016427   -6.9942131    111.54443   0.03520973  0.037088805            2 
  265000    1.2148259   -7.0128475    111.64512  0.035108529   0.03707721            2 
  266000    1.1971868   -7.0176714    111.86349  0.035044953  0.037064353            1 
  267000    1.2259876   -6.9909187    112.65403  0.035160433  0.037050885            1 
  268000    1.2327519   -6.9743896     113.2326  0.035209143  0.037039167            2 
  269000     1.202207   -6.9932232    113.56125  0.035180065  0.037028291            1 
  270000    1.2236474   -6.9757897    114.59975  0.035370294  0.037019135            2 
  271000    1.1971218   -7.0292294    114.79933  0.035301146   0.03701108            1 
  272000    1.2185872   -7.0060618     115.0282  0.035241482  0.037002181            3 
  273000    1.2007564   -6.9901309    115.47987  0.035250266  0.036994155            2 
  274000     1.223207   -7.0066425    116.11452  0.035314634  0.036985456            1 
  275000    1.2126216   -7.0197402    116.49158  0.035300479  0.036978692            2 
  276000    1.2127155   -6.9735298      116.951  0.035311291  0.036971102            2 
  277000    1.1880901   -7.0107458    117.26387   0.03527794  0.036962657            2 
  278000     1.202062   -6.9794205    118.20369   0.03543276   0.03695482            4 
  279000    1.1937368   -6.9928937    118.17047   0.03529584  0.036946584            2 
  280000    1.1847289   -6.9687716    118.87502   0.03537947  0.036938929            1 
  281000    1.2162747   -6.9899755    119.26942  0.035370528  0.036931582            1 
  282000    1.2084039   -6.9682682    119.34548  0.035267578  0.036923997            1 
  283000     1.211069   -7.0047396    119.66548  0.035237184  0.036914096            1 
  284000    1.2241659   -7.0028472    120.56197  0.035376165  0.036905989            1 
  285000    1.2044058   -6.9761122    120.51138  0.035237245  0.036897592            2 
  286000     1.228074   -7.0003588    120.20199   0.03502389  0.036888929            2 
  287000    1.1889694   -6.9944766    121.28505  0.035216334  0.036878271            2 
  288000    1.2196119    -6.981839    121.51469  0.035160499  0.036867616            2 
  289000    1.1929153   -6.9782732    121.90003  0.035149951  0.036856726            2 
  290000    1.2236592    -6.986366    122.38126  0.035167028     0.036846            1 
  291000    1.1728677   -7.0075505    122.44245  0.035063703  0.036833163            2 
  292000    1.2258079    -7.034154    122.96855  0.035093766  0.036818814            2 
  293000     1.191159    -7.010547    122.91964  0.034960079  0.036804963            7 
  294000    1.2311143   -7.0118371    123.73586  0.035072523  0.036791705            1 
  295000    1.2235583   -7.0121001    124.16679  0.035075365  0.036778894            3 
  296000    1.2176278   -6.9986789     124.2748  0.034987275  0.036765467            2 
  297000    1.1787346    -6.978351    124.78184  0.035011741  0.036752093            1 
  298000    1.2257058   -7.0593324    125.17242  0.035003474  0.036738315            2 
  299000     1.224989   -6.9853149    125.68666  0.035029726  0.036725576            1 
  300000    1.1985432    -6.970769    125.99731  0.034999252  0.036713607            1 
  301000    1.2240779   -6.9851745     126.4396  0.035005428  0.036701746            1 
  302000    1.2055475    -6.986646    126.97492   0.03503723  0.036689739            1 
  303000    1.1780952    -7.059371    126.93084  0.034909472  0.036677511            2 
  304000     1.193393   -7.0341606    127.49251  0.034948605  0.036664859            3 
  305000    1.1813441    -6.987661    128.08291  0.034995332  0.036653346            3 
  306000    1.1928654   -6.9872478     128.6764  0.035042593  0.036643469            3 
  307000    1.1995717   -6.9981366    129.58791   0.03517587  0.036632999            3 
  308000    1.2239507   -6.9956118     129.7265  0.035099162  0.036623455            1 
  309000    1.1904325   -7.0043345    130.41308  0.035170733  0.036614369            2 
  310000    1.1810544   -6.9974904    130.62141  0.035113283   0.03660627            2 
  311000    1.1890993   -7.0294038    130.78184  0.035043366  0.036597314            1 
  312000    1.2244894   -7.0781486      131.268  0.035060897  0.036586977            1 
  313000    1.1830317   -6.9850388    131.95729  0.035132398  0.036577402            1 
  314000    1.2003232   -6.9652191    132.45719  0.035153183  0.036569244            3 
  315000    1.2019795   -7.0149862    132.84115  0.035143161  0.036560738            3 
  316000    1.2006413   -7.0223469    133.24541  0.035138558  0.036552265            1 
  317000    1.2003307   -7.0389917    133.71568  0.035151336  0.036543926            2 
  318000    1.1843288   -7.0117385    134.42695  0.035227189  0.036536182            2 
  319000    1.2034754   -7.0004436    134.92245  0.035246199  0.036528908            2 
  320000    1.2094521   -7.0232891    135.27887  0.035228872  0.036522408            1 
  321000    1.1955455    -6.982721    135.80548  0.035255836  0.036516786            2 
  322000    1.2075583   -7.0421183     136.3684   0.03529203  0.036510905            1 
  323000     1.208598   -6.9825817    136.60011  0.035242547  0.036505028            1 
  324000    1.2155543    -7.020406    136.64669  0.035145754  0.036497819            1 
  325000    1.1938932    -7.030063    137.46264  0.035246831  0.036491738            2 
  326000    1.1857634   -6.9979672    137.78974  0.035222325  0.036485881            1 
  327000    1.2146056   -7.0130499    138.09584  0.035192619  0.036479012            1 
  328000    1.2039926   -7.0063929    138.54995  0.035200699  0.036472241            2 
  329000    1.2136879   -7.0380853    138.37288  0.035048855   0.03646478            1 
  330000    1.2135546   -7.0344741    138.65934  0.035014984  0.036456348            1 
  331000    1.1749636   -7.0200004    139.35767  0.035085012  0.036447786            1 
  332000    1.1937762   -7.0265841    138.82457  0.034845525  0.036438221            1 
  333000    1.1951942   -7.0307969    140.29864   0.03510977  0.036428106            1 
  334000    1.1886232   -7.0102128     140.5181  0.035059407  0.036418689            2 
  335000    1.1844855   -7.0118007     140.8975  0.035049128   0.03641104            2 
  336000    1.1978128   -6.9562313    141.98198  0.035213785  0.036403063            1 
  337000    1.2036766   -7.0235652    141.74223  0.035050007  0.036395232            2 
  338000    1.1872944   -6.9676752    142.61925  0.035162538  0.036388245            2 
  339000    1.1888553   -7.0082788     143.1319  0.035184833  0.036381371            2 
  340000    1.2209876   -7.0089391    143.45367  0.035160213  0.036374917            1 
  341000    1.2031834   -7.0396162    143.01426   0.03494972  0.036366747            1 
  342000    1.2060948   -7.0361191    143.93092  0.035070888  0.036357432            2 
  343000    1.1966964   -6.9959348     144.1939  0.035032531   0.03634894            2 
  344000    1.1841831   -7.0459184    144.89645  0.035100884  0.036341312            1 
  345000    1.2132279   -7.0328294    145.20919  0.035074683  0.036333933            2 
  346000    1.1778303   -7.0428355     145.6562  0.035080972  0.036326386            1 
  347000    1.1941365   -7.0426108    145.62665  0.034972778  0.036319449            2 
  348000    1.1882073   -7.0422505    146.93408  0.035185364  0.036309585            2 
  349000    1.1771246   -7.0434746    146.50667  0.034982491   0.03630044            3 
  350000    1.1966522   -6.9740245     147.3456  0.035082286  0.036292203            1 
  351000    1.1903392   -7.0104974    147.67614  0.035060812  0.036284609            2 
  352000    1.2014998    -7.078591    147.44724  0.034907016  0.036276607            1 
  353000    1.1927664   -7.0571252    148.19565   0.03498481   0.03626797            1 
  354000    1.1973788   -7.0148866    148.90955  0.035054037  0.036259362            1 
  355000    1.1979827   -7.0005425    149.10493  0.035001156  0.036250017            1 
  356000    1.2002507   -7.0311772    149.27247  0.034942057  0.036239904            3 
  357000    1.1903635   -7.0392931    149.39838   0.03487357  0.036228654            1 
  358000     1.223575   -6.9926932    150.05349  0.034928652  0.036217598            2 
  359000    1.1972308   -7.0030888    150.67364   0.03497531  0.036208889            2 
  360000    1.1871943   -7.0044917    151.10625  0.034978298  0.036200186            1 
  361000      1.18501   -7.0050977    151.93543  0.035072814  0.036192414            1 
  362000    1.2133525      -7.0222    152.14738  0.035024719   0.03618426            1 
  363000    1.1850903   -7.0294387    152.09276  0.034915694  0.036175635            3 
  364000    1.1779383   -7.0394742    152.38201  0.034885991  0.036166705            2 
  365000    1.1733749   -7.0485477    152.71932  0.034867426  0.036157252            1 
  366000    1.1661846   -7.0111918    153.71515  0.034998895  0.036149041            1 
  367000    1.2055436   -7.0347371    153.61802  0.034881477  0.036141012            1 
  368000    1.1717316   -7.0148158    154.41746  0.034967723  0.036132754            1 
  369000    1.1664746   -7.0156929    155.09616  0.035026233  0.036124303            3 
  370000    1.2049626   -7.0593338    154.76387  0.034856727  0.036115724            2 
  371000    1.2055836   -7.0251605    155.11784  0.034842281  0.036107533            3 
  372000    1.1640094   -7.0001503    155.81509  0.034904815  0.036099071            2 
  373000    1.1715737   -7.0326297    156.60399  0.034987486    0.0360905            1 
  374000    1.2121916   -6.9928655    156.96948  0.034975374  0.036082773            1 
  375000    1.1891289   -7.0251583    156.97015  0.034882255  0.036074809            1 
  376000    1.1967116    -7.020289    156.96279  0.034787852  0.036066224            1 
  377000    1.2168419   -7.0494675    157.59409  0.034835122  0.036056237            1 
  378000    1.2118882   -7.0337287    157.18452  0.034652672  0.036046172            1 
  379000    1.2063077   -6.9998342     158.1863  0.034781509  0.036035593            1 
  380000    1.1841503   -7.0292292    158.85795   0.03483727  0.036025473            1 
  381000    1.1675201   -7.0285934    158.79884  0.034732905  0.036015348            1 
  382000    1.1757982   -7.0221476    158.98163  0.034681856  0.036004074            2 
  383000    1.2001675   -7.0656691    159.35971  0.034673567  0.035992621            2 
  384000     1.161234   -7.0296959    159.94464  0.034710209  0.035981687            1 
  385000    1.1990943   -7.0273958    160.56405  0.034754123  0.035971407            1 
  386000    1.1821284    -7.038326     160.6931  0.034691948  0.035960947            2 
  387000    1.1874296   -7.0399618    160.92617  0.034652491  0.035950751            2 
  388000    1.1906529   -7.0532077    162.08747    0.0348126  0.035941294            2 
  389000    1.1652153    -7.008724    162.11593  0.034729206  0.035931466            2 
  390000    1.2083732   -7.0612208    162.14594  0.034646568  0.035921637            1 
  391000    1.1973267   -6.9932527    163.76994  0.034904078  0.035912955            1 
  392000    1.1907755   -7.0433101    163.72041  0.034804508  0.035904808            2 
  393000    1.1825373    -7.008452    164.27539  0.034833628  0.035897081            1 
  394000    1.1828025   -7.0508983    163.97302  0.034681264  0.035888707            1 
  395000    1.1796833   -7.0472186    164.76022   0.03475954  0.035879436            2 
  396000    1.2052078   -7.0195461     166.2578   0.03498691  0.035871524            1 
  397000    1.1486778   -7.0562529    165.92829  0.034829616  0.035864768            2 
  398000    1.1989915   -7.0468484     166.6231  0.034887584   0.03585669            1 
  399000    1.1647902    -7.039997    167.06867  0.034893205   0.03584952            1 
  400000    1.1992038   -7.0014486    167.06393  0.034804986  0.035842332            2 
  401000    1.2241688   -7.0593659    167.36252  0.034780241   0.03583481            2 
  402000    1.1909364   -7.0177823    168.47934  0.034925236  0.035827565            2 
  403000    1.1722858   -7.0172019    168.65378  0.034874643  0.035821366            1 
  404000     1.187948   -7.0231507    169.83301  0.035031562  0.035815672            2 
  405000    1.2228017   -7.0021026    170.33863  0.035049101  0.035810484            1 
  406000    1.2005671   -7.0340702    170.42658  0.034980824  0.035805706            1 
  407000    1.1841406   -7.0869423    170.58306  0.034926916  0.035800919            2 
  408000    1.1902616    -7.035703    171.28546  0.034984774  0.035795694            1 
  409000    1.2177498    -7.032028    171.32958  0.034908227  0.035790393            1 
  410000    1.1781416   -7.0344187    171.67625  0.034893547  0.035784673            1 
  411000    1.1848948   -7.0209327    172.15136   0.03490498  0.035779324            2 
  412000    1.1562364   -7.0780383    172.51063  0.034892927  0.035773346            1 
  413000    1.2188952   -7.0568432    172.82609  0.034872091  0.035767919            2 
  414000    1.1966245   -7.0497567    172.61179  0.034744725  0.035762402            3 
  415000    1.1762703   -7.0549997    173.75356  0.034890273  0.035756752            1 
  416000     1.222832   -7.0336295    174.14306  0.034884427  0.035750941            1 
  417000    1.1738647   -6.9922379    174.56906  0.034885903  0.035744356            3 
  418000    1.1956807   -7.0166417    174.87617  0.034863671  0.035738648            4 
  419000    1.1953446   -7.0555913    174.82393  0.034770073  0.035731972            2 
  420000    1.1829178   -7.0332629    175.33851  0.034789386   0.03572555            1 
  421000    1.1944344   -7.0045799    176.06196  0.034849953  0.035719091            2 
  422000    1.1849402   -7.0516331    176.15906  0.034786544  0.035713495            1 
  423000     1.196566    -7.037813    176.95405  0.034860924  0.035707593            2 
  424000    1.1808674   -7.0502522    176.87333  0.034762839  0.035701228            1 
  425000    1.1895956   -7.0658406    177.49411  0.034802767  0.035693946            2 
  426000    1.1417646   -7.0445632    177.60331  0.034742431  0.035686851            1 
  427000    1.1806705   -7.0664839     178.0032   0.03473911  0.035679474            3 
  428000    1.1940875   -7.0076536    179.32756  0.034915802   0.03567329            3 
  429000    1.1428214   -7.0264937    179.31038  0.034831075  0.035667305            1 
  430000    1.1649349   -7.0517927    179.71577  0.034828638  0.035661708            2 
  431000    1.1884726   -7.0744103    180.67713  0.034933706  0.035655703            2 
  432000    1.1828126   -7.0653984    180.41918  0.034803083  0.035649833            3 
  433000    1.1816917   -7.0210673    180.97925  0.034830495  0.035643196            1 
  434000    1.1979608   -7.0260098    181.04774  0.034763391  0.035637214            2 
  435000    1.1953875   -7.0783681    180.64064  0.034605486  0.035629672            1 
  436000    1.1906439   -7.0719229     181.7967  0.034747076  0.035622457            2 
  437000    1.1932099    -7.051216    182.05608  0.034717025  0.035615223            1 
  438000    1.1980851   -7.1035419    181.45961  0.034524279  0.035607508            2 
  439000    1.1641746   -7.0314875     182.5623  0.034654954  0.035599242            1 
  440000     1.191716    -7.012662    183.01823  0.034662543  0.035591686            2 
  441000    1.1862608   -7.0282663    183.24493  0.034626782  0.035584142            1 
  442000    1.1654956   -6.9977467    183.80562  0.034654151  0.035575986       -1e+20 
  443000    1.1885685   -7.0639075    183.42933  0.034505141  0.035567887            1 
  444000    1.1977215    -7.013514    184.08322  0.034550153  0.035558983            1 
  445000     1.175107   -7.0602502    184.38905  0.034529785  0.035549774            2 
  446000    1.1824069   -7.0532616    184.41762  0.034457701  0.035540492            2 
  447000    1.1877392   -7.0644118    184.86554   0.03446412  0.035531815            1 
  448000    1.1906128   -7.0459464    185.77034  0.034555494  0.035523374            2 
  449000    1.1725715    -7.028791    185.81726  0.034487242  0.035515066            1 
  450000    1.1694026   -7.0024088    186.92233  0.034615247  0.035507176            1 
  451000    1.1725958   -7.0513658    187.37607  0.034622334  0.035498575            2 
  452000    1.2022572    -7.028813    187.36472  0.034543643  0.035490452            2 
  453000    1.1895574   -7.0756504    188.06668  0.034596519  0.035482422            4 
  454000    1.1793683   -7.0660799    187.76159  0.034464316  0.035474758            1 
  455000    1.1658105    -7.039488    188.83188  0.034584594  0.035466674            3 
  456000    1.1680976   -7.0201793    189.41127  0.034614632  0.035458683            2 
  457000    1.1929964   -7.1103229    188.18628  0.034315514  0.035451062            3 
  458000    1.1776994   -7.0601766    190.43166  0.034649138  0.035443136            1 
  459000    1.1504078   -7.0672549    190.00645  0.034496451  0.035435497            3 
  460000    1.1858147   -7.0344351    191.32336  0.034660028  0.035428689            4 
  461000    1.1886981   -6.9811841    191.94557   0.03469732  0.035423091            3 
  462000    1.1752175   -7.0710658    192.29831  0.034685842  0.035417405            1 
  463000    1.1490847   -7.0730794    192.11924  0.034578697   0.03541208            1 
  464000    1.1657953    -7.058544    192.75213  0.034617839  0.035406347            1 
  465000    1.1503824   -7.0410817    193.37188   0.03465446  0.035400206            2 
  466000     1.185508   -7.0675975    193.36787  0.034579376  0.035394553            4 
  467000    1.1965021   -7.0822565    193.92658  0.034605028  0.035388997            1 
  468000    1.1806556   -7.0444786    194.55637  0.034643228  0.035383571            1 
  469000    1.1794774   -7.0472976    194.96427  0.034641839  0.035379088            1 
  470000    1.1815889   -7.0150875    195.65971  0.034691438   0.03537434            2 
  471000    1.1787348   -7.0832133    195.16839  0.034530854  0.035368768            1 
  472000    1.1646782   -7.1062292    196.34979  0.034666277  0.035362894            1 
  473000    1.1903891   -7.0396801    196.34584  0.034592291  0.035357402            1 
  474000     1.171232   -7.0279363    197.33462  0.034693147  0.035351206            2 
  475000    1.1828392   -7.0531656    197.49802  0.034648775  0.035345718            2 
  476000    1.1689536    -7.024777    198.07157  0.034676396  0.035340469            4 
  477000    1.1676846   -7.0225282    198.53572  0.034684787  0.035335071            1 
  478000    1.1833627   -7.0607564    198.31307  0.034573408  0.035329404            2 
  479000     1.192474   -7.0499869    198.58789  0.034549042  0.035323436            1 
  480000    1.1551714   -7.0726661    198.61512  0.034481792  0.035317134            1 
  481000    1.1657336   -7.0646261    199.40397  0.034546773  0.035311171            2 
  482000    1.2037739   -7.0494315    199.70017  0.034526309  0.035305327            2 
  483000    1.2295569   -7.0470289    200.70814  0.034628733  0.035299594            1 
  484000    1.1728893   -7.0943669     200.6137  0.034540926  0.035293245            1 
  485000    1.1770235   -7.1185347    201.67386  0.034651867  0.035287416            1 
  486000    1.1818845   -7.0680554    201.74472  0.034592715  0.035281369            2 
  487000    1.1830829    -7.059973     201.4921  0.034478456  0.035275419            5 
  488000    1.1661472   -7.0414712    203.32297  0.034720453  0.035269402            2 
  489000    1.1818382   -7.0636229     203.0233  0.034598381  0.035263886            3 
  490000    1.1626468   -7.0831398    203.65405  0.034635042    0.0352582            2 
  491000    1.1702331   -7.0772924    202.79447  0.034418613  0.035252877            2 
  492000    1.1682513   -7.0747748     204.0366  0.034559045  0.035246592            2 
  493000    1.1635102   -7.0755706    204.09215  0.034498335  0.035241484            2 
  494000    1.1555906   -7.0673234    205.30589  0.034633248  0.035236289            2 
  495000    1.1562111   -7.0985245    205.43755  0.034585447  0.035232339            1 
  496000    1.1897534    -7.084965     205.9824  0.034607259   0.03522764            1 
  497000    1.1700781   -7.1082184    205.77734  0.034503243  0.035222827            1 
  498000    1.1545076   -7.0494353    206.72497  0.034592532  0.035217658            1 
  499000      1.16363   -7.0503717    207.08198  0.034582828     0.035213            3 
  500000    1.1922613   -7.0665879    207.18399  0.034530665  0.035208074            3 
  501000    1.1803298   -7.0921426    208.36964  0.034658956  0.035202958            1 
  502000    1.1608696   -7.0181386    208.35439  0.034587382  0.035198371            3 
  503000    1.1505566   -7.1212881    207.74561  0.034417761  0.035193042            1 
  504000    1.1697629   -7.0895162    208.76161  0.034517462  0.035187444            2 
  505000    1.1583198   -7.1181655    208.75276   0.03444765  0.035181809            1 
  506000    1.1498924   -7.0814562    209.83292  0.034557464  0.035176424            1 
  507000    1.1601865   -7.0834491    209.83935  0.034490361  0.035171004            2 
  508000    1.1674868   -7.0730677     209.7729  0.034411566  0.035165407            3 
  509000    1.1721132   -7.0999561    210.12119  0.034400981   0.03515898            2 
  510000    1.1714668   -7.0639828    210.53906  0.034401808  0.035153235            1 
  511000    1.1799434   -7.0736898    211.46936  0.034486196  0.035147584            2 
  512000    1.1858345   -7.0924913    212.00582  0.034506155  0.035141998            2 
  513000    1.2015967   -7.0712549    211.94427  0.034428894  0.035136431            2 
  514000    1.1806309   -7.0564115    212.24092  0.034410007  0.035130526            2 
  515000    1.1807748   -7.0706281    213.04113  0.034472675  0.035124472            1 
  516000    1.1691179   -7.1046694    213.18549  0.034429181  0.035118314            1 
  517000    1.1680289   -7.1079165    212.35025  0.034227958  0.035111235            1 
  518000    1.1477016   -7.0769281    213.33233  0.034319874    0.0351039            1 
  519000    1.1507554   -7.0889538     213.6329  0.034302006   0.03509659            1 
  520000    1.1590671   -7.1016443     213.9704  0.034290129  0.035089363            1 
  521000     1.159845   -7.0700137    214.01979  0.034232212  0.035082205            4 
  522000    1.1701494   -7.0664907    215.66762  0.034429697  0.035074853            2 
  523000    1.1905878   -7.0772926    215.47332  0.034332906   0.03506789            2 
  524000    1.1533982   -7.1418065    215.05185  0.034200357  0.035060753            1 
  525000    1.1936831   -7.0853617    215.98564  0.034283434  0.035053661            1 
  526000    1.1814694   -7.0673857    216.48122  0.034296771  0.035047049            4 
  527000    1.1775188   -7.0611778     217.0032  0.034314231  0.035040284            1 
  528000    1.1871843   -7.0700796    217.24241  0.034286996  0.035033861            1 
  529000    1.1677507   -7.1001542    217.42287   0.03425061  0.035026951            2 
  530000    1.1542045   -7.0879176    218.13493  0.034297945  0.035020209            2 
  531000    1.1300057   -7.0949315    217.57145  0.034144923  0.035013477            2 
  532000    1.1620531   -7.1310774    217.99808  0.034147568  0.035006313            3 
  533000     1.151368   -7.0775574     219.6304  0.034338711    0.0349992            3 
  534000    1.1674648   -7.0782051    219.87672  0.034312846   0.03499179            1 
  535000    1.1646905   -7.0726519    219.39364  0.034173465  0.034984089            2 
  536000    1.1607853    -7.101409    220.04001    0.0342102  0.034975694            2 
  537000    1.1723704   -7.1115031    219.56399  0.034072624  0.034967885            2 
  538000    1.1731183   -7.0411913    221.22806  0.034267048  0.034959857            2 
  539000    1.1541635   -7.0665825    221.11026  0.034185259  0.034952083            3 
  540000    1.1675707   -7.1384058    220.23472   0.03398684  0.034944136            1 
  541000    1.1814514   -7.0905272    220.88494  0.034024175  0.034935104            1 
  542000    1.1547086   -7.0947587    221.59169  0.034070063  0.034926717            3 
  543000    1.1610092   -7.1120678    221.51841  0.033996073  0.034917811            1 
  544000    1.1598215     -7.09026    222.20714  0.034039084  0.034909127            2 
  545000    1.1624435   -7.0679244    223.15649  0.034121787  0.034900342            2 
  546000    1.1722727   -7.1204292     223.0541  0.034043666  0.034892475            1 
  547000    1.1874209   -7.0454546    223.79098   0.03409369  0.034884473            2 
  548000    1.1396791   -7.1167486    223.07694  0.033922892  0.034876121            2 
  549000    1.1828762   -7.1040823    223.86338  0.033980477  0.034867151            2 
  550000    1.1775114   -7.1086114    224.66227  0.034039738   0.03485827            4 
  551000    1.1641111   -7.0830627    225.34543   0.03408128    0.0348499            1 
  552000    1.1641492    -7.075781    225.86801  0.034098431  0.034842059            2 
  553000    1.1451021   -7.1064881    226.18548  0.034084611  0.034834364            1 
  554000    1.1609793   -7.0982747    227.14333  0.034167168  0.034827442            1 
  555000    1.1625963   -7.1295241    226.68776  0.034037201  0.034820027            1 
  556000    1.1555528   -7.1128707    227.34944  0.034075155   0.03481289            2 
  557000    1.1770457   -7.0453646     228.5976  0.034200718  0.034806278            1 
  558000     1.167711   -7.0567727    229.06719  0.034209556  0.034800629            2 
  559000    1.1543369   -7.0719889    229.20211  0.034168471  0.034795309            1 
  560000    1.1665373   -7.1152654    228.99404  0.034076494  0.034790116            2 
  561000    1.1529264   -7.0663503      231.001  0.034313874   0.03478454            1 
  562000    1.1559338     -7.08203    231.02724  0.034256709  0.034779574            2 
  563000    1.1299168   -7.1403526    231.05623  0.034200152  0.034774297            3 
  564000    1.2261312    -7.091074    232.38454  0.034335777  0.034769322            1 
  565000    1.1811375   -7.1073585    232.09449  0.034232226  0.034764211            1 
  566000    1.1469421    -7.097111    232.82579  0.034279416  0.034759372            2 
  567000    1.1727549   -7.0966825    233.18401  0.034271606  0.034754029            3 
  568000    1.1638703   -7.0975826    232.78043  0.034152058  0.034748406            3 
  569000    1.1584544   -7.1107426    232.97913  0.034121138  0.034742899            1 
  570000    1.1627202    -7.102485    233.32318  0.034111575  0.034737487            3 
  571000      1.15679   -7.1079565    233.93441   0.03414104  0.034731362            2 
  572000    1.1525926     -7.13215    233.73459  0.034052242   0.03472507            2 
  573000    1.1581994   -7.0681969     233.9093  0.034018222  0.034718201            2 
  574000    1.1525419   -7.0768125    234.53011  0.034049087  0.034711612            2 
  575000    1.1355912   -7.1222167    234.19285  0.033940992  0.034704313            1 
  576000    1.1956948   -7.1167101    234.18078  0.033880321  0.034696765            2 
  577000    1.1431902   -7.1067747    234.79269  0.033909979  0.034689075            1 
  578000    1.1726303   -7.0949079     235.5002  0.033953316  0.034681747            1 
  579000    1.1496614   -7.1176098    235.82766  0.033941805  0.034674684            1 
  580000    1.1662198   -7.1207775    235.65845  0.033858973  0.034667508            2 
  581000    1.1540428   -7.1465848    236.43437  0.033911986  0.034660289            3 
  582000    1.1499491   -7.0995947     236.8777  0.033917197  0.034652845            1 
  583000       1.1299   -7.0991531     237.5204  0.033950887  0.034645515            1 
  584000    1.1598827   -7.1179883    237.61733  0.033906583  0.034638546            1 
  585000    1.1603779   -7.1135643     237.7153  0.033862578  0.034631707            3 
  586000    1.1420933   -7.0938966    238.14047  0.033865254  0.034624303            2 
  587000    1.1519027   -7.0974848     238.9576  0.033923567  0.034616999            2 
  588000    1.1216735   -7.0999875    239.58055  0.033954159  0.034609657            1 
  589000    1.1627497   -7.1069927    239.27687  0.033853547  0.034602616            1 
  590000    1.1773998    -7.104182    239.15005  0.033778256  0.034595452            4 
  591000    1.1482284   -7.0886014    240.88166  0.033965265  0.034588487            2 
  592000    1.1636599   -7.0794377    241.09588  0.033938046  0.034581309            2 
  593000    1.1532826   -7.1297738     240.7251   0.03382871  0.034574245            1 
  594000    1.1684676   -7.1065012    241.00555  0.033811104  0.034566979            1 
  595000    1.1450931   -7.1052375    242.78584  0.034003619  0.034559831            2 
  596000    1.1470147   -7.1095275    242.75543  0.033942314  0.034553061            2 
  597000    1.1665865   -7.0828883    243.34673  0.033967997  0.034546426            2 
  598000    1.1189275   -7.1256129    243.35022  0.033911681  0.034539824            1 
  599000    1.1740934   -7.1324863    244.27783  0.033984117  0.034533099            1 
  600000    1.1591741    -7.077001    245.12117  0.034044607  0.034526408            1 
  601000    1.1586083   -7.1094246     245.5226  0.034043621  0.034520703            2 
  602000    1.1644246   -7.0944642    246.85543  0.034171571   0.03451572            1 
  603000    1.1227529   -7.0620681    246.93529  0.034125938  0.034511009            2 
  604000    1.1847846   -7.1076097    246.49723  0.034008999  0.034505984            1 
  605000    1.1182423   -7.1141158      246.855  0.034002065  0.034501311            1 
  606000    1.1708862    -7.087892    247.19977  0.033993368  0.034496394            1 
  607000    1.1238274   -7.0987759    247.37371  0.033961246  0.034491505            2 
  608000    1.1560874   -7.0857538    247.73725  0.033955215  0.034486086            1 
  609000    1.1447326   -7.1044895    247.59332  0.033879764  0.034480193            2 
  610000    1.1559242   -7.1493492    248.18086  0.033904489  0.034474061            2 
  611000    1.1441256   -7.1577676    247.81467  0.033799055  0.034467798            2 
  612000    1.1320915   -7.0985185    249.60785  0.033987997  0.034462185            1 
  613000    1.1553656   -7.1142415    249.12612  0.033867063  0.034456534            1 
  614000      1.14151   -7.1448918    250.02104  0.033933366  0.034451183            2 
  615000    1.1652188   -7.1283936    250.99823    0.0340106  0.034446048            1 
  616000    1.1621238   -7.1085047    250.78392  0.033926396  0.034440832            2 
  617000    1.1359466   -7.0774572    251.26525  0.033936419    0.0344356            1 
  618000    1.1634007   -7.1312858    251.48813  0.033911561  0.034430582            4 
  619000    1.1514306   -7.1076755    252.11785  0.033941552  0.034425046            1 
  620000     1.154156   -7.1134582    252.54987  0.033944874   0.03441973            1 
  621000     1.159891   -7.1010694    252.83881  0.033928986  0.034414629            3 
  622000    1.1585404   -7.1170218     253.9975  0.034029676  0.034409586            1 
  623000    1.1631216   -7.1668961    253.21041  0.033869771  0.034404762            5 
  624000    1.1377906   -7.0889199    253.91531   0.03390963  0.034399643            2 
  625000    1.1698006   -7.1465606    254.32351  0.033909801  0.034394393            2 
  626000    1.1630937   -7.1027165    254.88142  0.033929901  0.034388609            1 
  627000    1.1468452   -7.1547117    254.99476  0.033890851  0.034382791            1 
  628000    1.1446106   -7.0763444    255.59182  0.033916112  0.034377283            2 
  629000    1.1857071   -7.0945724    255.77077    0.0338859  0.034372121            1 
  630000    1.1482174   -7.0621178    257.52606  0.034064294   0.03436761            2 
  631000    1.1378759   -7.0639727    257.37688  0.033990607  0.034362816            3 
  632000    1.1586451   -7.0964969    257.80262  0.033992962  0.034358346            2 
  633000    1.1401944   -7.1491854     257.0753  0.033843509   0.03435359            2 
  634000    1.1527073   -7.1248124    257.66394    0.0338675  0.034348435            5 
  635000    1.1700119   -7.1404455    257.91459  0.033847059  0.034342924            3 
  636000    1.1841055   -7.1080594    259.51012  0.034002898   0.03433798            2 
  637000    1.1365849   -7.0890793     259.4782  0.033945343  0.034333243            2 
  638000    1.1573331   -7.1236391    259.72992  0.033925016   0.03432817            3 
  639000    1.1544792   -7.1056855    260.39423  0.033958558  0.034323213            5 
  640000    1.1437454   -7.1186696    260.37179  0.033902577  0.034317845            1 
  641000    1.1610812   -7.1264312    260.79676  0.033904936  0.034312722            2 
  642000    1.1433441   -7.0952002    261.36038  0.033925283  0.034308007            4 
  643000    1.1477839   -7.1089202    261.26406  0.033860039  0.034303484            2 
  644000    1.1465999   -7.1569935    262.35159  0.033948187  0.034298893            3 
  645000    1.1401052    -7.138437    262.26962  0.033884964  0.034294036            2 
  646000    1.1354538   -7.0927991    262.83277  0.033905156  0.034289354            2 
  647000    1.1639816   -7.1136562    262.92613  0.033864777  0.034284391            1 
  648000    1.1386593   -7.1186633     264.0858  0.033961651  0.034279509            3 
  649000    1.1609097   -7.1096457    264.50728  0.033963442  0.034275171            2 
  650000    1.1545096   -7.0957147    264.23152  0.033875836  0.034270561            3 
  651000     1.143688   -7.1488055    263.49667  0.033729732  0.034266253            2 
  652000    1.1334119   -7.1309383    264.63384  0.033823343  0.034261445            1 
  653000    1.1533933    -7.176816    264.25322  0.033722973  0.034256378            3 
  654000    1.1221997   -7.1437374    265.22904  0.033795749  0.034251452            1 
  655000    1.1535099   -7.1381269     266.4137  0.033894872  0.034246715            1 
  656000      1.16902    -7.142289    266.29203  0.033827748  0.034241792            2 
  657000    1.1375383   -7.1481529    267.15408  0.033885601  0.034236893            1 
  658000    1.1626708   -7.1579664    266.52587  0.033754543  0.034231979            1 
  659000    1.1515139   -7.1352182    267.06353  0.033771312  0.034226803            3 
  660000    1.1450736   -7.1273715    267.50649  0.033776072   0.03422162            2 
  661000    1.1486157    -7.154912    267.30383  0.033699424  0.034216197            3 
  662000    1.1562649    -7.067545    268.86521  0.033845066  0.034210814            1 
  663000    1.1406203    -7.078164    268.44143  0.033740753  0.034205248            1 
  664000    1.1504885   -7.1540187    267.78591   0.03360767  0.034199532            2 
  665000    1.1244236   -7.1074121    269.12975  0.033725532  0.034194057            2 
  666000    1.1288946   -7.1214879    269.64377   0.03373921  0.034188415            2 
  667000    1.1694139    -7.130353    269.21057  0.033634503  0.034182876            1 
  668000    1.1344182   -7.1448795    269.41728   0.03360994  0.034176708            1 
  669000    1.1484621    -7.122844    271.30613  0.033794984  0.034171213            2 
  670000    1.1437803   -7.1275939    270.81986  0.033684062  0.034165609            1 
  671000    1.1327573   -7.1235121    271.96145  0.033775639  0.034159946            2 
  672000    1.1567617   -7.1284882    271.27077  0.033639728  0.034154452            2 
  673000    1.1524461    -7.128174     271.2589  0.033588274  0.034148986            1 
  674000    1.1492962   -7.1150335    272.61371  0.033705948  0.034143366            2 
  675000    1.1518031   -7.1596547    271.74479   0.03354874  0.034137583            1 
  676000    1.1507053   -7.1230565    273.47248   0.03371209  0.034131774            1 
  677000    1.1506833   -7.1376835    273.48368  0.033663673  0.034126076            1 
  678000    1.1585599   -7.1152618    274.03581  0.033681885  0.034120254            1 
  679000    1.1361429    -7.124695    274.66316  0.033709274  0.034114952            2 
  680000    1.1369472   -7.1303051    274.49391   0.03363896  0.034109102            1 
  681000    1.1613903   -7.1545517    274.52711  0.033593626  0.034103247            2 
  682000    1.1426627   -7.1475303    275.21035  0.033627853  0.034097495            1 
  683000    1.1330695   -7.1397201    275.69331  0.033637544  0.034091739            1 
  684000     1.162188   -7.1611997    275.90337  0.033613959  0.034085975            1 
  685000    1.1445472   -7.1403314    276.01868  0.033578914  0.034080248            1 
  686000    1.1314697   -7.1331789    276.57011  0.033596952  0.034074789            3 
  687000    1.1462347   -7.1708117    276.61601  0.033553616  0.034069085            1 
  688000    1.1433898   -7.1248514    277.88107  0.033658075  0.034063413            4 
  689000    1.1242774   -7.1182986    278.10409  0.033636198  0.034058066            1 
  690000    1.1434889   -7.1678787    278.01373  0.033576537  0.034052385            3 
  691000    1.1606047   -7.1173132    279.38015  0.033692735  0.034047076            2 
  692000    1.1495441   -7.1596963    278.61555  0.033551969  0.034041743            2 
  693000    1.1534135   -7.1332504      279.485  0.033608105   0.03403627            1 
  694000     1.119416    -7.146523    280.63184  0.033697387  0.034031009            1 
  695000    1.1363707    -7.093784    280.43378  0.033625154  0.034026106            1 
  696000    1.1532067   -7.1105152    280.52747  0.033588059  0.034020804            1 
  697000     1.141509    -7.138891    281.66952  0.033676413  0.034015475            2 
  698000    1.1297323   -7.1265206    281.37604  0.033593129  0.034010417            1 
  699000    1.1314489   -7.1455753    281.47805   0.03355723  0.034004874            2 
  700000     1.116446   -7.1175217    282.77049  0.033663153  0.033999701            3 
  701000    1.1566642   -7.1078289    283.04853  0.033648185  0.033994662            3 
  702000    1.1408026   -7.1424225    282.95158  0.033588744  0.033989485            1 
  703000    1.1152488   -7.1574547     282.3234  0.033466501  0.033983994            2 
  704000    1.1397684   -7.1247681    284.98864   0.03373445  0.033978952            2 
  705000    1.1440676   -7.1288261    283.49499  0.033510046  0.033973884            2 
  706000    1.1230487     -7.14539    284.64094  0.033597844   0.03396925            3 
  707000    1.1480499   -7.1006927    284.89082  0.033579776  0.033964545            4 
  708000      1.14993    -7.142508    285.46696   0.03360016  0.033959403            1 
  709000    1.1211544   -7.0874821     286.5509  0.033680172  0.033954457            1 
  710000    1.0936603   -7.1653358    285.04794  0.033456331  0.033949518            1 
  711000    1.1393813   -7.1068827    286.06913  0.033528965  0.033944084            1 
  712000    1.1551221   -7.1270286    286.66904  0.033552088  0.033939032            1 
  713000     1.103523   -7.1570562     287.0958  0.033554909  0.033934018            2 
  714000    1.1417362   -7.1600235    286.95014  0.033490912  0.033928765            1 
  715000     1.159672   -7.1570704     288.0376  0.033570815  0.033924057            1 
  716000    1.1369595   -7.1652284    287.62051  0.033475386  0.033919448            1 
  717000    1.1507054   -7.1593943    289.80606  0.033682713  0.033914962            1 
  718000    1.1145846   -7.1280498    289.32066  0.033579464  0.033910606            2 
  719000    1.1476933    -7.130252    290.20231  0.033634946  0.033906153            1 
  720000     1.128801    -7.134849    291.31281   0.03371676  0.033901515            2 
  721000    1.1502084   -7.1484833      290.894   0.03362159  0.033897202            2 
  722000    1.1417634   -7.1609189    291.34332  0.033626884  0.033892532            2 
  723000    1.1137951   -7.1726752    291.52433  0.033601236  0.033888087            1 
  724000    1.1482153   -7.1737214    291.51218  0.033553427  0.033883418            1 
  725000    1.1306608   -7.1247649    292.65272  0.033638243  0.033878684            1 
  726000    1.1678804   -7.1489636    292.33949  0.033555956  0.033873969            1 
  727000    1.1384372   -7.1561323    292.43019  0.033520196    0.0338692            1 
  728000    1.1459578   -7.1325792    294.32036  0.033690518  0.033864121            1 
  729000    1.1541041   -7.1027829    293.56554  0.033558018  0.033859144            2 
  730000    1.1304321   -7.1114877    293.89331  0.033549465  0.033853956            1 
  731000    1.1286039   -7.1938519    292.49606  0.033344284  0.033848166            1 
  732000    1.1494688   -7.1558427    293.57398  0.033421446  0.033842317            1 
  733000    1.1296571   -7.1551509     293.8565   0.03340797  0.033836871            3 
  734000    1.1316315   -7.1403913    294.44481  0.033429247  0.033831972            2 
  735000    1.1289964   -7.1819434    295.47823  0.033500933  0.033826596            1 
  736000    1.1393905   -7.1658489    294.70218  0.033367547  0.033821363            2 
  737000     1.135084   -7.1894056    295.65335  0.033429822  0.033816036            2 
  738000    1.1316811   -7.1448371    295.21992  0.033335583  0.033810923            1 
  739000    1.1236686   -7.1617611     296.6868  0.033455887  0.033805954            1 
  740000    1.1232781   -7.2064459    296.55922  0.033396308  0.033801065            1 
  741000    1.1475214   -7.2049427    296.59775  0.033355573  0.033795825            1 
  742000    1.1442892   -7.1595379    298.58355  0.033533642  0.033790638            1 
  743000    1.1439073   -7.1507811     298.6347  0.033494247  0.033785964            2 
  744000    1.1063583   -7.1497559    299.88736  0.033589534   0.03378112            3 
  745000     1.120127   -7.1829825    298.40178  0.033378276  0.033776133            1 
  746000    1.1159662   -7.1755708    298.20746  0.033311825  0.033770911            1 
  747000    1.1168521   -7.1725314     299.2289   0.03338118   0.03376625            1 
  748000    1.1331959   -7.1767493    299.94345  0.033416159  0.033761539            3 
  749000    1.1358055   -7.1935867    300.09616  0.033388536  0.033756637            2 
  750000    1.1318992   -7.1652362     301.0092  0.033445467  0.033751712            3 
  751000    1.1109789   -7.1480634    300.71533  0.033368323  0.033746551            3 
  752000     1.114432   -7.1519495    300.99287  0.033354706  0.033741389            1 
  753000    1.1164227   -7.1472016    301.88693  0.033409354  0.033736509            2 
  754000    1.1423181   -7.1667121    301.86521  0.033362644   0.03373173            1 
  755000    1.1263493   -7.1987156    302.94241  0.033437352   0.03372677            4 
  756000    1.1156117   -7.1972141    302.08241  0.033298326   0.03372194            1 
  757000    1.1202106   -7.1503993    302.58885  0.033310089    0.0337166            1 
  758000    1.1394185   -7.1706168     302.1117  0.033213687   0.03371134            2 
  759000    1.1235147    -7.168798    303.09681  0.033278086  0.033705902            1 
  760000    1.1091828   -7.1813691    303.60881  0.033290439  0.033700159            1 
  761000    1.1279546   -7.1534684    304.39601  0.033332897  0.033694723            1 
  762000     1.116012   -7.1842849    303.73027  0.033216347   0.03368914            1 
  763000    1.1319623    -7.168111    304.39212  0.033245098  0.033683607            2 
  764000    1.1267294    -7.160775    305.67271  0.033341264  0.033678321            2 
  765000    1.1441663   -7.1365574    306.64589  0.033403691  0.033673015            5 
  766000     1.113587   -7.1362743    306.30674  0.033323188  0.033668068            1 
  767000    1.1301789   -7.1753721    305.50066  0.033192162  0.033662914            2 
  768000    1.1359465   -7.1381678    306.04774  0.033208305  0.033657288            1 
  769000     1.130226   -7.1506312    306.41476  0.033204894  0.033651918            1 
  770000    1.1123432   -7.1835208    306.95452  0.033220186  0.033646424            3 
  771000    1.1427772   -7.1382822    307.78375  0.033266726  0.033640947            1 
  772000    1.1359038   -7.1511878    307.55043  0.033198449  0.033635418            1 
  773000    1.1370724   -7.1773618    308.40103  0.033247201  0.033630145            2 
  774000    1.1404872   -7.1365257     308.5339  0.033218551  0.033624774            1 
  775000    1.1087166   -7.1659861    308.82797  0.033207309  0.033619313            2 
  776000    1.1502028   -7.1453947    309.54926  0.033241974  0.033613782            2 
  777000     1.123742   -7.1650157    310.74897  0.033327861  0.033608451            2 
  778000    1.1214541   -7.1792932    309.26567  0.033126143  0.033602945            2 
  779000    1.1297772   -7.1525377    310.99466  0.033268577  0.033597472            1 
  780000    1.1477569   -7.1637464    310.56745  0.033180283  0.033592269            2 
  781000     1.151926   -7.1932156    309.72948  0.033048387  0.033586538            1 
  782000    1.1174225    -7.145454    311.93904  0.033241586  0.033580697            2 
  783000    1.1095839   -7.1900321    312.18691  0.033225512  0.033575193            2 
  784000    1.0951783   -7.1931662    311.66384  0.033127534  0.033569514            1 
  785000    1.1431917   -7.1867762    311.73213  0.033092583  0.033563791            1 
  786000    1.1408218   -7.1788013    312.52611   0.03313466  0.033557601            1 
  787000    1.1159954   -7.1297019    313.57646  0.033203776  0.033551831            2 
  788000    1.1356763   -7.1381079    311.74947   0.03296843  0.033545905            4 
  789000    1.1222766   -7.1101804    312.71764  0.033028902  0.033539638            2 
  790000    1.1308914   -7.1628722    312.94806  0.033011399  0.033532886            1 
  791000    1.1363165   -7.1580494    313.13846  0.032989724   0.03352615            1 
  792000    1.1224838   -7.1453707    313.51015  0.032987179  0.033519189       -1e+20 
  793000    1.1081942   -7.1894125    312.68122  0.032858472   0.03351218            2 
  794000    1.1272541   -7.1601308    313.98247   0.03295366  0.033504924            1 
  795000    1.1486293   -7.1466217    315.36906  0.033057554  0.033498057            2 
  796000       1.1234   -7.1902759    314.90414  0.032967351  0.033491458            1 
  797000    1.1277291   -7.1950365    314.10741  0.032842682  0.033484533            1 
  798000    1.1222543   -7.1850611    315.30978  0.032927087    0.0334777            2 
  799000    1.1330227   -7.1644334    315.88494  0.032945864  0.033470968            2 
  800000    1.1367839   -7.1640291    316.19898  0.032937394  0.033464556            2 
  801000    1.1426283    -7.198476      317.564  0.033038285  0.033458125            1 
  802000    1.1262111   -7.1416512    317.96375  0.033038627  0.033452002            1 
  803000    1.1205724   -7.1854248    317.92244  0.032993196   0.03344594            3 
  804000    1.1229971   -7.1642593    318.74018  0.033036917  0.033439777            2 
  805000    1.1495816   -7.1674378    319.17197  0.033040577  0.033433804            1 
  806000    1.1525767    -7.187651    320.09648  0.033095169   0.03342816            1 
  807000    1.1216741   -7.1808501    318.70187  0.032910148  0.033422219            2 
  808000    1.1032254   -7.1696509    320.02866  0.033006256  0.033415902            2 
  809000    1.1180158   -7.1422486    320.02345  0.032964921  0.033409725            3 
  810000    1.1402314   -7.1949218    321.05576  0.033030428   0.03340348            1 
  811000    1.1616381    -7.234671     319.9739  0.032878535  0.033397192            2 
  812000    1.1145619   -7.1941163    321.79512  0.033024951   0.03339109            4 
  813000    1.1049661    -7.203627    321.34235   0.03293792   0.03338486            2 
  814000     1.130843   -7.1913823    321.77832  0.032942088  0.033378591            2 
  815000    1.1163719   -7.1816397    321.73295  0.032897029  0.033372339            1 
  816000     1.132603   -7.1904127    322.84425  0.032970206  0.033366343            2 
  817000    1.1037772   -7.1522463    323.89076  0.033036593  0.033360613            2 
  818000    1.1106917   -7.1637487    323.70671  0.032977456  0.033354957            1 
  819000     1.116964   -7.1862264    323.18747  0.032884358  0.033349011            2 
  820000    1.1176113   -7.1890656    324.25592  0.032952838   0.03334321            4 
  821000    1.1048766   -7.1563706    325.31074  0.033019766  0.033337769            2 
  822000    1.1317411   -7.1818068     325.1636   0.03296468  0.033332262            2 
  823000    1.1258557   -7.2043127    324.86281  0.032894169  0.033326536            1 
  824000    1.1015039   -7.1611595    326.80244  0.033050409  0.033320496            1 
  825000    1.1559727   -7.1895143    325.45943   0.03287469  0.033314423            1 
  826000    1.1340505   -7.2057004    325.77134  0.032866358  0.033308178            2 
  827000    1.1584929   -7.1485391     327.0701  0.032957487  0.033302377            1 
  828000    1.1053574   -7.1343958    327.59421  0.032970431   0.03329662            2 
  829000    1.1271692   -7.1809067    326.95468  0.032866373  0.033290361            2 
  830000    1.1201478   -7.1764159    327.48709   0.03288023  0.033284158            2 
  831000    1.1315738    -7.244408    326.59998  0.032751703  0.033277536            2 
  832000    1.1180978   -7.2226115    327.17527  0.032769958   0.03327085            1 
  833000    1.1211189     -7.20092    326.94527   0.03270761  0.033264316            2 
  834000     1.157227   -7.1653062    328.52528  0.032826267  0.033257932            2 
  835000    1.1073191   -7.1784054    329.77758  0.032911934  0.033251578            2 
  836000    1.1308546   -7.2288663    328.25879  0.032721171  0.033245472            1 
  837000     1.137116   -7.1867841    329.35686  0.032791404  0.033239159            3 
  838000    1.1313542   -7.2151608    328.76106  0.032693025   0.03323261            1 
  839000    1.1056544   -7.1754499     329.8602   0.03276323  0.033226083            2 
  840000    1.1081341   -7.1769228    330.50113   0.03278781  0.033219459            1 
  841000    1.1439176   -7.1811181     331.2978  0.032827765  0.033212888            4 
  842000    1.1088055   -7.2028223    329.79032   0.03263958  0.033206106            2 
  843000    1.1058195    -7.154509      331.404   0.03276038  0.033199079            1 
  844000     1.129239   -7.2397855     330.6881  0.032650879  0.033192218            3 
  845000    1.1335895   -7.1457688    330.99311  0.032642319  0.033185433            1 
  846000    1.1454236   -7.1782569    331.46758  0.032650471   0.03317854            1 
  847000    1.1145861   -7.1868631    331.40577  0.032605841  0.033171512            2 
  848000    1.1240391   -7.1773626    331.98686  0.032624495  0.033164539            1 
  849000    1.0934741   -7.1889515    332.67405  0.032653518   0.03315752            2 
  850000    1.1391848   -7.1485472    333.85038   0.03273043  0.033150855            2 
  851000    1.1358847   -7.1751468    333.24918  0.032633096  0.033144006            2 
  852000    1.1196152   -7.2284345    332.37528  0.032509319  0.033137383            3 
  853000    1.1105009   -7.2350311    333.54775  0.032585751  0.033130295            3 
  854000    1.1255425   -7.2028102    333.30518  0.032523924  0.033123281            1 
  855000    1.1242232   -7.1968892    334.96481  0.032647642  0.033116399            1 
  856000    1.0852662   -7.1645296    335.36505  0.032648466   0.03310952            3 
  857000    1.1233238   -7.1552767    334.21152  0.032498203   0.03310253            2 
  858000    1.1161474   -7.2429912    334.08836  0.032448364  0.033095582            3 
  859000    1.1130243   -7.1632789    335.27575  0.032525781  0.033088328            1 
  860000     1.121332   -7.1753575    336.44041  0.032600815  0.033081311            1 
  861000    1.1334243   -7.1848703    336.66314  0.032584508   0.03307423            2 
  862000     1.126358   -7.1547404    336.43294  0.032524453  0.033067094            1 
  863000     1.112068   -7.1769138    336.64488   0.03250723  0.033060187            2 
  864000    1.1099931   -7.1725794     335.9057  0.032398312  0.033052995            3 
  865000    1.1106352   -7.1908188    337.11395  0.032477259  0.033045794            1 
  866000    1.1037624   -7.2496021    337.57432  0.032484057  0.033038549            1 
  867000    1.1275876   -7.1972495    336.87446  0.032379321   0.03303117            1 
  868000    1.1172552   -7.1812705    338.43666  0.032491999  0.033023961            1 
  869000    1.1156474   -7.2475633    338.11461  0.032423726   0.03301676            2 
  870000    1.1270311   -7.2047385    338.18103  0.032392819   0.03300916            1 
  871000    1.1033261   -7.1992665    338.67614  0.032402998  0.033001837            1 
  872000     1.124206    -7.233309    338.99925  0.032396718  0.032994107            1 
  873000    1.1456145   -7.1979457    339.14207  0.032373241  0.032986501            3 
  874000    1.1140674   -7.2165767    339.05162  0.032327576   0.03297905            2 
  875000     1.130315   -7.2211897    339.56456  0.032339482  0.032971417            2 
  876000    1.1081719   -7.1945496    339.68528  0.032314049  0.032963607            1 
  877000    1.1137025   -7.2009703     339.5187  0.032261374  0.032955939            2 
  878000    1.0835461   -7.2055566    340.00345  0.032270639  0.032948159            2 
  879000    1.1086244   -7.2111924    341.05546  0.032333661  0.032940651            4 
  880000    1.1043844   -7.2111767    341.06861  0.032298164  0.032933002            2 
  881000    1.1065512   -7.1912138    342.16451  0.032365164  0.032925378            1 
  882000    1.1008032   -7.2188121    341.53927  0.032269394  0.032917684            1 
  883000    1.1168107   -7.2087143    342.87913  0.032359298  0.032910084            1 
  884000    1.0999438   -7.2289541    342.41132  0.032278593  0.032902589            1 
  885000    1.1365725   -7.2278765    342.49382  0.032249889  0.032894842            2 
  886000    1.1203847   -7.1856218    343.16662   0.03227677  0.032887309            2 
  887000    1.1109853   -7.1743934    344.18565  0.032336119  0.032880173            2 
  888000    1.1096617    -7.231194    343.67475  0.032251759  0.032872764            1 
  889000    1.0898279   -7.2457566    344.47552  0.032290543  0.032865232            1 
  890000    1.1249785   -7.2042015    345.11101  0.032313765  0.032858082            1 
  891000    1.1057506   -7.1901111    345.71165  0.032333675  0.032850518            1 
  892000    1.0938206   -7.2399421    344.50865  0.032185038  0.032842975            2 
  893000    1.1122942   -7.2244387    345.62467  0.032253142  0.032835363            1 
  894000    1.1003254   -7.2279587    345.93929  0.032246391    0.0328278            1 
  895000    1.1047067   -7.2187822    345.55971  0.032175019  0.032819533            2 
  896000    1.1245926   -7.2283022    345.73001  0.032154949  0.032811892            1 
  897000    1.1081172   -7.2246669    346.02841  0.032146823  0.032804247            2 
  898000    1.1286086   -7.2234894    346.72207  0.032175396  0.032796471            1 
  899000     1.134828    -7.211026    346.72924  0.032140271  0.032788725            1 
  900000     1.129929    -7.212336    346.66386  0.032098505  0.032781289            1 
  901000    1.1022924   -7.2673526    346.76596  0.032072323  0.032773441            2 
  902000    1.1259242   -7.2285518    347.07322  0.032065153  0.032765473            1 
  903000    1.0915716   -7.2156945    348.42427  0.032154326  0.032757982            2 
  904000    1.1370852   -7.2238202    348.78062  0.032151606  0.032750372            1 
  905000     1.142021   -7.2318176    348.87781  0.032125028  0.032742983            1 
  906000     1.088779   -7.2169332    349.94416  0.032187652  0.032735384            2 
  907000     1.085635   -7.2152556    349.43696  0.032105564  0.032727737            1 
  908000    1.1113728    -7.217427     350.4813  0.032166052  0.032720069            3 
  909000    1.1173336   -7.2183734     349.9551  0.032082425  0.032712572            2 
  910000    1.0956188   -7.2310042    350.66165  0.032111872  0.032704848            2 
  911000    1.1058653   -7.2074188    351.30081  0.032135091  0.032697383            2 
  912000    1.1133013   -7.2282089    351.31592  0.032101235  0.032689922            2 
  913000    1.0767367   -7.2366011    352.33675  0.032159251  0.032682372            3 
  914000     1.125883   -7.1904982    352.70474  0.032157616  0.032674965            1 
  915000    1.0867334    -7.140009    353.41491  0.032187151  0.032667766            1 
  916000      1.13393    -7.210719    352.01681  0.032024819  0.032660275            2 
  917000    1.1116967   -7.1777446    353.14507  0.032092427  0.032652613            1 
  918000     1.102881   -7.1919123    353.90959  0.032126869  0.032645257            1 
  919000    1.1140158   -7.1843692    353.11192  0.032019579  0.032638125            2 
  920000     1.111227    -7.207078    354.51627  0.032111981  0.032631061            1 
  921000    1.0889063   -7.2078135    354.70272  0.032093985  0.032623516            1 
  922000    1.0788648   -7.2545265    353.72999  0.031971257  0.032615777            2 
  923000    1.0769311   -7.2014401    356.35414  0.032173541  0.032608515            2 
  924000    1.0814034   -7.1964144    355.57086  0.032068079  0.032601385            3 
  925000    1.0884966   -7.1926435    356.81085  0.032145121  0.032594132            2 
  926000     1.102865   -7.2283775    356.76297  0.032106099  0.032587064            1 
  927000    1.1078131   -7.2404188     356.9953  0.032092349   0.03257977            2 
  928000    1.1101413   -7.2224713    356.24439  0.031990337  0.032572619            2 
  929000    1.0955518    -7.200263    356.91399  0.032015966  0.032565474            3 
  930000    1.0979517   -7.2513405    357.14142   0.03200192   0.03255826            1 
  931000    1.1047357    -7.234652    357.74649  0.032021705  0.032550947            2 
  932000    1.1069042   -7.2236151    357.07296  0.031927124  0.032543631            1 
  933000    1.1026656   -7.2311939     357.6383    0.0319434  0.032536256            2 
  934000    1.1065945   -7.2114552    359.30019  0.032057476  0.032528732            1 
  935000     1.087314   -7.1832793    359.82061  0.032069573  0.032521427            1 
  936000    1.0933025   -7.2315454    358.80378  0.031944781  0.032514172            5 
  937000    1.0980035   -7.2555884    359.01957   0.03192988  0.032506722            1 
  938000    1.0935745   -7.2527674    359.73141  0.031959081  0.032499323            1 
  939000    1.0764599    -7.224978     359.6385    0.0319168  0.032491632            1 
  940000    1.0825117   -7.2489668    359.65267  0.031884102  0.032484013            1 
  941000    1.0971117   -7.2147864    361.20209  0.031987433  0.032476562            1 
  942000    1.1269358   -7.2054081    360.32006  0.031875448  0.032469009            2 
  943000    1.1103525   -7.2369651    360.78828  0.031883023  0.032461489            2 
  944000    1.0952134   -7.2383865    360.46326  0.031820557  0.032454008            2 
  945000    1.1153744   -7.2261153    361.41681   0.03187097   0.03244613            3 
  946000    1.0974484   -7.2029677    362.28287  0.031913572   0.03243831            2 
  947000    1.0711877   -7.2432392    362.06852   0.03186101  0.032430677            3 
  948000    1.1120251   -7.2014192    362.79089  0.031890901  0.032423211            2 
  949000     1.113936    -7.238518    363.15574  0.031889334  0.032415614            1 
  950000    1.1095819   -7.2018119    363.47322  0.031883615  0.032408187            1 
  951000    1.0970223   -7.1938395    364.15747  0.031910048   0.03240054            1 
  952000    1.1228256   -7.2057337     363.3994  0.031810172  0.032392687            4 
  953000    1.0705253   -7.2097958    363.34627  0.031772147  0.032384782            1 
  954000    1.0895682   -7.2720197    363.72393  0.031771832  0.032376797            4 
  955000    1.1044286   -7.2326073    364.36214  0.031794253  0.032368969            2 
  956000      1.10804   -7.2248057    365.35305  0.031847372  0.032360929            1 
  957000     1.115741   -7.2552006    362.92176  0.031602382  0.032353296            1 
  958000    1.1207569   -7.2208436    365.23786  0.031770865  0.032345309            2 
  959000    1.0970754   -7.2534813    364.38583  0.031663698  0.032337363            2 
  960000    1.1038474   -7.2146921    366.37501  0.031803386  0.032329529            2 
  961000    1.0850146   -7.2152943    365.75055  0.031716142  0.032321932            1 
  962000    1.0797065   -7.2571608     366.8793  0.031780951   0.03231436            1 
  963000    1.0843437   -7.2297824    367.36718  0.031790168   0.03230685            1 
  964000     1.095822   -7.2238714    367.88989  0.031802377  0.032299318            3 
  965000    1.1293099   -7.2103383    368.49704  0.031821852  0.032291599            1 
  966000    1.1022917   -7.2201588    368.50696  0.031789766  0.032284002            2 
  967000    1.0985178   -7.2169128    369.03071  0.031802026  0.032276236            1 
  968000    1.0892537   -7.2392916    368.34726  0.031710336  0.032268679            1 
  969000    1.0767933   -7.2101438    368.04318   0.03165146  0.032260782            2 
  970000     1.116478   -7.2870284    368.33946  0.031644284   0.03225292            2 
  971000    1.0972542   -7.2393114    368.97754  0.031666456  0.032245323            1 
  972000    1.0672051   -7.1929881    370.05953   0.03172664  0.032237727            4 
  973000    1.0812846   -7.2724856    369.40654  0.031638107  0.032230085            2 
  974000    1.0862693   -7.2502604    368.86139  0.031558983  0.032222047            2 
  975000    1.0858225   -7.2192092    369.61739   0.03159123  0.032213796            2 
  976000    1.0950163   -7.2310057    369.66142  0.031562621  0.032205528            1 
  977000    1.0757944   -7.2313719    371.06819  0.031650306  0.032197524            1 
  978000    1.1119827   -7.2135094    370.75614  0.031591354  0.032189893            1 
  979000     1.100425   -7.2436865    371.07892  0.031586561  0.032181851            1 
  980000    1.1186818   -7.2483678    370.36204   0.03149337  0.032173759            2 
  981000    1.0935134   -7.2303219    370.86621  0.031504095   0.03216576            1 
  982000    1.0830873    -7.281322     372.2995  0.031593644   0.03215766            3 
  983000    1.0953563   -7.2313583    371.97277  0.031533806  0.032149376            2 
  984000    1.0956338   -7.2722265    371.23576  0.031439343  0.032140927            2 
  985000    1.0859212   -7.2734145     371.6147  0.031439484  0.032132415            1 
  986000    1.0901781   -7.2466482    371.93565  0.031434723  0.032123783            1 
  987000    1.0992676   -7.2843739    371.35811  0.031354112  0.032115283            4 
  988000    1.1240453   -7.2287011    372.80087  0.031444068  0.032106921            3 
  989000    1.0696494   -7.2391925    372.85891  0.031417165  0.032098693            1 
  990000    1.0749854   -7.2574621    373.69249  0.031455597  0.032090404            2 
  991000    1.1072596   -7.2490186    373.27845  0.031389039  0.032082219            1 
  992000    1.0832595   -7.2174076    374.28113  0.031441627  0.032073898            1 
  993000    1.0834478   -7.2083668    375.87288  0.031543545  0.032065474            1 
  994000    1.0811496   -7.2413288    375.02328  0.031440583  0.032057249            2 
  995000    1.0801921    -7.251579    375.33659  0.031435225  0.032048951            2 
  996000    1.1192861   -7.2410958    375.05998   0.03138052  0.032040786            4 
  997000    1.0984452   -7.2314914    376.41846  0.031462592  0.032032307            1 
  998000    1.0941482   -7.2706735     375.3835  0.031344648  0.032024012            2 
  999000    1.0903855   -7.2227572    376.12596  0.031375205   0.03201575            2 
 1000000    1.1265335   -7.2211572     378.0178  0.031501484  0.032007601            2 
 1001000    1.0838164   -7.2368395    376.99813  0.031385126  0.031999492            2 
 1002000    1.0869143   -7.2331525    377.70646  0.031412713  0.031991239            1 
 1003000    1.1084874   -7.2632986    377.01367  0.031323834  0.031982927            4 
 1004000    1.0817565   -7.2378142     378.0167  0.031375888   0.03197476            2 
 1005000     1.084168   -7.2355489    378.35075  0.031372367  0.031966399            3 
 1006000    1.0994107   -7.2436832    379.24478  0.031415241  0.031958065            2 
 1007000    1.0927647   -7.2587719     377.7621  0.031261345  0.031949769            1 
 1008000    1.0729728   -7.2396408    377.66887  0.031222625  0.031941164            2 
 1009000    1.0876724   -7.2829288    378.04981  0.031223142  0.031932605            4 
 1010000    1.0726752   -7.2881395    378.32062  0.031214573  0.031923745            1 
 1011000     1.100271    -7.253967    377.69887  0.031132449  0.031914829            2 
 1012000    1.0998032   -7.2828044    378.30358  0.031151481  0.031905851            1 
 1013000    1.1113527   -7.2525663    379.77172  0.031241504  0.031897245            2 
 1014000    1.0712905   -7.2406144    379.76127  0.031209834  0.031888366            3 
 1015000    1.1034151   -7.2716579    378.87877  0.031106631  0.031879459            2 
 1016000    1.0986429   -7.2520509    379.33764  0.031113652  0.031870346            3 
 1017000    1.1029272   -7.2501988    380.57957  0.031184822  0.031861287            1 
 1018000    1.1119207   -7.2530903    380.91858   0.03118194  0.031852359            1 
 1019000    1.0934362   -7.2532227    380.40555  0.031109385  0.031843415            2 
 1020000    1.0847183   -7.2566665    381.20241  0.031143988  0.031834638            1 
 1021000      1.07977   -7.2639228    380.79394  0.031080146  0.031826105            3 
 1022000    1.0838885   -7.2527847    382.17997   0.03116275  0.031817731            2 
 1023000    1.1162146   -7.2640802    383.90646  0.031272928  0.031809236            3 
 1024000    1.0716589   -7.2436253    382.14267   0.03109885  0.031800811            2 
 1025000    1.1111393   -7.2484069    383.38075  0.031169166  0.031792537            1 
 1026000    1.0816958   -7.2933785    382.21114  0.031043789   0.03178423            1 
 1027000     1.084143   -7.2778804    384.96708  0.031237186  0.031775738            4 
 1028000    1.0746816   -7.2455795    385.22095  0.031227379  0.031767363            3 
 1029000    1.0779287   -7.2675372    385.20421  0.031195676  0.031759024            2 
 1030000    1.0886973   -7.2780851    386.17337    0.0312438  0.031750958            2 
 1031000    1.0962226   -7.2671988    385.42689  0.031153159  0.031742584            1 
 1032000    1.0861755   -7.2561438    386.26805  0.031190896  0.031734493            1 
 1033000    1.1156632   -7.2791815    386.92643  0.031213813  0.031726575            1 
 1034000    1.0780997   -7.2362427    386.85165  0.031177599  0.031718635            2 
 1035000    1.0771856   -7.2453449    387.12334  0.031169351  0.031710647            3 
 1036000    1.0665681   -7.2668676    386.22799  0.031067245  0.031702469            1 
 1037000    1.0769022   -7.2599932    386.52884  0.031061462  0.031694301            2 
 1038000    1.0869652   -7.3056192    386.38803  0.031020233  0.031686104            2 
 1039000    1.0455558   -7.2929609    386.14694  0.030971041   0.03167807            2 
 1040000    1.0591897   -7.2512554    389.09308   0.03117733   0.03166992            1 
 1041000    1.0858743   -7.2491491    389.64546    0.0311916   0.03166204            2 
 1042000     1.060323   -7.3034884    389.12405  0.031119965  0.031654282            1 
 1043000     1.082522   -7.2267596    390.57067   0.03120571  0.031646529            1 
 1044000    1.0975473   -7.2522765    390.70657  0.031186667  0.031638871            1 
 1045000    1.0844645   -7.2517107      390.792  0.031163636  0.031631186            3 
 1046000    1.0745642   -7.2067974    391.76778  0.031211582  0.031623575            3 
 1047000     1.094428   -7.2408553    390.89621  0.031112402  0.031616248            3 
 1048000     1.086457   -7.2242999    391.81046  0.031155412  0.031608768            1 
 1049000    1.0856391   -7.2588502    391.70168   0.03111707  0.031601264            4 
 1050000    1.0849654   -7.2888424    392.01956  0.031112664   0.03159364            1 
 1051000    1.0997752   -7.2482973    393.27675  0.031182743  0.031586227            1 
 1052000    1.0781059    -7.245507    393.02051  0.031132804  0.031578956            3 
 1053000    1.0952389   -7.2886941    394.77332  0.031241953   0.03157173            2 
 1054000    1.0950074   -7.2948598    393.35255  0.031099981  0.031564583            2 
 1055000    1.0908797   -7.2810853    395.16571  0.031213721  0.031557202            1 
 1056000    1.0850655   -7.2648954    394.81713  0.031156654  0.031550097            2 
 1057000     1.078207   -7.2773182    394.24865  0.031082359  0.031543004            1 
 1058000    1.0692525    -7.277788    396.87665  0.031259975  0.031535961            1 
 1059000    1.0818747   -7.2470509     395.7988  0.031145641  0.031529032            3 
 1060000    1.1096542   -7.2393065    394.77885  0.031036073   0.03152194            2 
 1061000    1.0749071   -7.2639798    397.26707  0.031202252   0.03151485            2 
 1062000    1.0647297   -7.2404385    397.23652  0.031170474  0.031507813            1 
 1063000    1.0769962   -7.2936814    397.32798  0.031148321  0.031500687            3 
 1064000    1.0933737   -7.2457072    397.73494   0.03115092  0.031493532            2 
 1065000    1.1099432    -7.271637    397.92828  0.031136798  0.031486267            1 
 1066000    1.0975509   -7.2591786    398.48919  0.031151437  0.031479079            2 
 1067000     1.081205   -7.2531903    398.05834  0.031088593  0.031471945            3 
 1068000    1.0797728   -7.2741463    398.90155  0.031125277  0.031464627            1 
 1069000    1.0929844    -7.263038    398.40244  0.031057253  0.031457488            4 
 1070000    1.0714111    -7.299447    398.64796  0.031047349  0.031450362            4 
 1071000    1.1022706   -7.3050599    397.88934  0.030959332  0.031442902            1 
 1072000    1.0625526   -7.2844308    398.50001  0.030977924   0.03143533            2 
 1073000    1.1017264   -7.2624531    399.83304  0.031052581  0.031427689            1 
 1074000    1.0996511   -7.2614406    399.03609  0.030961832  0.031420223            1 
 1075000     1.069575   -7.2876796    398.18098  0.030866743  0.031412666            1 
 1076000    1.0614993   -7.2504453    398.99499  0.030901099  0.031404926            3 
 1077000     1.073904   -7.2456171    398.49463  0.030833692  0.031397327            2 
 1078000    1.0715628    -7.303734    398.44943  0.030801595  0.031389576            1 
 1079000    1.1039914   -7.2945586    400.07823  0.030898844  0.031381893            1 
 1080000    1.0744091   -7.2728443    400.39789  0.030894899  0.031374455            2 
 1081000    1.0897689   -7.2888577    399.96733  0.030833128  0.031366732            2 
 1082000    1.0954717   -7.2365136    402.44574  0.030995513  0.031359123            1 
 1083000    1.0796202   -7.2647931    402.24898  0.030951752  0.031351638            4 
 1084000    1.0698723   -7.2656903    400.73669  0.030806941  0.031344195            1 
 1085000     1.053464   -7.2764969    401.98697  0.030874575  0.031336399            2 
 1086000     1.081234   -7.3128077    401.97704  0.030845384  0.031328495            2 
 1087000    1.0776981   -7.3144198    401.62184  0.030789776  0.031320688            4 
 1088000    1.0797621   -7.2883007    403.06257  0.030871826  0.031312848            1 
 1089000    1.0616938   -7.2115221    404.34584  0.030941677  0.031305206            1 
 1090000    1.0917715   -7.3297626    402.81834  0.030796509  0.031297379            1 
 1091000     1.082277   -7.2750798    403.11393  0.030790859  0.031289315            1 
 1092000     1.100845   -7.2815032    401.96237  0.030674784  0.031281275            2 
 1093000    1.0646224   -7.2902292     403.4925  0.030763381  0.031273277            2 
 1094000     1.072452   -7.3158243    403.78491  0.030757535  0.031265317            1 
 1095000    1.0629401   -7.2854516      402.852  0.030658447  0.031257187            1 
 1096000    1.0781606   -7.2472422    405.21005  0.030809766  0.031249445            1 
 1097000    1.0913765    -7.323429    404.07482  0.030695444  0.031241607            3 
 1098000    1.0775822   -7.3252026    404.63071  0.030709677  0.031233672            2 
 1099000    1.0771468   -7.2662633    404.98865  0.030708875     0.031226            2 
 1100000    1.0545706    -7.298613    405.11367   0.03069043  0.031218202            1 
 1101000    1.0977851   -7.2726224    407.11231  0.030813829  0.031210472            1 
 1102000    1.0929856   -7.3027533    405.58774  0.030670579  0.031202602            2 
 1103000    1.0741408   -7.3053308     405.2229  0.030615209    0.0311949            1 
 1104000    1.0857829   -7.3132992    404.40433  0.030525689  0.031186885            3 
 1105000    1.0619287   -7.2166643    406.79573  0.030678411  0.031179136            2 
 1106000    1.0798129   -7.2763957    407.03076  0.030668381  0.031171706            2 
 1107000     1.066139   -7.2818556    408.46562  0.030748692  0.031164318            1 
 1108000    1.0792432   -7.3037095     407.2285  0.030627895  0.031156714            1 
 1109000    1.0583444   -7.2820902     408.7392  0.030713796  0.031149224            2 
 1110000    1.0991155   -7.2924914    408.09496   0.03063776  0.031141666            3 
 1111000    1.0757048   -7.2875779    409.49435  0.030715148  0.031133959            1 
 1112000    1.0763313   -7.3002473    410.42735  0.030757445  0.031126434            1 
 1113000    1.0797207   -7.2713439    409.39036  0.030652168  0.031119026            2 
 1114000    1.0851295   -7.2791445    410.22648  0.030687199  0.031111663            2 
 1115000    1.0889668   -7.2705856    410.60893  0.030688261  0.031104233            6 
 1116000    1.0754473   -7.2598725    413.55091  0.030880444  0.031097077            2 
 1117000    1.0728224   -7.2807891     411.7587  0.030719091  0.031090002            1 
 1118000    1.0903146   -7.2683453    411.92107  0.030703717  0.031082982            4 
 1119000    1.0788065   -7.2966767    411.87297  0.030672696   0.03107573            2 
 1120000    1.0746845   -7.3056777     411.7236  0.030634197  0.031068549            1 
 1121000    1.0711001   -7.2768603    414.18319  0.030789711   0.03106163            3 
 1122000    1.0656419   -7.2491607    414.13235  0.030758493  0.031054661            1 
 1123000    1.0795564   -7.2920213    414.32799  0.030745621   0.03104763            1 
 1124000    1.0660832   -7.3216137    414.51268   0.03073196  0.031040498            1 
 1125000    1.0374846   -7.2784179    415.28401  0.030761778  0.031033582            2 
 1126000    1.0574369   -7.2974086    415.20964  0.030728955  0.031026735            3 
 1127000    1.0601169   -7.2530365    414.81079  0.030672197  0.031019779            1 
 1128000    1.0547173   -7.3269292    414.75485  0.030640872  0.031012679            3 
 1129000    1.0487805   -7.3010292    415.35593  0.030658099  0.031005721            1 
 1130000    1.0726723   -7.3141736      415.058  0.030608997  0.030998513            2 
 1131000    1.0869284   -7.2688155    415.94643  0.030647394  0.030991519            1 
 1132000    1.0808961   -7.2849891    416.23515  0.030641574   0.03098447            2 
 1133000    1.0468873   -7.2976918    415.99342  0.030596751  0.030977438            3 
 1134000    1.0869256   -7.3367365    415.75361  0.030552146  0.030969937            2 
 1135000    1.0747641   -7.3133539    416.23566  0.030560621  0.030962479            2 
 1136000    1.0648575   -7.2678054    416.18049  0.030529672  0.030955194            1 
 1137000    1.0862196   -7.2914115     418.2937  0.030657703  0.030948114            4 
 1138000    1.0717812   -7.2965818    417.21489  0.030551764  0.030940945            1 
 1139000    1.0508586   -7.2761333    417.57158  0.030551037  0.030933927            1 
 1140000    1.0449715   -7.2956372    417.21433  0.030498124  0.030926673            4 
 1141000    1.0911766   -7.2915377     417.6719  0.030504813  0.030919379            1 
 1142000     1.086727   -7.3225213     419.4925  0.030610953   0.03091208            1 
 1143000    1.0357902   -7.2856689    419.35592  0.030574214  0.030905025            1 
 1144000    1.0653336   -7.2699019    420.06476  0.030599123  0.030897774            2 
 1145000    1.0789609   -7.3249087    418.55367  0.030462421  0.030890498            2 
 1146000    1.0538097   -7.3103412    419.07204  0.030473534  0.030883324            2 
 1147000     1.046346   -7.3140221    420.26922  0.030533945  0.030876024            3 
 1148000    1.0961012    -7.302502    418.85053  0.030404365  0.030868788            1 
 1149000    1.0626862   -7.3407383    419.51305  0.030425953  0.030861176            1 
 1150000    1.0334399   -7.2896098    421.19469  0.030521354  0.030853912            2 
 1151000    1.0816465   -7.2869796    421.27058  0.030500332  0.030846799            3 
 1152000     1.075265   -7.2839985    422.31367   0.03054931  0.030839627            2 
 1153000    1.0776876   -7.2860498    422.26121  0.030519023  0.030832508            1 
 1154000     1.056272   -7.2467122    422.76799  0.030529173  0.030825404            4 
 1155000    1.0583874   -7.3204656    420.70009  0.030353541  0.030818248            1 
 1156000    1.0634628   -7.2975906    422.43651  0.030452459  0.030811037            3 
 1157000    1.0728539    -7.335784    421.85117  0.030383979  0.030803802            1 
 1158000    1.0915042   -7.3197386    422.47278  0.030402474  0.030796703            2 
 1159000    1.0732958   -7.2770692    424.59941  0.030529149  0.030789648            2 
 1160000    1.0859447   -7.2765957    423.32328  0.030411155  0.030782684            1 
 1161000    1.0631306   -7.3031739    423.60742  0.030405356  0.030775671            1 
 1162000    1.0557505    -7.280442    424.65297  0.030454172  0.030768629            1 
 1163000    1.0871764   -7.2962738    425.05828  0.030457028  0.030761439            1 
 1164000    1.0804661   -7.3409525     425.0299   0.03042883  0.030754101            1 
 1165000    1.0624489   -7.2996152    424.23657  0.030345964  0.030746835            1 
 1166000     1.086972    -7.353078    423.71658  0.030282775  0.030739503            1 
 1167000    1.0300059   -7.2901457     425.0652  0.030353127  0.030732294            2 
 1168000    1.0589974   -7.2866443    425.16775  0.030334457  0.030724914            2 
 1169000    1.0961171    -7.326405    425.13457  0.030306143  0.030717613            1 
 1170000    1.0609072    -7.315629    425.68665  0.030319562  0.030710193            2 
 1171000    1.0569078   -7.3132594    425.74081  0.030297524  0.030702926            2 
 1172000    1.0846494   -7.3338733    425.60376  0.030261928  0.030695606            1 
 1173000    1.0649826   -7.3007625    426.61469  0.030307949  0.030688189            1 
 1174000    1.0617456   -7.3322134    426.97833  0.030307945  0.030680959            1 
 1175000    1.0798858   -7.2995653    427.29398  0.030304537  0.030673954            1 
 1176000    1.0673477   -7.2807169    428.68912   0.03037763  0.030666755            1 
 1177000    1.0764544   -7.3404119    427.77221  0.030286903  0.030659641            1 
 1178000     1.060403   -7.3230005    428.55939  0.030316878  0.030652534            3 
 1179000    1.0646039   -7.3218834    428.98803  0.030321461   0.03064555            2 
 1180000     1.054987    -7.340357    428.14176     0.030236  0.030638483            1 
 1181000    1.0717449   -7.3486688    428.68165  0.030248493   0.03063119            3 
 1182000    1.0670746   -7.3460337    427.84156  0.030163674  0.030623885            2 
 1183000     1.063618   -7.3255198    428.41811   0.03017879  0.030616452            1 
 1184000    1.0508015   -7.3039901    430.12923  0.030273735   0.03060895            2 
 1185000    1.0582906   -7.3177597    429.29781   0.03018972  0.030601488            2 
 1186000    1.0594395     -7.34227    428.71777  0.030123508  0.030594019            3 
 1187000    1.0583533   -7.3247179    430.24216  0.030205151  0.030586608            2 
 1188000     1.064006   -7.3179504    430.38732  0.030189908  0.030579086            1 
 1189000    1.0501026   -7.3179612      430.531  0.030174587  0.030571361            3 
 1190000    1.0544454   -7.3506978    429.97023   0.03010996  0.030563636            2 
 1191000    1.0811857   -7.3313266    430.65963  0.030132916  0.030555921            2 
 1192000    1.0701347   -7.2938651    431.49717  0.030166189  0.030548338            4 
 1193000    1.0505082   -7.2978714    430.65718  0.030082228  0.030540673            2 
 1194000    1.0607458   -7.3132361    431.55271  0.030119536  0.030533074            3 
 1195000    1.0541501   -7.3582417    432.61793  0.030168615  0.030525369            1 
 1196000    1.0448983   -7.3032229    430.91292   0.03002459  0.030517735            1 
 1197000    1.0421092   -7.3292102    432.06265   0.03007955  0.030509991            2 
 1198000    1.0718175   -7.3082466    433.92512  0.030183996  0.030502353            1 
 1199000    1.0488362    -7.310065    432.79855  0.030080522  0.030494871            2 
 1200000    1.0757158   -7.2627054    434.53472  0.030176022  0.030487422            2 
 1201000    1.0634508   -7.3394718    433.34893  0.030068619  0.030480162            1 
 1202000    1.0596015   -7.3359242    433.94179  0.030084705  0.030472858            3 
 1203000    1.0691986    -7.288652    435.34029  0.030156573  0.030465744            3 
 1204000    1.0449616   -7.3130528    434.35841  0.030063567  0.030458493            1 
 1205000    1.0551552   -7.3309449    434.57149  0.030053353  0.030451279            2 
 1206000    1.0635472   -7.3331296     434.0711  0.029993857  0.030443957            5 
 1207000    1.0722656   -7.3380217    435.28675  0.030052937  0.030436542            1 
 1208000    1.0656157   -7.3258676    435.57422  0.030047891  0.030429071            2 
 1209000    1.0882363    -7.332377    435.03495  0.029985867  0.030421626            1 
 1210000    1.0861457   -7.3169233    437.32792  0.030119003  0.030414357            1 
 1211000    1.0543495    -7.329202    435.55903  0.029972408  0.030407036            3 
 1212000    1.0718812    -7.300326    437.81986  0.030103126  0.030399683            1 
 1213000    1.0421461   -7.3301173    436.69148  0.030000788  0.030392352            2 
 1214000    1.0544549   -7.3256969    436.58667  0.029968881  0.030385071            1 
 1215000    1.0556464   -7.3215701    437.64615  0.030016883  0.030377645            2 
 1216000    1.0486745     -7.34121    438.48314  0.030049557  0.030370273            1 
 1217000    1.0378608   -7.3235461    438.58594  0.030031905  0.030362755            1 
 1218000    1.0591375   -7.2928155    438.77045  0.030019872  0.030355225            2 
 1219000    1.0470008   -7.3424462    438.46004  0.029974025  0.030347695            2 
 1220000    1.0621287   -7.3232762    437.95476  0.029914942  0.030340261            2 
 1221000    1.0541419   -7.3149512     438.4292  0.029922823  0.030332709            2 
 1222000    1.0698613   -7.3220921    438.67955  0.029915408   0.03032531            1 
 1223000    1.0572947   -7.3476547    438.78641  0.029898229  0.030317768            1 
 1224000    1.0729751   -7.2882751    440.06111  0.029960588  0.030310213            1 
 1225000    1.0425957   -7.3265828    440.71712  0.029980757  0.030302902            2 
 1226000    1.0474257   -7.3161974    439.12478  0.029848068    0.0302955            2 
 1227000    1.0654132   -7.3250362    439.35327   0.02983926  0.030288096            3 
 1228000    1.0350958   -7.3088026    440.90151  0.029920027  0.030280553            1 
 1229000    1.0083355   -7.3145176    440.05807  0.029838491  0.030273005            5 
 1230000    1.0568893   -7.3511759    440.37571  0.029835752  0.030265336            2 
 1231000    1.0471626   -7.2959173    442.67106  0.029966901  0.030257823            4 
 1232000    1.0598946   -7.2873255    442.98614  0.029963889  0.030250313            1 
 1233000    1.0651005   -7.3068649    442.49389  0.029906319  0.030242808            3 
 1234000    1.0413938   -7.3716226    440.24361   0.02973012  0.030235187            2 
 1235000    1.0664852   -7.2933715    444.12892  0.029968213  0.030227807            2 
 1236000    1.0630979   -7.3164356    442.64255  0.029843753  0.030220413            1 
 1237000    1.0453604   -7.3830632    441.58526  0.029748401  0.030212786            2 
 1238000     1.053388   -7.3302421    443.58232  0.029858799  0.030205336            3 
 1239000    1.0742305    -7.338171    442.85826  0.029786001  0.030197783            1 
 1240000    1.0625862   -7.3290831    443.78276   0.02982411   0.03019038            1 
 1241000    1.0414556   -7.3678722    443.29118  0.029767068   0.03018277            1 
 1242000    1.0425307   -7.3496532    443.83466  0.029779567  0.030175092            2 
 1243000    1.0558638    -7.333873    444.75233  0.029817131  0.030167403            2 
 1244000    1.0610701    -7.298941    444.94093  0.029805796  0.030159773            1 
 1245000    1.0596046    -7.334071    444.32022  0.029740309  0.030152139            2 
 1246000    1.0330829   -7.3876016    443.43169  0.029657015  0.030144367            2 
 1247000     1.045259   -7.2982393    445.78889  0.029790757  0.030136694            2 
 1248000    1.0345852   -7.3449651    443.50031   0.02961407  0.030129119            5 
 1249000    1.0387909   -7.3152398    444.69787  0.029670261  0.030121452            2 
 1250000    1.0619607   -7.3726283    443.96487  0.029597658  0.030113609            1 
 1251000     1.068369   -7.3769313    445.57127  0.029681007  0.030105616            2 
 1252000    1.0790222   -7.3169911    446.54095  0.029721842  0.030097831            2 
 1253000    1.0621149   -7.3597416    445.18351  0.029607842  0.030090124            1 
 1254000    1.0434175   -7.3238228    445.23873  0.029587901  0.030082257            1 
 1255000    1.0663383    -7.370636    445.52793  0.029583528   0.03007427            2 
 1256000    1.0284725   -7.3393823    445.54214  0.029560917  0.030066148            3 
 1257000    1.0631188   -7.3318959    446.12299  0.029575908  0.030058194            1 
 1258000    1.0777957   -7.3318288    446.71483  0.029591603  0.030050248            2 
 1259000    1.0639408   -7.3326406     447.5108  0.029620784  0.030042412            1 
 1260000    1.0395675    -7.380827    447.84455  0.029619349  0.030034531            2 
 1261000    1.0623689   -7.3269187    447.19957  0.029553236  0.030026561            1 
 1262000    1.0568715   -7.3869141     447.2477  0.029532996  0.030018519            1 
 1263000    1.0733443   -7.3222705    446.99779  0.029493124  0.030010487            2 
 1264000     1.047747    -7.338114    448.15165  0.029545863  0.030002686            2 
 1265000    1.0720562   -7.3587271    449.00164  0.029578501  0.029994785            1 
 1266000    1.0543114   -7.3548439    448.96578  0.029552776  0.029987017            2 
 1267000    1.0732939   -7.3503934     448.0372  0.029468377  0.029979199            3 
 1268000    1.0360887   -7.3607718    449.06884  0.029512937  0.029971206            2 
 1269000    1.0566599   -7.3782431     449.5596  0.029521907  0.029963106            1 
 1270000    1.0408238   -7.3289862    448.63944  0.029438284  0.029955057            2 
 1271000    1.0449749   -7.3511759    448.85149  0.029429025  0.029946983            2 
 1272000    1.0814403   -7.3945718    449.39138  0.029441259  0.029939018            3 
 1273000    1.0516272   -7.3416184    450.82387  0.029511906  0.029931336            2 
 1274000    1.0206461   -7.3266107    450.78708  0.029486334  0.029923601            1 
 1275000    1.0561608   -7.3414078    451.74497  0.029525815    0.0299157            2 
 1276000    1.0438965   -7.3503722     452.0968  0.029525653  0.029907866            4 
 1277000    1.0196686   -7.3593989    452.30297  0.029515986  0.029900372            1 
 1278000    1.0440137   -7.3311199     453.0167   0.02953943  0.029892743            1 
 1279000    1.0392915   -7.3288392    453.20161  0.029528382  0.029885054            2 
 1280000    1.0384725   -7.3328315    452.70585  0.029473037   0.02987732            3 
 1281000     1.040334   -7.3373065    452.04403  0.029406975  0.029869676            1 
 1282000    1.0362626   -7.3305645    454.40577  0.029537557  0.029862203            2 
 1283000    1.0192034   -7.2982907    453.89416  0.029481304  0.029854694            4 
 1284000    1.0223095   -7.3597896    454.03006  0.029467164  0.029847121            3 
 1285000    1.0699085   -7.3886667    452.45541  0.029342115  0.029839381            1 
 1286000    1.0448589   -7.3436644    454.75009  0.029467994   0.02983176            2 
 1287000    1.0490846   -7.3133227    453.78528  0.029382626  0.029824053            2 
 1288000    1.0609486   -7.3482749    455.76389  0.029487829  0.029816407            2 
 1289000    1.0402707   -7.3585853    455.15459  0.029425562  0.029808762            3 
 1290000    1.0376446   -7.3469782     455.0415  0.029395446  0.029801061            3 
 1291000    1.0485594    -7.395183    455.16198  0.029380453  0.029793297            1 
 1292000    1.0175422   -7.3496149    455.10247  0.029353875   0.02978568            2 
 1293000     1.043521   -7.3458858    456.00721  0.029389482  0.029777945            1 
 1294000    1.0483215    -7.319989    457.32693   0.02945176  0.029770311            2 
 1295000    1.0456792    -7.360658    455.13494  0.029287963  0.029762664            1 
 1296000    1.0398049   -7.3368908    457.47926  0.029416105  0.029755139            4 
 1297000    1.0171108   -7.3566194    456.09124  0.029304243    0.0297475            2 
 1298000    1.0462272   -7.3088361    458.40921  0.029430484  0.029739764            1 
 1299000     1.014906   -7.3552925    457.87038   0.02937326  0.029732062            2 
 1300000    1.0679084   -7.3936134    456.50446  0.029263106  0.029724406            3 
 1301000    1.0398696   -7.3538534    457.67736  0.029315742  0.029716742            2 
 1302000    1.0209888   -7.3308766    458.06672  0.029318147   0.02970908            1 
 1303000    1.0224842   -7.3628256    457.85586  0.029282161  0.029701556            2 
 1304000     1.053548   -7.3641572    460.53269   0.02943077  0.029694037            1 
 1305000    1.0502552   -7.3271422    460.03973  0.029376739  0.029686679            4 
 1306000    1.0444469   -7.3588888    460.23234  0.029366535  0.029679285            3 
 1307000    1.0211805   -7.3093839    460.60503  0.029367829  0.029671873            2 
 1308000    1.0508861    -7.350856     460.3328  0.029328032  0.029664377            3 
 1309000    1.0430098   -7.3136691    461.75292  0.029396035  0.029656978            2 
 1310000    1.0378588   -7.3630464    460.73504  0.029308845   0.02964971            2 
 1311000    1.0415085   -7.3318549    460.86605  0.029294817  0.029642262            2 
 1312000    1.0481272   -7.3908765    460.30812   0.02923705  0.029634811            1 
 1313000    1.0593096   -7.3662523     461.5077  0.029290918  0.029627267            2 
 1314000    1.0320397   -7.3475583    461.76544  0.029284972  0.029619691            1 
 1315000    1.0368333    -7.334244    463.20836  0.029354142  0.029612374            2 
 1316000     1.073087   -7.3781521     461.7613  0.029240204  0.029604833            3 
 1317000    1.0418611   -7.3812974    462.49691  0.029264548  0.029597229            2 
 1318000    1.0318659   -7.3542717    463.85339   0.02932811  0.029589599            1 
 1319000    1.0499821   -7.3478141     461.2306  0.029140169  0.029581967            1 
 1320000    1.0397836   -7.3677802    462.53638  0.029200529  0.029574471            1 
 1321000    1.0370801   -7.3957312    461.79193  0.029131462  0.029566982            1 
 1322000    1.0254743   -7.3643525     462.8129  0.029173783   0.02955948            1 
 1323000    1.0676685   -7.3634127    463.40089  0.029188768  0.029551728            2 
 1324000    1.0412434   -7.3811352    462.25412  0.029094545  0.029543951            2 
 1325000    1.0353551   -7.3500441     463.9131  0.029176925   0.02953629            1 
 1326000    1.0366703    -7.352009      464.623  0.029199535  0.029528575            1 
 1327000    1.0546458   -7.3678892    464.18343  0.029149926  0.029520747            2 
 1328000    1.0181065   -7.3691949    465.34194  0.029200674  0.029513107            2 
 1329000    1.0458569   -7.3780017    464.10581  0.029101192   0.02950545            2 
 1330000     1.023916   -7.3376807    465.92167  0.029193087   0.02949773            2 
 1331000    1.0448067   -7.3450875    465.55025    0.0291479  0.029490219            3 
 1332000     1.060263   -7.3459613    465.67546   0.02913385  0.029482708            3 
 1333000    1.0357106   -7.3518076    464.74882  0.029054065  0.029475054            1 
 1334000    1.0497676   -7.3501864     465.7296  0.029093553   0.02946746            3 
 1335000    1.0231422   -7.4100991     464.8683  0.029017996  0.029459858            1 
 1336000     1.031099    -7.351676    468.21491  0.029205022  0.029452267            2 
 1337000    1.0410616   -7.3674491    465.99579  0.029044864  0.029444739            2 
 1338000    1.0531079   -7.4048518    467.05398  0.029089062  0.029437146            1 
 1339000    1.0376507   -7.3862133    466.99525  0.029063683  0.029429686            1 
 1340000    1.0248493   -7.3955957     466.0657  0.028984185  0.029422054            3 
 1341000    1.0491768     -7.39679    467.42488  0.029047034  0.029414342            2 
 1342000     1.044045   -7.3898643     467.7015  0.029042567    0.0294067            3 
 1343000    1.0429866   -7.3589422    467.31877  0.028997193   0.02939912            1 
 1344000    1.0502829   -7.3481237    469.22246  0.029093654  0.029391471            1 
 1345000    1.0498224   -7.3780958    468.71784  0.029040759  0.029383955            1 
 1346000    1.0380174   -7.3658913    469.01143  0.029037359  0.029376484            2 
 1347000    1.0454753    -7.398873     468.0481  0.028956205  0.029368867            1 
 1348000    1.0119853   -7.3822421    469.71041  0.029037488  0.029361392            2 
 1349000    1.0323231    -7.362704    470.24856  0.029049207  0.029353969            2 
 1350000    1.0422028   -7.3390236     469.8821  0.029005068  0.029346506            3 
 1351000    1.0343946   -7.3648525    471.11661  0.029059747  0.029339022            2 
 1352000    1.0487243    -7.381193    469.54218  0.028941209  0.029331595            2 
 1353000    1.0355451   -7.3332042    471.10496  0.029016073  0.029324107            1 
 1354000    1.0216085   -7.3238955    470.82632  0.028977494  0.029316537            4 
 1355000    1.0492069    -7.384022    470.59732  0.028942024  0.029308849            1 
 1356000    1.0430278   -7.3829062    468.94495  0.028819134  0.029301094            2 
 1357000    1.0361614   -7.3959782    469.77957  0.028849151  0.029293352            1 
 1358000     1.052086   -7.4022733    470.43284  0.028867995  0.029285424            1 
 1359000    1.0337445   -7.3676676    470.86378  0.028873178  0.029277663            2 
 1360000     1.001267   -7.4343019    469.42252  0.028763635  0.029269745            2 
 1361000    1.0492523   -7.3858983    470.25322  0.028793364   0.02926186            1 
 1362000    1.0518313   -7.3803712    470.94953  0.028814827  0.029253875            2 
 1363000    1.0388433   -7.3603957    472.31368   0.02887709  0.029246001            3 
 1364000    1.0275993   -7.3934984    471.82832  0.028826266    0.0292381            1 
 1365000     1.021433   -7.3621011    471.72055  0.028798568   0.02923019            1 
 1366000    1.0229814   -7.4155393    471.64529  0.028772895  0.029222278            1 
 1367000    1.0478696    -7.352549    471.98769   0.02877272   0.02921432            1 
 1368000    1.0530673   -7.3939193    472.19402  0.028764255  0.029206384            2 
 1369000    1.0257544   -7.3399528    473.23048  0.028806336  0.029198404            1 
 1370000    1.0252444   -7.3721468    475.06173  0.028896699  0.029190562            5 
 1371000    1.0445365   -7.3951256    472.89207  0.028743743  0.029182632            3 
 1372000    1.0262054   -7.3863418    472.46476  0.028696839  0.029174567            2 
 1373000    1.0596545    -7.404458    472.81378  0.028697122  0.029166416            1 
 1374000    1.0503496   -7.3937949    473.48433  0.028716905  0.029158208            2 
 1375000    1.0305276    -7.396055    473.55893  0.028700541  0.029150051            3 
 1376000    1.0289496   -7.3703743     473.4122  0.028670797  0.029141967            2 
 1377000    1.0293486   -7.3782388     473.2286  0.028638865    0.0291341            1 
 1378000    1.0448701     -7.36915    474.04885  0.028667685  0.029126148            2 
 1379000    1.0162572    -7.382191    474.69834  0.028686146  0.029118167            2 
 1380000    1.0427558   -7.4092892     474.0341  0.028625247  0.029110135            2 
 1381000    1.0343579    -7.392602    474.89344  0.028656374  0.029101964            1 
 1382000    1.0508391   -7.3613332    474.53967  0.028614307  0.029093805            2 
 1383000    1.0232708   -7.3799198    474.86782   0.02861339   0.02908562            1 
 1384000    1.0113574    -7.359057    475.21261  0.028613476  0.029077543            1 
 1385000    1.0361858   -7.3564631    476.99509  0.028700065  0.029069433            1 
 1386000    1.0224121   -7.3476047    476.59852  0.028655514  0.029061318            2 
 1387000    1.0309083   -7.3913661    475.74466  0.028583553  0.029053188            3 
 1388000    1.0657187   -7.3835469    475.05034  0.028521274  0.029045028            2 
 1389000    1.0227835   -7.3694304    476.30909  0.028576259  0.029036866            1 
 1390000    1.0240681   -7.3990703    476.14411   0.02854581  0.029028766            1 
 1391000    1.0467249   -7.4047963    475.75791  0.028502151  0.029020589            6 
 1392000    1.0331494   -7.4081795    475.99283  0.028495739  0.029012283            1 
 1393000    1.0498515   -7.3901261    475.84932  0.028466698   0.02900412            1 
 1394000    1.0331661   -7.3671452    476.78686  0.028502323  0.028995962            3 
 1395000    1.0417655   -7.4038646    478.17105  0.028564579  0.028987885            2 
 1396000    1.0219768   -7.3747521    477.49327  0.028503657  0.028979673            3 
 1397000    1.0375054   -7.3457409    479.38605  0.028596161  0.028971619            2 
 1398000    1.0303985   -7.4249584    477.67429   0.02847367  0.028963449            2 
 1399000     1.022317   -7.3482425    479.45881  0.028559614  0.028955096            1 
 1400000    1.0296609   -7.4007304    477.32686  0.028412313  0.028946921            4 
 1401000    1.0101028   -7.4053422    477.98579  0.028431227  0.028938575            2 
 1402000    1.0184029   -7.4139313    478.18451   0.02842276  0.028930344            1 
 1403000    1.0383785   -7.4133213    478.74899  0.028436029  0.028922201            4 
 1404000    1.0050924   -7.3601878    481.06435  0.028553202  0.028914052            3 
 1405000    1.0444221   -7.4123216    478.60893  0.028387244  0.028905909            2 
 1406000    1.0255232   -7.3523046    479.39192  0.028413461  0.028897877            1 
 1407000    1.0105053   -7.3781797    482.14927  0.028556578  0.028889749            4 
 1408000    1.0395423   -7.4166318    480.19254  0.028420486  0.028881652            1 
 1409000    1.0530551   -7.3805488    481.76041  0.028493045  0.028873522            1 
 1410000    1.0161062   -7.4294535    480.48528  0.028397475  0.028865404            2 
 1411000    1.0131154   -7.4480351    480.17722  0.028359155  0.028857173            2 
 1412000    1.0263954   -7.3737139    481.88814  0.028440046  0.028848989            1 
 1413000    1.0239216   -7.3450268    482.81897  0.028474816  0.028841008            2 
 1414000    1.0492271   -7.4137139    481.42393  0.028372462  0.028832808            3 
 1415000      1.04805    -7.403921    479.20058  0.028221471  0.028824489            2 
 1416000   0.99390621   -7.3972817    481.05613  0.028310742  0.028816164            3 
 1417000    1.0127399    -7.378024    481.25647  0.028302544   0.02880786            4 
 1418000    1.0030547   -7.4226322    481.80454  0.028314794  0.028799539            4 
 1419000    1.0312446   -7.3870235     481.9482  0.028303277  0.028791252            2 
 1420000    1.0399512   -7.4076877    481.21727   0.02824045   0.02878287            1 
 1421000    1.0287107   -7.3971279    480.32827  0.028168442  0.028774434            2 
 1422000    1.0122038   -7.3904993    482.44521  0.028272692  0.028766035            2 
 1423000    1.0216319   -7.4271816    482.75804  0.028271143  0.028757571            1 
 1424000    1.0482881   -7.3615003    482.74076  0.028250278  0.028749195            2 
 1425000    1.0305341   -7.4140501    482.38921  0.028209895  0.028740804            1 
 1426000    1.0348287   -7.3905529    483.18012  0.028236332  0.028732287            2 
 1427000    1.0202714   -7.4052757    481.80098  0.028136007  0.028723708            1 
 1428000    1.0220663   -7.3626053    483.83544  0.028235028  0.028715066            2 
 1429000    1.0219667   -7.3990874    481.91943  0.028103536  0.028706436            1 
 1430000    1.0311118   -7.4501714    481.39216  0.028053156  0.028697835            8 
 1431000    1.0215952   -7.3798894    483.06574  0.028131012  0.028689213            2 
 1432000    1.0419496   -7.3916269    483.93786   0.02816212  0.028680566            2 
 1433000    1.0141126   -7.4126991    484.16526  0.028155691  0.028671956            3 
 1434000    1.0191051   -7.4014547      484.197  0.028137901  0.028663378            1 
 1435000    1.0514262   -7.4025199    484.61716  0.028142692  0.028654843            5 
 1436000    1.0094297   -7.3930908     483.1534   0.02803815  0.028646422            3 
 1437000    1.0043551   -7.3842583    484.60691  0.028102929  0.028637896            1 
 1438000    1.0360553   -7.3910935    487.01256  0.028222796  0.028629445            1 
 1439000    1.0312944    -7.396451    484.79185   0.02807458  0.028620893            3 
 1440000    1.0277388   -7.4002473    486.31463  0.028143208    0.0286124            1 
 1441000    1.0355075   -7.3949225    484.61464  0.028025367  0.028603942            1 
 1442000    1.0248186   -7.4075141    486.55422   0.02811802  0.028595459            3 
 1443000    1.0273736   -7.4304476    486.84039  0.028115061  0.028586992            1 
 1444000    1.0213115   -7.4281991    486.43575  0.028072239  0.028578512            5 
 1445000    1.0388064   -7.4258119    486.44322  0.028053242  0.028570058            1 
 1446000   0.99687303   -7.3820279    487.89839  0.028117704  0.028561756            1 
 1447000    1.0103971   -7.4231671    486.90761  0.028041213  0.028553443            2 
 1448000    1.0135967   -7.3835361    487.88846  0.028078295  0.028545153            1 
 1449000    1.0404125    -7.437668    486.74109  0.027992932  0.028536832            2 
 1450000    1.0495737   -7.4798908    487.46455  0.028015204  0.028528447            3 
 1451000    1.0224727   -7.3741653    489.89282  0.028135356  0.028520208            3 
 1452000     1.033107   -7.4255891    488.84983   0.02805612  0.028511982            1 
 1453000    1.0039836   -7.4113384     489.6632   0.02808346  0.028503853            1 
 1454000    1.0205017   -7.4186292    490.51527   0.02811298  0.028495836            2 
 1455000    1.0288211   -7.4307357    489.99544  0.028063885  0.028487724            3 
 1456000    1.0378275   -7.4081339    490.30653  0.028062416  0.028479673            1 
 1457000    1.0249038   -7.4123432    491.60775  0.028117579  0.028471659            2 
 1458000    1.0368719   -7.4442882    490.75995  0.028049837   0.02846374            1 
 1459000    1.0073439   -7.4439225    490.49813  0.028015657  0.028455879            2 
 1460000    1.0219179   -7.4018398    493.18155  0.028149632  0.028448002            2 
 1461000    1.0331979   -7.4501668    490.53045   0.02797915  0.028440176            1 
 1462000    1.0364734   -7.4149651    493.16355  0.028110097   0.02843227            1 
 1463000    1.0220756     -7.41996    492.64269  0.028061215  0.028424384            8 
 1464000    1.0378782   -7.4359277    492.21632  0.028017778  0.028416454            2 
 1465000    1.0130718   -7.4425175    492.52992  0.028016492  0.028408659            2 
 1466000    1.0347674   -7.4001948    492.61791  0.028002383  0.028400866            5 
 1467000    1.0123972   -7.4536883    492.96202  0.028002841  0.028392938            2 
 1468000    1.0283012   -7.4177343    492.91987  0.027981373   0.02838483            2 
 1469000    1.0182947   -7.3998886    492.73056  0.027951586  0.028376673            3 
 1470000    1.0334449   -7.4323718    493.83615  0.027995246  0.028368682            3 
 1471000    1.0233435   -7.4372262    494.11781  0.027992171  0.028360586            3 
 1472000    1.0224675   -7.3948171    494.38606  0.027988341  0.028352496            2 
 1473000    1.0153746   -7.4240102    494.69095  0.027986589  0.028344572            2 
 1474000    1.0022524   -7.4631638    493.63039  0.027907643  0.028336718            2 
 1475000    1.0060382   -7.3967962    494.49967  0.027937835  0.028328801            3 
 1476000    1.0293357   -7.4286251    495.78893  0.027991696   0.02832092            3 
 1477000    1.0190104    -7.406692    496.01158  0.027985307  0.028313047            4 
 1478000    1.0294877   -7.4174132    495.97941  0.027964559  0.028305311            2 
 1479000    1.0044416   -7.3957424    496.73141  0.027988022  0.028297557            2 
 1480000    1.0057548   -7.4063591    496.32842   0.02794642  0.028289724            1 
 1481000    1.0357334   -7.4280893    493.85107  0.027788154  0.028281682            1 
 1482000    1.0266511   -7.4117285    495.24161  0.027847594  0.028273652            4 
 1483000    1.0050679   -7.3857501    496.35319  0.027891278  0.028265728            1 
 1484000   0.98946055   -7.4308431    495.78591  0.027840628  0.028257646            1 
 1485000    1.0323387   -7.4428185    494.93655  0.027774217  0.028249477            2 
 1486000    1.0050046   -7.4224255    493.49665  0.027674778  0.028241352            3 
 1487000    1.0166037   -7.4172419    497.78777  0.027896647  0.028233165            3 
 1488000    1.0286347   -7.4373477    494.29481  0.027682281  0.028224876            3 
 1489000   0.99048749   -7.4196289    495.49502  0.027730861  0.028216485            5 
 1490000    1.0286978   -7.4144412    495.77708  0.027728025  0.028208149            2 
 1491000    1.0100152   -7.4422348    496.01287  0.027722606  0.028199847            3 
 1492000    1.0089251   -7.4411489    495.30711  0.027664606  0.028191347            3 
 1493000   0.98421301   -7.4424168    496.42761  0.027708619  0.028182936            4 
 1494000    1.0126228   -7.3971874    497.43189  0.027746089  0.028174449            1 
 1495000    1.0175538   -7.4608655    496.31654  0.027665359  0.028165971            2 
 1496000    1.0110864   -7.4903253    495.15368   0.02758209   0.02815747            7 
 1497000    1.0047731   -7.4086449    495.67393  0.027592626  0.028149025            2 
 1498000    1.0073739   -7.4111339    497.02908  0.027649593  0.028140623            4 
 1499000    1.0149268   -7.4247886     496.9842  0.027628653   0.02813207            3 
 1500000    1.0073591   -7.4315429    497.05229  0.027614016  0.028123719            1 
 1501000    1.0168083    -7.433507    497.28009  0.027608266  0.028115248            2 
 1502000   0.97881884   -7.4339542    497.31899  0.027592043  0.028106865            1 
 1503000    1.0091892   -7.4552498    495.90942  0.027495532  0.028098171            2 
 1504000   0.99256089   -7.4416535    499.07555  0.027652679  0.028089553            2 
 1505000    1.0138051   -7.4394716    497.15864  0.027528164  0.028081105            2 
 1506000    1.0106821   -7.3834014    497.83894  0.027547529   0.02807257            1 
 1507000    1.0231824   -7.4138644    497.17787  0.027492694  0.028063961            2 
 1508000    1.0186335   -7.4452638    496.45441  0.027434483  0.028055289            2 
 1509000    1.0054898   -7.3998024    498.52989   0.02753092  0.028046615            2 
 1510000   0.99647147   -7.4444659    498.09997  0.027488961  0.028037964            4 
 1511000     1.021493   -7.4532866    497.49762  0.027437548  0.028029294            1 
 1512000   0.99226146   -7.4642026    496.75492  0.027378468  0.028020465            1 
 1513000    1.0212881   -7.3902215    498.50099  0.027456543  0.028011743            3 
 1514000    1.0216623   -7.3969071    499.22023  0.027477996   0.02800328            2 
 1515000    1.0249144   -7.4034924    500.02513  0.027504133  0.027994682            3 
 1516000   0.99832648    -7.448146    498.65651  0.027410758  0.027986007            1 
 1517000    1.0042655   -7.4323274    499.20791  0.027422979  0.027977279            2 
 1518000   0.99893755   -7.4231687    500.22246  0.027460609  0.027968602            2 
 1519000    1.0358676   -7.4151961    500.38945  0.027451693   0.02796006            9 
 1520000    1.0249303   -7.4667403    499.39012  0.027378844  0.027951429            2 
 1521000   0.98156159   -7.4018524    500.98999  0.027448498  0.027942776            2 
 1522000   0.99261575   -7.4345489    500.27017  0.027391052  0.027934157            1 
 1523000     1.006924   -7.4101749    501.48324  0.027439442  0.027925529            1 
 1524000     1.022371   -7.4742206    499.93722    0.0273369  0.027916883            2 
 1525000    1.0198098   -7.4534894    499.84079  0.027313705  0.027908226            1 
 1526000   0.99466942   -7.4642436    500.55987  0.027335074  0.027899545            2 
 1527000    1.0124271   -7.4676727    500.47661  0.027312629  0.027890847            1 
 1528000    1.0129837   -7.4440186    500.42301  0.027291831  0.027882041            1 
 1529000     1.021509   -7.4379379    502.20869  0.027371304  0.027873426            2 
 1530000   0.98782646   -7.4660481    500.72123  0.027272398  0.027864713            2 
 1531000     1.010815   -7.4230862    501.61175  0.027303056  0.027856053            2 
 1532000    1.0116158   -7.4164814    501.92765  0.027302418  0.027847384            2 
 1533000    1.0026759   -7.3992427    503.48013  0.027369001  0.027838829            2 
 1534000    1.0010337   -7.4444369    501.63206  0.027250764   0.02783018            5 
 1535000   0.98757174   -7.4263003    503.65655  0.027342918  0.027821662            1 
 1536000    1.0202086   -7.4426698     503.0956  0.027294683  0.027813126            1 
 1537000    1.0124624   -7.4422286     503.0137  0.027272485  0.027804616            1 
 1538000    1.0167568   -7.4178436    504.57241  0.027339207  0.027796147            2 
 1539000    1.0086442    -7.442696    504.35242  0.027309531  0.027787767            1 
 1540000    1.0043128   -7.4439156    504.66716  0.027308829   0.02777931            1 
 1541000     1.005038   -7.4674221    505.46469  0.027334236  0.027770828            2 
 1542000     1.004241   -7.4576725    505.68134  0.027328218  0.027762301            5 
 1543000   0.99762662   -7.4343545    504.78456  0.027262074  0.027753739            4 
 1544000   0.97939738   -7.4067623    508.56207  0.027448298  0.027745285            2 
 1545000   0.99794199   -7.4507659    505.54179  0.027267626  0.027736759            1 
 1546000   0.99716376   -7.4242571    505.70004  0.027258519  0.027728186            2 
 1547000    1.0138518   -7.4416733    504.86548  0.027195942  0.027719679            5 
 1548000    1.0121537    -7.464426    505.09509  0.027190735  0.027711191            2 
 1549000    1.0020151   -7.4502282    506.53857  0.027250838  0.027702668            5 
 1550000   0.99737354   -7.4572163    504.38502  0.027117474  0.027694198            2 
 1551000    1.0108738   -7.4976727    506.06904  0.027190471  0.027685581            2 
 1552000   0.99873883   -7.4520088    505.35088   0.02713439  0.027676797            3 
 1553000    1.0192038   -7.4579283    504.47862  0.027070113  0.027668148            2 
 1554000   0.99942759   -7.4228101    505.46349  0.027105507  0.027659428            4 
 1555000    1.0108455   -7.4728948    505.90759  0.027111875   0.02765079            2 
 1556000    1.0142939   -7.4768738    505.37386  0.027065866  0.027642062            1 
 1557000    1.0028837   -7.4490426    507.91134  0.027184294  0.027633499            2 
 1558000    1.0014826   -7.4398744     506.3154  0.027081483  0.027624913            4 
 1559000   0.98924117   -7.4234003    505.78848  0.027035946  0.027616324            1 
 1560000    1.0092199   -7.4567354    506.65732  0.027065028   0.02760768            2 
 1561000   0.99275674   -7.4620837    506.83694  0.027057278  0.027598937            4 
 1562000   0.99727072   -7.4510219    508.97305  0.027153918  0.027590361            1 
 1563000    1.0006665   -7.4133441    508.62677  0.027118083  0.027581752            1 
 1564000   0.99682347   -7.4492225    510.20702  0.027184943  0.027573214            3 
 1565000   0.99663334   -7.4554961    507.36933  0.027016471   0.02756457            2 
 1566000    1.0261486    -7.463129    508.69924  0.027069989  0.027555949            5 
 1567000     1.009497    -7.441328    509.37096  0.027088437  0.027547342            2 
 1568000    1.0409696   -7.4506789    508.73109  0.027037154  0.027538829            1 
 1569000   0.99909312   -7.4493664    509.51799  0.027061716  0.027530205            2 
 1570000    1.0051551   -7.4591191    510.52183  0.027097762  0.027521587            2 
 1571000   0.99023078   -7.4781778    507.51152  0.026920832  0.027512935            3 
 1572000    1.0034189   -7.5053299      506.869  0.026869646  0.027504248            1 
 1573000    0.9723603   -7.4535951    509.63687  0.026999198  0.027495602            2 
 1574000    1.0084691   -7.4732172    508.93191  0.026944722  0.027487001            1 
 1575000    1.0000067   -7.4242769     509.6541  0.026965825  0.027478394            4 
 1576000   0.99573463   -7.4671582    510.04055  0.026969149  0.027469797            1 
 1577000    1.0070135   -7.4361035    509.98081  0.026948891  0.027461159            2 
 1578000    1.0070335   -7.4960892    510.29592  0.026948454  0.027452581            3 
 1579000   0.99188455   -7.4478731    509.31066  0.026879389  0.027443928            3 
 1580000   0.99514183   -7.4514991    509.42095  0.026868193  0.027435251            2 
 1581000    1.0006002    -7.471364    510.54845  0.026910629  0.027426704            1 
 1582000   0.98639183   -7.4282054    511.75574  0.026957213  0.027418261            1 
 1583000    1.0150072   -7.4371189    512.01611  0.026953891   0.02740976            2 
 1584000   0.98840084   -7.4467214    510.71088  0.026868207  0.027401269            2 
 1585000    1.0079765   -7.4404666    513.08363  0.026976006  0.027392674            4 
 1586000    0.9873449   -7.4447137    511.54699  0.026878257  0.027384136            3 
 1587000   0.99678145   -7.4673708    512.81814  0.026928069  0.027375639            3 
 1588000   0.99018967   -7.4221834    514.63242  0.027006319  0.027367197            2 
 1589000   0.98334406   -7.4492082    513.43846  0.026926708  0.027358895            3 
 1590000    1.0290351   -7.4549449    513.52214  0.026914158  0.027350549            2 
 1591000   0.98950049   -7.4845557      512.275  0.026831919  0.027342139            6 
 1592000    1.0207792   -7.4930602    512.98635    0.0268523  0.027333739            3 
 1593000   0.99501411   -7.4702714    515.29087  0.026955999  0.027325283            1 
 1594000    1.0030588   -7.4525542    515.15662  0.026932069  0.027316962            1 
 1595000    1.0109312   -7.4707393    513.77292   0.02684289  0.027308727            2 
 1596000    1.0081245   -7.4781543    513.66275  0.026820319  0.027300381            2 
 1597000    1.0049018   -7.4853675    514.82888  0.026864375  0.027291986            2 
 1598000    1.0030288   -7.4176376    517.12273  0.026967185  0.027283751            1 
 1599000   0.95941401   -7.4685034    514.68542  0.026823297  0.027275405            1 
 1600000   0.99912709   -7.4372907      515.639  0.026856198  0.027267128            3 
 1601000    1.0110407   -7.4586132    516.99206  0.026909851  0.027258854            4 
 1602000    1.0191135   -7.4834714     516.0029  0.026841599  0.027250607            1 
 1603000   0.98683055   -7.4944074    514.83995  0.026764397  0.027242228            3 
 1604000    1.0000943    -7.468339    514.52437  0.026731316  0.027233962            2 
 1605000     1.000934   -7.4663051    516.05089  0.026793919  0.027225532            2 
 1606000   0.99498556   -7.4694402    516.73916  0.026812949  0.027217273            2 
 1607000   0.97430067   -7.4492888    516.88951  0.026804061   0.02720898            3 
 1608000    1.0132123   -7.4674614     518.0904  0.026849627  0.027200719            2 
 1609000   0.98892637   -7.4689671    517.82014  0.026818942  0.027192503            3 
 1610000    1.0005976    -7.455053     516.9264  0.026756025  0.027184268            3 
 1611000   0.99789962   -7.4403979    518.25019  0.026807893   0.02717604            1 
 1612000   0.97698361   -7.4797361    518.40926  0.026799486  0.027167706            1 
 1613000   0.97725123    -7.453757    516.81898  0.026700712  0.027159317            1 
 1614000   0.99334267   -7.4583517    517.08273  0.026697787  0.027150922            2 
 1615000    0.9923548   -7.4658643    517.88008  0.026722398  0.027142529            2 
 1616000   0.98694517   -7.5133242    515.88711  0.026603089  0.027134125            3 
 1617000    1.0012063   -7.4361578    518.44165  0.026718287  0.027125669            2 
 1618000     1.000077   -7.5045617    517.54456  0.026655571  0.027117229            1 
 1619000   0.99034872   -7.4668398    517.99928  0.026662512  0.027108919            2 
 1620000   0.96310204   -7.4840537     518.9442  0.026694661  0.027100676            3 
 1621000   0.98841008   -7.4212893    519.92474    0.0267286  0.027092336            1 
 1622000   0.97184172   -7.4377844    519.11607  0.026670575  0.027083937            1 
 1623000    1.0002394   -7.4738267    518.67025  0.026631251  0.027075495            2 
 1624000   0.99709322   -7.4833369    517.90001  0.026575329   0.02706718            3 
 1625000   0.99924692   -7.4763087     519.5047  0.026641267  0.027058743            3 
 1626000    0.9916692   -7.4786652    518.61993  0.026579537  0.027050245            1 
 1627000   0.99689704   -7.4873605    519.35879  0.026601045  0.027041841            5 
 1628000   0.97452252   -7.4677698    519.38564  0.026586079   0.02703355            2 
 1629000    1.0064581   -7.4781102    519.67274  0.026584446  0.027025233            3 
 1630000   0.99452065   -7.4745585      520.747  0.026623057  0.027016977            2 
 1631000   0.99466551   -7.4977537     519.7261  0.026554573  0.027008624            1 
 1632000   0.98426354   -7.4686551    522.76059  0.026693249  0.027000343            4 
 1633000   0.97040714   -7.5120762    520.53032   0.02656309  0.026992065            3 
 1634000    1.0010009   -7.4971869    521.67962  0.026605448  0.026983794            1 
 1635000   0.98863376    -7.480705    522.14666   0.02661298  0.026975602            1 
 1636000    1.0021017   -7.5147717    521.63458  0.026570629    0.0269674            1 
 1637000   0.98924414   -7.4803062    521.41806  0.026543375  0.026959197            3 
 1638000    1.0106463   -7.4809201    522.32264  0.026573191  0.026950914            3 
 1639000   0.97512705   -7.4907194    522.10069  0.026545693  0.026942687            2 
 1640000    1.0207406   -7.5081543    521.19503  0.026483487  0.026934426            4 
 1641000    1.0146693   -7.4953167    521.86769  0.026501508   0.02692613            1 
 1642000   0.97422119   -7.5067823    521.51909  0.026467676  0.026917855            1 
 1643000   0.99795138   -7.4823798    523.06636  0.026530045    0.0269096            2 
 1644000    1.0013586   -7.5023603    522.15228  0.026467573  0.026901413            3 
 1645000   0.97320647   -7.4992539    523.17857  0.026503474  0.026893208            2 
 1646000   0.97709963   -7.4575753    524.77005  0.026567945  0.026885145            3 
 1647000   0.98481815   -7.5292224    521.19274  0.026370813  0.026876914            2 
 1648000   0.98465911   -7.5113181    523.46858  0.026469892  0.026868702            3 
 1649000    0.9720937   -7.4700695     524.5548  0.026508733  0.026860543            2 
 1650000   0.98265867    -7.494569    524.81725  0.026505922  0.026852469            3 
 1651000    1.0008863    -7.521138     524.8564  0.026491843  0.026844402            1 
 1652000    1.0026311   -7.4778941    526.82187  0.026574953  0.026836459            1 
 1653000    1.0109033   -7.4962121    526.27997  0.026531557   0.02682855            1 
 1654000   0.99553375   -7.4699473    527.82811  0.026593516  0.026820604            2 
 1655000   0.98811899   -7.4874268    527.51813   0.02656184  0.026812803            1 
 1656000   0.99566051   -7.4765067    527.99144  0.026569618  0.026804926            2 
 1657000    1.0106845   -7.4511765     527.2951  0.026518563  0.026797069            1 
 1658000   0.97800519   -7.5042516    526.53664  0.026464447  0.026789198            3 
 1659000   0.97267114   -7.4745513    527.55613  0.026499705  0.026781363            2 
 1660000    1.0027879   -7.4564323    527.57325  0.026484601  0.026773605            1 
 1661000   0.97104734   -7.4837093    528.97785  0.026539125  0.026765861            2 
 1662000    0.9986474   -7.4622053    529.57366  0.026553031    0.0267582            4 
 1663000   0.98581688   -7.5033924    527.70393  0.026443372  0.026750349            2 
 1664000   0.98559801   -7.4577373    529.78433  0.026531667  0.026742476            2 
 1665000   0.98902622   -7.4823284    529.43665  0.026498331  0.026734726            5 
 1666000   0.99969709   -7.4596699    531.52395  0.026586832  0.026726967            2 
 1667000   0.98135847   -7.4796682    529.84804  0.026487105   0.02671925            2 
 1668000   0.97077732   -7.4859466    529.56912   0.02645729  0.026711491            2 
 1669000   0.98406729   -7.5125601    529.65827  0.026445889  0.026703686            3 
 1670000   0.98816451   -7.5383957    528.72636  0.026383551  0.026695859            1 
 1671000   0.99343766   -7.5421745    528.70568  0.026366731  0.026687914            3 
 1672000    1.0179283   -7.4867668    529.52175  0.026391634  0.026680019            2 
 1673000   0.97068377   -7.5136243    529.42623  0.026371101  0.026672276            1 
 1674000   0.99527362    -7.512832    530.21427  0.026394577  0.026664428            2 
 1675000   0.99719051   -7.5066576    530.79042  0.026407484  0.026656712            2 
 1676000   0.97883523   -7.5125883    531.76172  0.026440022  0.026648893            2 
 1677000    1.0020371   -7.5286753    529.48877  0.026311308  0.026641046            1 
 1678000   0.97810245   -7.5228822    530.40125  0.026340944  0.026633065            2 
 1679000   0.97178387   -7.5552218    529.62208  0.026286583  0.026625092            1 
 1680000   0.99796548   -7.5395162    528.65223  0.026222829  0.026617114            3 
 1681000   0.97590293   -7.4938785    532.25485  0.026385824   0.02660916            1 
 1682000    1.0131385   -7.5043036     531.6195  0.026338659  0.026601271            2 
 1683000   0.97282793   -7.4647393    531.33741  0.026309042   0.02659346            1 
 1684000   0.98975089   -7.4883023    530.96427  0.026274954  0.026585609            1 
 1685000    1.0079003   -7.4773668    533.18475  0.026369177   0.02657778            2 
 1686000   0.98478282   -7.5203917    531.46838  0.026268702  0.026569872            1 
 1687000   0.97691048   -7.5238587    530.26234  0.026193555  0.026561932            2 
 1688000    1.0013743   -7.4638622    533.45983  0.026335892  0.026554054            1 
 1689000   0.97947992   -7.4946368    532.77912  0.026286714  0.026546139            1 
 1690000   0.98144247   -7.5123778    531.71491  0.026218684  0.026538283            2 
 1691000   0.98662756   -7.5174047    532.68168  0.026250822  0.026530468            2 
 1692000   0.98009444   -7.4738006    533.57746  0.026279426  0.026522586            2 
 1693000   0.97496825   -7.5215379    533.77684  0.026273717  0.026514745            2 
 1694000   0.97484691   -7.4920755    534.82525  0.026309782  0.026507059            2 
 1695000   0.98465736   -7.4802544    534.94988  0.026300387  0.026499306            2 
 1696000   0.97639725   -7.5027276    533.29061  0.026203351  0.026491578            4 
 1697000   0.96111009   -7.5126025     533.8532  0.026215537  0.026483793            2 
 1698000   0.98679076   -7.5213124     532.7845  0.026147649  0.026475967            2 
 1699000   0.98366114   -7.4897084    534.66853  0.026224668    0.0264681            3 
 1700000   0.98267786   -7.5259699    534.16303  0.026184462   0.02646029            3 
 1701000   0.97005302   -7.5068924    534.12574  0.026167242  0.026452479            2 
 1702000   0.98218086   -7.4857184    535.75679  0.026231727   0.02644466            1 
 1703000   0.96722411   -7.5315265    534.45884  0.026152811  0.026436732            2 
 1704000   0.97999607    -7.531851    534.51291  0.026140107  0.026428871            5 
 1705000   0.95368909    -7.474574    534.19452  0.026109214  0.026421093            2 
 1706000    1.0046522   -7.5133634    534.77009  0.026122025  0.026413178            1 
 1707000   0.97686577   -7.5044087    535.63397  0.026148895  0.026405242            5 
 1708000   0.97309437   -7.5459289    534.69924   0.02608798  0.026397259            1 
 1709000   0.96066094   -7.5344272    534.99384   0.02608708  0.026389315            2 
 1710000   0.97972241   -7.5330128    535.54702  0.026098782  0.026381282            5 
 1711000   0.98754792   -7.5624031    534.70566  0.026042551  0.026373317            2 
 1712000   0.99645952   -7.4986484    535.05542  0.026044364  0.026365363            2 
 1713000   0.95939881   -7.5026409    535.27672  0.026039926  0.026357468            3 
 1714000   0.95686181   -7.5307727    536.26307  0.026072689  0.026349467            2 
 1715000   0.96876544   -7.4790314    536.09443  0.026049292  0.026341572            1 
 1716000   0.98176579   -7.5129969    536.69428  0.026063242  0.026333653            1 
 1717000   0.98066932   -7.5238803     535.9978  0.026014259  0.026325725            2 
 1718000   0.95001117   -7.5384907    537.52762  0.026073323  0.026317717            1 
 1719000   0.97745169    -7.503253    537.13863  0.026039298  0.026309695            2 
 1720000   0.99169873   -7.5300685    538.02048  0.026066884  0.026301636            2 
 1721000   0.98239704   -7.5318148    537.22904  0.026013414  0.026293626            1 
 1722000   0.97961301    -7.548531    535.46703  0.025913039  0.026285517            2 
 1723000   0.96700381   -7.5074213    538.17913  0.026029171  0.026277489            2 
 1724000   0.99088845   -7.5234928    537.29229  0.025971205  0.026269458            3 
 1725000   0.96898541   -7.5318747    536.12146  0.025899588  0.026261354            4 
 1726000   0.97002147   -7.5361968    537.31195   0.02594206  0.026253295            1 
 1727000   0.98836697    -7.481876    537.61089  0.025941464  0.026245321            1 
 1728000   0.97194671   -7.5150502    537.94569  0.025942597  0.026237365            2 
 1729000   0.97447835   -7.5419572    537.53263  0.025907684   0.02622935            2 
 1730000   0.97779695   -7.5065912    538.48612  0.025938638  0.026221295            2 
 1731000   0.97603427   -7.5464519    537.23413   0.02586338  0.026213297            3 
 1732000   0.94286913   -7.5051053     539.3536  0.025950423  0.026205337            3 
 1733000   0.95150421   -7.5457266    538.24541   0.02588216  0.026197315            2 
 1734000    0.9749016    -7.517459    538.98038  0.025902556  0.026189287            1 
 1735000   0.98641153   -7.5347572    538.11281  0.025845956  0.026181305            6 
 1736000   0.98106435   -7.5203208    539.56794  0.025900919  0.026173283            2 
 1737000   0.96570915   -7.5297481    538.97184  0.025857409  0.026165324            1 
 1738000   0.97119882    -7.528734     538.8857  0.025838401  0.026157337            2 
 1739000   0.95918078   -7.5165337     538.9296  0.025825647  0.026149404            1 
 1740000   0.98121711   -7.5191292    539.10177   0.02581905  0.026141402            2 
 1741000    0.9487035   -7.5214623    541.13207  0.025901401  0.026133492            4 
 1742000   0.98569988   -7.5507236    539.93138  0.025829094   0.02612562            5 
 1743000   0.96955955   -7.5131755    541.70581  0.025899111  0.026117782            2 
 1744000   0.97196939     -7.53314    539.12875  0.025761121  0.026109992            2 
 1745000   0.96629051   -7.5410266     539.6431  0.025770921  0.026101939            3 
 1746000   0.97057555   -7.4998256     542.1547  0.025876036   0.02609399            1 
 1747000    1.0013734   -7.5320081    541.30995  0.025820929  0.026086028            2 
 1748000   0.99778316   -7.5217298    540.21831  0.025754114  0.026078025            2 
 1749000   0.95731672   -7.5625558    540.00484  0.025729219  0.026070031            2 
 1750000   0.97972034   -7.5783173    539.75878  0.025702799  0.026061971            4 
 1751000   0.96865948   -7.5620183    541.93742  0.025791805  0.026053875            2 
 1752000   0.96614685    -7.538823    541.00301  0.025732639  0.026045772            1 
 1753000   0.97240803   -7.5387845    542.78098  0.025802481  0.026037748            3 
 1754000   0.96955402   -7.5164376    542.54125   0.02577638  0.026029793            7 
 1755000   0.96965149   -7.5109073    541.62096  0.025717995  0.026021882            2 
 1756000   0.95384546   -7.5201642    541.04416  0.025675976  0.026013942            2 
 1757000    0.9552197   -7.5252627    541.54173  0.025684962  0.026005881            3 
 1758000   0.98904038   -7.5240915     543.6859   0.02577199  0.025997899            1 
 1759000   0.95495218   -7.5121354    541.69275  0.025662912  0.025989945            2 
 1760000   0.95108204   -7.5027349    544.03656  0.025759307  0.025982036            1 
 1761000   0.94505523   -7.5131764    543.03502  0.025697284  0.025974105            3 
 1762000    0.9555665   -7.4767858    544.06014  0.025731183  0.025966201            3 
 1763000   0.97091071   -7.5070776    543.86647  0.025707434  0.025958402            3 
 1764000    0.9793351   -7.5484261    543.77986  0.025688769  0.025950485            2 
 1765000   0.98023179   -7.5443499    542.81416   0.02562862   0.02594255            1 
 1766000   0.98792858   -7.5270177    545.05267  0.025719737  0.025934717            2 
 1767000   0.96060991   -7.5451177    544.55781  0.025681844  0.025926825            2 
 1768000   0.94255837   -7.5462492    544.36137  0.025658059  0.025918998            1 
 1769000   0.95458975    -7.517625    544.82614  0.025665449  0.025911157            3 
 1770000   0.97771424   -7.5289871    544.28305  0.025625379  0.025903322            2 
 1771000   0.98343558   -7.5441052    544.00081  0.025597629  0.025895469            1 
 1772000   0.98051554   -7.5131802     545.1958  0.025639381  0.025887656            4 
 1773000    0.9661628   -7.5287199    546.23892  0.025673948  0.025879892            2 
 1774000   0.96404334   -7.5739265    545.97464  0.025647061  0.025872123            1 
 1775000   0.96886185   -7.5265688    546.38738   0.02565199  0.025864367            1 
 1776000   0.95493642   -7.5359656    546.22599  0.025629973  0.025856666            5 
 1777000   0.97498793    -7.557798     545.3539  0.025574653  0.025848991            2 
 1778000   0.96050544   -7.5600082    546.04233  0.025592535   0.02584129            2 
 1779000   0.98394321   -7.5328773    547.65188  0.025653545  0.025833478            3 
 1780000   0.96444981   -7.5291365    547.42816  0.025628659  0.025825813            2 
 1781000   0.97023624   -7.5490856    546.42427  0.025567297  0.025818067            1 
 1782000   0.95598362   -7.5472911    548.13452  0.025632928  0.025810354            1 
 1783000     0.949852    -7.574613    547.04251  0.025567513  0.025802674            2 
 1784000   0.97329237   -7.5809079    547.56207  0.025577451  0.025795022            1 
 1785000   0.96556273   -7.4932487    549.69361  0.025662633  0.025787354            6 
 1786000    0.9488043   -7.5067615    548.00627  0.025569535  0.025779813            3 
 1787000   0.98376114   -7.5581361    549.50439  0.025625088  0.025772298            3 
 1788000   0.93745875   -7.5317602    547.73853  0.025528455  0.025764739            1 
 1789000   0.95006565   -7.5264781    549.10792  0.025577973  0.025757149            1 
 1790000   0.96440707   -7.5459653    548.44719  0.025532923  0.025749631            1 
 1791000   0.96229475   -7.5709781     549.0638  0.025547357  0.025742178            2 
 1792000   0.97488647   -7.5760902    550.58849  0.025604003  0.025734539            1 
 1793000   0.94239529   -7.5624156    549.94168  0.025559661  0.025726816            3 
 1794000   0.96754529    -7.523285    548.58874  0.025482569  0.025719097            2 
 1795000   0.97628278   -7.5469783    548.59389  0.025468611  0.025711394            3 
 1796000   0.96169391   -7.5586712    549.94153  0.025516961  0.025703704            1 
 1797000   0.95425082   -7.5387709    551.32516  0.025566925  0.025696155            6 
 1798000   0.95157054   -7.5155364    551.54835  0.025563049  0.025688569            3 
 1799000   0.96647988   -7.5512955    550.19391  0.025486099  0.025681087            4 
 1800000   0.96816455   -7.5371286     550.8294  0.025501361  0.025673576            2 
 1801000   0.95783183    -7.525988    550.32702  0.025463956  0.025666019            1 
 1802000   0.96931557   -7.5565854    551.32232  0.025495853  0.025658505            1 
 1803000   0.95751165   -7.5715246    551.56433  0.025492898  0.025650897            2 
 1804000   0.96756108   -7.5681107    551.29342  0.025466252  0.025643273            4 
 1805000    0.9573677   -7.5434508    552.98061  0.025530037  0.025635824            2 
 1806000   0.95947376   -7.5592127    552.42384   0.02549021   0.02562838            1 
 1807000   0.96231282   -7.5722187    553.65804  0.025533021  0.025620833            1 
 1808000    0.9444465    -7.559147    552.56716  0.025468619  0.025613335            2 
 1809000   0.95337303   -7.5422273    554.06033  0.025523325  0.025605831            5 
 1810000   0.95907217   -7.5429937    553.60093  0.025488072  0.025598338            1 
 1811000   0.94044994   -7.5652247    552.36396  0.025417079  0.025590832            5 
 1812000   0.95566871   -7.5854377    552.98002  0.025431384  0.025583397            2 
 1813000   0.95098359    -7.542671    554.39533  0.025482411  0.025575866            2 
 1814000   0.97347647   -7.5724246    553.08956  0.025408377  0.025568281            3 
 1815000   0.95465051   -7.5728637    552.86884  0.025384244   0.02556068            2 
 1816000   0.96817345   -7.5431324    552.81695  0.025367885  0.025553142            2 
 1817000   0.96809565   -7.5675342    553.37056  0.025379314  0.025545524            1 
 1818000   0.94008063   -7.5290314    551.58408  0.025283465  0.025537932            3 
 1819000   0.98269099     -7.51472     553.8524  0.025373484  0.025530474            1 
 1820000   0.98575497    -7.532906    555.39972   0.02543039  0.025523029            3 
 1821000   0.95749964   -7.5447069    554.14263  0.025358897  0.025515569            1 
 1822000   0.97578657   -7.5690237    553.73414  0.025326296  0.025508064            1 
 1823000   0.96757792   -7.5584468    555.70375  0.025402439  0.025500658            2 
 1824000   0.95398224   -7.5256363    557.11669  0.025453065   0.02549334            2 
 1825000   0.94430669   -7.5575007    556.75559   0.02542263  0.025485942            2 
 1826000   0.94585068   -7.5407662    555.82914  0.025366427  0.025478564            2 
 1827000   0.96170927   -7.5413477    555.62419  0.025343194  0.025471216            1 
 1828000   0.96210481   -7.5498082    555.84363  0.025339334   0.02546392            2 
 1829000   0.96685627   -7.5474201    557.31518  0.025392527  0.025456544            2 
 1830000   0.96310943   -7.5220917    557.12446  0.025369966  0.025449247            2 
 1831000    0.9508125   -7.5578068    556.49378  0.025327407  0.025441923            3 
 1832000   0.95140518   -7.6038219     555.1708  0.025253403  0.025434494            2 
 1833000   0.95826424   -7.5410524    556.24795  0.025288596  0.025427087            2 
 1834000   0.95897965   -7.5492409    558.42786  0.025373858  0.025419729            4 
 1835000   0.97411193   -7.5681336    558.52064  0.025364244  0.025412433            2 
 1836000   0.95458565   -7.5374808    557.85664   0.02532029  0.025405123            2 
 1837000   0.95403571   -7.5370002     557.6429  0.025296811  0.025397851            1 
 1838000   0.94067892   -7.5394576    557.07014  0.025257079  0.025390541            2 
 1839000   0.94419338   -7.5721018    557.75935  0.025274576  0.025383148            2 
 1840000   0.97320058   -7.5501673    558.73332  0.025304951  0.025375915            2 
 1841000   0.95883672    -7.537182    559.00861  0.025303667  0.025368711            3 
 1842000   0.94861655   -7.5275353    560.54657  0.025359508  0.025361419            3 
 1843000   0.95343634   -7.5342171    560.24701  0.025332203  0.025354096            1 
 1844000   0.96503047   -7.5744548    558.30737   0.02523081  0.025346797            2 
 1845000   0.96469347    -7.557511    559.30556  0.025262221  0.025339374            1 
 1846000   0.95438471   -7.5803411    558.60483  0.025216903  0.025332038            1 
 1847000   0.97820985   -7.5882932    558.60732  0.025203362  0.025324623            2 
 1848000   0.94588646   -7.5692532    558.43011  0.025181733  0.025317268            1 
 1849000   0.96979923   -7.5694506     560.7196    0.0252713  0.025309868            2 
 1850000   0.94311248   -7.5496833    558.26086  0.025146885   0.02530248            1 
 1851000   0.96385397   -7.5778823    559.63732  0.025195269  0.025295125            3 
 1852000   0.93684653   -7.5453869    560.82181  0.025234962  0.025287799            1 
 1853000    0.9575306   -7.5673576    560.11481  0.025189549  0.025280395            1 
 1854000   0.95109202   -7.6080024    558.85233  0.025119217  0.025272947            3 
 1855000   0.94184619    -7.588331    558.82431  0.025104416  0.025265514            2 
 1856000   0.96763586   -7.5301622    561.96738  0.025232012  0.025258208            2 
 1857000   0.93813587   -7.5381332    561.10542  0.025179744  0.025250885            1 
 1858000   0.95884433   -7.5422448    561.49581  0.025183702  0.025243607            1 
 1859000   0.94613998   -7.5543684    561.92011  0.025189175  0.025236346            3 
 1860000   0.96418523   -7.5227681    562.25322  0.025190557  0.025229072            1 
 1861000   0.96468427   -7.5478743    562.53151  0.025189482   0.02522178            2 
 1862000   0.95943788   -7.5139521    561.81675  0.025143965  0.025214566            3 
 1863000   0.94131139   -7.5183994    563.28929  0.025196336  0.025207321            3 
 1864000   0.94285546   -7.5624552    562.22903  0.025135418   0.02520006            3 
 1865000   0.94097194   -7.5465529    563.14876  0.025163037  0.025192791            1 
 1866000   0.96845898   -7.5266975    564.04753   0.02518969  0.025185598            1 
 1867000   0.96583327   -7.5533702    561.61187  0.025067482  0.025178383            2 
 1868000   0.93309616   -7.5476021    563.26455   0.02512779  0.025171211            1 
 1869000   0.96482961   -7.5422477    564.54258   0.02517133  0.025163962            2 
 1870000   0.95388175   -7.5291151    564.63956  0.025162191  0.025156867            2 
 1871000   0.94273931   -7.5214712    564.67048  0.025150119  0.025149788            3 
 1872000   0.92374392   -7.6062538    562.27348  0.025029981  0.025142623            1 
 1873000   0.96805079   -7.5800361    564.31823  0.025107592  0.025135458            1 
 1874000   0.96775754   -7.5136066    565.64672  0.025153269  0.025128382            3 
 1875000   0.95094496    -7.576085    566.37702  0.025172312  0.025121426            1 
 1876000   0.94631078   -7.5406397    565.60246  0.025124487  0.025114394            2 
 1877000   0.95437274   -7.5907926    565.62833  0.025112251  0.025107309            4 
 1878000   0.95192992   -7.5611333    567.14171  0.025166033  0.025100325            2 
 1879000   0.94761087   -7.5963992    565.79346  0.025092844  0.025093237            1 
 1880000   0.94470945   -7.5079318    567.31884  0.025147112  0.025086195            4 
 1881000   0.97480293   -7.5759984     566.1431  0.025081654  0.025079216            2 
 1882000   0.94454688   -7.5894528    565.78176  0.025052327  0.025072167            3 
 1883000    0.9502073   -7.5789556     564.5295  0.024983603  0.025064997            3 
 1884000    0.9329955     -7.57448    565.63941  0.025019436  0.025057817            4 
 1885000   0.95950262   -7.5763443    566.60858  0.025049009  0.025050735            4 
 1886000    0.9419189   -7.5635965    565.73522  0.024997138  0.025043656            1 
 1887000   0.95308627   -7.5974595    566.55376  0.025020039  0.025036623            3 
 1888000   0.97038934   -7.5722505    566.96069  0.025024748  0.025029569            4 
 1889000    0.9366089   -7.5953979    567.64995  0.025041907  0.025022565            3 
 1890000   0.93228851   -7.5906689    566.44631  0.024975587  0.025015479            2 
 1891000   0.97908176   -7.5523088    567.68874  0.025017131  0.025008435            2 
 1892000   0.93414042   -7.5661864    569.25017  0.025072682  0.025001386            2 
 1893000   0.95824506   -7.5865749    568.27879  0.025016675  0.024994359            1 
 1894000   0.94319906   -7.5705099    568.89128  0.025030415  0.024987358            6 
 1895000   0.93038441   -7.6045382    567.66492  0.024963277  0.024980336            3 
 1896000   0.95999111   -7.6146221    568.42935  0.024983709  0.024973346            4 
 1897000   0.93727372   -7.5834215     569.0212  0.024996539  0.024966348            3 
 1898000   0.95587751    -7.564412    568.94899  0.024980198  0.024959398            1 
 1899000   0.94745896   -7.5531602    572.31406  0.025114712  0.024952477            2 
 1900000   0.92953789   -7.5940915    569.65969  0.024985074  0.024945561            1 
 1901000   0.93765256   -7.6247162    569.68827  0.024973184  0.024938511            2 
 1902000   0.92466367   -7.5645945    569.91189  0.024969851  0.024931484            2 
 1903000   0.94735499   -7.5790476     568.9167   0.02491315  0.024924485            3 
 1904000   0.95647128   -7.5805442    569.63387  0.024931454  0.024917446            1 
 1905000   0.96273311   -7.5655418    569.29677  0.024903621  0.024910402            2 
 1906000   0.94483817   -7.6077797    569.33751  0.024892336  0.024903384            1 
 1907000   0.92844755   -7.6119037    569.97572  0.024907172  0.024896303            2 
 1908000   0.95282738   -7.5978785    568.54824  0.024831772  0.024889187            3 
 1909000   0.93918221   -7.6031106    568.15927  0.024801784  0.024882111            1 
 1910000   0.94167389   -7.5875088    568.59873  0.024807973  0.024875089            1 
 1911000   0.93464936   -7.5864196    570.19493  0.024864596  0.024868067            2 
 1912000   0.94029819   -7.5821362    572.21604  0.024939681  0.024860989            3 
 1913000   0.95673152   -7.5834389    571.49705  0.024895324  0.024853962            4 
 1914000   0.93763393   -7.5629304    570.94981  0.024858491  0.024846977            1 
 1915000   0.93151469   -7.5827996     571.1385  0.024853721   0.02483991            2 
 1916000   0.97237893   -7.5601638    571.56446  0.024859275  0.024832848            2 
 1917000   0.96743088   -7.6000607    569.05183  0.024737082  0.024825806            1 
 1918000   0.94694919   -7.5782376     570.6286  0.024792692  0.024818659            2 
 1919000   0.93349078   -7.5537786    572.41474  0.024857336  0.024811617            2 
 1920000   0.94822611   -7.5796285     571.5516  0.024806927  0.024804496            2 
 1921000   0.93693203   -7.6076815    569.27319  0.024695176  0.024797379            2 
 1922000    0.9478163   -7.5789166    571.29722  0.024770084  0.024790198            1 
 1923000   0.94276435   -7.6091456    571.49522  0.024765784  0.024783083            2 
 1924000   0.95476343   -7.5973014    571.21014  0.024740564  0.024775963            2 
 1925000   0.95670548   -7.5929135    570.87315  0.024713123  0.024768869            2 
 1926000   0.94459124   -7.6000849    571.99658    0.0247489  0.024761771            1 
 1927000   0.93703741    -7.600922    573.35152  0.024794651  0.024754775            2 
 1928000   0.94008679   -7.5672812    572.15072  0.024729889  0.024747794            4 
 1929000   0.93382001   -7.5852946    572.05253  0.024712827  0.024740748            1 
 1930000   0.94210895   -7.5814186    571.16575  0.024661734  0.024733643            2 
 1931000   0.95074689   -7.5869548    572.91537  0.024724468  0.024726485            2 
 1932000   0.95792035   -7.6121308    572.82047  0.024707577  0.024719403            1 
 1933000    0.9601162   -7.6140761    571.48058  0.024637031  0.024712258            1 
 1934000   0.93198357   -7.5930129    573.17378   0.02469725  0.024705077            6 
 1935000   0.95848557   -7.5913712    573.95707   0.02471822  0.024697946            1 
 1936000    0.9462784   -7.5705373    572.09986   0.02462551  0.024690836            2 
 1937000    0.9355612   -7.6157114    571.19249  0.024573761  0.024683642            2 
 1938000   0.92655318   -7.6043663    572.92272   0.02463548  0.024676483            1 
 1939000   0.93629691   -7.5614328    573.72453  0.024657235  0.024669298            1 
 1940000   0.94130997   -7.6150009    573.83275  0.024649173   0.02466213            1 
 1941000   0.95599997   -7.5882273    573.92778  0.024640554   0.02465497            1 
 1942000   0.95540571   -7.6107665    574.87162  0.024668367  0.024647865            2 
 1943000   0.94802952   -7.6063903    574.46922  0.024638412  0.024640789            5 
 1944000   0.94105748   -7.6109728    575.30309  0.024661484  0.024633772            2 
 1945000   0.95586826   -7.5949279    574.80916  0.024627642  0.024626699            2 
 1946000   0.92875232   -7.6050642    575.39854  0.024640225  0.024619715            1 
 1947000   0.92706764   -7.5945704    575.57045  0.024634928  0.024612701            3 
 1948000    0.9373978   -7.6070846    576.42322  0.024658762  0.024605646            2 
 1949000    0.9377926   -7.6297682    573.34098  0.024514323  0.024598562            4 
 1950000   0.93598067     -7.61429    577.01807  0.024658892  0.024591498            1 
 1951000   0.93702653   -7.6230697    574.58726  0.024542425  0.024584504            1 
 1952000   0.94253333   -7.6239357    574.57753  0.024529437  0.024577438            2 
 1953000   0.92391401   -7.6455324    576.57808  0.024602239   0.02457041            1 
 1954000    0.9472448   -7.6048855    576.84637  0.024601091  0.024563358            3 
 1955000    0.9500457   -7.6004071     577.8104  0.024629599   0.02455641            1 
 1956000   0.90037181    -7.616565    577.00133  0.024582538  0.024549474            2 
 1957000   0.90825416   -7.5841363    577.81282  0.024604532  0.024542602            2 
 1958000   0.93165262   -7.6054805    577.88083   0.02459486  0.024535734            2 
 1959000   0.93463956   -7.5574327    577.59771  0.024570262  0.024528854            2 
 1960000   0.94564809   -7.6013537      578.375  0.024590774   0.02452208            1 
 1961000   0.95881683   -7.6252185    578.17581  0.024569769  0.024515255            2 
 1962000   0.93299052   -7.5979746    579.83662  0.024627787  0.024508497            3 
 1963000   0.93762121   -7.6124848    578.46561  0.024557039   0.02450172            3 
 1964000   0.95134953   -7.6262338    578.09454  0.024528791  0.024494996            1 
 1965000   0.94924894   -7.5613362    580.26397  0.024608311  0.024488292            1 
 1966000   0.93531797   -7.6224453    580.99999  0.024626992  0.024481582            2 
 1967000   0.92781356   -7.6541879    579.16775  0.024536848  0.024474803            2 
 1968000   0.94694273   -7.6144496    580.06223  0.024562256  0.024467944            2 
 1969000   0.93151371   -7.5831782     580.9387  0.024586876  0.024461225            2 
 1970000   0.93484822   -7.5663957    581.16179  0.024583832  0.024454558            2 
 1971000   0.93779349   -7.5950806    580.49293   0.02454308  0.024447829            2 
 1972000   0.94266247   -7.6049841    580.21097  0.024518719  0.024441058            2 
 1973000    0.9173802   -7.6192003    581.63451  0.024566418  0.024434335            6 
 1974000   0.95387742   -7.5777297    581.88079   0.02456437   0.02442763            1 
 1975000   0.92355849   -7.6351106    582.71093  0.024586959  0.024420955            4 
 1976000   0.91951759    -7.592922    582.36002  0.024559717  0.024414272            2 
 1977000    0.9419907   -7.6098178    582.01417  0.024532717  0.024407555            2 
 1978000   0.93884558   -7.5719011    582.82609   0.02455452   0.02440092            7 
 1979000   0.90539131   -7.6346102    580.74969  0.024454678  0.024394278            1 
 1980000    0.9371935   -7.6093105    581.91099  0.024491203  0.024387542            2 
 1981000   0.94244441   -7.5819086    582.13762  0.024488374  0.024380874            2 
 1982000   0.91865192   -7.5908012    582.22381  0.024479642  0.024374126            1 
 1983000   0.90968418   -7.6202474    582.30916  0.024470884  0.024367474            2 
 1984000   0.93861874   -7.6226291    581.92745  0.024442517  0.024360819            2 
 1985000    0.9272364   -7.6150464    584.08336  0.024520712  0.024354179            2 
 1986000   0.93382887    -7.628701    582.40657  0.024438006  0.024347554            2 
 1987000   0.95780058   -7.6136576      583.969  0.024491235  0.024340931            2 
 1988000   0.93714194   -7.5925432      584.936   0.02451945  0.024334317            3 
 1989000   0.91866774   -7.5869897    584.86754  0.024504254  0.024327762            2 
 1990000   0.93493468   -7.5907031    585.86915  0.024533884  0.024321168            3 
 1991000   0.93446027   -7.6453351    582.40052  0.024376382   0.02431455            3 
 1992000   0.93177305   -7.5923189    585.53196  0.024495146  0.024307953            2 
 1993000   0.94917404   -7.6417396    584.43767  0.024437099  0.024301325            1 
 1994000   0.93689281   -7.6196941    584.36696  0.024421889  0.024294682            4 
 1995000   0.93057107   -7.6256903    583.00462  0.024352741  0.024288024            1 
 1996000   0.94179503   -7.6535356    582.70096  0.024327862  0.024281323            4 
 1997000   0.93900169   -7.6224468    585.06052  0.024414143  0.024274569            3 
 1998000   0.93293928   -7.6263089    586.84729  0.024476447    0.0242679            1 
 1999000   0.91635779   -7.6176179    584.53417  0.024367774  0.024261243            2 
 2000000   0.93206067   -7.6260435    585.24903  0.024385376  0.024254568            3 
 2001000   0.94387471   -7.6391494    584.38216  0.024337088  0.024247918            2 
 2002000   0.94393534   -7.6699185    585.02489  0.024351685  0.024241215            2 
 2003000   0.94517801   -7.6209175    586.63883  0.024406675  0.024234524            3 
 2004000   0.93168395   -7.6077381    586.13604  0.024373588  0.024227925            1 
 2005000   0.92540599   -7.5749675    585.84663  0.024349403  0.024221313            1 
 2006000   0.92875929   -7.6312393    586.38968  0.024359824  0.024214687            2 
 2007000    0.9229514   -7.6246231    587.18826  0.024380844  0.024207957            2 
 2008000   0.92550167   -7.6366132    585.62339   0.02430376  0.024201273            3 
 2009000   0.93605086   -7.5913732    587.08019   0.02435209  0.024194592            2 
 2010000   0.92717145   -7.6142453    587.12333  0.024341763  0.024187972            2 
 2011000   0.94331054   -7.6147941    587.22499  0.024333872   0.02418135            1 
 2012000   0.92563434   -7.6597254    585.91387  0.024267473  0.024174699            2 
 2013000   0.92145739   -7.5879866    588.45091  0.024360445  0.024168029            3 
 2014000   0.94745797   -7.6174157    586.18524  0.024254603  0.024161375            5 
 2015000   0.92673515   -7.6472256     587.0591  0.024278706  0.024154773            2 
 2016000   0.92036367   -7.6147075    588.55681  0.024328572  0.024148195            2 
 2017000   0.91761345   -7.5982678    590.23399  0.024385804  0.024141745            2 
 2018000   0.91946235   -7.5840644    589.69719  0.024351552  0.024135347            4 
 2019000   0.91617214   -7.6054926    588.50377  0.024290233  0.024128785            4 
 2020000   0.92684259   -7.6351394    588.28499  0.024269183  0.024122231            1 
 2021000   0.92594862    -7.605374    589.44162  0.024304866  0.024115698            1 
 2022000   0.93912483   -7.6175178    589.58887  0.024298915  0.024109162            2 
 2023000    0.9206169   -7.6412882    589.17482  0.024269848  0.024102643            2 
 2024000   0.94028693   -7.6088629    588.63099  0.024235466  0.024096133            2 
 2025000   0.95007257   -7.6674977    589.14612  0.024244696  0.024089607            1 
 2026000   0.93374353   -7.5996103     591.5659   0.02433226  0.024083175            4 
 2027000   0.92501986   -7.5911468    591.70702  0.024326058  0.024076703            1 
 2028000   0.94917164   -7.6373454    589.51326  0.024223918  0.024070198            2 
 2029000   0.95012959   -7.6644773    588.75453  0.024180817  0.024063643            3 
 2030000   0.93655735   -7.6030236    591.45425  0.024279731  0.024057134            2 
 2031000   0.91062175   -7.6214215    589.24574   0.02417716   0.02405058            2 
 2032000   0.93645191   -7.6488574    589.57797  0.024178887  0.024044045            2 
 2033000   0.93731676   -7.6317805    589.10515  0.024147612  0.024037424            2 
 2034000   0.92653793   -7.6359221    588.39982  0.024106843  0.024030825            3 
 2035000   0.91093734    -7.630899    588.95139  0.024117583  0.024024201            2 
 2036000   0.93446714    -7.626875    590.61168  0.024173693  0.024017591            1 
 2037000   0.92538685   -7.6745327    590.23066  0.024146239  0.024011018            2 
 2038000   0.92619853   -7.6344449    590.59699   0.02414937  0.024004393            1 
 2039000   0.93150576   -7.6132139    590.84894  0.024147823  0.023997737            2 
 2040000   0.90475299   -7.6236061    591.89986  0.024178916  0.023991143            4 
 2041000   0.93714681   -7.6306821    589.82438  0.024082328  0.023984446            2 
 2042000   0.93741693   -7.6193523    591.07195  0.024121448  0.023977864            1 
 2043000   0.91303104   -7.6085107    591.73469  0.024136674  0.023971333            3 
 2044000   0.91382175   -7.6251338    590.14758  0.024060159  0.023964686            2 
 2045000   0.92118367   -7.6376189    592.08879  0.024127497  0.023958041            2 
 2046000   0.92357125   -7.5927783    591.89602  0.024107853  0.023951436            1 
 2047000   0.90315862   -7.6708347    592.37512  0.024115581  0.023944841            1 
 2048000   0.89717497   -7.6414342    592.33747  0.024102273  0.023938223            2 
 2049000   0.92920631    -7.637428    591.50076  0.024056481  0.023931634            2 
 2050000    0.9365268   -7.6276423    592.26492   0.02407581  0.023925009            3 
 2051000   0.94965052   -7.5969617     594.5978  0.024158857  0.023918419            1 
 2052000   0.91578779   -7.6566373    592.99034  0.024081804  0.023911869            3 
 2053000   0.92126689   -7.6317378    593.69565  0.024098703  0.023905282            1 
 2054000   0.92742618   -7.6577053    591.64852  0.024003916  0.023898663            2 
 2055000   0.91785955   -7.6647086    591.93543   0.02400387  0.023892026            3 
 2056000   0.92652458   -7.6385403    592.31594  0.024007618  0.023885455            2 
 2057000   0.92857821   -7.6303439     592.0878  0.023986704  0.023878871            1 
 2058000   0.90830147   -7.6297189    591.48606  0.023950683  0.023872257            1 
 2059000   0.93517888    -7.666168    591.83262  0.023953077  0.023865587            1 
 2060000   0.93222893   -7.6978313    592.73631  0.023978006  0.023858875            1 
 2061000   0.93063229   -7.6651636    593.48599  0.023996684  0.023852221            3 
 2062000   0.92332735   -7.6382549    592.76808  0.023956033  0.023845537            1 
 2063000   0.91397946   -7.6164064    594.27949  0.024005473  0.023838886            1 
 2064000   0.91743366   -7.6613956    594.30563  0.023994898  0.023832395            3 
 2065000   0.93838427   -7.6521992    594.98551  0.024010715  0.023825819            1 
 2066000   0.92664173   -7.6629653    594.20859  0.023967755   0.02381922            4 
 2067000   0.92788405   -7.6389606    594.81483  0.023980601  0.023812652            2 
 2068000   0.91338888   -7.6794918    594.99542  0.023976282  0.023806116            3 
 2069000   0.92121209    -7.646356    595.89435    0.0240009  0.023799544            3 
 2070000   0.93989029    -7.640028     596.5532  0.024015829  0.023793017            3 
 2071000   0.90525228    -7.626891    596.66508  0.024008735  0.023786486            2 
 2072000   0.93550165   -7.6367952    594.83705  0.023923626  0.023779982            2 
 2073000   0.92057812   -7.6390265    596.64848  0.023984904  0.023773438            3 
 2074000   0.90121939   -7.6333037    594.71771  0.023895761  0.023766923            1 
 2075000   0.94057642   -7.6302481    596.88014   0.02397109  0.023760383            1 
 2076000   0.92724501   -7.6196273    596.43842  0.023941812  0.023753899            2 
 2077000   0.92312453   -7.6770384    595.54393  0.023894396  0.023747366            2 
 2078000   0.93526727    -7.647704     597.0254  0.023942308  0.023740889            2 
 2079000   0.90577403    -7.642216    596.52278  0.023910645  0.023734438            2 
 2080000   0.92062636   -7.6221371     598.1851  0.023965749  0.023727892            4 
 2081000   0.94155198   -7.6746439    595.89028  0.023862337  0.023721429            2 
 2082000   0.92209849   -7.6504127    595.59552  0.023839078  0.023714958            2 
 2083000   0.91799176   -7.6800293     597.3521  0.023897908  0.023708494            2 
 2084000   0.92250744    -7.653905    597.51892  0.023893111  0.023702008            3 
 2085000   0.92006666   -7.6470313    597.56334  0.023883427  0.023695523            2 
 2086000   0.92746844   -7.6635155    598.04843  0.023891356   0.02368904            1 
 2087000   0.92686535   -7.6731708    598.94365  0.023915654  0.023682662            3 
 2088000   0.93444222   -7.6594569    598.95318  0.023904581  0.023676266            2 
 2089000   0.91458453   -7.6185842    598.96661  0.023893674  0.023669883            3 
 2090000   0.91965384   -7.6430436    598.96202  0.023882058  0.023663466            1 
 2091000   0.93242322   -7.6177127    601.04671  0.023953719  0.023657089            1 
 2092000   0.91850888   -7.6385418    597.77615  0.023811988  0.023650654            5 
 2093000   0.93267044   -7.6653522    597.14133  0.023775335  0.023644232            2 
 2094000   0.93125348   -7.7163278    597.34236  0.023771982  0.023637715            2 
 2095000   0.92238965   -7.6704399    598.26666  0.023797401  0.023631226            2 
 2096000   0.91800472   -7.6671297    598.37499  0.023790354   0.02362469            3 
 2097000   0.92349661   -7.6421195     598.7621  0.023794393    0.0236182            2 
 2098000    0.9121254   -7.6336146    600.40586  0.023848342  0.023611862            2 
 2099000   0.90417842   -7.6428299    600.32169  0.023833639  0.023605476            2 
 2100000    0.9423669    -7.652924    600.23122  0.023818699  0.023599065            2 
 2101000   0.93510606   -7.6047926    601.85993  0.023871963   0.02359273            2 
 2102000   0.92088793   -7.6525804    600.56545  0.023809287  0.023586446            2 
 2103000   0.92246306   -7.6644185    600.27642  0.023786512  0.023580129            4 
 2104000   0.90549838   -7.6929855    601.78128   0.02383481  0.023573681            2 
 2105000   0.91719686   -7.6457633    601.35699   0.02380669  0.023567326            2 
 2106000    0.9203141    -7.615377    602.94422  0.023858192  0.023560962            2 
 2107000   0.91204274   -7.6346356    602.09943  0.023813456  0.023554617            3 
 2108000    0.9231225   -7.6577016     603.0885   0.02384126  0.023548246            1 
 2109000   0.90387654   -7.6771647    601.62529  0.023772139  0.023541796            2 
 2110000   0.90850775    -7.655197    602.41824   0.02379219  0.023535372            1 
 2111000    0.9066614   -7.6713815    600.51351  0.023705728  0.023528995            2 
 2112000   0.90855008   -7.6761879    599.94511  0.023672076  0.023522597            2 
 2113000    0.9166124   -7.6736274    602.43089  0.023758909   0.02351622            3 
 2114000   0.89711569   -7.6633706    603.01098  0.023770537  0.023509886            1 
 2115000   0.89828842   -7.6935696    601.02253  0.023680951  0.023503521            3 
 2116000   0.91439245   -7.6673905    601.97684  0.023707342  0.023497123            4 
 2117000   0.91702691   -7.6355834    603.77653  0.023766987  0.023490801            1 
 2118000   0.90434418   -7.6507905    603.94419  0.023762362  0.023484479            2 
 2119000   0.91988746     -7.69766    602.16052  0.023681002  0.023478158            3 
 2120000    0.9156784     -7.65756    601.89398  0.023659354  0.023471904            1 
 2121000   0.91634886   -7.6488829    603.08152  0.023694858  0.023465616            2 
 2122000   0.89397676   -7.6513234    603.09895  0.023684376  0.023459322            3 
 2123000   0.93728328   -7.6628565    603.09299  0.023672986  0.023453011            2 
 2124000   0.93426311   -7.7067707    604.54149  0.023718671  0.023446667            1 
 2125000   0.91497152   -7.7078118    603.37664  0.023661829  0.023440299            2 
 2126000   0.91882725   -7.6740342    603.22216  0.023644644  0.023433961            2 
 2127000   0.90143631   -7.6803665     603.2908  0.023636217  0.023427607            3 
 2128000    0.9145004   -7.6687572    604.96435  0.023690647  0.023421268            2 
 2129000   0.90242962   -7.6654331     604.8793   0.02367619  0.023414928            2 
 2130000    0.9184708    -7.667496    605.33633  0.023682955  0.023408696            2 
 2131000   0.91550923   -7.6282452    604.83303   0.02365216  0.023402506            1 
 2132000   0.91310812   -7.6542052    605.42352  0.023664146  0.023396235            3 
 2133000   0.93040218   -7.6608535    604.74163  0.023626412  0.023389964            3 
 2134000   0.90418512   -7.6565738    605.87232  0.023659494  0.023383688            1 
 2135000   0.90258796   -7.6783412    606.98426  0.023691813  0.023377383            2 
 2136000     0.895817   -7.6578022    604.87982   0.02359862  0.023371028            3 
 2137000    0.8935062   -7.6859856    605.69402  0.023619327  0.023364684            3 
 2138000   0.91126649   -7.6455407    604.87191  0.023576236  0.023358326            3 
 2139000   0.90707136   -7.6274097    605.98371  0.023608528  0.023351983            5 
 2140000   0.90192613   -7.6459848    606.54389   0.02361931  0.023345667            2 
 2141000    0.9159077   -7.6769866    606.42315  0.023603579   0.02333937            2 
 2142000   0.92909199   -7.6804847    607.01614  0.023615629  0.023333047            2 
 2143000   0.89638605    -7.689145    608.34704  0.023656363  0.023326724            1 
 2144000   0.90394089   -7.6763147    605.44024  0.023532348   0.02332045            2 
 2145000   0.91951481   -7.6573887    607.17744  0.023588867  0.023314202            2 
 2146000   0.92074279   -7.6892941    607.12937  0.023576008  0.023307906            2 
 2147000   0.89493906   -7.6712559    606.50527  0.023540804  0.023301632            2 
 2148000   0.88651544    -7.728962    606.81343    0.0235418  0.023295364            3 
 2149000   0.92708718   -7.6816051    607.91438  0.023573537  0.023289092            2 
 2150000   0.89388265   -7.6668375     607.2911  0.023538415  0.023282896            2 
 2151000    0.9080965   -7.6680006    608.89653  0.023589669  0.023276662            5 
 2152000   0.93335649   -7.6878863    608.67524  0.023570138  0.023270464            2 
 2153000   0.90365495   -7.6699365    607.97754  0.023532185  0.023264279            2 
 2154000   0.91816841     -7.62588    608.03555  0.023523505  0.023258088            4 
 2155000   0.89062484   -7.6923943    608.34719   0.02352464  0.023251906            2 
 2156000   0.91420969   -7.6509764    610.38435  0.023592469  0.023245766            1 
 2157000   0.89669423   -7.6925829    608.07067  0.023492145  0.023239529            2 
 2158000   0.91028262   -7.6888067     609.4533   0.02353465   0.02323334            1 
 2159000    0.9080849   -7.6754821    607.85164  0.023461928  0.023227144            3 
 2160000   0.89791034   -7.6947015    607.75226  0.023447232   0.02322091            2 
 2161000   0.91218291   -7.6837203    608.61505  0.023469653  0.023214657            2 
 2162000   0.89476945   -7.6895909     609.1555  0.023479629  0.023208413            1 
 2163000   0.91819593   -7.7266616    608.99265    0.0234625  0.023202209            4 
 2164000   0.88846724   -7.6490972    608.85844  0.023446489  0.023196021            1 
 2165000   0.91038555   -7.6825447    609.53411  0.023461667  0.023189904            1 
 2166000    0.8920226   -7.6730391    610.18438  0.023475853  0.023183793            1 
 2167000   0.89417892   -7.6882219    610.76344  0.023487288  0.023177663            2 
 2168000   0.91215487   -7.6732969     609.1586  0.023414768  0.023171511            2 
 2169000   0.90612548   -7.6696685    610.96024  0.023473192  0.023165326            2 
 2170000   0.91069276   -7.6745246    611.54045  0.023484656  0.023159161            1 
 2171000   0.90193843   -7.6905676    611.11108  0.023457358  0.023153025            3 
 2172000    0.9033688   -7.7150692    610.76957  0.023433455  0.023146875            2 
 2173000    0.9030915   -7.6953802    611.34043  0.023444563  0.023140696            1 
 2174000   0.90871351   -7.6756393    611.71861  0.023448275  0.023134581            1 
 2175000   0.90249203   -7.7176121    611.62762  0.023434009  0.023128453            4 
 2176000   0.91468777   -7.6617532    612.52884  0.023457753  0.023122326            2 
 2177000   0.88372598   -7.7150212    609.93405  0.023347652  0.023116228            2 
 2178000   0.90781701   -7.7012309    612.63345  0.023440215  0.023110055            1 
 2179000    0.9086571   -7.7063349    611.59365  0.023389692  0.023103908            2 
 2180000   0.89936676    -7.704817    612.77077  0.023423959  0.023097767            1 
 2181000   0.91241138   -7.6460047    611.56501  0.023367148  0.023091654            6 
 2182000   0.90172763   -7.7017489    613.74925  0.023439858   0.02308553            2 
 2183000   0.90404036   -7.6796919    612.55226  0.023383427  0.023079371            1 
 2184000   0.88467635   -7.6871168    612.73158  0.023379563  0.023073196            2 
 2185000   0.90608304   -7.7075586     612.2605  0.023350896  0.023067094            4 
 2186000    0.9089919    -7.684024    611.63417  0.023316338  0.023060988            3 
 2187000   0.90644527   -7.6627357    612.58942  0.023342075  0.023054849            1 
 2188000    0.9023072   -7.6902203    613.71781  0.023374384  0.023048778            1 
 2189000   0.89998367   -7.7163915    613.45545  0.023353718  0.023042723            3 
 2190000   0.89220418   -7.6925533    615.07766  0.023404781  0.023036667            2 
 2191000   0.91462612    -7.706412    612.92992  0.023312411  0.023030638            2 
 2192000   0.90331287   -7.6648593    614.51372  0.023361987  0.023024582            2 
 2193000   0.91128868   -7.6655672    614.42306   0.02334789  0.023018563            1 
 2194000   0.89765978   -7.6763534    613.86887  0.023316198    0.0230126            2 
 2195000   0.91089238   -7.6605734    616.35522   0.02339997  0.023006627            3 
 2196000   0.90224192   -7.6896617      615.281  0.023348551  0.023000641            1 
 2197000   0.88923508   -7.7096231    615.93028   0.02336255  0.022994618            3 
 2198000   0.89652037    -7.695269     614.8889  0.023312439  0.022988614            3 
 2199000   0.91634495   -7.7127141     614.5794  0.023290109  0.022982604            1 
 2200000   0.90034862   -7.6844761    616.24848  0.023342746  0.022976595            3 
 2201000   0.90527384    -7.669538    615.88264  0.023318289  0.022970576            3 
 2202000   0.89872573   -7.7055528    615.17503   0.02328092  0.022964563            2 
 2203000   0.89456314    -7.695042    615.08479  0.023266939   0.02295851            5 
 2204000   0.91386662   -7.6540136    615.04619  0.023254923   0.02295243            2 
 2205000   0.88586777   -7.6884188    616.67306   0.02330586  0.022946341            2 
 2206000    0.8863327    -7.730701    614.40259  0.023209526  0.022940193            2 
 2207000   0.91045834   -7.6812824    616.35683    0.0232728   0.02293407            2 
 2208000   0.90412649   -7.6992753      615.014  0.023211579  0.022927979            4 
 2209000   0.90995089   -7.7034495     614.9797  0.023199777  0.022921867            2 
 2210000   0.89239704   -7.7103716    614.60516  0.023175157  0.022915677            2 
 2211000   0.87442883   -7.7151248    614.06421  0.023144287  0.022909562            4 
 2212000   0.89908561    -7.718791    615.98753  0.023206281  0.022903389            2 
 2213000   0.89451414   -7.6673901     616.1442  0.023201695  0.022897271            2 
 2214000   0.91944599   -7.6819022    616.10064  0.023189575  0.022891135            2 
 2215000   0.90076672   -7.6802423    616.10425  0.023179242   0.02288499            1 
 2216000   0.88702817   -7.6912509    615.06979  0.023129881  0.022878923            2 
 2217000    0.8926339   -7.7095277    616.17551   0.02316101  0.022872815            2 
 2218000   0.90663691   -7.6926185    616.61562  0.023167103  0.022866712            2 
 2219000   0.89437941   -7.7018805    614.78485  0.023087909  0.022860595            2 
 2220000   0.89693329   -7.7129609    616.42432  0.023139051  0.022854466            2 
 2221000   0.88282258   -7.7321399    615.33426  0.023087733  0.022848265            1 
 2222000   0.88326006   -7.7158138    615.75492  0.023093119  0.022842008            2 
 2223000   0.89742318   -7.7149526    616.92893  0.023126741  0.022835819            1 
 2224000   0.88871261    -7.716713    616.69689  0.023107647  0.022829633            2 
 2225000   0.89298437   -7.6885987    617.11213  0.023112814  0.022823502            1 
 2226000   0.89194699   -7.7046357    616.65604  0.023085356  0.022817342            3 
 2227000   0.90475063   -7.6947341    617.69167  0.023113743  0.022811195            2 
 2228000   0.88873996   -7.7035902    617.67536  0.023102759  0.022805051            2 
 2229000   0.88143745    -7.710074    617.88531  0.023100243  0.022798921            3 
 2230000   0.87830946   -7.7144855    617.20981  0.023064642   0.02279278            2 
 2231000   0.91132049   -7.7274435    617.45539  0.023063476  0.022786649            5 
 2232000   0.90696122   -7.7123134    617.58851  0.023058113  0.022780445            3 
 2233000   0.88430063   -7.6737678    618.11395  0.023067396  0.022774308            3 
 2234000   0.88329999   -7.7211211    618.30902  0.023064347  0.022768139            2 
 2235000   0.85663417   -7.7242308      618.029  0.023043587  0.022762002            1 
 2236000   0.87528177   -7.7116128     617.6101  0.023017669  0.022755815            2 
 2237000   0.89809248   -7.7291354    617.11667  0.022988998  0.022749592            4 
 2238000   0.90770897   -7.7041529    616.79316   0.02296668  0.022743394            2 
 2239000   0.90870549   -7.6792929    618.24907   0.02301061   0.02273721            4 
 2240000    0.8876961   -7.6889886    618.94618  0.023026272  0.022731054            4 
 2241000   0.88029528   -7.7194579     618.0863  0.022984021  0.022724819            5 
 2242000   0.90988401   -7.7181171    617.34798  0.022946327  0.022718591            3 
 2243000   0.89569193   -7.6925401    619.19989    0.0230049  0.022712324            1 
 2244000   0.86112897   -7.6819806    618.34422  0.022962872  0.022706104            3 
 2245000   0.89454491   -7.7102486    616.28446  0.022876186  0.022699859            1 
 2246000   0.88994088   -7.7367499    617.85182  0.022924155  0.022693549            3 
 2247000   0.88968298   -7.7133818    616.40693  0.022860367  0.022687204            4 
 2248000   0.91898415   -7.7222541    618.64117  0.022933021  0.022680892            4 
 2249000   0.89801589   -7.7321784    618.96125  0.022934684  0.022674635            1 
 2250000   0.89224107   -7.7392098    617.70673  0.022878027   0.02266839            3 
 2251000   0.88600032   -7.7459031    618.38547  0.022892991   0.02266213            1 
 2252000   0.90548708   -7.7111245    619.83557  0.022936485  0.022655845            4 
 2253000   0.89727604    -7.710376    618.50076  0.022876933  0.022649637            3 
 2254000   0.89956065   -7.7261946    619.30628  0.022896565   0.02264336            2 
 2255000   0.88409683   -7.7050079    618.40923  0.022853261  0.022637058            3 
 2256000   0.88574107   -7.7205795    617.84898  0.022822436  0.022630756            4 
 2257000   0.89630301   -7.6680572    617.98917    0.0228175  0.022624418            4 
 2258000   0.90512837   -7.7009589     617.2142  0.022778794  0.022618033            2 
 2259000   0.88232562   -7.6757554    619.08054  0.022837559  0.022611726            3 
 2260000   0.90130437   -7.7123617    619.19332  0.022831612  0.022605399            1 
 2261000   0.87322376   -7.7416978    617.11556  0.022744934  0.022599093            1 
 2262000   0.88918291   -7.7189527     618.5176  0.022786531  0.022592751            2 
 2263000    0.8899017   -7.6930023    620.42095  0.022846552  0.022586385            3 
 2264000   0.88503463   -7.7200569    619.18687  0.022791036  0.022580069            1 
 2265000   0.88972318   -7.6915082    620.14454  0.022816208  0.022573814            3 
 2266000   0.90047721   -7.7147876    620.21957  0.022808898  0.022567559            4 
 2267000   0.88060536   -7.6962082    621.58889  0.022849172  0.022561233            2 
 2268000   0.90511584   -7.7175208    619.74376  0.022771302  0.022554997            2 
 2269000   0.88273811   -7.6990746    620.84196    0.0228016    0.0225487            2 
 2270000   0.88639858    -7.702898     621.0725  0.022800018  0.022542389            4 
 2271000   0.88647561   -7.7365305    619.01001  0.022714296  0.022536119            3 
 2272000   0.87174529   -7.7232383    620.10433  0.022744437  0.022529805            2 
 2273000   0.86975643    -7.722085    620.75439  0.022758263  0.022523479            4 
 2274000   0.88611263   -7.7423175    620.00075  0.022720637  0.022517127            5 
 2275000   0.88499768   -7.7141862    621.64231  0.022770781  0.022510825            1 
 2276000   0.88333589   -7.7547207    620.83446  0.022731197   0.02250449            3 
 2277000   0.89111106   -7.7639463    620.70302  0.022716404  0.022498144            1 
 2278000   0.88689391   -7.7325295    620.64161  0.022704185   0.02249181            1 
 2279000   0.88655782   -7.7411877    621.83283  0.022737781  0.022485534            2 
 2280000   0.87803102   -7.7540332    620.84592  0.022691737  0.022479217            2 
 2281000   0.87550262   -7.7360014    622.07433  0.022726667  0.022472915            2 
 2282000   0.88363916   -7.7359657    621.14699  0.022682844  0.022466613            2 
 2283000   0.87679226   -7.7182726    620.37582  0.022644759  0.022460259            1 
 2284000   0.87886955   -7.7384852    621.33428  0.022669815  0.022453966            1 
 2285000   0.88768516   -7.7331633    621.16765  0.022653816  0.022447674            1 
 2286000   0.89892177   -7.7027657    625.05126  0.022785479  0.022441367            4 
 2287000   0.89333899   -7.7272346    623.37378  0.022714392  0.022435114            1 
 2288000   0.88809103   -7.7029325    621.55463  0.022638208  0.022428874            3 
 2289000   0.87698466   -7.7358889    622.53348  0.022663954   0.02242261            4 
 2290000   0.87750434   -7.7167253    622.99599  0.022670887  0.022416353            2 
 2291000   0.87681916   -7.7503823    621.79538  0.022617321  0.022410057            3 
 2292000   0.87795184   -7.7556397    621.28551  0.022588915  0.022403776            2 
 2293000   0.86336544   -7.7381138    623.72484  0.022667715  0.022397518            1 
 2294000   0.88186412   -7.7401038    623.37568   0.02264515  0.022391313            1 
 2295000   0.87944054    -7.725901    624.75121  0.022685229  0.022385072            1 
 2296000   0.89156474   -7.7541504    621.77136  0.022567195  0.022378798            3 
 2297000   0.88679882   -7.7814893    623.36202  0.022615078  0.022372537            1 
 2298000   0.90301983   -7.7442559    624.25012  0.022637443  0.022366268            3 
 2299000   0.89640796   -7.7400966    623.36724  0.022595594  0.022360015            3 
 2300000   0.90069864   -7.7074981    624.96472  0.022643649  0.022353788            1 
 2301000   0.87835148   -7.7482044    623.71697   0.02258862  0.022347579            5 
 2302000   0.87832082   -7.7419858    625.83586  0.022655512  0.022341367            3 
 2303000   0.89516865   -7.7578232    624.00543  0.022579441   0.02233513            3 
 2304000    0.8846911   -7.7581844    625.40188  0.022620149  0.022328841            3 
 2305000   0.88037056   -7.7648481    622.99908  0.022523467  0.022322549            3 
 2306000   0.88490988   -7.7685665    622.84054   0.02250797  0.022316249            2 
 2307000   0.88503452   -7.7536451     624.0974  0.022543614  0.022309968            4 
 2308000   0.87054581   -7.7603468    623.79808  0.022523039  0.022303663            2 
 2309000   0.87180435   -7.7608185    622.86623  0.022479653  0.022297313            2 
 2310000   0.87106842   -7.7417047    625.44198  0.022562842  0.022290991            2 
 2311000   0.86338514   -7.7346368    625.53009  0.022556256  0.022284718            1 
 2312000   0.87270594   -7.7497584    624.41062   0.02250615  0.022278437            2 
 2313000   0.88781051   -7.7798752    622.33964  0.022421806  0.022272124            1 
 2314000   0.90022352   -7.7508027    623.50916  0.022454233  0.022265772            2 
 2315000   0.89622138   -7.7461564    623.72006  0.022452126  0.022259474            2 
 2316000   0.91406362   -7.7675259    624.47517  0.022469602  0.022253162            2 
 2317000   0.88273127   -7.7577499    623.81163  0.022436039  0.022246816            2 
 2318000   0.88526903   -7.7484452    623.23529   0.02240564  0.022240502            1 
 2319000    0.8824882   -7.7228704      625.805  0.022488321  0.022234216            2 
 2320000   0.90069783   -7.7523332    623.46499  0.022394576  0.022227895            2 
 2321000   0.87731365   -7.7628799     625.1375  0.022444977  0.022221517            2 
 2322000   0.88825774   -7.7302921     625.4731  0.022447355  0.022215175            3 
 2323000   0.87532135   -7.7613671    625.29304  0.022431233   0.02220881            2 
 2324000   0.84664722   -7.7491012    623.93929  0.022373038  0.022202458            2 
 2325000   0.86615714   -7.7930023    622.98573  0.022329238  0.022196071            2 
 2326000   0.89508728   -7.7525269    626.19243  0.022434524    0.0221897            1 
 2327000   0.87765231   -7.7351419    626.32154  0.022429506  0.022183384            3 
 2328000   0.88530164   -7.7819704    625.42948   0.02238794   0.02217707            3 
 2329000    0.8807333   -7.7711874    625.82933  0.022392634  0.022170735            2 
 2330000   0.87612821   -7.7517613    626.12244  0.022393506  0.022164362            2 
 2331000    0.8922806     -7.78953    626.00472  0.022379691  0.022157973            1 
 2332000   0.85602131   -7.7671432    626.28711  0.022380185  0.022151604            1 
 2333000   0.86483435   -7.7565223    625.92748  0.022357747  0.022145292            3 
 2334000   0.88787402    -7.738552    626.01343  0.022351237  0.022138962            2 
 2335000   0.87775238   -7.7479816    627.78456  0.022404874  0.022132671            1 
 2336000    0.8915889   -7.7582749    627.15121  0.022372689  0.022126347            2 
 2337000    0.8917028   -7.7727804    626.34675   0.02233443  0.022119976            2 
 2338000   0.88671629   -7.7609884    626.61556  0.022334458  0.022113625            2 
 2339000   0.87646429   -7.7460718    627.05817  0.022340679  0.022107272            2 
 2340000   0.87616757   -7.7554717    627.36702   0.02234213  0.022100942            2 
 2341000   0.87212781   -7.7713506    626.40969  0.022298508  0.022094557            2 
 2342000    0.8734684   -7.7773959    625.95524  0.022272817  0.022088174            1 
 2343000   0.89413733   -7.7822418    625.76175  0.022256429  0.022081809            2 
 2344000   0.88821345   -7.7473784    628.72828  0.022352399  0.022075455            1 
 2345000   0.87655159   -7.7732367     626.5842  0.022266674  0.022069147            2 
 2346000   0.87528129   -7.7907723    626.29005  0.022246734   0.02206284            3 
 2347000   0.89144883   -7.7489122    626.43488  0.022242397  0.022056486            3 
 2348000   0.88347636   -7.7673268    627.34661  0.022265283  0.022050131            1 
 2349000    0.8821623   -7.7331124    628.14169   0.02228401  0.022043843            2 
 2350000   0.87250408   -7.7673218    626.93574  0.022231764  0.022037499            4 
 2351000   0.86075396    -7.749856    627.27034  0.022234168  0.022031188            1 
 2352000   0.87997843   -7.7563686    627.58482  0.022235857  0.022024861            2 
 2353000   0.86093306   -7.7385273    628.66502  0.022264663  0.022018565            1 
 2354000   0.89269033   -7.7779516    627.47955  0.022213238  0.022012259            1 
 2355000   0.87998469   -7.7734412    626.60895  0.022172999  0.022005891            2 
 2356000    0.8519935   -7.7913237     626.6824  0.022166186  0.021999557            2 
 2357000   0.89061564   -7.7779641    626.55196  0.022152169  0.021993233            3 
 2358000   0.86224565    -7.724579    629.64799  0.022252191  0.021986949            1 
 2359000   0.87358863   -7.7578055    628.05568  0.022186508  0.021980653            4 
 2360000   0.88057172   -7.7601412    628.41267  0.022189713  0.021974368            1 
 2361000   0.87374247    -7.746089    630.41343  0.022250933  0.021968106            2 
 2362000   0.85782916     -7.74211    629.40613  0.022205974  0.021961818            1 
 2363000    0.8801055   -7.7527136    627.37043  0.022124786  0.021955548            5 
 2364000   0.87511662   -7.7896185    629.31315   0.02218391  0.021949229            4 
 2365000   0.88704251   -7.7539231     628.5868  0.022148936  0.021942879            4 
 2366000   0.89408084   -7.7743478    630.00844  0.022189646  0.021936523            2 
 2367000   0.86578136   -7.7837081    628.36933  0.022122565  0.021930162            2 
 2368000   0.86929257   -7.7629145    627.91676  0.022097296  0.021923849            1 
 2369000   0.87865071   -7.7608712    628.47348  0.022107552  0.021917588            2 
 2370000    0.8710245   -7.7822421    630.41054  0.022166334   0.02191129            4 
 2371000   0.86871278   -7.7780704    628.19504  0.022079117  0.021904944            3 
 2372000   0.87626607   -7.7393177    629.81429  0.022126697  0.021898636            1 
 2373000   0.88165205   -7.7734221    628.65001  0.022076486  0.021892347            1 
 2374000   0.86832046   -7.7533728    628.86483  0.022074727  0.021886106            2 
 2375000   0.87569261   -7.7515975    630.66536  0.022128609  0.021879839            2 
 2376000   0.87697037   -7.7536257    630.06684  0.022098304  0.021873589            3 
 2377000   0.86989188    -7.742838    630.80143  0.022114761  0.021867334            1 
 2378000   0.86429609   -7.7818588    629.72576  0.022067766  0.021861045            1 
 2379000    0.8916359   -7.7933522    630.59827  0.022089052  0.021854781            2 
 2380000   0.85810538   -7.7611292    632.02928  0.022129877  0.021848521            2 
 2381000   0.86692678   -7.7700353    629.93447  0.022047265  0.021842258            3 
 2382000   0.89446983   -7.7760853    631.22276   0.02208308  0.021835922            3 
 2383000   0.85961921   -7.7725834    629.37907  0.022009339  0.021829575            2 
 2384000   0.87604913   -7.7723677    632.22903  0.022099728  0.021823269            2 
 2385000   0.87805596   -7.7908089     629.5447   0.02199667  0.021816967            1 
 2386000   0.87816898   -7.7672385    632.03708    0.0220745  0.021810661            1 
 2387000    0.8714244   -7.7886403    631.53822  0.022047836    0.0218044            4 
 2388000   0.86751331   -7.7733108    632.20432  0.022061848  0.021798087            3 
 2389000    0.8719247   -7.7655362    630.15949  0.021981286  0.021791781            4 
 2390000   0.88209899   -7.7863414    630.30062  0.021977009  0.021785433            2 
 2391000   0.87604129   -7.7898598    629.34648  0.021934563   0.02177911            3 
 2392000   0.86093914   -7.7650432     632.6638  0.022040963  0.021772782            2 
 2393000   0.85557544   -7.7806845    630.55282   0.02195824  0.021766503            3 
 2394000   0.85975902   -7.7783859    630.89141  0.021960854  0.021760263            2 
 2395000   0.86375828   -7.7636278     632.5055  0.022007846  0.021754041            1 
 2396000   0.87461747   -7.7945894    631.95478  0.021979507  0.021747828            1 
 2397000   0.87327066    -7.779658    632.87318  0.022002266  0.021741569            1 
 2398000   0.89345591   -7.7790946    632.68978  0.021986717  0.021735336            3 
 2399000   0.84954604   -7.7882043    631.89613  0.021949984  0.021729031            1 
 2400000    0.8735741    -7.765174    632.23634  0.021952651  0.021722806            4 
 2401000   0.85139599   -7.7999004    632.68041   0.02195892  0.021716556            2 
 2402000   0.85919361   -7.7543808    633.37394  0.021973839  0.021710333            1 
 2403000   0.88466441   -7.7748608    632.76232  0.021943485  0.021704113            4 
 2404000   0.86355948   -7.7672766    633.80811  0.021970608  0.021697853            2 
 2405000   0.86438507   -7.7705664    632.12394  0.021903116  0.021691637            2 
 2406000   0.88093553   -7.8109257    633.36707  0.021937069  0.021685387            3 
 2407000   0.87797443   -7.7908505    631.56671  0.021865625  0.021679137            2 
 2408000   0.85227183   -7.7970133     634.6094  0.021961842  0.021672958            3 
 2409000   0.85659959   -7.7800265    634.10156  0.021935158  0.021666796            1 
 2410000   0.85543751   -7.7593704    633.97619  0.021921722  0.021660626            1 
 2411000   0.84683513    -7.771694    634.26069  0.021922463   0.02165444            1 
 2412000    0.8668815   -7.7661808    634.51368  0.021922115  0.021648271            2 
 2413000   0.87746909   -7.7735892    633.64704    0.0218831   0.02164212           10 
 2414000   0.88357484   -7.7932902    633.99561  0.021886068  0.021635968            3 
 2415000   0.86729313    -7.794749    635.17294  0.021917631  0.021629789            2 
 2416000    0.8573455   -7.8090937    633.07724  0.021836274  0.021623615            3 
 2417000   0.86583421   -7.7796303    635.71625  0.021918227  0.021617453            2 
 2418000   0.86829522   -7.7877926     634.7102   0.02187449  0.021611236            3 
 2419000    0.8756409   -7.7713694    635.48611  0.021892177  0.021605024            1 
 2420000   0.88382734   -7.8017821    634.52214  0.021849936  0.021598789            3 
 2421000   0.87658559   -7.7616125    635.93078  0.021889398  0.021592585            4 
 2422000   0.87184946   -7.7611472    633.16038  0.021785039  0.021586382            1 
 2423000   0.85818953    -7.748955    636.13681  0.021878416  0.021580206            2 
 2424000   0.86898157   -7.7523264    636.06478  0.021866914  0.021574026            1 
 2425000   0.85651436   -7.7716698    635.40178  0.021835113  0.021567823            2 
 2426000   0.85316021   -7.7435522    636.11043  0.021850454  0.021561653            4 
 2427000   0.87189612   -7.7962801    635.68022   0.02182668  0.021555439            2 
 2428000   0.87699754   -7.7586591    636.09548  0.021831943  0.021549219            2 
 2429000   0.85605063   -7.7892518    635.13674  0.021790062  0.021542978            1 
 2430000   0.87066859   -7.7792294    634.93559  0.021774197  0.021536695            4 
 2431000   0.86723212   -7.8041851    634.24597  0.021741601  0.021530452            3 
 2432000   0.85583579   -7.7937637    635.48006  0.021774947  0.021524213            4 
 2433000   0.83695694   -7.7829066    633.78866  0.021708065  0.021517964            3 
 2434000   0.87051232   -7.7814127    636.37835   0.02178781  0.021511673            2 
 2435000   0.87779103   -7.7976253    636.75489  0.021791748  0.021505483            1 
 2436000   0.87234111   -7.7840732    634.06444  0.021690765  0.021499248            2 
 2437000   0.87531597    -7.780617    635.16102  0.021719362  0.021493025            3 
 2438000   0.86678824   -7.8095145    635.61712  0.021726043  0.021486799            4 
 2439000   0.85707411   -7.7517165    636.53172  0.021748385  0.021480572            2 
 2440000   0.86184137   -7.7790948      635.539  0.021705567  0.021474397            2 
 2441000   0.88269051   -7.7705224    636.55908  0.021731499  0.021468218            4 
 2442000   0.85456656   -7.8048039    636.08095  0.021706284  0.021462059            1 
 2443000   0.85705734   -7.7972796    635.94316  0.021692699  0.021455888            1 
 2444000   0.86273103   -7.7736342    637.34899  0.021731758  0.021449717            2 
 2445000   0.87956127      -7.7844    638.03364  0.021746204  0.021443593            2 
 2446000    0.8784462   -7.7921755     637.3625  0.021714449  0.021437494            3 
 2447000   0.87280901   -7.7985841    637.09371  0.021696421  0.021431367            4 
 2448000   0.86181796    -7.796851    636.70603  0.021674361   0.02142521            3 
 2449000   0.85829128   -7.7769402     637.6406  0.021697312  0.021419063            3 
 2450000   0.86270438   -7.7839148    636.69655  0.021656345  0.021412874            3 
 2451000   0.85048128   -7.8254922    635.09702  0.021593126  0.021406635            2 
 2452000   0.84976868   -7.8091663    636.69092   0.02163849  0.021400396            4 
 2453000   0.85111619   -7.8356483    637.27222  0.021649416  0.021394147            1 
 2454000   0.87416041   -7.7584214    637.46918  0.021647283   0.02138788            2 
 2455000   0.86035177   -7.7840364     637.0636  0.021624698  0.021381648            1 
 2456000   0.84458346   -7.7961369    637.58068  0.021633438  0.021375418            1 
 2457000   0.86098682   -7.7675623     638.2044  0.021645788  0.021369233            1 
 2458000   0.86328675   -7.7795957    638.01457  0.021630546  0.021363009            6 
 2459000   0.86058401   -7.7800086    638.09971  0.021624634  0.021356738            4 
 2460000   0.85050159   -7.7930741    637.76488  0.021604501  0.021350455            4 
 2461000   0.85245648   -7.7923316    636.12491  0.021540191  0.021344166            2 
 2462000   0.85572976   -7.7551203    637.84813  0.021589769  0.021337977            3 
 2463000   0.86496247    -7.828856    635.43578  0.021499383  0.021331682            2 
 2464000   0.85431117   -7.8077771    637.37945  0.021556394  0.021325379            4 
 2465000   0.84543674   -7.8127268    637.30885  0.021545262   0.02131904            1 
 2466000   0.85883272   -7.8433958    634.94458  0.021456629  0.021312699            3 
 2467000    0.8682662   -7.8308962    636.28099  0.021493075  0.021306435            2 
 2468000   0.85142909   -7.8126819     637.3264  0.021519665  0.021300217            2 
 2469000   0.88394027    -7.803268    638.16611  0.021539291  0.021293945            2 
 2470000    0.8481056   -7.7867334      638.303  0.021535189  0.021287719            2 
 2471000   0.86250666   -7.8320602    637.15902  0.021487894  0.021281479            2 
 2472000   0.84086299   -7.8026182    638.33682  0.021518906  0.021275236            2 
 2473000   0.83925198   -7.8102219    637.93604  0.021496699  0.021268997            2 
 2474000   0.86153514   -7.8067087    636.76785  0.021448661  0.021262733            4 
 2475000   0.84539206   -7.8218319    637.70812  0.021471654  0.021256462            1 
 2476000    0.8638723   -7.8175228    638.80132  0.021499775  0.021250189            3 
 2477000   0.84846952   -7.8056238    638.14566  0.021469037  0.021243969            4 
 2478000   0.86276194   -7.8028555    639.71065  0.021513003  0.021237713            3 
 2479000   0.84370069   -7.7868469    638.27773  0.021456156  0.021231492            2 
 2480000   0.85812553   -7.7765262    638.45718  0.021453534  0.021225311            2 
 2481000   0.86103099   -7.7915671    637.57844  0.021415371  0.021219116            1 
 2482000   0.86081812   -7.7821832    639.03215  0.021455552  0.021212917            2 
 2483000   0.86253311    -7.805302    639.93028  0.021477053  0.021206669            1 
 2484000   0.85699042   -7.8117077    638.65738  0.021425704  0.021200432            3 
 2485000   0.84625368   -7.7962239    639.30711   0.02143887  0.021194182            1 
 2486000   0.85394683   -7.7923296    639.55369  0.021438512  0.021187953            1 
 2487000   0.86196786   -7.8177856    640.93459  0.021476162  0.021181738            2 
 2488000   0.86549619   -7.8419172    639.46697  0.021418374  0.021175572            2 
 2489000   0.85623033   -7.8146971    641.43671  0.021475717  0.021169383            2 
 2490000   0.85966801   -7.8253041    639.60511  0.021405793  0.021163202            1 
 2491000   0.84906784   -7.8434013    637.87164  0.021339209  0.021157011            1 
 2492000   0.84954289   -7.7988975    641.28212  0.021444694  0.021150813            4 
 2493000   0.86034699    -7.794964    639.88854  0.021389509  0.021144586            2 
 2494000   0.87011142   -7.8333669    640.64939  0.021406355  0.021138395            4 
 2495000   0.85768531   -7.8413044    639.69048  0.021365747  0.021132175            3 
 2496000   0.85956795    -7.834901    639.95692  0.021366083  0.021125913            2 
 2497000   0.85856668   -7.7827927    641.26951  0.021401332  0.021119739            2 
 2498000   0.85852351    -7.817873    641.28635  0.021393326  0.021113548            2 
 2499000   0.85594448   -7.7755392    642.79139  0.021434954  0.021107453            2 
 2500000   0.83716313   -7.7878885    641.41358  0.021380453  0.021101301            2 
 2501000     0.837833   -7.7944299    641.04784  0.021359717  0.021095162            5 
 2502000   0.84068505   -7.8165686    640.79597  0.021342791  0.021089029            3 
 2503000   0.85374999   -7.8243859    640.98504  0.021340559  0.021082877            4 
 2504000   0.85416199   -7.8059738    641.50902  0.021349475  0.021076716            2 
 2505000   0.83341825   -7.8437549    640.62658  0.021311596  0.021070466            2 
 2506000   0.85512118    -7.845493    640.59172  0.021301933  0.021064237            3 
 2507000   0.85048443   -7.8266953     640.5284  0.021291331  0.021058045            1 
 2508000   0.85438755   -7.8258728    641.36555  0.021310657  0.021051841            2 
 2509000   0.84109831   -7.8380449    641.18378  0.021296126  0.021045677            3 
 2510000   0.87518877   -7.8080705    639.61031  0.021235402   0.02103952            2 
 2511000   0.85505086   -7.8293906    642.24375  0.021314342  0.021033367            2 
 2512000   0.85776561   -7.8298006    641.13268  0.021268998  0.021027164            4 
 2513000   0.85078829   -7.8100171     641.1227  0.021260204  0.021021009            1 
 2514000   0.84101492   -7.8052443    642.33083  0.021291794  0.021014885            2 
 2515000   0.84374602   -7.8527105    641.18773  0.021245452  0.021008763            1 
 2516000   0.84775105   -7.8347446    642.80702  0.021290641  0.021002621            4 
 2517000   0.85778289   -7.8095444    643.20532  0.021295369  0.020996475            2 
 2518000   0.84908814   -7.7992566    642.30521  0.021257122  0.020990378            6 
 2519000   0.84806842   -7.8196089    642.60973  0.021258758  0.020984262            2 
 2520000   0.83476358   -7.8461334    641.39543  0.021210166  0.020978086            2 
 2521000   0.84721977    -7.854246    639.53495  0.021140254  0.020971875            5 
 2522000   0.84322485   -7.8519665    643.02305  0.021247127  0.020965702            3 
 2523000   0.82921599   -7.8223133    642.24286  0.021212936  0.020959543            3 
 2524000   0.82456688    -7.824664    643.65849  0.021251271  0.020953364            1 
 2525000   0.86029388   -7.7757193    644.25077  0.021262402  0.020947199            1 
 2526000    0.8415566   -7.8406978    643.26111  0.021221335  0.020941029            2 
 2527000    0.8489343   -7.8344781    641.71627  0.021161993  0.020934785            2 
 2528000   0.84013406   -7.8373176    642.36019  0.021174848   0.02092855            2 
 2529000   0.86874304   -7.8312291    641.68409  0.021144197  0.020922288            2 
 2530000   0.83804416   -7.8554019    641.47647  0.021129001  0.020916031            3 
 2531000   0.86207385   -7.8555579    640.53786  0.021089749  0.020909774            3 
 2532000   0.83013875   -7.8593515    641.24384  0.021104655  0.020903491            4 
 2533000   0.84033724   -7.8013211    643.95586  0.021185546  0.020897259            2 
 2534000   0.85351194   -7.8446461    642.85765   0.02114107  0.020891059            1 
 2535000   0.84790885   -7.8385255    641.81012  0.021098295  0.020884813            1 
 2536000   0.85261749   -7.7832175    643.48946  0.021145158  0.020878566            2 
 2537000   0.84455509   -7.8296255    642.99782  0.021120675  0.020872326            1 
 2538000    0.8460206   -7.8262273    642.57953  0.021098619  0.020866091            3 
 2539000   0.85953782   -7.7966943    642.51671  0.021088247  0.020859884            1 
 2540000   0.85962564   -7.8559233    642.32112  0.021073528  0.020853686            2 
 2541000   0.85395846   -7.8451515    642.87433  0.021083377  0.020847474            2 
 2542000   0.83868245   -7.8262549    643.19434  0.021085574  0.020841271            1 
 2543000   0.82586276   -7.8181735     643.9945  0.021103503  0.020835043            3 
 2544000   0.84061978   -7.8260747    644.01987  0.021096039  0.020828864            2 
 2545000   0.85154122   -7.8634997    644.87814  0.021115853  0.020822639            1 
 2546000   0.85438024   -7.8674004    642.86231  0.021041579  0.020816414            2 
 2547000   0.83787589   -7.8056559    644.94445  0.021101441  0.020810247            5 
 2548000   0.85872337   -7.8273299    644.41111  0.021075717  0.020804066            1 
 2549000   0.83894146   -7.8073225    646.54534  0.021137222  0.020797911            2 
 2550000   0.82227645   -7.8438471    644.48286  0.021061531  0.020791762            1 
 2551000   0.83471274   -7.8566092    645.18723  0.021076285  0.020785574            3 
 2552000   0.85230605   -7.8611233    644.33413  0.021040169  0.020779401            1 
 2553000   0.84842729   -7.8435084    645.20468  0.021060343  0.020773241            4 
 2554000   0.85273095   -7.8212024    646.36926  0.021090096  0.020767103            1 
 2555000   0.82432702   -7.8317965      643.746  0.020996282  0.020760982            5 
 2556000   0.84000622   -7.8385897    645.25939  0.021037408  0.020754875            4 
 2557000   0.83844698   -7.8114707    643.27215  0.020964416  0.020748738            2 
 2558000   0.84397835   -7.8147374    645.06423  0.021014602  0.020742607            1 
 2559000   0.84201925   -7.8421478    645.55111  0.021022245   0.02073645            2 
 2560000    0.8633731   -7.8375877    644.56386  0.020981897  0.020730332            3 
 2561000   0.84799369   -7.8499562    646.85646  0.021048303  0.020724243            1 
 2562000   0.83667159    -7.864348    645.57148  0.020998292  0.020718141            3 
 2563000   0.83817564   -7.8682662    645.90264  0.021000866  0.020711987            2 
 2564000   0.82652637    -7.862197    645.02501  0.020964151  0.020705841            4 
 2565000   0.86091679   -7.8356185    643.78408  0.020915662  0.020699704            3 
 2566000   0.85753216   -7.8826298    644.68819  0.020936873  0.020693567            1 
 2567000   0.83258459   -7.8375318     644.4858  0.020922146  0.020687432            2 
 2568000   0.81795033   -7.8506862    645.29589  0.020940287  0.020681335            1 
 2569000   0.86020504   -7.8367266    645.15857  0.020927682  0.020675243            2 
 2570000   0.83919868   -7.8423335    645.69507  0.020936935  0.020669129            2 
 2571000   0.86209398   -7.8445435    646.36521  0.020950513  0.020663028            7 
 2572000   0.86211089   -7.8755018    646.11021  0.020934105  0.020656921            1 
 2573000   0.83800806   -7.8669455    646.76358   0.02094713  0.020650824            3 
 2574000   0.83281851   -7.8239351    647.00995  0.020946968   0.02064474            3 
 2575000   0.85207714   -7.8471104    648.41391  0.020984269  0.020638693            3 
 2576000    0.8414318   -7.8017147    648.41722   0.02097623  0.020632667            5 
 2577000   0.86033251   -7.8300221    648.62497  0.020974808  0.020626667            2 
 2578000   0.84202809    -7.832556    646.87899  0.020910234  0.020620641            2 
 2579000   0.84371579   -7.8011778    647.17425  0.020911666  0.020614579            1 
 2580000   0.83627093   -7.8339387    647.58537   0.02091684  0.020608532            2 
 2581000   0.84687441   -7.8542273    646.42208  0.020871176  0.020602471            1 
 2582000    0.8550528   -7.8270054     647.5544  0.020899638   0.02059637            6 
 2583000   0.83728561   -7.8301779    648.80866  0.020932013  0.020590316            3 
 2584000   0.83653585   -7.8677472    646.97165  0.020864669  0.020584258            3 
 2585000   0.85182389   -7.8750163    647.83964  0.020884579  0.020578195            1 
 2586000   0.81800636    -7.838609    647.26817  0.020858087  0.020572165            2 
 2587000   0.83309135   -7.8259441     650.3188  0.020948293  0.020566142            2 
 2588000    0.8606413    -7.818187    648.48717   0.02088122  0.020560173            2 
 2589000   0.84153346   -7.8437774    647.34361  0.020836346  0.020554152            2 
 2590000   0.84081756   -7.8137498    646.81364   0.02081125  0.020548085            4 
 2591000    0.8286272   -7.8416995    647.71433  0.020832186   0.02054204            4 
 2592000    0.8409064   -7.8569816    649.08781  0.020868307  0.020535977            2 
 2593000   0.82387038   -7.8596621    649.01844  0.020858029  0.020529921            5 
 2594000   0.82838352   -7.8360476    649.53995  0.020866742  0.020523852            3 
 2595000   0.83762172   -7.8755304    647.53215  0.020794225  0.020517796            3 
 2596000   0.82590292   -7.8480968    648.67336  0.020822848  0.020511727            2 
 2597000   0.84227669   -7.8404093    649.52805  0.020842255  0.020505638            2 
 2598000   0.82609418   -7.8412635    648.21599  0.020792147  0.020499598            1 
 2599000   0.86643599   -7.8571517    649.54672  0.020826815  0.020493531            4 
 2600000   0.84333428   -7.8636542    648.94289  0.020799451  0.020487478            3 
 2601000   0.83804671   -7.8602015    649.05671  0.020795102  0.020481409            1 
 2602000    0.8219349   -7.8303074    649.85382  0.020812638  0.020475356            2 
 2603000   0.84883077   -7.8471376    648.80887  0.020771189  0.020469308            1 
 2604000   0.83118264   -7.8688092    648.88204  0.020765554  0.020463262            5 
 2605000    0.8291002   -7.8911892    647.48221  0.020712803  0.020457161            1 
 2606000   0.86146962   -7.8609403    648.24255  0.020729168  0.020451082            2 
 2607000   0.81676181   -7.8414226    649.49342  0.020761201  0.020445048            2 
 2608000   0.85560039    -7.866701    649.07286  0.020739803  0.020438961            3 
 2609000   0.85859852   -7.9077394    650.61667  0.020781164  0.020432849            2 
 2610000    0.8405744   -7.8708722    649.84578  0.020748588  0.020426735            2 
 2611000   0.84258964   -7.8691226    649.01589  0.020714155  0.020420627            2 
 2612000    0.8200946   -7.8838212    649.73969  0.020729316  0.020414509            2 
 2613000   0.82950611   -7.8298569    649.55621  0.020715532  0.020408411            1 
 2614000   0.83626661   -7.8235396    650.39568  0.020734369  0.020402358            2 
 2615000   0.83205209   -7.8669273    649.97822  0.020713136  0.020396257            5 
 2616000   0.83670382   -7.8414517     649.0642  0.020676102  0.020390162            3 
 2617000    0.8312375   -7.8687972    648.19477  0.020640516   0.02038404            1 
 2618000   0.84841156   -7.8615457    648.19802  0.020632736  0.020377944            3 
 2619000   0.82976072   -7.8485745    649.96399  0.020681048  0.020371845            3 
 2620000   0.84253614   -7.8621486    648.26532  0.020619126  0.020365741            3 
 2621000   0.83699579   -7.9036015    649.15964  0.020639694  0.020359583            2 
 2622000   0.81911818   -7.8504745    650.33366  0.020669135  0.020353431            2 
 2623000   0.84508079   -7.8356475    649.19948  0.020625222   0.02034733            6 
 2624000   0.82641989   -7.8433365    649.88334   0.02063908  0.020341223            3 
 2625000   0.82391713   -7.8676283    650.50858  0.020651066  0.020335121            3 
 2626000   0.83604155   -7.8538209    649.33389  0.020605924  0.020328987            1 
 2627000   0.83085859   -7.8626018    650.65887  0.020640111  0.020322871            3 
 2628000   0.83674492   -7.8648247    648.79238  0.020573071   0.02031675            3 
 2629000   0.82154993   -7.8888369    648.16271  0.020545287  0.020310616            1 
 2630000   0.83373515   -7.8935966    648.93263   0.02056187  0.020304467            2 
 2631000   0.82902769    -7.868652    650.09938   0.02059101  0.020298331            1 
 2632000   0.81788082   -7.8532884    650.21848  0.020586958  0.020292188            2 
 2633000   0.81205234   -7.8882301     650.7571  0.020596186  0.020286015            1 
 2634000   0.84926516     -7.89574    648.68837  0.020522917  0.020279841            2 
 2635000   0.82616694   -7.8999953    647.82138   0.02048771  0.020273644            1 
 2636000    0.8363745   -7.8925806    649.79876  0.020542449  0.020267465            1 
 2637000   0.82164155    -7.878545    649.64021  0.020529649  0.020261316            2 
 2638000   0.84875526   -7.8601168    650.20913  0.020539839  0.020255163            2 
 2639000   0.82648438     -7.87142    648.82934  0.020488485  0.020249029            4 
 2640000   0.82467762   -7.8347085    650.44879  0.020531843  0.020242898            3 
 2641000   0.81478736   -7.8242598    651.33159  0.020551925  0.020236759            2 
 2642000    0.8196674   -7.8788713    649.08859  0.020473397  0.020230608            3 
 2643000   0.83204904   -7.8603821    650.74526  0.020517886  0.020224432            2 
 2644000   0.80677832   -7.8958041    647.82044  0.020417941  0.020218228            2 
 2645000   0.83637462   -7.8768522    649.66385    0.0204683  0.020212036            3 
 2646000   0.81922444   -7.8620794    649.56507  0.020457454  0.020205842            2 
 2647000   0.83755173   -7.8783105    648.89527  0.020428638  0.020199633            4 
 2648000   0.84109931   -7.8953192    647.60409   0.02038029  0.020193414            1 
 2649000   0.85049121   -7.8618711     649.4669  0.020431197  0.020187208            3 
 2650000   0.82451972   -7.8332531    649.57869  0.020427003  0.020181017            3 
 2651000   0.81817904   -7.8726598    648.92808  0.020398846   0.02017482            2 
 2652000   0.81163136   -7.8845874    649.26741  0.020401816  0.020168657            3 
 2653000   0.83690359   -7.8719664    649.64927  0.020406121  0.020162461            1 
 2654000   0.82697746   -7.8789825    649.64577  0.020398322  0.020156259            2 
 2655000   0.81776526   -7.9042527    648.35612  0.020350161  0.020150019            4 
 2656000   0.82004296    -7.877402    647.29172  0.020309103  0.020143786            2 
 2657000   0.81324925   -7.9058676    649.53509  0.020371819  0.020137562            2 
 2658000   0.83992652   -7.8573266    650.56775  0.020396531  0.020131377            2 
 2659000   0.82582632   -7.8341219     650.8029   0.02039623   0.02012521            3 
 2660000   0.83881885   -7.8596479    649.14786  0.020336712   0.02011906            1 
 2661000   0.82570759   -7.8633645    650.39855  0.020368237  0.020112874            2 
 2662000   0.83324474   -7.8876461    650.07808  0.020350553  0.020106712            1 
 2663000   0.83560264    -7.876566    649.23026  0.020316381  0.020100526            2 
 2664000   0.82603553   -7.8564708    649.74955  0.020324998  0.020094363            4 
 2665000   0.82777132   -7.8553777    650.17827  0.020330778  0.020088225            1 
 2666000   0.81846445   -7.8530371    651.27062  0.020357296  0.020082082            1 
 2667000   0.84209392   -7.8615191    651.74063  0.020364349  0.020075959            4 
 2668000   0.82861531   -7.8898654    651.38735  0.020345682  0.020069795            3 
 2669000   0.83552392   -7.8780944    650.72341  0.020317329  0.020063597            2 
 2670000   0.83261495   -7.8957359    650.40908  0.020299909  0.020057434            2 
 2671000   0.83269713   -7.8665728    652.04426  0.020343325  0.020051295            1 
 2672000   0.82032963    -7.877999    651.56942  0.020320903  0.020045158            2 
 2673000   0.83852806   -7.8694856    651.15237  0.020300298  0.020039012            2 
 2674000   0.81384278   -7.9004374    651.35912   0.02029915  0.020032829            6 
 2675000   0.83399215   -7.8584544    651.27536  0.020288952  0.020026657            2 
 2676000   0.81079605   -7.8770359    651.20236  0.020279097  0.020020487            1 
 2677000   0.82618321   -7.8680016    650.71645  0.020256396  0.020014324            1 
 2678000   0.80021546   -7.8812817    651.62888  0.020277224  0.020008172            4 
 2679000   0.82516204   -7.9049283    651.67169  0.020270987  0.020002007            4 
 2680000   0.81813009   -7.8840971    652.60855  0.020292554  0.019995855            6 
 2681000   0.84482739   -7.8814698    651.11334   0.02023851  0.019989688            3 
 2682000   0.83636589   -7.8627565    651.15764   0.02023234  0.019983505            2 
 2683000   0.81690276   -7.9012444    651.93872   0.02024906  0.019977309            2 
 2684000   0.83434691   -7.8491304    651.84528  0.020238614  0.019971177            2 
 2685000   0.81867631   -7.8568349    653.03106  0.020267879  0.019965036            2 
 2686000   0.81977424   -7.8966663    652.46627  0.020242811  0.019958891            9 
 2687000    0.8138749   -7.8703201    651.08975  0.020192586   0.01995273            3 
 2688000   0.82288999   -7.8976063    651.68858  0.020203639  0.019946575            2 
 2689000   0.83447769   -7.8783406    653.62145  0.020256026  0.019940431            5 
 2690000   0.83542702   -7.8982372    652.03214  0.020199261  0.019934282            1 
 2691000   0.82598641   -7.8917824    652.36599  0.020202093  0.019928129            1 
 2692000   0.82058414    -7.843172    652.05151  0.020184854  0.019921992            2 
 2693000   0.79699836   -7.8824648    652.36362  0.020187016  0.019915882            1 
 2694000   0.82389034   -7.9212939     651.7482  0.020160486  0.019909737            2 
 2695000   0.82378091   -7.9200232    651.72613  0.020152323  0.019903573            2 
 2696000   0.80666491   -7.9087038    652.64181  0.020173152  0.019897408            2 
 2697000   0.81957445   -7.9180475    651.89295  0.020142533  0.019891251            1 
 2698000   0.81221559   -7.9171334    651.01713  0.020108016  0.019885089            5 
 2699000   0.82090481   -7.8815755    652.14874  0.020135505    0.0198789            2 
 2700000   0.82363469   -7.9068206    652.59825  0.020141921  0.019872744            2 
 2701000   0.84091936   -7.8883342    653.39285   0.02015898  0.019866619            6 
 2702000   0.80850785   -7.8782306    652.44583  0.020122312  0.019860495            1 
 2703000   0.83225554   -7.9038779     652.7769  0.020125074  0.019854348            2 
 2704000   0.81445989   -7.9235981    652.70992  0.020115567  0.019848217            3 
 2705000   0.81058109   -7.9314955    652.25803  0.020094209   0.01984207            2 
 2706000   0.81233332   -7.8865897    654.64091  0.020160166  0.019835937            2 
 2707000   0.82388424   -7.9075455    652.38498  0.020083271  0.019829823            1 
 2708000   0.82292718   -7.8954905    652.89846  0.020091656  0.019823681            1 
 2709000   0.84951974   -7.9004677    654.61769  0.020137126  0.019817559            4 
 2710000   0.83446425   -7.8991664     652.1721  0.020054493  0.019811396            2 
 2711000   0.81629406    -7.876286    654.67471  0.020124023  0.019805259            2 
 2712000   0.81844385   -7.9127847    653.49812  0.020080449  0.019799139            1 
 2713000   0.82991423   -7.9256491    653.76642  0.020081288  0.019793046            4 
 2714000   0.79693388   -7.9152101    653.79849  0.020074874   0.01978693            1 
 2715000   0.82516941   -7.9004727    654.10918  0.020077016  0.019780831            3 
 2716000   0.83083567   -7.9106514    652.86127  0.020031335  0.019774702            2 
 2717000   0.84023301   -7.8990065    653.02939  0.020029119  0.019768563            2 
 2718000   0.82351298   -7.9051126    652.22226  0.019997003  0.019762429            2 
 2719000   0.83050497   -7.9286875    654.85873  0.020070453  0.019756271            3 
 2720000   0.81964416   -7.9292603    652.11393  0.019978981  0.019750103            1 
 2721000   0.82136633   -7.9076631    652.63688  0.019987654  0.019743953            2 
 2722000   0.80196579   -7.9250072    654.83882  0.020047723  0.019737802            2 
 2723000   0.81890276   -7.9170375    653.23748  0.019991354  0.019731625            3 
 2724000   0.82800924    -7.886212    654.33447  0.020017574  0.019725484            1 
 2725000   0.81928397   -7.8758712    655.01586  0.020031066  0.019719362            2 
 2726000   0.81929585    -7.860096    653.69596  0.019983369  0.019713221            8 
 2727000   0.81362096   -7.8740428    654.33515  0.019995574   0.01970708            3 
 2728000   0.82255771   -7.8841187    651.38732  0.019898195  0.019700908            4 
 2729000    0.8154479   -7.9036251    654.23298    0.0199778   0.01969479            6 
 2730000   0.82318755   -7.9225169    653.52267    0.0199488  0.019688657            2 
 2731000   0.82879097   -7.9007151    655.70677   0.02000814  0.019682521            1 
 2732000   0.81468138   -7.8992347    653.93375  0.019946735  0.019676396            3 
 2733000   0.81512612   -7.9163285    653.65875  0.019931051  0.019670278            2 
 2734000    0.8273584   -7.9179092    652.21551   0.01987977   0.01966417            2 
 2735000   0.80230064   -7.9100183    652.85442  0.019891969  0.019658042            3 
 2736000   0.82302317   -7.9453717      652.224  0.019865497  0.019651899            2 
 2737000   0.81072602   -7.9218363     653.9767  0.019911603  0.019645756            3 
 2738000   0.81351249   -7.8912712    653.59429  0.019892692   0.01963962            2 
 2739000   0.80285405   -7.8795318    654.79634  0.019922001  0.019633516            2 
 2740000   0.81344391   -7.8928317    653.92654  0.019888277  0.019627428            2 
 2741000    0.8046058   -7.9086753    654.16736  0.019888343   0.01962135            1 
 2742000   0.81173014   -7.8786903    656.58269  0.019954495  0.019615269            2 
 2743000   0.82874486    -7.896597     655.0325  0.019900124  0.019609188            3 
 2744000    0.8180722   -7.8975892    655.46604  0.019906039  0.019603103            1 
 2745000   0.81308757   -7.9060428    654.01756  0.019854814  0.019596997            2 
 2746000   0.81444697   -7.9385086    653.82206   0.01984165  0.019590873            1 
 2747000   0.81536585   -7.9113174    655.03523   0.01987123  0.019584761            2 
 2748000   0.82182764   -7.9218053    653.84435  0.019827886  0.019578644            1 
 2749000   0.81936795   -7.9602296     653.8386  0.019820498  0.019572484            4 
 2750000   0.80978205   -7.9237577    654.61385  0.019836783  0.019566314            3 
 2751000   0.79688399   -7.9079687     654.4262  0.019823888  0.019560148            3 
 2752000   0.82189838   -7.9335741    653.77757  0.019797044  0.019554012            4 
 2753000   0.80492687   -7.9004787    654.33479   0.01980672  0.019547859            2 
 2754000   0.80330936   -7.9108428    653.76238  0.019782207  0.019541727            1 
 2755000   0.81235024   -7.9563351     652.8619  0.019747789  0.019535578            1 
 2756000   0.82344432    -7.929153    654.80184  0.019799282   0.01952942            4 
 2757000   0.80428158   -7.9236754    653.73708  0.019759917  0.019523316            4 
 2758000   0.81617606   -7.9241186    655.16082   0.01979577  0.019517187            2 
 2759000   0.80452546   -7.9197827    655.83683  0.019809014  0.019511073            3 
 2760000   0.81733352   -7.9082888    655.32211  0.019786296   0.01950496            3 
 2761000   0.80036311   -7.9214553    656.41325  0.019812062  0.019498828            1 
 2762000   0.79576108   -7.9472394    653.84652  0.019727448  0.019492718            1 
 2763000   0.81166111   -7.9572043    655.22688   0.01976194  0.019486595            3 
 2764000   0.79664369   -7.9281477    655.22077  0.019754606  0.019480436            3 
 2765000   0.82236404   -7.9307926    655.17566  0.019746102  0.019474277            1 
 2766000   0.80521925   -7.9369693    654.87573  0.019729927   0.01946812            2 
 2767000   0.80772095   -7.9403626    655.74403  0.019748947  0.019461961            4 
 2768000   0.81138948   -7.9191269    654.84627  0.019714784  0.019455825            3 
 2769000   0.81970045   -7.9394576    653.60502  0.019670309  0.019449707            1 
 2770000   0.81617172   -7.9245205    655.51048  0.019720532   0.01944358            2 
 2771000   0.79949977   -7.9194115    655.80518  0.019722278  0.019437449            2 
 2772000   0.80340941     -7.93656    655.25649  0.019698668  0.019431294            2 
 2773000   0.80138722   -7.9572669    654.20779  0.019660049  0.019425141            4 
 2774000   0.80650761   -7.9143454    656.08706  0.019709417  0.019419014            3 
 2775000   0.80688262   -7.9228582    656.49069  0.019714435  0.019412894            1 
 2776000     0.801942   -7.9509551    653.95983  0.019631359  0.019406764            1 
 2777000   0.80684277   -7.9611001    655.03304  0.019656495  0.019400621            2 
 2778000   0.81472995   -7.9335235    655.48512   0.01966298  0.019394478            3 
 2779000   0.79684982   -7.9373455    655.56618  0.019658336  0.019388345            5 
 2780000   0.81843407   -7.9752109    653.23708  0.019581447  0.019382202            2 
 2781000   0.80906949   -7.9437243    653.93028  0.019595178  0.019376037            1 
 2782000   0.81783361   -7.9319977    656.51261  0.019665487   0.01936989            4 
 2783000   0.81764323   -7.9059165    655.18495  0.019618665  0.019363781            1 
 2784000   0.81627616   -7.9457604    655.49446  0.019620883  0.019357684            1 
 2785000   0.80979518   -7.9192277    656.27245  0.019637117  0.019351565            2 
 2786000   0.81912979   -7.9613177    654.52505  0.019577801  0.019345453            1 
 2787000   0.80291496   -7.9324177    655.34571  0.019595315  0.019339321            2 
 2788000    0.7894973   -7.9382496    656.03765  0.019608968  0.019333186            2 
 2789000   0.81355357   -7.9313137    655.60397   0.01958898  0.019327107            2 
 2790000   0.82806239   -7.9390625     656.5444  0.019610048  0.019321016            2 
 2791000   0.79885734   -7.9469155    655.70573  0.019577981  0.019314915            3 
 2792000   0.81232604   -7.9349647    655.91332  0.019577164  0.019308785            2 
 2793000   0.82830658   -7.9599808    655.55339  0.019559416  0.019302683            4 
 2794000   0.80112494   -7.9361274    655.37092  0.019546973  0.019296581            3 
 2795000   0.80275422   -7.9307936    656.73864  0.019580759  0.019290504            3 
 2796000   0.79753406   -7.9323773      656.486  0.019566226   0.01928439            2 
 2797000   0.80957925   -7.9454944    654.90889  0.019512242  0.019278298            2 
 2798000   0.78448616   -7.9226369    656.20163   0.01954377  0.019272237            1 
 2799000   0.79594825   -7.9282023    657.82155  0.019585017  0.019266182            1 
 2800000   0.79749887    -7.958942     656.4111  0.019536045  0.019260112            1 
 2801000   0.79596715   -7.9699422    656.85858  0.019542383  0.019254026            1 
 2802000   0.80253088     -7.96036    657.31037  0.019548845  0.019247931            2 
 2803000   0.80961322   -7.9216696     656.4739  0.019517003  0.019241847            2 
 2804000   0.78841483   -7.9609548      656.555  0.019512452  0.019235786            4 
 2805000   0.78524275   -7.9615178    656.75618  0.019511473  0.019229678            2 
 2806000   0.80751401    -7.958839    657.44145  0.019524871  0.019223574            1 
 2807000   0.80681259   -7.9469129    656.69082  0.019495631  0.019217478            2 
 2808000   0.81192182   -7.9376424    656.93252   0.01949586  0.019211409            2 
 2809000    0.7979776   -7.9353894    657.19208   0.01949662  0.019205337            2 
 2810000    0.8029976   -7.9286051    656.65805  0.019473845  0.019199218            1 
 2811000   0.80745696   -7.9514627    657.96979  0.019505804  0.019193121            2 
 2812000   0.79013469   -7.9543796    656.84411  0.019465508  0.019187007            3 
 2813000   0.79258771   -7.9630643    655.65383  0.019423327  0.019180892            1 
 2814000   0.78402726   -7.9522705    656.82492  0.019451105  0.019174778            5 
 2815000    0.7920569   -7.9416044    657.26141  0.019457117  0.019168682            2 
 2816000   0.80088691   -7.9748298    656.07971  0.019415238  0.019162554            1 
 2817000   0.79674741   -7.9498432     657.2013  0.019441525   0.01915647            5 
 2818000   0.81807818   -7.9363632    658.39699  0.019469984  0.019150371            3 
 2819000    0.7864773   -7.9633828    658.07906  0.019453679   0.01914427            2 
 2820000   0.80682503   -7.9621246    656.93702  0.019413033  0.019138161            2 
 2821000   0.80564436   -7.9310247    656.81398  0.019402516  0.019132055            1 
 2822000   0.78314509   -7.9546083    657.59139  0.019418598  0.019125946            2 
 2823000   0.79279396   -7.9693313     656.5726  0.019381645   0.01911986            2 
 2824000   0.78724921   -7.9677879    656.25238  0.019365332  0.019113769            2 
 2825000   0.79749522   -7.9675617    656.24715  0.019358323  0.019107674            4 
 2826000   0.78986636   -7.9499511    659.23023  0.019439438  0.019101604            3 
 2827000    0.7928253   -7.9577534    657.99932  0.019396278    0.0190955            3 
 2828000   0.78352984   -7.9341878    657.32877   0.01936966  0.019089441            2 
 2829000   0.80382628   -7.9526999    657.18065   0.01935845  0.019083369            2 
 2830000   0.79871978    -7.957653     656.5967  0.019334414  0.019077296            4 
 2831000   0.79058771   -7.9530354    656.61628  0.019328161  0.019071229            2 
 2832000   0.80620936   -7.9781227    656.28491  0.019311585  0.019065144            4 
 2833000   0.79621738   -7.9422831    656.87715  0.019322189  0.019059086            5 
 2834000   0.80222922   -7.9251824    658.22985  0.019355147   0.01905301            2 
 2835000   0.80927485   -7.9489791    657.03737  0.019313268  0.019046938            3 
 2836000   0.80608558   -7.9512513    657.77144  0.019328028    0.0190409            1 
 2837000   0.78742623   -7.9427566    658.87337  0.019353583   0.01903488            2 
 2838000   0.80913811   -7.9856564    657.61518  0.019309819  0.019028848            3 
 2839000   0.80617997   -7.9519165    656.59042  0.019272937  0.019022778            1 
 2840000    0.7971458   -7.9673562    656.40736  0.019260779  0.019016722            2 
 2841000   0.80768157    -7.936468    658.11785  0.019304172  0.019010685            2 
 2842000    0.7789362   -7.9788057    657.50266  0.019279341  0.019004626            1 
 2843000   0.80190793   -7.9573109    658.39719   0.01929878  0.018998549            4 
 2844000   0.78711422   -7.9701534    657.27011  0.019258969  0.018992469            4 
 2845000   0.78712532   -7.9731467     657.5952  0.019261722  0.018986411            6 
 2846000    0.8024946   -7.9779814    659.05104  0.019297582  0.018980367            1 
 2847000   0.78905471   -7.9474101      660.553  0.019334767  0.018974361            2 
 2848000   0.80371866   -7.9627293    659.66431  0.019301975   0.01896837            2 
 2849000   0.79055211   -7.9497577    657.90613  0.019243773  0.018962351            3 
 2850000   0.79028384   -7.9529331    659.77057  0.019291537  0.018956324            1 
 2851000   0.78813798   -7.9699204    659.96433  0.019290434  0.018950331            3 
 2852000   0.81493937   -7.9600595    661.31208   0.01932305  0.018944335            2 
 2853000   0.80564484    -7.936349    657.60093  0.019207879  0.018938361            4 
 2854000   0.78835191   -7.9798898    659.84119  0.019266561  0.018932407            1 
 2855000   0.80748882   -7.9679739    660.69168  0.019284638  0.018926414            2 
 2856000   0.79380983   -7.9634279    659.39249  0.019239977  0.018920456            7 
 2857000   0.78134314    -7.961861    659.06577  0.019223713  0.018914524            2 
 2858000    0.8012705   -7.9204274    661.06586  0.019275305  0.018908605            2 
 2859000   0.79802537   -7.9413146    661.07847  0.019268931  0.018902727            5 
 2860000   0.78928239   -7.9340998    662.41261  0.019301067  0.018896834            3 
 2861000   0.78034641   -7.9656487    661.20905  0.019259264  0.018890918            3 
 2862000   0.81275456   -7.9679711    661.54729  0.019262383  0.018884992            3 
 2863000   0.79008245   -7.9729259     660.6297  0.019228947  0.018879076            2 
 2864000   0.81879347   -8.0098875       660.32  0.019213222  0.018873126            2 
 2865000   0.81241029   -7.9770629    660.82494  0.019221203  0.018867177            2 
 2866000   0.79347863   -7.9589753    660.28789   0.01919888   0.01886128            3 
 2867000   0.77714717   -7.9648674    661.51521  0.019227857  0.018855376            2 
 2868000   0.80255084   -7.9234023    663.18289   0.01926961  0.018849481            1 
 2869000   0.79356991   -7.9620571    661.07698  0.019201725  0.018843573            4 
 2870000   0.79885233   -7.9719383    661.33968  0.019202662  0.018837671            5 
 2871000   0.79848809   -7.9867114    659.38304   0.01913918   0.01883177            1 
 2872000   0.79427042   -7.9534534    660.37257  0.019161228  0.018825864            1 
 2873000   0.78948886   -7.9675046    660.87262  0.019169063  0.018819928            1 
 2874000   0.80377716   -7.9499246    660.56264  0.019153405  0.018813966            2 
 2875000   0.77771908   -7.9655419    660.13039  0.019134214   0.01880804            4 
 2876000   0.78621256   -7.9758803    658.33798  0.019075625  0.018802085            1 
 2877000   0.79786201   -8.0088953    659.71314  0.019108827  0.018796089            3 
 2878000   0.80188988    -7.988251    660.07414   0.01911264  0.018790087            3 
 2879000    0.7783275   -7.9918028     659.9725  0.019103059  0.018784072            1 
 2880000   0.78377119    -8.005978    658.86068  0.019064256  0.018778087            1 
 2881000   0.80822827   -7.9835336    660.11261  0.019093851  0.018772109            1 
 2882000   0.79362739   -7.9712031    660.02843  0.019084791  0.018766128            2 
 2883000   0.78370642   -7.9589808    660.21821  0.019083657  0.018760176            3 
 2884000   0.78872639   -7.9666268    661.15865  0.019104214  0.018754216            2 
 2885000   0.79593358   -7.9952245    660.08684  0.019066633  0.018748263            1 
 2886000   0.77832424   -7.9938733     659.9472  0.019055994  0.018742257            2 
 2887000   0.78553402   -7.9851986    661.54575  0.019095536  0.018736294            3 
 2888000   0.79971358   -7.9787716    661.00925  0.019073443  0.018730367            1 
 2889000   0.77064071     -7.96485    661.28132  0.019074689  0.018724401            6 
 2890000    0.8228475   -7.9388881    663.03324  0.019118606  0.018718483            2 
 2891000    0.7908557   -7.9551589    661.71231  0.019073916  0.018712582            2 
 2892000   0.78365106   -7.9455198    662.32621  0.019085011  0.018706696            3 
 2893000   0.77318473   -7.9364141    662.52643  0.019084181  0.018700811            2 
 2894000   0.78338647   -7.9583882    660.98433  0.019033182  0.018694933            1 
 2895000   0.80623406   -7.9539034    662.68293  0.019075502  0.018689046            4 
 2896000   0.77984746   -7.9757049    661.24132  0.019027432  0.018683174            1 
 2897000   0.78551973   -7.9989617    661.63625  0.019032224  0.018677284            3 
 2898000   0.78392105   -8.0139786    659.47488  0.018963506  0.018671353            3 
 2899000   0.80438777   -7.9913718    661.18575  0.019006144  0.018665419            4 
 2900000   0.78619901   -8.0037397     660.6651  0.018984629  0.018659485            4 
 2901000   0.79101378   -7.9849192    661.40742  0.018999409  0.018653541            3 
 2902000   0.79388415   -8.0153583    661.28781  0.018989427  0.018647595            4 
 2903000   0.78364159   -7.9774025     662.5995  0.019020539  0.018641689            6 
 2904000   0.78891779   -7.9899806    660.80452   0.01896248  0.018635773            3 
 2905000   0.78146646   -7.9970871    661.44655   0.01897437  0.018629854            1 
 2906000   0.78073959   -7.9810436    662.29245  0.018992098  0.018623914            2 
 2907000   0.79074188   -8.0112976    662.33894  0.018986898  0.018617973            2 
 2908000   0.78365649   -8.0391961    661.47814  0.018955701   0.01861203            3 
 2909000   0.78016417   -8.0080172    660.05347  0.018908372  0.018606081            2 
 2910000   0.78363168   -7.9812562    661.58737  0.018945801  0.018600134            3 
 2911000   0.79459227   -7.9568319    661.41731  0.018934424  0.018594209            3 
 2912000   0.80008168   -7.9865345    662.08451  0.018947016  0.018588296            2 
 2913000   0.79298104   -7.9730231    660.64129  0.018899224  0.018582381            4 
 2914000   0.79401636   -8.0064043    661.23576  0.018909739  0.018576435            2 
 2915000   0.79877084    -7.962835    660.58888  0.018884759  0.018570491            4 
 2916000   0.77577285   -7.9848257    660.57117  0.018877777  0.018564551            3 
 2917000   0.77760919   -7.9812693    662.04724  0.018913474  0.018558609            1 
 2918000   0.79936642   -7.9637973    662.03988  0.018906782  0.018552674            5 
 2919000   0.79695807   -8.0031641    661.47629  0.018884215  0.018546732            1 
 2920000    0.7841258   -7.9640631     659.9559  0.018834358  0.018540781            2 
 2921000   0.77952838   -7.9817975    659.58898  0.018817442  0.018534798            2 
 2922000   0.78488375   -7.9917253     660.6971  0.018842605  0.018528805            2 
 2923000   0.80122108   -7.9850014    661.06468  0.018846638  0.018522818            2 
 2924000   0.78812112   -7.9750821    661.08847  0.018840871  0.018516859            2 
 2925000   0.77898008   -7.9761407    660.71782  0.018823869  0.018510902            2 
 2926000   0.77574259   -7.9735867    661.87766  0.018850469  0.018504976            2 
 2927000   0.79792152   -7.9842798    662.76631  0.018869329  0.018499013            2 
 2928000   0.78605421   -7.9786311    662.58717  0.018857786  0.018493056            1 
 2929000   0.79608264   -8.0058422    658.56401  0.018736884  0.018487095            1 
 2930000   0.77397142   -7.9722391    661.31787  0.018808813  0.018481134            2 
 2931000   0.78430746   -7.9975529    661.71895  0.018813799  0.018475173            7 
 2932000   0.79154791   -7.9641307    662.55149  0.018831045  0.018469209            1 
 2933000   0.79165937   -7.9722015    661.91117  0.018806432  0.018463289            2 
 2934000   0.77076649   -7.9748857    661.10177  0.018777033   0.01845733            1 
 2935000   0.78798685   -7.9841683    661.27434  0.018775535  0.018451388            3 
 2936000   0.78646316   -7.9957462    661.79724  0.018783982   0.01844542            4 
 2937000   0.77146945   -8.0117012      662.159   0.01878785  0.018439455            5 
 2938000   0.78416715   -7.9920174    662.42712  0.018789061  0.018433502            2 
 2939000   0.75864309   -8.0225617    661.75876  0.018763717  0.018427565            5 
 2940000   0.77784519   -7.9960294     663.3348  0.018802007  0.018421638       -1e+20 
 2941000   0.78001208   -8.0042614    661.61728  0.018746948   0.01841568            2 
 2942000   0.78774427   -8.0103553    660.51526  0.018709361  0.018409708            2 
 2943000   0.77245219   -8.0090775    660.07551  0.018690551  0.018403728            3 
 2944000   0.77971073   -8.0121692    661.31124  0.018719181  0.018397737            3 
 2945000   0.78257883   -8.0129991    662.35145  0.018742259  0.018391796            1 
 2946000   0.78776662   -8.0151648     662.8083  0.018748821  0.018385849            4 
 2947000   0.77291092   -8.0009109     661.1286  0.018694961  0.018379918            2 
 2948000   0.78847256   -7.9924092    662.08279  0.018715592  0.018374001            1 
 2949000   0.77229553    -8.023269    661.01573  0.018679092  0.018368071            3 
 2950000   0.77996064   -7.9936958    661.70758  0.018692305  0.018362153            3 
 2951000   0.75546958   -8.0098662    662.43464  0.018706502  0.018356234            2 
 2952000   0.77439599   -8.0075906    662.33163  0.018697257  0.018350287            2 
 2953000   0.78533507   -7.9939461     661.3891  0.018664327  0.018344342            4 
 2954000   0.76860384   -7.9936126     661.9273  0.018673192  0.018338406            2 
 2955000   0.78032695   -8.0124129     661.8343   0.01866425  0.018332472            2 
 2956000   0.79438682   -7.9986347    661.78329  0.018656498  0.018326497            3 
 2957000   0.78409882   -8.0056182    660.65934  0.018618514  0.018320525            2 
 2958000   0.78171685   -7.9875555    662.88268  0.018674856  0.018314551            1 
 2959000    0.7734224   -8.0511062    660.76606  0.018608935   0.01830856            1 
 2960000   0.80691879   -8.0208563    661.28805  0.018617344  0.018302594            3 
 2961000    0.7840325   -8.0059535    660.69329  0.018594317  0.018296621            2 
 2962000   0.74672071   -8.0016779     664.5543  0.018696666  0.018290695            3 
 2963000   0.78620083   -7.9750302    663.68589  0.018665932  0.018284762            5 
 2964000   0.78448479   -7.9903712    662.33761  0.018621728  0.018278828            1 
 2965000   0.78678608   -8.0099094    662.83121   0.01862932  0.018272909            2 
 2966000   0.78750208   -7.9711343    664.40173  0.018667165  0.018267007            3 
 2967000   0.78099294   -7.9795743    664.12537  0.018653111  0.018261089            3 
 2968000   0.78160028   -8.0036194    662.48198  0.018600684  0.018255183            1 
 2969000   0.77309221   -7.9851242    661.96066  0.018579787  0.018249264            6 
 2970000   0.77666378   -8.0016484    661.32964  0.018555826  0.018243331            1 
 2971000   0.76510119   -8.0220369    661.44837  0.018552911  0.018237407            2 
 2972000   0.76540918   -8.0147228    662.00696  0.018562331  0.018231452            3 
 2973000    0.8016703   -8.0264626    662.08621  0.018558308  0.018225524            4 
 2974000   0.79244025   -7.9943813    662.59435  0.018566307  0.018219582            2 
 2975000   0.77563473   -8.0227186    662.00166  0.018543464  0.018213635            2 
 2976000   0.79448582   -8.0399928    662.88267  0.018561903   0.01820769            2 
 2977000   0.78873212    -8.006388    661.61031  0.018520051  0.018201773            2 
 2978000   0.77767301   -8.0214974    663.49124  0.018566466  0.018195863            2 
 2979000   0.76998095   -8.0150174    662.60772  0.018535519  0.018189961            2 
 2980000   0.77429773   -7.9957437    664.40275  0.018579495  0.018184097            2 
 2981000   0.76406675   -7.9914336    662.66831  0.018524777  0.018178232            2 
 2982000   0.77864275   -8.0065975    662.79009  0.018521968  0.018172347            2 
 2983000   0.77197599   -7.9802579    662.72671  0.018513988  0.018166459            2 
 2984000   0.79294014   -7.9668233    663.76246  0.018536709  0.018160579            3 
 2985000   0.76863741   -7.9761087     664.4138  0.018548682  0.018154715            2 
 2986000   0.77340347   -7.9919672    663.76223  0.018524286  0.018148826            4 
 2987000   0.76103696   -8.0113752    661.66897  0.018459686  0.018142908            1 
 2988000   0.75410211   -8.0445197    661.45558  0.018447556  0.018136992            2 
 2989000   0.78151737   -8.0158124    662.71368   0.01847646  0.018131096            2 
 2990000   0.76634959   -8.0198157    662.20918   0.01845622  0.018125202            3 
 2991000   0.76085297   -8.0160556    662.79082  0.018466255  0.018119303            3 
 2992000   0.78188937   -7.9921335    664.26647  0.018501183  0.018113408            1 
 2993000   0.78259475   -8.0026806    663.65749  0.018478046  0.018107506            3 
 2994000   0.75956196   -7.9945749    662.97661  0.018452923  0.018101584            2 
 2995000   0.75857465     -8.06638     662.1916  0.018424919  0.018095648            1 
 2996000   0.76951179   -8.0377952    662.34959  0.018423164  0.018089722            3 
 2997000   0.78200493   -8.0557278    660.30016  0.018360031  0.018083802            3 
 2998000   0.77870703   -8.0153898    662.15956  0.018405592  0.018077866            8 
 2999000   0.77127427   -8.0307156    661.59997  0.018383905  0.018071948            1 
 3000000   0.78264989   -7.9799698    664.96511  0.018471253  0.018066062            2 
 3001000   0.77250898   -7.9925198    662.61524  0.018399846  0.018060179            2 
 3002000   0.77987275   -7.9923037    662.58966  0.018393006  0.018054305            1 
 3003000   0.77536364   -8.0346015    662.42517  0.018382317  0.018048405            1 
 3004000   0.76070583     -8.01893    662.35237  0.018374178  0.018042516            1 
 3005000   0.76814951   -8.0362297    661.69214  0.018349754  0.018036614            2 
 3006000   0.76048072   -7.9992255    663.85478  0.018403603  0.018030696            3 
 3007000   0.76539029   -8.0022069    664.77775  0.018423061  0.018024827            1 
 3008000   0.77506562   -8.0155281    663.23185  0.018374109  0.018018941            2 
 3009000    0.7504579   -8.0143368    665.07148  0.018418951  0.018013064            2 
 3010000   0.75513332   -8.0463222    663.10707  0.018358446  0.018007173            3 
 3011000   0.77606577    -8.001089    663.99912  0.018377038  0.018001301            3 
 3012000    0.7730789   -8.0314939    663.08108  0.018345537  0.017995438            1 
 3013000   0.77431667   -8.0225137    663.66623  0.018355632  0.017989567            1 
 3014000   0.77128865    -7.987491      663.117  0.018334356  0.017983667            2 
 3015000   0.78298091   -8.0193662    663.26963  0.018332494  0.017977786            3 
 3016000   0.76422889   -8.0219656    663.77996  0.018340516  0.017971905            2 
 3017000   0.75181833   -8.0217179    662.87985  0.018309575  0.017966019            2 
 3018000   0.76496646     -8.04069    664.29209  0.018342503  0.017960132            2 
 3019000   0.76551996   -8.0227336    662.78591  0.018294852  0.017954262            1 
 3020000   0.77240611   -8.0119389    664.70402  0.018341722  0.017948394            2 
 3021000    0.7682081   -8.0104398    664.96861   0.01834295  0.017942538            2 
 3022000    0.7824395   -8.0027618    664.42503   0.01832189  0.017936661            5 
 3023000   0.76353897   -8.0118936    663.11173  0.018279627  0.017930793            2 
 3024000   0.77835316   -8.0184687    664.01931  0.018298592  0.017924915            2 
 3025000   0.78949214   -8.0239477    663.39216  0.018275266  0.017919026            3 
 3026000   0.75059989   -8.0296303    662.64157  0.018248556   0.01791314            2 
 3027000   0.76646184   -8.0073121    662.68223  0.018243647  0.017907271            4 
 3028000   0.77116303   -8.0170745     663.3013  0.018254659  0.017901411            3 
 3029000   0.75683119    -8.028768    664.18309  0.018272892  0.017895544            1 
 3030000   0.76618647   -8.0365731    664.39699  0.018272744  0.017889677            2 
 3031000   0.75856044   -8.0060604    663.79461  0.018250154  0.017883817            2 
 3032000   0.76379925   -8.0009335    664.89695  0.018274432  0.017877961            2 
 3033000   0.75500439   -8.0156916    665.38462  0.018281806  0.017872132            2 
 3034000   0.76210928    -7.989331     663.4725  0.018223261  0.017866281            2 
 3035000   0.77554286   -8.0206599    664.80324  0.018253796  0.017860416            2 
 3036000   0.76886225   -8.0453195      661.681  0.018162083  0.017854565            1 
 3037000   0.77485789   -8.0252073    665.37718  0.018257523  0.017848728            7 
 3038000   0.75541547   -8.0175435    664.51741   0.01822793  0.017842882            1 
 3039000   0.77625821   -8.0325516    665.18699  0.018240293  0.017837026            1 
 3040000   0.77809858   -8.0080917    665.18209  0.018234158  0.017831177            2 
 3041000      0.76145   -8.0044331    665.75423  0.018243841  0.017825344            1 
 3042000   0.76717546    -8.011988    664.13477  0.018193479  0.017819525            2 
 3043000    0.7744376   -8.0439852    663.66593  0.018174661  0.017813702            5 
 3044000   0.75661268   -8.0395701    663.81567   0.01817279  0.017807877            2 
 3045000   0.74856991   -8.0113661    665.42183  0.018210778  0.017802063            2 
 3046000   0.76251648   -8.0121542    665.57362  0.018208952   0.01779627            4 
 3047000   0.75529794   -8.0335027    664.65748   0.01817792  0.017790456            1 
 3048000   0.75889574   -8.0275564    665.66906  0.018199613  0.017784656            1 
 3049000   0.76286013   -8.0655345    664.15561   0.01815228  0.017778841            1 
 3050000   0.74647641    -8.061299    662.97588  0.018114095  0.017772991            4 
 3051000   0.77724263   -8.0256859    663.55701  0.018124031  0.017767146            3 
 3052000   0.77821106   -8.0291995    665.06132  0.018159167  0.017761302            2 
 3053000   0.77310253   -8.0337881    664.99714  0.018151467  0.017755482            3 
 3054000   0.76591273    -8.045711    665.37836  0.018155926  0.017749662            3 
 3055000   0.76758158   -8.0493917     665.6429  0.018157199   0.01774384            1 
 3056000   0.75196979    -8.032624    664.87214  0.018130239  0.017738038            1 
 3057000   0.76894292   -8.0428753    665.88831  0.018152009  0.017732246            2 
 3058000   0.75838932   -8.0599197    665.58094  0.018137697  0.017726446            2 
 3059000   0.77106057   -8.0379038    664.26624  0.018095953  0.017720634            2 
 3060000   0.77141288   -8.0397073     665.4234  0.018121552  0.017714824            3 
 3061000   0.76492164   -8.0130811    664.85478  0.018100152  0.017709034            1 
 3062000   0.74544264   -8.0456254    664.89263  0.018095271  0.017703228            3 
 3063000   0.76517798   -8.0379547    667.32188  0.018155454  0.017697456            2 
 3064000   0.74980088   -8.0622489    664.97073  0.018085583   0.01769168            2 
 3065000   0.77043286   -8.0360858    666.64256  0.018125138  0.017685912            3 
 3066000   0.76068747   -8.0690801    664.28272  0.018055086  0.017680131            2 
 3067000   0.74715741   -8.0511283    665.58054  0.018084462   0.01767434            4 
 3068000   0.76121836    -8.044011    666.45697  0.018102373  0.017668537            2 
 3069000   0.74657657   -8.0442575    664.63817  0.018047088   0.01766274            3 
 3070000   0.76388489    -8.073277    664.69728  0.018042814  0.017656924            1 
 3071000   0.77038833   -8.0551149    665.26918  0.018052458  0.017651147            1 
 3072000   0.76079528   -8.0351836     665.1791  0.018044138  0.017645387            2 
 3073000    0.7520492   -8.0448776    665.94207  0.018058956  0.017639623            1 
 3074000   0.77764553   -8.0631174    665.72109  0.018047091  0.017633845            2 
 3075000   0.75431604   -8.0628457    665.95897  0.018047669  0.017628081            3 
 3076000   0.75449447   -8.0701898     664.8001  0.018010406  0.017622344            1 
 3077000   0.76080482   -8.0603489    665.75198  0.018030332  0.017616583            3 
 3078000   0.77062027   -8.0453353    665.84066  0.018026875  0.017610823            2 
 3079000   0.75714264   -8.0347984    665.29526  0.018006259  0.017605069            3 
 3080000   0.76952974   -8.0446894    666.10066  0.018022204  0.017599315            1 
 3081000   0.76221939   -8.0409166    667.69724  0.018059538  0.017593582            2 
 3082000     0.766158   -8.0475085    665.17894  0.017985587  0.017587863            2 
 3083000   0.76187862   -8.0099127    667.33218  0.018037955  0.017582167            3 
 3084000   0.75317629   -8.0538895    666.68401  0.018014592  0.017576442            2 
 3085000   0.73803835   -8.0333017     667.4501  0.018029446  0.017570727            2 
 3086000   0.76847131   -8.0563045    666.71977  0.018003882  0.017565018            2 
 3087000   0.75114924   -8.0414335    667.57179   0.01802105  0.017559329            2 
 3088000   0.76014076   -8.0489199    667.76771  0.018020502  0.017553652            2 
 3089000   0.73722086   -8.0464178    666.72124  0.017986437  0.017547926            6 
 3090000   0.74126137   -8.0557441    665.31727  0.017942753  0.017542203            1 
 3091000   0.77014848     -8.03298    667.42302  0.017993719  0.017536476            1 
 3092000   0.76219609   -8.0569583    666.21103  0.017955235  0.017530758            3 
 3093000   0.74965638   -8.0730842    665.74511  0.017936877  0.017525013            3 
 3094000   0.74963848   -8.0882422    666.67155  0.017956032   0.01751928            2 
 3095000   0.76952226   -8.0633634    667.40748  0.017970045  0.017513552            4 
 3096000    0.7544562   -8.0673681     667.4692  0.017965902  0.017507833            2 
 3097000   0.75760666   -8.0471237    668.05461  0.017975853  0.017502135            4 
 3098000   0.76312472   -8.0547856    668.10979  0.017971535  0.017496458            2 
 3099000   0.74987779   -8.0582446    668.67172  0.017980847  0.017490775            2 
 3100000   0.74365509    -8.050622    667.78562  0.017951226  0.017485099            2 
 3101000   0.75201461   -8.0620842    666.99664  0.017924235  0.017479406            3 
 3102000   0.76571244   -8.0524865     666.8221  0.017913768  0.017473744            1 
 3103000   0.75277498   -8.0859112    666.11739  0.017889069   0.01746804            2 
 3104000   0.75518507   -8.0785985     667.2516  0.017913756  0.017462321            2 
 3105000   0.75037743   -8.0389623    666.31122  0.017882749  0.017456623            2 
 3106000   0.74734187   -8.0768365    665.88806  0.017865638  0.017450906            3 
 3107000   0.75682442   -8.0688533    666.50178  0.017876349  0.017445202            2 
 3108000   0.75568665   -8.0731502     666.8646  0.017880325  0.017439504            2 
 3109000   0.76211104      -8.0591    666.76231  0.017871832  0.017433808            2 
 3110000   0.75528067   -8.0321956    666.47621  0.017858419  0.017428124            3 
 3111000    0.7552429   -8.0668304    666.73093  0.017859502  0.017422451            2 
 3112000   0.74326747   -8.0376958    667.03368   0.01786187  0.017416758            2 
 3113000   0.74749097    -8.056966    668.80222  0.017903475   0.01741107            2 
 3114000   0.74921375   -8.0594384    667.05603  0.017850996  0.017405371            4 
 3115000   0.77396614   -8.0907509    665.69224  0.017808781  0.017399669            4 
 3116000   0.75360066   -8.0612538    666.58435  0.017826924  0.017393954            1 
 3117000   0.75835746    -8.087424    666.08569  0.017807873  0.017388238            1 
 3118000   0.75461774   -8.0720755    667.71494  0.017845706  0.017382521            1 
 3119000   0.73937321   -8.0751038     666.5476  0.017808796  0.017376829            2 
 3120000   0.75607426   -8.0388572    666.49099  0.017801576  0.017371146            2 
 3121000   0.75418454   -8.0705426    667.32718  0.017818199   0.01736548            1 
 3122000   0.75706035   -8.0658735    666.75786  0.017797295  0.017359807            3 
 3123000   0.76156854   -8.0699047    667.15615  0.017802224  0.017354128            3 
 3124000   0.74208136   -8.0592746    667.58942  0.017808083  0.017348421            7 
 3125000    0.7682296     -8.07375    667.53864   0.01780103  0.017342688            2 
 3126000   0.76136237   -8.0488375    667.39363   0.01779147  0.017336962            2 
 3127000   0.76994364   -8.0940369      667.356  0.017784778  0.017331234            1 
 3128000   0.75581592   -8.0542632     667.5321  0.017783784  0.017325537            2 
 3129000    0.7687368   -8.0838078    666.63181  0.017754123  0.017319826            3 
 3130000   0.76036064   -8.0707947    667.92093  0.017782772  0.017314133            4 
 3131000   0.73232194   -8.0768488    666.65435  0.017743382  0.017308447            3 
 3132000   0.75565375    -8.083111    667.45274   0.01775896  0.017302763            3 
 3133000   0.73670249   -8.0674317    667.01272  0.017741587  0.017297114            1 
 3134000   0.75363823   -8.0786639    667.66744  0.017753335  0.017291457            1 
 3135000    0.7598567   -8.0542216    667.75442  0.017749985    0.0172858            2 
 3136000   0.73560676   -8.0708407    669.04639  0.017778656  0.017280166            3 
 3137000   0.75547696   -8.0665878    667.37313  0.017728539  0.017274518            1 
 3138000   0.75659705   -8.0580457     668.6973  0.017758055  0.017268858            1 
 3139000   0.72852526   -8.0585455    667.84262  0.017729708  0.017263228            2 
 3140000   0.76023278   -8.0388769    668.15633  0.017732387  0.017257606            3 
 3141000   0.75249099   -8.0464279    667.21237  0.017701697  0.017251996            4 
 3142000   0.77028041   -8.0664212    668.21683  0.017722704  0.017246382            2 
 3143000   0.74393705    -8.083549    666.71442   0.01767723  0.017240758            1 
 3144000   0.73741959   -8.0663477      667.955   0.01770449  0.017235118            5 
 3145000   0.73268344   -8.0893983    667.19042  0.017678601  0.017229482            1 
 3146000   0.73443969   -8.0729318    668.83036  0.017716422  0.017223847            2 
 3147000    0.7494175   -8.0579185    667.14815  0.017666247  0.017218214            3 
 3148000   0.73589481    -8.075175    667.14595  0.017660577  0.017212557            3 
 3149000   0.74015178   -8.0547272    668.02636  0.017678267  0.017206902            4 
 3150000    0.7495157   -8.0891205    666.55235   0.01763366   0.01720124            1 
 3151000   0.75456881   -8.0750195    668.09763  0.017668931  0.017195586            1 
 3152000   0.74638966   -8.1002503    668.28898  0.017668385  0.017189917            1 
 3153000   0.75588456     -8.09741    666.86936  0.017625261  0.017184246            2 
 3154000   0.75180251    -8.100901    666.80567   0.01761799  0.017178571            1 
 3155000   0.74398204   -8.0960417    666.97303  0.017616826  0.017172915            1 
 3156000   0.75543152   -8.0938953    666.59418  0.017601241  0.017167259            2 
 3157000   0.74278453    -8.110745     667.2865   0.01761394  0.017161587            3 
 3158000   0.74552345   -8.0864629    667.95337   0.01762596  0.017155913            2 
 3159000   0.74908726   -8.0885561    667.39117  0.017605549  0.017150253            3 
 3160000   0.73498072   -8.0951795    668.11618  0.017619097  0.017144629            2 
 3161000   0.73283651   -8.1127643    666.41637  0.017568712  0.017139002            3 
 3162000   0.74680339   -8.0791245    668.19811  0.017610112  0.017133368            3 
 3163000    0.7462403   -8.0999962    667.32724  0.017581601   0.01712774            3 
 3164000   0.75578632    -8.089113    668.19384  0.017598869  0.017122126            2 
 3165000   0.75364304   -8.0929382    668.53147  0.017602198  0.017116513            2 
 3166000    0.7507695   -8.0669671    669.50178  0.017622178  0.017110893            4 
 3167000   0.75692322    -8.099863    666.94315  0.017549288  0.017105259            1 
 3168000   0.74757349   -8.0959745    669.19955  0.017603103  0.017099657            2 
 3169000   0.75579351   -8.0715465    668.81421  0.017587415  0.017094086            1 
 3170000   0.74752276   -8.1051423    667.47806  0.017546742  0.017088507            2 
 3171000    0.7610825   -8.0767383    669.40032  0.017591725  0.017082908            1 
 3172000   0.75056083   -8.0818538    669.88485  0.017598908  0.017077311            3 
 3173000   0.74810771   -8.0885497    667.90261  0.017541302  0.017071713            1 
 3174000   0.73321275   -8.0972059    668.45888   0.01755038  0.017066099            3 
 3175000    0.7646776    -8.097343    669.06222  0.017560688  0.017060501            2 
 3176000   0.73984952   -8.1009201    667.81738  0.017522496  0.017054914            4 
 3177000   0.73635826   -8.0927988     670.2444  0.017580642  0.017049322            2 
 3178000   0.73704454   -8.0949533    668.93649  0.017540814  0.017043738            1 
 3179000   0.73351522   -8.0919654    667.96367  0.017509795  0.017038132            1 
 3180000   0.75555171   -8.0983048    667.39503  0.017489388  0.017032501            1 
 3181000   0.73300402   -8.1161888    667.22182  0.017479352  0.017026862            1 
 3182000   0.74609179   -8.1212138    667.74337  0.017487518  0.017021217            2 
 3183000   0.76153185   -8.1407912     667.8876    0.0174858  0.017015587            1 
 3184000   0.74419782   -8.0918328    667.43823  0.017468547  0.017009974            2 
 3185000   0.74278558   -8.1138329    667.17621  0.017456206   0.01700438            4 
 3186000   0.75773464   -8.1181102    669.62188  0.017514697  0.016998776            4 
 3187000   0.75976435   -8.1099781    669.38656  0.017503048  0.016993204            4 
 3188000   0.73569149   -8.0912085    668.99864  0.017487417  0.016987632            2 
 3189000   0.74558681   -8.1443148    667.16491  0.017434016  0.016982048            2 
 3190000   0.75681068   -8.1106756    667.45624  0.017436161  0.016976451            3 
 3191000   0.75298779   -8.1134381    668.09832  0.017447465  0.016970863            3 
 3192000   0.73081529   -8.1200184    669.37897  0.017475433  0.016965274            3 
 3193000   0.73244315   -8.1138573    669.63539  0.017476652  0.016959705            4 
 3194000    0.7272925   -8.1144119    668.48713  0.017441221   0.01695413            3 
 3195000   0.71409731   -8.1011736    669.23152  0.017455178  0.016948565            3 
 3196000   0.74428072   -8.1229601    668.33268   0.01742628  0.016942967            2 
 3197000   0.72688193   -8.1283032    667.90294  0.017409627  0.016937396            2 
 3198000   0.73457613   -8.0953804    669.53171  0.017446626  0.016931838            3 
 3199000   0.71691974   -8.0924633    668.24627  0.017407687  0.016926278            6 
 3200000   0.75547409   -8.1212729    668.83881  0.017417677  0.016920724            5 
 3201000   0.73596062   -8.0999015    669.37769  0.017426265  0.016915177            3 
 3202000   0.74229577   -8.0965529    668.94625  0.017409594  0.016909653            2 
 3203000   0.75538665    -8.104038     669.2018  0.017410808   0.01690412            3 
 3204000   0.73689744   -8.1110239     668.6102  0.017389987  0.016898592            5 
 3205000   0.73128389    -8.135089    669.97258  0.017419984  0.016893048            2 
 3206000   0.74059736   -8.1152066    668.68282  0.017381026  0.016887501            5 
 3207000   0.73282657   -8.1240285    669.84511  0.017405808  0.016881975            4 
 3208000   0.73405822    -8.132287     668.3867  0.017362497  0.016876439            2 
 3209000    0.7332831   -8.1089865    670.50194  0.017412017  0.016870927            5 
 3210000   0.74278112   -8.0857129    669.98055  0.017393057  0.016865411            4 
 3211000   0.73922635   -8.1037019    670.16882  0.017392526  0.016859893            3 
 3212000   0.73772585   -8.1002749    670.08377  0.017384905  0.016854371            3 
 3213000   0.71427003   -8.1224025    668.82377  0.017346814  0.016848848            2 
 3214000   0.73508639   -8.1173291    669.18932  0.017350895  0.016843298            1 
 3215000   0.73401854   -8.1201929    668.82744  0.017336118   0.01683777            1 
 3216000   0.74125806   -8.1365268    668.65849   0.01732635   0.01683225            2 
 3217000   0.73571117   -8.1063164    669.44802  0.017341416  0.016826728            3 
 3218000    0.7397346   -8.1242701    669.29731  0.017332124  0.016821187            1 
 3219000   0.72688857   -8.1470146    667.47988   0.01727969   0.01681565            1 
 3220000   0.73196148   -8.1067985    669.92957  0.017337722  0.016810105            2 
 3221000   0.73845947   -8.1026859     669.9327   0.01733242  0.016804571            6 
 3222000   0.74495322   -8.1164584    669.58315     0.017318  0.016799043            1 
 3223000    0.7340599   -8.0998473    670.02296  0.017323998  0.016793498            5 
 3224000    0.7320983   -8.1356111    669.70278  0.017310349  0.016787944            2 
 3225000   0.73249018   -8.1513209    668.77182  0.017280926  0.016782382            2 
 3226000   0.72522397   -8.1180478    670.47561  0.017319581   0.01677683            3 
 3227000   0.73593572   -8.1287605    670.35216  0.017311026  0.016771288            3 
 3228000   0.75635529   -8.1371834    667.98936  0.017244665  0.016765747            2 
 3229000   0.74118073   -8.1247249    667.83387  0.017235312  0.016760192            5 
 3230000   0.70277194   -8.1321906    669.34701  0.017269015  0.016754627            3 
 3231000   0.73437389   -8.1269322    669.41163  0.017265337  0.016749071            2 
 3232000   0.71911034   -8.1232653    670.10896  0.017277974  0.016743533            2 
 3233000   0.75913884   -8.1142981    670.67435  0.017287203  0.016738004            2 
 3234000   0.74374999   -8.1006561     670.1176  0.017267512  0.016732503            3 
 3235000   0.72988143   -8.1396151    669.19499  0.017238408   0.01672701            2 
 3236000     0.735063   -8.1510458    669.73394   0.01724696  0.016721491            3 
 3237000   0.74965986   -8.0936815    670.34814  0.017257444  0.016715985            5 
 3238000   0.74441361   -8.1356967    669.26581  0.017224259  0.016710491            4 
 3239000   0.72251087   -8.1290965    669.21477  0.017217628   0.01670498            7 
 3240000   0.71377444   -8.1155613     669.1628  0.017210977  0.016699478            3 
 3241000    0.7439999   -8.1091418    668.52453  0.017189256  0.016693991            2 
 3242000    0.7352558   -8.1211269    669.89332  0.017219137  0.016688507            5 
 3243000   0.73869181   -8.0970416    670.52736   0.01723012  0.016683014            3 
 3244000   0.72226027   -8.1255466     669.6266   0.01720167  0.016677526            1 
 3245000   0.72208944   -8.1210243    669.49815   0.01719307  0.016672023            1 
 3246000   0.72394064    -8.122741    669.87951  0.017197564  0.016666513            1 
 3247000   0.74633475   -8.1157358    669.90045  0.017192805  0.016661018            1 
 3248000   0.73235541   -8.1317836    670.95502  0.017214568  0.016655515            2 
 3249000   0.73902623   -8.1303994    668.27332  0.017140487  0.016650008            2 
 3250000   0.71460229   -8.1124273    669.67755  0.017171219  0.016644498            1 
 3251000   0.73861571   -8.1367112    671.42546  0.017210742  0.016638979            1 
 3252000   0.72806409   -8.1571085    670.06994  0.017170714  0.016633456            1 
 3253000   0.73178815   -8.1545174    669.32384  0.017146322  0.016627925            2 
 3254000   0.74399731   -8.1385112    668.74833  0.017126314  0.016622408            3 
 3255000   0.72302163   -8.1052581    668.22712  0.017107709  0.016616904            1 
 3256000   0.73035708   -8.1365947    669.46735  0.017134197    0.0166114            3 
 3257000    0.7227021    -8.140961    669.97426  0.017141906  0.016605884            2 
 3258000   0.74736224   -8.1491993      669.576  0.017126458  0.016600382            1 
 3259000   0.73292529   -8.1459681    668.71228  0.017099117  0.016594864            1 
 3260000   0.73270699   -8.1401545    668.43637  0.017086819  0.016589358            2 
 3261000   0.73047728   -8.1049975    670.44571  0.017132927  0.016583848            3 
 3262000    0.7186756   -8.1294242    670.25676  0.017122848  0.016578348            2 
 3263000   0.72295037   -8.1319938    670.68893  0.017128637  0.016572839            2 
 3264000   0.73377858   -8.1234808    669.81803  0.017101155  0.016567364            3 
 3265000   0.73289088   -8.1199333    671.57182  0.017140679  0.016561884            2 
 3266000   0.72279596   -8.1372639    671.04159  0.017121902  0.016556445            3 
 3267000    0.7319644    -8.153352    670.67918  0.017107417  0.016550993            3 
 3268000   0.72498633   -8.1369799    670.06279  0.017086464  0.016545541            1 
 3269000   0.72156775   -8.1022464    670.12347  0.017082785  0.016540078            2 
 3270000   0.71701133   -8.1209222    670.20052  0.017079524  0.016534631            4 
 3271000   0.71932827   -8.1310396    669.52249  0.017057029  0.016529177            5 
 3272000   0.74058096   -8.1290443     670.3249  0.017072252  0.016523725            2 
 3273000   0.72304824   -8.1489363    669.87093  0.017055477  0.016518262            1 
 3274000   0.72057923   -8.1101208    671.19004  0.017083843  0.016512812            2 
 3275000    0.7306817   -8.1360305    670.59561  0.017063501  0.016507372            2 
 3276000   0.72078598   -8.1362273     669.9562  0.017042028  0.016501904            2 
 3277000   0.72058589   -8.1410658     669.9032   0.01703548  0.016496452            2 
 3278000   0.72835225   -8.1315322    670.02737  0.017033439   0.01649099            2 
 3279000   0.72852703   -8.1473535    669.84698   0.01702366  0.016485507            2 
 3280000   0.72145286   -8.1868485    668.69617  0.016989232  0.016480034            1 
 3281000   0.73725076   -8.1040931    672.50337  0.017080752  0.016474557            2 
 3282000   0.70641761    -8.151832     669.4188  0.016997227  0.016469091            1 
 3283000   0.72595044   -8.1654848    667.80673   0.01695113  0.016463619            3 
 3284000   0.72382232   -8.1533631    669.22464  0.016981949  0.016458152            2 
 3285000   0.74497364    -8.133274    669.66604  0.016987977  0.016452679            2 
 3286000   0.71720616   -8.1374044    670.16032  0.016995342  0.016447223            5 
 3287000   0.72745108    -8.151932    670.65928  0.017002821  0.016441775            1 
 3288000   0.72525939   -8.1139831    671.38887  0.017016141  0.016436319            4 
 3289000   0.73248449   -8.1548982    670.02642  0.016976447   0.01643087            2 
 3290000   0.73028703   -8.1515885    669.68171  0.016962556   0.01642542            1 
 3291000   0.71742966   -8.1491607    670.42138  0.016976131  0.016419967            1 
 3292000   0.73225936   -8.1641056     668.9046  0.016932579  0.016414501            2 
 3293000   0.72245379   -8.1646944    669.06357   0.01693146  0.016409047            3 
 3294000   0.73587499    -8.161931    669.86962  0.016946712  0.016403576            4 
 3295000   0.73224343   -8.1411231    669.58289  0.016934317  0.016398124            2 
 3296000   0.73611285   -8.1422133    670.24214  0.016945847  0.016392669            1 
 3297000   0.71802398   -8.1537063    669.52255  0.016922519  0.016387238            2 
 3298000   0.72871747    -8.172383    668.47594  0.016890943  0.016381803            1 
 3299000   0.72045767   -8.1444631    669.68303  0.016916314  0.016376366            2 
 3300000   0.71383143   -8.1347061    671.84456  0.016965772  0.016370928            3 
 3301000   0.71416367   -8.1528366    669.95744  0.016912992  0.016365483            2 
 3302000   0.71584551   -8.1364568    669.19317  0.016888582  0.016360048            2 
 3303000   0.72339803   -8.1269172    670.67997   0.01692098   0.01635461            2 
 3304000   0.73962589   -8.1442632    670.07642  0.016900636  0.016349188            1 
 3305000   0.72929721   -8.1415864    670.58719  0.016908401  0.016343753            1 
 3306000   0.72791744   -8.1336646    669.84645  0.016884615   0.01633834            2 
 3307000   0.72164733   -8.1311164     670.9932  0.016908406  0.016332911            3 
 3308000    0.7214436   -8.1567362    669.81544  0.016873625  0.016327492            2 
 3309000   0.72500903   -8.1536027    670.29925   0.01688071  0.016322073            2 
 3310000   0.71937677   -8.1263067    671.51029    0.0169061  0.016316662            1 
 3311000   0.73062354   -8.1604967    670.07396  0.016864843  0.016311236            1 
 3312000   0.72328149   -8.1813346    669.57685  0.016847244  0.016305805            2 
 3313000   0.71133877   -8.1393282    670.92217  0.016875998  0.016300402            2 
 3314000   0.73611899   -8.1367464    671.80813  0.016893184  0.016295008            5 
 3315000   0.73261058   -8.1530688    671.58277  0.016882423  0.016289619            1 
 3316000   0.72619421   -8.1142717    671.92082  0.016885827  0.016284241            2 
 3317000   0.72637339    -8.128774    671.52776  0.016870861  0.016278858            2 
 3318000   0.73082085   -8.1353553      669.916  0.016825296  0.016273466            1 
 3319000   0.72646097    -8.154936    670.26139  0.016828899  0.016268077            2 
 3320000   0.73949261   -8.1402147    671.82612  0.016863106  0.016262676            1 
 3321000   0.72771958   -8.1586491    672.24637  0.016868573  0.016257276            4 
 3322000   0.72070168   -8.1466058    669.81063  0.016802394  0.016251869            2 
 3323000   0.71596622   -8.1762743    669.26778  0.016783724  0.016246472            3 
 3324000   0.71387693   -8.1384092     671.5753  0.016836525   0.01624109            2 
 3325000   0.71189353   -8.1427699    671.74031  0.016835597  0.016235715            2 
 3326000   0.72732089    -8.138987    672.02529  0.016837675  0.016230342            3 
 3327000   0.71545804   -8.1434295    670.83782  0.016802871  0.016224969            3 
 3328000   0.72233153   -8.1682062    671.02929  0.016802616  0.016219599            3 
 3329000   0.71166216    -8.163059    671.43628  0.016807757  0.016214214            2 
 3330000   0.72173282   -8.1569556    671.49206  0.016804106  0.016208833            3 
 3331000   0.70551013   -8.1668068    671.49311  0.016799087  0.016203471            4 
 3332000   0.71335485   -8.1446377    671.96796  0.016805921  0.016198093            2 
 3333000   0.71755419   -8.1622765    671.55351  0.016790517  0.016192722            1 
 3334000   0.71516921   -8.1749635    671.18904  0.016776371  0.016187345            3 
 3335000   0.71474289   -8.1703822    670.69173  0.016758914  0.016181979            2 
 3336000   0.72136622   -8.1533412    671.28536  0.016768719  0.016176609            1 
 3337000   0.70834735   -8.1584342    671.47714  0.016768483  0.016171244            2 
 3338000   0.74008656   -8.1464777    671.25605   0.01675794   0.01616589            3 
 3339000   0.72551531    -8.159102    671.17631  0.016750931  0.016160536            2 
 3340000   0.70558962   -8.1476786    671.68447  0.016758594  0.016155176            1 
 3341000   0.73963174   -8.1614195    671.60933  0.016751704  0.016149828            3 
 3342000   0.70690979   -8.1590167     670.5834   0.01672111  0.016144444            2 
 3343000    0.7106489   -8.1742911    669.53847  0.016690061  0.016139071            2 
 3344000   0.72255965   -8.1641805    670.86251  0.016718065  0.016133703            2 
 3345000   0.71714367    -8.169585    670.81303  0.016711834  0.016128337            4 
 3346000   0.70932827   -8.1617449    671.44125  0.016722486  0.016122957            2 
 3347000   0.73328899   -8.1803174    670.49838  0.016694014  0.016117593            2 
 3348000   0.72297483   -8.1669649    671.19811  0.016706445  0.016112221            2 
 3349000   0.72221393   -8.1636292     671.8185  0.016716893  0.016106866            1 
 3350000   0.71550105   -8.1797861    671.07675  0.016693451  0.016101502            3 
 3351000   0.72123324   -8.1729919    670.97469  0.016685932  0.016096122            2 
 3352000   0.70128017   -8.2038675    670.63966  0.016672625  0.016090734            1 
 3353000   0.70710583   -8.2113829    670.56703  0.016665847  0.016085349            1 
 3354000   0.70848859   -8.1869862    670.75601  0.016665574  0.016079969            2 
 3355000   0.70963149   -8.1960039    671.96021  0.016690517  0.016074588            3 
 3356000   0.72325101   -8.1852296      671.371  0.016670913  0.016069215            1 
 3357000   0.72514562   -8.1762426    670.35958   0.01664084  0.016063856            2 
 3358000   0.71756123   -8.1900296    670.64063  0.016642859  0.016058513            2 
 3359000    0.7161101   -8.1788551    672.06024  0.016673123  0.016053175            2 
 3360000   0.72783696   -8.1799312    671.89096  0.016663962  0.016047841            2 
 3361000   0.71807859   -8.1726339     672.4295  0.016672357  0.016042495            2 
 3362000   0.70507342   -8.1423483    670.81159  0.016627295  0.016037156            4 
 3363000   0.70986232   -8.1686798    672.63953  0.016667646  0.016031835            3 
 3364000   0.69121337   -8.1424005    671.68162  0.016638962   0.01602652            1 
 3365000   0.71324085   -8.1692749    672.02307  0.016642473  0.016021198            2 
 3366000    0.7285655    -8.181609    670.52706  0.016600492  0.016015895            2 
 3367000   0.72732977   -8.1661147    671.47301  0.016618974  0.016010598            2 
 3368000   0.71101954   -8.1525237    671.95408  0.016625942  0.016005306            3 
 3369000   0.71979647   -8.1259832    671.92495  0.016620287  0.016000014            3 
 3370000   0.73142084    -8.182955    671.26307  0.016598988  0.015994728            3 
 3371000   0.72847854   -8.1831101    672.69583  0.016629482  0.015989445            4 
 3372000    0.7131977   -8.1681134    672.06519  0.016608966  0.015984151            2 
 3373000   0.70165185    -8.174938    671.34429  0.016586231  0.015978841            1 
 3374000   0.70227427   -8.1951748    670.79063  0.016567641  0.015973537            4 
 3375000   0.70954323   -8.1727414    670.97293  0.016567233  0.015968228            2 
 3376000    0.7127774   -8.1900072    671.13732  0.016566383  0.015962944            3 
 3377000   0.70967751   -8.1704615    671.50228  0.016570484  0.015957652            5 
 3378000     0.709225   -8.1634073    672.07729  0.016579763  0.015952362            2 
 3379000   0.70993448    -8.164806    671.90253  0.016570547  0.015947067            1 
 3380000   0.70403289   -8.1657989    671.66918  0.016559891  0.015941793            2 
 3381000   0.70669265   -8.1516265    672.25771  0.016569499  0.015936538            2 
 3382000   0.72014494   -8.1613278    671.43136  0.016544238  0.015931283            1 
 3383000   0.69900551   -8.1655368    673.39273  0.016587662  0.015926018            1 
 3384000   0.70912675   -8.1404813    673.71015  0.016590577  0.015920767            2 
 3385000   0.70485302    -8.175792    671.44497  0.016529911  0.015915503            1 
 3386000    0.6967292   -8.1298033    672.33093  0.016546833  0.015910234            2 
 3387000   0.70143308   -8.1535694    671.32093  0.016517098  0.015904974            3 
 3388000   0.70236075   -8.1987474    673.05181  0.016554797  0.015899697            3 
 3389000   0.70114284   -8.1743043    671.29112  0.016506617  0.015894404            2 
 3390000   0.72591896   -8.1647254    673.02102  0.016544273  0.015889112            2 
 3391000   0.70172577    -8.154953    672.37349  0.016523481  0.015883847            1 
 3392000   0.71260439   -8.1271072    672.95401  0.016532872  0.015878586            2 
 3393000   0.70401098   -8.1727796    670.78807  0.016474803  0.015873316            3 
 3394000   0.71998707   -8.1782513    671.82167  0.016495327   0.01586804            1 
 3395000   0.71475816   -8.1653838    671.33843  0.016478606  0.015862773            2 
 3396000    0.7178419   -8.1412636    671.95583  0.016488904  0.015857517            4 
 3397000   0.72972461    -8.144477     673.1383  0.016513058  0.015852273            1 
 3398000   0.70409521    -8.183246    670.22923  0.016436856  0.015847011            4 
 3399000   0.70251239   -8.1831176    672.18584   0.01647999  0.015841727            3 
 3400000   0.73207669   -8.1714454    672.05943  0.016472045  0.015836461            3 
 3401000   0.71676514   -8.1740941    672.31251  0.016473403  0.015831172            3 
 3402000   0.70128843   -8.1698382    670.41812  0.016422157  0.015825885            3 
 3403000   0.71620589   -8.1970404    672.50168  0.016468353  0.015820591            2 
 3404000   0.70035492   -8.1935113    671.16776   0.01643086  0.015815289            2 
 3405000   0.69471419   -8.1956818    670.22912  0.016403062  0.015809991            1 
 3406000   0.72133191   -8.2003947    671.23282  0.016422803  0.015804705            1 
 3407000    0.7102454   -8.1870625    670.84737  0.016408555  0.015799408            2 
 3408000   0.71137429    -8.178045    671.76254  0.016426119  0.015794127            2 
 3409000   0.69920776   -8.1988614    670.79506   0.01639765  0.015788851            3 
 3410000   0.70559243   -8.1639834    672.38586  0.016431717  0.015783577            3 
 3411000   0.70961457   -8.1779322    672.11995  0.016420403  0.015778321            3 
 3412000   0.71741793   -8.1936237     671.9051  0.016410343  0.015773062            2 
 3413000   0.71147487   -8.1962367     671.6298  0.016398813  0.015767806            3 
 3414000   0.69934337    -8.191236    672.23777   0.01640885   0.01576255            2 
 3415000   0.69689378   -8.1884283    673.50378  0.016434938  0.015757297            2 
 3416000   0.71047964   -8.1893512    672.33051  0.016401505  0.015752025            1 
 3417000   0.70206042   -8.2193376    670.57582  0.016353912  0.015746743            2 
 3418000   0.71956928   -8.2147321    671.34536   0.01636789  0.015741462            2 
 3419000   0.70353982   -8.2211448    670.45675  0.016341444  0.015736196            2 
 3420000   0.69390272   -8.2377166     671.1097  0.016352576  0.015730914            1 
 3421000   0.70500471    -8.221294    671.58418  0.016359354  0.015725618            2 
 3422000   0.70155241   -8.2182948    672.17452  0.016368949  0.015720338            1 
 3423000    0.7016762   -8.2052569    670.06529  0.016312817   0.01571506            3 
 3424000   0.71398328   -8.2035788    672.14158  0.016358586  0.015709786            4 
 3425000    0.7241592   -8.1956345     671.3785  0.016335243  0.015704525            4 
 3426000   0.70328094   -8.2046765     669.7503  0.016290871  0.015699248            2 
 3427000   0.70117947   -8.1908994     671.2256  0.016321992  0.015693999            2 
 3428000   0.69230142   -8.2132309     670.1817  0.016291854  0.015688746            2 
 3429000   0.69250658   -8.2206889    671.52903  0.016319846  0.015683495            2 
 3430000   0.70468277   -8.1864835     671.5087  0.016314594  0.015678253            2 
 3431000   0.70537085   -8.1832722    672.46073  0.016332962  0.015673019            2 
 3432000   0.70076641   -8.1894592    672.22016  0.016322362  0.015667774            2 
 3433000    0.6995139   -8.2058273    671.14849  0.016291594  0.015662518            1 
 3434000   0.68761115   -8.2219691    671.10955  0.016285904  0.015657274            2 
 3435000   0.69252069   -8.1956206    672.12805  0.016305872  0.015652044            3 
 3436000   0.69275757   -8.1955276    672.75156  0.016316248  0.015646808            4 
 3437000   0.69551764   -8.2114524    672.15505  0.016297038   0.01564157            1 
 3438000     0.679204    -8.211466    670.60684  0.016254771  0.015636323            6 
 3439000   0.70148835   -8.1926416    671.10043  0.016262005  0.015631071            2 
 3440000   0.69449408   -8.2305891    670.89491  0.016252299  0.015625825            1 
 3441000   0.69837101   -8.2164694    671.67706  0.016266518   0.01562058            2 
 3442000   0.71272605   -8.1973889     672.0338  0.016270429   0.01561535            2 
 3443000   0.70319248   -8.2199745    671.67067  0.016256914  0.015610109            2 
 3444000   0.71390007   -8.2168452    670.53841  0.016224797  0.015604863            5 
 3445000    0.6931972   -8.2076289    672.38463  0.016264747  0.015599614            2 
 3446000   0.71114964   -8.1819202    672.35713  0.016259362  0.015594375            3 
 3447000   0.71172971   -8.2013583    670.69445  0.016214449   0.01558914            2 
 3448000   0.70252777   -8.2294718    670.48175  0.016204605  0.015583895            2 
 3449000   0.69800295   -8.2142219    670.82539   0.01620821  0.015578657            1 
 3450000   0.70009268   -8.2326364    672.13701  0.016235193  0.015573426            3 
 3451000   0.69549623    -8.246784    670.83271  0.016198993  0.015568194            2 
 3452000   0.70509259   -8.2025992    670.84708  0.016194648  0.015562952            3 
 3453000   0.71313504   -8.2068602    669.89145  0.016166895  0.015557718            2 
 3454000   0.69828489    -8.230568    671.47615  0.016200447   0.01555249            3 
 3455000   0.69016378   -8.2301173    670.00967  0.016160388  0.015547244            1 
 3456000   0.69783242   -8.2304874    672.10809   0.01620631   0.01554199            2 
 3457000   0.69788426   -8.2483967    670.59709  0.016165198  0.015536742            2 
 3458000   0.71277995   -8.2300472    671.50369  0.016182372    0.0155315            4 
 3459000   0.70530977   -8.2519197    671.31714  0.016173199   0.01552625            3 
 3460000   0.70377273   -8.2226443    670.48979  0.016148598  0.015521018            2 
 3461000   0.69744919   -8.2158229     671.7403  0.016174042  0.015515789            2 
 3462000    0.7030851   -8.2402931    671.33939   0.01615972  0.015510558            5 
 3463000   0.70363361   -8.2254259    670.51013  0.016135098  0.015505328            2 
 3464000   0.70289731   -8.2194601     671.5833  0.016156257  0.015500094            2 
 3465000    0.6956853   -8.2216413    670.39728  0.016123071  0.015494859            2 
 3466000   0.71147441   -8.2277597    671.08026   0.01613484  0.015489629            2 
 3467000   0.70930059   -8.2337307    671.18871  0.016132793  0.015484403            2 
 3468000   0.69798009   -8.2097519    671.25407  0.016129711  0.015479182            1 
 3469000   0.68280814   -8.2438989    669.17705  0.016075167  0.015473959            3 
 3470000   0.69322805   -8.2281128    671.49542  0.016126211   0.01546875            4 
 3471000   0.68505327   -8.2517069    670.78192  0.016104435   0.01546353            5 
 3472000   0.70271403   -8.2377118    670.52779  0.016093697  0.015458302            1 
 3473000   0.71096881   -8.2283619    670.68127  0.016092746  0.015453094            3 
 3474000   0.69513382   -8.2114471    671.73987  0.016113507  0.015447894            1 
 3475000   0.68237139   -8.2079762     670.5332  0.016079933  0.015442686            2 
 3476000   0.69774528   -8.2073091    671.19936  0.016091277  0.015437473            2 
 3477000   0.69770363   -8.2579468    669.91863  0.016055954  0.015432263            4 
 3478000   0.70406451   -8.1947862     670.0445  0.016054354  0.015427049            3 
 3479000   0.70392665   -8.2409517    670.63187  0.016063808  0.015421846            3 
 3480000   0.69318037   -8.2308163    671.54587  0.016081079  0.015416644            3 
 3481000   0.70408161   -8.2425721    670.89493  0.016060877  0.015411437            2 
 3482000   0.68655991   -8.2293812    671.04573  0.016059873  0.015406218            2 
 3483000   0.67189188   -8.2361493    670.08177  0.016032199  0.015401009            1 
 3484000   0.70025461    -8.245772    669.88005  0.016022772  0.015395788            2 
 3485000   0.70268364   -8.2472071    671.05384  0.016046242  0.015390585            2 
 3486000   0.70744801     -8.24625    671.25271  0.016046393  0.015385381            2 
 3487000   0.70393287   -8.2392875    671.96373  0.016058783  0.015380171            6 
 3488000    0.6991503   -8.2407644     670.6771   0.01602344  0.015374967            2 
 3489000   0.68545072   -8.2514307    670.60652  0.016017162  0.015369757            2 
 3490000    0.6748938   -8.2449179    670.76954  0.016016465  0.015364541            1 
 3491000   0.68978771   -8.2300811    670.35619   0.01600201  0.015359323            3 
 3492000    0.6983043   -8.2219006    669.95093  0.015987756  0.015354108            3 
 3493000   0.69312678   -8.2308384    670.56483  0.015997825  0.015348908            2 
 3494000   0.68892202   -8.2393147    670.70536  0.015996598  0.015343695            1 
 3495000   0.68342707   -8.2505322    670.29387  0.015982209  0.015338482            4 
 3496000   0.71162652   -8.2517393    671.04468  0.015995535  0.015333274            2 
 3497000   0.69175796    -8.257144    670.49372  0.015977831  0.015328076            2 
 3498000   0.69391309   -8.2454966    670.70917  0.015978396  0.015322871            2 
 3499000   0.68196705   -8.2484995    669.82767  0.015952836  0.015317658            1 
 3500000   0.69251519   -8.2348564    671.39194  0.015985522  0.015312452            3 
 3501000    0.6922661   -8.2293538    671.19594  0.015976291  0.015307253            4 
 3502000   0.69065443   -8.2225539    671.68322  0.015983324  0.015302071            3 
 3503000   0.69672917   -8.2412851    671.30956  0.015969872  0.015296887            2 
 3504000   0.68564913   -8.2262587     671.5893  0.015971968  0.015291706            2 
 3505000   0.69205359   -8.2526663    670.80545  0.015948774   0.01528651            2 
 3506000   0.68087501   -8.2470966    670.85328  0.015945362  0.015281306            2 
 3507000   0.68970218   -8.2758475    669.89643  0.015918079  0.015276112            3 
 3508000   0.68542763   -8.2384438    669.93574  0.015914475  0.015270923            2 
 3509000   0.70087628   -8.2320855    670.64467  0.015926776  0.015265725            3 
 3510000    0.6999688   -8.2173462    670.66732  0.015922776  0.015260532            2 
 3511000   0.70313753   -8.2334518    669.77416  0.015897042  0.015255333            3 
 3512000   0.69112927   -8.2433297    669.92299  0.015896047  0.015250134            2 
 3513000   0.68764748   -8.2712572    668.90302  0.015867327   0.01524494            1 
 3514000   0.68762552   -8.2739601    670.48509  0.015900329  0.015239751            1 
 3515000   0.69528103   -8.2443149    671.47777   0.01591934  0.015234573            2 
 3516000   0.70372177   -8.2402765    671.24946  0.015909401  0.015229398            2 
 3517000   0.68929743   -8.2614534    669.96732  0.015874498  0.015224207            1 
 3518000   0.68543544   -8.2748145    669.57902  0.015860788  0.015219007            1 
 3519000   0.69123585   -8.2753225    670.08817  0.015868338  0.015213805            2 
 3520000   0.68373691   -8.2462846    670.41332  0.015871528  0.015208621            1 
 3521000   0.70070065   -8.2579598     669.6433  0.015848795  0.015203439            2 
 3522000   0.68455837   -8.2401104    669.59655  0.015843189  0.015198253            3 
 3523000   0.69937923    -8.241579    670.08057  0.015850141  0.015193091            2 
 3524000    0.6916347   -8.2630287    670.59097  0.015857713  0.015187916            1 
 3525000   0.69320579   -8.2553246    669.05415  0.015816883  0.015182737            2 
 3526000   0.70076656   -8.2351879     670.7157  0.015851666  0.015177576            3 
 3527000   0.67934976   -8.2419854    670.72126  0.015847303   0.01517242            4 
 3528000   0.66773192   -8.2393147    671.47951  0.015860722   0.01516726            2 
 3529000   0.69286665   -8.2509741    670.30416  0.015828473  0.015162093            2 
 3530000    0.6875825   -8.2488724    668.63432  0.015784568  0.015156949            2 
 3531000   0.69256404   -8.2293051    670.38871  0.015821503  0.015151802            4 
 3532000   0.69058153   -8.2260848    671.15553  0.015835115  0.015146669            2 
 3533000   0.68239479   -8.2308695    672.09251  0.015852734  0.015141546            2 
 3534000   0.67559184   -8.2275174    672.08464  0.015848063  0.015136433            3 
 3535000   0.67338505   -8.2558418    670.72048  0.015811421  0.015131303            2 
 3536000   0.68748589   -8.2321264    670.98614   0.01581321  0.015126169            4 
 3537000   0.68465096   -8.2464005    671.56709  0.015822427  0.015121034            2 
 3538000   0.68828523   -8.2574783    670.28948  0.015787862  0.015115895            1 
 3539000   0.68250277   -8.2393537     671.1248  0.015803071  0.015110761            2 
 3540000    0.6763533   -8.2410074    668.55283  0.015738061  0.015105631            4 
 3541000    0.6877931   -8.2391695    671.66729  0.015806912  0.015100497            2 
 3542000    0.6984434   -8.2409862    670.36602  0.015771834  0.015095378            2 
 3543000   0.67938296   -8.2481739    672.11594  0.015808541  0.015090252            3 
 3544000   0.67755458   -8.2366159    670.77979  0.015772663  0.015085114            3 
 3545000   0.68984506   -8.2860107    671.09144  0.015775539  0.015079989            1 
 3546000   0.67965367    -8.266633    669.65732  0.015737388  0.015074845            4 
 3547000   0.69148772   -8.2421766    670.32767    0.0157487  0.015069697            2 
 3548000    0.6859182   -8.2759159    670.71436  0.015753344  0.015064563            1 
 3549000   0.67067002   -8.2606305    671.05462  0.015756894  0.015059434            3 
 3550000   0.69276252   -8.2511208     670.4655  0.015738627  0.015054316            2 
 3551000   0.67643792   -8.2367257    670.97699  0.015746198  0.015049202            2 
 3552000   0.70059605   -8.2411624    670.33617  0.015726731  0.015044084            1 
 3553000   0.68769274   -8.2477297    669.82989   0.01571043  0.015038956            2 
 3554000   0.67970045   -8.2604782    671.78263  0.015751797  0.015033856            2 
 3555000   0.68554641    -8.277653    670.99108  0.015728811  0.015028741            3 
 3556000   0.68567472   -8.2491518    671.25255  0.015730515  0.015023629            1 
 3557000   0.66646034     -8.24666    669.91704  0.015694805  0.015018527            1 
 3558000   0.68607783    -8.272425    671.00855  0.015715958  0.015013421            3 
 3559000   0.68249908   -8.2565514    670.28738  0.015694656  0.015008318            2 
 3560000    0.6675849    -8.255352    670.08078  0.015685412  0.015003217            2 
 3561000   0.68446259   -8.2445256    670.12838  0.015682121  0.014998117            1 
 3562000   0.68620335   -8.2650619    670.49419  0.015686276   0.01499301            3 
 3563000   0.68803228   -8.2473869     669.7027  0.015663362  0.014987919            2 
 3564000   0.69132987   -8.2379356    671.16238  0.015693097  0.014982833            1 
 3565000   0.68798675     -8.25457    670.97939  0.015684418  0.014977732            4 
 3566000   0.67522642   -8.2443232     670.6726   0.01567285  0.014972634            4 
 3567000   0.68218731   -8.2607893    669.54698  0.015642159  0.014967529            3 
 3568000   0.66727958   -8.2553862    669.94622    0.0156471  0.014962435            3 
 3569000   0.67019205   -8.2688331    671.01943  0.015667774  0.014957344            2 
 3570000    0.6879426   -8.2463416    671.41862  0.015672704  0.014952258            3 
 3571000   0.67789615    -8.257944    671.46429   0.01566938  0.014947171            3 
 3572000   0.67491178   -8.2386111    670.53776  0.015643378  0.014942092            4 
 3573000   0.68991368   -8.2513919    669.73621  0.015620305  0.014937002            3 
 3574000   0.67660522   -8.2639032    670.61888  0.015636516  0.014931912            4 
 3575000   0.67235834   -8.2662085    672.15544  0.015667959  0.014926833            2 
 3576000   0.67818911   -8.2714833    669.69056  0.015606137  0.014921756            2 
 3577000   0.68384082   -8.2556711    669.52253   0.01559786  0.014916669            3 
 3578000   0.68795412   -8.2710729    670.25488  0.015610557  0.014911595            2 
 3579000   0.67828588   -8.2677975    670.91649    0.0156216  0.014906526            3 
 3580000   0.68339162   -8.2737015     670.9156  0.015617216  0.014901457            1 
 3581000   0.68547901   -8.2449717    671.95942  0.015637146  0.014896378            4 
 3582000   0.68137699   -8.2633269    670.53091  0.015599546  0.014891306            4 
 3583000   0.66923317   -8.2383021    670.63322  0.015597572  0.014886233            5 
 3584000   0.68161048   -8.2489043    672.03238  0.015625753  0.014881165            7 
 3585000   0.67970955   -8.2792059    672.63223  0.015635338  0.014876099            4 
 3586000   0.68696367   -8.2575419    671.24742  0.015598797   0.01487103            4 
 3587000   0.67549289   -8.2663211    670.52713  0.015577714  0.014865966            3 
 3588000   0.67958497   -8.2664012    671.09336  0.015586524  0.014860899            2 
 3589000   0.66732412   -8.2836716     669.1271  0.015536526  0.014855818            4 
 3590000   0.68463741   -8.2637786    670.53711  0.015564928  0.014850742            3 
 3591000    0.6768777   -8.2905177    670.14548  0.015551506  0.014845672            2 
 3592000   0.67799147   -8.2780353    669.48439  0.015531839  0.014840593            3 
 3593000   0.69401137   -8.2804614    669.95221  0.015538367  0.014835519            3 
 3594000   0.69257586   -8.2821087     670.3093  0.015542323  0.014830445            2 
 3595000   0.67318852   -8.2820415    669.52646  0.015519853   0.01482537            2 
 3596000   0.66857121   -8.2924695    669.60854  0.015517439  0.014820288            2 
 3597000   0.67989733   -8.2696029    670.80047  0.015540739  0.014815207            2 
 3598000   0.66553668   -8.2755715    669.56361  0.015507773  0.014810127            1 
 3599000   0.68270021    -8.247145    670.33158  0.015521246  0.014805054            1 
 3600000   0.67319645   -8.2735426    670.07706  0.015511043  0.014799981            2 
 3601000   0.67516112   -8.2832007     670.7083  0.015521344  0.014794915            4 
 3602000    0.6941477   -8.2590651    670.96599  0.015522996  0.014789851            1 
 3603000   0.66418497   -8.2327792    669.98179  0.015495924  0.014784789            2 
 3604000   0.67669069   -8.2553981    670.59236  0.015505743  0.014779736            2 
 3605000   0.68469688   -8.2813832    670.13225  0.015490805   0.01477469            3 
 3606000   0.67571388   -8.2544242    669.50734  0.015472068  0.014769639            3 
 3607000   0.67165447    -8.271209    670.45453  0.015489662  0.014764597            3 
 3608000   0.67149533   -8.2593429    670.90035  0.015495666  0.014759549            2 
 3609000   0.67424898   -8.2863181    671.12698  0.015496605  0.014754491            3 
 3610000   0.66370415    -8.291485    669.87013  0.015463299  0.014749436            2 
 3611000   0.68339995   -8.2825347    671.46956  0.015495928  0.014744388            3 
 3612000   0.66985693   -8.2585179    671.23835  0.015486304  0.014739337            3 
 3613000   0.66273795   -8.2901777    669.44307   0.01544061  0.014734283            3 
 3614000   0.66474947    -8.291046    668.29395   0.01540984  0.014729241            2 
 3615000   0.67886746   -8.2876962    669.44428  0.015432095  0.014724175            2 
 3616000   0.66121273   -8.2746243    670.05534   0.01544191  0.014719115            2 
 3617000    0.6715517   -8.2810551    670.06091  0.015437769  0.014714066            2 
 3618000   0.66569838   -8.2807474    670.56959  0.015445218  0.014709016            4 
 3619000   0.67706709   -8.2928413    669.95414  0.015426779  0.014703965            3 
 3620000   0.66874253   -8.2546793    669.78724  0.015418675  0.014698926            5 
 3621000   0.67406469    -8.282926    670.61769  0.015433529  0.014693879            3 
 3622000   0.66802033   -8.2912492    669.30921  0.015399163   0.01468883            1 
 3623000    0.6719303    -8.287468    668.89096  0.015385292  0.014683792            1 
 3624000   0.67760953   -8.2910638    668.87377  0.015380651  0.014678748            2 
 3625000   0.66417686   -8.2701037    670.41321  0.015411798  0.014673706            2 
 3626000   0.66703928   -8.2961695    670.39561  0.015407143  0.014668675            2 
 3627000   0.66475326   -8.3043126    670.28737  0.015400408  0.014663635            2 
 3628000    0.6567723   -8.2953573    670.28303  0.015396064  0.014658587            4 
 3629000   0.67057689   -8.3310862    668.64917  0.015354303  0.014653537            2 
 3630000   0.66886222   -8.3141348    669.40725  0.015367476  0.014648486            2 
 3631000   0.68216761   -8.3262118    668.11971  0.015333694  0.014643444            1 
 3632000   0.64796893   -8.2866751    668.76782  0.015344342  0.014638399            3 
 3633000   0.68168713   -8.3049343    668.89491  0.015343034  0.014633359            4 
 3634000   0.67892127   -8.3090311     668.5899  0.015331818  0.014628315            4 
 3635000   0.67897922   -8.2903504     669.7047  0.015353157  0.014623278            2 
 3636000   0.65674292   -8.2868567    668.95445  0.015331739  0.014618243            3 
 3637000   0.68000489   -8.2804672    669.77336  0.015346287  0.014613215            9 
 3638000   0.66999335   -8.3141828    670.18631  0.015351528  0.014608186            1 
 3639000   0.66492596   -8.2955968    669.47518  0.015331025  0.014603148            1 
 3640000   0.66139201   -8.2762066    669.36495  0.015324289  0.014598124            2 
 3641000    0.6697331   -8.3038918    669.84541  0.015331077  0.014593103            2 
 3642000   0.66675685   -8.2926024    669.96919    0.0153297  0.014588075            2 
 3643000    0.6896566   -8.3115772     670.4973  0.015337572  0.014583052            3 
 3644000   0.67275216   -8.2991755    670.36651  0.015330372  0.014578027            3 
 3645000    0.6652164   -8.2984954    668.88174  0.015292221  0.014572996            4 
 3646000   0.64804341   -8.3310569    669.21703   0.01529569  0.014567958            2 
 3647000   0.68281754   -8.3169065    670.77214   0.01532703  0.014562925            3 
 3648000    0.6530361   -8.3165103    670.37525  0.015313762    0.0145579            2 
 3649000   0.66982693   -8.3157755    669.21192  0.015282998  0.014552877            4 
 3650000   0.66279478   -8.2853444    668.97789  0.015273468  0.014547861            2 
 3651000    0.6689252   -8.2945671    670.16378  0.015296352  0.014542849            3 
 3652000   0.66445282   -8.3029193    669.34284  0.015273431  0.014537823            3 
 3653000   0.66753977   -8.3164115     668.5606  0.015251405  0.014532809            2 
 3654000   0.67845641    -8.305944    669.98349  0.015279682   0.01452778            2 
 3655000   0.66861935   -8.2868193    669.56259  0.015265905  0.014522764            2 
 3656000   0.66086411   -8.3404163    668.41296  0.015235525  0.014517749            3 
 3657000   0.65745978   -8.3280167    668.27872    0.0152283  0.014512722            5 
 3658000   0.66712511   -8.3164478    669.28599  0.015247084  0.014507698            2 
 3659000   0.65369242   -8.3097664    668.82081  0.015232322  0.014502674            2 
 3660000   0.66746313   -8.3057836    670.33124  0.015262551  0.014497665            1 
 3661000   0.65837425   -8.3300863    668.90908   0.01522601  0.014492646            3 
 3662000   0.65903756   -8.3160584    669.16455  0.015227666   0.01448763            2 
 3663000   0.67970035   -8.3279985    668.64155  0.015211611   0.01448262            2 
 3664000   0.64892068   -8.3324218    668.53013  0.015204925  0.014477604            7 
 3665000   0.66009328   -8.2834911    669.58537   0.01522477  0.014472588            2 
 3666000   0.64515675   -8.3144896    669.89927  0.015227752  0.014467585            2 
 3667000   0.66864864   -8.3162844    668.74754  0.015197426  0.014462583            3 
 3668000    0.6661099   -8.3406985    668.41808  0.015185798  0.014457577            2 
 3669000   0.66327787   -8.3364475    668.95915  0.015193948  0.014452569            2 
 3670000   0.66946941   -8.3446377    669.04199  0.015191689  0.014447569            2 
 3671000   0.65891614   -8.3362294    669.41651  0.015196053  0.014442563            2 
 3672000   0.68400257   -8.3406053    668.70962  0.015175872  0.014437558            3 
 3673000   0.66798027   -8.3329726    667.92656  0.015153974  0.014432562            2 
 3674000   0.66214633   -8.3269743    668.38907   0.01516034  0.014427563            2 
 3675000   0.64420055   -8.3486846    669.00667  0.015170219  0.014422556            7 
 3676000   0.66442001   -8.3379991    668.36525  0.015151552  0.014417549            3 
 3677000   0.67181257   -8.3302869    668.18429   0.01514333  0.014412549            2 
 3678000   0.66903385   -8.3218148     667.7724   0.01512988   0.01440755            2 
 3679000   0.66599528    -8.309126    669.75223  0.015170613  0.014402549            2 
 3680000   0.66210061   -8.3265067    667.92055  0.015125013  0.014397559            3 
 3681000   0.66976075    -8.334294    668.05675  0.015123987  0.014392567            2 
 3682000   0.67274396    -8.324482    668.39231  0.015127474  0.014387587            6 
 3683000   0.67340019   -8.3490031    669.00899   0.01513732  0.014382604            3 
 3684000   0.65531934   -8.3307366      668.434  0.015120204  0.014377614            3 
 3685000   0.64919752   -8.3214874    668.10555  0.015108674  0.014372626            3 
 3686000   0.65655421   -8.3242778    668.63136  0.015116462  0.014367641           11 
 3687000   0.65011331   -8.3548681    668.22167  0.015103102  0.014362662            2 
 3688000   0.66238886   -8.3350715    668.70938  0.015110028  0.014357672            3 
 3689000   0.65385914    -8.318986    668.18477  0.015094081  0.014352679            2 
 3690000   0.66651901   -8.3348556    668.20712  0.015090495   0.01434769            4 
 3691000   0.65219081   -8.3415739    668.39834  0.015090724  0.014342712            3 
 3692000   0.65372589   -8.3584762    667.47764  0.015065855  0.014337728            4 
 3693000   0.68171569   -8.3370005    669.20479  0.015100749  0.014332752            3 
 3694000   0.66321097   -8.3478729    668.38944  0.015078267  0.014327777            2 
 3695000   0.66454146    -8.333969    668.27349  0.015071572  0.014322804            1 
 3696000   0.65475526   -8.3584931    668.56648    0.0150741   0.01431784            3 
 3697000   0.65372666   -8.3500354    670.03162  0.015103048   0.01431287            1 
 3698000   0.65529513   -8.3425024    667.58647  0.015043863  0.014307892            6 
 3699000   0.65594723   -8.3499519    667.54865  0.015038944   0.01430293            6 
 3700000   0.66124397   -8.3329786    668.78023  0.015062618   0.01429797            2 
 3701000   0.64874559   -8.3426273    668.81185   0.01505926  0.014293016            1 
 3702000   0.64754766   -8.3043341       668.34   0.01504457  0.014288057            2 
 3703000   0.66321217   -8.3349646    669.97184  0.015077231  0.014283108            1 
 3704000   0.66197173   -8.3130807    669.32055  0.015058508  0.014278168            2 
 3705000   0.65763493   -8.3261041    669.32386  0.015054518  0.014273229            1 
 3706000   0.65424979   -8.3358548    668.88254  0.015040532  0.014268286            4 
 3707000     0.658621   -8.3374347    669.89421  0.015059217  0.014263349            3 
 3708000   0.64991476   -8.3432435    670.45505   0.01506776  0.014258413            2 
 3709000     0.660837   -8.3328179    668.70729  0.015024429   0.01425345            3 
 3710000    0.6515476   -8.3538448    669.84402  0.015045912  0.014248499            2 
 3711000    0.6511104   -8.3371825    668.91943  0.015021096  0.014243553            3 
 3712000   0.65526509   -8.3153148    668.60005  0.015009879  0.014238601            1 
 3713000   0.64937389   -8.3550844    668.85693  0.015011602  0.014233658            3 
 3714000   0.65065393   -8.3330064     668.8348  0.015007063  0.014228719            1 
 3715000   0.64913533   -8.3358956    668.87765  0.015003985  0.014223792            4 
 3716000   0.66736729   -8.3350107    668.85086  0.014999347  0.014218858            3 
 3717000   0.63768144   -8.3437263    668.41563  0.014985554  0.014213929            3 
 3718000   0.67279621   -8.3357606    668.72026  0.014988351  0.014209006            2 
 3719000   0.66517284   -8.3153846    669.48918   0.01500155  0.014204095            1 
 3720000   0.66588309   -8.3308072    669.46708  0.014997022  0.014199183            3 
 3721000   0.64283013   -8.3285832    668.78822  0.014977789  0.014194276            2 
 3722000    0.6722057   -8.3403093     669.0957  0.014980649  0.014189368            3 
 3723000   0.64604216   -8.3187025    669.78051  0.014991953  0.014184461            2 
 3724000   0.67482282   -8.3395858    669.58259  0.014983499  0.014179557            3 
 3725000   0.65057433   -8.3370033    670.11594  0.014991408  0.014174662            1 
 3726000   0.66141719    -8.340695    670.63138  0.014998913  0.014169759            3 
 3727000   0.67126563   -8.3602804     668.3469  0.014943809  0.014164852            3 
 3728000   0.65905772   -8.3343596    668.54571  0.014944244  0.014159951            2 
 3729000   0.65996488   -8.3628404    670.17236  0.014976588  0.014155048            2 
 3730000   0.65543496   -8.3485207    668.74073  0.014940588   0.01415015            2 
 3731000   0.65566894   -8.3404287    668.38832  0.014928712  0.014145256            1 
 3732000   0.66027624   -8.3340943    668.81591   0.01493426  0.014140358            4 
 3733000   0.66347965   -8.3374968    669.68858  0.014949741  0.014135474            3 
 3734000   0.66268348   -8.3508529    668.44603  0.014918006  0.014130582            2 
 3735000   0.66736345   -8.3467066    668.74638  0.014920714   0.01412569            2 
 3736000   0.66226368   -8.3337708    669.75088  0.014939126  0.014120805            2 
 3737000   0.66534467   -8.3257459    668.63062  0.014910147  0.014115929            4 
 3738000   0.65321052   -8.3375377    669.87477  0.014933894  0.014111049            3 
 3739000   0.64689598   -8.3255322    668.97782  0.014909909  0.014106173            1 
 3740000   0.64994478   -8.3434595    669.21644   0.01491124    0.0141013            3 
 3741000   0.64969027   -8.3771862    667.62258   0.01487175   0.01409641            3 
 3742000   0.66329523   -8.3563778     669.3788  0.014906886  0.014091529            1 
 3743000    0.6676883   -8.3445342    670.73398  0.014933075  0.014086667            2 
 3744000   0.65840447   -8.3553248    668.84722  0.014887091  0.014081803            1 
 3745000   0.64271704    -8.358492    668.82453  0.014882611  0.014076934            2 
 3746000   0.63969636   -8.3200646    669.45336  0.014892627  0.014072068            1 
 3747000   0.65938372   -8.3409533    668.15303  0.014859733  0.014067204            2 
 3748000   0.65385841   -8.3474802    668.95961  0.014873702  0.014062333            2 
 3749000   0.64464445   -8.3373839    668.88819  0.014868147  0.014057462            2 
 3750000   0.63694817    -8.351582    669.32824  0.014873961  0.014052593            2 
 3751000   0.64510421   -8.3413759    668.14146   0.01484363  0.014047738            2 
 3752000   0.65120877    -8.346434    667.85326  0.014833273  0.014042871            2 
 3753000   0.65039569   -8.3515163    668.83165  0.014851045  0.014038004            3 
 3754000   0.63860069   -8.3579236    668.19276  0.014832906   0.01403314            3 
 3755000   0.63334972   -8.3695917    668.24664  0.014830152   0.01402827            2 
 3756000   0.64583185   -8.3336763    668.51605  0.014832181  0.014023413            3 
 3757000   0.64977828   -8.3656417    668.27679  0.014822926  0.014018558            2 
 3758000   0.65731069   -8.3693792    668.42207  0.014822203  0.014013709            1 
 3759000   0.66119027   -8.3543989    668.04054  0.014809802  0.014008855            2 
 3760000   0.65914495   -8.3714148    668.93704  0.014825732  0.014004001            1 
 3761000   0.64885706   -8.3348507    669.20549  0.014827738  0.013999148            4 
 3762000   0.65450935   -8.3303078    668.35984  0.014805065  0.013994308            2 
 3763000   0.65112911   -8.3312219    667.74993  0.014787624  0.013989456            4 
 3764000   0.64702502   -8.3725773    668.29603  0.014795785  0.013984606            1 
 3765000   0.64538023   -8.3398252    668.38596  0.014793846  0.013979758            1 
 3766000   0.65635118   -8.3600069    667.73344  0.014775479  0.013974917            2 
 3767000   0.64077741   -8.3427373    669.53814   0.01481148  0.013970082            3 
 3768000   0.64471171   -8.3483482    668.99554  0.014795549  0.013965247            1 
 3769000   0.64564279    -8.366773    668.32422   0.01477678  0.013960421            2 
 3770000   0.64815071   -8.3531629    668.72078  0.014781626  0.013955592            4 
 3771000   0.63681255   -8.3362007    669.11817  0.014786488  0.013950761            2 
 3772000   0.65410324   -8.3506737    668.26246  0.014763663  0.013945934            1 
 3773000   0.64208504   -8.3597485     668.5269  0.014765591  0.013941115            2 
 3774000   0.64806388   -8.3522041    669.10545  0.014774453   0.01393629            1 
 3775000   0.64184242   -8.3503021    668.99879  0.014768185  0.013931472            4 
 3776000   0.66780577   -8.3573435    668.57127  0.014754839  0.013926656            2 
 3777000   0.65221904     -8.34743    669.39664  0.014769143  0.013921836            2 
 3778000   0.65471086    -8.368162    667.89076  0.014732018  0.013917018            2 
 3779000   0.64178594   -8.3251387    669.03088  0.014753261  0.013912207            2 
 3780000   0.65600857   -8.3519993    668.07673  0.014728323  0.013907395            1 
 3781000   0.63516505   -8.3368718    668.60416  0.014736052  0.013902585            1 
 3782000    0.6435088   -8.3666849    668.98823  0.014740619  0.013897772            2 
 3783000   0.63964381   -8.3370735    668.06502  0.014716385  0.013892965            1 
 3784000   0.64375208   -8.3567633    669.44097  0.014742798  0.013888169            1 
 3785000   0.63537226   -8.3500614    670.31593  0.014758167  0.013883373            2 
 3786000   0.64647955   -8.3417442    668.59351  0.014716357  0.013878574            2 
 3787000   0.66120858   -8.3849691    667.96169  0.014698567  0.013873768            2 
 3788000   0.64290711   -8.3512237    669.66518  0.014732162  0.013868965            2 
 3789000   0.65101775    -8.365033    668.21661  0.014696415  0.013864164            3 
 3790000   0.64656881   -8.3481233    668.85808  0.014706642  0.013859371            1 
 3791000   0.63956395   -8.3796885    668.92673  0.014704272  0.013854576            2 
 3792000   0.63795459   -8.3641408    669.01265  0.014702282  0.013849782            5 
 3793000   0.64839093   -8.3750447    669.96913   0.01471942  0.013844994            2 
 3794000   0.64717138   -8.3642978    669.91215  0.014714289  0.013840215            1 
 3795000    0.6343034   -8.3540831    668.39608  0.014677121  0.013835439            2 
 3796000   0.64765883   -8.3516494    670.12037  0.014711107  0.013830663            3 
 3797000   0.64105603   -8.3735427    668.79277  0.014678096  0.013825889            1 
 3798000   0.64000143   -8.3621804    668.95091  0.014677701  0.013821107            3 
 3799000   0.64435119   -8.3558272    668.16911  0.014656688  0.013816326            3 
 3800000   0.63779946   -8.3554138     668.9167  0.014669226  0.013811548            4 
 3801000   0.64399482   -8.3886554     668.8906  0.014664794  0.013806774            4 
 3802000    0.6477964   -8.3711642    668.86126  0.014660294  0.013801993            2 
 3803000   0.65079158   -8.3698387    668.66878  0.014652221  0.013797218            2 
 3804000   0.64481711   -8.3478891    669.88428  0.014674997   0.01379245            1 
 3805000   0.63901634   -8.3900932    668.64356  0.014643968  0.013787682            4 
 3806000   0.64495795   -8.3799735    668.70633  0.014641494  0.013782913            3 
 3807000    0.6348015   -8.3796657    669.38409  0.014652484   0.01377815            2 
 3808000   0.63103956    -8.378868    668.96955  0.014639565  0.013773391            2 
 3809000   0.64154045   -8.3725773    667.94837   0.01461338  0.013768627            2 
 3810000   0.62830415   -8.3661467    668.64033  0.014624679  0.013763866            2 
 3811000   0.63585273   -8.3874799    668.99962  0.014628698  0.013759101            2 
 3812000    0.6442028   -8.3789806    667.46214   0.01459125  0.013754338            2 
 3813000   0.62968219    -8.383077     668.8517  0.014617792  0.013749581            1 
 3814000   0.63668902   -8.3807562    668.59885  0.014608435  0.013744823            4 
 3815000   0.65065939   -8.3607487    669.66832  0.014627967  0.013740083            2 
 3816000   0.65472666   -8.3556152    670.42061  0.014640562  0.013735339            1 
 3817000   0.63233493   -8.3523762    669.64253  0.014619739  0.013730593            1 
 3818000   0.64483007   -8.3848199    668.36304  0.014587983  0.013725841            2 
 3819000   0.62795443   -8.3858123    668.48558  0.014586837  0.013721091            1 
 3820000   0.64029532   -8.4073107    667.57171  0.014563083  0.013716343            4 
 3821000   0.64003454   -8.3803355    667.57366  0.014559314  0.013711575            2 
 3822000   0.63641836   -8.4017953    668.13965  0.014567845  0.013706824            4 
 3823000   0.64155292   -8.3815033    669.46652  0.014592957   0.01370208            2 
 3824000   0.65042107   -8.3756474     668.6774  0.014571945  0.013697329            1 
 3825000   0.63110238   -8.3914668    667.71134  0.014547088  0.013692577            3 
 3826000   0.64964548   -8.3696989    669.66112  0.014585754  0.013687845            2 
 3827000    0.6512759   -8.3699136    668.54807  0.014557706  0.013683106            4 
 3828000   0.65174588   -8.3837427    669.37664   0.01457194  0.013678375            3 
 3829000   0.63242795   -8.3814228    668.31576  0.014545046  0.013673652            2 
 3830000   0.63756143   -8.3796373    668.21388  0.014539031  0.013668919            2 
 3831000   0.62663549   -8.3521883     669.4436  0.014561986  0.013664192            3 
 3832000   0.64062198    -8.366662    669.14417  0.014551674  0.013659463            2 
 3833000   0.62675637   -8.3782473    669.92824  0.014564924  0.013654737            2 
 3834000   0.64318087    -8.368764    669.34162  0.014548375  0.013650011            2 
 3835000   0.64062517   -8.3906216    669.09676   0.01453926  0.013645298            2 
 3836000   0.65181233   -8.3814034    666.74318  0.014484341  0.013640583            1 
 3837000   0.63236888   -8.3663907    668.31217  0.014514642  0.013635863            3 
 3838000   0.64549565     -8.37551    670.10123  0.014549705  0.013631154            5 
 3839000   0.62766975   -8.3752599    668.67848  0.014515032  0.013626446            3 
 3840000   0.62802011   -8.3699337    668.53082  0.014508047  0.013621734            1 
 3841000    0.6334295   -8.3790537    667.91771  0.014490968  0.013617029            2 
 3842000   0.61637144   -8.3790882    668.49197  0.014499652   0.01361232            3 
 3843000    0.6448354   -8.3819442    669.34333  0.014514341  0.013607609            1 
 3844000   0.63566009    -8.363503    667.75124   0.01447605  0.013602897            3 
 3845000   0.65431873   -8.3897707    667.78029  0.014472915  0.013598194            3 
 3846000   0.63529329   -8.3999309    669.13629  0.014498533  0.013593487            2 
 3847000   0.63020187   -8.3727947    669.13926  0.014494828  0.013588784            4 
 3848000   0.63690776   -8.3717014     669.3713  0.014496087   0.01358408            1 
 3849000   0.64092272   -8.3746428    668.50416  0.014473546  0.013579379            3 
 3850000   0.65118188   -8.3683611    669.04223  0.014481434  0.013574685            4 
 3851000   0.63110203   -8.4158629    668.85996  0.014473729  0.013569998            5 
 3852000   0.63373332   -8.4022498    667.96836  0.014450683  0.013565304            2 
 3853000    0.6343257   -8.4018932    668.62881  0.014461217  0.013560608            1 
 3854000   0.63239735   -8.3954051    667.61616  0.014435568  0.013555916            1 
 3855000    0.6332737   -8.3818482    668.34512  0.014447581  0.013551219            2 
 3856000   0.63404854   -8.3891392    668.38215  0.014444635  0.013546518            1 
 3857000   0.64022009   -8.4140876    667.99371  0.014432497  0.013541818            1 
 3858000    0.6367493   -8.4167009     668.0808  0.014430638  0.013537112            2 
 3859000   0.62930257   -8.4031213    667.53559  0.014415125  0.013532414            3 
 3860000   0.64817011   -8.3917548    667.86092  0.014418414  0.013527723            4 
 3861000   0.63391847   -8.4009225    668.95813  0.014438361  0.013523037            2 
 3862000   0.63112477   -8.3904235    667.67281  0.014406888   0.01351834            2 
 3863000   0.64114331   -8.3835137    668.04601  0.014411209  0.013513657            7 
 3864000   0.63480597   -8.3734136    666.80705  0.014380759  0.013508967            1 
 3865000   0.62913641   -8.3983926    668.08651  0.014404625  0.013504276            2 
 3866000   0.63540913    -8.393862    668.64426  0.014412922   0.01349959            4 
 3867000   0.62556569   -8.3985705    667.02194  0.014374234  0.013494891            1 
 3868000   0.63000551   -8.4085447      667.956  0.014390641  0.013490194            3 
 3869000   0.63617372   -8.4006162    668.81931  0.014405516  0.013485497            1 
 3870000   0.62947359    -8.400819    668.03429   0.01438489  0.013480811            3 
 3871000   0.64166476   -8.4193852     666.9978  0.014358861  0.013476115            2 
 3872000   0.63044197   -8.4313015     667.1046  0.014357451  0.013471421            1 
 3873000   0.64380985   -8.4155083    668.60566  0.014386041  0.013466731            1 
 3874000   0.62117071   -8.4202504     666.2376  0.014331389  0.013462043            2 
 3875000   0.61720422   -8.4331902    666.01463  0.014322895  0.013457344            3 
 3876000   0.63378225   -8.4126801    667.24152  0.014345578  0.013452657            2 
 3877000    0.6444847    -8.406512    667.24027  0.014341851  0.013447977            2 
 3878000   0.63520705   -8.4105612    667.81705  0.014350547  0.013443296            2 
 3879000   0.64726758   -8.4219334    667.09376  0.014331309  0.013438612            2 
 3880000   0.63053022   -8.4102367    667.59837  0.014338453  0.013433936            1 
 3881000   0.62260534   -8.4000903     666.7722  0.014317019  0.013429251            2 
 3882000   0.62833368   -8.4180357    667.73937  0.014334093  0.013424572            2 
 3883000   0.64071429    -8.417812    667.29892  0.014320949  0.013419896            2 
 3884000   0.63588574   -8.4153991    667.70066  0.014325881  0.013415226            4 
 3885000   0.63450254   -8.4130089    668.03691  0.014329406   0.01341056            2 
 3886000   0.63023569   -8.4248138    667.39831  0.014312024  0.013405897            7 
 3887000   0.63654286   -8.4126452    668.04806  0.014322272  0.013401246            2 
 3888000   0.63251489   -8.3920796    667.52889  0.014307461  0.013396592            4 
 3889000    0.6302648   -8.4120397    668.09851  0.014315988  0.013391942            4 
 3890000   0.63227458   -8.4135019    667.91397  0.014308354  0.013387291            6 
 3891000   0.64062126   -8.4205727    667.58433  0.014297617  0.013382644            2 
 3892000   0.63583841   -8.4184336    667.37846  0.014289535  0.013377996            5 
 3893000   0.63104926   -8.4255732    667.32261  0.014284669  0.013373343           11 
 3894000   0.62177641   -8.4257988    666.55571  0.014264589  0.013368701            2 
 3895000   0.63794721   -8.4016154    667.86141  0.014288862  0.013364056            1 
 3896000   0.62368441   -8.4051908    668.22345  0.014292938  0.013359424            2 
 3897000   0.62593159   -8.3864308    668.80414  0.014301688  0.013354784            3 
 3898000   0.63008928    -8.405331    668.12173   0.01428343  0.013350154            1 
 3899000   0.62591095   -8.3987226    667.95589  0.014276222  0.013345526            3 
 3900000   0.61650953   -8.3961577    667.25024  0.014257484  0.013340894            5 
 3901000   0.63296016   -8.4180468    667.35085  0.014255978  0.013336266            3 
 3902000    0.6364157   -8.4225456    667.11357  0.014247257  0.013331633            2 
 3903000   0.63329734   -8.4000891    667.95827  0.014261642  0.013326999            2 
 3904000   0.61658106   -8.3997381    668.80588  0.014276082  0.013322374            4 
 3905000   0.63346363   -8.4006551    668.32227  0.014262106  0.013317755            2 
 3906000   0.63664712    -8.412372    667.87421  0.014248895  0.013313137            4 
 3907000   0.62340753   -8.4054163     667.2243  0.014231386  0.013308517            1 
 3908000   0.62162528   -8.4069738    668.08533  0.014246105  0.013303895            5 
 3909000   0.61865896   -8.4145087     667.4611  0.014229153  0.013299279            2 
 3910000   0.62547256   -8.4230553    668.50742  0.014247814  0.013294665            3 
 3911000   0.62465041   -8.4273929    667.52825  0.014223307  0.013290051            2 
 3912000   0.62806465   -8.3985209    667.60157  0.014221233  0.013285441            3 
 3913000    0.6283421   -8.4148252    667.99623  0.014226004  0.013280829            1 
 3914000   0.62968075    -8.400675    666.89814  0.014198989  0.013276221            2 
 3915000   0.61974154   -8.3869827    667.85025  0.014215629  0.013271618            2 
 3916000    0.6231167   -8.4374531    666.96272  0.014193112  0.013267008            1 
 3917000   0.62927601    -8.420475    667.33087  0.014197321    0.0132624            2 
 3918000   0.61769763   -8.3874718    668.30958  0.014214514  0.013257794            1 
 3919000   0.62041949   -8.4393165    667.09277  0.014185013  0.013253194            2 
 3920000   0.61749326   -8.4097565     667.0401  0.014180274  0.013248588            3 
 3921000   0.62307822   -8.4193357    666.54163  0.014166064  0.013243994            2 
 3922000   0.61150946   -8.4326033    668.70604  0.014208441  0.013239403            3 
 3923000   0.61557722   -8.4168576    668.94355  0.014209864  0.013234815            3 
 3924000   0.62503515   -8.4117974    668.60708  0.014199097  0.013230222            2 
 3925000     0.612611   -8.4388358    667.26277  0.014166938  0.013225625            2 
 3926000   0.60660071    -8.437458    668.21326  0.014183504  0.013221039            2 
 3927000   0.63120512   -8.3979132    669.07415  0.014198161  0.013216453            4 
 3928000   0.61069642   -8.4486786    667.91465  0.014169948  0.013211871            2 
 3929000    0.6239101   -8.4136171    669.25437  0.014194756  0.013207292            3 
 3930000   0.61087083   -8.4420844    667.49578  0.014153855  0.013202715            2 
 3931000   0.62889022   -8.4328281    666.39974  0.014127019  0.013198127            2 
 3932000   0.61862544   -8.4256364    666.79236  0.014131747  0.013193553            2 
 3933000   0.62925134   -8.4354632    667.82265  0.014149984  0.013188977            4 
 3934000   0.61747254     -8.41674    667.76379  0.014145141  0.013184393            3 
 3935000   0.62667677   -8.4066355    666.67194  0.014118423  0.013179808            3 
 3936000   0.62491521   -8.4153956    667.06594  0.014123178  0.013175237            4 
 3937000   0.61906743   -8.4239151    668.41245  0.014148092  0.013170668            2 
 3938000   0.61545907   -8.4157766    669.09331  0.014158907  0.013166103            1 
 3939000    0.6300413   -8.4320908    667.88025  0.014129649  0.013161535            2 
 3940000   0.61542541   -8.4375369    666.57846  0.014098529  0.013156968            2 
 3941000   0.63754945   -8.4386948     666.1575   0.01408605  0.013152391            2 
 3942000   0.62786349    -8.414762     667.6971  0.014115024  0.013147828            2 
 3943000   0.62425346   -8.4324984    667.72536  0.014112041  0.013143261            3 
 3944000   0.61911061   -8.4345159    667.35043  0.014100542    0.0131387            2 
 3945000   0.63256148   -8.4160554    666.40252  0.014076944  0.013134143            3 
 3946000   0.61192245   -8.4268806    667.07306  0.014087537  0.013129582            3 
 3947000    0.6102834   -8.4209695    667.26413  0.014088002  0.013125028            2 
 3948000   0.62178451   -8.4222736    667.74522  0.014094588  0.013120471            3 
 3949000   0.63121618   -8.4248517    667.71974  0.014090481  0.013115922            3 
 3950000   0.62628543   -8.4317531    667.26038  0.014077223  0.013111373            3 
 3951000   0.63156815   -8.4465272    666.55007  0.014058679  0.013106826            1 
 3952000   0.62438125   -8.4359908    666.78738  0.014060125  0.013102274            3 
 3953000   0.62395469    -8.419332    668.52596  0.014093219  0.013097722            2 
 3954000   0.61115478    -8.439223    668.28681  0.014084615  0.013093175            2 
 3955000   0.63842846   -8.4338931    667.14586  0.014057013  0.013088623            3 
 3956000   0.61280691   -8.4193981    668.06334  0.014072787  0.013084084            2 
 3957000   0.61418718   -8.4261789    668.46232  0.014077633  0.013079542            3 
 3958000    0.6201936    -8.437852    667.11103  0.014045626  0.013075002            6 
 3959000   0.61712248   -8.4231361    666.87188  0.014037044  0.013070466            3 
 3960000   0.62141152   -8.4420317    667.61946  0.014049231  0.013065924            2 
 3961000   0.62283753    -8.428738    667.14198  0.014035639  0.013061382            3 
 3962000    0.6250869   -8.4447855    666.58986  0.014020483  0.013056847            2 
 3963000    0.6211151   -8.4464163    667.00987  0.014025777  0.013052309            3 
 3964000   0.60481256   -8.4077627    668.28989  0.014049148  0.013047779            5 
 3965000   0.61926771   -8.4242326    666.70786  0.014012355  0.013043254            3 
 3966000   0.61536842   -8.4427258    665.96013  0.013993111  0.013038725            2 
 3967000    0.6294523   -8.4292742    667.21571  0.014015959  0.013034196            2 
 3968000   0.62383177    -8.419048    668.57507  0.014040975  0.013029678            3 
 3969000   0.61465703   -8.4184598    667.17781    0.0140081   0.01302516            2 
 3970000   0.61988657   -8.4312772    667.44269  0.014010132  0.013020651            3 
 3971000    0.6162347   -8.4292728    667.76451  0.014013357  0.013016139            3 
 3972000   0.60152455   -8.4383553    666.84515  0.013990541   0.01301163            2 
 3973000   0.61052629   -8.4384943    667.57602   0.01400235   0.01300711            2 
 3974000    0.6241153   -8.4580933    667.04651  0.013987722  0.013002599            7 
 3975000   0.62556704   -8.4426444    668.15904  0.014007527  0.012998091            2 
 3976000   0.62604045   -8.4162611    669.47708  0.014031629  0.012993579            2 
 3977000   0.61116595   -8.4337757    668.22617  0.014001889  0.012989077            2 
 3978000   0.62373386    -8.445342    666.90827  0.013970762  0.012984579            4 
 3979000   0.62265099   -8.4495028     666.3079  0.013954677   0.01298007            8 
 3980000   0.61459408    -8.435467    667.44775  0.013975037  0.012975565            4 
 3981000   0.60068043   -8.4449221    666.89952   0.01396005  0.012971066            1 
 3982000   0.60996568   -8.4289545    667.70937  0.013973493  0.012966571            3 
 3983000   0.61213622   -8.4159577    667.08435  0.013956907  0.012962074            2 
 3984000   0.60172353   -8.4321041    666.82694   0.01394802   0.01295758            3 
 3985000   0.60127082   -8.4465531    667.40803  0.013956672  0.012953089            5 
 3986000   0.59682759   -8.4414131    666.91186  0.013942797  0.012948597            3 
 3987000   0.61495841    -8.468082    666.44839  0.013929613  0.012944103            2 
 3988000   0.61400643   -8.4385041    666.86449  0.013934815  0.012939612            6 
 3989000   0.61155709   -8.4280435     665.8758  0.013910667  0.012935122            3 
 3990000   0.61714162   -8.4383345    666.43082  0.013918772  0.012930625            3 
 3991000   0.62057079   -8.4590512    665.70303  0.013900088  0.012926135            1 
 3992000   0.60971104   -8.4170892    667.11764  0.013926136   0.01292165            1 
 3993000   0.61105264   -8.4441261    667.41694  0.013928895  0.012917158            1 
 3994000   0.61585432   -8.4211481    666.90603  0.013914748  0.012912676            2 
 3995000   0.62584582   -8.4599301    667.32895  0.013920087  0.012908205            2 
 3996000   0.61062807   -8.4436151    665.61916  0.013880947  0.012903727            2 
 3997000   0.60200523   -8.4436683    666.31901  0.013892065  0.012899246            2 
 3998000   0.61578537   -8.4421257    665.69658  0.013875616  0.012894771            4 
 3999000   0.60275618   -8.4325312     667.0029  0.013899369   0.01289029            3 
 4000000   0.60586203   -8.4559078    665.97369  0.013874452  0.012885812            2 
 4001000     0.610071   -8.4440876    667.32172  0.013899061  0.012881338            1 
 4002000   0.62041161   -8.4515863     666.9136   0.01388709  0.012876863            7 
 4003000    0.6235556   -8.4460646    665.50355  0.013854267  0.012872392            1 
 4004000   0.61133659   -8.4219238    667.22489  0.013886632  0.012867928            2 
 4005000   0.62764654   -8.4118762    666.76811   0.01387366  0.012863462            3 
 4006000   0.61742989   -8.4344272    667.64471  0.013888432  0.012859004            3 
 4007000   0.61351501   -8.4303525    667.48531  0.013881651  0.012854548            2 
 4008000   0.60836737   -8.4619639    666.94996  0.013867057  0.012850092            2 
 4009000   0.62172765   -8.4446124    666.08603   0.01384564  0.012845634            3 
 4010000   0.62705047   -8.4357805    666.63345  0.013853563  0.012841181            3 
 4011000   0.60100008   -8.4547682    665.95432  0.013835999   0.01283673            7 
 4012000   0.60270394   -8.4437698    666.24477  0.013838584  0.012832279            2 
 4013000   0.60427904   -8.4473495    667.74038  0.013866193  0.012827831            4 
 4014000   0.61291646    -8.446849    667.38737   0.01385541  0.012823393            2 
 4015000   0.60737995   -8.4504424    665.89943  0.013821076  0.012818953            2 
 4016000   0.62081898   -8.4377049    666.71899   0.01383464  0.012814513            4 
 4017000   0.61397226   -8.4435369    666.83794  0.013833664   0.01281007            2 
 4018000   0.60536137   -8.4195752     667.5522  0.013845035   0.01280563            2 
 4019000   0.61734235   -8.4495771    666.60541  0.013821958  0.012801195            4 
 4020000   0.60556103   -8.4563332    665.80923  0.013802015  0.012796758            3 
 4021000   0.62596168   -8.4675246    665.65554  0.013795398  0.012792318            3 
 4022000   0.60594595   -8.4568516    666.15898  0.013802399  0.012787881            3 
 4023000   0.61417646   -8.4331038    666.96658  0.013815697  0.012783453            7 
 4024000   0.60855792   -8.4470337    667.14314   0.01381592   0.01277902            2 
 4025000   0.60506083   -8.4601426    666.26574  0.013794322  0.012774592            5 
 4026000   0.60570022   -8.4583294    666.91489  0.013804332   0.01277016            3 
 4027000   0.61206716   -8.4312861    667.34462  0.013809797  0.012765731            5 
 4028000   0.62254529   -8.4811089     666.3231  0.013785235  0.012761309            1 
 4029000   0.59953728   -8.4476976    666.86547  0.013793031  0.012756883            3 
 4030000   0.60199391    -8.453187    666.52211  0.013782509  0.012752461            3 
 4031000   0.60762434   -8.4663733     666.0966  0.013770293  0.012748042            2 
 4032000   0.60553209   -8.4578714    666.24793  0.013770005  0.012743625            3 
 4033000   0.60299748   -8.4531168    665.91487  0.013759709  0.012739213            4 
 4034000   0.61520346   -8.4409737    667.30693  0.013785055  0.012734793            2 
 4035000   0.60909236   -8.4599834      667.051  0.013776353  0.012730388            3 
 4036000   0.62407638   -8.4584876    666.25831  0.013756572  0.012725975            5 
 4037000   0.58780531   -8.4439113    666.55232  0.013759234  0.012721571            3 
 4038000   0.59969886   -8.4682881    666.95976  0.013764235  0.012717169            2 
 4039000   0.60210616   -8.4587527     667.0208  0.013762086  0.012712769            4 
 4040000   0.60869084   -8.4571373    667.49493   0.01376846   0.01270837            4 
 4041000   0.61456795   -8.4716324    667.52731   0.01376572  0.012703975            1 
 4042000   0.60353432   -8.4832464    667.10874  0.013753685  0.012699574            4 
 4043000   0.60837341   -8.4624895     665.8658  0.013724664  0.012695173            4 
 4044000   0.61016965   -8.4456615    666.34585  0.013731162  0.012690776            3 
 4045000   0.62012665   -8.4382136    666.93666  0.013739939  0.012686381            2 
 4046000   0.60737938    -8.458187    667.01796  0.013738218  0.012681992            3 
 4047000   0.61689411   -8.4512048    666.40457  0.013722193  0.012677602            3 
 4048000   0.61761954   -8.4575862     667.4104  0.013739509  0.012673219            3 
 4049000   0.60375981   -8.4580823     665.5332  0.013697481   0.01266883            2 
 4050000   0.60362748   -8.4717111    665.85236  0.013700666   0.01266444            2 
 4051000    0.6033814   -8.4670079      665.553  0.013691126  0.012660054            2 
 4052000   0.59794435     -8.48551     667.6491  0.013730855  0.012655671            2 
 4053000   0.59119213   -8.4513082    665.89819  0.013691467  0.012651288            2 
 4054000   0.59405321   -8.4686958    667.26485  0.013716182  0.012646902            2 
 4055000   0.59954581   -8.4594426    666.90839  0.013705475  0.012642522            2 
 4056000   0.59297318   -8.4680116    666.54505   0.01369463   0.01263814            4 
 4057000    0.5954783   -8.4637713    666.35039  0.013687256  0.012633763            4 
 4058000   0.61548839   -8.4659188    666.26803  0.013682192  0.012629387            1 
 4059000     0.602783   -8.4574461    666.93741  0.013692564   0.01262501            2 
 4060000   0.59612729   -8.4624964    666.15748  0.013673183  0.012620631            2 
 4061000   0.59030596   -8.4637789    665.72257  0.013660892  0.012616251            3 
 4062000   0.60092051   -8.4641959     665.0831   0.01364441  0.012611874            2 
 4063000   0.60497986    -8.494413    666.36098  0.013667261  0.012607495            2 
 4064000   0.60802346   -8.4771948    667.19916  0.013681085  0.012603122            2 
 4065000   0.60538156   -8.4867431    665.29242  0.013638631   0.01259875            2 
 4066000   0.59604953   -8.4726237    664.67781   0.01362268  0.012594376            2 
 4067000   0.59177094   -8.4780758    664.75767  0.013620967  0.012590002            5 
 4068000    0.5947687   -8.4677661    665.17402  0.013626148  0.012585634            2 
 4069000   0.59128557   -8.4771632    667.22517  0.013664806  0.012581272            4 
 4070000   0.59869696   -8.4699479    667.41273  0.013665289  0.012576913            1 
 4071000   0.60954464   -8.4588866    666.22227  0.013637564  0.012572555            2 
 4072000   0.62006257   -8.4490823     666.7242  0.013644487  0.012568205            3 
 4073000   0.59684542    -8.460508    665.78293  0.013621878  0.012563852            3 
 4074000   0.59902227   -8.4781218    665.33848  0.013609444  0.012559505            2 
 4075000   0.58605787   -8.4727451    665.92714  0.013618142   0.01255516            2 
 4076000   0.60647707   -8.4760667    666.45808  0.013625656   0.01255081            2 
 4077000   0.59244621   -8.4595709    666.47306   0.01362262  0.012546469            3 
 4078000   0.59529153   -8.4796586    665.97622  0.013609127  0.012542129            2 
 4079000   0.59466583   -8.4711677    666.34268  0.013613277  0.012537796            3 
 4080000   0.59238718   -8.4472182    666.19397  0.013606903  0.012533459            2 
 4081000   0.60060533   -8.4775914    667.54888  0.013631236  0.012529122            2 
 4082000   0.58443053   -8.4702478     665.3796  0.013583611  0.012524789            2 
 4083000   0.59027479   -8.4685678    666.94343  0.013612202  0.012520455            3 
 4084000   0.60283249   -8.4806576    666.34279  0.013596613   0.01251613            2 
 4085000   0.59633787   -8.4693493    667.13352  0.013609415  0.012511803            3 
 4086000   0.59237719   -8.4565819    666.67692  0.013596772  0.012507475            2 
 4087000   0.60358178   -8.4663527    666.22766  0.013584285  0.012503148            1 
 4088000   0.58152428   -8.4658857    665.82973   0.01357285  0.012498824            1 
 4089000   0.60400222   -8.4773863    666.95334   0.01359243  0.012494496            3 
 4090000   0.59670309   -8.4433551    666.90543   0.01358813  0.012490178            5 
 4091000   0.60197025   -8.4621242    666.51535  0.013576863  0.012485862            3 
 4092000   0.59272949   -8.4711964    667.06089  0.013584655  0.012481549            3 
 4093000   0.60290665   -8.4635941    666.79116  0.013575844  0.012477237            2 
 4094000   0.59820476   -8.4464875    667.15675   0.01357997   0.01247293            2 
 4095000   0.60235107   -8.4575215    666.30416  0.013559303  0.012468622            2 
 4096000   0.61036968   -8.4697314    666.77382  0.013565548  0.012464307            2 
 4097000   0.60198092   -8.4810719    666.47041  0.013556066  0.012459998            2 
 4098000   0.59923159   -8.4622398    666.01948  0.013543588  0.012455689            1 
 4099000   0.58798583   -8.4956219    665.95028  0.013538877  0.012451375            2 
 4100000   0.60911723   -8.4651457    664.84926  0.013513196  0.012447058            2 
 4101000   0.59938421   -8.4754189    665.89455  0.013531142  0.012442747            1 
 4102000   0.60357936   -8.4820836    667.18092  0.013553976  0.012438441            2 
 4103000   0.59767415   -8.4867085    664.69372  0.013500157  0.012434133            2 
 4104000   0.60743855   -8.4754024    666.06688   0.01352475  0.012429838            2 
 4105000   0.58421625   -8.4592892    666.83165   0.01353698  0.012425534            4 
 4106000   0.59190795   -8.4854266    665.86836  0.013514133  0.012421236            2 
 4107000   0.60487606   -8.4686881    667.15349  0.013536918  0.012416934            1 
 4108000   0.58881387   -8.4944021     666.0404  0.013511043  0.012412633            1 
 4109000   0.60746134   -8.4742799    666.49742  0.013517024  0.012408335            2 
 4110000   0.60204357   -8.4992825    666.10723  0.013505824  0.012404038            2 
 4111000   0.59815816   -8.4686845    666.25023  0.013505437  0.012399744            2 
 4112000   0.59355335   -8.4837189    666.79853  0.013513265  0.012395458            2 
 4113000   0.59163538   -8.5056941    665.57213  0.013485131  0.012391166            3 
 4114000    0.5828937   -8.4794829    667.63528  0.013523644  0.012386876            1 
 4115000   0.58866948   -8.4820517    666.13818   0.01349004  0.012382588            2 
 4116000   0.60239178    -8.490837    664.84288  0.013460538  0.012378306            2 
 4117000   0.58427729   -8.4930586    664.91673  0.013458763  0.012374022            1 
 4118000   0.60229465   -8.4896186    665.88129  0.013475014  0.012369736            1 
 4119000   0.59981409   -8.4916879    666.05669  0.013475291  0.012365455            2 
 4120000   0.59879264   -8.5020301    665.33863  0.013457496  0.012361174            3 
 4121000   0.58603521   -8.4832757    666.80507  0.013483885  0.012356903            2 
 4122000   0.60672371   -8.4942022    665.79313  0.013460156  0.012352627            1 
 4123000   0.60776003   -8.4989639    665.32084  0.013447345  0.012348356            2 
 4124000   0.57916756   -8.4823222    666.21673  0.013462187  0.012344084            1 
 4125000   0.57741479   -8.4896706    667.11284  0.013477027  0.012339817            1 
 4126000   0.60355016   -8.4706784    666.28101   0.01345696  0.012335555            3 
 4127000    0.5916089   -8.4995881    665.61521  0.013440255  0.012331289            3 
 4128000   0.59083019    -8.485726    666.66055  0.013458102  0.012327026            3 
 4129000   0.59684434   -8.4949352    665.50241  0.013431469  0.012322764            2 
 4130000   0.59164639    -8.508544    665.42187  0.013426591    0.0123185            2 
 4131000   0.58267503    -8.497427    665.23979  0.013419668  0.012314239            3 
 4132000   0.59517206   -8.4955434    665.15805  0.013414772  0.012309973            1 
 4133000   0.59967117   -8.4922413    665.93156  0.013427122  0.012305716            1 
 4134000   0.61121233   -8.4961836    665.68674  0.013418939  0.012301456            3 
 4135000    0.5934847   -8.5057236    665.53962  0.013412729    0.0122972            2 
 4136000   0.60198473   -8.5014663    666.19864  0.013422764  0.012292943            7 
 4137000   0.58477976   -8.4768017    666.31119  0.013421787  0.012288688            2 
 4138000   0.59815674   -8.4801695    666.40845  0.013420502   0.01228444            1 
 4139000   0.60761705   -8.4987762    666.15091  0.013412074  0.012280194            2 
 4140000   0.58600829   -8.5061137    665.40696   0.01339386  0.012275945            3 
 4141000   0.57852936   -8.4842587    667.50953  0.013432937  0.012271701            2 
 4142000   0.60456571   -8.5289731    665.44021  0.013388062  0.012267457            1 
 4143000    0.5919525   -8.5015325    665.10323  0.013378052  0.012263215            2 
 4144000   0.59218783   -8.4941995     665.1331  0.013375424  0.012258981            1 
 4145000   0.60193711   -8.5072637    665.91511  0.013387919  0.012254744            2 
 4146000   0.57178766   -8.5055141    667.00926  0.013406682  0.012250509            2 
 4147000   0.58508913   -8.5012556    665.12333  0.013365552  0.012246278            3 
 4148000   0.57884227   -8.4923867    666.56073  0.013391207  0.012242043            2 
 4149000   0.57863708     -8.49718    665.08417  0.013358323  0.012237809            1 
 4150000   0.58264049   -8.5104967    664.73052  0.013348002  0.012233579            2 
 4151000   0.59001723   -8.4834096    666.50407  0.013380392  0.012229353            4 
 4152000   0.59010914   -8.5045678    665.87678  0.013364579   0.01222513            2 
 4153000   0.59137932   -8.4951589    665.46598  0.013353118  0.012220905            3 
 4154000   0.58330928   -8.4973695    665.92479  0.013359107  0.012216691            4 
 4155000   0.59001308   -8.4837869    664.93685  0.013336078  0.012212474            2 
 4156000   0.58807721   -8.4992655    666.34992  0.013361203  0.012208256            2 
 4157000   0.59450342   -8.4754001    666.15913  0.013354164  0.012204048            2 
 4158000   0.58304182   -8.4784026     665.6139  0.013340025  0.012199839            2 
 4159000   0.57636857   -8.4962814    665.80105  0.013340568  0.012195636            3 
 4160000   0.57688127   -8.5017623    665.17683  0.013324856   0.01219143            3 
 4161000   0.58410108   -8.4956011    664.43374  0.013306772  0.012187222            2 
 4162000    0.5929107   -8.4940818    665.59919   0.01332691  0.012183013            1 
 4163000   0.59816281   -8.4928329    665.87149  0.013329159  0.012178805            2 
 4164000   0.57906954   -8.5124031    666.00792  0.013328689  0.012174596            2 
 4165000    0.5667508   -8.4693201    665.82388  0.013321806  0.012170387            2 
 4166000   0.57477046   -8.4935705    666.17848  0.013325702  0.012166185            2 
 4167000   0.57562429   -8.5136158    664.68197  0.013292576  0.012161982            3 
 4168000   0.57215607   -8.5108331    665.63675  0.013308476  0.012157778            4 
 4169000   0.58252953   -8.4845168    665.85285  0.013309604  0.012153573            2 
 4170000   0.57894078   -8.5047407    664.71907  0.013283754  0.012149371            5 
 4171000   0.59167858   -8.5048803    664.58601  0.013277911  0.012145175            6 
 4172000   0.58819535   -8.4978031     664.8827  0.013280655  0.012140976            4 
 4173000   0.58062415   -8.5028359     664.8884  0.013277586  0.012136786            2 
 4174000   0.56636873   -8.4970191    665.05201  0.013277671  0.012132597            3 
 4175000   0.58159966   -8.4837594    664.85258  0.013270511  0.012128411            3 
 4176000   0.57351718   -8.4989748    665.86271   0.01328749   0.01212422            1 
 4177000   0.57863831   -8.4992571    665.54081  0.013277887  0.012120041            4 
 4178000   0.57435165   -8.5008166    664.76754  0.013259286  0.012115862            1 
 4179000    0.5819843   -8.5005827    664.57253  0.013252224  0.012111684            2 
 4180000   0.58141492   -8.5029397    666.36044  0.013284698  0.012107501            2 
 4181000   0.58798634   -8.5257708    665.46686   0.01326371  0.012103321            2 
 4182000   0.59618403   -8.4951179    664.25668  0.013236424  0.012099146            2 
 4183000   0.58015849   -8.5022432    664.36958  0.013235508  0.012094976            2 
 4184000   0.58379978   -8.5039345    665.14803   0.01324785  0.012090803            2 
 4185000   0.57816056    -8.500368    664.75608  0.013236879  0.012086627            2 
 4186000   0.58175053   -8.4927172    666.12182  0.013260906  0.012082461            3 
 4187000   0.58077019   -8.4971695    664.56434   0.01322674  0.012078291            2 
 4188000    0.5975407   -8.5113657    666.00262  0.013252201  0.012074126            3 
 4189000   0.58244242   -8.4875612    665.48348   0.01323871   0.01206996            7 
 4190000   0.57640051   -8.5138011    665.40775  0.013234044    0.0120658            3 
 4191000   0.59392812   -8.4983433    664.80027  0.013218808  0.012061638            2 
 4192000   0.57543619   -8.5000328    664.83574  0.013216359  0.012057482            1 
 4193000   0.59953422   -8.5063416    666.30366  0.013242381  0.012053327            1 
 4194000    0.5744898   -8.5131183    665.03682  0.013214052  0.012049172            3 
 4195000   0.57663387   -8.5128393    666.21457  0.013234298  0.012045017            2 
 4196000   0.56663603   -8.5002891    665.93964  0.013225684  0.012040871            2 
 4197000   0.58653432    -8.506285    664.66182  0.013197161  0.012036721            2 
 4198000   0.58870962   -8.5020182    666.06927  0.013221956  0.012032576            2 
 4199000    0.5801739   -8.5071867    665.94961  0.013216433  0.012028427            3 
 4200000    0.5691302   -8.4954443    664.58045   0.01318612  0.012024278            3 
 4201000    0.5714975   -8.5085104    664.26983   0.01317682  0.012020127            2 
 4202000   0.57888109   -8.5256303    665.95789  0.013207161  0.012015975            2 
 4203000    0.5864518   -8.5166412    664.09275  0.013167038  0.012011822            2 
 4204000   0.58855399   -8.5032093    665.66969  0.013195165  0.012007681            2 
 4205000   0.58069796   -8.5055063      665.435  0.013187376  0.012003538            1 
 4206000   0.57530017   -8.5251205    665.76371  0.013190754  0.011999395            2 
 4207000   0.57293839   -8.4979039    664.81857  0.013168897  0.011995257            2 
 4208000   0.58994183   -8.5040131    664.38493  0.013157179  0.011991116            2 
 4209000    0.5811354   -8.5097255    664.81086  0.013162486  0.011986979            1 
 4210000   0.57231971   -8.5287629    665.20838  0.013167228  0.011982845            2 
 4211000   0.58276758    -8.497414    664.83799  0.013156772  0.011978715            1 
 4212000    0.5701994   -8.5247736    664.37615  0.013144511  0.011974585            2 
 4213000   0.58268032   -8.5115245     664.0785  0.013135503  0.011970455            3 
 4214000   0.57453671   -8.5281885    664.40769  0.013138896  0.011966329            2 
 4215000   0.57128224   -8.5238293    664.83589  0.013144245  0.011962206            1 
 4216000   0.57254963   -8.5317015    665.18067  0.013147942  0.011958079            1 
 4217000   0.57062413   -8.5289722    664.62588  0.013133861  0.011953955            1 
 4218000   0.57534404   -8.5312053    664.23615  0.013123047  0.011949832            3 
 4219000    0.5743899     -8.51727    666.00846  0.013154943  0.011945712            3 
 4220000   0.58531409   -8.5227149    665.09434  0.013133774  0.011941599            1 
 4221000   0.57861325   -8.5217055     666.2389  0.013153259  0.011937479            1 
 4222000   0.58536987   -8.5036241    664.37166  0.013113289  0.011933366            1 
 4223000    0.5768149   -8.5161858    665.20013  0.013126532  0.011929253            2 
 4224000   0.57506003    -8.523165    665.53153  0.013129962  0.011925145            2 
 4225000   0.57775729   -8.5076332    665.02914  0.013116946   0.01192104            2 
 4226000   0.58968625   -8.5150645    665.00062  0.013113279  0.011916933            2 
 4227000   0.57150102   -8.5196907    663.25816  0.013075825  0.011912831            3 
 4228000    0.5828463    -8.519692    664.76824  0.013102496  0.011908731            2 
 4229000   0.58166113   -8.5028604    664.69081  0.013097872  0.011904625            3 
 4230000   0.57091991   -8.5174563    665.16867   0.01310419  0.011900524            2 
 4231000   0.57753096   -8.5000544     665.2219  0.013102141  0.011896425            1 
 4232000    0.5664706   -8.5244915    665.92223  0.013112835  0.011892325            2 
 4233000   0.57599468   -8.5200071    664.24413  0.013076701   0.01188823            2 
 4234000   0.57842077   -8.5077104    664.44931  0.013077651  0.011884136            3 
 4235000   0.57939237   -8.5253283    665.33824  0.013092055  0.011880041            3 
 4236000    0.5834927    -8.510219     664.5632  0.013073717  0.011875949            3 
 4237000   0.56701585   -8.5209342    664.42874  0.013067987  0.011871862            1 
 4238000   0.56623603   -8.5112041     664.4447  0.013065218   0.01186777            1 
 4239000   0.56667042   -8.5232555     664.6626  0.013066419  0.011863685            4 
 4240000   0.57628173   -8.5124432    665.19287  0.013073759  0.011859598            3 
 4241000   0.56782176   -8.5290502     664.4398  0.013055879  0.011855511            2 
 4242000    0.5705958   -8.5021358    666.08406  0.013085102  0.011851428            1 
 4243000   0.57547872   -8.5196253    663.96243  0.013040349  0.011847344            2 
 4244000   0.56918645   -8.5232106     666.2417  0.013082032  0.011843262            1 
 4245000   0.56496731    -8.524192    663.80928  0.013031199  0.011839184            1 
 4246000   0.57851611   -8.5080878    665.07872  0.013053044  0.011835104            3 
 4247000   0.56017809   -8.5252776    664.87879  0.013046048  0.011831027            3 
 4248000   0.58556675   -8.5274295    665.57017   0.01305654  0.011826947            2 
 4249000   0.56884277   -8.5466009    664.09036  0.013024444  0.011822875            2 
 4250000   0.57705203   -8.5303759    664.47683  0.013028958  0.011818801            2 
 4251000   0.57753056    -8.514476    664.59286  0.013028167  0.011814728            3 
 4252000    0.5625336   -8.5273967    664.01863  0.013013849  0.011810656            2 
 4253000   0.56895315   -8.5107221    665.59562  0.013041689  0.011806592            1 
 4254000   0.57142775    -8.523254    664.03743  0.013008099  0.011802528            4 
 4255000   0.57963159   -8.5064614    664.67718  0.013017571  0.011798461            2 
 4256000   0.57115393   -8.5073562    664.07311  0.013002685  0.011794403            2 
 4257000   0.57501242   -8.5187698    665.06611  0.013019069   0.01179034            1 
 4258000   0.57256057   -8.5487582     663.7733   0.01299071   0.01178628            3 
 4259000   0.56560293   -8.5111099    664.68298  0.013005459  0.011782223            5 
 4260000   0.57228284    -8.531554    664.51168  0.012999055  0.011778173            2 
 4261000   0.57538508   -8.5098473    664.35879  0.012993014  0.011774118            5 
 4262000   0.56506664   -8.5157835     665.7769  0.013017693  0.011770066            2 
 4263000   0.57784973   -8.5162062    664.21936  0.012984193  0.011766011            2 
 4264000    0.5691375   -8.5114528    665.38514  0.013003931  0.011761967            4 
 4265000   0.56308021   -8.5314987    664.14381  0.012976628  0.011757922            3 
 4266000   0.56975271    -8.544418    664.60341  0.012982564  0.011753875            2 
 4267000   0.56530385   -8.5162849    665.62153  0.012999405  0.011749832            2 
 4268000   0.56798231   -8.5305188    664.53354  0.012975116   0.01174579            3 
 4269000   0.57822709   -8.5276635    664.56006  0.012972594  0.011741747            2 
 4270000   0.57428794   -8.5213433    665.32939  0.012984571  0.011737706            2 
 4271000   0.57130048   -8.5369558    664.46654  0.012964695  0.011733669            3 
 4272000   0.57818805   -8.5283177    665.72802  0.012986268  0.011729632            2 
 4273000   0.56507906   -8.5205938    664.46509  0.012958598  0.011725598            2 
 4274000   0.56509844   -8.5306334    665.04581  0.012966889  0.011721558            4 
 4275000   0.55251738   -8.5251125      664.079   0.01294501  0.011717524            2 
 4276000   0.56564673    -8.530764    664.82638  0.012956548  0.011713494            3 
 4277000   0.57639961    -8.539395    664.03344  0.012938069  0.011709458            3 
 4278000   0.57015545   -8.5224152    664.95646  0.012953024  0.011705432            4 
 4279000   0.55597581   -8.5356305      665.681  0.012964108  0.011701413            4 
 4280000   0.56675403   -8.5266025    663.87097  0.012925837  0.011697388            5 
 4281000   0.56331579    -8.549316    665.15976  0.012947905  0.011693364            2 
 4282000   0.55981207   -8.5369529    664.19803  0.012926164  0.011689335            3 
 4283000   0.56045819   -8.5164724    663.91436  0.012917627  0.011685308            2 
 4284000   0.57227882   -8.5251826     663.1943  0.012900605  0.011681287            2 
 4285000   0.57316276   -8.5476572    664.67815  0.012926452   0.01167727            3 
 4286000   0.56861135   -8.5260171    663.83932  0.012907126  0.011673253            1 
 4287000   0.57889198   -8.5425701    664.40157  0.012915045  0.011669233            2 
 4288000   0.55501166   -8.5276658    665.47724  0.012932938  0.011665215            1 
 4289000   0.56257281   -8.5220052     664.5412  0.012911735  0.011661199            3 
 4290000    0.5689347   -8.5542275    663.95632  0.012897364  0.011657188            3 
 4291000   0.56960891   -8.5343906    663.01752  0.012876127  0.011653177            3 
 4292000    0.5648077   -8.5421911    664.56266  0.012903127  0.011649167            3 
 4293000   0.55088505    -8.529591    662.61544  0.012862323  0.011645157            2 
 4294000   0.56733294    -8.524579    664.55247   0.01289692  0.011641154            3 
 4295000   0.56173232   -8.5383067    664.05959  0.012884354  0.011637149            2 
 4296000   0.55794702   -8.5387029    663.90278  0.012878313  0.011633143            3 
 4297000   0.57706899   -8.5143767    664.60499  0.012888934  0.011629143            4 
 4298000   0.56499478   -8.5492863    664.29741  0.012879972  0.011625144            3 
 4299000   0.57237134   -8.5278562    663.56921   0.01286286  0.011621143            3 
 4300000   0.55574117   -8.5453016    664.49149  0.012877742  0.011617145            1 
 4301000   0.56073294   -8.5373238    663.63534   0.01285816   0.01161315            4 
 4302000   0.56796269   -8.5346425    664.42007  0.012870372  0.011609157            4 
 4303000      0.56016    -8.529467    665.52396  0.012888759  0.011605169            4 
 4304000   0.56132952   -8.5433707    663.46078  0.012845817   0.01160118            1 
 4305000   0.57088911   -8.5416052    665.28512  0.012878148  0.011597189            4 
 4306000   0.55175873   -8.5320276     664.8228   0.01286621  0.011593198            2 
 4307000   0.56528271   -8.5387112    664.73915  0.012861604  0.011589211            3 
 4308000   0.56309633   -8.5423705    665.14993  0.012866565  0.011585234            3 
 4309000   0.54820328   -8.5446259     665.0266  0.012861194  0.011581256            2 
 4310000   0.56729233   -8.5339664    663.81817  0.012834845  0.011577276            2 
 4311000   0.56513866   -8.5399282    664.19081  0.012839071  0.011573305            2 
 4312000   0.56389789   -8.5451857    664.17175  0.012835725  0.011569325            4 
 4313000   0.55677653   -8.5266273    663.60608  0.012821819  0.011565353            5 
 4314000   0.55818889   -8.5433087    664.55809  0.012837237  0.011561383            6 
 4315000   0.56259029   -8.5243714    664.68543  0.012836721  0.011557412            1 
 4316000   0.56800169   -8.5313415    663.98114  0.012820149  0.011553444            4 
 4317000   0.58040214   -8.5454215    663.61067  0.012810028  0.011549481            4 
 4318000   0.56943559   -8.5487172    664.79475  0.012829913  0.011545517            3 
 4319000   0.56721363   -8.5150047    664.75065  0.012826091  0.011541553            2 
 4320000   0.57422124   -8.5452618    663.87307  0.012806193  0.011537594            2 
 4321000   0.57052956   -8.5320769    664.78564  0.012820829  0.011533635            3 
 4322000   0.56216249   -8.5476328    663.17487  0.012786805  0.011529674            3 
 4323000   0.56224013   -8.5426117    664.59942  0.012811308  0.011525712            1 
 4324000   0.55735483   -8.5481947    664.06486  0.012798043  0.011521755            3 
 4325000   0.57529602   -8.5493309    664.63903  0.012806147  0.011517808            2 
 4326000   0.55296855   -8.5429282    664.53583  0.012801199  0.011513854            2 
 4327000   0.55565601   -8.5346604    664.27351  0.012793188  0.011509901            4 
 4328000   0.55629803   -8.5463418    665.39507  0.012811827  0.011505949            3 
 4329000   0.55730451   -8.5768308    663.42601  0.012770963  0.011502002            4 
 4330000   0.54709592   -8.5627243    663.57873  0.012770953  0.011498054            2 
 4331000   0.54592227   -8.5380557    664.84786  0.012792424  0.011494108            3 
 4332000   0.56369343   -8.5506006    664.22904  0.012777567  0.011490163            1 
 4333000    0.5595628    -8.547977    664.10727  0.012772276  0.011486218            3 
 4334000    0.5551305   -8.5487811    663.62667  0.012760088  0.011482277            4 
 4335000   0.54133902   -8.5505429    663.84205  0.012761285  0.011478338            3 
 4336000   0.56610935   -8.5562314    664.39476  0.012768964  0.011474398            1 
 4337000   0.56185753   -8.5569925    664.97704  0.012777209   0.01147046            2 
 4338000   0.56764602   -8.5461987     664.4162  0.012763489  0.011466528            3 
 4339000   0.56294487   -8.5608516    664.03781  0.012753281  0.011462595            6 
 4340000   0.55868891   -8.5462924    663.10191  0.012732371  0.011458668            4 
 4341000    0.5606192   -8.5367743    664.44044  0.012755134  0.011454743            2 
 4342000   0.55361592   -8.5282643    663.78741  0.012739663  0.011450815            7 
 4343000    0.5621398   -8.5510814    663.52728  0.012731738  0.011446892            2 
 4344000   0.56126684   -8.5506285    664.56933  0.012748798  0.011442966            2 
 4345000   0.54531834   -8.5434887    663.83532  0.012731786  0.011439043            5 
 4346000   0.56343256   -8.5549102    662.42484  0.012701811  0.011435121            2 
 4347000   0.54712707   -8.5537205    663.73367   0.01272398  0.011431202            4 
 4348000   0.56088129   -8.5600725    664.28834  0.012731684  0.011427282            3 
 4349000   0.54560557   -8.5364447    664.99543  0.012742305  0.011423365            2 
 4350000   0.54508556   -8.5382774    663.61618  0.012712954  0.011419447            5 
 4351000    0.5504133   -8.5476371    663.33324  0.012704613  0.011415529            3 
 4352000   0.55261565    -8.562737    663.70584  0.012708828  0.011411616            4 
 4353000   0.55307745   -8.5582005    664.12777  0.012713986  0.011407701            4 
 4354000   0.55292342   -8.5395469    664.02919  0.012709179  0.011403793            2 
 4355000    0.5396579   -8.5690714    664.30329  0.012711506  0.011399883            2 
 4356000   0.54249008    -8.550464      664.176  0.012706152  0.011395973            3 
 4357000   0.56619201   -8.5487635    664.28504  0.012705322  0.011392072            3 
 4358000   0.54864621   -8.5497224    663.92289  0.012695481  0.011388161            4 
 4359000   0.55814473   -8.5407399    663.97049  0.012693479  0.011384259            3 
 4360000   0.55675714   -8.5461765     664.2342  0.012695608  0.011380357            3 
 4361000   0.55238639   -8.5650595    664.12288  0.012690569  0.011376457            1 
 4362000   0.55683194   -8.5321107    663.90647  0.012683526  0.011372555            4 
 4363000   0.55195289   -8.5543526    663.94435  0.012681342  0.011368656            4 
 4364000    0.5623579   -8.5484768    664.81362  0.012695036  0.011364764            2 
 4365000   0.54799321   -8.5521239    663.79674  0.012672714  0.011360872            2 
 4366000   0.54876955   -8.5381423    664.63865   0.01268588  0.011356978            2 
 4367000   0.53866269    -8.548431    664.66152  0.012683412  0.011353087            3 
 4368000   0.56907578   -8.5701669    662.99354  0.012648686  0.011349199            2 
 4369000   0.55342308   -8.5518859     663.4812  0.012655093  0.011345315            2 
 4370000   0.55066223   -8.5431451    665.71253  0.012694747  0.011341431            3 
 4371000    0.5466739   -8.5561261    662.99338  0.012640002  0.011337549            1 
 4372000   0.55554978   -8.5585633    664.55764  0.012666927  0.011333663            3 
 4373000   0.54259964   -8.5629077    663.29464  0.012639962  0.011329781            3 
 4374000   0.54380702   -8.5432051    664.07939  0.012652023  0.011325907            3 
 4375000   0.53599863   -8.5491632    663.93448  0.012646371  0.011322027            5 
 4376000   0.55352159   -8.5652512    664.61714  0.012656481  0.011318151            2 
 4377000   0.54221664   -8.5654602    663.07041  0.012624142  0.011314269            2 
 4378000   0.55157863   -8.5615894    663.73136  0.012633839  0.011310392            3 
 4379000   0.55454136   -8.5479424    664.72399  0.012649844  0.011306514            3 
 4380000   0.56445422   -8.5504591    662.81862  0.012610704  0.011302638            2 
 4381000   0.57182157   -8.5473897    663.57883  0.012622286  0.011298765            2 
 4382000   0.55880141    -8.554897     664.2993  0.012633107  0.011294898            5 
 4383000   0.55318953    -8.570275    663.48517  0.012614746  0.011291027            4 
 4384000   0.55029685   -8.5648827    662.38085  0.012590877   0.01128716            3 
 4385000   0.56620381   -8.5688091    663.21737  0.012603903  0.011283292            3 
 4386000   0.55537018   -8.5617574    664.05168  0.012616881  0.011279424            2 
 4387000   0.54501456   -8.5897405    663.09355  0.012595805  0.011275561            3 
 4388000   0.54396626   -8.5877374    662.39346  0.012579639  0.011271697            4 
 4389000   0.54085531   -8.5455668    664.11262  0.012609414  0.011267837            6 
 4390000   0.54676875   -8.5695853    663.73337  0.012599343   0.01126398            3 
 4391000   0.54243009    -8.564457    663.46809  0.012591439  0.011260125            2 
 4392000   0.55096669   -8.5745455     662.8741  0.012577301  0.011256269            2 
 4393000   0.54877368   -8.5536247    663.44213  0.012585214  0.011252417            2 
 4394000   0.56146946   -8.5687772    662.76818  0.012569568  0.011248566            2 
 4395000   0.55587104   -8.5685475    663.05301  0.012572109  0.011244716            2 
 4396000   0.57060562   -8.5705484    664.08678  0.012588846  0.011240871            3 
 4397000   0.54411948     -8.57226    663.17755  0.012568751  0.011237025            7 
 4398000   0.54440209   -8.5652722    663.79579  0.012577607  0.011233183            2 
 4399000   0.56336115    -8.554858    663.80346  0.012574893  0.011229341            3 
 4400000    0.5568354   -8.5852699    663.82112   0.01257237  0.011225497            2 
 4401000    0.5438762   -8.5868443    662.59388  0.012546275  0.011221654            2 
 4402000   0.55302005   -8.5837329    663.80594   0.01256637  0.011217814            4 
 4403000   0.54090737   -8.5661867    663.87317  0.012564789  0.011213976            5 
 4404000   0.55401724   -8.6042224    663.61145  0.012556983  0.011210137            5 
 4405000   0.53330087   -8.5419008    662.72079  0.012537283  0.011206301            3 
 4406000    0.5495106   -8.5543977    662.28954  0.012526281  0.011202464            3 
 4407000   0.53885834   -8.5676225    663.30905  0.012542717  0.011198631            2 
 4408000   0.53849837   -8.5563166    663.25982  0.012538941  0.011194797            2 
 4409000   0.53815454   -8.5813205    663.63896  0.012543263  0.011190965            2 
 4410000   0.54192352   -8.5870167    662.72608  0.012523169  0.011187135            6 
 4411000   0.54710924   -8.5665051    663.10481  0.012527484  0.011183305            4 
 4412000   0.54469644    -8.572509    662.79036  0.012518706  0.011179473            2 
 4413000   0.52694787   -8.5680946    662.58334   0.01251196  0.011175644            3 
 4414000   0.54676685   -8.5645431    662.37746  0.012505238  0.011171821            2 
 4415000   0.54301018   -8.5483471    664.67489   0.01254577  0.011167994            4 
 4416000   0.53356893    -8.589473    663.03367  0.012511958   0.01116417            4 
 4417000   0.54870554     -8.57375    664.26775  0.012532408  0.011160352            2 
 4418000   0.55779654   -8.5871835    663.77225  0.012520225  0.011156534            3 
 4419000   0.54637711   -8.5682919    663.62986  0.012514707   0.01115272            5 
 4420000   0.54459404   -8.5589445    662.34239  0.012487602  0.011148901            5 
 4421000   0.54980739   -8.5525031    664.35354  0.012522686  0.011145088            2 
 4422000   0.54146878    -8.569252    662.25385  0.012480285  0.011141274            6 
 4423000   0.56075612   -8.5818729     662.6135   0.01248424  0.011137465            1 
 4424000   0.55142404   -8.5676537    663.32141  0.012494752  0.011133661            4 
 4425000   0.53899837   -8.5580037    662.83518  0.012482772  0.011129856            5 
 4426000   0.54412805   -8.5826522    663.20288  0.012486875  0.011126052            2 
 4427000   0.53609185   -8.5778151    663.43191  0.012488365  0.011122252            1 
 4428000   0.53553043   -8.5778629    663.51152  0.012487043  0.011118452            3 
 4429000   0.53863145   -8.5733093    662.15387  0.012458679  0.011114654            2 
 4430000   0.54510608   -8.5707234    663.62807  0.012483598  0.011110858            1 
 4431000    0.5460729    -8.575957     662.3284  0.012456338  0.011107061            2 
 4432000   0.55228753   -8.5771721    663.24154  0.012470697  0.011103266            4 
 4433000   0.54349697   -8.5935002     662.1288  0.012446966  0.011099468            2 
 4434000   0.55337799    -8.560521    664.25183  0.012484059  0.011095679            2 
 4435000   0.54176879   -8.5824885    662.59368  0.012450088  0.011091888            2 
 4436000   0.53397421   -8.5939203    662.82995   0.01245172  0.011088094            2 
 4437000   0.53464557   -8.5869354    662.76596  0.012447712  0.011084302            1 
 4438000   0.55053563   -8.5820827    661.63025  0.012423581  0.011080512            2 
 4439000   0.54644997   -8.6017382    663.89351  0.012463271  0.011076724            2 
 4440000   0.53088307   -8.5731713    663.71098  0.012457038  0.011072937            2 
 4441000   0.55098675   -8.5790975    662.85155  0.012438106  0.011069152            2 
 4442000   0.54505798   -8.5891751    662.79755  0.012434293  0.011065364            1 
 4443000   0.52373914   -8.5864147    663.18691  0.012438797  0.011061583            2 
 4444000   0.53022184    -8.575827    661.70426  0.012408196  0.011057802            2 
 4445000   0.55308538   -8.6011452    662.34321  0.012417383  0.011054022            3 
 4446000   0.53337577   -8.5752398    663.59886  0.012438125  0.011050247            2 
 4447000   0.53442783   -8.5783992    661.90363  0.012403561  0.011046473            2 
 4448000   0.54200989   -8.5765607    662.72186  0.012416102  0.011042701            3 
 4449000   0.53858622   -8.5813238    663.16548  0.012421621  0.011038934            3 
 4450000   0.54243796   -8.5712544    662.77006  0.012411424  0.011035167            2 
 4451000   0.53490555   -8.5890822     663.1906  0.012416509  0.011031404            2 
 4452000   0.53904803   -8.5747114     663.1871  0.012413655  0.011027637            3 
 4453000    0.5381815   -8.5882279    662.53342  0.012398634  0.011023871            1 
 4454000     0.536299   -8.5764077    662.85504  0.012401868  0.011020111            2 
 4455000   0.53710645   -8.5789674    663.42787  0.012409799  0.011016347            1 
 4456000   0.55015595   -8.5947218    662.38058  0.012387429  0.011012589            3 
 4457000   0.53147617   -8.5897006    663.26429  0.012401172  0.011008827            1 
 4458000   0.53905888   -8.6042299    662.64546  0.012386823  0.011005066            1 
 4459000   0.53312829   -8.5777031    662.78894  0.012386726  0.011001311            2 
 4460000   0.54369547   -8.5829632    662.79906  0.012384138  0.010997558            2 
 4461000   0.52037613    -8.582697    662.83334  0.012382002  0.010993804            2 
 4462000   0.54615555   -8.6108428    662.42203  0.012371546  0.010990047            1 
 4463000   0.54738673   -8.5742762    663.30069   0.01238518  0.010986296            3 
 4464000    0.5372408   -8.6074071    661.99134  0.012357963  0.010982544            2 
 4465000   0.53040463   -8.6016553     662.7238  0.012368865  0.010978792            2 
 4466000   0.54612305   -8.6029294    662.08236  0.012354127  0.010975043            1 
 4467000   0.53087971   -8.5803601    663.86071  0.012384537  0.010971301            3 
 4468000    0.5314622   -8.5941012    661.39293  0.012335738  0.010967554            2 
 4469000   0.53575563   -8.6013449    661.24937  0.012330301  0.010963809            2 
 4470000   0.53029118   -8.6039235    663.02978  0.012360734  0.010960067            2 
 4471000   0.54364861   -8.5852624    662.87259   0.01235504  0.010956327            2 
 4472000   0.53242893   -8.5759325    664.43659  0.012381421  0.010952592            2 
 4473000   0.52914346   -8.5830761    662.24937  0.012337905  0.010948861            3 
 4474000   0.54002198   -8.5935009    662.78589   0.01234514  0.010945126            2 
 4475000   0.53594577   -8.5755293    662.54861  0.012337963  0.010941389            2 
 4476000   0.53404838   -8.5939604    663.33314  0.012349813  0.010937652            2 
 4477000   0.52370868   -8.5745082    661.78292  0.012318199  0.010933921            1 
 4478000   0.54120553   -8.5895345    662.10871  0.012321511  0.010930191            2 
 4479000   0.53972554   -8.5919338    662.07994  0.012318225   0.01092646            2 
 4480000   0.54796572   -8.6005907    662.62788  0.012325667  0.010922733            2 
 4481000   0.52343167   -8.5816239    662.40473  0.012318767  0.010919009            2 
 4482000    0.5375256   -8.6028654    661.97639  0.012308054  0.010915285            2 
 4483000   0.54131529   -8.5811461     662.1132  0.012307852  0.010911562            2 
 4484000   0.55434682   -8.5913353    661.83372  0.012299913  0.010907843            2 
 4485000   0.54402846   -8.5807311    662.46135  0.012308832  0.010904123            3 
 4486000   0.54422507   -8.5959408     661.3465  0.012285379  0.010900407            1 
 4487000   0.53876131   -8.5772833    661.90743  0.012293058  0.010896692            2 
 4488000   0.54336073      -8.5931    662.62934  0.012303724  0.010892975            1 
 4489000   0.52015903   -8.6087475     662.3401  0.012295613  0.010889258            2 
 4490000   0.53270499    -8.584019    661.53646   0.01227796  0.010885546            2 
 4491000   0.52896704   -8.5760942    661.86483  0.012281319  0.010881834            4 
 4492000   0.51654326   -8.6084229    661.92363  0.012279675  0.010878118            4 
 4493000   0.54007102   -8.5874801    662.29605   0.01228385  0.010874409            2 
 4494000   0.53179633   -8.6041547    660.67216  0.012251004  0.010870699            2 
 4495000   0.55052495   -8.5890638    661.48773  0.012263399   0.01086699            2 
 4496000   0.53194476   -8.5992307    662.09212  0.012271873  0.010863285            2 
 4497000   0.53379662   -8.5814329    661.07835  0.012250359  0.010859581            1 
 4498000   0.54146225   -8.6166114    662.38471  0.012271838  0.010855881            2 
 4499000    0.5340113   -8.5938711    661.81486  0.012258555  0.010852178            3 
 4500000   0.53094199   -8.6045213    661.31391  0.012246554   0.01084848            2 
 4501000   0.53699322   -8.5985744    661.84615  0.012253687  0.010844783            2 
 4502000   0.53678851   -8.6079294    662.34732  0.012260242  0.010841086            2 
 4503000   0.52904323   -8.6096759     662.6727  0.012263541  0.010837386            2 
 4504000   0.52952057   -8.5959506    663.17053  0.012270029  0.010833694            2 
 4505000   0.52728986   -8.5987144    661.63677  0.012238934  0.010830005            3 
 4506000   0.51839558   -8.5956277    663.04411  0.012262245  0.010826316            1 
 4507000    0.5217046   -8.6044369    662.02309  0.012240646  0.010822627            2 
 4508000   0.53700144   -8.6113691     662.5819  0.012248261   0.01081894            1 
 4509000   0.52864234   -8.6142075    661.33982  0.012222589   0.01081525            1 
 4510000   0.54443737   -8.6045374    661.20911  0.012217463  0.010811564            2 
 4511000   0.52004796    -8.589164    662.63048  0.012241012  0.010807888            2 
 4512000   0.53688077   -8.6177946    661.81838    0.0122233  0.010804211            2 
 4513000   0.54604617   -8.5859239    662.14745  0.012226668  0.010800528            2 
 4514000    0.5280945   -8.6062656     662.9813  0.012239354  0.010796854            2 
 4515000   0.53422217   -8.6100839    660.86363  0.012197557  0.010793179            3 
 4516000   0.53105586   -8.5995643    662.20955  0.012219692  0.010789506            2 
 4517000   0.53328694   -8.6094886    662.18957  0.012216618  0.010785831            3 
 4518000   0.52520767   -8.6158618    661.66386  0.012204218  0.010782161            1 
 4519000   0.52553993    -8.599575    662.08562  0.012209294   0.01077849            2 
 4520000   0.53394345   -8.6127045    661.93478  0.012203812  0.010774819            3 
 4521000   0.53875072   -8.5874819    661.83517  0.012199277  0.010771155            2 
 4522000   0.52747725   -8.5865874    662.10874  0.012201621  0.010767493            2 
 4523000   0.53293345   -8.6127327    662.38093  0.012203938  0.010763833            2 
 4524000   0.52869402   -8.6086394    662.82269  0.012209378  0.010760171            1 
 4525000   0.53763147   -8.6110858    662.51366  0.012200988  0.010756514            4 
 4526000   0.53842316   -8.6060208    660.87325  0.012168089  0.010752853            2 
 4527000   0.53426439   -8.6312033    661.46497  0.012176294  0.010749197            2 
 4528000   0.52320772   -8.6139686    662.53674  0.012193329  0.010745538            1 
 4529000   0.51918816   -8.6053716    660.90409  0.012160596  0.010741884            3 
 4530000   0.53641878    -8.616402    661.54561  0.012169713  0.010738229            2 
 4531000   0.52610091   -8.6029786    662.02367   0.01217582  0.010734578            2 
 4532000   0.53004411   -8.6170605    662.06419  0.012173878  0.010730926            4 
 4533000   0.53301143   -8.6126434    660.66313  0.012145436   0.01072728            2 
 4534000   0.52547662   -8.6028211    661.76515  0.012163012  0.010723631            3 
 4535000   0.52580041    -8.599044    662.76201  0.012178648  0.010719983            2 
 4536000   0.51884616   -8.5985212    661.94295  0.012160915  0.010716345            3 
 4537000   0.52981378   -8.6160988    662.03351  0.012159898  0.010712703            2 
 4538000   0.53467714   -8.5973693    661.62314  0.012149683  0.010709057            3 
 4539000   0.53751145   -8.6157725    662.66818  0.012166193  0.010705417            2 
 4540000   0.51837825   -8.6209078    662.54698  0.012161288  0.010701781            2 
 4541000   0.52823561   -8.6025096    661.72899  0.012143599  0.010698145            2 
 4542000   0.52480186   -8.5934359    662.65693   0.01215795  0.010694511            1 
 4543000   0.50619353   -8.6208072    662.34143  0.012149487  0.010690878            1 
 4544000   0.52230235   -8.6199578    662.03156   0.01214113  0.010687248            1 
 4545000   0.52323192   -8.6009323    662.00674  0.012138004  0.010683617            1 
 4546000   0.52026296   -8.6210655    660.98252  0.012116559  0.010679989            1 
 4547000   0.52625809   -8.6265521    662.53236  0.012142298   0.01067636            1 
 4548000   0.53209332     -8.60497    661.73326  0.012124986  0.010672736            3 
 4549000   0.52344315   -8.6068029    661.08191  0.012110389  0.010669113            2 
 4550000   0.52649577   -8.6201756    661.89571  0.012122632  0.010665491            4 
 4551000   0.51859724    -8.619923    661.46752  0.012112128  0.010661872            2 
 4552000    0.5264841   -8.6267105    662.07488  0.012120586  0.010658252            2 
 4553000   0.52335288   -8.6264636    661.55567  0.012108421   0.01065463            2 
 4554000   0.52435079   -8.6161059    661.68635  0.012108153  0.010651011            3 
 4555000   0.52741538   -8.6152296    662.39697  0.012118496  0.010647391            2 
 4556000   0.53024273   -8.6157685    661.04557  0.012091117  0.010643775            2 
 4557000   0.52282531   -8.6078394    661.01107  0.012087833  0.010640165            1 
 4558000   0.51739606   -8.6353115    662.23086  0.012107482  0.010636556            2 
 4559000   0.53173487   -8.6144929     662.2474  0.012105129   0.01063295            2 
 4560000   0.51961246   -8.6007238    662.42195  0.012105664  0.010629348            3 
 4561000    0.5149593   -8.6216835    662.07122  0.012096602  0.010625741            2 
 4562000   0.52067953   -8.6180289     660.7618  0.012070031  0.010622136            2 
 4563000   0.51252651   -8.6172583    660.70986  0.012066438  0.010618534            2 
 4564000   0.51752711   -8.6277482    661.84178  0.012084461  0.010614934            4 
 4565000    0.5159607    -8.623315    662.18344  0.012088051  0.010611335            3 
 4566000   0.52438164   -8.6069527    661.68629   0.01207633  0.010607735            2 
 4567000   0.52190601   -8.6227878     661.4253  0.012068924  0.010604139            2 
 4568000   0.50698311   -8.6136978    660.37995  0.012047212  0.010600541            3 
 4569000      0.51634   -8.6160729    661.56799  0.012066243  0.010596945            3 
 4570000   0.51350865   -8.6102651    661.84747  0.012068699  0.010593352            1 
 4571000   0.51826934   -8.6392196    662.29589  0.012074234  0.010589764            1 
 4572000   0.52184542    -8.617841    660.99419  0.012047867  0.010586173            2 
 4573000   0.51476509   -8.6076684    660.97378  0.012044861  0.010582589            1 
 4574000   0.51493596   -8.6021145    661.25072  0.012047273     0.010579            3 
 4575000   0.53193222   -8.6301302    662.30611  0.012063864  0.010575416            2 
 4576000   0.52541094   -8.6243335    661.63534  0.012049012  0.010571829            1 
 4577000    0.5098175   -8.6201253    661.94053  0.012051936  0.010568247            1 
 4578000   0.53162937   -8.6213995    661.62586  0.012043575  0.010564664            2 
 4579000   0.52670765   -8.6147881    661.76129   0.01204341  0.010561082            2 
 4580000   0.52446534   -8.6222639    663.03569  0.012063968  0.010557505            2 
 4581000   0.52170069   -8.6369964      661.768  0.012038274  0.010553929            5 
 4582000   0.51170402    -8.624809    662.23608   0.01204416  0.010550354            2 
 4583000    0.5196601   -8.6002505    662.08045  0.012038702   0.01054678            2 
 4584000   0.52654023     -8.58957     660.6964  0.012010915  0.010543209            3 
 4585000   0.50823104   -8.6205084    661.92071  0.012030547   0.01053964            3 
 4586000   0.51029691    -8.616003    662.24105  0.012033745  0.010536071            3 
 4587000   0.51547986   -8.6155571    661.09446  0.012010291  0.010532502            2 
 4588000     0.524239   -8.6414285    661.51951  0.012015394  0.010528936            1 
 4589000   0.51453478   -8.6128431    661.00063  0.012003353  0.010525371            3 
 4590000   0.51069163   -8.6058559    662.26411  0.012023677  0.010521808            3 
 4591000    0.5259937   -8.6123646    661.40164  0.012005403  0.010518249            2 
 4592000   0.51908583   -8.6316719    661.12253  0.011997723  0.010514688            3 
 4593000    0.5114023   -8.6440082    661.50002   0.01200196  0.010511129            2 
 4594000   0.51415596   -8.6160532    661.82503  0.012005243  0.010507571            2 
 4595000    0.5103189   -8.6327352    661.35766  0.011994154  0.010504019            4 
 4596000   0.51357453   -8.6288004    662.10918  0.012005171  0.010500463            3 
 4597000    0.5078538   -8.6363318    660.83518  0.011979465  0.010496911            3 
 4598000   0.50927934   -8.6148584    661.78962  0.011994157  0.010493364            2 
 4599000   0.51960111   -8.6254058    661.19274  0.011980734  0.010489814            3 
 4600000   0.51488522   -8.6161738     660.8277  0.011971516  0.010486266            2 
 4601000   0.51407902   -8.6261924    660.85907  0.011969482   0.01048272            3 
 4602000   0.51303081   -8.6139435    661.87222  0.011985228  0.010479167            2 
 4603000   0.52540778   -8.6301823    662.33121  0.011990934  0.010475624            3 
 4604000   0.51806141   -8.6312803    660.45483  0.011954366  0.010472081            2 
 4605000   0.49914626   -8.5996067    661.42564  0.011969338  0.010468536            2 
 4606000   0.52067856   -8.6181264    660.59536  0.011951718  0.010464994            2 
 4607000   0.51406799    -8.632943    661.16352  0.011959401  0.010461455            2 
 4608000    0.5155843   -8.6241831    661.42577  0.011961548  0.010457918            2 
 4609000   0.51846744   -8.6386363    661.58315  0.011961798  0.010454384            3 
 4610000   0.51269851   -8.6257567    661.05357  0.011949631  0.010450852            3 
 4611000    0.5119809   -8.6366211    661.68147  0.011958387  0.010447317            2 
 4612000   0.50613148   -8.6333006     661.7285  0.011956644  0.010443785            5 
 4613000   0.51999436   -8.6233165    661.79993  0.011955342  0.010440254            3 
 4614000   0.51464574   -8.6250925    661.58143  0.011948805  0.010436726            4 
 4615000    0.5102304   -8.6236506    661.08145  0.011937188  0.010433199            3 
 4616000   0.51916673   -8.6208543    661.57293  0.011943474  0.010429677            5 
 4617000   0.50769879   -8.6273711    660.85481  0.011927926  0.010426154            3 
 4618000    0.5036863   -8.6363755     661.3504  0.011934286  0.010422629            3 
 4619000   0.50912225   -8.6272982    660.79038  0.011921599  0.010419108            3 
 4620000   0.50874772    -8.637922    661.53072  0.011932372   0.01041559            6 
 4621000   0.51240344    -8.615634    661.43007  0.011927975   0.01041207            2 
 4622000   0.50873492   -8.6404473    662.01533  0.011935946  0.010408552            3 
 4623000   0.51239516   -8.6306843    661.15524  0.011917861  0.010405033            3 
 4624000   0.51241989    -8.620285    660.13187   0.01189684   0.01040152            3 
 4625000    0.5143562   -8.6311357    661.57526  0.011920275  0.010398009            5 
 4626000   0.51028435   -8.6267863    661.31096  0.011912937  0.010394497            3 
 4627000   0.51892351   -8.6276002    661.28286  0.011909856  0.010390989            2 
 4628000    0.5149017   -8.6249722    660.85852  0.011899642  0.010387481            6 
 4629000    0.5139298   -8.6420131    660.90498  0.011897908  0.010383975            4 
 4630000   0.51463925   -8.6171082    661.08747  0.011898623  0.010380467            2 
 4631000   0.50085851     -8.64269    661.25529  0.011899073  0.010376962            2 
 4632000   0.50897347   -8.6403872    660.90367  0.011890178   0.01037346            3 
 4633000   0.50381617   -8.6318722    660.80384  0.011885816   0.01036996            2 
 4634000   0.50428857   -8.6297696    661.27485  0.011891722  0.010366459            2 
 4635000   0.49987433   -8.6367831    660.15277  0.011868982  0.010362959            1 
 4636000   0.52356982   -8.6297363     661.3734  0.011888363  0.010359462            1 
 4637000   0.50483378   -8.6215189    660.99204  0.011878945  0.010355968            5 
 4638000    0.5262551   -8.6349901    661.59365  0.011887194  0.010352475            2 
 4639000   0.51191579   -8.6215548    661.81157  0.011888546  0.010348978            3 
 4640000   0.51058522   -8.6151181    661.95994  0.011888648  0.010345486            2 
 4641000   0.49865664   -8.6254374    660.68946  0.011863274  0.010341993            2 
 4642000   0.50346119    -8.642581    662.04989  0.011885141  0.010338502            2 
 4643000   0.50209648   -8.6383568    660.92641  0.011862417  0.010335018            2 
 4644000   0.51745538   -8.6295368    660.21716  0.011847135  0.010331532            2 
 4645000    0.5144345    -8.629925    660.99381  0.011858518  0.010328048            4 
 4646000     0.511792    -8.633565    660.67383  0.011850227  0.010324565            4 
 4647000   0.50618928   -8.6241634    661.61039  0.011864472  0.010321085            1 
 4648000   0.50270431   -8.6373432    661.55571  0.011860938  0.010317607            3 
 4649000   0.51489528   -8.6476411    661.21259  0.011852237  0.010314129            6 
 4650000   0.50941313   -8.6137802    661.50637  0.011854953  0.010310654            1 
 4651000   0.51645254   -8.6561206    660.03493   0.01182604   0.01030718            2 
 4652000   0.52364518   -8.6373138    660.34715   0.01182909  0.010303705            2 
 4653000   0.50348263   -8.6455717     660.6806   0.01183252  0.010300233            1 
 4654000   0.49979231   -8.6395714     660.1376  0.011820255   0.01029676            1 
 4655000   0.50874945   -8.6517905    661.38683  0.011840079  0.010293292            2 
 4656000   0.51472292   -8.6377596    659.75627  0.011808352  0.010289821            2 
 4657000   0.50771919   -8.6373528    660.58268  0.011820605  0.010286351            2 
 4658000   0.50948287   -8.6359815    660.46251  0.011815917  0.010282883            2 
 4659000   0.50759923   -8.6470531    661.60254  0.011833772  0.010279418            1 
 4660000   0.50330142   -8.6280263    660.27581  0.011807507  0.010275955            2 
 4661000   0.51245622   -8.6410127    660.34833  0.011806271  0.010272492            4 
 4662000    0.5111512   -8.6448743     660.7779  0.011811417  0.010269032            3 
 4663000   0.49230477   -8.6600315    661.20596  0.011816534  0.010265574            3 
 4664000   0.49710652   -8.6381882    661.19335  0.011813775   0.01026212            2 
 4665000    0.5007278   -8.6528944    660.97886  0.011807411  0.010258663            2 
 4666000   0.50934816   -8.6323122    660.67973  0.011799538  0.010255205            2 
 4667000   0.50252124   -8.6537849    661.13174  0.011805081   0.01025175            3 
 4668000   0.51611619   -8.6305002    662.02806  0.011818553  0.010248301            3 
 4669000   0.50036207   -8.6219508    661.29323  0.011802906   0.01024485            2 
 4670000   0.49337916   -8.6553297    661.06938  0.011796384  0.010241397            3 
 4671000   0.49762672   -8.6316858    660.38955   0.01178173  0.010237946            2 
 4672000   0.49783019   -8.6494972    661.55525  0.011800001  0.010234498            4 
 4673000   0.49478719   -8.6534719    660.87109  0.011785275  0.010231051            2 
 4674000   0.49942703   -8.6411825    661.11354  0.011787076  0.010227606            2 
 4675000    0.5045626    -8.651929    660.51257  0.011773843  0.010224161            3 
 4676000   0.50309777   -8.6528982    661.26883  0.011784802  0.010220718            2 
 4677000   0.50279755   -8.6633288    660.86132  0.011775022  0.010217275            3 
 4678000   0.50431523   -8.6560269    660.03601  0.011757803  0.010213838            4 
 4679000   0.49193785   -8.6499439    660.42576  0.011762231  0.010210402            2 
 4680000    0.5086622   -8.6429056    660.10166  0.011753947  0.010206961            2 
 4681000    0.4981244   -8.6553763    661.57364  0.011777641  0.010203523            2 
 4682000   0.49910817    -8.653271    660.25705  0.011751692  0.010200088            3 
 4683000   0.50560183   -8.6497303    660.34416  0.011750732  0.010196659            2 
 4684000   0.50337416    -8.639865    660.66241  0.011753886  0.010193226            4 
 4685000   0.50032967   -8.6309875    659.63407  0.011733086  0.010189795            3 
 4686000   0.50818504    -8.644082    660.67969  0.011749176  0.010186368            3 
 4687000    0.5023642   -8.6500454    659.84877  0.011731896   0.01018294            3 
 4688000   0.50280158    -8.662982    661.31677  0.011755489  0.010179513            3 
 4689000   0.49758244   -8.6585201    660.26944  0.011734368   0.01017609            2 
 4690000    0.4921657   -8.6615026    660.43164  0.011734748  0.010172667            3 
 4691000   0.50300459   -8.6607423     660.2577  0.011729157  0.010169243            3 
 4692000   0.49415197   -8.6441249    660.27208  0.011726912  0.010165825            1 
 4693000   0.49049444   -8.6454652    660.59613  0.011730168  0.010162402            2 
 4694000   0.49803216    -8.665052    659.82652  0.011714006  0.010158984            1 
 4695000   0.50460449   -8.6501402    659.46235  0.011705047  0.010155565            2 
 4696000   0.49337429   -8.6359198    660.59832  0.011722713   0.01015215            1 
 4697000   0.50250373   -8.6578313      660.525  0.011718916  0.010148734            2 
 4698000   0.50162199   -8.6488064    660.04647  0.011707934  0.010145323            4 
 4699000   0.50102695   -8.6547825    661.30699  0.011727796  0.010141912            4 
 4700000   0.49902331   -8.6342392    660.52788  0.011711487  0.010138504            2 
 4701000   0.48745271   -8.6384525    662.29537  0.011740328  0.010135098            2 
 4702000   0.49773304   -8.6573933    660.90149  0.011713127  0.010131692            4 
 4703000   0.49801587   -8.6601045    660.28818  0.011699769   0.01012829            2 
 4704000   0.48885253   -8.6665418    659.86578  0.011689799  0.010124887            2 
 4705000   0.49307842   -8.6538417    660.43672  0.011697427  0.010121484            2 
 4706000    0.5117387   -8.6476615    660.31233  0.011692739  0.010118085            1 
 4707000   0.50782623   -8.6506422    662.00931  0.011720298  0.010114687            2 
 4708000   0.50178721   -8.6556572    660.19724  0.011685734  0.010111288            1 
 4709000    0.4894816   -8.6618172    660.53288  0.011689192  0.010107893            2 
 4710000   0.51054637    -8.647931    660.38634  0.011684118  0.010104499            2 
 4711000    0.5085758   -8.6466412     660.1302  0.011677107  0.010101104            3 
 4712000   0.49301387   -8.6537406    661.21457  0.011693806  0.010097715            3 
 4713000   0.49535489   -8.6770344    661.19368  0.011690956  0.010094326            2 
 4714000    0.4990945   -8.6584895    659.73257  0.011662646  0.010090935            2 
 4715000   0.50176319   -8.6721931    659.02118  0.011647599  0.010087545            2 
 4716000   0.50030243   -8.6735097    659.79882  0.011658871  0.010084159            2 
 4717000    0.4879797   -8.6584169    659.77665  0.011656007  0.010080773            2 
 4718000   0.49594532   -8.6643742    659.54137  0.011649381  0.010077387            1 
 4719000   0.49530259   -8.6639706    660.28379  0.011660023  0.010074003            3 
 4720000   0.48888105   -8.6584756    659.27391  0.011639723   0.01007062            1 
 4721000   0.48600473   -8.6645386    659.97356  0.011649607  0.010067239            3 
 4722000   0.49878144   -8.6621873    661.28614  0.011670305   0.01006386            3 
 4723000   0.49600783   -8.6592964    660.19533  0.011648587  0.010060486            2 
 4724000   0.49631241   -8.6565957    660.34477  0.011648758  0.010057114            5 
 4725000   0.49379996   -8.6624873     660.6193  0.011651134  0.010053746            3 
 4726000   0.50418302   -8.6475511    660.16689  0.011640691  0.010050378            2 
 4727000   0.49479746   -8.6608425    661.12988  0.011655206  0.010047013            2 
 4728000   0.50280974   -8.6502216    659.97852  0.011632447  0.010043646            3 
 4729000   0.49702387   -8.6575279    659.54179  0.011622291  0.010040282            2 
 4730000   0.50802951   -8.6497329    659.70541  0.011622717  0.010036918            2 
 4731000   0.48014869    -8.657028    659.81455  0.011622183  0.010033554            1 
 4732000   0.48130669   -8.6420775     659.8418  0.011620206  0.010030195            2 
 4733000   0.49838355   -8.6687836     660.7307  0.011633402  0.010026834            3 
 4734000   0.49997155   -8.6697449    660.59433  0.011628544  0.010023475            2 
 4735000   0.49855002   -8.6557965     660.2862  0.011620665  0.010020118            2 
 4736000   0.49823023   -8.6648081    660.88212  0.011628697  0.010016762            3 
 4737000    0.5084273   -8.6534676    660.05587  0.011611707  0.010013405            2 
 4738000   0.49066584   -8.6639388    660.30293  0.011613601  0.010010053            2 
 4739000   0.49538208   -8.6454264    659.80332  0.011602366  0.010006701            3 
 4740000   0.48898215   -8.6654711    660.21582   0.01160717  0.010003347            3 
 4741000   0.49612555   -8.6704173    660.21134  0.011604643 0.0099999953            2 
 4742000   0.49717038   -8.6643329    659.72886  0.011593717  0.009996647            1 
 4743000   0.51508854    -8.642992    660.34371  0.011602075 0.0099932968            3 
 4744000   0.49153299   -8.6639026    660.33921  0.011599551 0.0099899539            7 
 4745000   0.48865951   -8.6614663    660.10441  0.011592982 0.0099866086            2 
 4746000   0.49439433   -8.6624815    659.71725  0.011583742 0.0099832655            3 
 4747000   0.49834749   -8.6626603    659.75946  0.011582042 0.0099799234            3 
 4748000   0.49923449   -8.6644736    659.83281   0.01158089 0.0099765824            1 
 4749000   0.48656114   -8.6495017    660.14985  0.011584015 0.0099732406            5 
 4750000   0.49200731   -8.6570694    660.04483  0.011579734 0.0099699007            2 
 4751000   0.48843821   -8.6614179    659.89799  0.011574721  0.009966564            1 
 4752000   0.49819207   -8.6737044    661.27858  0.011596496 0.0099632255            1 
 4753000   0.47835781   -8.6669584    659.26679  0.011558784 0.0099598902            2 
 4754000    0.4844301   -8.6482106    660.44628  0.011577028 0.0099565569            9 
 4755000   0.48381587   -8.6578343    661.31209  0.011589767 0.0099532295            3 
 4756000   0.47952768   -8.6654161    660.33399  0.011570192 0.0099498993            6 
 4757000   0.49352674   -8.6851946    660.49664  0.011570609 0.0099465743            2 
 4758000   0.47794003   -8.6667742     661.8943  0.011592656 0.0099432488            5 
 4759000   0.48392334   -8.6737093    660.31784  0.011562615 0.0099399242            3 
 4760000   0.49342604   -8.6488137    660.05695  0.011555619  0.009936602            2 
 4761000   0.48763649   -8.6859089    660.91251  0.011568167 0.0099332783            2 
 4762000   0.49181775   -8.6645378     659.8023  0.011546309 0.0099299581            2 
 4763000   0.48209017   -8.6516341     660.3368  0.011553237 0.0099266372            2 
 4764000   0.49305274    -8.669843    659.67734  0.011539276 0.0099233189            2 
 4765000   0.50931943   -8.6555975    660.30729  0.011547872 0.0099200045            2 
 4766000   0.48094599   -8.6597419    659.89967  0.011538321 0.0099166874            2 
 4767000   0.49437679   -8.6722654    658.68637  0.011514691  0.009913373            2 
 4768000   0.48822819   -8.6776163     660.1357  0.011537607 0.0099100605            2 
 4769000   0.48333192   -8.6683849    659.37969  0.011521977 0.0099067505            2 
 4770000    0.4928788   -8.6689916    659.69309  0.011525036 0.0099034416            2 
 4771000    0.4922481   -8.6600658    660.95556  0.011544672 0.0099001363            2 
 4772000   0.49326925   -8.6601212    659.86108   0.01152314 0.0098968297            2 
 4773000   0.49072557   -8.6732112    659.58183   0.01151585 0.0098935246            2 
 4774000   0.47854835   -8.6718232    660.15262  0.011523401 0.0098902208            2 
 4775000   0.48746577   -8.6559878    660.08378  0.011519787 0.0098869185            3 
 4776000   0.48973459   -8.6465692    659.34248   0.01150444 0.0098836162            5 
 4777000   0.48928612   -8.6770689    659.60343  0.011506584 0.0098803148            2 
 4778000   0.49408449   -8.6763401    659.33738  0.011499536 0.0098770148            2 
 4779000   0.48230049   -8.6643741    659.70855  0.011503602 0.0098737186            2 
 4780000   0.49292416   -8.6561197    658.67481  0.011483173 0.0098704197            2 
 4781000   0.48202931   -8.6746695    660.15206   0.01150652 0.0098671249            3 
 4782000   0.49068987   -8.6666025     659.1082  0.011485923 0.0098638284            2 
 4783000    0.4834813    -8.660285    659.93328  0.011497897 0.0098605327            2 
 4784000   0.47349703   -8.6725725    658.69331  0.011473894 0.0098572417            3 
 4785000   0.49712479   -8.6770133    659.63053  0.011487818 0.0098539494            2 
 4786000    0.4934305   -8.6660756    659.98931  0.011491665  0.009850664            2 
 4787000   0.48607275   -8.6588685    659.23336  0.011476105 0.0098473748            1 
 4788000   0.48886167   -8.6770733    660.18284  0.011490233 0.0098440927            4 
 4789000   0.48077937   -8.6581793     659.8286   0.01148167 0.0098408109            4 
 4790000   0.47553768   -8.6735381    659.91642  0.011480801 0.0098375298            3 
 4791000   0.48580638    -8.687709     660.5388   0.01148923 0.0098342516            2 
 4792000   0.48537138   -8.6695181    659.85751  0.011474985  0.009830975            1 
 4793000   0.49500813   -8.6527171    660.10561  0.011476904 0.0098276965            3 
 4794000   0.48757074   -8.6616897    659.70222  0.011467498 0.0098244184            2 
 4795000   0.48358999   -8.6794015    658.82879  0.011449927 0.0098211412            1 
 4796000   0.48240624   -8.6865626    659.75619  0.011463654 0.0098178623            1 
 4797000   0.48212547   -8.6817162    658.86521  0.011445786 0.0098145859            2 
 4798000   0.46961848   -8.6846756    660.05963  0.011464145 0.0098113093            4 
 4799000   0.47968224   -8.6802091    658.27765  0.011430813  0.009808035            3 
 4800000   0.47998224   -8.6750196    659.74022  0.011453823 0.0098047602            2 
 4801000   0.48236833   -8.6750021    659.57566  0.011448581 0.0098014904            3 
 4802000   0.49068392   -8.6778979    659.32576   0.01144186  0.009798222            2 
 4803000   0.48254283   -8.6791973    660.05337  0.011452102 0.0097949537            1 
 4804000   0.48250435   -8.6711648     659.5067  0.011440236 0.0097916875            3 
 4805000   0.47798045   -8.6937453    659.44109  0.011436717 0.0097884227            6 
 4806000   0.48737006   -8.6683206    659.58436  0.011436821 0.0097851601            2 
 4807000   0.48451194   -8.6679112    659.72998  0.011436967 0.0097818973            3 
 4808000   0.48461996   -8.6696049    659.50361  0.011430664 0.0097786358            2 
 4809000   0.46979639   -8.6739242    658.80598  0.011416199  0.009775377            2 
 4810000   0.48545253   -8.6849593    660.38766  0.011441228 0.0097721197            3 
 4811000   0.48205909   -8.6832235    659.94098  0.011431112 0.0097688632            2 
 4812000    0.4884177   -8.6766791    660.25636  0.011434199 0.0097656062            2 
 4813000   0.49256291   -8.6866962    658.31761  0.011398255 0.0097623521            3 
 4814000   0.47893339   -8.6838879    659.24168  0.011411883 0.0097591009            2 
 4815000   0.48128726   -8.6758821    658.88112  0.011403273 0.0097558513            2 
 4816000     0.472616   -8.6827397    659.37675  0.011409481 0.0097526017            3 
 4817000   0.48883066   -8.6879355    659.59747  0.011410931 0.0097493558            3 
 4818000   0.48358482   -8.6717768    659.49131  0.011406727  0.009746106            3 
 4819000   0.48508117   -8.6807617    660.34688  0.011419155 0.0097428593            5 
 4820000    0.4788894    -8.676719    659.00452  0.011393577 0.0097396152            3 
 4821000   0.47997474   -8.6936057    659.57193  0.011401022 0.0097363723            5 
 4822000   0.48305024   -8.6826197    659.10886  0.011390655 0.0097331313            2 
 4823000   0.47824126   -8.6801679    661.03184  0.011421519 0.0097298931            4 
 4824000   0.47300945   -8.6813521     660.1076  0.011403186 0.0097266534            4 
 4825000   0.49058652   -8.6888273    659.70825  0.011393925 0.0097234167            3 
 4826000   0.47726697   -8.6611309    659.48246  0.011387665 0.0097201815            2 
 4827000   0.48799011   -8.6762197    658.88911  0.011375062 0.0097169473            3 
 4828000   0.48084888   -8.6744991    659.34019  0.011380492 0.0097137158            2 
 4829000   0.48988891   -8.6827544    659.31517  0.011377704 0.0097104831            3 
 4830000   0.49071923   -8.6894075    660.10836  0.011389033 0.0097072543            2 
 4831000   0.46787848   -8.6840888    660.02088  0.011385167 0.0097040262            2 
 4832000   0.48221882   -8.6889453    658.29279  0.011353008 0.0097007964            5 
 4833000   0.46364944   -8.6970935    658.30315  0.011350837 0.0096975666            2 
 4834000   0.48065607    -8.698148     659.4532  0.011368315 0.0096943402            2 
 4835000   0.48345469   -8.6769349    659.97471  0.011374952 0.0096911128            3 
 4836000   0.47312407   -8.6856161    658.54983  0.011348046 0.0096878894            6 
 4837000    0.4825049    -8.693298    658.92274  0.011352125 0.0096846689            6 
 4838000   0.47813995   -8.6980437    658.79809  0.011347631  0.009681449            2 
 4839000   0.47792892   -8.7000127    659.70896  0.011360973 0.0096782309            2 
 4840000   0.48374335   -8.6854015    659.24212  0.011350587 0.0096750125            2 
 4841000   0.48129877   -8.6824227    659.76615  0.011357263 0.0096717957            5 
 4842000   0.48935873   -8.6763799    658.79954  0.011338282 0.0096685813            2 
 4843000   0.46927649   -8.6927446    660.34196  0.011362481 0.0096653685            3 
 4844000   0.48446421   -8.6948472    659.91334  0.011352762 0.0096621534            2 
 4845000   0.48028635   -8.6881016    658.47721  0.011325717 0.0096589424            2 
 4846000   0.48367468   -8.6852516    659.77253  0.011345655 0.0096557349            2 
 4847000   0.47213239   -8.6832635    658.52919  0.011321938 0.0096525252            6 
 4848000   0.47451475   -8.6909177    659.69471  0.011339637 0.0096493169            3 
 4849000   0.48130791   -8.6916117     659.1419  0.011327798 0.0096461081            4 
 4850000   0.47376394   -8.6897629    660.48391  0.011348521  0.009642904            2 
 4851000    0.4764059   -8.6872287    658.61715  0.011314113 0.0096397006            4 
 4852000   0.48088449   -8.6824338    659.59115   0.01132851 0.0096364969            2 
 4853000   0.47529475    -8.686008    658.31904  0.011304331 0.0096332961            2 
 4854000   0.46811615   -8.6826293    658.39307  0.011303273 0.0096300991            2 
 4855000   0.47914841   -8.6849172    659.44545  0.011319009    0.0096269            3 
 4856000   0.47085049   -8.6754386    657.97528  0.011291448 0.0096237046            4 
 4857000   0.47415744   -8.6968441    659.03449  0.011307297 0.0096205104            2 
 4858000   0.47207841   -8.6995318    659.83937  0.011318776 0.0096173152            4 
 4859000   0.47572658   -8.6861624    659.54256  0.011311356 0.0096141235            2 
 4860000   0.47349371   -8.6905819    659.38164   0.01130627 0.0096109315            5 
 4861000    0.4702925   -8.6939386    658.78299  0.011293681 0.0096077414            2 
 4862000   0.48571507   -8.6915132    660.50363  0.011320849 0.0096045526            3 
 4863000   0.47746732   -8.7164518    658.96165  0.011292098 0.0096013637            3 
 4864000   0.47633746   -8.6931314    658.90555  0.011288815 0.0095981774            3 
 4865000   0.48117244   -8.6910677    658.35513  0.011277066 0.0095949934            2 
 4866000   0.47573449   -8.6906024     658.6603  0.011279975 0.0095918117            2 
 4867000    0.4814225   -8.6904886    660.20199  0.011304054 0.0095886313            4 
 4868000   0.46738621    -8.706926    659.38619  0.011287767  0.009585451            3 
 4869000   0.47497825   -8.7017846    658.89675  0.011277072 0.0095822741            4 
 4870000   0.47076184    -8.700401    659.31316  0.011281882 0.0095790976            3 
 4871000   0.46925712   -8.6892692    659.47319  0.011282303  0.009575922            4 
 4872000   0.47195026   -8.6927393    657.79132   0.01125122 0.0095727472            4 
 4873000   0.47918991   -8.6904641    659.16094  0.011272333 0.0095695736            6 
 4874000   0.47864626   -8.7013238    658.49594   0.01125865 0.0095664013            4 
 4875000   0.47254488   -8.6949737     659.8766  0.011279942 0.0095632315            3 
 4876000   0.46745077   -8.7024738    659.38441  0.011269217 0.0095600641            3 
 4877000   0.48306087   -8.7039957    659.66351  0.011271675 0.0095568962            2 
 4878000   0.47453815   -8.6989401    659.40391  0.011264929 0.0095537288            4 
 4879000   0.47635779    -8.701389    658.72777  0.011251072 0.0095505597            3 
 4880000    0.4671883   -8.6813713     659.1101  0.011255295 0.0095473956            2 
 4881000   0.47780857    -8.675737    658.68021   0.01124565 0.0095442315            3 
 4882000   0.46927953   -8.6851592    658.94443  0.011247857 0.0095410703            2 
 4883000   0.47639927   -8.6942306    658.93559  0.011245402   0.00953791            3 
 4884000   0.47824599   -8.6906514    659.47538   0.01125231 0.0095347507            2 
 4885000   0.47507186   -8.6857972    659.30122  0.011247035 0.0095315935            2 
 4886000   0.45505196   -8.6987025    659.13716  0.011241935 0.0095284363            3 
 4887000   0.46311697    -8.681639    660.44875     0.011262 0.0095252803            3 
 4888000   0.47128677   -8.6849128    658.56103  0.011227514 0.0095221261            2 
 4889000   0.46725183   -8.6906755    658.14775  0.011218173 0.0095189793            2 
 4890000   0.46262918   -8.6946996    659.24253  0.011234535 0.0095158278            3 
 4891000   0.47193184    -8.705566    659.67242  0.011239563 0.0095126802            5 
 4892000   0.46884143   -8.6863849     658.8426   0.01122313 0.0095095296            4 
 4893000   0.46630549   -8.7106788    659.95788   0.01123983 0.0095063838            2 
 4894000   0.47010457   -8.6988698     659.6806  0.011232812 0.0095032388            3 
 4895000   0.46872224   -8.6960621    658.05245    0.0112028 0.0095000959            2 
 4896000   0.47476186    -8.691284    659.05105  0.011217508 0.0094969523            5 
 4897000   0.47150457    -8.698192    658.24163  0.011201444 0.0094938106            3 
 4898000   0.46057933   -8.7048879    657.54591   0.01118732 0.0094906694            2 
 4899000   0.46975577   -8.7098356    659.30853  0.011215019 0.0094875283            3 
 4900000   0.46487216   -8.7085652    658.81733  0.011204376 0.0094843911            3 
 4901000   0.46579623   -8.7082395    659.15157  0.011207773 0.0094812559            2 
 4902000   0.46287082   -8.6950229    657.71399  0.011181048 0.0094781191            2 
 4903000   0.47207179   -8.6857438    658.72925  0.011196024 0.0094749857            1 
 4904000   0.47764212   -8.6975586    658.49658  0.011189787 0.0094718523            3 
 4905000   0.47271197   -8.7035247    659.39668  0.011202798 0.0094687223            2 
 4906000   0.46822072   -8.7003144    658.85751  0.011191356 0.0094655915            3 
 4907000   0.47091874   -8.7100593    658.57762  0.011184322 0.0094624608            2 
 4908000   0.46667117   -8.7214814    659.03222  0.011189762 0.0094593318            2 
 4909000   0.46071796   -8.7069052    658.72999  0.011182352 0.0094562052            2 
 4910000    0.4715473   -8.7186199    658.95602  0.011183911  0.009453079            5 
 4911000   0.47302129   -8.7168591    658.81735   0.01117928 0.0094499552            2 
 4912000   0.47351724   -8.7130432    658.26419   0.01116762 0.0094468337            2 
 4913000   0.46873801   -8.7050979    658.80694  0.011174553 0.0094437124            2 
 4914000    0.4693453   -8.6854312    658.76443  0.011171558 0.0094405929            5 
 4915000   0.46943361   -8.6902332    658.22059  0.011160064 0.0094374728            3 
 4916000   0.46769057   -8.7106139    659.04562   0.01117178 0.0094343532            1 
 4917000    0.4741009   -8.7014386    658.75372   0.01116456 0.0094312358            2 
 4918000   0.46940209   -8.7033365    659.85052  0.011180875 0.0094281195            3 
 4919000    0.4751556   -8.7113556    658.34379  0.011153076 0.0094250047            3 
 4920000   0.47952564   -8.7102235    657.94039  0.011143977  0.009421892            4 
 4921000   0.46096959   -8.7090491    658.78497  0.011156014 0.0094187819            2 
 4922000   0.48158225   -8.7044885    657.85643  0.011138027 0.0094156701            2 
 4923000   0.46555823   -8.7034474    658.78637  0.011151506 0.0094125581            2 
 4924000   0.46206603   -8.7021335    658.44829   0.01114352 0.0094094509            2 
 4925000   0.46415984   -8.7161661    658.65462  0.011144748 0.0094063442            2 
 4926000    0.4666989   -8.7062178    658.89087  0.011146482  0.009403234            3 
 4927000    0.4652028   -8.7073089    658.72703  0.011141449 0.0094001293            2 
 4928000     0.455068   -8.7201966    658.21234  0.011130485 0.0093970226            4 
 4929000   0.46432254   -8.7056358    657.50348  0.011116242 0.0093939181            3 
 4930000   0.46801359   -8.6951772    657.68673  0.011117085 0.0093908169            2 
 4931000   0.46140555   -8.6956239    658.88952  0.011135157 0.0093877154            3 
 4932000   0.46885832   -8.7096358    657.44636  0.011108515 0.0093846185            2 
 4933000   0.45893141   -8.6878248    658.63631  0.011126365   0.00938152            4 
 4934000   0.46046222   -8.7167577     659.1302  0.011132452 0.0093784239            3 
 4935000   0.45956538   -8.7047345    658.32647  0.011116624 0.0093753304            3 
 4936000   0.45585564   -8.7134948    658.82423  0.011122775  0.009372237            1 
 4937000    0.4609109   -8.7107813    657.57466  0.011099431 0.0093691457            1 
 4938000    0.4594487   -8.6994628    658.05572  0.011105301 0.0093660511            7 
 4939000   0.46139242   -8.7154175    658.54066  0.011111235 0.0093629587            1 
 4940000    0.4652635   -8.7077504    659.24277  0.011120829   0.00935987            5 
 4941000    0.4596033   -8.7093065    658.38792  0.011104161 0.0093567837            2 
 4942000   0.45806263   -8.7202523    658.40731  0.011102241 0.0093536954            2 
 4943000   0.46707084   -8.7075741     657.9467   0.01109223 0.0093506081            8 
 4944000   0.46274916      -8.7121    658.56518  0.011100411 0.0093475228            4 
 4945000   0.45832798   -8.7049296    657.95323  0.011087854 0.0093444405            2 
 4946000   0.45503738   -8.7161672    658.16049  0.011089104   0.00934136            4 
 4947000   0.46157942   -8.7248489    658.61683  0.011094549 0.0093382803            3 
 4948000   0.45360998   -8.7049122     658.5903   0.01109186 0.0093352003            3 
 4949000     0.461125   -8.7187537    657.89563  0.011077922  0.009332122            3 
 4950000   0.45663442   -8.7098526    657.92713  0.011076214 0.0093290476            3 
 4951000   0.46378912   -8.7339215    657.29345  0.011063311 0.0093259734            3 
 4952000   0.46211912    -8.712926    659.28914  0.011094661 0.0093228986            4 
 4953000   0.46187173   -8.7072357    659.95957  0.011103701 0.0093198256            5 
 4954000   0.46004212   -8.7153024    658.31485  0.011073793 0.0093167553            2 
 4955000     0.457187   -8.7071542    658.32892  0.011071795 0.0093136861            2 
 4956000   0.46023759   -8.7114104    657.88422  0.011062083 0.0093106178            2 
 4957000   0.44567565   -8.7261695    658.63365  0.011072451 0.0093075529            2 
 4958000   0.45099555     -8.71554    658.27588  0.011064204 0.0093044893            3 
 4959000   0.46430479   -8.7143187    657.83409  0.011054549 0.0093014239            1 
 4960000   0.45941038   -8.7131558    658.29462  0.011060057 0.0092983601            2 
 4961000   0.46311419   -8.7272164    659.47653  0.011077681 0.0092952973            3 
 4962000   0.46289181   -8.7052505    658.69444  0.011062314 0.0092922374            2 
 4963000   0.44975165   -8.7128478    657.54558  0.011040795 0.0092891786            2 
 4964000   0.45600301   -8.7002291    658.08615  0.011047646 0.0092861235            5 
 4965000   0.45238786   -8.7221512    658.18477  0.011047076 0.0092830663            2 
 4966000    0.4534571    -8.716645    658.38463  0.011048205 0.0092800115            3 
 4967000   0.46205183   -8.7179588    658.77651  0.011052555 0.0092769565            2 
 4968000    0.4539419    -8.703036    657.82632  0.011034392 0.0092739023            2 
 4969000   0.46853456   -8.7136412    658.34778  0.011040917 0.0092708502            2 
 4970000   0.46603423   -8.7095719    658.72585  0.011045034 0.0092677996            2 
 4971000    0.4589921   -8.7245882    658.33346  0.011036235 0.0092647506            5 
 4972000    0.4472075   -8.7119224     656.9938  0.011011561  0.009261702            3 
 4973000    0.4624729   -8.7248533    658.92555  0.011041718 0.0092586549            2 
 4974000   0.46015876    -8.712823    657.57343  0.011016845 0.0092556104            2 
 4975000   0.45376684   -8.7342489    659.00114  0.011038545 0.0092525688            4 
 4976000   0.45026428   -8.7197334    658.04688  0.011020346 0.0092495261            3 
 4977000   0.45439436   -8.7035808    658.42877  0.011024526 0.0092464834            3 
 4978000   0.45072112   -8.7178972    659.18342  0.011034944 0.0092434448            3 
 4979000   0.45597702   -8.7043698    658.76767  0.011025769 0.0092404075            1 
 4980000   0.45186522   -8.7202635     657.1038  0.010995713 0.0092373696            2 
 4981000   0.45976269   -8.7187708    657.79656  0.011005095 0.0092343335            4 
 4982000   0.46146623   -8.7010511    658.01198   0.01100649 0.0092313005            1 
 4983000   0.45327088   -8.7135458    658.42557  0.011011198 0.0092282683            2 
 4984000   0.45317208   -8.7106258     657.8887  0.011000012 0.0092252359            4 
 4985000   0.45518803   -8.7175627     658.0178  0.010999963 0.0092222089            2 
 4986000   0.44880401    -8.723571    659.06926  0.011015331 0.0092191805            3 
 4987000   0.44423925   -8.7265516    658.58917  0.011005099 0.0092161553            2 
 4988000   0.45662698   -8.7309999    657.87138  0.010990901 0.0092131302            2 
 4989000   0.45310642   -8.7226506    658.75943  0.011003532 0.0092101063            1 
 4990000   0.45026047   -8.7297475    658.05911  0.010989631 0.0092070836            5 
 4991000   0.44655021   -8.7130553    658.42409  0.010993523   0.00920406            3 
 4992000   0.45454316    -8.729125    657.73955  0.010979894 0.0092010393            3 
 4993000   0.45386893   -8.7153823    658.63301  0.010992606 0.0091980195            2 
 4994000   0.44383334   -8.7149147    658.18391  0.010982911 0.0091950019            2 
 4995000   0.44796789   -8.7239214    657.49647  0.010969244 0.0091919867            2 
 4996000   0.46105669   -8.7347659    659.38678  0.010998579 0.0091889709            2 
 4997000   0.45602008   -8.7134884     658.3172   0.01097854 0.0091859573            2 
 4998000   0.45672523   -8.7101637    657.62631  0.010964824 0.0091829431            3 
 4999000   0.45713492   -8.7092262    658.03182  0.010969391 0.0091799316            5 
 5000000   0.43953507   -8.7099784    657.77726  0.010962954 0.0091769194            2 
 5001000   0.45931393   -8.7248509     657.2151  0.010951395 0.0091739088            2 
 5002000   0.45351884   -8.7116336    657.93258  0.010961159 0.0091708986            4 
 5003000   0.45032099   -8.7067064    658.20092  0.010963437 0.0091678906            1 
 5004000   0.44472004   -8.7379939    658.21095  0.010961413 0.0091648843            3 
 5005000   0.45746703   -8.7248063    657.66372  0.010950112  0.009161879            3 
 5006000   0.44812794   -8.7201735     657.2297  0.010940699 0.0091588784            1 
 5007000   0.45968957   -8.7193123    658.13952  0.010953657  0.009155877            3 
 5008000   0.45097552   -8.7230865    658.09513  0.010950731 0.0091528765            2 
 5009000   0.45342117   -8.7114974    658.49932  0.010955269 0.0091498774            3 
 5010000   0.44864412   -8.7281214    657.47087  0.010935976 0.0091468779            3 
 5011000   0.45402262    -8.718169    658.84046   0.01095657 0.0091438809            2 
 5012000   0.45447348   -8.7236768     657.6343  0.010934329 0.0091408847            2 
Loop time of 11987.2 on 48 procs for 5000000 steps with 4000 atoms

Performance: 72076.595 tau/day, 417.110 timesteps/s
99.4% CPU use with 48 MPI tasks x no OpenMP threads

MPI task timing breakdown:
Section |  min time  |  avg time  |  max time  |%varavg| %total
---------------------------------------------------------------
Pair    | 784.35     | 835.24     | 909.78     | 109.1 |  6.97
Neigh   | 79.108     | 81.686     | 85.518     |  17.4 |  0.68
Comm    | 741.54     | 822.4      | 879.7      | 118.2 |  6.86
Output  | 13.692     | 13.698     | 13.782     |   0.3 |  0.11
Modify  | 10108      | 10127      | 10150      |   9.6 | 84.48
Other   |            | 107.2      |            |       |  0.89

Nlocal:        83.3333 ave          90 max          78 min
Histogram: 3 2 5 8 5 16 6 0 2 1
Nghost:        2070.69 ave        2094 max        2054 min
Histogram: 5 5 6 5 9 5 7 2 2 2
Neighs:        13514.0 ave       15196 max       12264 min
Histogram: 2 3 9 11 8 3 6 5 0 1
FullNghs:      27027.2 ave       29044 max       25047 min
Histogram: 3 1 5 5 7 15 6 3 0 3

Total # of neighbors = 1297307
Ave neighs/atom = 324.32675
Neighbor list builds = 267646
Dangerous builds = 0

#clear
#
#next RN
#
#jump SELF
Total wall time: 3:19:50
