
units lj                  # Use reduced LJ style units
atom_style atomic         # Uncharged point particles
atom_modify map hash      # Needed for indexing of clusters etc
                          # Used to be able to find where atoms are in relation to each other.

lattice fcc 1.0 spacing 1 1 1
Lattice spacing in x,y,z = 1.5874011 1.5874011 1.5874011
region box block 0 10 0 10 0 10 units lattice
create_box 2 box
Created orthogonal box = (0.0000000 0.0000000 0.0000000) to (15.874011 15.874011 15.874011)
  3 by 4 by 4 MPI processor grid
create_atoms 1 box
Created 4000 atoms
  using lattice units in orthogonal box = (0.0000000 0.0000000 0.0000000) to (15.874011 15.874011 15.874011)
  create_atoms CPU = 0.017 seconds
set type 1 type/fraction 2 0.12 78393
Setting atom values ...
  508 settings made for type/fraction
mass 1 1.0
mass 2 1.0
pair_style lj/cut  3.5
pair_modify tail  yes
pair_coeff 1  1  1.0  1.0   # Intearaction between 1 and 1 set with epsilon = 1 and sigma = 1
pair_coeff 1  2  1.5  0.8
pair_coeff 2  2  0.5  0.88

write_data data.0
System init for write_data ...
Neighbor list info ...
  update every 1 steps, delay 10 steps, check yes
  max neighbors/atom: 2000, page size: 100000
  master list distance cutoff = 3.8
  ghost atom cutoff = 3.8
  binsize = 1.9, bins = 9 9 9
  1 neighbor lists, perpetual/occasional/extra = 1 0 0
  (1) pair lj/cut, perpetual
      attributes: half, newton on
      pair build: half/bin/atomonly/newton
      stencil: half/bin/3d
      bin: standard
WARNING: Not all mixed pair coeffs generated from mixing. Use write_data with 'pair ij' option to store all pair coeffs. (../write_data.cpp:312)


#############################
#   M E L T   S Y S T E M   #
#############################

velocity all create 2.4 6229865 mom yes dist gaussian # Assign velocities
                                                    # Temperature 2.4, random number seed, zero linear momentum
                                                                                # Gaussian distribution

timestep 0.002   # simulation timestep
thermo 1000       # output thermodynamic data every 1000 steps bf 100

# Define a fix  in this case with index 1 applied to all
# particles in the simulation. This fix is for simulations
# in the anisotropic NPT ensemble. Note that we use the MTK
# correction.
fix 1 all npt temp 2.4 2.4 0.1 iso 5.68 5.68 0.5 mtk yes tchain 5 pchain 5 # Use NPT ensemble
                                                                         # Set temperature and pressure and damping
                                                                         # Numbers of thermostats in chain and in barostat
run 10000          # run for 10000 steps
Per MPI rank memory allocation (min/avg/max) = 3.642 | 3.644 | 3.648 Mbytes
Step Temp E_pair E_mol TotEng Press Volume 
       0          2.4   -7.5560252            0   -3.9569252   -3.1663949         4000 
    1000    2.3810585   -4.6606638            0    -1.089969    5.6268147    4758.4725 
    2000    2.4318458   -4.6909873            0   -1.0441305    5.8095571    4729.1779 
    3000    2.4095267   -4.6073646            0  -0.99397811    5.6233257    4790.4009 
    4000    2.3648923   -4.6952138            0   -1.1487622    5.4012112    4770.5805 
    5000    2.3348062   -4.6411382            0   -1.1398044    5.5288147    4774.0429 
    6000    2.3600213    -4.724876            0   -1.1857291    5.3236648    4762.6153 
    7000     2.395384   -4.6689503            0   -1.0767725     5.441317    4788.3487 
    8000    2.3971776    -4.705803            0   -1.1109355    5.8434055    4735.2944 
    9000    2.3939011   -4.6785363            0   -1.0885824    5.4411443    4778.8757 
   10000    2.4008547     -4.68089            0   -1.0805082    5.5210161    4768.4111 
Loop time of 2.19312 on 48 procs for 10000 steps with 4000 atoms

Performance: 787917.954 tau/day, 4559.710 timesteps/s
99.6% CPU use with 48 MPI tasks x no OpenMP threads

MPI task timing breakdown:
Section |  min time  |  avg time  |  max time  |%varavg| %total
---------------------------------------------------------------
Pair    | 0.90844    | 0.98005    | 1.044      |   3.0 | 44.69
Neigh   | 0.19227    | 0.19956    | 0.21071    |   0.9 |  9.10
Comm    | 0.66752    | 0.76148    | 0.8259     |   3.7 | 34.72
Output  | 0.00024591 | 0.00025195 | 0.00031858 |   0.0 |  0.01
Modify  | 0.2022     | 0.23709    | 0.26338    |   3.3 | 10.81
Other   |            | 0.01469    |            |       |  0.67

Nlocal:        83.3333 ave          92 max          74 min
Histogram: 1 4 2 10 4 10 4 6 5 2
Nghost:        1470.25 ave        1500 max        1447 min
Histogram: 5 5 5 8 6 4 8 1 5 1
Neighs:        7991.42 ave        9109 max        7142 min
Histogram: 5 2 10 6 9 3 8 0 2 3

Total # of neighbors = 383588
Ave neighs/atom = 95.897000
Neighbor list builds = 905
Dangerous builds = 195

# Equilibrate just above the melting temperature to avoid step fn in T

fix 1 all npt temp 1.25 1.25 0.1 iso 5.68 5.68 0.5 mtk yes tchain 5 pchain 5
run 2000
Per MPI rank memory allocation (min/avg/max) = 3.642 | 3.644 | 3.648 Mbytes
Step Temp E_pair E_mol TotEng Press Volume 
   10000    2.4008547     -4.68089            0   -1.0805082    5.5210161    4768.4111 
   11000    1.2307827   -6.2634747            0   -4.4177622    5.9255406    3902.0165 
   12000    1.2624136   -6.2877618            0   -4.3946148    5.6599139    3909.6006 
Loop time of 0.485226 on 48 procs for 2000 steps with 4000 atoms

Performance: 712244.952 tau/day, 4121.788 timesteps/s
99.6% CPU use with 48 MPI tasks x no OpenMP threads

MPI task timing breakdown:
Section |  min time  |  avg time  |  max time  |%varavg| %total
---------------------------------------------------------------
Pair    | 0.21609    | 0.23179    | 0.25589    |   1.9 | 47.77
Neigh   | 0.032464   | 0.03412    | 0.037635   |   0.5 |  7.03
Comm    | 0.13834    | 0.16631    | 0.1848     |   2.6 | 34.27
Output  | 6.132e-05  | 6.2962e-05 | 7.6984e-05 |   0.0 |  0.01
Modify  | 0.043892   | 0.048369   | 0.056017   |   1.5 |  9.97
Other   |            | 0.004576   |            |       |  0.94

Nlocal:        83.3333 ave          92 max          74 min
Histogram: 1 3 2 6 4 16 9 4 2 1
Nghost:        1663.67 ave        1686 max        1640 min
Histogram: 1 2 3 7 10 10 6 4 3 2
Neighs:        9760.00 ave       11192 max        8478 min
Histogram: 2 2 4 7 12 11 6 2 1 1

Total # of neighbors = 468480
Ave neighs/atom = 117.12000
Neighbor list builds = 143
Dangerous builds = 6

#############################
# L I N E A R  Q U E N C H  #
#############################

# Define solid atoms. This closely follows ten Wolde  Ruiz-Montero and Frenkel  Faraday Discuss  1996  104  93-110
# Compute components of the per-atom q6 vector
compute q6 all orientorder/atom degrees 1 6 components 6 nnn NULL cutoff 1.3 # compute the Q6 parameter.
                                                                             # Use all neighbours within 1.3 unit cell.

# get number of connections
compute coord_number all coord/atom orientorder q6 0.5

# An atom is solid if it has 8 or more connections (of a possible 14)
variable is_solid atom c_coord_number>=8
group solid dynamic all var is_solid    # Must be dynamic to update
dynamic group solid defined

# do clustering
compute cluster solid cluster/atom 1.3 # Create a cluster where all atoms within are solid and max 1.3 units from another member

# define chunks one chunk per cluster
compute clus_chunks solid chunk/atom c_cluster nchunk every compress yes  # Says which atoms are in which chunk

# count the size of each chunk
compute size_chunks solid property/chunk clus_chunks count


# Find the maximum entry in the vector of chunk sizes
variable max_n equal max(c_size_chunks)


# Thermo style which includes this variable
# thermo_style custom step temp pe vol v_max_n

thermo ${N}  # Print the thermo information every 100 steps
thermo 1000  

# Reset the npt fix at a lower temperature (below freezing)
fix 1  all npt temp  ${temp} ${temp}  0.1  iso  5.68  5.68  0.5  mtk yes tchain  5  pchain  5
fix 1  all npt temp  0.45 ${temp}  0.1  iso  5.68  5.68  0.5  mtk yes tchain  5  pchain  5
fix 1  all npt temp  0.45 0.45  0.1  iso  5.68  5.68  0.5  mtk yes tchain  5  pchain  5

dump dmp2 all dcd ${N} traj.dcd
dump dmp2 all dcd 1000 traj.dcd


compute msd all msd com yes
variable twopoint equal c_msd[4]/6/(step*dt+1.0e-6)
fix 9 all vector 10 c_msd[4]
variable fit equal slope(f_9)/6/(10*dt)
thermo_style custom step temp pe c_msd[4] v_twopoint v_fit v_max_n

fix 1 all npt temp 1.25 ${temp} 0.1 iso 5.68 5.68 0.5 mtk yes tchain 5 pchain 5
fix 1 all npt temp 1.25 0.45 0.1 iso 5.68 5.68 0.5 mtk yes tchain 5 pchain 5
run 2000000 # 5000000  # Run for this many steps
Neighbor list info ...
  update every 1 steps, delay 10 steps, check yes
  max neighbors/atom: 2000, page size: 100000
  master list distance cutoff = 3.8
  ghost atom cutoff = 3.8
  binsize = 1.9, bins = 9 9 9
  4 neighbor lists, perpetual/occasional/extra = 1 3 0
  (1) pair lj/cut, perpetual
      attributes: half, newton on
      pair build: half/bin/atomonly/newton
      stencil: half/bin/3d
      bin: standard
  (2) compute orientorder/atom, occasional
      attributes: full, newton on
      pair build: full/bin/atomonly
      stencil: full/bin/3d
      bin: standard
  (3) compute coord/atom, occasional
      attributes: full, newton on
      pair build: full/bin/atomonly
      stencil: full/bin/3d
      bin: standard
  (4) compute cluster/atom, occasional
      attributes: full, newton on
      pair build: full/bin/atomonly
      stencil: full/bin/3d
      bin: standard
Per MPI rank memory allocation (min/avg/max) = 9.753 | 9.759 | 9.764 Mbytes
Step Temp PotEng c_msd[4] v_twopoint v_fit v_max_n 
   12000    1.2624136   -6.2877618            0            0 8.3333333e+20            2 
   13000    1.2377187   -6.2823873   0.58219175 0.0037319983  0.047862741            6 
   14000    1.2598034   -6.2659177    1.1347117 0.0067542361  0.046790503            1 
   15000     1.297456   -6.3084374    1.6191368 0.0089952039   0.04529169            2 
   16000    1.2551287   -6.3259472    2.1383717  0.011137352  0.044054194            2 
   17000    1.2654538   -6.3054897    2.6782396  0.013128625   0.04370479            3 
   18000    1.2302718    -6.281898    3.2369481   0.01498587  0.044114444            2 
   19000    1.2445475   -6.2696601    3.7925809  0.016634126  0.044714418            2 
   20000    1.2956559    -6.318807    4.3793454  0.018247272  0.044995727            4 
   21000    1.2475099    -6.261972     4.863942  0.019301357  0.045058586            2 
   22000    1.2665211   -6.3141251    5.3830078   0.02039018  0.044916307            2 
   23000    1.2291929   -6.2953021    5.8788129  0.021300046   0.04472177            2 
   24000    1.2636678   -6.3211093    6.4150782  0.022274577  0.044521467            2 
   25000    1.2250605    -6.287877    6.9819048  0.023273015   0.04450342            2 
   26000    1.2455511   -6.3069618    7.5806895  0.024297081   0.04456725            5 
   27000    1.2384684   -6.2750238    8.0558307  0.024863674  0.044668167            1 
   28000    1.2607652   -6.2816614    8.5605353  0.025477783  0.044620714            2 
   29000    1.2431399   -6.2414363    9.0711268  0.026066456  0.044535261            4 
   30000    1.2390657   -6.3179148    9.5364467  0.026490129  0.044363251            4 
   31000     1.249849   -6.2802783    10.065437  0.027057627  0.044273808            2 
   32000    1.2556982   -6.3175621    10.582144  0.027557667  0.044141163            2 
   33000     1.253987   -6.2958198    11.135251   0.02811932  0.044025111            4 
   34000    1.2374339   -6.3084855    11.635001  0.028517159  0.043982281            3 
   35000    1.2565043   -6.2994207    12.091556  0.028789418  0.043921064            2 
   36000    1.2441925   -6.2718386    12.703378  0.029405966  0.043875574            2 
   37000    1.2339672   -6.2882779    13.181137  0.029687244  0.043801568            2 
   38000    1.2352621   -6.2581472    13.775462  0.030209346  0.043773355            1 
   39000    1.2409265   -6.3092292    14.365609  0.030695745  0.043808438            4 
   40000    1.2448614   -6.3311771    14.964358  0.031175746  0.043888164            2 
   41000    1.2416842   -6.3178112    15.553895  0.031613607  0.043995846            2 
   42000    1.2575562   -6.3325519    16.042768  0.031830888  0.044103301            3 
   43000    1.2308562    -6.324504    16.544034  0.032062081  0.044157011            2 
   44000    1.2353359   -6.3065562    17.118328  0.032421076  0.044197196            2 
   45000    1.2410422   -6.3207266     17.67562   0.03273263  0.044264787            4 
   46000     1.222302   -6.2996101    18.104652  0.032798283   0.04429542            2 
   47000    1.2477701   -6.2636372    18.609595  0.032995735  0.044277229            2 
   48000    1.2455671   -6.3299022    19.117682  0.033190421  0.044274063            3 
   49000    1.2302704   -6.2817657    19.803515  0.033679447   0.04429055            3 
   50000       1.2187   -6.3166951     20.30066  0.033834433  0.044312513            5 
   51000    1.2249549   -6.3214746    20.867979  0.034098004  0.044343839            3 
   52000    1.2349217   -6.2737102     21.73652  0.034834167   0.04440114            7 
   53000     1.221609    -6.300935    22.322525   0.03509831  0.044505856            3 
   54000    1.2315758   -6.2876538    22.717422  0.035057749  0.044595439            3 
   55000    1.2357839   -6.2879958    23.137771  0.035057228  0.044651076            2 
   56000    1.2249119   -6.3077942     23.54314  0.035034434  0.044667451            2 
   57000    1.2598596   -6.3048242    24.133809  0.035283346  0.044679643            3 
   58000    1.2683722    -6.344191    24.649253  0.035415594  0.044686128            3 
   59000    1.2205577    -6.325573    25.089593  0.035437278  0.044677203            2 
   60000    1.2273017   -6.3202269    25.574368  0.035519955  0.044638525            3 
   61000    1.2309424   -6.3535362    26.037585  0.035570471  0.044609544            3 
   62000    1.2221798   -6.2810845    26.558406  0.035696782  0.044575667            4 
   63000    1.2327626   -6.3475747      27.0046  0.035720371  0.044544748            1 
   64000    1.2186919   -6.3207747    27.462862  0.035758935  0.044487197            5 
   65000    1.2622153   -6.2787879    27.993735  0.035889403  0.044437491            5 
   66000    1.2268454   -6.3318508    28.272135   0.03569714  0.044362774            2 
   67000    1.2270615    -6.316615    28.697073  0.035692876  0.044272988            4 
   68000    1.2380187   -6.3061083    29.271396  0.035871809  0.044174851            1 
   69000    1.2130067   -6.3485993    29.905221  0.036117417  0.044104912            4 
   70000    1.2334789    -6.247079    30.691438  0.036537426  0.044070183            3 
   71000    1.2344796   -6.3381393    31.101937  0.036504621  0.044047921            4 
   72000    1.2167231   -6.3208232     31.69117  0.036679594  0.044031188            1 
   73000    1.2223494   -6.3211281     32.04468  0.036580685  0.044006603            3 
   74000    1.2416983   -6.3358872    32.477796  0.036574094   0.04396903            3 
   75000    1.2378595   -6.3139564    33.001602  0.036668447  0.043930687            2 
   76000    1.2222047    -6.311289    33.556235  0.036794117  0.043896559            5 
   77000    1.2420086    -6.359947    34.087268  0.036890982  0.043855854            2 
   78000    1.2265367   -6.3634121    34.595737  0.036961258  0.043828242            2 
   79000    1.2195392   -6.3492248    35.135976  0.037063265  0.043801589            1 
   80000    1.2203473   -6.3156201     35.77786  0.037268604  0.043776201            2 
   81000    1.2250508   -6.3388085    36.252124  0.037296424  0.043762734            3 
   82000    1.2284738   -6.3011668    36.867693  0.037467168  0.043753859            3 
   83000    1.2059685   -6.3335049     37.16908  0.037318354  0.043737102            3 
   84000    1.2321397   -6.3816772    37.773694  0.037473903   0.04371559            3 
   85000    1.2600385   -6.3280329    37.959742  0.037215434   0.04368463            4 
   86000    1.2217155    -6.327525    38.779772  0.037577298  0.043649387            4 
   87000    1.2383286   -6.3427677    39.295002  0.037638891  0.043623228            5 
   88000    1.2266627   -6.3605893    39.673383  0.037569491  0.043601018            1 
   89000    1.2052073   -6.3194317    40.069387  0.037518152  0.043566442            3 
   90000    1.2129364   -6.3602575    40.793857   0.03777209  0.043546663            5 
   91000    1.2120955    -6.398064    41.049438   0.03759106  0.043523339            2 
   92000    1.2118787   -6.3299123    41.738197  0.037806337  0.043494792            3 
   93000    1.2145221    -6.378517    41.999054  0.037633561  0.043456985            4 
   94000    1.2208158    -6.365728    42.611582  0.037776225  0.043419319            2 
   95000    1.2483453   -6.3454801    43.079466  0.037789005  0.043389107            3 
   96000    1.1889569   -6.3326828    44.051192  0.038238881  0.043372485            7 
   97000    1.2019621   -6.3497199    44.313148  0.038069714  0.043361819            3 
   98000    1.2173406   -6.3578877    44.547143  0.037880224  0.043337889            2 
   99000    1.2039983   -6.3239311    45.173819    0.0380251  0.043312041            3 
  100000    1.2169924   -6.3207015     45.50431  0.037920258  0.043286051            1 
  101000    1.2248817   -6.3568979    46.098796   0.03803531  0.043257587            4 
  102000    1.2115942   -6.3150343    46.396152  0.037905353  0.043220212            4 
  103000    1.2040804   -6.3492672    46.975836   0.03800634  0.043182771            2 
  104000    1.1833622   -6.3797919    47.471358  0.038037947  0.043147391            3 
  105000    1.2180513   -6.3479659    47.700329  0.037857404  0.043104602            1 
  106000    1.2433436   -6.3860741    48.208477  0.037899746  0.043063334            2 
  107000    1.2076579   -6.3615807    48.650052  0.037889448  0.043023219            4 
  108000    1.1743241   -6.3382385    49.333751  0.038066166  0.042989217            1 
  109000    1.2149328   -6.3286692    49.698106  0.037995494  0.042954269            3 
  110000    1.1911544   -6.3237472    50.301301  0.038107046   0.04291578            1 
  111000    1.2219934   -6.3662416    50.617234  0.038000926  0.042871681            3 
  112000    1.2382643   -6.3610956    51.130805  0.038043753  0.042835432            1 
  113000    1.2121833   -6.3354664     51.63986  0.038082493  0.042797499            3 
  114000    1.1755106    -6.338472    52.162509  0.038130489  0.042760804            1 
  115000    1.2037092   -6.3757275    52.791965  0.038255047    0.0427291            5 
  116000    1.1968992   -6.3827091    52.907191  0.038008039  0.042696344            3 
  117000    1.1949347   -6.3661938    53.513572  0.038115079  0.042660643            2 
  118000    1.2155182   -6.3895038    53.954863  0.038103716   0.04262999            1 
  119000    1.2087266    -6.315093    54.751829  0.038341617  0.042597343            2 
  120000    1.2087789   -6.3516319    54.738895  0.038013121   0.04256469            2 
  121000    1.2078311   -6.3182116    55.072994  0.037929059  0.042523316            2 
  122000    1.2184159   -6.3533536    55.519838  0.037923386  0.042473629            3 
  123000    1.1891986   -6.3721796    56.017729  0.037952391   0.04242436            3 
  124000    1.2150525   -6.3997287    56.596996  0.038035615  0.042376955            3 
  125000    1.2098276   -6.3912726    56.753449  0.037835633  0.042335344            1 
  126000     1.204281   -6.3330485    57.563125   0.03807085  0.042290835            3 
  127000    1.1812273   -6.3754165    58.023805  0.038073363  0.042253335            2 
  128000     1.200917   -6.3362369     58.39126  0.038015143  0.042214561            1 
  129000     1.208816   -6.4093094    58.846936  0.038014817   0.04217661            2 
  130000    1.1892136   -6.3663563     59.51265  0.038149134  0.042140709            2 
  131000     1.175921   -6.3747422    59.704578  0.037980011  0.042105956            1 
  132000    1.2189426   -6.3502824    60.260839  0.038043459  0.042066853            2 
  133000    1.2137028   -6.3889016    60.682897  0.038021865  0.042024272            1 
  134000    1.1949767   -6.3724411    61.274759  0.038106193  0.041982932            2 
  135000    1.1985149   -6.3807763    61.836554  0.038170712   0.04194923            6 
  136000      1.23237   -6.3696746    62.448905   0.03826526  0.041919837            2 
  137000    1.1904538   -6.3401611    63.047565    0.0383501  0.041893195            3 
  138000    1.2203058   -6.3918768    63.028907  0.038060934  0.041864616            2 
  139000    1.1996007   -6.3881304    63.881668  0.038298362  0.041831532            2 
  140000    1.1974568   -6.4182919    63.995339  0.038092464  0.041801275            2 
  141000    1.1790719   -6.3375161    64.693446  0.038234897  0.041768823            3 
  142000    1.1968826   -6.4248573    65.059094  0.038180219  0.041735543            4 
  143000    1.1964582   -6.3750258    65.462213  0.038148143  0.041702084            2 
  144000    1.1849982   -6.3753246    65.886731  0.038128895  0.041670254            1 
  145000    1.2092381   -6.3904696     66.23874  0.038068241  0.041632927            4 
  146000     1.187559   -6.3208845    66.487953  0.037949745  0.041594336            2 
  147000    1.1811338   -6.3651865    67.078886  0.038026579  0.041553234            1 
  148000    1.2155797   -6.3980513    67.271609  0.037878158    0.0415117            2 
  149000    1.1803915   -6.3859164     67.77292  0.037904318  0.041471036            4 
  150000    1.1952681   -6.4150542     68.26717  0.037926205  0.041430814            4 
  151000    1.1864439   -6.3959444    68.740437  0.037936223  0.041389623            2 
  152000    1.1898101   -6.3759659    69.176222   0.03792556  0.041349866            5 
  153000    1.1934504   -6.3870678    69.725014  0.037976587  0.041313082            6 
  154000    1.1692946   -6.3986992    70.095143  0.037930272  0.041274081            2 
  155000    1.1893671   -6.3772498    70.549611  0.037929898  0.041237609            2 
  156000    1.1788242   -6.3869655    70.911949  0.037880315  0.041201819            6 
  157000    1.2085403   -6.4042261    71.517728  0.037960577  0.041164007            1 
  158000    1.2082762   -6.4077357    71.940461  0.037943281  0.041129472            2 
  159000    1.1624485    -6.390028    72.621808  0.038061744  0.041096134            2 
  160000    1.1972719   -6.3814438    73.207724  0.038129023  0.041067085            3 
  161000    1.1930447   -6.4226722     73.42738   0.03800589  0.041040116            2 
  162000    1.2145106    -6.392061    73.786853    0.0379562  0.041011743            4 
  163000    1.2127982   -6.3869574    74.302696  0.037987063  0.040983494            2 
  164000    1.2096716   -6.3743458    74.893354  0.038055566  0.040954848            7 
  165000    1.1853867   -6.4207869    75.030671  0.037894278   0.04092612            3 
  166000    1.1524295   -6.4000125    75.743883  0.038024037    0.0408964            3 
  167000    1.1880181   -6.3948555    76.147416  0.037997712  0.040865595            3 
  168000    1.2088236   -6.4252658    76.450754  0.037922001  0.040837923            3 
  169000    1.1507887   -6.3663756    76.716912  0.037828852  0.040808945            2 
  170000    1.2025355    -6.423229    77.114035  0.037800997  0.040776256            2 
  171000    1.1866787   -6.4056178    77.639931  0.037836223  0.040742164            3 
  172000    1.1893911   -6.3960633    77.695335  0.037643089  0.040707622            3 
  173000    1.1367153   -6.4127401    78.320454  0.037726615  0.040671643            4 
  174000    1.1862759   -6.4289046    78.778628  0.037729228  0.040638278            2 
  175000    1.2150895   -6.4226179      79.2784  0.037751619   0.04060783            3 
  176000     1.168286   -6.3848709    79.949378  0.037854819  0.040576842            3 
  177000    1.1508592   -6.4600446    80.481805  0.037891622  0.040550202            3 
  178000     1.197228   -6.4104382    80.943815  0.037895044  0.040524272            5 
  179000    1.1907759   -6.3772768    81.232173  0.037817585  0.040496922            4 
  180000     1.186479   -6.4184213    81.620503   0.03778727  0.040466697            9 
  181000    1.1698207   -6.4697845    82.123551  0.037810106  0.040437711            2 
  182000     1.183323   -6.3718698    82.395774  0.037727003  0.040410002            3 
  183000    1.1759417   -6.4120355      82.8179  0.037713069  0.040379105            1 
  184000    1.1718943   -6.3993674    83.592069  0.037858727  0.040350712            3 
  185000    1.1761894   -6.4310516     84.08311  0.037875275  0.040324163            3 
  186000    1.1834666   -6.4022377     84.13084  0.037693029  0.040297885            2 
  187000    1.1841299   -6.4130227    84.525208  0.037667205  0.040270218            4 
  188000    1.2112349   -6.4386652     85.27853  0.037800767  0.040244374            6 
  189000    1.1999684   -6.3955039    85.359464  0.037636448  0.040216095            3 
  190000    1.1507551   -6.3792225    85.969507  0.037705924  0.040187232            4 
  191000    1.1851738   -6.3828266    86.435367  0.037711766  0.040155258            2 
  192000    1.1772453   -6.4565351     86.19104  0.037409306  0.040119312            3 
  193000    1.1626166   -6.4263143    86.622679  0.037401847   0.04008161            5 
  194000    1.1689118   -6.4343261    86.943986  0.037347073  0.040043776            2 
  195000    1.1667459    -6.430993    87.403573  0.037351954  0.040005901            5 
  196000    1.1752798   -6.4347792    87.577345  0.037235266  0.039969659            2 
  197000    1.1728741   -6.4197082    88.472912   0.03742509  0.039932864            2 
  198000    1.1476146   -6.4509174    88.570653  0.037277211  0.039895504            1 
  199000    1.2041186   -6.3781063    89.157365   0.03733558  0.039861482            2 
  200000    1.2000825    -6.447279    89.703903  0.037376626  0.039830468            5 
  201000     1.181896   -6.4031656    90.558546  0.037545002  0.039800699            3 
  202000    1.1732706   -6.4070231    90.740583  0.037434234   0.03977268            3 
  203000    1.1725454   -6.3982963    91.321076  0.037488126  0.039746097            3 
  204000    1.1755698   -6.4357876    91.741298  0.037476021  0.039720085            2 
  205000    1.1912416   -6.4206779    92.403596  0.037562437  0.039692656            3 
  206000    1.1798806   -6.4316675    92.411969  0.037383482  0.039665417            3 
  207000    1.1779003   -6.4203875    92.789541  0.037354887   0.03963821            2 
  208000    1.1800288   -6.4578314    93.654607  0.037521878  0.039610647            2 
  209000      1.18557   -6.3984657    93.921372  0.037448713  0.039585372            2 
  210000    1.1778186   -6.4221464    94.124195  0.037350871  0.039555504            2 
  211000    1.1812187   -6.4353597    94.418326  0.037290018  0.039524465            3 
  212000    1.1827558   -6.4516702    94.753703  0.037245952  0.039495826            3 
  213000    1.1512278   -6.4294054    95.643932  0.037419379  0.039466974            2 
  214000    1.1718769   -6.4568196     95.88721  0.037339256  0.039438029            6 
  215000    1.1639314   -6.4242308    96.568828  0.037429778   0.03940928            2 
  216000    1.1986131   -6.4333867    96.663895  0.037293169  0.039383878            3 
  217000    1.1716221   -6.4428622    96.917616  0.037218747  0.039357582            2 
  218000    1.1641077   -6.4524393    97.895052  0.037421656  0.039332463            3 
  219000    1.1591099   -6.4164683     98.39238  0.037440023  0.039309575            5 
  220000    1.1596233   -6.4217952    98.948903  0.037480645   0.03928776            2 
  221000    1.1595787   -6.4402479    98.970238  0.037319094  0.039264976            4 
  222000    1.1975165   -6.4666315    99.201375  0.037237753  0.039242799            2 
  223000    1.1601608   -6.4184541    100.01827  0.037376037  0.039219254            1 
  224000     1.178104   -6.4330306    100.48623  0.037383269  0.039196845            1 
  225000     1.167558   -6.4141533    101.23281  0.037493633  0.039176161            2 
  226000    1.1645707   -6.4498335    101.47557  0.037417247  0.039155615            6 
  227000    1.1608954   -6.4669937     102.0099  0.037448569  0.039138433            2 
  228000       1.1804   -6.4396907    102.83991  0.037587687   0.03912307            2 
  229000    1.1485417   -6.4177106    103.11192  0.037522531  0.039109764            1 
  230000    1.1869397   -6.4523999     103.5303  0.037510978  0.039094857            2 
  231000     1.163619   -6.4571498     103.9113   0.03748604  0.039080642            5 
  232000    1.1692016   -6.4388655    104.35045  0.037482202  0.039065376            2 
  233000    1.1641533   -6.4350535    105.12017  0.037596629  0.039050746            5 
  234000    1.1572419   -6.4234373    105.37579  0.037526991  0.039037589            3 
  235000    1.1678182   -6.4475672    105.65122  0.037464971  0.039021202            2 
  236000    1.1605681    -6.479183    105.84579  0.037374927  0.039002732            6 
  237000    1.1829057   -6.4265868    106.19392  0.037339633  0.038983802            3 
  238000    1.1682676   -6.4117969    106.50741  0.037292511  0.038964076            4 
  239000    1.1810539   -6.4300013    106.43288  0.037110489  0.038942548            3 
  240000    1.1820099   -6.4175531    107.43614  0.037304216  0.038921476            5 
  241000    1.1484173     -6.44531    107.40877   0.03713996  0.038901729            2 
  242000    1.1595574   -6.4402243    108.12727   0.03723391  0.038881568            3 
  243000    1.1585009    -6.451317    108.61547  0.037248102  0.038862799            2 
  244000    1.1427277   -6.4826716    108.85124  0.037175969  0.038843091            5 
  245000    1.1626022    -6.465389    109.38212  0.037204804   0.03882201            2 
  246000    1.1638728   -6.4159795    109.22505  0.037000356  0.038800176            2 
  247000    1.1706722   -6.4227961    110.29562  0.037211748  0.038778241            5 
  248000    1.1382625   -6.4638896     110.6567  0.037183029  0.038757865            4 
  249000    1.1460531   -6.4635079    111.12989  0.037192066  0.038738339            4 
  250000    1.1336641   -6.4881533    111.60777  0.037202589  0.038720162            3 
  251000    1.1436518   -6.4921576    112.11727   0.03722353  0.038703598            2 
  252000    1.1768786   -6.4385596     112.8861  0.037330058   0.03868883            2 
  253000    1.1468963   -6.4513515    113.53766  0.037397122  0.038673145            2 
  254000      1.15664   -6.4597849    113.37869  0.037197733  0.038658586            2 
  255000    1.1547495   -6.4569332    114.32911  0.037362455  0.038644184            3 
  256000    1.1388303   -6.4637804    114.79234  0.037367298   0.03862987            2 
  257000    1.1451875   -6.4727561    114.78092  0.037218196  0.038615602            5 
  258000    1.1370892   -6.4491919    116.15101  0.037516475  0.038600817            2 
  259000    1.1656174   -6.4469211    116.21281  0.037391511  0.038589302            3 
  260000    1.1335503    -6.462851     116.3411  0.037288816  0.038575783            2 
  261000    1.1508605   -6.4567089    117.01076  0.037359757  0.038565123            2 
  262000    1.1552575   -6.4592734    117.74668  0.037451233  0.038555069            2 
  263000     1.154085   -6.4337232    118.57044  0.037569847   0.03854512            2 
  264000    1.1544435   -6.4481702    118.27576  0.037334521  0.038534135            2 
  265000    1.1669836   -6.4490508    118.38868  0.037229144  0.038520847            2 
  266000    1.1446659   -6.4482822    118.92087  0.037255911  0.038507545            2 
  267000    1.1536467   -6.4667683    119.25003  0.037219112  0.038494506            3 
  268000     1.148014   -6.4784388    119.99399  0.037311565  0.038482673            3 
  269000    1.1574289   -6.4663753     120.5711  0.037351643  0.038470204            3 
  270000    1.1383965   -6.4785861    120.39263  0.037158218  0.038458029            5 
  271000    1.1443834   -6.4470813    121.00463  0.037209295  0.038442801            2 
  272000    1.1492075    -6.484068    121.07635  0.037094471  0.038426446            4 
  273000    1.1572041   -6.4853362    121.39868  0.037056984  0.038409831            2 
  274000     1.172308   -6.4784223    121.98614  0.037100407  0.038392985            2 
  275000    1.1690202   -6.4466893    122.33769  0.037072027   0.03837637            3 
  276000    1.1279508   -6.4602927     122.9191  0.037113253  0.038358423            5 
  277000    1.1520658    -6.417616    122.88977  0.036970447  0.038341078            2 
  278000    1.1543078   -6.4977118    122.89072  0.036837746  0.038321691            2 
  279000    1.1313455   -6.4210455    124.17595   0.03708959  0.038303659            3 
  280000    1.1340815   -6.4372174    124.22379  0.036971365  0.038286563            3 
  281000    1.1673396   -6.4890326    124.02765  0.036781628   0.03826813            2 
  282000    1.1470736    -6.481489     124.8181   0.03688478  0.038249127            2 
  283000    1.1456515   -6.4653525    125.01268  0.036811743  0.038231451            3 
  284000     1.143645   -6.4753075    125.69798   0.03688321  0.038211241            2 
  285000    1.1444219   -6.4957314    125.72641  0.036762107  0.038192269            3 
  286000    1.1379485   -6.4962439    126.39475  0.036828307  0.038173094            7 
  287000    1.1586329   -6.4807998    126.75053  0.036803289  0.038154675            2 
  288000    1.1151546   -6.4777589    127.48601  0.036888314  0.038136062            2 
  289000    1.1527417   -6.4297335    128.38849  0.037020904  0.038119303            3 
  290000    1.1322361    -6.478524    128.07312  0.036802621  0.038102351            1 
  291000    1.1208342   -6.4733607    128.56369  0.036816636  0.038085741            3 
  292000    1.1441836   -6.5225152    129.03671  0.036825544  0.038068681            3 
  293000    1.1386777   -6.4619615    129.96957   0.03696518  0.038053235            3 
  294000    1.1454043    -6.452212    130.56964  0.037009535  0.038038585            2 
  295000     1.123489   -6.4843764    130.27646   0.03680126  0.038022198            2 
  296000    1.1522276   -6.4544007     131.1169  0.036913542  0.038005574            2 
  297000    1.1211867   -6.4672853    131.00183  0.036756967  0.037989969            1 
  298000    1.1373454   -6.5065438    131.40742  0.036747042   0.03797379            3 
  299000     1.134281   -6.4925543    131.70406  0.036706817  0.037956141            2 
  300000    1.1379925   -6.5098795    131.79189  0.036608857  0.037939186            2 
  301000    1.1378945    -6.457782    132.73493  0.036748319  0.037922212            5 
  302000    1.1189749   -6.4911294    132.45231  0.036548651  0.037903821            5 
  303000    1.1766592   -6.5014493    133.38748  0.036685226  0.037885701            2 
  304000    1.1504629   -6.5213829    133.50421  0.036596549  0.037868162            4 
  305000    1.1114138   -6.4984676    133.64652  0.036515444  0.037849587            3 
  306000    1.1452265    -6.510798    134.11136  0.036522702  0.037830525            4 
  307000    1.1290643   -6.4740207    135.17971  0.036693733  0.037812041            2 
  308000    1.1431481   -6.5038689    135.55211  0.036675355   0.03779424            4 
  309000    1.1147003   -6.4975285     135.7927  0.036621547  0.037776434            4 
  310000    1.1235947   -6.4871324    135.99162  0.036556887  0.037757857            2 
  311000    1.1303398    -6.505328    135.85536  0.036402829  0.037738739            1 
  312000    1.1148625   -6.4803191    136.18932  0.036375354   0.03771715            2 
  313000    1.1543455   -6.4908821    136.56285  0.036358587  0.037696844            6 
  314000     1.123602   -6.4754303    136.77504  0.036299107  0.037676501            2 
  315000    1.1370536   -6.4221379    137.39462  0.036347782  0.037657014            2 
  316000    1.1281866   -6.4902249    137.87797  0.036360224  0.037635821            3 
  317000    1.1306661   -6.5497392    137.88836  0.036248254  0.037613004            7 
  318000    1.1378235   -6.5172274    138.32552  0.036248825  0.037590437            4 
  319000    1.1093912   -6.5369885    138.65182  0.036220433  0.037567522            2 
  320000    1.1352657    -6.485189    139.35496  0.036290353   0.03754507            1 
  321000    1.1366289   -6.5314074    138.87292   0.03605216  0.037522022            2 
  322000    1.1099621   -6.5162994    139.78012  0.036174979   0.03749823            3 
  323000    1.1341412     -6.46355    140.20381  0.036172293  0.037474692            3 
  324000    1.1218199   -6.5068462    140.42829  0.036118387  0.037451575            1 
  325000    1.1217842    -6.510087    140.52347   0.03603166   0.03742801            3 
  326000    1.1047226   -6.5193935    140.82734  0.035998809  0.037403321            3 
  327000    1.0983819   -6.5017829    141.37014  0.036027049  0.037379028            7 
  328000    1.1381316   -6.5432857    141.35085  0.035912309  0.037354475            5 
  329000    1.1137966   -6.4998581    141.39692  0.035814824  0.037329932            4 
  330000    1.1158373    -6.497389    142.61579  0.036014089  0.037305591            2 
  331000    1.1230962   -6.4973181    142.79681  0.035950859   0.03728157            2 
  332000    1.1417983   -6.5207652    143.13421  0.035927261   0.03725815            2 
  333000    1.1354718    -6.538357    143.56025  0.035925988  0.037235046            4 
  334000    1.1070772    -6.486116    143.88582  0.035899657  0.037212221            4 
  335000    1.1233575   -6.5286652    143.85302  0.035784333  0.037188955            2 
  336000    1.1175381   -6.5395905    144.60872  0.035865257  0.037166204            5 
  337000    1.1377447   -6.5402855    145.20162  0.035905446  0.037143542            2 
  338000    1.1302854   -6.4762885    146.17847  0.036040058  0.037123355            2 
  339000    1.1037639   -6.5041993    146.23953  0.035948753  0.037103521            2 
  340000    1.1081079   -6.5219111    146.89819  0.036004459  0.037083344            5 
  341000    1.1302577   -6.5414672    147.16606  0.035964335  0.037063651            3 
  342000    1.1218086   -6.5393535    147.21357  0.035870753  0.037043576            3 
  343000    1.1181515    -6.544192    147.50282  0.035836448  0.037022774            1 
  344000    1.1442081   -6.5088401    147.97512  0.035846686  0.037000872            3 
  345000    1.1382582   -6.5357972    147.69229  0.035674466  0.036978511            4 
  346000     1.152048   -6.5172321    148.91981  0.035867007  0.036956591            3 
  347000    1.1264586   -6.5097416    148.68109  0.035706314  0.036935595           10 
  348000    1.1255569   -6.5318656    149.13862   0.03571327   0.03691375            3 
  349000     1.112168   -6.5526815    148.99095  0.035575681  0.036890832            2 
  350000     1.127937    -6.533059    149.84631  0.035677693  0.036867941            4 
  351000    1.1012107   -6.5175457    150.22375  0.035665657   0.03684475            3 
  352000    1.1102867   -6.5163043     150.4478  0.035617376  0.036822248            3 
  353000    1.1012933   -6.5022457    151.13178  0.035677945  0.036799959            1 
  354000    1.1072945   -6.5405232    150.55241  0.035440774  0.036776708            4 
  355000    1.1089383   -6.5278819    151.58092  0.035582375   0.03675338            3 
  356000     1.147262   -6.4834702    151.55122  0.035475473  0.036731185            2 
  357000    1.1225681   -6.5239177    152.61652  0.035624771  0.036709142            1 
  358000     1.140804   -6.5163907    152.20637  0.035429788  0.036687477            3 
  359000    1.1186794   -6.5465409    152.73334  0.035453421  0.036665245            5 
  360000    1.1256585   -6.5441523    152.32474  0.035260358  0.036642642            2 
  361000    1.0850288   -6.5475223    153.02952  0.035325374  0.036619072            3 
  362000    1.1073081   -6.5326435    153.78254  0.035401138  0.036594587            3 
  363000    1.1164334   -6.5356906    153.13015  0.035153845  0.036569744            5 
  364000    1.1236126   -6.5484712     153.9573  0.035246634  0.036543425            6 
  365000    1.0902158   -6.5241149    153.79627  0.035113303  0.036518583            6 
  366000    1.1061826   -6.5544122    154.72352  0.035228488  0.036492805            2 
  367000    1.1228958    -6.534264    154.49944  0.035081617  0.036466764            3 
  368000    1.0946076   -6.5285439    155.23525  0.035152909  0.036440214            5 
  369000    1.0857708   -6.5072779     155.1391   0.03503593  0.036413836            3 
  370000    1.0881146   -6.5007347    155.38561  0.034996759  0.036387332            3 
  371000    1.0800083   -6.5560079    155.77906  0.034990804  0.036360611            4 
  372000    1.1360049   -6.5663218    156.55879  0.035071413  0.036334341            5 
  373000    1.0920839   -6.5235252    156.61387  0.034989693  0.036308687            3 
  374000    1.1231014   -6.5399383    156.91095  0.034962332  0.036282598            4 
  375000    1.1156707   -6.5448379    157.44482  0.034987738  0.036255716            6 
  376000    1.1273948   -6.5429466    158.07985  0.035035427  0.036230202            4 
  377000    1.0972812   -6.5192642    158.35897  0.035004193  0.036205126            2 
  378000     1.126309   -6.5506528    158.57451  0.034959107  0.036180269            3 
  379000    1.1020356   -6.5654819    158.50529  0.034851647  0.036155411            7 
  380000    1.0975639   -6.5418593    159.14863  0.034901014  0.036130551            2 
  381000    1.1049863   -6.5325798    159.98356   0.03499203  0.036105949            3 
  382000    1.0956258   -6.5570077    160.09931  0.034925679  0.036082065            4 
  383000    1.1063035   -6.5731927    159.88893  0.034788714  0.036057734            4 
  384000    1.1007347   -6.5831303    160.08361  0.034740366  0.036033035            3 
  385000    1.0998402   -6.5476221    161.45266  0.034946463  0.036008313            2 
  386000    1.0855673    -6.564341     161.2705  0.034816601  0.035984018            2 
  387000    1.0965015   -6.5496461    161.72258  0.034823983  0.035958953            2 
  388000    1.1179201   -6.5533123    162.07137  0.034809144     0.035936            4 
  389000    1.1255804   -6.5444809    163.00968  0.034920669   0.03591296            6 
  390000     1.088554   -6.5689419    162.97674   0.03482409  0.035890699            2 
  391000    1.0737136   -6.5684068    163.24063  0.034791267  0.035868261            3 
  392000    1.0873938   -6.5841514     163.5965  0.034778168  0.035845591            5 
  393000    1.1046615   -6.5696215    164.17787   0.03481295  0.035822382            5 
  394000    1.0723503   -6.5603725    164.93388  0.034884493  0.035800508            2 
  395000    1.0866099   -6.5686527    164.81687  0.034771491  0.035779475            2 
  396000    1.1300788   -6.5564742    165.83967  0.034898921  0.035758595            8 
  397000    1.1064139   -6.5487409    165.98543  0.034841609  0.035738181            7 
  398000    1.1261274   -6.5803781    166.34368  0.034829079  0.035717513            2 
  399000    1.0973027   -6.5748191    166.67085  0.034810119  0.035697421            4 
  400000     1.103154   -6.5641814    167.15395   0.03482374  0.035677756            2 
  401000    1.1108917   -6.5727033    167.70757  0.034851948   0.03565773            3 
  402000    1.0966097   -6.5522911    167.63025  0.034749222  0.035637733            1 
  403000    1.0786391   -6.5810505    168.19329  0.034779424  0.035618059            3 
  404000    1.1170322   -6.5917318    168.60437  0.034778129  0.035598213            7 
  405000    1.1103315   -6.5995035    168.97726  0.034768983  0.035578093            3 
  406000    1.0800303    -6.534798    169.12667  0.034714012  0.035559186            2 
  407000    1.0933348   -6.6130741    169.13732  0.034630901   0.03553975            7 
  408000    1.0810631   -6.5497042    170.28865  0.034781178   0.03552061            5 
  409000    1.0872385   -6.5581342    170.21018  0.034680151  0.035501989            4 
  410000    1.0980267   -6.5883593    170.93005  0.034741879  0.035482027            3 
  411000    1.1134707   -6.5706372    170.56687  0.034583712  0.035462054            1 
  412000    1.0769882   -6.5432373    171.80029   0.03474925  0.035443045            3 
  413000    1.0852081   -6.5751202    172.15548  0.034736779  0.035423888            2 
  414000    1.0706569   -6.5809277    172.00147  0.034621874  0.035404856            3 
  415000    1.0814757   -6.5444385    172.22293  0.034582918  0.035384854            4 
  416000    1.0747504   -6.5764465    172.59465  0.034574249  0.035365087            3 
  417000    1.0910546   -6.5750788    173.09222  0.034590772  0.035345659            3 
  418000    1.0723479    -6.572516    173.30278  0.034549995  0.035325766            5 
  419000    1.1025413   -6.6004513    173.52948  0.034512624  0.035305619            3 
  420000    1.0798748   -6.6036724    173.43346  0.034411402  0.035285316            3 
  421000    1.0879159   -6.5773716    174.08522  0.034458673  0.035265609            3 
  422000    1.1022018   -6.5507469    174.72272  0.034502906  0.035245702            4 
  423000    1.0974043   -6.6087012    174.90743  0.034457728  0.035225805            2 
  424000    1.0583743   -6.6089848    174.77624  0.034350675  0.035206137            4 
  425000    1.1007657   -6.5836861    176.21897   0.03455274  0.035187356            4 
  426000    1.0934228   -6.5936292     176.2098  0.034469836  0.035168827            4 
  427000    1.0722449   -6.5978181    176.22241  0.034391572  0.035149909            3 
  428000    1.0892944   -6.5677782    176.61842  0.034388322  0.035130322            6 
  429000    1.0803092   -6.5824036    176.55716  0.034296263  0.035110074            1 
  430000    1.0752418   -6.5632104    177.39913  0.034379675  0.035090217            3 
  431000    1.0871278   -6.5663632    177.22036  0.034265343  0.035070705            6 
  432000    1.0760425   -6.5797779    178.28571  0.034391533  0.035051509            5 
  433000    1.0840816   -6.5866755    179.01813  0.034453066  0.035032716            3 
  434000    1.0814863   -6.6254487    178.43007  0.034260767   0.03501486            4 
  435000    1.0615169   -6.6049872    179.97263  0.034477516  0.034997076            5 
  436000    1.1068759   -6.5997535    180.67009  0.034531744  0.034979801            5 
  437000    1.0706746   -6.6060107    180.41467  0.034404019  0.034963534            3 
  438000    1.0804192   -6.5755402    180.37315   0.03431757  0.034946555            9 
  439000    1.0697552   -6.6140047    180.14611  0.034196299  0.034929338            2 
  440000    1.0754945   -6.6261381    180.89929  0.034261229  0.034911396            3 
  441000    1.0830168   -6.5514357    181.25798   0.03425132  0.034893362            5 
  442000    1.0671895   -6.6069917    181.53417    0.0342259  0.034875189            2 
  443000     1.085835   -6.6288888    181.17129  0.034080377  0.034856653            3 
  444000    1.0877946   -6.6029884    181.79692  0.034121043   0.03483857            4 
  445000    1.1053174   -6.5970791    182.70012  0.034213506  0.034821036            2 
  446000    1.0604325   -6.5235845    182.72301   0.03414107   0.03480268            3 
  447000    1.0928352   -6.6153287    182.09581  0.033947764  0.034783794            3 
  448000    1.0690236     -6.56492    183.04112  0.034047827  0.034764166            3 
  449000    1.0840133   -6.6120115    183.50016  0.034057193  0.034744945            2 
  450000     1.079871   -6.5950577    183.33031  0.033950057  0.034725979            3 
  451000     1.084639   -6.5615197     184.4044  0.034073244  0.034706477            3 
  452000    1.0745792   -6.6386644    184.34687  0.033987256  0.034687781            9 
  453000    1.0705152    -6.613978    184.60254  0.033959261  0.034669438            3 
  454000    1.0684199   -6.5868392    185.02103  0.033961276  0.034650747            2 
  455000    1.0673444   -6.5965013    185.52887  0.033979646  0.034631849            3 
  456000     1.099079   -6.5707888    185.82549  0.033959337  0.034613012            3 
  457000     1.063266   -6.5769318    187.20272  0.034136163  0.034594409            6 
  458000    1.0696922   -6.5931061    186.31497  0.033900103   0.03457576            4 
  459000    1.0539984   -6.6200655    186.66982  0.033890672   0.03455687            3 
  460000    1.0763948   -6.5864036    187.91966  0.034043417  0.034538416            3 
  461000    1.0629427   -6.6122472    187.91438  0.033968616  0.034520902            6 
  462000    1.0673352   -6.6027534     188.4774  0.033996645  0.034503752            4 
  463000    1.0767331    -6.621489    188.50512  0.033928208  0.034486764            2 
  464000    1.0703949   -6.5832507    189.14245  0.033969549  0.034469048            2 
  465000    1.0542485   -6.6148747    188.81311  0.033837474  0.034451275            3 
  466000    1.0623885   -6.5764201    189.76966  0.033935919  0.034433849            5 
  467000    1.0650479   -6.6465275    190.02778  0.033909311  0.034416696            6 
  468000    1.0515214   -6.5793003    190.30391  0.033886025   0.03439915            3 
  469000    1.0582716   -6.6085192    190.96822  0.033931809  0.034381528            3 
  470000    1.0572147   -6.6116355    190.58521  0.033791703  0.034364107            2 
  471000    1.0589155   -6.6526714    190.81717  0.033760999  0.034345595            5 
  472000    1.0635061   -6.6224663    190.76897  0.033680963  0.034327256            2 
  473000    1.0827076   -6.5994064    190.94966  0.033641589  0.034309199            4 
  474000    1.0671038   -6.6118609      191.021  0.033583157  0.034291216            2 
  475000     1.045749   -6.6133846    192.19413  0.033718269  0.034273232            5 
  476000    1.0395251   -6.6375332    192.25057  0.033657313  0.034255211            2 
  477000    1.0738629   -6.6166282    192.18791  0.033575806  0.034235931            2 
  478000    1.0712971   -6.6026195    193.11628  0.033667413   0.03421686            3 
  479000    1.0416481   -6.5931533    193.46854   0.03365841    0.0341979            5 
  480000      1.05719   -6.6089759    193.34113  0.033566168  0.034179073            6 
  481000    1.0406584   -6.6171869    192.99519   0.03343645  0.034159622            5 
  482000    1.0596624   -6.6389929    193.88682  0.033521235  0.034140078            5 
  483000    1.0637207    -6.624719    194.53395  0.033563483  0.034121297            3 
  484000    1.0771473   -6.6257856    194.73475   0.03352871  0.034103133            3 
  485000    1.0615885   -6.6392404    195.18768  0.033537402  0.034084369            3 
  486000    1.0742646   -6.6165525     195.6139  0.033541477  0.034066793            2 
  487000    1.0621387   -6.5986946    196.22913  0.033577881  0.034049015            3 
  488000    1.0568893   -6.6124104    196.26907  0.033515893  0.034031074            2 
  489000    1.0538095   -6.6038488    195.85741  0.033377201  0.034012851            4 
  490000    1.0337554   -6.6291646    196.37158  0.033396527  0.033994812            4 
  491000    1.0546797     -6.61725    197.16518    0.0334632  0.033977221            2 
  492000    1.0635719   -6.6309714    197.77562   0.03349858  0.033959702            5 
  493000    1.0563011    -6.647473    197.91051  0.033453433  0.033942483            3 
  494000    1.0584069   -6.6391749    198.71942  0.033522169  0.033925693            5 
  495000    1.0612185   -6.6148415    198.83158  0.033473329  0.033908824            3 
  496000    1.0678073   -6.6359153    199.57925   0.03353146  0.033892227            1 
  497000     1.043304   -6.6688095    199.93965  0.033524422  0.033876034            4 
  498000    1.0706459   -6.6462457    199.93816  0.033456854  0.033860162            7 
  499000    1.0296235   -6.6540378    199.60696  0.033334495   0.03384431            5 
  500000    1.0509091   -6.6705239    200.27992  0.033379987  0.033827742            3 
  501000    1.0520966    -6.630155    200.80974  0.033401487  0.033811283            2 
  502000    1.0780321   -6.6591558    201.37759  0.033429215   0.03379514            5 
  503000    1.0309748   -6.6110043    201.91188  0.033451272  0.033779186            2 
  504000    1.0544303   -6.6727806    201.68289  0.033347039  0.033763214            6 
  505000    1.0384133   -6.6456828    202.66215  0.033442599  0.033747158            4 
  506000    1.0676439   -6.6152749    202.90422  0.033416374  0.033731131            3 
  507000    1.0518614   -6.6217009    202.47843  0.033280478  0.033714439            2 
  508000    1.0544317   -6.6849182    202.88708  0.033282002  0.033697768            4 
  509000       1.0539   -6.6401762    203.40468  0.033301356  0.033681033            3 
  510000    1.0470405   -6.6589046    203.92107  0.033320436  0.033665117            4 
  511000    1.0687329   -6.6677479    204.41985   0.03333657  0.033648615            4 
  512000    1.0350085   -6.6168492    204.73132  0.033322154  0.033632057            5 
  513000     1.043781    -6.606733    205.05768  0.033310215  0.033615793            4 
  514000    1.0711802   -6.6814279    204.96271  0.033230012  0.033599601            5 
  515000    1.0456971   -6.6395379    205.30753  0.033221283  0.033582829            4 
  516000    1.0573742    -6.633612    205.75608  0.033229341  0.033566005            2 
  517000    1.0339641   -6.6859565    204.43137  0.032951543   0.03354851            2 
  518000    1.0403073   -6.7125198    205.75992   0.03310166  0.033530962            8 
  519000    1.0609982    -6.630199    206.39425  0.033139731  0.033513736            7 
  520000    1.0452374   -6.6963242    205.46265  0.032926707  0.033496087            3 
  521000    1.0449266   -6.6454312    205.47885  0.032866099   0.03347773            3 
  522000    1.0411152   -6.6470828    206.43109  0.032955155  0.033459291            1 
  523000    1.0604615   -6.6522869    206.93317  0.032972143  0.033440824            3 
  524000    1.0433832   -6.6938985    206.99943  0.032919757  0.033422507            4 
  525000    1.0470584   -6.6517026    206.67544  0.032805626  0.033404141            2 
  526000    1.0309148   -6.6575687    207.25913   0.03283573  0.033386609            6 
  527000    1.0288661   -6.6827899    208.19548  0.032921486  0.033369012            2 
  528000    1.0281922   -6.6414166    208.05737  0.032837337   0.03335117            2 
  529000    1.0570437   -6.6865197    208.64735  0.032868203  0.033334313            4 
  530000     1.043957   -6.6830885    208.52835  0.032787476  0.033316867            4 
  531000    1.0357524   -6.6724883    208.96411  0.032794117  0.033299622            3 
  532000    1.0620016   -6.6737659    209.24926   0.03277714  0.033282129            3 
  533000    1.0535718   -6.6834054    209.25662  0.032716795  0.033264166            3 
  534000    1.0426959   -6.7111949    210.11256  0.032789102  0.033246411            1 
  535000    1.0459536   -6.6610701    210.58638  0.032801617  0.033228511            3 
  536000    1.0667882   -6.6561483    210.31984  0.032698979   0.03321107            3 
  537000    1.0322719   -6.6480967    211.34756  0.032797573  0.033193472            6 
  538000    1.0320348   -6.6637785    210.57311  0.032616653  0.033176061            2 
  539000    1.0328515   -6.6763038    211.66656  0.032725195  0.033158207            2 
  540000    1.0343237   -6.6590202    211.57301  0.032650156  0.033140822            2 
  541000    1.0350102   -6.6954227    212.96952  0.032804917  0.033123721            2 
  542000    1.0458015   -6.6663469     212.4938  0.032671248  0.033106377            4 
  543000    1.0744808   -6.6692377    212.93959  0.032679495  0.033088767            4 
  544000    1.0395312      -6.6597     212.7562  0.032591329  0.033071255            4 
  545000    1.0609683   -6.6922863    213.80424   0.03269178  0.033054009            2 
  546000    1.0181672   -6.6695194    213.30525  0.032555747  0.033036858            2 
  547000    1.0247045   -6.7220379    213.63488  0.032546447  0.033019363            4 
  548000      1.03961   -6.6593451    214.45901  0.032612379  0.033001871            4 
  549000    1.0512857   -6.6895725    213.96035  0.032477285  0.032984517            5 
  550000    1.0287992   -6.7174027    214.86766  0.032555707  0.032967046            3 
  551000     1.038418   -6.6510221    215.20623  0.032547826  0.032949638            3 
  552000    1.0213711   -6.6960568     215.5034  0.032533726  0.032932561            4 
  553000     1.032205   -6.6604295    215.30513  0.032445017  0.032914795            3 
  554000    1.0526277   -6.6675512    216.32067   0.03253921  0.032897493            5 
  555000    1.0473802    -6.689914    216.72922  0.032541926  0.032880241            2 
  556000    1.0318279   -6.6858314    216.23058  0.032408661  0.032862568            2 
  557000    1.0222369   -6.6837046    216.70011  0.032420723  0.032845058            3 
  558000     1.043447   -6.7132172    216.52707  0.032336778  0.032827526            3 
  559000    1.0491975   -6.7007824    217.60127  0.032439069  0.032810424            7 
  560000    1.0508501   -6.7053969    217.42253  0.032354543  0.032793697            5 
  561000    1.0368573    -6.728254    217.45131  0.032301146  0.032775857            2 
  562000    1.0724827   -6.7021503    218.23716  0.032360195  0.032758348            2 
  563000    1.0240208   -6.6704723    218.68056  0.032368348  0.032741171           13 
  564000    1.0043074   -6.6618069    219.09726  0.032372526  0.032723912            7 
  565000    1.0162673   -6.7123395    218.42448  0.032216001  0.032706081            4 
  566000    1.0358887   -6.7094093    218.71842  0.032202358  0.032687907            6 
  567000    1.0080702   -6.6896798    219.08581  0.032199561  0.032669416            3 
  568000    1.0062023   -6.6549388    219.12915  0.032149229  0.032650597            2 
  569000    1.0455173   -6.6668525    219.14316   0.03209478  0.032631679            2 
  570000     1.022161   -6.7171212    219.92556   0.03215286  0.032612514           12 
  571000    1.0281136   -6.6105162    220.28931  0.032149636  0.032594295            3 
  572000    1.0111955   -6.6676541    219.59182  0.031991815   0.03257587            5 
  573000    1.0420483     -6.68177    220.95056  0.032133589  0.032557228            4 
  574000   0.99677293   -6.6831078    220.68466  0.032039004  0.032538957            2 
  575000    1.0108555    -6.673609    222.02621  0.032177712  0.032520932            5 
  576000    1.0557496    -6.692501     222.0352  0.032123148  0.032503352            2 
  577000    1.0146932   -6.7025321    222.31729  0.032108216  0.032485866            2 
  578000     1.012717   -6.7042068    221.99849  0.032006703  0.032468403            4 
  579000    1.0364017   -6.7184399     222.3359  0.031999986  0.032450956            3 
  580000    1.0284204   -6.6768731    222.49275   0.03196735  0.032433257            4 
  581000    1.0152454   -6.7157393    222.82677  0.031960236  0.032415103            5 
  582000    1.0353826   -6.6708613    223.69137  0.032029119  0.032397505            2 
  583000    1.0146278   -6.7049304    223.14548  0.031896152  0.032380196            4 
  584000    1.0136248    -6.677857    224.46717  0.032030132  0.032362464            5 
  585000    1.0243762   -6.7185782    224.44362  0.031972025  0.032345277            4 
  586000    1.0385191   -6.7233137    224.43643  0.031916444  0.032328009            4 
  587000    1.0278315    -6.711846    225.90281  0.032070245  0.032311067            5 
  588000    1.0069279   -6.7004283    225.70791  0.031988082  0.032294378            4 
  589000    1.0017535   -6.7228798    225.24048  0.031867641  0.032277479            2 
  590000    1.0156205   -6.7646549    225.42454  0.031839624  0.032260392            8 
  591000     1.020535   -6.7494661    225.97017  0.031862687  0.032243211            4 
  592000    1.0173487    -6.714577    226.96233  0.031948527    0.0322264            5 
  593000    1.0069382   -6.7381044    226.84983   0.03187884  0.032209772            2 
  594000    1.0186332   -6.7081722     226.9044  0.031832829  0.032192988            4 
  595000    1.0116109   -6.6772817    228.01176  0.031934421  0.032176195            4 
  596000    1.0149612   -6.6972074    228.24555  0.031913528  0.032159491            4 
  597000    1.0023006   -6.7098439    228.42194  0.031884693   0.03214248            3 
  598000    1.0099315   -6.7037845    228.63861  0.031861567  0.032125883            3 
  599000    1.0116138   -6.6961159    228.09759   0.03173311  0.032108717            7 
  600000    1.0068282   -6.7284719    228.81053  0.031779241  0.032091298            6 
  601000    1.0111743   -6.7333431    229.52361  0.031825237  0.032074279            7 
  602000   0.99829282   -6.7276995    228.91616  0.031688284  0.032057441            5 
  603000    1.0183793    -6.710515    230.03554  0.031790428  0.032040616            3 
  604000    1.0117321   -6.7436766    229.85593  0.031713014  0.032023392            3 
  605000    1.0313091   -6.7307702    229.83338   0.03165749  0.032005952            8 
  606000    1.0116724   -6.7284078    230.43184  0.031687547  0.031988576            2 
  607000    1.0155854   -6.7460644    229.63511  0.031525963  0.031970678            3 
  608000    1.0039127   -6.7012471    230.13908  0.031543185  0.031952414            3 
  609000    1.0206233   -6.7309014    230.15527  0.031493605  0.031934506            3 
  610000    1.0211044   -6.7091783    230.67101  0.031512433  0.031916815            3 
  611000    1.0114406    -6.715687     231.1984  0.031532788  0.031899251            2 
  612000    1.0195234    -6.737245    231.17286  0.031477786   0.03188156            4 
  613000    1.0183829   -6.7221246    231.00851  0.031404093  0.031863691            4 
  614000    1.0140104   -6.7167415    232.04472  0.031493583  0.031845463            4 
  615000     1.010337   -6.7391198    231.64733  0.031388527   0.03182715            6 
  616000    1.0173682   -6.7638706    231.39464  0.031303387  0.031809104           10 
  617000    1.0320284   -6.7158176     232.2756  0.031371637  0.031790719            2 
  618000    1.0254392   -6.7103393    232.82262  0.031394636  0.031772965            4 
  619000    1.0161163   -6.7252067    232.89136  0.031353172  0.031754797            3 
  620000    1.0342449   -6.7496976     232.5974  0.031263091  0.031736591            6 
  621000   0.99376854   -6.7613311    232.63084  0.031217236  0.031718235            5 
  622000    1.0134881   -6.7116527    233.32046  0.031259439  0.031699635            4 
  623000     1.010704    -6.731427    232.74729  0.031132597  0.031680594            6 
  624000   0.98678893    -6.740558    232.77639  0.031086591  0.031661516            5 
  625000    1.0059071   -6.7502738    233.63304  0.031151073  0.031642489            2 
  626000    1.0104559   -6.7182177    233.84592  0.031129648  0.031623256            7 
  627000    1.0097991   -6.7646633    233.69981   0.03106058  0.031604059            5 
  628000   0.99156048     -6.72364    233.45667  0.030978857  0.031584604            4 
  629000    1.0062061   -6.7110171    234.91014   0.03112217  0.031565205            3 
  630000   0.99365775   -6.7309312    234.78984  0.031056857  0.031546286            4 
  631000    0.9864514   -6.7334102    234.95192  0.031029043  0.031527349            4 
  632000   0.99742055   -6.7376851    235.30098  0.031025972  0.031508286            3 
  633000    1.0196653   -6.7285445    234.68932  0.030896435  0.031489344            4 
  634000   0.99052578   -6.7694568    235.57156  0.030963664  0.031470063            5 
  635000    1.0203413   -6.7430272    235.92218  0.030960916  0.031451438            2 
  636000   0.98553378   -6.7639723    236.04369  0.030928156  0.031432534            2 
  637000    1.0125705   -6.7523924    236.12062  0.030889668  0.031413322            7 
  638000   0.99604999   -6.7356947    236.00938  0.030826722  0.031393766            2 
  639000    1.0228887   -6.7277522    236.39661  0.030828978  0.031374414            3 
  640000   0.98972258   -6.7755921    237.34937  0.030904866   0.03135511            6 
  641000   0.99339978   -6.7496953    236.10636  0.030695054  0.031335742            2 
  642000   0.99231757   -6.7663627    236.88263  0.030748005  0.031316467            7 
  643000    1.0062649    -6.764043    238.18549  0.030869037  0.031296972            7 
  644000   0.99160775   -6.7564007    238.45344  0.030855776  0.031277838            2 
  645000   0.98859169   -6.7481975    238.34511  0.030793942  0.031259005            6 
  646000    1.0122037   -6.7533385    238.21343  0.030729287  0.031239713            6 
  647000   0.98633784   -6.7553867    238.65524  0.030738697  0.031220242            3 
  648000    1.0069886   -6.7241406    238.66819  0.030692926   0.03120081            3 
  649000    0.9861593   -6.7380952    239.38733  0.030737972  0.031181837            8 
  650000   0.98219656   -6.7395796    239.48471  0.030703168  0.031162546            4 
  651000   0.99644916   -6.7943231    238.65206  0.030549419  0.031143424            7 
  652000   0.96383712   -6.7580228    240.23172  0.030704463  0.031124072            2 
  653000   0.99834582   -6.7339727    239.39653  0.030550859  0.031104604            5 
  654000   0.98693943   -6.7364283    239.93513  0.030572774  0.031084826            3 
  655000   0.99118729   -6.7823886    239.42939  0.030461755  0.031065215            3 
  656000    1.0089442   -6.7570802    240.59312   0.03056315  0.031045955            2 
  657000   0.96932343   -6.7379244     241.0886  0.030579478  0.031026803            8 
  658000   0.99294232   -6.7586586    240.83216  0.030500527  0.031007438            3 
  659000   0.99888311   -6.7725282    241.74198  0.030569294  0.030988021           10 
  660000     1.016485   -6.7770188    241.10441  0.030442476  0.030969137            2 
  661000    0.9786014   -6.7562125     242.3375  0.030551878  0.030949996            4 
  662000   0.99898364   -6.7934186    242.18949  0.030487096  0.030930578            2 
  663000   0.99495929   -6.7597308    242.94085  0.030535552  0.030911402            3 
  664000   0.99535231   -6.7668209    242.45486  0.030428572  0.030892129            3 
  665000   0.99146883   -6.7540289    242.78848  0.030424621  0.030873052            5 
  666000    1.0183644   -6.7642554    243.31721  0.030445096   0.03085432            4 
  667000   0.98043928   -6.7582711    243.01022  0.030361097  0.030835661            3 
  668000   0.99569893   -6.7765157    244.41664  0.030491098  0.030817178            7 
  669000   0.98023671   -6.7985004    243.39198  0.030317885  0.030798423            2 
  670000    1.0001473   -6.8063771    244.30556  0.030386264  0.030779854            7 
  671000   0.99458176   -6.7957184    244.90971   0.03041601  0.030761467            4 
  672000   0.99782657   -6.7877047     244.7634  0.030352604  0.030743094            2 
  673000   0.95290647   -6.7919989    245.10307  0.030349563  0.030724945            3 
  674000   0.99234329    -6.757829    245.05575  0.030298684  0.030706487            7 
  675000   0.95838862   -6.7939693    245.17788  0.030268874  0.030688011            2 
  676000    0.9734666   -6.7935679    245.59037  0.030274947  0.030669727            3 
  677000   0.98632906   -6.7338921    246.98374   0.03040174  0.030651697            4 
  678000   0.97470985   -6.7608862    246.98102  0.030356565    0.0306339            4 
  679000   0.99338691   -6.7742642    246.56412  0.030260692  0.030615676            5 
  680000   0.97372794   -6.7845559     246.5625  0.030215992  0.030597448            6 
  681000   0.97568442   -6.7926628    246.32381  0.030142414  0.030579187            6 
  682000   0.99207745   -6.7937132    247.67463  0.030263274  0.030561059            3 
  683000   0.97403188   -6.7775207    247.70391  0.030222537  0.030543101            5 
  684000   0.98307592   -6.7843571    248.04638  0.030220075  0.030525478            5 
  685000   0.98317383   -6.7971842    248.28267  0.030204704  0.030507897            3 
  686000   0.98931259   -6.8225566    248.13904  0.030143226  0.030490064            2 
  687000     1.013277   -6.7749882    249.20537  0.030228696  0.030472721            3 
  688000   0.97261096   -6.8191017    249.02985    0.0301635  0.030455381            2 
  689000   0.97788894   -6.7888922    249.16983  0.030136651  0.030438005            4 
  690000   0.98722093   -6.8120997    249.95395  0.030187675  0.030420729            8 
  691000   0.99196454   -6.7792104    250.96926  0.030266433  0.030403679            7 
  692000   0.97017776   -6.8333462    250.64754  0.030183952  0.030386864            2 
  693000   0.96809455    -6.761063    251.61583  0.030256833   0.03037001            2 
  694000   0.97559927   -6.8226724    251.01978  0.030141664  0.030353426            5 
  695000   0.96291738   -6.8160127    251.76856  0.030188077  0.030336393           12 
  696000   0.98178135   -6.8262368    251.61029  0.030125753  0.030319107            8 
  697000   0.98726129   -6.7893138    251.18993  0.030032273  0.030302079            7 
  698000   0.98308328   -6.7832852    251.87145  0.030070613  0.030285492            3 
  699000   0.98169878   -6.7843609    252.11586  0.030056731  0.030268612            6 
  700000   0.98710318   -6.7941494    253.04278   0.03012414  0.030251743            2 
  701000   0.97636977   -6.8116853    252.86507  0.030060042  0.030235114            8 
  702000   0.96340995   -6.7771935    253.22601  0.030060067  0.030218277            3 
  703000   0.96454703   -6.7989416     253.0187  0.029992734  0.030201302            4 
  704000   0.97174627   -6.7945001    253.03831  0.029952451  0.030184219            6 
  705000   0.99613724   -6.7891764    253.14275  0.029922311  0.030167057            3 
  706000   0.95084501   -6.7836021    253.68271  0.029943663  0.030150048            3 
  707000   0.99947552   -6.7954897    254.15428  0.029956892  0.030133351            5 
  708000   0.95099837   -6.7728182    253.95464  0.029891083  0.030116458            5 
  709000   0.96074804   -6.8065577    254.81709  0.029950292  0.030099694            4 
  710000   0.99775502   -6.7949416    254.90217  0.029918095  0.030083321            4 
  711000    0.9636408   -6.7965548    255.67641  0.029966761  0.030066988            3 
  712000   0.98169392    -6.813723    255.63771  0.029920144  0.030050599            7 
  713000   0.96203434   -6.8137136    255.89756  0.029908551  0.030034409            7 
  714000   0.94908796   -6.8210792    256.93405  0.029987634  0.030018094            3 
  715000   0.96770612   -6.7687996    257.00192  0.029953604  0.030001572            3 
  716000   0.98331381   -6.7910784    256.11172  0.029808161  0.029984923            4 
  717000    0.9768948   -6.8163998    257.29763  0.029904421  0.029968323            4 
  718000   0.98190302   -6.8184648    256.78063  0.029802766  0.029951857            4 
  719000   0.97621675   -6.7824667    257.16378  0.029805723  0.029935142            7 
  720000   0.97374439   -6.7950972    257.26073  0.029775547  0.029918764            3 
  721000     0.970897   -6.7936975    258.53493  0.029881522  0.029902613            6 
  722000   0.97366796   -6.7988391    258.24918  0.029807153  0.029886323            3 
  723000   0.97101508   -6.8322954    258.40794  0.029784225  0.029870032            2 
  724000   0.95847689   -6.8234134    258.21082  0.029720398  0.029853916            4 
  725000   0.96089523   -6.8399876    258.39601  0.029700691  0.029837883            3 
  726000   0.98880945   -6.8280906    259.28567    0.0297619  0.029821825            4 
  727000   0.97271711   -6.8154618     259.8564  0.029786383  0.029805716            2 
  728000    0.9702604   -6.8003907     259.5368  0.029708882  0.029789618            3 
  729000   0.97413129   -6.7808175    260.08256  0.029730516  0.029773563            4 
  730000   0.96082457   -6.8277509    259.91851  0.029671063  0.029757387            5 
  731000   0.98679771   -6.7928569    259.79881  0.029616828  0.029741341            7 
  732000   0.96489509   -6.8257947    260.51226  0.029657589  0.029725179            3 
  733000   0.96892754   -6.8535119    260.72772  0.029641623  0.029709187            3 
  734000   0.96627075   -6.7882809    260.90602  0.029621482  0.029692726            5 
  735000   0.95278392   -6.8244853    260.08255  0.029487817  0.029676137            5 
  736000   0.94303519   -6.8309157    260.91443  0.029541942  0.029659521            3 
  737000    0.9671363   -6.8032141    261.73863  0.029595051  0.029642881            7 
  738000   0.96349254   -6.8669198    260.78646  0.029447432  0.029626329            4 
  739000    0.9757711   -6.8475735    261.24078  0.029458816  0.029609749            3 
  740000    0.9602046   -6.8522485    261.16976  0.029411009  0.029592758           17 
  741000   0.92716233   -6.8220373    261.35734  0.029392414  0.029575855            3 
  742000   0.93249963   -6.8272483    261.79983  0.029402497  0.029558877            5 
  743000   0.94700241   -6.8242719    261.77208  0.029359811  0.029541846            1 
  744000   0.94344234   -6.7993063    261.79373  0.029322774  0.029524697            3 
  745000   0.94677318    -6.831632    262.58627  0.029372066   0.02950783            4 
  746000    0.9318109   -6.8178757    262.94375  0.029372626  0.029491059            5 
  747000   0.93366158   -6.8588779    262.61818  0.029296985  0.029474193            5 
  748000   0.95942384    -6.816092    262.92508   0.02929201  0.029457573            4 
  749000   0.96381965   -6.8458301    263.09095  0.029271356   0.02944105            9 
  750000   0.95668264   -6.8309143    264.08764  0.029343071  0.029424695            4 
  751000   0.94835542   -6.8768894     263.7294  0.029264248  0.029408322            6 
  752000   0.97182822   -6.8333276    263.62908  0.029214216  0.029391733            7 
  753000   0.95396137   -6.8266869    264.76268  0.029300872  0.029375204            4 
  754000   0.95313944   -6.8313955    264.17296  0.029196835  0.029359034            3 
  755000   0.96175794   -6.8411479    265.64443  0.029320577  0.029343038            4 
  756000   0.95550483   -6.8486826    264.67861  0.029175331  0.029326516            6 
  757000    0.9718352   -6.8408376     265.5603   0.02923385  0.029310319            4 
  758000   0.93744738    -6.865229    265.84945  0.029227072  0.029294105            9 
  759000   0.97794094   -6.8478594    266.01923  0.029207206  0.029277894            3 
  760000   0.95097898   -6.8773548    265.84835  0.029150039  0.029261632            2 
  761000   0.94189737   -6.8647429    265.69914  0.029095395  0.029245338            6 
  762000   0.93917476   -6.8177276    266.22882  0.029115137  0.029229039            4 
  763000   0.96202122    -6.855337    266.17608  0.029071219   0.02921273            4 
  764000   0.96547223   -6.8433265    266.19644  0.029035389  0.029196192            4 
  765000   0.94161291   -6.8315813      266.732  0.029055773  0.029179717            5 
  766000   0.93950571   -6.8431824    267.50588  0.029102032  0.029163282            4 
  767000   0.93728705   -6.8623881    266.91176   0.02899954   0.02914689            6 
  768000   0.94112979   -6.8622238    267.28669  0.029002462  0.029130426            2 
  769000   0.94250308   -6.8382293    267.85717  0.029026568  0.029114222            5 
  770000   0.94890709   -6.8460903    267.72831  0.028974926  0.029097839            4 
  771000   0.95195437   -6.8652424    267.01401   0.02886014  0.029081321            5 
  772000   0.93899068   -6.8394068    268.33466  0.028965313  0.029064671            6 
  773000     0.954173   -6.8249988      268.726   0.02897003  0.029048506            2 
  774000   0.93331722   -6.8386736     268.6468  0.028924074  0.029032235            4 
  775000    0.9391573   -6.8430062    268.83346  0.028906824  0.029016026            3 
  776000   0.94786219   -6.8744812    269.28761  0.028918343  0.028999826            5 
  777000   0.94486539   -6.8573301    268.90886  0.028840504  0.028983428            6 
  778000   0.93797537   -6.8655882    269.46444  0.028862943  0.028966926            6 
  779000   0.94689387    -6.846203    269.30734  0.028809087  0.028950162            7 
  780000   0.94903154   -6.8423051    269.75283  0.028819747  0.028933905            4 
  781000   0.96381626   -6.8427392    270.97025  0.028912746  0.028917669           16 
  782000   0.95903627   -6.9092345    269.46357  0.028715214  0.028901026           11 
  783000   0.94900781   -6.8565485    270.51169  0.028790091  0.028884602           10 
  784000   0.92875447   -6.8417485    270.03665  0.028702875  0.028868199            5 
  785000   0.95928729   -6.8709701    270.64661  0.028731063  0.028851656            3 
  786000   0.92908433   -6.9098921    271.03073  0.028735234  0.028835127            4 
  787000   0.93562426   -6.8617018    271.68045  0.028767519  0.028818925            6 
  788000   0.94505906   -6.8812647    272.09505  0.028774858  0.028802829            3 
  789000   0.94200832   -6.8843261    271.77221  0.028704289  0.028786475            4 
  790000   0.95821206     -6.87216     271.6356  0.028653544  0.028770164            4 
  791000   0.94326995   -6.8584737    272.34186  0.028691725  0.028753792            2 
  792000   0.94735479   -6.8644515    271.89122  0.028608082  0.028737184            4 
  793000   0.94405385   -6.9023745    271.55506  0.028536681  0.028720404            7 
  794000   0.92277129   -6.8571813    272.18802  0.028567173   0.02870354            6 
  795000   0.96076533   -6.8512755    272.35546  0.028548791  0.028687138            4 
  796000   0.94234044   -6.8539628    273.31693  0.028613582  0.028670748            2 
  797000   0.92015035   -6.8668243      273.662   0.02861376  0.028654396            4 
  798000    0.9417066   -6.8493195    274.43479  0.028658603  0.028638386            5 
  799000   0.93729076   -6.8673167    273.86231  0.028563028  0.028622658            6 
  800000   0.93074083   -6.8755437    274.80994  0.028626035   0.02860699            3 
  801000   0.92756854   -6.8611379    274.18329  0.028525103  0.028591346            6 
  802000   0.95234203   -6.8478619    275.27657  0.028603135  0.028575517            3 
  803000   0.95016578   -6.9280593    274.61834  0.028499205  0.028559709            7 
  804000   0.93123547   -6.8926109    275.26312  0.028530589  0.028543714            8 
  805000    0.9601632   -6.8897528    275.28278  0.028497182  0.028527788            6 
  806000   0.94013062   -6.8641792     274.7941    0.0284113  0.028511732            6 
  807000   0.95222975   -6.8932541    275.69462  0.028469085  0.028495949            3 
  808000   0.91647698   -6.8459972    276.15248  0.028481072  0.028480273            5 
  809000   0.93319292   -6.8696305    276.37593  0.028468884  0.028464316            4 
  810000   0.92591707   -6.8817082    275.90821  0.028385618  0.028448535            7 
  811000   0.94362953   -6.8486775    277.10737  0.028473836  0.028432812            5 
  812000   0.93786032   -6.8994332    276.89697  0.028417176   0.02841707            5 
  813000   0.91610169   -6.8612414    276.78936  0.028371193  0.028401422           11 
  814000   0.91256369   -6.8814104    277.45093  0.028404068  0.028385852            4 
  815000   0.92166015    -6.853042    278.39206  0.028465446  0.028370289            4 
  816000   0.93421144    -6.876523    278.07625   0.02839831  0.028354793            3 
  817000   0.91501187   -6.9467273    277.23328  0.028277569  0.028339094            8 
  818000   0.92529926   -6.9084348    277.69041  0.028289569  0.028323351            3 
  819000   0.93919476   -6.8757519    278.94536  0.028382718  0.028307926            3 
  820000   0.92623813   -6.9297588    278.61995  0.028315035  0.028292447            7 
  821000   0.93215306   -6.9103735    278.76733  0.028295507  0.028276805            3 
  822000   0.93959912   -6.8790418    279.21517  0.028306485   0.02826131            6 
  823000   0.92461043   -6.8857828     279.2571  0.028276337  0.028245937            8 
  824000   0.93522592   -6.8695191    279.80062  0.028296989  0.028230378            3 
  825000   0.93504719   -6.8968115    278.87075  0.028168763  0.028214744            4 
  826000    0.9255954   -6.8744863    279.34157   0.02818216  0.028198859           10 
  827000   0.92013035   -6.9269419    278.96506  0.028110143  0.028182836            4 
  828000   0.92304224   -6.9192122    279.29785  0.028109687  0.028166847            4 
  829000   0.92043089   -6.8756644      279.806  0.028126859  0.028150889            3 
  830000   0.91886283   -6.9071114     279.7312  0.028085462  0.028135004            4 
  831000   0.92636286   -6.9103297    279.74898  0.028053447   0.02811897            6 
  832000   0.93012704   -6.9158777    280.10051  0.028054939  0.028102724            5 
  833000   0.90310505   -6.9346832    280.00902  0.028012107  0.028086563           12 
  834000   0.91923256   -6.9091351    280.68765  0.028046328  0.028070284            4 
  835000   0.91648153   -6.9133104    280.56252  0.028000252  0.028053941            5 
  836000   0.92714854   -6.9155266    280.24313  0.027934921  0.028037667            3 
  837000   0.91851748   -6.9076885    281.32454  0.028009214  0.028021598            5 
  838000   0.90269159   -6.8945891    281.15226  0.027958657  0.028005503            4 
  839000    0.9254847   -6.8690531    282.16995  0.028026415  0.027989525            3 
  840000   0.92705741   -6.9285493     280.9011  0.027867173  0.027973596            6 
  841000   0.92952308   -6.9428082    281.33568  0.027877099  0.027957511            6 
  842000   0.91319489   -6.9448975    281.89817  0.027899661  0.027941562            9 
  843000   0.92577411   -6.9267273    282.35741  0.027911962  0.027925766            8 
  844000   0.93852813   -6.8977093    282.51574  0.027894524  0.027909945            3 
  845000   0.93041421   -6.8898774    283.47177  0.027955796  0.027894311            3 
  846000    0.9104532   -6.8917712    283.36836  0.027912565  0.027878843            6 
  847000   0.91462659   -6.9135953    283.73898  0.027916075  0.027863457            5 
  848000   0.93951965    -6.925417    284.80667  0.027988077  0.027847955            5 
  849000   0.90035255   -6.9447251    283.33955  0.027811106  0.027832522           10 
  850000    0.9042731   -6.9471303    284.13883  0.027856748  0.027817093            7 
  851000    0.9100107   -6.9124824       285.09  0.027917156  0.027801849            5 
  852000   0.91578817   -6.9341212    284.85304  0.027861213  0.027786441            7 
  853000   0.90748488   -6.9505643    284.16574  0.027761405  0.027770888            3 
  854000   0.89701727   -6.9479173    284.56094  0.027767461  0.027755232            6 
  855000    0.9150677   -6.9235115    285.22434  0.027799643  0.027739782            3 
  856000   0.91479227   -6.9236748    285.07805  0.027752925  0.027724316            5 
  857000   0.91138759   -6.9272674    285.55946  0.027767353  0.027708743            3 
  858000   0.90217847    -6.960192    285.40005  0.027719507    0.0276933            4 
  859000    0.8911123   -6.9307185    285.43977  0.027691092  0.027677908            3 
  860000    0.8921997   -6.9104049    286.37973  0.027749974  0.027662623            4 
  861000   0.91460261   -6.9321266    286.16327  0.027696793  0.027647193            3 
  862000   0.90983275   -6.9175528     285.9041  0.027639608  0.027631921            6 
  863000    0.9209389   -6.9231535    287.27486  0.027739944  0.027616724            3 
  864000   0.90475592   -6.9256358    286.43483  0.027626816  0.027601364            7 
  865000   0.92907204   -6.9498424    286.77287  0.027627444  0.027585979            6 
  866000   0.90183645    -6.924883    287.75287  0.027689845  0.027570899            7 
  867000   0.88031352   -6.9194866    287.66194  0.027649168  0.027555951            5 
  868000    0.9156671   -6.9480925    288.13546  0.027662775  0.027541128            5 
  869000   0.88648986   -6.9238368    288.32415  0.027649036  0.027526262            5 
  870000   0.89071348   -6.9651429    287.99471    0.0275857  0.027511148           11 
  871000   0.90887693   -6.8818832    288.91238  0.027641827  0.027496039            5 
  872000    0.9106521   -6.9146634    288.45174  0.027566107  0.027481041            7 
  873000   0.90751144   -6.9292071    289.06579  0.027593145  0.027466115           16 
  874000   0.89770619   -6.9256882    288.48837  0.027506518  0.027450951            9 
  875000   0.89025882   -6.9390975    289.02921  0.027526591  0.027435931            3 
  876000   0.89851452   -6.9326891    289.81998  0.027570394  0.027420912            7 
  877000   0.92248088   -6.9055622    289.50264  0.027508802  0.027405924            3 
  878000   0.91190787   -6.9302952    290.37588  0.027560353  0.027390971           14 
  879000   0.90721174   -6.9455569    289.75076  0.027469735  0.027375912            3 
  880000   0.90469377   -6.9439624    289.61568  0.027425727  0.027360852            8 
  881000   0.90710117   -6.9604556    290.27952  0.027457389  0.027345563            4 
  882000   0.91050777   -6.9422463    289.52768  0.027355223  0.027330272            8 
  883000   0.91241424   -6.9557216    290.30217  0.027397335  0.027314974            6 
  884000   0.89767264   -6.9220681    290.90462  0.027423135  0.027299846            5 
  885000    0.9105441   -6.9625111    291.17598  0.027417701  0.027284573            3 
  886000   0.93680323   -6.9457766    291.24461  0.027393211  0.027269327            6 
  887000   0.89931758   -6.9340463    291.49704  0.027386042  0.027254111            6 
  888000   0.89505315    -6.967539    290.42982   0.02725505  0.027238748            4 
  889000   0.90386237   -6.9872738    291.04603  0.027282155  0.027223278            4 
  890000   0.88764912   -6.9378493    290.93103  0.027240733  0.027207883           11 
  891000   0.90660595   -6.9586452    291.34054  0.027248461  0.027192431            4 
  892000    0.9137443   -6.9717262    291.63605   0.02724552  0.027177022            9 
  893000   0.86360285   -6.9709093    290.82084  0.027138936  0.027161427            5 
  894000    0.8940692   -6.9673712    292.23751  0.027240632  0.027145833            4 
  895000   0.87121432   -6.9572588    291.72912  0.027162861  0.027130424            4 
  896000   0.86405687    -6.961461    292.23376  0.027179479   0.02711507            5 
  897000   0.89161145   -6.9530952    292.51024  0.027174864  0.027099745           10 
  898000   0.89769822   -6.9415677    292.96879  0.027187156  0.027084451            4 
  899000   0.88628911   -6.9523183    292.92241  0.027152615  0.027069007            6 
  900000   0.90773653   -6.9527047    292.18991  0.027054622  0.027053687            4 
  901000   0.90384193   -6.9462794    293.63129  0.027157907  0.027038553            5 
  902000   0.89914607   -6.9459959    293.72291  0.027136263  0.027023455            4 
  903000   0.88318326   -6.9321884    293.62741  0.027097399  0.027008423            3 
  904000   0.89093615   -6.9431374    293.83407  0.027086474  0.026993431            7 
  905000   0.90263667   -6.9517637    294.16751  0.027087248  0.026978369            4 
  906000   0.89433603    -6.974998     293.8289  0.027026205  0.026963317            4 
  907000   0.88444385   -6.9327451    294.69268   0.02707577  0.026948302            6 
  908000    0.8975917   -6.9901649     294.8683  0.027062069  0.026933243            5 
  909000   0.88039308    -6.966433    295.40481  0.027081483  0.026918458            5 
  910000   0.89216999   -6.9496415    295.18559  0.027031648  0.026903638            5 
  911000   0.90867925   -6.9762117    295.02322  0.026987122  0.026888975            6 
  912000   0.88784142   -6.9745385     295.8046  0.027028929  0.026874302           19 
  913000   0.87470072    -6.972436    296.43988  0.027057309  0.026859662            4 
  914000   0.90440433   -6.9863073    295.97485  0.026985308  0.026844996            4 
  915000   0.88888148   -6.9699075    295.68302  0.026929237  0.026830532            4 
  916000    0.8778918   -6.9744472    296.88156  0.027008876  0.026815874            6 
  917000   0.87533057   -6.9623954    296.68957  0.026961974  0.026801137            6 
  918000   0.88437228   -6.9899001    296.62656  0.026926884  0.026786276            5 
  919000    0.8867884   -6.9845634    296.30722  0.026868627   0.02677132            4 
  920000   0.89150199   -6.9770852    297.05964  0.026907576   0.02675632            7 
  921000   0.88081424   -6.9762977    296.40573  0.026819193  0.026741348            5 
  922000   0.89310289   -7.0009338    296.45124  0.026794219  0.026726345            8 
  923000   0.88481961   -7.0081772    296.33746  0.026754917  0.026711137            3 
  924000   0.90915119   -6.9834081    296.70219  0.026758856  0.026695936            7 
  925000   0.89872419   -6.9917112    297.12577  0.026768087   0.02668081            5 
  926000   0.88736846   -6.9821856    296.80069  0.026709926  0.026665371            5 
  927000   0.88912788   -6.9719023    297.85989  0.026776329  0.026650258            7 
  928000   0.88914096   -7.0024594    298.04585  0.026764175  0.026635229            3 
  929000   0.88380335   -6.9402351    298.26843  0.026755331  0.026620257            4 
  930000   0.88830792   -6.9803424     298.0848  0.026710107  0.026605163           12 
  931000   0.86633887   -6.9874754    298.58122  0.026725852  0.026590087            4 
  932000   0.88097225   -6.9772423    298.52181  0.026691864  0.026575068            4 
  933000   0.87784868   -6.9612013    299.36107  0.026738216  0.026560084           13 
  934000   0.89160248    -6.974005     299.1307  0.026689035  0.026545301            4 
  935000   0.87628082   -7.0091765     298.9117  0.026640972  0.026530424            4 
  936000   0.87780537   -6.9843179    299.63608  0.026677002   0.02651567            3 
  937000    0.8861324   -6.9604917    299.69995  0.026654211  0.026500833            8 
  938000   0.86835764   -6.9994433    299.09126  0.026571718  0.026485799           11 
  939000   0.87862057   -6.9679649     299.9147  0.026616498  0.026470765            3 
  940000   0.89626646   -7.0099967    299.46215  0.026548062  0.026455612            7 
  941000   0.87064997   -6.9965888    300.72875  0.026632018  0.026440586            4 
  942000   0.88161206   -7.0191494    298.61993  0.026417191   0.02642534            4 
  943000   0.90059025   -6.9924989     300.3157  0.026539033  0.026410165            5 
  944000   0.87071772   -6.9793819    299.99372  0.026482496  0.026394875            6 
  945000    0.8754794   -6.9900727    299.27425  0.026391028  0.026379491           12 
  946000   0.86112147     -6.99496     300.4849  0.026469776  0.026364241           13 
  947000   0.87220493   -6.9896203    300.30391  0.026425898  0.026348936            4 
  948000   0.86292535   -6.9931106    300.57759  0.026422081  0.026333794            8 
  949000   0.86585273   -6.9564996    299.98714   0.02634239  0.026318554            3 
  950000   0.87008826   -7.0032387    301.13065  0.026414969   0.02630328            7 
  951000    0.8670744   -7.0342771    300.53389  0.026334901   0.02628797            6 
  952000   0.86746036   -7.0315252    300.28963  0.026285857  0.026272645            4 
  953000   0.88693181   -7.0394659    301.06323  0.026325921  0.026257272            9 
  954000   0.87992974   -6.9976883    301.03327  0.026295708  0.026241945            7 
  955000   0.85393709   -6.9983612    302.03428  0.026355522  0.026226624            5 
  956000   0.86371895   -7.0000624    301.73871  0.026302188  0.026211367            5 
  957000   0.85957234   -7.0239682    301.65914  0.026267776  0.026196154            5 
  958000   0.87812899   -7.0121468    301.48468  0.026225181  0.026180859            5 
  959000   0.88802876   -7.0241678    300.97405  0.026153463  0.026165403            5 
  960000   0.89668331   -7.0003506    301.98646  0.026214103  0.026149963            8 
  961000     0.875366   -7.0064176     301.6948  0.026161533  0.026134609            5 
  962000   0.87339022   -6.9946017    302.32929  0.026189301  0.026119215            3 
  963000   0.87798888   -7.0123509    301.48219  0.026088802  0.026103842            5 
  964000   0.86479528   -6.9902749    302.20211  0.026123972  0.026088406           10 
  965000   0.88254769   -6.9913274    302.92694  0.026159494  0.026073072            6 
  966000   0.86765372   -7.0013781    303.67826  0.026197227  0.026057889            5 
  967000   0.86461358   -7.0405332    302.67908  0.026084029  0.026042608            5 
  968000   0.86670709   -7.0358584    302.35028  0.026028778  0.026027255            6 
  969000   0.85699605   -6.9966373    303.25416  0.026079649  0.026011777            5 
  970000   0.85986363    -7.029678    302.49452  0.025987502  0.025996288            4 
  971000   0.84857347   -7.0172127    303.23214  0.026024042  0.025980832            3 
  972000   0.84666478   -7.0637187    303.55211  0.026024701   0.02596524            3 
  973000   0.86816385   -7.0352386    302.82221  0.025935441  0.025949757            3 
  974000   0.88106468     -7.00025    302.92414  0.025917534  0.025934212            3 
  975000   0.86163677   -7.0528883    303.24868  0.025918691  0.025918409           10 
  976000    0.8611381    -7.022241    303.16995  0.025885412  0.025902589            5 
  977000   0.84924386   -7.0302997    303.44062  0.025882004  0.025886697            5 
  978000   0.85031311   -7.0081135     303.7529  0.025882149  0.025870894            4 
  979000   0.86912445   -7.0068512     304.6021  0.025927997  0.025855188            5 
  980000   0.89043107   -7.0388284    304.18635  0.025866186  0.025839464            3 
  981000   0.85831962   -7.0588154    304.02976  0.025826517  0.025823685            7 
  982000   0.86522965   -7.0423971    304.19902  0.025814581  0.025807897            4 
  983000   0.86368845   -7.0294758    303.35726   0.02571696  0.025792054            8 
  984000   0.86498077   -7.0349797    305.04237  0.025833534  0.025776355            6 
  985000   0.87896588   -7.0088636    306.03158  0.025890997  0.025760711            5 
  986000   0.86455198   -7.0194446    305.39906   0.02581128  0.025745097            8 
  987000     0.871531   -7.0393866     304.1926  0.025683266  0.025729617           10 
  988000   0.85903331   -7.0275113    304.81061  0.025709397  0.025713971            6 
  989000   0.87850806   -6.9930262    305.22113  0.025717992  0.025698344            5 
  990000   0.86428469   -7.0342948    305.86917  0.025746563  0.025682665            8 
  991000   0.85833957   -7.0223941    305.75344  0.025710851  0.025666858            4 
  992000   0.85836221   -7.0270152    305.65777  0.025676896  0.025651125            5 
  993000   0.84356785   -7.0482263    304.94075  0.025590865  0.025635366            3 
  994000   0.87804077   -7.0547607    305.54311   0.02561562  0.025619582            4 
  995000   0.85885795   -7.0308785    305.70019  0.025603031  0.025603693            5 
  996000   0.86303594   -7.0356618    306.26109  0.025624254  0.025587795            3 
  997000   0.87087466    -7.046514    305.82511  0.025562113  0.025572005            4 
  998000   0.85077297   -7.0423406    305.98209  0.025549606  0.025556191            3 
  999000   0.86121909   -7.0405053    306.19045  0.025541412  0.025540383            4 
 1000000   0.85765293   -7.0328644    305.57662  0.025464718  0.025524503            6 
 1001000   0.86344115   -7.0645353    305.61465  0.025442445  0.025508589            2 
 1002000     0.865082   -7.0582072    305.48106  0.025405943  0.025492507            9 
 1003000   0.86697012    -7.028054    306.20702  0.025440929  0.025476177            5 
 1004000   0.86023982    -7.023393    307.21231   0.02549903   0.02546015           11 
 1005000    0.8482068   -7.0363098    306.11614  0.025382765  0.025444223            5 
 1006000   0.83309419   -7.0582387    306.29234  0.025372129    0.0254282            5 
 1007000   0.84952856   -7.0377893    306.55232  0.025368447  0.025412213            8 
 1008000   0.84133466   -7.0391459    307.02487  0.025382347  0.025396244            7 
 1009000   0.87370959   -7.0702746    306.18346  0.025287699  0.025380298            7 
 1010000     0.854524    -7.041498    305.57342  0.025212328  0.025364178           10 
 1011000   0.84786984   -7.0619066    306.93072  0.025299268  0.025348003            8 
 1012000   0.85530568   -7.0639725    308.02369  0.025364269  0.025331872            5 
 1013000   0.87472393   -7.0629018    306.70087  0.025230411  0.025315746           11 
 1014000   0.83316742   -7.0590412    307.07368  0.025236167  0.025299685           14 
 1015000    0.8567884   -7.0870481    307.12311  0.025215362  0.025283434            9 
 1016000   0.85008436   -7.0568547    306.89549  0.025171874  0.025267096            4 
 1017000   0.86431695   -7.0575624    307.40072  0.025188522  0.025250796            2 
 1018000   0.86339587   -7.0598634    306.68379  0.025105091  0.025234536            4 
 1019000   0.84931904   -7.0829203    307.43477  0.025141868  0.025218109            5 
 1020000   0.83511922   -7.0562216    307.41774  0.025115828  0.025201861           13 
 1021000   0.85002614   -7.0897589    306.76624  0.025038054  0.025185356            5 
 1022000   0.85382825   -7.0672532    308.30976  0.025139413  0.025168964            4 
 1023000   0.83079428   -7.0634491    307.56301  0.025054009  0.025152651            4 
 1024000   0.84987958   -7.0649002     307.9699  0.025062655  0.025136255            7 
 1025000   0.83912516   -7.0358078    308.01124  0.025041564  0.025120037            5 
 1026000    0.8287119   -7.0949501    307.70351  0.024992163  0.025103744            4 
 1027000   0.85580151   -7.0550762     307.9703  0.024989476  0.025087285            5 
 1028000   0.84006134   -7.0601901    308.33722  0.024994911  0.025070857            6 
 1029000   0.86050083   -7.0350416    308.10071  0.024951467  0.025054364            6 
 1030000   0.83918523   -7.1062043    307.70622  0.024895326  0.025037929            7 
 1031000   0.86145619   -7.0716055    309.62241   0.02502606  0.025021406            4 
 1032000   0.83256467    -7.056599    308.52681   0.02491334  0.025005051            5 
 1033000   0.84123166   -7.0528737    308.26102  0.024867782  0.024988592           10 
 1034000   0.83733086   -7.0685221    307.83487  0.024809387  0.024972125            6 
 1035000   0.84198065   -7.0768554    308.03774   0.02480175  0.024955625            6 
 1036000   0.83116331   -7.0790308    309.51924  0.024896978  0.024939152            7 
 1037000   0.83438157   -7.0826895    308.81439  0.024816329  0.024922648            7 
 1038000   0.83784639   -7.0517063    309.86684  0.024876914   0.02490624            8 
 1039000   0.84298596    -7.050516    309.19448  0.024799044  0.024889904            8 
 1040000   0.81306248   -7.0906106    308.39806  0.024711383  0.024873498            4 
 1041000   0.83876596   -7.0706868    310.16902  0.024829412  0.024857013            3 
 1042000   0.82340712   -7.0874277    309.67297  0.024765912  0.024840624            3 
 1043000   0.82366331   -7.0826184    309.31252  0.024713369   0.02482415            4 
 1044000   0.83649064   -7.0660518    310.68185  0.024798998   0.02480789            8 
 1045000   0.84127174   -7.0669166    310.16681  0.024734196  0.024791782            5 
 1046000    0.8447404   -7.0538241    310.52273  0.024738905  0.024775756            4 
 1047000   0.83932982   -7.1066881    310.14411  0.024685141  0.024759728            5 
 1048000   0.82645761   -7.0787326    310.51841  0.024691349  0.024743695            4 
 1049000   0.83760901   -7.1140606    310.56173  0.024671253  0.024727603           12 
 1050000    0.8354589   -7.0900346    311.08476  0.024689266  0.024711501            6 
 1051000   0.84081444   -7.0893464    310.99432  0.024658604  0.024695255            6 
 1052000   0.83948203   -7.0882203    310.79973  0.024619751  0.024679022            6 
 1053000   0.83960917   -7.1266757    310.07454  0.024538979  0.024662754           12 
 1054000   0.82884135   -7.0899054    311.27963  0.024610977   0.02464655           13 
 1055000   0.86622818   -7.0991481    310.72351  0.024543721  0.024630485            4 
 1056000   0.85872044   -7.1049656    311.78369  0.024604142  0.024614577            9 
 1057000   0.81728999    -7.100989    311.47771  0.024556741  0.024598627            8 
 1058000    0.8344602   -7.0807571    312.04252  0.024578018   0.02458264            6 
 1059000   0.82492804   -7.0692025    311.48779  0.024511157  0.024566651            7 
 1060000   0.84797976   -7.1002915    312.52454  0.024569539  0.024550636            5 
 1061000   0.82826684    -7.076122    313.01309  0.024584754  0.024534677            6 
 1062000   0.84171213   -7.0914231    312.55083  0.024525332  0.024518787            4 
 1063000   0.84004108   -7.0953645    313.18669  0.024552108  0.024502862            4 
 1064000   0.81522453   -7.0620476    312.70234  0.024491098  0.024487075            5 
 1065000   0.82347529   -7.0876809    312.91898  0.024485053  0.024471154            3 
 1066000   0.83603285   -7.0982029     312.6196   0.02443868  0.024455185            5 
 1067000   0.82782434   -7.0886166    312.91687  0.024438993  0.024439306            4 
 1068000    0.8136143   -7.0920387    313.06287  0.024427503  0.024423276            4 
 1069000   0.81905579   -7.1056889    312.66174  0.024373382  0.024407158            4 
 1070000   0.80340679   -7.0902635    312.46742  0.024335469  0.024391099            6 
 1071000   0.81030978     -7.12076    313.06584  0.024359309   0.02437514           12 
 1072000   0.83234382   -7.0787359    313.18591  0.024345919  0.024359237            4 
 1073000   0.81992203   -7.0950028    313.54973  0.024351485   0.02434348            5 
 1074000   0.82902791    -7.090292    313.48252  0.024323598  0.024327679            3 
 1075000   0.82876507   -7.0912817    314.83964  0.024406174  0.024311928            8 
 1076000   0.80408099   -7.1015669    314.43574  0.024352211  0.024296215           13 
 1077000   0.82234524   -7.1219803    314.31291  0.024320095  0.024280497            6 
 1078000   0.83341337   -7.1057357    314.23712  0.024291676  0.024264807           11 
 1079000   0.81168208   -7.0885846    315.06827  0.024333354  0.024249259            4 
 1080000   0.83719881   -7.1145129    313.76013  0.024209886  0.024233739            6 
 1081000   0.81270659   -7.1014049    315.12212  0.024292485  0.024218136            9 
 1082000   0.83947676   -7.1186517    315.38353  0.024290167  0.024202639            3 
 1083000   0.82327692   -7.1283593    315.42786  0.024271149  0.024187254            6 
 1084000   0.79695153   -7.1140903    314.99301   0.02421533  0.024171808            7 
 1085000   0.81775298   -7.1172129    315.54133  0.024235125  0.024156271            2 
 1086000   0.81798525   -7.1067492    316.33924  0.024274036   0.02414092            6 
 1087000   0.82364693   -7.1165617    315.60706  0.024195574   0.02412557            5 
 1088000   0.84204705   -7.1026262    316.76134  0.024261744  0.024110288            5 
 1089000    0.8369889   -7.1061058    316.06187   0.02418594  0.024095058            6 
 1090000   0.80778935   -7.1137286    317.32417  0.024260258  0.024079832            6 
 1091000   0.81928473    -7.112577    316.78401  0.024196762  0.024064552            2 
 1092000    0.8227214   -7.1323852    315.59601  0.024083944  0.024049217            8 
 1093000   0.82766795   -7.0957801    317.07851   0.02417494  0.024033827            5 
 1094000   0.82772273   -7.1427004     316.2116  0.024086807  0.024018444            6 
 1095000   0.84392242   -7.1302737    317.02312  0.024126569  0.024002992            5 
 1096000   0.82611761   -7.1272035    316.94092  0.024098306   0.02398755            5 
 1097000   0.83238104   -7.1043917    316.35733  0.024032006    0.0239721            5 
 1098000   0.80860826   -7.1147101    316.78245  0.024042384  0.023956698            6 
 1099000   0.81057033   -7.1240253    317.07658   0.02404281   0.02394122            7 
 1100000   0.81784532   -7.1639547    316.68317  0.023991149  0.023925703            5 
 1101000   0.79901521   -7.1032414    316.68062  0.023969166  0.023910151            4 
 1102000   0.80703517    -7.107267    316.80236  0.023956622  0.023894693           11 
 1103000   0.81482452   -7.1486456    316.89057  0.023941566  0.023879232            5 
 1104000     0.810515   -7.1182658    317.69161  0.023980345  0.023863809            6 
 1105000   0.82213197   -7.1522265    317.37686  0.023934906  0.023848453            6 
 1106000   0.81750521   -7.1336967    318.22436  0.023977122  0.023833073           10 
 1107000   0.80445952   -7.1360718    317.05206  0.023867213  0.023817583            6 
 1108000   0.80779456   -7.1437289    317.04499   0.02384514  0.023802004            5 
 1109000   0.78914262   -7.1253568    317.47672  0.023856081  0.023786445           13 
 1110000   0.82684203   -7.1639437    316.92644  0.023793276  0.023770936            5 
 1111000    0.8071437   -7.1590959    317.80738  0.023837938  0.023755358            7 
 1112000   0.81424584   -7.1565452     316.9056  0.023748921  0.023739782           14 
 1113000   0.80600505   -7.1581533    317.84033  0.023797569  0.023724243            9 
 1114000   0.82003171   -7.1514674    317.39154  0.023742634  0.023708797            5 
 1115000   0.81560909    -7.132992    318.49997  0.023804183  0.023693328            5 
 1116000   0.80090002   -7.1312187    317.96451  0.023742869  0.023677902           12 
 1117000    0.7794375   -7.1414807    318.66589   0.02377394  0.023662503            8 
 1118000   0.79054833   -7.1366181    318.64687  0.023751258  0.023647222            6 
 1119000   0.81973121   -7.1314779    318.95502   0.02375298  0.023631877            7 
 1120000   0.80246029   -7.1109809    318.34689  0.023686525  0.023616536            7 
 1121000   0.81157022    -7.143241    318.98014   0.02371247   0.02360117            7 
 1122000   0.81119719   -7.1390095    319.45181  0.023726368  0.023585865            5 
 1123000   0.81126222   -7.1305504     319.6632  0.023720926  0.023570521            7 
 1124000    0.8039893   -7.1146295    319.61571  0.023696301  0.023555309            7 
 1125000   0.79779213   -7.1303554    320.14179  0.023714207  0.023540259            8 
 1126000   0.81583388   -7.1445765    319.42976   0.02364045  0.023525168            8 
 1127000   0.79512648   -7.1529902    319.76071  0.023643945  0.023509964            8 
 1128000   0.79758283   -7.1507166    319.28646  0.023587948  0.023494508            8 
 1129000   0.79932068   -7.1728949    320.79961  0.023678743  0.023479244            4 
 1130000   0.79721233   -7.1418584    319.55054  0.023565674  0.023463978            4 
 1131000   0.79744384   -7.1799068     320.5371  0.023617529  0.023448703            9 
 1132000   0.80283874   -7.1866199    319.07596  0.023489102  0.023433401            7 
 1133000   0.79146879   -7.1709682    320.11216  0.023544583  0.023418057            6 
 1134000   0.80828915    -7.161181    319.72301  0.023495224  0.023402591            9 
 1135000   0.80933245   -7.1384076    319.10474   0.02342913  0.023387072            6 
 1136000   0.79197196   -7.1706506     319.6847  0.023451049  0.023371576            5 
 1137000   0.81742332   -7.1599299    319.71608  0.023432724  0.023356088            5 
 1138000   0.80611036   -7.1744619     319.3655   0.02338646  0.023340569           11 
 1139000   0.80791325   -7.1731025     320.2854  0.023433231  0.023325076           18 
 1140000   0.80811896   -7.1362307    320.64496  0.023438959  0.023309722           12 
 1141000   0.79629445   -7.1697562    320.38114  0.023399148   0.02329437            9 
 1142000   0.77823131   -7.1768708    320.31604  0.023373908  0.023278934           16 
 1143000   0.78950847   -7.1775494    320.37065   0.02335744   0.02326343            7 
 1144000   0.81590901   -7.1644532    319.58315  0.023279659  0.023247999           18 
 1145000   0.78060013   -7.1473913    320.47424   0.02332418  0.023232614            8 
 1146000   0.78088613   -7.2011444    320.62492  0.023314785  0.023217102            8 
 1147000   0.78715726   -7.1799734    320.50108  0.023285461  0.023201475           19 
 1148000   0.79872268   -7.1955584    319.72691   0.02320898    0.0231859            8 
 1149000   0.80105616    -7.187384    320.64208  0.023255155  0.023170389            7 
 1150000   0.80127623   -7.1812353    320.50167  0.023224759  0.023154929            8 
 1151000   0.79912624   -7.1750125    320.88104  0.023232047  0.023139702           11 
 1152000   0.79765516   -7.1422485    322.07505  0.023298253  0.023124614            7 
 1153000   0.79369512   -7.1744882    321.83102  0.023260409  0.023109554            9 
 1154000   0.78371319   -7.1523636    322.59425  0.023295367   0.02309449           18 
 1155000   0.78349639   -7.1712219    322.54097  0.023271354  0.023079373            8 
 1156000   0.80312726   -7.1895928    322.18115  0.023225285  0.023064254           12 
 1157000   0.79591916   -7.1550113    321.66711  0.023168187  0.023049124            5 
 1158000   0.79035162   -7.1780915    321.96015  0.023169268  0.023034084           12 
 1159000    0.7999792    -7.162393    322.86467  0.023214313  0.023019106            5 
 1160000   0.79442585   -7.1644864    322.54633  0.023171431  0.023004125            8 
 1161000    0.7827184   -7.1715272    322.57566  0.023153579  0.022989138            7 
 1162000    0.7962225   -7.1595212     323.1577  0.023175395  0.022974141            7 
 1163000   0.78337127   -7.1644141    323.48449  0.023178883  0.022959228            5 
 1164000   0.78645109   -7.1544551     323.1911  0.023137965  0.022944264            6 
 1165000   0.80535034   -7.1750444    323.69879   0.02315442  0.022929362            5 
 1166000   0.78172401   -7.1737399    323.81055   0.02314255  0.022914435            9 
 1167000   0.80833382   -7.2273337    322.89964  0.023057672  0.022899475           18 
 1168000   0.79835744   -7.1894785    322.67985  0.023022249  0.022884438           10 
 1169000   0.78664271   -7.1717722    323.07072  0.023030419   0.02286937           11 
 1170000    0.8022722   -7.1674602    322.83393  0.022993869  0.022854207            7 
 1171000   0.78883112    -7.161428    323.47147  0.023019604  0.022839042            9 
 1172000   0.78644189   -7.2093432    322.34374  0.022919776  0.022823926            4 
 1173000   0.79270663   -7.1680464      323.534  0.022984797  0.022808743           12 
 1174000   0.79048337   -7.2071696     322.5209  0.022893307  0.022793544           11 
 1175000   0.78402354   -7.1821249    322.85675  0.022897642  0.022778244           21 
 1176000   0.77324117   -7.1720471    323.59024  0.022930147  0.022762951           19 
 1177000   0.78695496   -7.2120183    323.34406  0.022893236  0.022747669            5 
 1178000   0.79047299   -7.2139415    322.89373  0.022841945  0.022732416           14 
 1179000   0.77883192   -7.2247236    323.07813  0.022835604  0.022717146           15 
 1180000   0.78327715   -7.1684856    323.94883  0.022877742  0.022701932            5 
 1181000   0.77488314   -7.1982383    323.41271  0.022820541  0.022686753            6 
 1182000   0.78031731   -7.1810262    323.59044  0.022813765  0.022671604           17 
 1183000   0.77110885   -7.2100563    323.40096  0.022781133  0.022656413            5 
 1184000   0.77662712    -7.178708    323.99153  0.022803458  0.022641182            6 
 1185000    0.7964843   -7.2132596     322.9801  0.022713088   0.02262597           10 
 1186000   0.77402972   -7.1663049    324.00769  0.022766139  0.022610773           11 
 1187000   0.76709867   -7.2068816    324.32533  0.022769259  0.022595655            6 
 1188000    0.7741402    -7.203327    323.44751  0.022688518  0.022580445            5 
 1189000   0.77638449   -7.1767402    323.20492  0.022652433  0.022565258            3 
 1190000   0.78128048   -7.1661438    323.71101  0.022668838  0.022550105            4 
 1191000   0.78642863   -7.2014744    323.32014  0.022622456  0.022534931           10 
 1192000   0.76161685   -7.1979037    323.58197  0.022621782  0.022519723            6 
 1193000   0.77022846   -7.1937348    324.12228  0.022640562   0.02250453            7 
 1194000   0.79070099   -7.2086226    324.17849  0.022625523  0.022489362            8 
 1195000   0.80133814   -7.1918554    324.45791  0.022626074  0.022474224            4 
 1196000   0.77625795   -7.2115549    325.47743  0.022678194  0.022459119            6 
 1197000   0.78610664   -7.1995233    324.39834  0.022584122  0.022444032            8 
 1198000   0.79330525   -7.2256914    323.74555  0.022519863  0.022428906            6 
 1199000   0.77919846   -7.2312422    324.64196  0.022563384  0.022413769            7 
 1200000   0.77866315   -7.1873952    325.57405  0.022609309  0.022398766           11 
 1201000   0.76920253   -7.1852781    324.81469  0.022537794  0.022383749           10 
 1202000   0.78937226   -7.1792475    325.29309  0.022552211  0.022368766            6 
 1203000   0.75460378   -7.2013145    325.83502  0.022571005  0.022353778            4 
 1204000   0.77519226   -7.2090686    324.93103  0.022489689  0.022338711            4 
 1205000   0.78836832   -7.2071473    325.29309  0.022496065  0.022323694           11 
 1206000   0.76834494   -7.1952976    325.01501  0.022458196  0.022308621            4 
 1207000   0.77573736    -7.225135    325.78876  0.022493011   0.02229356            9 
 1208000   0.75801659   -7.1956585    325.55364   0.02245817  0.022278471            7 
 1209000   0.77256562   -7.2441335     324.4602  0.022364226  0.022263341            4 
 1210000   0.77087837   -7.2482302     324.9867  0.022382004  0.022248183           14 
 1211000   0.78760168   -7.2036864    325.62104  0.022407173  0.022233137            7 
 1212000   0.76931267    -7.212396    324.78937  0.022331502  0.022218124            9 
 1213000   0.77165948   -7.2171954    325.53732  0.022364476  0.022203134           22 
 1214000   0.78086832   -7.2418897    325.79519  0.022363756  0.022188137           17 
 1215000    0.7582382   -7.2318085    326.41041  0.022387545  0.022173175            4 
 1216000   0.76284634   -7.2374831    326.68861    0.0223882  0.022158234            8 
 1217000   0.77691318   -7.2125724    326.11354  0.022330426  0.022143308            5 
 1218000   0.77062591   -7.2369153    325.99093  0.022303704  0.022128435            7 
 1219000   0.76870166   -7.2410778    326.36443   0.02231094  0.022113532           10 
 1220000    0.7648835   -7.2463758    326.55796  0.022305871  0.022098579            9 
 1221000   0.77111821   -7.2060066     326.0895   0.02225563  0.022083608           10 
 1222000   0.77521138   -7.2400756    325.41768  0.022191604  0.022068623            9 
 1223000   0.75689053   -7.2222635    326.22543  0.022228498  0.022053623            9 
 1224000   0.77578815   -7.2247383    325.50598  0.022161355  0.022038532            5 
 1225000    0.7642918   -7.1912944    326.70154  0.022224595  0.022023491            7 
 1226000   0.76428915   -7.2156821    326.28409  0.022178092  0.022008541            5 
 1227000   0.76072025   -7.2396174     326.6003  0.022181493  0.021993512            7 
 1228000   0.76077339   -7.2478197    325.93934  0.022118576  0.021978467           10 
 1229000   0.76085054   -7.2253384    326.17127  0.022116306  0.021963465            8 
 1230000   0.75705231   -7.2381991    326.60973   0.02212803  0.021948459            6 
 1231000    0.7898439   -7.2476888    326.51413  0.022103583  0.021933404           11 
 1232000   0.75125617    -7.246933     326.3023  0.022071313  0.021918293           10 
 1233000   0.77258482    -7.248583    325.61798  0.022007163  0.021903201            9 
 1234000   0.76540143   -7.2386336    326.56283  0.022053135  0.021888082           13 
 1235000   0.76117428   -7.2154633     326.5801  0.022036444  0.021873072           11 
 1236000   0.75303774   -7.2436199    326.65698  0.022023798  0.021858096            5 
 1237000   0.75357277   -7.2425859    326.19905  0.021975145  0.021843102            7 
 1238000   0.76633375   -7.2405948    326.90021  0.022004591  0.021828151            6 
 1239000   0.75875956   -7.2421842     326.8841  0.021985748  0.021813197            4 
 1240000   0.75264881   -7.2616876    327.27891   0.02199455  0.021798102           13 
 1241000   0.77526885     -7.23896    327.45364  0.021988561  0.021783131            6 
 1242000   0.76423237   -7.2627264    326.79156  0.021926433   0.02176821            9 
 1243000   0.74202472   -7.2433271    327.01987    0.0219241  0.021753219            6 
 1244000   0.76376635    -7.243383     327.2942  0.021924852  0.021738182            7 
 1245000   0.76454954   -7.2584952    326.97058  0.021885581  0.021723148            9 
 1246000   0.77170837    -7.269295    326.86379  0.021860874  0.021708128           11 
 1247000    0.7573932   -7.2433176    326.93466   0.02184808   0.02169318            9 
 1248000   0.76947027   -7.2472772    327.86395  0.021892625   0.02167819            6 
 1249000   0.75093989   -7.2375788    328.01509  0.021885181  0.021663263            6 
 1250000   0.75617607   -7.2475591    327.61797  0.021841198  0.021648314            5 
 1251000     0.751417   -7.2476921    327.50553  0.021816249  0.021633412           13 
 1252000   0.75853585   -7.2440305    328.08941  0.021837687   0.02161852            8 
 1253000   0.76077965   -7.2556112    327.67993  0.021793026   0.02160359            5 
 1254000   0.74922156   -7.2440944    328.22396  0.021811799   0.02158865            5 
 1255000   0.75091479   -7.2567372    327.33623  0.021735473  0.021573682            8 
 1256000   0.74936672   -7.2895181    327.38332  0.021721292  0.021558618           11 
 1257000   0.74410664   -7.2727548     327.5973  0.021718198  0.021543586           15 
 1258000   0.74938526   -7.2617937    327.57994  0.021699784  0.021528556           19 
 1259000    0.7420965    -7.296146    328.01615  0.021711421  0.021513579           10 
 1260000   0.74339327   -7.2711747    328.02788  0.021694966  0.021498581           13 
 1261000   0.75671343   -7.2846451    327.46211  0.021640372  0.021483604           12 
 1262000   0.74122769   -7.2728287    327.82707  0.021647324  0.021468558            8 
 1263000   0.75769666   -7.2751965    327.58377  0.021614131  0.021453518            8 
 1264000   0.73946913   -7.2844507    327.13762  0.021567618  0.021438568           21 
 1265000   0.75647735   -7.2854892    328.07965  0.021612625  0.021423554            8 
 1266000   0.76011816   -7.2757338    328.65711  0.021633565  0.021408571           19 
 1267000   0.74762466   -7.2679598    328.06829  0.021577762  0.021393631            8 
 1268000   0.74155884   -7.2663291    328.17267  0.021567604  0.021378752            9 
 1269000   0.75335617    -7.271492    328.22254  0.021553883  0.021363831            7 
 1270000   0.74469227   -7.2728902    327.68747  0.021501803   0.02134886           20 
 1271000   0.74043952   -7.2666068    327.76289   0.02148983  0.021333931            6 
 1272000   0.74160763   -7.2501788    329.04977  0.021557244  0.021319038            7 
 1273000   0.73983657   -7.2735916     329.0329  0.021539205  0.021304141            8 
 1274000   0.74654047   -7.2929918    328.91701  0.021514718  0.021289252            9 
 1275000   0.73711161   -7.2374368    328.11203  0.021445231  0.021274331           16 
 1276000   0.73630526    -7.283423    328.29574  0.021440422  0.021259465           14 
 1277000   0.73364415   -7.2457386    328.00892  0.021404915  0.021244498           10 
 1278000   0.74390228   -7.2732623    328.22934  0.021402539  0.021229505           11 
 1279000   0.73149155   -7.2841254     328.7209  0.021417833   0.02121451            7 
 1280000   0.73962742   -7.2940716    328.79234  0.021405751   0.02119952           11 
 1281000    0.7511423   -7.2853505    328.65268  0.021379956   0.02118459           24 
 1282000   0.74612274   -7.2798741    328.85892  0.021376685  0.021169671           12 
 1283000   0.74398435   -7.2860862    328.94797  0.021365807  0.021154881           10 
 1284000   0.76082165    -7.258803    329.47355  0.021383278  0.021140067            6 
 1285000   0.73669392   -7.2990163    328.39938  0.021296977  0.021125237            8 
 1286000   0.73124185   -7.2752492    329.52668  0.021353465  0.021110394           11 
 1287000   0.74076921   -7.2900553    329.27812   0.02132078  0.021095558            9 
 1288000   0.75942497   -7.2891189    328.61564  0.021261364  0.021080767           13 
 1289000   0.73121603   -7.3095368    329.21548  0.021283649  0.021065826           23 
 1290000   0.73020276   -7.3071263    329.45105  0.021282368   0.02105091           16 
 1291000    0.7426859   -7.2795756    329.49403  0.021268657  0.021036111            5 
 1292000   0.74947527    -7.289871    329.11669  0.021227857  0.021021216           11 
 1293000   0.74224675   -7.3047481    329.46052  0.021233599   0.02100631            9 
 1294000   0.73953789   -7.3128708    329.03958  0.021190081  0.020991398            6 
 1295000   0.73058691   -7.2888583    329.31123  0.021191199  0.020976544            6 
 1296000   0.71506199   -7.2864323    328.83154  0.021144003  0.020961657            9 
 1297000   0.73942326   -7.2882326    328.98082  0.021137292  0.020946757           16 
 1298000   0.72960425   -7.2800196    328.76953  0.021107443  0.020931874           12 
 1299000   0.74861703    -7.311924    329.21073  0.021119497  0.020917011            6 
 1300000   0.74654626   -7.2863107    329.17657  0.021101062  0.020902167            6 
 1301000   0.73637309   -7.2642355    329.41003  0.021099797  0.020887342            5 
 1302000   0.72288883   -7.2888885    329.31471   0.02107749  0.020872512            6 
 1303000   0.72993486   -7.3019387    328.97092  0.021039327  0.020857596            5 
 1304000   0.73194726   -7.2784918    328.76535  0.021010056   0.02084268            7 
 1305000   0.72934855   -7.3110682    329.07184  0.021013528  0.020827793           10 
 1306000   0.73600018   -7.3114965    329.02463  0.020994425  0.020812887            9 
 1307000   0.74458972   -7.2840161    329.40812  0.021002813  0.020797972           10 
 1308000   0.74377086   -7.2936139    329.30548  0.020980216   0.02078312            9 
 1309000   0.73949488   -7.2790495    329.62181  0.020984327  0.020768352            6 
 1310000    0.7194211   -7.2810684    329.21292  0.020942298  0.020753559           22 
 1311000   0.73125849   -7.2981328    329.42685  0.020939922  0.020738741            6 
 1312000   0.74339927   -7.3241917    329.32732   0.02091764  0.020723804           11 
 1313000   0.71151029    -7.292486    329.67389  0.020923704  0.020708971            8 
 1314000   0.71384284   -7.3181785    329.82174  0.020917157  0.020694133            8 
 1315000   0.72445167   -7.3081105    329.26724  0.020866112  0.020679274            8 
 1316000   0.72658333   -7.3262151    329.81395  0.020884876  0.020664438            7 
 1317000   0.72961401   -7.3464102    329.62772  0.020857233  0.020649597           13 
 1318000   0.71560425   -7.3087552    329.68608  0.020845098  0.020634709            9 
 1319000   0.73240303    -7.305914    330.03863  0.020851569  0.020619874           11 
 1320000   0.71781287   -7.3101005    329.80547  0.020821052  0.020605103            5 
 1321000   0.71841156   -7.3091465    329.89118  0.020810697  0.020590322           10 
 1322000   0.72490749   -7.3205667    329.75669  0.020786478  0.020575639            7 
 1323000   0.73469919    -7.316101    330.07554   0.02079085  0.020560955            9 
 1324000   0.73045675   -7.3014608    330.91409  0.020827926  0.020546312            9 
 1325000    0.7431496   -7.3129213    330.56422  0.020790203   0.02053165            6 
 1326000   0.73063313   -7.3277345    330.24109  0.020754216  0.020516977            4 
 1327000   0.71159172   -7.3483666     330.2393  0.020738464  0.020502249            5 
 1328000   0.72947285   -7.3329739    330.01223  0.020708599   0.02048756            8 
 1329000   0.71735308   -7.3334927     330.5731  0.020728185  0.020472912            9 
 1330000   0.72682721   -7.3419816     330.7057  0.020720909  0.020458308            6 
 1331000   0.71206923   -7.3309845    330.25443  0.020677087  0.020443685            8 
 1332000   0.72412162   -7.3706626     330.1618  0.020655768  0.020429035            9 
 1333000   0.71130421   -7.3269539    330.81667  0.020681212  0.020414347            8 
 1334000   0.73069305   -7.3178132    330.01215  0.020615452  0.020399682           13 
 1335000   0.70972159   -7.3280007    330.73669  0.020645236  0.020385015            5 
 1336000   0.71836186   -7.3194771     330.9911  0.020645652  0.020370355           12 
 1337000   0.71088855   -7.3426541    330.83446  0.020620448  0.020355712            6 
 1338000   0.70938432   -7.3147253    330.49952  0.020584176  0.020341082           16 
 1339000   0.72398854   -7.3189833    330.53176  0.020570809   0.02032643            9 
 1340000   0.70547508   -7.3274396    330.90161  0.020578458  0.020311771           12 
 1341000   0.70485024   -7.3125757    331.43953  0.020596541  0.020297175            6 
 1342000   0.72629939   -7.3083689    330.96214  0.020551549  0.020282546           16 
 1343000   0.72529994   -7.3411621    330.75118  0.020523156  0.020267908            7 
 1344000   0.69596236   -7.3298901      330.499  0.020492249  0.020253266            7 
 1345000    0.7124749   -7.3302147    331.13452  0.020516389  0.020238661            7 
 1346000   0.70487241   -7.3381402    330.58795  0.020467307  0.020224081           13 
 1347000   0.72657253   -7.3246705    330.61891  0.020454028  0.020209506            3 
 1348000   0.71529174   -7.3448099    330.36866  0.020423384  0.020194952            8 
 1349000    0.7181713   -7.3310324    331.44264  0.020474589  0.020180389            8 
 1350000   0.71833275   -7.3439001    331.19881  0.020444371  0.020165831           12 
 1351000   0.70572675   -7.3730192    331.27564  0.020433977  0.020151311            9 
 1352000   0.71332801   -7.3347765    331.01752  0.020402954  0.020136749            9 
 1353000   0.70487503   -7.3358046    330.53696  0.020358275  0.020122168           11 
 1354000   0.71001595   -7.3465935    330.80631  0.020359817  0.020107644           11 
 1355000   0.70855734   -7.3476473    331.72412  0.020401237  0.020093072            8 
 1356000   0.71504333   -7.3370641    331.59742  0.020378406  0.020078538            4 
 1357000   0.71821086   -7.3425708    331.80894  0.020376378  0.020063975            8 
 1358000   0.71831323   -7.3676909    331.03511  0.020313887  0.020049348            8 
 1359000   0.69057595   -7.3614014    330.75992  0.020282065  0.020034763           28 
 1360000   0.70364078   -7.3430429    331.47334  0.020310866   0.02002017           12 
 1361000   0.69321258    -7.371975    330.66312  0.020246334  0.020005573           11 
 1362000   0.73228906   -7.3529694    330.70326  0.020233924   0.01999101            9 
 1363000   0.72831591   -7.3551441    330.77897  0.020223708  0.019976478            7 
 1364000   0.69382858   -7.3134628    331.52251  0.020254308  0.019961967            7 
 1365000   0.71084098   -7.3694725     331.1739  0.020218187  0.019947472           10 
 1366000   0.71207667   -7.3626463    331.46111  0.020220907  0.019932994           13 
 1367000   0.69225609   -7.3649834    330.84254  0.020168406  0.019918554           13 
 1368000   0.71130447   -7.3444965    331.94791  0.020220998  0.019904112           12 
 1369000   0.68414659   -7.3447382    331.62682  0.020186682  0.019889661            6 
 1370000   0.72238395   -7.3728016    331.35175  0.020155216  0.019875233           12 
 1371000   0.70618282   -7.3601442    331.25188  0.020134444  0.019860816           15 
 1372000   0.71373739    -7.384506    331.75833   0.02015053  0.019846369           15 
 1373000   0.72259998   -7.3464718    331.50729  0.020120617  0.019831924           15 
 1374000    0.7004046   -7.3598695    331.39519  0.020099175  0.019817496           16 
 1375000   0.70184605    -7.336902    331.77054  0.020107306  0.019803101           14 
 1376000   0.70338448   -7.3625178     331.6258  0.020083927  0.019788682            8 
 1377000   0.70759649   -7.3650107    331.76103  0.020077525  0.019774329            7 
 1378000   0.70340699   -7.3675562    331.44914  0.020044094  0.019759953            8 
 1379000   0.71367527   -7.3463008    331.79402    0.0200504  0.019745637            5 
 1380000   0.71789821    -7.319986    331.96257  0.020046049   0.01973134           10 
 1381000   0.70774728   -7.3580208    331.85754  0.020025195  0.019716974            9 
 1382000    0.7112726   -7.3912925    332.66794  0.020059572  0.019702638           11 
 1383000   0.69836725   -7.3623573    331.79036  0.019992188  0.019688307            8 
 1384000   0.69853622   -7.3809592    332.50394  0.020020709  0.019673953           11 
 1385000   0.69584771   -7.3752585    331.22102  0.019929062  0.019659676            8 
 1386000   0.69211009   -7.3440757    332.02139  0.019962806  0.019645367            9 
 1387000   0.70638977   -7.3730813    332.01747  0.019948178  0.019631121            6 
 1388000   0.71597294   -7.3748478    332.23315  0.019946755  0.019616879            8 
 1389000   0.69739436   -7.3474385    332.29327  0.019936001  0.019602657           13 
 1390000   0.70063478   -7.3795912    332.43975  0.019930441   0.01958839           11 
 1391000   0.69090172   -7.3998632    332.75572  0.019935042  0.019574108            5 
 1392000   0.69859207   -7.3786546    332.46459  0.019903292  0.019559843            5 
 1393000   0.70533282   -7.3723462    331.59765  0.019837141  0.019545596            9 
 1394000   0.70356807   -7.3858259    331.72184  0.019830335  0.019531376           12 
 1395000    0.7017474   -7.3843555    331.95415  0.019829997  0.019517163           10 
 1396000   0.69728585    -7.378022    332.10062  0.019824536  0.019502926            5 
 1397000    0.6901548   -7.3962967    332.11006  0.019810908  0.019488705            6 
 1398000   0.69224032   -7.3460033    332.53625  0.019822142  0.019474496            8 
 1399000   0.68843405   -7.3932317    332.62132   0.01981304   0.01946033            6 
 1400000   0.69330608   -7.3937239    333.12863  0.019829085   0.01944616            8 
 1401000   0.69621303    -7.382309    332.91922  0.019802476  0.019431994            7 
 1402000   0.69895661   -7.3963792    332.92785  0.019788864  0.019417848           14 
 1403000   0.69373165   -7.3951201    333.47015   0.01980697  0.019403741            9 
 1404000   0.70535819   -7.3842256    333.19162  0.019776331  0.019389614           12 
 1405000   0.67463215   -7.3932855    332.69979  0.019733084  0.019375454           13 
 1406000   0.69604117   -7.3777491    332.41043  0.019701898  0.019361342           11 
 1407000   0.68349014   -7.3839849    332.95599  0.019720208   0.01934725            6 
 1408000   0.69058775   -7.3851477    332.80467  0.019697246  0.019333187            7 
 1409000   0.68271983   -7.3812956    332.82432  0.019684429  0.019319086            7 
 1410000   0.69208498   -7.4083152    332.26535  0.019637432   0.01930501            6 
 1411000   0.69117425   -7.4169544    332.93867  0.019663281  0.019290951           10 
 1412000    0.6845043   -7.3867543    333.01565  0.019653898  0.019276894           14 
 1413000   0.69509449   -7.4171596    333.57686  0.019673087  0.019262838           13 
 1414000   0.68634371   -7.4093508    332.99178  0.019624692  0.019248757            7 
 1415000   0.71010122   -7.4240434    333.38425  0.019633937  0.019234703            8 
 1416000   0.69814142   -7.4044692    333.10464  0.019603616  0.019220673            9 
 1417000   0.68552087   -7.3913661    333.41107  0.019607802  0.019206702            8 
 1418000   0.69770687    -7.392862    332.66137  0.019549916  0.019192707            7 
 1419000   0.69632436   -7.3969663    332.85364   0.01954743  0.019178714           14 
 1420000   0.69308918   -7.3874622    334.05827  0.019604359  0.019164761           21 
 1421000   0.68089182   -7.3908748    332.75705  0.019514253  0.019150836            8 
 1422000   0.68415322   -7.3618214    333.78453  0.019560743  0.019136931           13 
 1423000   0.68577883   -7.3968055    333.65666  0.019539509  0.019123024           13 
 1424000   0.67528994   -7.3958304    333.66463  0.019526254  0.019109089           19 
 1425000   0.68505266   -7.3997014    333.43563   0.01949916  0.019095184           17 
 1426000   0.69104316   -7.4099067    333.44845  0.019486235   0.01908125            7 
 1427000   0.68704796   -7.3885535    333.86521  0.019496917  0.019067339            8 
 1428000   0.67477665   -7.4015654    333.89684   0.01948511  0.019053428           11 
 1429000   0.67723013   -7.3958495    333.92714  0.019473241  0.019039471           10 
 1430000   0.67874864   -7.4123226    333.13769  0.019413618  0.019025541           13 
 1431000    0.6838062   -7.4019478    333.72561  0.019434289  0.019011616            9 
 1432000   0.68003658   -7.4126185    333.78753  0.019424321   0.01899772           12 
 1433000   0.68309559   -7.4072629    333.34365  0.019384953  0.018983812            5 
 1434000   0.67064854   -7.3851512    333.03335  0.019353403  0.018969953            9 
 1435000   0.67855281   -7.4393241    333.54942  0.019369885  0.018956069           13 
 1436000   0.68917797   -7.4113021    333.05036  0.019327435  0.018942216            8 
 1437000   0.67999887   -7.4225245    333.80195  0.019357571  0.018928398           11 
 1438000    0.6929025   -7.4320821    334.50949  0.019385112  0.018914611           17 
 1439000   0.67779391   -7.4147491    334.16646  0.019351776  0.018900768            4 
 1440000    0.6720999   -7.4214007    334.35437  0.019349211  0.018886926           16 
 1441000   0.68975496   -7.4217713    333.78331  0.019302759  0.018873096           13 
 1442000   0.66487716   -7.4162047    333.18646  0.019254881  0.018859233            9 
 1443000    0.6770756    -7.434933      332.868  0.019223146  0.018845421           17 
 1444000   0.66041373   -7.4280269    333.97122  0.019273501   0.01883158           16 
 1445000   0.67782244   -7.4385135    334.20167  0.019273453  0.018817768           11 
 1446000   0.68869252   -7.4381649    333.32273  0.019209471  0.018803963           21 
 1447000   0.67187272   -7.4183487    333.56449  0.019210118   0.01879018           20 
 1448000   0.68390614   -7.4216752    333.83787  0.019212585  0.018776434           18 
 1449000   0.67100273   -7.4022305    333.20329   0.01916283  0.018762648           17 
 1450000   0.67718611   -7.4147373    333.93549  0.019191695  0.018748877           18 
 1451000   0.68250855   -7.4439295    334.07363  0.019186402  0.018735119           12 
 1452000   0.68054955   -7.4560572    334.09707  0.019174533  0.018721336           13 
 1453000    0.6664582   -7.4302261    334.08155  0.019160447  0.018707574           12 
 1454000   0.66370141   -7.4092233    333.98093  0.019141502  0.018693842           16 
 1455000   0.68961913   -7.4103085    333.60057  0.019106562  0.018680144           15 
 1456000   0.67634638    -7.417795     333.4775  0.019086396  0.018666424            7 
 1457000   0.69256111   -7.4033934    334.90083  0.019154703  0.018652721           11 
 1458000    0.6807019   -7.4158109    333.98198  0.019089048  0.018639044           24 
 1459000   0.66959997   -7.4156479    333.51813   0.01904947  0.018625348           14 
 1460000   0.66624159   -7.4461513    333.56868  0.019039308  0.018611665           21 
 1461000   0.66770172   -7.4232076     333.4208  0.019017842  0.018597969           14 
 1462000   0.65666627   -7.4421577    334.55116  0.019069263  0.018584339           14 
 1463000   0.67066079   -7.4191838    334.52211  0.019054575  0.018570712            7 
 1464000   0.66984408   -7.4472139    334.06295  0.019015423  0.018557085           13 
 1465000   0.67457309   -7.4351361    333.31026  0.018959628  0.018543464           12 
 1466000   0.64781716   -7.4418238    333.44848  0.018954552  0.018529775            9 
 1467000   0.65725055   -7.4513311    334.11794   0.01897966  0.018516094           13 
 1468000   0.65322405   -7.4351962    334.18487  0.018970531  0.018502424            8 
 1469000   0.66931815   -7.4635647     333.6712  0.018928477  0.018488774           12 
 1470000   0.66485585   -7.4603303    334.53778  0.018964727  0.018475105           26 
 1471000   0.65562644   -7.4827342    334.00709   0.01892177  0.018461426           10 
 1472000   0.67614961   -7.4456544    333.97548  0.018907126   0.01844774           12 
 1473000   0.67430641   -7.4681894    334.14867  0.018904089  0.018434076           15 
 1474000   0.67667063   -7.4685162    334.46061  0.018908899  0.018420451           11 
 1475000   0.66159533    -7.456682    334.54789  0.018901011    0.0184068            9 
 1476000    0.6569137   -7.4811515    334.36133  0.018877672  0.018393145           10 
 1477000   0.65673358   -7.4372017    333.90795  0.018839311  0.018379517            7 
 1478000   0.65564016   -7.4489657    334.10897  0.018837899  0.018365942            8 
 1479000   0.65067772   -7.4475449     333.9102  0.018813962  0.018352364            9 
 1480000   0.66532806   -7.4693131    334.23357  0.018819458  0.018338833           12 
 1481000   0.66606457   -7.4833884    334.22479  0.018806257  0.018325275           12 
 1482000   0.65848119   -7.4619324     334.3552  0.018800899  0.018311755           14 
 1483000   0.65559254   -7.4700279    334.52961  0.018798022  0.018298202           12 
 1484000   0.65256142   -7.4684648    333.60966  0.018733696  0.018284647            7 
 1485000   0.66979865   -7.4564928    334.01694  0.018743936   0.01827111            8 
 1486000   0.65668207   -7.4583633    334.12902  0.018737608   0.01825758           13 
 1487000   0.66800909   -7.4655157    334.11224  0.018724066  0.018244076           12 
 1488000   0.66967536   -7.4509802     334.2321  0.018718196  0.018230613            7 
 1489000   0.67127459   -7.4553492    334.53522  0.018722589  0.018217132           10 
 1490000    0.6569408   -7.4742981    334.74217  0.018721598  0.018203648           22 
 1491000   0.66503091   -7.4936674    334.15053  0.018675974  0.018190159           23 
 1492000   0.65546287   -7.4718616    334.85285  0.018702684  0.018176662           20 
 1493000    0.6635746   -7.4722504    334.31846   0.01866033  0.018163184           26 
 1494000   0.65077399   -7.4854256    334.07345  0.018634173  0.018149651           27 
 1495000   0.66079754   -7.4585541    334.59659  0.018650869  0.018136156           31 
 1496000   0.66073728   -7.4791465    333.96645  0.018603301  0.018122716           27 
 1497000   0.66205241   -7.4953298    333.79768  0.018581479  0.018109286           12 
 1498000   0.64514288   -7.4725949    334.65772  0.018616918  0.018095852           11 
 1499000   0.63319983   -7.4520852    334.46394  0.018593726  0.018082436           17 
 1500000   0.64348081   -7.4627987    334.81622  0.018600901  0.018069043            8 
 1501000   0.65848543   -7.4651912    333.84631  0.018534661   0.01805563           10 
 1502000   0.66540839   -7.4641064      335.309  0.018603473  0.018042257            6 
 1503000   0.65300101   -7.4523321    334.88779  0.018567742  0.018028925           15 
 1504000   0.66254173   -7.4571357    335.37054  0.018582144  0.018015626            5 
 1505000   0.65310427   -7.4957492    335.05331  0.018552232  0.018002287           10 
 1506000   0.66008135   -7.4451349    334.83514  0.018527841  0.017988965           17 
 1507000   0.63612047   -7.4690012    334.22107   0.01848159  0.017975628           19 
 1508000   0.65292519    -7.465551    334.79812  0.018501222  0.017962322           17 
 1509000   0.64074857   -7.4773663    334.70865  0.018484021  0.017949021            8 
 1510000   0.64730844   -7.4835021    334.93139  0.018484072  0.017935684           12 
 1511000   0.62408479   -7.4919281    333.97109  0.018418878  0.017922347            9 
 1512000   0.66145931   -7.4651488    334.65534  0.018444408  0.017909055           12 
 1513000   0.67779839   -7.4927997    334.61762   0.01843014  0.017895707            9 
 1514000   0.64791963   -7.4989858    334.79426  0.018427689  0.017882347           10 
 1515000   0.64548334   -7.4867687    334.33069  0.018390027  0.017868962            8 
 1516000   0.64598355   -7.5036659    334.80366  0.018403895  0.017855623           10 
 1517000    0.6536952   -7.4908629     334.3598  0.018367381  0.017842298           16 
 1518000   0.64231808   -7.4844078    334.26795  0.018350239  0.017828959           14 
 1519000   0.65627153   -7.4748581    333.94211  0.018320282  0.017815638           13 
 1520000   0.65106062   -7.5002697    333.85503  0.018303455  0.017802312            8 
 1521000   0.63630599   -7.4849704    334.34503  0.018318268  0.017789011           24 
 1522000   0.65957561   -7.4973273    334.25884  0.018301513  0.017775728           13 
 1523000   0.64245214   -7.4989783     334.8624  0.018322521  0.017762423           13 
 1524000   0.65366897   -7.4989396    334.32006  0.018280843  0.017749123            8 
 1525000   0.65824606   -7.5113565    334.79883  0.018295018  0.017735838           13 
 1526000   0.64170861   -7.5044156    334.46209   0.01826464  0.017722584           26 
 1527000   0.63055506   -7.4960145    334.76003  0.018268939  0.017709328           12 
 1528000   0.65385903   -7.5103373    334.34615   0.01823441  0.017696114           15 
 1529000   0.65412573   -7.4926598    334.89565  0.018252433  0.017682881           10 
 1530000   0.66349669   -7.5115139     334.4429  0.018215844  0.017669688           12 
 1531000   0.63626796   -7.4879865    334.58617  0.018211745  0.017656517           21 
 1532000   0.64246943    -7.518039    334.08347  0.018172513  0.017643337           22 
 1533000   0.64503065   -7.4885206    334.70494  0.018194441  0.017630142           23 
 1534000   0.64582335    -7.485831    334.00089  0.018144334  0.017616994           14 
 1535000   0.63414682   -7.4980779    334.34266  0.018151067  0.017603834           38 
 1536000   0.63728054    -7.495314    334.27025  0.018135322  0.017590665           14 
 1537000   0.64306839   -7.5004277    334.69041  0.018146303  0.017577479           52 
 1538000   0.63496257   -7.4976787    334.55998  0.018127437  0.017564323           21 
 1539000   0.63274279   -7.5189356    334.72042  0.018124346    0.0175512           27 
 1540000   0.63886584   -7.4956113     334.6227  0.018107289  0.017538066           26 
 1541000    0.6492904   -7.5355887    335.00598  0.018116266  0.017524895           12 
 1542000   0.63177093    -7.517227     335.3008   0.01812045  0.017511716           10 
 1543000   0.64695963   -7.5055448    334.67315  0.018074808  0.017498567           15 
 1544000   0.63636761   -7.5115074    334.93342  0.018077149  0.017485434           15 
 1545000   0.62814541   -7.5042762    334.79491  0.018057978  0.017472321           10 
 1546000   0.63805793   -7.5087707     334.4542  0.018027932   0.01745923           12 
 1547000    0.6269849   -7.5156382    334.49988  0.018018739    0.0174461           11 
 1548000   0.64293785   -7.5003347    334.50254  0.018007243  0.017432986           22 
 1549000   0.64725066    -7.513663     334.7641  0.018009689  0.017419902           10 
 1550000   0.64302388    -7.509558    335.32877  0.018028429  0.017406813            9 
 1551000   0.62891236   -7.5295067    334.39008   0.01796637   0.01739375           16 
 1552000   0.63690445   -7.5118157     333.7648   0.01792122  0.017380667           14 
 1553000   0.64917571   -7.4978034    334.56495  0.017952616  0.017367585           21 
 1554000   0.62855988   -7.5136556    334.17358  0.017920076  0.017354524            7 
 1555000   0.63761486   -7.5051274    333.90613  0.017894219  0.017341464           14 
 1556000   0.63494015   -7.5045246    333.89083    0.0178819  0.017328426            9 
 1557000   0.63820439   -7.4912823    334.67822  0.017912557  0.017315427            7 
 1558000   0.64304014   -7.5063227    334.36921  0.017884532  0.017302419            9 
 1559000   0.63308579    -7.527634    334.92487  0.017902762  0.017289434            6 
 1560000    0.6202951   -7.5207236    334.67119  0.017877734   0.01727645            9 
 1561000   0.63782028   -7.5156821    334.94093  0.017880682  0.017263493           10 
 1562000   0.63136717   -7.5162205    334.07706  0.017823147  0.017250526            8 
 1563000   0.62468847   -7.5243994    334.93407  0.017857436  0.017237575           12 
 1564000   0.60918172   -7.5017119    335.24521  0.017862596  0.017224658            7 
 1565000   0.63585282   -7.5310436    334.54846  0.017814082  0.017211728           10 
 1566000    0.6354786   -7.5331231    334.01187  0.017774152  0.017198819            9 
 1567000   0.64601409   -7.5021295    334.84741  0.017807243  0.017185906           16 
 1568000   0.62863588   -7.5267807    334.96642  0.017802212  0.017173016           10 
 1569000   0.62292082   -7.5276509    335.21103  0.017803858  0.017160104           10 
 1570000   0.63787666   -7.5340805    335.14623  0.017789078  0.017147237           12 
 1571000   0.62678052   -7.5282518    335.23592  0.017782512  0.017134367           27 
 1572000   0.61008197    -7.528178    334.62981   0.01773907  0.017121489           12 
 1573000   0.63316447   -7.5311663    334.53777  0.017722917  0.017108622           11 
 1574000    0.6211392   -7.5400697    334.49566  0.017709427  0.017095717           14 
 1575000   0.62544201   -7.5216991    334.56786  0.017702003  0.017082828            9 
 1576000   0.60725694   -7.5325069     334.5121  0.017687822  0.017069942           10 
 1577000   0.62669644   -7.5358267    334.08411   0.01765399  0.017057046           13 
 1578000   0.62242649   -7.5097175     334.6523  0.017672808  0.017044161            9 
 1579000   0.61085205   -7.5206317    334.38107  0.017647302  0.017031295            8 
 1580000   0.63239487    -7.509221    334.68539  0.017652183  0.017018455           16 
 1581000   0.62584205   -7.5350196    334.85446  0.017649929  0.017005611            9 
 1582000   0.61933157   -7.5228772    333.59075  0.017572206  0.016992781            9 
 1583000   0.61082967   -7.5477419    334.13929  0.017589982  0.016979904           16 
 1584000   0.61999816   -7.5292082    334.05206  0.017574288  0.016967066           11 
 1585000   0.62303847   -7.5145978    334.22987  0.017572548  0.016954224            9 
 1586000   0.62751252   -7.5359841    335.31024  0.017618235  0.016941422           14 
 1587000   0.62451565   -7.5264853    334.48577   0.01756384  0.016928634           15 
 1588000   0.60723727   -7.5206583    335.30705  0.017595878  0.016915857           19 
 1589000   0.62443233   -7.5175097    335.06761  0.017572247  0.016903105           18 
 1590000   0.62161427   -7.5062938    334.80963  0.017547674  0.016890383           14 
 1591000   0.61961959   -7.5445782    334.92028  0.017542441  0.016877657           21 
 1592000   0.61496111   -7.5394698    334.53767  0.017511394  0.016864925           10 
 1593000   0.61534792   -7.5287607    334.70404  0.017509104  0.016852235            8 
 1594000   0.61802213   -7.5393816    334.93786  0.017510344  0.016839525           11 
 1595000   0.61969582   -7.5571864    334.78851  0.017491563  0.016826801           10 
 1596000    0.6212247   -7.5470155    334.53345  0.017467285  0.016814086           19 
 1597000   0.61287895   -7.5645943    335.42636  0.017502941  0.016801346           41 
 1598000   0.62271507    -7.541812    334.77949  0.017458254  0.016788632           14 
 1599000   0.60176069    -7.553388    334.20186  0.017417233    0.0167759           30 
 1600000   0.61868028   -7.5661195    334.87268  0.017441286  0.016763181           20 
 1601000   0.61264957   -7.5479894    335.08042  0.017441204  0.016750472           21 
 1602000   0.61453403   -7.5688832    334.34432  0.017392026  0.016737775           15 
 1603000   0.59952146   -7.5443078    334.73531  0.017401503  0.016725086           18 
 1604000   0.62049942   -7.5534585    334.38173  0.017372284  0.016712435            9 
 1605000   0.62745595   -7.5502065    334.50155  0.017367682  0.016699782           14 
 1606000   0.60539836   -7.5532767    333.85255  0.017323192  0.016687136           17 
 1607000   0.60750588   -7.5527146    334.23991  0.017332499  0.016674499           23 
 1608000   0.62020719    -7.552253    334.75763  0.017348551  0.016661871           15 
 1609000   0.62653526   -7.5792842    335.06217  0.017353541  0.016649225           15 
 1610000   0.62173738   -7.5846316    333.99778   0.01728767  0.016636567            9 
 1611000   0.61153771   -7.5793667    334.42511  0.017299043  0.016623937           11 
 1612000   0.61914407   -7.5608525    334.66442  0.017300684  0.016611311            9 
 1613000   0.59997909   -7.5783606    334.49338  0.017281121  0.016598685           11 
 1614000   0.61454941    -7.552539    333.73869  0.017231448  0.016586066           11 
 1615000   0.61317813   -7.5716035    333.86986  0.017227547  0.016573457           12 
 1616000   0.60473824   -7.5688601    333.97917  0.017222523  0.016560851           13 
 1617000   0.60068302    -7.572411    334.34966  0.017230966  0.016548245           15 
 1618000   0.60141249   -7.5749983     333.9591  0.017200201  0.016535651           12 
 1619000   0.60111133   -7.5775433    334.92966  0.017239533  0.016523068           31 
 1620000   0.62344482   -7.5728131    334.05841  0.017184075  0.016510504           10 
 1621000   0.60159233   -7.5808422    334.90756  0.017217127  0.016497944           13 
 1622000   0.60509086   -7.5674166    334.45104  0.017183058  0.016485356           17 
 1623000   0.60260698   -7.5625312    334.33843  0.017166689  0.016472796           13 
 1624000   0.60367612   -7.5684308    333.83279  0.017130172   0.01646024           18 
 1625000   0.61131857   -7.5844003    334.18213  0.017137545  0.016447699           17 
 1626000   0.59849559   -7.5733651    334.19608   0.01712772  0.016435153           45 
 1627000   0.59578137   -7.5839056    334.10365  0.017112459  0.016422643           35 
 1628000   0.60346389   -7.5634558    334.65783  0.017130315  0.016410148           15 
 1629000    0.5955459   -7.5985609    334.11745  0.017092155  0.016397652           20 
 1630000    0.5997168   -7.6033295    334.23138  0.017087494  0.016385151           30 
 1631000    0.6140125   -7.5689723    334.30076  0.017080562  0.016372665           22 
 1632000   0.58514034   -7.5860744    334.09813  0.017059749  0.016360162           32 
 1633000   0.60190677   -7.5948776    334.60542   0.01707519  0.016347644           24 
 1634000   0.59457036     -7.58672    334.35583  0.017052011  0.016335151           21 
 1635000   0.58416267   -7.5960058    333.85664  0.017016139  0.016322676           22 
 1636000   0.60258538    -7.599937    334.27783  0.017027192    0.0163102           22 
 1637000   0.59574993   -7.5820488    334.88224  0.017047559  0.016297765           46 
 1638000   0.60773652    -7.579901     334.5785  0.017021698  0.016285328           31 
 1639000   0.58788537   -7.5951414    334.52604  0.017008646  0.016272889           16 
 1640000   0.59646007   -7.5823754    334.37748  0.016990726  0.016260476           19 
 1641000    0.6039708   -7.5951983    334.49306  0.016986241  0.016248042           13 
 1642000   0.60512177   -7.5910494    334.40137  0.016971243  0.016235634           29 
 1643000   0.59583547    -7.604448    334.72902  0.016977532   0.01622325           39 
 1644000   0.59450154   -7.5909476    334.50468  0.016955833  0.016210869           31 
 1645000   0.59177995   -7.5920516    333.99762  0.016919839  0.016198488            6 
 1646000   0.59721249   -7.5929253    333.59865   0.01688936  0.016186113           38 
 1647000   0.59884611   -7.6096066    334.54042  0.016926757  0.016173741           20 
 1648000   0.60466263   -7.6047733     334.3533  0.016907023  0.016161349           22 
 1649000   0.59366308   -7.5910026    333.74191  0.016865874  0.016149005           34 
 1650000   0.60597012   -7.5868372    334.49921    0.0168939   0.01613665           27 
 1651000   0.59292466   -7.5953022    333.91466  0.016854162  0.016124316           18 
 1652000   0.59984668   -7.5766692    333.72857  0.016834572  0.016111981           16 
 1653000   0.59553604   -7.6203867    334.30632  0.016853515  0.016099648           45 
 1654000   0.58414294   -7.6157534    335.02388  0.016879478  0.016087332           12 
 1655000   0.57569569   -7.6038093    334.21468  0.016828534  0.016075035           18 
 1656000   0.59477944   -7.6073518    334.14353  0.016814791  0.016062726           22 
 1657000   0.58272995   -7.5980294     333.9437  0.016794594   0.01605043           16 
 1658000   0.58121549   -7.5993794    334.93821   0.01683445  0.016038131           23 
 1659000    0.5981685   -7.6300537    334.10255  0.016782326  0.016025848           28 
 1660000   0.59405217   -7.5952361    334.20208  0.016777213  0.016013566           17 
 1661000   0.59551714   -7.6266196    334.08062  0.016761018    0.0160013           26 
 1662000   0.58921215   -7.6168693    333.34043   0.01671382  0.015988986           20 
 1663000   0.59882549   -7.6224713    333.64438  0.016719001  0.015976699           20 
 1664000   0.59781222   -7.5965156     333.4257  0.016698002  0.015964431           18 
 1665000   0.59334469   -7.6010766    334.03279  0.016718358  0.015952186           17 
 1666000   0.58283747   -7.6273199    333.70451  0.016691902  0.015939946           22 
 1667000   0.58195815   -7.6192522    334.11582   0.01670245  0.015927691           38 
 1668000   0.58708631   -7.6131162    333.98682  0.016685992  0.015915447           22 
 1669000   0.58866045   -7.6244566    333.60354  0.016656857  0.015903216           30 
 1670000   0.58455062   -7.6383967    334.11643  0.016672477  0.015890984           30 
 1671000   0.58801871   -7.6360768    333.72821  0.016643138  0.015878754           40 
 1672000   0.58925747   -7.6423807    333.46549   0.01662009  0.015866518           29 
 1673000   0.58537487   -7.6488115    333.26072  0.016599956  0.015854302           30 
 1674000    0.6004625   -7.6230922    334.26656  0.016640112  0.015842114           24 
 1675000   0.59400868   -7.6396853    334.46768  0.016640183  0.015829921           23 
 1676000   0.57619549   -7.6269765    333.60662  0.016587441  0.015817732           35 
 1677000   0.57882434   -7.6248199    333.77085  0.016585711  0.015805572           34 
 1678000   0.58437587   -7.6323718     333.2307  0.016549002  0.015793415           37 
 1679000   0.59130199   -7.6373753    333.73183  0.016564018  0.015781261           17 
 1680000   0.58410945   -7.6362907    333.48369   0.01654185  0.015769114           29 
 1681000   0.59291262    -7.637768    333.39225  0.016527476   0.01575699           29 
 1682000   0.57333969    -7.619117    334.30114   0.01656268  0.015744875           18 
 1683000   0.58094514   -7.6281324    334.24773  0.016550195  0.015732749           26 
 1684000   0.57467861    -7.632352     334.2759  0.016541761  0.015720659           23 
 1685000   0.58187518   -7.6116456    333.49569  0.016493357  0.015708563           19 
 1686000   0.57745481   -7.6008878     333.3624  0.016476987  0.015696465           21 
 1687000   0.58555285   -7.6247179    333.87456  0.016492519  0.015684384           16 
 1688000   0.57254698   -7.6372298    333.50529  0.016464518  0.015672317           15 
 1689000   0.59128049   -7.6260379    333.67029  0.016462912  0.015660272           59 
 1690000   0.59034248   -7.6297152    333.00337  0.016420284  0.015648198           39 
 1691000   0.57357008   -7.6487445    333.87853  0.016453702  0.015636159           31 
 1692000   0.57334227   -7.6338059     333.8047  0.016440342  0.015624125           21 
 1693000   0.57505658    -7.630801    333.75861  0.016428362  0.015612083           43 
 1694000   0.57655802   -7.6356939     333.3029  0.016396247   0.01560005           31 
 1695000    0.5891653   -7.6465387    333.62205  0.016402264  0.015588027           20 
 1696000   0.57559556   -7.6618569    333.79505  0.016401093  0.015576036           36 
 1697000    0.5747513   -7.6398141    333.46093  0.016375021  0.015564036           17 
 1698000    0.5754994   -7.6554911    333.73181  0.016378672  0.015552051           25 
 1699000   0.57647945   -7.6426434    333.57429  0.016361305  0.015540091           22 
 1700000   0.56896873   -7.6200102    334.00124   0.01637261  0.015528148           35 
 1701000   0.58446688   -7.6463358    333.55353  0.016341051  0.015516194           22 
 1702000    0.5833782   -7.6386013     332.9466  0.016301733  0.015504253           17 
 1703000   0.58087012   -7.6457077    333.38746  0.016313733  0.015492312           26 
 1704000   0.58518662   -7.6448467    333.21368  0.016295661  0.015480351           25 
 1705000   0.57217242   -7.6610083    333.12917  0.016281973  0.015468403           20 
 1706000   0.56104927   -7.6441338    333.20902   0.01627633  0.015456469           29 
 1707000   0.57664746   -7.6553993    333.52284  0.016282115  0.015444538           33 
 1708000    0.5598101   -7.6538459    333.70374  0.016281408  0.015432626           29 
 1709000   0.57259703     -7.67821    333.76538  0.016274887  0.015420713           22 
 1710000   0.57491475   -7.6704699    333.37834  0.016246508  0.015408811           51 
 1711000   0.57794175   -7.6549127    333.94029  0.016264382  0.015396903           45 
 1712000   0.57903083   -7.6620877     333.4345  0.016230262  0.015385025           44 
 1713000   0.56027604    -7.651552    333.18016  0.016208414   0.01537316           53 
 1714000   0.56334423   -7.6508256    333.65739   0.01622216  0.015361307           33 
 1715000    0.5577936   -7.6725152    333.32521   0.01619656  0.015349452           48 
 1716000   0.56555513    -7.669605      333.374  0.016189491   0.01533761           17 
 1717000    0.5738248   -7.6486073    333.94877  0.016207958  0.015325765           24 
 1718000   0.57001954   -7.6573992    333.96759  0.016199437   0.01531394           20 
 1719000   0.56863174   -7.6620117    333.83087  0.016183385  0.015302132           31 
 1720000   0.57138192     -7.66211    332.93763  0.016130699   0.01529032           32 
 1721000   0.57213171   -7.6457785    333.08191  0.016128312  0.015278531           30 
 1722000    0.5651108   -7.6557996    333.10342  0.016119988  0.015266725           28 
 1723000   0.56494906    -7.656801    333.91866  0.016150061  0.015254948           38 
 1724000   0.56934346   -7.6722704    332.72645  0.016083065  0.015243155           22 
 1725000   0.57231783   -7.6638162    332.98477  0.016086221  0.015231383           24 
 1726000   0.56267644   -7.6574681    333.53234  0.016103338  0.015219614           41 
 1727000   0.57609388   -7.6618069    333.93034  0.016113219  0.015207855           34 
 1728000   0.55214467   -7.6853213    333.80495  0.016097847   0.01519611           32 
 1729000    0.5645951   -7.6710966    333.64251  0.016080707  0.015184367           68 
 1730000   0.57498489   -7.6910939    333.22226  0.016051169  0.015172606           28 
 1731000    0.5650156   -7.6871303    334.10624  0.016084452  0.015160876           40 
 1732000   0.56871992   -7.6754199    333.31087  0.016036897  0.015149154           61 
 1733000    0.5566466   -7.6894148    332.91845  0.016008773   0.01513743           25 
 1734000   0.56428087    -7.659683    332.37393  0.015973372  0.015125708           38 
 1735000   0.56907074   -7.6917615    333.35546  0.016011309  0.015113983           37 
 1736000   0.56077076   -7.6751896    333.05605  0.015987714   0.01510227           47 
 1737000   0.55644991   -7.6824993    332.57074  0.015955227  0.015090567           40 
 1738000   0.54265401   -7.6634413    333.13409  0.015973058  0.015078873           46 
 1739000   0.56616529   -7.6769791    333.17988  0.015966067  0.015067186           29 
 1740000   0.56671426   -7.6887508    333.39362  0.015967127  0.015055502           42 
 1741000   0.54992696    -7.693206    332.96088  0.015937243  0.015043821           46 
 1742000   0.55498273   -7.6808191    333.26062  0.015942433  0.015032158           67 
 1743000    0.5534279   -7.6838273    333.12074  0.015926599   0.01502051           39 
 1744000   0.55146497   -7.6891328    333.50153  0.015935662  0.015008894           24 
 1745000   0.55534318   -7.6751454    332.84812  0.015895326  0.014997267           48 
 1746000   0.57237898     -7.68221    332.50266  0.015869734  0.014985642           30 
 1747000   0.56243704   -7.7186145    333.84676  0.015924764  0.014974046           46 
 1748000   0.54442535   -7.6909619    332.94382  0.015872608  0.014962442           28 
 1749000    0.5563124    -7.670984    332.58832  0.015846594  0.014950825           20 
 1750000   0.56020632   -7.7025709    332.92566  0.015853603  0.014939233           23 
 1751000   0.55450685   -7.6819383    333.14098  0.015854796  0.014927645           22 
 1752000    0.5567752   -7.6805917    332.87257   0.01583298  0.014916072           20 
 1753000   0.56002885   -7.6825192    332.60286  0.015811127  0.014904513           28 
 1754000   0.55429373   -7.6820631    332.59268  0.015801629  0.014892975           38 
 1755000   0.56030782   -7.6868222    332.66969  0.015796282  0.014881425           62 
 1756000   0.53855755   -7.6990063    332.69618  0.015788543  0.014869874           56 
 1757000   0.54655444   -7.6888132    333.52259  0.015818753  0.014858349           30 
 1758000   0.54590759    -7.702182    332.92516  0.015781435  0.014846832           37 
 1759000   0.54720633   -7.7041064    332.65125  0.015759487   0.01483532           47 
 1760000    0.5545753   -7.6749617    332.07831  0.015723405  0.014823822           33 
 1761000   0.54155351    -7.696392     333.0971  0.015762687   0.01481234           25 
 1762000   0.54139905   -7.6957781    333.08186   0.01575302   0.01480086           23 
 1763000   0.55055476   -7.7014988    332.70029  0.015726049  0.014789376           31 
 1764000   0.54888689   -7.7110671    333.70629  0.015764658  0.014777923           38 
 1765000   0.55443898   -7.7087519    332.88624  0.015717008  0.014766471           46 
 1766000   0.53913138   -7.7045275    332.79845  0.015703966  0.014755037           29 
 1767000   0.56082597   -7.7073135    332.73489  0.015692081    0.0147436           50 
 1768000   0.55108912   -7.6886765    332.75837  0.015684312   0.01473217           40 
 1769000   0.54262003   -7.6987113    332.24617  0.015651318  0.014720772           38 
 1770000   0.54075164   -7.6915132    333.18964  0.015686894   0.01470938           55 
 1771000   0.55169557    -7.696438     333.0042  0.015669311  0.014697991           53 
 1772000   0.55009664    -7.697201    332.31404  0.015628012  0.014686616           48 
 1773000   0.55171486   -7.7216645    332.66549  0.015635716  0.014675235           40 
 1774000    0.5452065    -7.705067     332.8099  0.015633686  0.014663874           41 
 1775000   0.54687994    -7.719499    332.49494  0.015610091  0.014652495           44 
 1776000   0.53780693   -7.7161453    332.76491  0.015613969  0.014641135           49 
 1777000   0.55058184   -7.7220475    332.41984     0.015589  0.014629791           36 
 1778000   0.54616018   -7.7007742    332.51483  0.015584685  0.014618435           59 
 1779000   0.53827139   -7.7271898     333.1748  0.015606839  0.014607112           55 
 1780000   0.53679174   -7.7244252    333.02379  0.015591001   0.01459578           43 
 1781000   0.54411977   -7.7159637    332.46291  0.015556003  0.014584456           42 
 1782000   0.54889302   -7.7138377    332.66693  0.015556815  0.014573126           59 
 1783000    0.5332879   -7.7313718    332.66307   0.01554791  0.014561832           54 
 1784000    0.5433199   -7.7133132    332.34088  0.015524144  0.014550523           38 
 1785000   0.55727951   -7.7104439    332.71538  0.015532931  0.014539226           46 
 1786000   0.53178879   -7.7108748    332.27416  0.015503647  0.014527937           54 
 1787000   0.53499103   -7.7241335    332.69795  0.015514734  0.014516658           54 
 1788000   0.54269556   -7.7279868    332.40634  0.015492466  0.014505394           60 
 1789000   0.54724912   -7.7174761    332.36469  0.015481866  0.014494123           55 
 1790000   0.53388734   -7.7196045    332.30787  0.015470571   0.01448286           41 
 1791000    0.5428027    -7.702637    332.29565  0.015461365   0.01447162           34 
 1792000   0.53375351   -7.7331634    332.55209  0.015464662  0.014460386           41 
 1793000   0.53375197   -7.7022775    332.42377  0.015450073  0.014449166           38 
 1794000   0.55798286   -7.7139528    332.33376   0.01543728  0.014437941           48 
 1795000   0.53873462   -7.7266944    332.52507  0.015437561  0.014426733           42 
 1796000   0.52446009   -7.7225493    332.15706   0.01541189  0.014415529           47 
 1797000   0.53343448   -7.7267361    332.60662  0.015424161  0.014404346           44 
 1798000   0.54311356   -7.7194749    332.31499  0.015402067  0.014393151           39 
 1799000   0.53370384   -7.7387373     332.5047  0.015402293   0.01438197           51 
 1800000   0.53594504   -7.7224672    332.72403   0.01540389  0.014370796           42 
 1801000   0.52750411   -7.7210253    332.97885  0.015407128  0.014359636           58 
 1802000    0.5454244   -7.7206524    332.04907   0.01535558   0.01434847           58 
 1803000   0.54038825   -7.7258682     332.1108  0.015349917  0.014337311           35 
 1804000   0.53148209    -7.718069    332.09535  0.015340694  0.014326158           42 
 1805000   0.51474909    -7.724676    332.14054  0.015334282  0.014315027           44 
 1806000   0.53333389   -7.7253556    332.42409  0.015338875  0.014303909           42 
 1807000    0.5294723   -7.7398227    332.29563  0.015324462  0.014292783           40 
 1808000    0.5416066   -7.7174839    332.14139  0.015308877  0.014281687           37 
 1809000   0.53135807    -7.719793    332.28763  0.015307151   0.01427061           54 
 1810000   0.52826193   -7.7291986    333.02297  0.015332549  0.014259548           88 
 1811000    0.5275983    -7.724765    332.19717  0.015286084  0.014248485           38 
 1812000   0.53152355   -7.7253954    332.19811  0.015277691  0.014237417           39 
 1813000    0.5382824   -7.7485535    333.00149  0.015306191  0.014226365           40 
 1814000   0.53223586   -7.7363862    332.26235  0.015263798  0.014215316           43 
 1815000   0.52704532   -7.7391217    332.14416  0.015249961  0.014204274           42 
 1816000   0.52845706   -7.7392946    332.24575  0.015246226  0.014193237           64 
 1817000   0.54179057   -7.7512352    332.26672  0.015238797  0.014182216           46 
 1818000   0.52320996   -7.7572947    332.12265  0.015223811   0.01417121           47 
 1819000   0.52226187   -7.7313472    332.44731  0.015230315   0.01416021           40 
 1820000   0.52032263   -7.7427027    332.28616  0.015214568  0.014149217           52 
 1821000   0.53733787   -7.7349161    331.82779  0.015185237  0.014138232           39 
 1822000   0.53522164   -7.7327581    331.91078  0.015180698  0.014127268           38 
 1823000   0.52854406   -7.7465512    331.62627  0.015159365  0.014116289           47 
 1824000   0.53584365   -7.7579482    331.92587  0.015164742  0.014105314           57 
 1825000   0.52317021   -7.7479034    331.81176  0.015151222  0.014094351           32 
 1826000   0.52594353   -7.7361376    332.21886  0.015161503  0.014083401           38 
 1827000    0.5238231   -7.7484906    332.23269  0.015153835  0.014072471           48 
 1828000     0.518492   -7.7421978    331.94927  0.015132625  0.014061542           38 
 1829000   0.52553807   -7.7578773    331.79057  0.015117121  0.014050603           62 
 1830000   0.51545471   -7.7586636    331.74418  0.015106748  0.014039682           58 
 1831000   0.52342713   -7.7485478    331.41921  0.015083707  0.014028773           44 
 1832000   0.51869655   -7.7568773    331.71752  0.015089043  0.014017881           72 
 1833000    0.5129054   -7.7542163    331.85119  0.015086888  0.014006991           61 
 1834000   0.52383647   -7.7520607     332.0245  0.015086537  0.013996106           55 
 1835000   0.51460514   -7.7565285    331.80908  0.015068532  0.013985229           45 
 1836000   0.51666891    -7.748485    331.79015  0.015059466  0.013974365           30 
 1837000   0.51461081   -7.7513907     331.6319  0.015044089  0.013963508           38 
 1838000   0.51236308   -7.7634298    332.52905   0.01507658   0.01395267           37 
 1839000    0.5105186   -7.7516362    331.52116   0.01502271  0.013941825           30 
 1840000   0.51163869   -7.7542839     331.6933  0.015022341  0.013930995           44 
 1841000   0.51510623     -7.73435    332.22249  0.015038136  0.013920171           40 
 1842000   0.51714045   -7.7521351     332.2859   0.01503284  0.013909364           39 
 1843000   0.51447902   -7.7556014    331.82244  0.015003728  0.013898546           61 
 1844000   0.51955519   -7.7491206    331.96765  0.015002154  0.013887747           66 
 1845000   0.51762618   -7.7589858    331.80661  0.014986748  0.013876959           37 
 1846000   0.50557955    -7.757466    331.87089  0.014981532   0.01386619           46 
 1847000   0.50928578   -7.7686359    331.08807  0.014938101  0.013855413           69 
 1848000   0.51233552   -7.7457334    331.26638  0.014938058  0.013844657           41 
 1849000    0.5137715   -7.7570282    332.83288   0.01500058  0.013833918           43 
 1850000    0.5166879   -7.7690054    331.80456  0.014946152  0.013823173           40 
 1851000   0.50700477   -7.7709672    332.15604  0.014953901   0.01381243           43 
 1852000   0.52228767   -7.7524681    331.85089  0.014932095    0.0138017           46 
 1853000   0.50768496   -7.7610909    331.45156  0.014906078  0.013790977           39 
 1854000   0.51035735   -7.7703464    332.29393  0.014935901  0.013780262           38 
 1855000   0.52323554   -7.7634097    331.56422  0.014895068  0.013769552           42 
 1856000   0.51366492   -7.7593983     331.1677  0.014869239  0.013758845           41 
 1857000   0.51360213   -7.7687993    331.36373  0.014870029  0.013748159           54 
 1858000   0.51729618   -7.7833666    331.62424   0.01487371  0.013737476           39 
 1859000   0.50774485    -7.754422    331.55464  0.014862589  0.013726817           41 
 1860000   0.50743465    -7.781864    332.05854  0.014877175  0.013716161           47 
 1861000   0.51316981   -7.7647416    331.08523  0.014825597  0.013705512           37 
 1862000   0.51055649    -7.770781    332.04442  0.014860563  0.013694874           79 
 1863000   0.51487677   -7.7690643    331.64379  0.014834666  0.013684239           48 
 1864000   0.50870764   -7.7856262    331.52934  0.014821591  0.013673617           53 
 1865000   0.49996038   -7.7639144    331.99409   0.01483441  0.013663003           40 
 1866000   0.50385338    -7.773691    331.57148  0.014807587  0.013652399           45 
 1867000   0.51661827   -7.7583928    331.66498  0.014803829  0.013641809           47 
 1868000   0.50707122   -7.7716988    331.48383  0.014787823  0.013631221           50 
 1869000   0.50476478    -7.772863    331.68483  0.014788872  0.013620654           38 
 1870000   0.49993216   -7.7664554    331.49694  0.014772591  0.013610081           46 
 1871000   0.50487068   -7.7856604     330.9747  0.014741435  0.013599523           46 
 1872000   0.50276939   -7.7993806    331.20251  0.014743701  0.013588954           39 
 1873000    0.5005302   -7.7710762    331.16848  0.014734316  0.013578401           56 
 1874000   0.50147592   -7.7673121    331.19887  0.014727804  0.013567866           53 
 1875000   0.49782518   -7.7877792    330.92344  0.014707709   0.01355733           53 
 1876000   0.50398156    -7.757419    331.26457  0.014715022  0.013546808           40 
 1877000   0.49899829   -7.7694568    331.31963  0.014709627  0.013536301           51 
 1878000   0.50339601   -7.7748951    331.18307  0.014695735  0.013525785           42 
 1879000   0.49965773   -7.7756188     331.5224  0.014702962  0.013515292           60 
 1880000   0.50445503   -7.7815948    331.43291  0.014691175    0.0135048           46 
 1881000   0.50342408   -7.7830147    330.82182  0.014656292  0.013494321           65 
 1882000   0.49631856   -7.7653618    330.80638   0.01464782  0.013483851           41 
 1883000   0.50102983   -7.7791901     330.9424  0.014646061  0.013473388           47 
 1884000   0.49572763   -7.7705951    331.05476  0.014643257  0.013462938           40 
 1885000   0.50045281   -7.7864952    331.25901  0.014644519  0.013452498           62 
 1886000    0.5044336   -7.7839787    331.46479  0.014645846  0.013442074           41 
 1887000   0.50522329   -7.7683032    331.63851  0.014645756   0.01343166           52 
 1888000   0.50611975   -7.7710012    331.21266  0.014619203  0.013421252           39 
 1889000   0.49219111   -7.7788839    331.04542  0.014604086  0.013410845           34 
 1890000   0.50243006    -7.786019    331.56679  0.014619347  0.013400444           48 
 1891000   0.49368914   -7.7800892    331.14491  0.014593024  0.013390045           51 
 1892000    0.5021969   -7.8010935    331.45328  0.014598894  0.013379668           40 
 1893000   0.49272753   -7.7899728    331.65923  0.014600248    0.0133693           40 
 1894000   0.49741609   -7.8035834    331.16888  0.014570964  0.013358933           43 
 1895000   0.50120197   -7.8025322    331.12305   0.01456126  0.013348589           27 
 1896000   0.49905532   -7.7820528    331.42102  0.014566676  0.013338263           39 
 1897000   0.49105097   -7.7755445    330.90742  0.014536436  0.013327944           42 
 1898000    0.4985784   -7.7786793    330.85053  0.014526279  0.013317622           51 
 1899000   0.48027915   -7.7900752    331.31251  0.014538902  0.013307322           44 
 1900000   0.49972222   -7.7938713    331.35618  0.014533166  0.013297021           52 
 1901000   0.48925081   -7.8031498    331.31339  0.014523645  0.013286737           33 
 1902000   0.48952923   -7.7829056    330.47728  0.014479376  0.013276453           51 
 1903000   0.48667683   -7.7834225    330.73619  0.014483105  0.013266185           37 
 1904000    0.5012969   -7.7962271    331.14647  0.014493456  0.013255914           48 
 1905000   0.49107454   -7.8090174    331.25989  0.014490809   0.01324565           47 
 1906000     0.486407   -7.7772675    330.82911  0.014464372  0.013235402           42 
 1907000   0.49670912   -7.8062562     331.2339  0.014474476  0.013225155           50 
 1908000   0.48481429   -7.8079937    331.27223  0.014468563  0.013214925           47 
 1909000   0.48624226   -7.8031513    330.86427  0.014443176  0.013204708           32 
 1910000   0.48732531   -7.8035315    331.34138   0.01445643  0.013194501           42 
 1911000   0.49270727    -7.793118    330.95066  0.014431827  0.013184302           54 
 1912000   0.49240316   -7.7995988    330.59573   0.01440881  0.013174119           36 
 1913000   0.47228431   -7.8164731    331.20981  0.014428028  0.013163945           48 
 1914000   0.48896634   -7.7983259    330.96933   0.01441002  0.013153778           55 
 1915000   0.48957192   -7.7837316    330.64196  0.014388249  0.013143616           39 
 1916000   0.49339391   -7.8015571    331.19452  0.014404772  0.013133476           44 
 1917000   0.49038137   -7.8160975    331.32049  0.014402734  0.013123339           56 
 1918000   0.48923056   -7.7727928    330.30668  0.014351177  0.013113214           43 
 1919000    0.4817336   -7.7970853     330.8941  0.014369207  0.013103098           44 
 1920000   0.49159513   -7.8126012    331.62397  0.014393401  0.013092995           38 
 1921000   0.48217274   -7.7904749     330.7944  0.014349922  0.013082888           85 
 1922000   0.48152004   -7.8115463    330.86187  0.014345381  0.013072797           53 
 1923000   0.49433055   -7.8008892    330.69893   0.01433086  0.013062707           34 
 1924000   0.49244191   -7.7849775    331.07431   0.01433967  0.013052627           41 
 1925000   0.48826704    -7.794957    331.44511  0.014348273  0.013042561           83 
 1926000   0.48517069   -7.7832104     331.5166  0.014343916  0.013032512           40 
 1927000   0.48051064   -7.7946585    331.71835  0.014345198  0.013022467           44 
 1928000   0.47205334    -7.802113    330.67596  0.014292702  0.013012438           39 
 1929000   0.48515629   -7.8073479    331.26668  0.014310812  0.013002417           44 
 1930000   0.47878317   -7.8021268     331.0284  0.014293109  0.012992403           38 
 1931000   0.47834664   -7.8081863    330.96438  0.014282944  0.012982401           38 
 1932000   0.48429747   -7.7963137    330.56447  0.014258302  0.012972406           39 
 1933000   0.47328429   -7.8114394    330.61217  0.014252982  0.012962424           42 
 1934000   0.47784698   -7.8061644    330.64709  0.014247117  0.012952448           43 
 1935000   0.48387198    -7.811505    330.95107  0.014252845  0.012942493           49 
 1936000   0.47964651   -7.8172345    330.92152  0.014244211  0.012932537           51 
 1937000   0.48135948   -7.8164834    330.99293   0.01423993  0.012922595           54 
 1938000   0.47792134   -7.8018584    330.58447  0.014215019  0.012912655           37 
 1939000   0.47538022   -7.7877919    331.01705  0.014226278  0.012902726           57 
 1940000   0.47950674   -7.8065909     330.3293  0.014189403  0.012892808           46 
 1941000   0.49410184    -7.810623    330.62945  0.014194979  0.012882899           38 
 1942000    0.4740804    -7.803602    331.15605  0.014210266  0.012873003           25 
 1943000   0.47470225    -7.811359    330.69145  0.014183027  0.012863111           44 
 1944000   0.48029204   -7.8060716    330.92091  0.014185567  0.012853232           32 
 1945000   0.47079398   -7.8171411    330.62822  0.014165734   0.01284336           32 
 1946000   0.46650385   -7.8259431    330.37491  0.014147607  0.012833497           32 
 1947000   0.46709022   -7.8152505     331.0688   0.01417004  0.012823636           44 
 1948000   0.46838758   -7.8093702     331.1233  0.014165096  0.012813785           40 
 1949000   0.47713897   -7.8339202     330.7897  0.014143565  0.012803945           34 
 1950000   0.47604499    -7.817303    330.71399  0.014133077  0.012794099           47 
 1951000   0.47585499   -7.8202289    330.45858  0.014114923  0.012784273           44 
 1952000   0.47506063   -7.8193181    330.41338  0.014105763  0.012774464           33 
 1953000   0.46276808   -7.8186844    330.37919  0.014097081  0.012764655           35 
 1954000    0.4754875   -7.8086876     330.2861  0.014085896  0.012754856           42 
 1955000   0.47269334   -7.8254257    330.70667  0.014096618  0.012745055           33 
 1956000   0.47231738   -7.8151574    330.46168  0.014078974  0.012735271           37 
 1957000   0.47124115   -7.8181091    330.32359    0.0140659  0.012725482           34 
 1958000   0.47762278   -7.8282242    330.47872  0.014065318  0.012715709           32 
 1959000   0.46157159   -7.8165392    330.51399  0.014059639  0.012705954           38 
 1960000   0.45493921   -7.8242185    330.44858  0.014049685  0.012696197           39 
 1961000   0.47236455   -7.8096796    330.57969  0.014048092  0.012686446           41 
 1962000   0.46777596     -7.81685    330.45239  0.014035525  0.012676707           39 
 1963000   0.45956278   -7.8225859     330.8542  0.014045432  0.012666986           41 
 1964000   0.47263366   -7.8387501    330.89962  0.014040208  0.012657277           48 
 1965000   0.46994764   -7.8311318    330.42691  0.014013016  0.012647568           38 
 1966000    0.4730653    -7.836215    330.85368  0.014023978  0.012637875           39 
 1967000   0.47353281   -7.8306528     330.5834  0.014005397  0.012628179           43 
 1968000   0.47021855   -7.8352698    330.56209  0.013997379  0.012618515           44 
 1969000   0.46887708   -7.8290562    330.61366  0.013992452  0.012608847           32 
 1970000   0.46054705   -7.8237922    330.94087  0.013999191  0.012599185           40 
 1971000   0.46446149   -7.8308947    330.42305  0.013970195  0.012589528           48 
 1972000   0.45435767    -7.840947    331.25961  0.013998462   0.01257988           49 
 1973000      0.45709   -7.8225002    330.64692  0.013965489  0.012570245           51 
 1974000   0.46963004   -7.8314167    330.37676   0.01394701  0.012560614           39 
 1975000   0.46682122   -7.8425838    331.17942  0.013973815   0.01255099           42 
 1976000   0.46203889   -7.8380628    330.37928     0.013933  0.012541376           35 
 1977000   0.45518775    -7.836842    330.72108  0.013940359  0.012531761           37 
 1978000   0.46808853   -7.8437816    330.12127  0.013908042  0.012522155           67 
 1979000    0.4590818   -7.8433863     330.6125  0.013921699  0.012512558           43 
 1980000   0.46419089   -7.8566964    330.40928  0.013906115  0.012502977           45 
 1981000   0.45803892    -7.844135    330.30894  0.013894874  0.012493406           49 
 1982000   0.46692203   -7.8445736     330.0038  0.013875034  0.012483839           71 
 1983000   0.45529469   -7.8486563    330.25206   0.01387847  0.012474285           36 
 1984000   0.45610194   -7.8454546    330.29874  0.013873435  0.012464731           42 
 1985000   0.46226695   -7.8270797    330.02214  0.013854834  0.012455179           64 
 1986000   0.46716635   -7.8460109    330.49538  0.013867715  0.012445636           42 
 1987000   0.45409382   -7.8337588    330.48762   0.01386041  0.012436104           33 
 1988000   0.45723022   -7.8465348    330.41603  0.013850437  0.012426586           48 
 1989000    0.4511516   -7.8405471    330.60812  0.013851522  0.012417074           50 
 1990000    0.4687823   -7.8360655    330.28289  0.013830942  0.012407571           55 
 1991000   0.46542466   -7.8540896    330.42405  0.013829903  0.012398078           37 
 1992000   0.45795689   -7.8365008    329.85483  0.013799148  0.012388596           28 
 1993000   0.45091859   -7.8520591    330.19424  0.013806416  0.012379122           58 
 1994000   0.45381553   -7.8339863    330.24289  0.013801525  0.012369657           44 
 1995000    0.4533017   -7.8390508    330.31532  0.013797632  0.012360202           37 
 1996000    0.4576757   -7.8458507    330.20749  0.013786218   0.01235076           45 
 1997000   0.44959868   -7.8316959    330.05734  0.013773049  0.012341327           32 
 1998000    0.4576916   -7.8466371    329.94621   0.01376152  0.012331898           37 
 1999000   0.45124294   -7.8370172    330.77526  0.013789197  0.012322479           42 
 2000000   0.45293124   -7.8580132    330.02712   0.01375113  0.012313069           34 
 2001000    0.4604047   -7.8503784    330.38572  0.013759192  0.012303659           44 
 2002000   0.45965128   -7.8682448    330.57031  0.013760003  0.012294252           36 
 2003000   0.44165838   -7.8480916     329.5009  0.013708641   0.01228485           42 
 2004000   0.45186001   -7.8562003    330.07733   0.01372577   0.01227546           36 
 2005000   0.45857103    -7.865408    329.96929  0.013714434  0.012266079           36 
 2006000   0.45775967   -7.8598879    329.92678  0.013705832  0.012256709           42 
 2007000   0.44517758   -7.8478675    329.94278  0.013699667  0.012247342           35 
 2008000   0.44342352   -7.8643255    329.88842  0.013690589  0.012237982           34 
 2009000   0.45284457   -7.8600287    330.20152  0.013696761  0.012228629           41 
 2010000   0.44744509   -7.8628505    330.01832  0.013682352  0.012219279           53 
 2011000   0.44559952    -7.860588    329.98923  0.013674342  0.012209942           39 
 2012000   0.44055146   -7.8724825    330.10688  0.013672419  0.012200616           50 
Loop time of 4374.77 on 48 procs for 2000000 steps with 4000 atoms

Performance: 78998.450 tau/day, 457.167 timesteps/s
99.4% CPU use with 48 MPI tasks x no OpenMP threads

MPI task timing breakdown:
Section |  min time  |  avg time  |  max time  |%varavg| %total
---------------------------------------------------------------
Pair    | 276.05     | 294        | 309.33     |  40.9 |  6.72
Neigh   | 27.759     | 28.459     | 29.293     |   7.0 |  0.65
Comm    | 247.66     | 265.65     | 293.1      |  50.4 |  6.07
Output  | 3.9298     | 3.9321     | 3.97       |   0.3 |  0.09
Modify  | 3720.7     | 3736.5     | 3749.6     |  11.3 | 85.41
Other   |            | 46.21      |            |       |  1.06

Nlocal:        83.3333 ave          90 max          76 min
Histogram: 2 1 5 2 8 13 7 7 1 2
Nghost:        1838.02 ave        1864 max        1819 min
Histogram: 4 5 6 8 8 5 6 3 2 1
Neighs:        11373.1 ave       12760 max       10080 min
Histogram: 3 2 5 7 8 6 7 6 3 1
FullNghs:      22746.1 ave       24891 max       20404 min
Histogram: 2 1 4 5 7 13 7 5 2 2

Total # of neighbors = 1091813
Ave neighs/atom = 272.95325
Neighbor list builds = 107717
Dangerous builds = 0

#clear
#
#next RN
#
#jump SELF
Total wall time: 1:12:57
