
units lj                  # Use reduced LJ style units
atom_style atomic         # Uncharged point particles
atom_modify map hash      # Needed for indexing of clusters etc
                          # Used to be able to find where atoms are in relation to each other.

lattice fcc 1.0 spacing 1 1 1
Lattice spacing in x,y,z = 1.5874011 1.5874011 1.5874011
region box block 0 10 0 10 0 10 units lattice
create_box 2 box
Created orthogonal box = (0.0000000 0.0000000 0.0000000) to (15.874011 15.874011 15.874011)
  3 by 4 by 4 MPI processor grid
create_atoms 1 box
Created 4000 atoms
  using lattice units in orthogonal box = (0.0000000 0.0000000 0.0000000) to (15.874011 15.874011 15.874011)
  create_atoms CPU = 0.030 seconds
set type 1 type/fraction 2 0.62 78393
Setting atom values ...
  2494 settings made for type/fraction
mass 1 1.0
mass 2 1.0
pair_style lj/cut  3.5
pair_modify tail  yes
pair_coeff 1  1  1.0  1.0   # Intearaction between 1 and 1 set with epsilon = 1 and sigma = 1
pair_coeff 1  2  1.5  0.8
pair_coeff 2  2  0.5  0.88

write_data data.0
System init for write_data ...
Neighbor list info ...
  update every 1 steps, delay 10 steps, check yes
  max neighbors/atom: 2000, page size: 100000
  master list distance cutoff = 3.8
  ghost atom cutoff = 3.8
  binsize = 1.9, bins = 9 9 9
  1 neighbor lists, perpetual/occasional/extra = 1 0 0
  (1) pair lj/cut, perpetual
      attributes: half, newton on
      pair build: half/bin/atomonly/newton
      stencil: half/bin/3d
      bin: standard
WARNING: Not all mixed pair coeffs generated from mixing. Use write_data with 'pair ij' option to store all pair coeffs. (../write_data.cpp:312)


#############################
#   M E L T   S Y S T E M   #
#############################

velocity all create 2.4 6229865 mom yes dist gaussian # Assign velocities
                                                    # Temperature 2.4, random number seed, zero linear momentum
                                                                                # Gaussian distribution

timestep 0.002   # simulation timestep
thermo 1000       # output thermodynamic data every 1000 steps bf 100

# Define a fix  in this case with index 1 applied to all
# particles in the simulation. This fix is for simulations
# in the anisotropic NPT ensemble. Note that we use the MTK
# correction.
fix 1 all npt temp 2.4 2.4 0.1 iso 5.68 5.68 0.5 mtk yes tchain 5 pchain 5 # Use NPT ensemble
                                                                         # Set temperature and pressure and damping
                                                                         # Numbers of thermostats in chain and in barostat
run 10000          # run for 10000 steps
Per MPI rank memory allocation (min/avg/max) = 3.642 | 3.644 | 3.648 Mbytes
Step Temp E_pair E_mol TotEng Press Volume 
       0          2.4   -4.6132646            0   -1.0141646   -4.0148013         4000 
    1000    2.3677767   -4.3745514            0  -0.82377427    5.6717937    3591.4854 
    2000    2.3910476   -4.4108401            0  -0.82516531     5.644061    3592.4748 
    3000    2.4021621    -4.372602            0  -0.77025961    5.4605351    3625.7368 
    4000    2.3851884   -4.4068988            0  -0.83001057    5.3171557     3616.223 
    5000     2.401798   -4.4063008            0   -0.8045045    5.7327889     3571.857 
    6000    2.4135447   -4.3241354            0  -0.70472353    6.0649374    3590.4186 
    7000    2.4354305   -4.3625269            0  -0.71029432    5.6518895    3611.4304 
    8000    2.3326929   -4.3507774            0  -0.85261284    5.8715204    3596.5562 
    9000    2.4015768   -4.3755771            0  -0.77411243    5.9897501    3574.6254 
   10000    2.3422924   -4.4041176            0  -0.89155739    5.4222913    3599.4667 
Loop time of 2.64099 on 48 procs for 10000 steps with 4000 atoms

Performance: 654300.193 tau/day, 3786.459 timesteps/s
99.6% CPU use with 48 MPI tasks x no OpenMP threads

MPI task timing breakdown:
Section |  min time  |  avg time  |  max time  |%varavg| %total
---------------------------------------------------------------
Pair    | 1.2086     | 1.2724     | 1.3969     |   3.0 | 48.18
Neigh   | 0.21758    | 0.22439    | 0.24473    |   0.9 |  8.50
Comm    | 0.72576    | 0.8853     | 0.98716    |   5.0 | 33.52
Output  | 0.00024855 | 0.00025343 | 0.00030975 |   0.0 |  0.01
Modify  | 0.20142    | 0.24293    | 0.30016    |   5.6 |  9.20
Other   |            | 0.0157     |            |       |  0.59

Nlocal:        83.3333 ave          93 max          76 min
Histogram: 3 4 8 6 11 7 4 1 3 1
Nghost:        1763.79 ave        1799 max        1731 min
Histogram: 2 2 7 5 8 8 9 5 1 1
Neighs:        10599.8 ave       12540 max        9534 min
Histogram: 3 7 10 11 8 4 2 2 0 1

Total # of neighbors = 508790
Ave neighs/atom = 127.19750
Neighbor list builds = 904
Dangerous builds = 193

# Equilibrate just above the melting temperature to avoid step fn in T

fix 1 all npt temp 1.25 1.25 0.1 iso 5.68 5.68 0.5 mtk yes tchain 5 pchain 5
run 2000
Per MPI rank memory allocation (min/avg/max) = 3.644 | 3.646 | 3.649 Mbytes
Step Temp E_pair E_mol TotEng Press Volume 
   10000    2.3422924   -4.4041176            0  -0.89155739    5.4222913    3599.4667 
   11000    1.2636445   -6.4149459            0   -4.5199531    5.5457674    2758.8752 
   12000    1.2701786   -6.4430891            0   -4.5382976    5.7640053    2746.0849 
Loop time of 0.662278 on 48 procs for 2000 steps with 4000 atoms

Performance: 521835.048 tau/day, 3019.879 timesteps/s
99.6% CPU use with 48 MPI tasks x no OpenMP threads

MPI task timing breakdown:
Section |  min time  |  avg time  |  max time  |%varavg| %total
---------------------------------------------------------------
Pair    | 0.29747    | 0.3264     | 0.35357    |   2.0 | 49.28
Neigh   | 0.041303   | 0.044239   | 0.046996   |   0.6 |  6.68
Comm    | 0.21091    | 0.24121    | 0.27402    |   2.7 | 36.42
Output  | 5.2991e-05 | 5.4472e-05 | 6.8665e-05 |   0.0 |  0.01
Modify  | 0.04291    | 0.045481   | 0.048033   |   0.9 |  6.87
Other   |            | 0.004893   |            |       |  0.74

Nlocal:        83.3333 ave          91 max          76 min
Histogram: 2 1 7 2 12 6 10 5 2 1
Nghost:        2121.62 ave        2149 max        2093 min
Histogram: 1 3 4 6 8 7 11 5 1 2
Neighs:        13897.5 ave       15801 max       12147 min
Histogram: 1 3 7 7 8 10 4 6 1 1

Total # of neighbors = 667082
Ave neighs/atom = 166.77050
Neighbor list builds = 144
Dangerous builds = 9

#############################
# L I N E A R  Q U E N C H  #
#############################

# Define solid atoms. This closely follows ten Wolde  Ruiz-Montero and Frenkel  Faraday Discuss  1996  104  93-110
# Compute components of the per-atom q6 vector
compute q6 all orientorder/atom degrees 1 6 components 6 nnn NULL cutoff 1.3 # compute the Q6 parameter.
                                                                             # Use all neighbours within 1.3 unit cell.

# get number of connections
compute coord_number all coord/atom orientorder q6 0.5

# An atom is solid if it has 8 or more connections (of a possible 14)
variable is_solid atom c_coord_number>=8
group solid dynamic all var is_solid    # Must be dynamic to update
dynamic group solid defined

# do clustering
compute cluster solid cluster/atom 1.3 # Create a cluster where all atoms within are solid and max 1.3 units from another member

# define chunks one chunk per cluster
compute clus_chunks solid chunk/atom c_cluster nchunk every compress yes  # Says which atoms are in which chunk

# count the size of each chunk
compute size_chunks solid property/chunk clus_chunks count


# Find the maximum entry in the vector of chunk sizes
variable max_n equal max(c_size_chunks)


# Thermo style which includes this variable
# thermo_style custom step temp pe vol v_max_n

thermo ${N}  # Print the thermo information every 100 steps
thermo 1000  

# Reset the npt fix at a lower temperature (below freezing)
fix 1  all npt temp  ${temp} ${temp}  0.1  iso  5.68  5.68  0.5  mtk yes tchain  5  pchain  5
fix 1  all npt temp  0.45 ${temp}  0.1  iso  5.68  5.68  0.5  mtk yes tchain  5  pchain  5
fix 1  all npt temp  0.45 0.45  0.1  iso  5.68  5.68  0.5  mtk yes tchain  5  pchain  5

dump dmp2 all dcd ${N} traj.dcd
dump dmp2 all dcd 1000 traj.dcd


compute msd all msd com yes
variable twopoint equal c_msd[4]/6/(step*dt+1.0e-6)
fix 9 all vector 10 c_msd[4]
variable fit equal slope(f_9)/6/(10*dt)
thermo_style custom step temp pe c_msd[4] v_twopoint v_fit v_max_n

fix 1 all npt temp 1.25 ${temp} 0.1 iso 5.68 5.68 0.5 mtk yes tchain 5 pchain 5
fix 1 all npt temp 1.25 0.45 0.1 iso 5.68 5.68 0.5 mtk yes tchain 5 pchain 5
run 5000000 # 5000000  # Run for this many steps
Neighbor list info ...
  update every 1 steps, delay 10 steps, check yes
  max neighbors/atom: 2000, page size: 100000
  master list distance cutoff = 3.8
  ghost atom cutoff = 3.8
  binsize = 1.9, bins = 8 8 8
  4 neighbor lists, perpetual/occasional/extra = 1 3 0
  (1) pair lj/cut, perpetual
      attributes: half, newton on
      pair build: half/bin/atomonly/newton
      stencil: half/bin/3d
      bin: standard
  (2) compute orientorder/atom, occasional
      attributes: full, newton on
      pair build: full/bin/atomonly
      stencil: full/bin/3d
      bin: standard
  (3) compute coord/atom, occasional
      attributes: full, newton on
      pair build: full/bin/atomonly
      stencil: full/bin/3d
      bin: standard
  (4) compute cluster/atom, occasional
      attributes: full, newton on
      pair build: full/bin/atomonly
      stencil: full/bin/3d
      bin: standard
Per MPI rank memory allocation (min/avg/max) = 9.846 | 9.852 | 9.855 Mbytes
Step Temp PotEng c_msd[4] v_twopoint v_fit v_max_n 
   12000    1.2701786   -6.4430891 1.8074775e-30 1.2551927e-32 8.3333333e+20            1 
   13000    1.2756042   -6.4486087   0.49738059  0.003188337  0.040808765            4 
   14000    1.2452126   -6.4610671   0.99788583 0.0059397964  0.040502589            4 
   15000    1.2599785   -6.4531078    1.4994214 0.0083301188   0.04106224            3 
   16000    1.2175322   -6.4798666    1.9248806  0.010025419  0.040663927            3 
   17000    1.2399658   -6.4912495     2.407876  0.011803313  0.039911139            3 
   18000    1.2834071   -6.4821765    2.9001416  0.013426581  0.039917413            3 
   19000    1.2664307   -6.4897621    3.4088366  0.014951037  0.040051187            1 
   20000    1.2461156   -6.4248637    3.8489522  0.016037301  0.039967768            6 
   21000    1.2256359   -6.4822423    4.2237398  0.016760872  0.039565751            5 
   22000    1.2251737    -6.484144    4.6862858  0.017751082  0.039108815            1 
   23000    1.2298714   -6.4345417    5.2105647  0.018878857  0.039001324            2 
   24000    1.2604637   -6.5036574    5.7021533  0.019799143  0.039018817            3 
   25000    1.2426461   -6.4599618    6.2143571  0.020714523  0.039121105            4 
   26000    1.2269764   -6.4700378    6.7193271  0.021536305   0.03927808            2 
   27000    1.2369665   -6.4720569    7.1833711  0.022170898  0.039437201            4 
   28000    1.2660939   -6.4890878    7.5558562  0.022487667  0.039424753            2 
   29000    1.2399537   -6.5075883    7.8874032  0.022664951  0.039251153            2 
   30000    1.2706867   -6.4642771    8.3448535  0.023180148  0.039026311            2 
   31000    1.2250197   -6.4597153       8.7488  0.023518279  0.038787639            1 
   32000    1.2365552   -6.4723666    9.3022966   0.02422473  0.038679482            2 
   33000    1.2408969   -6.5198591    9.8201169  0.024798275  0.038649904            2 
   34000    1.2530236   -6.4349364    10.391743  0.025469957  0.038733287            2 
   35000    1.2674584   -6.4870042    10.772507  0.025648826  0.038766691            1 
   36000    1.2386603   -6.4596054    11.300801  0.026159262   0.03881782            2 
   37000    1.2441886   -6.4898219    11.806482  0.026591176  0.038859871            2 
   38000    1.2298859   -6.5329295    12.349341  0.027081888   0.03896098            1 
   39000    1.2106571   -6.4611402    13.053807   0.02789275  0.039139349            2 
   40000    1.2335198   -6.4535285    13.558739  0.028247372  0.039328897            2 
   41000    1.2263066   -6.4667762    13.985931  0.028426688  0.039491735            4 
   42000    1.2308327   -6.4421424    14.521296  0.028812095  0.039617972            1 
   43000    1.2556466   -6.5109325    14.775704  0.028635085  0.039705809            3 
   44000    1.2495926   -6.4843089    15.247932  0.028878658  0.039756577            2 
   45000    1.2480472   -6.4921096    15.745107  0.029157605  0.039740867            2 
   46000    1.2589208    -6.480497    16.251281  0.029440725  0.039770607            3 
   47000    1.2293393   -6.4531353    16.752755  0.029703466   0.03980675            2 
   48000    1.2480691   -6.4971717    17.133109  0.029744981  0.039800621            1 
   49000    1.2626179    -6.428028    17.564012  0.029870769   0.03975977            2 
   50000    1.2759389   -6.5007135    17.807621  0.029679368  0.039674358            3 
   51000    1.2426096   -6.5008974    18.178542  0.029703499  0.039567193            2 
   52000    1.2533001    -6.467099    18.628791  0.029853832  0.039456484            2 
   53000    1.2680938   -6.4776321    18.953942  0.029801796  0.039326571            2 
   54000    1.2367783   -6.4597646    19.393499  0.029928239  0.039196986            2 
   55000    1.2493925   -6.5048359    19.867219  0.030101846  0.039081567            2 
   56000    1.2577813   -6.5382638    20.450241  0.030431906  0.038993739            3 
   57000    1.2397139     -6.48479    20.857112  0.030492854  0.038926789            2 
   58000    1.2655517   -6.4625665    21.439466  0.030803831  0.038885142            2 
   59000    1.2333897   -6.4651907    21.923525  0.030965431  0.038845745            2 
   60000    1.2491996   -6.4810257    22.303072  0.030976489  0.038803989            1 
   61000    1.2599604   -6.4902447    22.709107   0.03102337  0.038759155            2 
   62000    1.2704524   -6.4930976    23.234755  0.031229509  0.038725885            3 
   63000    1.2533265   -6.4843427    23.605429  0.031224112  0.038696776            5 
   64000    1.2758842   -6.4650548    24.162262  0.031461279  0.038666184            4 
   65000    1.2370954   -6.5285356    24.573156  0.031504046  0.038645315            3 
   66000    1.2321792   -6.5365436    25.164742  0.031773664   0.03863694            2 
   67000    1.2260182   -6.5055394     25.73083   0.03200352  0.038630453            3 
   68000    1.2321114   -6.4604394    26.027022   0.03189586  0.038615649            5 
   69000    1.2385627   -6.4667134    26.365316  0.031842169  0.038587884            2 
   70000    1.2478387   -6.4813715    26.935192  0.032065705  0.038572767            3 
   71000    1.2238231   -6.4733648    27.673839  0.032481031  0.038585488            4 
   72000    1.2517218   -6.4819205    28.301186  0.032756002  0.038618376            2 
   73000    1.2346777   -6.4813315    28.659928  0.032716813  0.038651129            3 
   74000    1.2402064   -6.4997505    29.353662  0.033055926  0.038692858            1 
   75000     1.259606   -6.4227266    29.848845  0.033165383  0.038749047            1 
   76000    1.2226508   -6.4804531    30.254484  0.033173776  0.038794619            3 
   77000    1.2520086   -6.5429958     30.77712  0.033308571  0.038836121            2 
   78000     1.228868   -6.5039935    31.189183  0.033321776  0.038872864            3 
   79000    1.2167295   -6.4972407     31.69253  0.033430938  0.038904688            3 
   80000    1.2556629   -6.5096491    32.023738   0.03335806  0.038926585            2 
   81000    1.2407018   -6.4644934    32.574776  0.033513144  0.038951533            2 
   82000    1.2383273   -6.5067104    32.940743  0.033476364  0.038974837            3 
   83000    1.2603601   -6.4909937     33.35457  0.033488524  0.038981475            2 
   84000    1.2662136   -6.4763631    33.744563  0.033476749  0.038974581            2 
   85000    1.2412594   -6.5080357     34.02693  0.033359735  0.038966792            8 
   86000    1.2576085   -6.4747236    34.604241  0.033531241  0.038956865            3 
   87000    1.2577451   -6.5382602    34.688414   0.03322645  0.038942751            2 
   88000    1.2230179    -6.509657    35.258909  0.033389118  0.038924166            5 
   89000    1.2318808   -6.4684922    35.877146  0.033592833  0.038907173            3 
   90000     1.233956   -6.5143908    36.376466  0.033681913  0.038901555            2 
   91000    1.2695444   -6.5193782      36.8706  0.033764286  0.038896337            2 
   92000    1.2185611    -6.522444    37.313226  0.033798212  0.038885553            4 
   93000    1.2412246   -6.5057454     37.99867  0.034048988  0.038883112            1 
   94000    1.2316313   -6.5019669    38.301872   0.03395556  0.038888379            1 
   95000    1.2106601   -6.4947123    39.041031  0.034246518  0.038897851            5 
   96000    1.2400691   -6.4941147    39.455171  0.034249281  0.038910856            1 
   97000    1.2439376     -6.46147    40.055805  0.034412203   0.03892499            1 
   98000    1.2027397   -6.5286082    40.265983  0.034239782  0.038935241            4 
   99000    1.2110968   -6.5130211    40.865681  0.034398721  0.038941476            2 
  100000    1.2747127   -6.5322307    41.242391  0.034368659  0.038947739            3 
  101000     1.249874   -6.4412656    42.160309  0.034785734  0.038962957            4 
  102000    1.2349449   -6.4570106    42.403721  0.034643562  0.038979384            5 
  103000    1.2445123   -6.4664017    43.022888  0.034808162  0.038994571            3 
  104000    1.2487187   -6.5376289    43.510388  0.034864093  0.039010517            7 
  105000    1.2259249   -6.5274537    44.011627  0.034929863  0.039032852            2 
  106000    1.2430518   -6.5193287    44.473028  0.034963072  0.039057908            3 
  107000    1.2367523   -6.4892618    44.993295  0.035041507  0.039079119            4 
  108000    1.2004393   -6.4890354    45.778281  0.035322747  0.039108267            2 
  109000    1.2625744   -6.4601137    46.048888  0.035205572  0.039136459            3 
  110000    1.2237209   -6.5321221    46.485575  0.035216344  0.039160772            2 
  111000    1.2501906    -6.500119    46.940053   0.03524028  0.039183985            2 
  112000    1.2023937   -6.5300685    47.508478   0.03534857  0.039206302            3 
  113000    1.2386099   -6.5478658    47.836422  0.035277597  0.039226764            3 
  114000    1.2200751   -6.5166975    48.139266  0.035189522   0.03923884            6 
  115000    1.2320426   -6.5338864    48.522424  0.035161177  0.039244131            6 
  116000     1.244673   -6.5410305    49.020472  0.035215856  0.039247045            1 
  117000    1.2317711   -6.5322532     49.49382  0.035252009  0.039247321            2 
  118000    1.2609277   -6.5140604    49.772044  0.035149748  0.039245206            4 
  119000    1.2425827   -6.5159194     50.47246   0.03534486   0.03924388            3 
  120000    1.2378259    -6.523582    50.890042  0.035340307  0.039252024            3 
  121000     1.219727   -6.5160576    51.333031  0.035353327  0.039259196            4 
  122000    1.2307541   -6.4925972    51.862328  0.035425087  0.039265625            2 
  123000    1.2299219   -6.5295817    51.913878  0.035172004  0.039258493            3 
  124000    1.1967932   -6.5055762    52.530532  0.035302777  0.039243794            3 
  125000    1.2368631   -6.5141845    52.627738  0.035085159   0.03922903            2 
  126000    1.2390894   -6.5272829    53.022738  0.035067948  0.039205109            2 
  127000    1.2021805   -6.4756152    53.678764  0.035222286  0.039180242            9 
  128000    1.2041859   -6.4510521    53.996975   0.03515428  0.039157223            3 
  129000    1.2386685   -6.5759115    54.000633  0.034884129   0.03913189            3 
  130000    1.2467656   -6.5315875    54.623011   0.03501475  0.039102673            2 
  131000    1.2172057   -6.5383296    54.988722  0.034980103  0.039075881            3 
  132000    1.2068607   -6.5098311    55.549542  0.035069155  0.039047053            1 
  133000    1.2400536   -6.5586487    55.956965  0.035060755  0.039020028            1 
  134000    1.2391692   -6.4784219    56.473012  0.035120032  0.038992521            1 
  135000    1.2264971   -6.5049502     56.58747  0.034930537   0.03896352            4 
  136000    1.2123474    -6.534364    57.064914  0.034966246  0.038932914            2 
  137000    1.2405166    -6.460101    57.590498  0.035030716   0.03890304            4 
  138000    1.2123409   -6.5325489    57.553908  0.034754776  0.038869765            2 
  139000    1.2151214   -6.5007256     58.32749  0.034968519  0.038834027            1 
  140000    1.2249317   -6.4881072    58.433885  0.034782074  0.038794929            1 
  141000    1.2308187   -6.5336743    58.760271  0.034728292  0.038751992            2 
  142000    1.2238488   -6.5298668    59.209648  0.034747446  0.038708288            1 
  143000    1.2185377   -6.5303474    59.561668  0.034709597  0.038669545            2 
  144000    1.2317845   -6.5109156    59.903291  0.034666256  0.038631311            6 
  145000    1.1925139   -6.4915651    60.597541  0.034826173  0.038596308            3 
  146000    1.2421378   -6.4909738    61.090622  0.034869076  0.038561117            2 
  147000    1.2415248   -6.4822344    61.350932   0.03477944  0.038523148            3 
  148000    1.1979141   -6.4357715    62.187653  0.035015571  0.038488077            3 
  149000    1.2196317   -6.5251957    62.250904  0.034815942   0.03845785            2 
  150000    1.2268567   -6.5400436    62.442585  0.034690325  0.038420964            1 
  151000    1.2405374   -6.5350298    62.797473  0.034656442  0.038382939            2 
  152000    1.2369367   -6.5095662     63.31423  0.034711749  0.038348651            3 
  153000    1.2248542   -6.5360525    63.986374  0.034850966  0.038311884            1 
  154000    1.2202294   -6.5558934    63.906112  0.034581229  0.038274361            4 
  155000    1.2096247   -6.5324238    64.442668  0.034646595  0.038234481            1 
  156000     1.225438   -6.5012326    65.292048  0.034878231  0.038200022            3 
  157000    1.2456612   -6.5241096    65.179118  0.034596135  0.038164606            3 
  158000    1.2186617   -6.5337865    65.666571  0.034634267  0.038128214            3 
  159000    1.2371845    -6.531062    66.261461  0.034728229  0.038091426            3 
  160000    1.2198246   -6.5293644      66.3609  0.034562969  0.038049315            1 
  161000    1.2405737   -6.5271559    66.728571  0.034538598  0.038010898            4 
  162000    1.2305352   -6.5755314    67.260259  0.034598899  0.037973088            2 
  163000    1.2447638    -6.526141    67.975507  0.034752304  0.037937419            4 
  164000    1.2176752   -6.5790925    68.416953  0.034764712   0.03791145            5 
  165000    1.2309454   -6.5067289    69.082429  0.034890115  0.037886358            3 
  166000    1.2253155   -6.5448128    69.723136  0.035001574  0.037863403            2 
  167000     1.211849   -6.5735625    69.905785  0.034883126  0.037841257            4 
  168000    1.2458072   -6.5325365    70.399104   0.03492019  0.037817582            4 
  169000    1.2334737   -6.5161416    70.872546  0.034947015    0.0377931            1 
  170000    1.2044633   -6.5142182    71.259807  0.034931278  0.037772151            2 
  171000    1.2257244   -6.5774106    71.433532  0.034811663  0.037747603            2 
  172000    1.2249258   -6.5736129    71.622544  0.034700845  0.037722026            3 
  173000    1.2395539   -6.5357816    72.045931  0.034704205  0.037690964            2 
  174000    1.2161145   -6.5379599    72.697454  0.034816788  0.037661877            2 
  175000    1.2061707   -6.5186852    72.810402   0.03467162  0.037631278            6 
  176000     1.209988   -6.5466347    73.126036   0.03462407  0.037599178            3 
  177000    1.2429447   -6.5471412     73.40408   0.03455936  0.037569064            1 
  178000    1.2233142   -6.5315963    73.983991    0.0346367  0.037538884            2 
  179000    1.2073854   -6.5192635    74.497293  0.034682166  0.037509528            3 
  180000    1.2187822   -6.5240933    74.933019  0.034691213   0.03747966            4 
  181000    1.2333784   -6.4872389    75.904059   0.03494662  0.037455453            2 
  182000    1.2028395    -6.525391    76.234919  0.034906098   0.03743399            4 
  183000    1.2285419   -6.4746642    76.754416   0.03495192   0.03741331            1 
  184000    1.2332403   -6.5198415     76.90649  0.034830838  0.037392899            2 
  185000     1.235234   -6.5636471    76.833386  0.034609633  0.037365909            3 
  186000    1.2189224   -6.5405226    77.355887  0.034657655  0.037338114            5 
  187000    1.2354542   -6.5501316    77.377557  0.034481977   0.03730762            1 
  188000    1.2424015   -6.5174383    77.884039  0.034523067  0.037273857            5 
  189000    1.2093213   -6.5848387    78.208683  0.034483546  0.037240154            3 
  190000    1.2278069   -6.5305918    78.642622  0.034492378  0.037207152            3 
  191000     1.223377   -6.5206071    79.070067  0.034498284  0.037177001            5 
  192000    1.2251031   -6.5443231    79.312693  0.034423912  0.037143847            1 
  193000    1.2413887   -6.5280763    79.391748  0.034279684   0.03711065            5 
  194000    1.1882868   -6.5126891     80.06399  0.034391748  0.037077142            1 
  195000    1.2114867   -6.5328639    80.422236  0.034368477  0.037046257            1 
  196000    1.2285259   -6.5529261    80.808548  0.034357376  0.037015575            2 
  197000    1.2331004   -6.5337769    81.089709  0.034301907  0.036982881            2 
  198000    1.2256048    -6.565404    81.158401  0.034157576  0.036949016            1 
  199000    1.2271407   -6.5230829    81.934768  0.034311042  0.036915098            7 
  200000    1.2287992   -6.5154796    82.679859  0.034449941  0.036882369            2 
  201000    1.2253044   -6.5814701     82.81314  0.034333806  0.036849424            2 
  202000    1.2054859   -6.5243088    83.389681  0.034401683  0.036818692            3 
  203000    1.2322382   -6.5139414    84.108695  0.034527379  0.036791314            3 
  204000    1.2177147   -6.5161421    84.090106  0.034350533  0.036764652            2 
  205000    1.2102187   -6.5585605    84.275425  0.034258303  0.036734918            2 
  206000     1.217166   -6.5934493    84.764685  0.034289921  0.036706152            3 
  207000    1.2215908   -6.5366856    85.506623  0.034422956  0.036678819            2 
  208000     1.236539   -6.5330809    85.295799  0.034172996   0.03664909            2 
  209000    1.2279229   -6.5407637     85.65983  0.034154637  0.036618357            2 
  210000    1.2038321    -6.563202    86.370517  0.034274015  0.036590188            3 
  211000    1.2275624    -6.527949    87.095694  0.034397983  0.036563646            2 
  212000    1.2296715   -6.5865856     87.10552  0.034239591  0.036536702            2 
  213000    1.2398497   -6.5295268    87.644378  0.034289663  0.036509667            3 
  214000    1.2115424   -6.5562137    87.935256  0.034242701  0.036483694            3 
  215000    1.2355688   -6.5019902    88.499293  0.034302052  0.036457883            2 
  216000    1.2191852   -6.5713651    88.716188  0.034226924  0.036434761            4 
  217000    1.2295106   -6.5607262    89.189881  0.034251106  0.036409881            3 
  218000    1.2143341   -6.5495468    89.725112   0.03429859  0.036384859            1 
  219000     1.208971   -6.5607284    89.677123  0.034123715  0.036357053            3 
  220000    1.2120242   -6.5377619    90.301491   0.03420511  0.036330919            5 
  221000    1.2004543   -6.5569911    90.458497  0.034109539  0.036305513            3 
  222000    1.2267238   -6.5217366    91.294621  0.034269752  0.036280469            2 
  223000    1.2110171   -6.5224239    91.611626  0.034234539  0.036257961            1 
  224000     1.239026   -6.5701654    91.776666  0.034143105  0.036232614            3 
  225000    1.2057024   -6.5357609    92.599477  0.034296102  0.036208187            2 
  226000    1.2126151   -6.5752059    92.764453  0.034205182   0.03618491            2 
  227000    1.2032505   -6.5959537    93.312873  0.034255827   0.03616022            3 
  228000    1.2453997   -6.5079894    94.340948  0.034481341  0.036137942            4 
  229000    1.1977705   -6.5526384    93.820035  0.034141206  0.036117691            1 
  230000    1.1997684   -6.6207869    94.094208  0.034092104  0.036096427            2 
  231000    1.2037565   -6.5504367    94.739582  0.034177338  0.036076357            4 
  232000    1.2121432   -6.5766946     95.39738    0.0342663  0.036056403            2 
  233000    1.2284781    -6.550016    95.747253  0.034244368  0.036035093            4 
  234000    1.2068986   -6.5516193    96.342637  0.034310056  0.036016086            6 
  235000    1.2186947   -6.5645839    96.567158  0.034243673  0.036000468            1 
  236000    1.2013661   -6.5090951    97.361173  0.034378945  0.035983844            4 
  237000    1.2057286   -6.5543137    97.466642  0.034270971  0.035965643            3 
  238000    1.2049921   -6.5766817    97.662575  0.034195579  0.035947933            3 
  239000    1.1887414   -6.5782269    98.187659  0.034235586  0.035929573            3 
  240000    1.2269375   -6.5640237    98.913631  0.034345011  0.035913287            2 
  241000    1.2256235    -6.527665    99.825371  0.034517763  0.035898533            1 
  242000    1.1956427   -6.5319774    99.745817  0.034347733  0.035886296            3 
  243000    1.2042285   -6.5493996    100.13188  0.034338779  0.035871877            2 
  244000    1.2274878   -6.4852659    100.98563  0.034489629  0.035857504            2 
  245000    1.2044924   -6.6064656    100.89487  0.034317984   0.03584531            2 
  246000    1.2171597   -6.5378769    101.89278  0.034516525  0.035832854            1 
  247000    1.2190266   -6.5246097    102.31849   0.03452041  0.035822389            5 
  248000    1.1938755   -6.5017577    102.82911  0.034552792  0.035813486            3 
  249000    1.2162223   -6.5391885    102.95181  0.034455089  0.035803391            2 
  250000    1.2190552   -6.5792766     103.1624  0.034387468  0.035791017            3 
  251000    1.2210068   -6.5609916    103.33175  0.034306689  0.035780567            2 
  252000    1.1835331   -6.5167417    104.00321  0.034392596  0.035769334            2 
  253000    1.2253459   -6.5333809    104.77127  0.034509641  0.035759476            2 
  254000    1.2208718   -6.5342845    104.96656  0.034437848  0.035748559            2 
  255000    1.2349648   -6.5755839    105.03726  0.034325902  0.035739279            3 
  256000    1.2217572    -6.529457    105.32468  0.034285379  0.035728107            3 
  257000    1.1964337   -6.5364081     106.0561  0.034389139  0.035715514            2 
  258000    1.2157839   -6.5207372    106.36288  0.034354936  0.035703622            2 
  259000    1.1990765   -6.5538395    106.28027  0.034195712  0.035691134            2 
  260000    1.1954896   -6.5784798    106.87992  0.034256383  0.035677321            4 
  261000    1.2165664    -6.600618     107.2881   0.03425546  0.035663995            2 
  262000    1.2266835   -6.5930312    107.92289  0.034326619  0.035650938            2 
  263000      1.22805   -6.5008584    108.74987  0.034458135  0.035638176            4 
  264000    1.2102417   -6.5748304    108.25179  0.034170389  0.035627431            3 
  265000    1.1884071   -6.5939792    108.76071   0.03420148  0.035614372            3 
  266000    1.1994495   -6.5653011    109.10885  0.034181972  0.035601565            1 
  267000    1.1850577   -6.5859141      109.889  0.034297442  0.035587812            3 
  268000    1.2141055   -6.6206948    109.88407  0.034167933  0.035575936            2 
  269000    1.2099487   -6.5858081    110.33503  0.034180616  0.035562864            3 
  270000    1.2166901   -6.5413785    111.20141  0.034321422  0.035551914            5 
  271000    1.1728794   -6.5585413    111.26284  0.034213665  0.035541197            5 
  272000    1.2098278    -6.544749    112.05069  0.034329255   0.03552784            2 
  273000    1.1884676   -6.6420059    111.75711  0.034113892   0.03551585            3 
  274000    1.2465593   -6.5409027    112.85975  0.034324741  0.035503531            3 
  275000    1.2129161   -6.5592675    112.81062  0.034185036  0.035491368            3 
  276000    1.2256175   -6.5783405    113.18519  0.034174273  0.035480319            2 
  277000    1.2240667   -6.5096715    114.55255   0.03446226  0.035471123            2 
  278000    1.2015995   -6.5520308    114.76568  0.034402181  0.035462867            2 
  279000    1.2126707   -6.5564898    115.33229  0.034448116  0.035455417            6 
  280000    1.1916878   -6.5789508    115.55566  0.034391566   0.03544826            9 
  281000    1.2039123   -6.5836893    115.90116  0.034371636  0.035441623            3 
  282000    1.1978087   -6.5622067    116.56104  0.034444753  0.035434364            2 
  283000    1.1767985   -6.5856795    116.82592  0.034401036  0.035426565            4 
  284000    1.2010755   -6.5584686    117.37173  0.034440062  0.035420657            2 
  285000    1.2114243   -6.5308619    117.79774  0.034443783  0.035414362            2 
  286000    1.2216726   -6.5778477    117.98809  0.034378813  0.035408876            1 
  287000    1.2007004   -6.5983266    118.45575  0.034394818  0.035401927            5 
  288000     1.197804   -6.6182424    119.22057  0.034496692  0.035396091            1 
  289000    1.2040643   -6.5681197    119.48087  0.034452384  0.035388689            2 
  290000    1.1900166   -6.6006627    119.87569  0.034447037  0.035381819            4 
  291000    1.2071752   -6.5595923    120.07506  0.034385755  0.035374118            3 
  292000    1.2167927    -6.547909    120.45578   0.03437665  0.035367544            2 
  293000     1.234713   -6.5803069    120.86115  0.034374617  0.035360235            2 
  294000    1.1732328   -6.5603389    121.15742  0.034341672   0.03535251            2 
  295000    1.1916057   -6.6077398    121.59446  0.034348717  0.035345176            4 
  296000    1.2012909   -6.6144327    121.93969  0.034329867  0.035338696            5 
  297000    1.2140076   -6.5708847    122.51551  0.034375845  0.035332032            3 
  298000     1.200254   -6.5891107    122.65818  0.034300385  0.035324373            7 
  299000    1.2264099   -6.5762993    123.11908  0.034314124  0.035317955            4 
  300000    1.2179382   -6.5805665    123.85533  0.034404259  0.035312028            1 
  301000    1.2174028   -6.6460713    123.81848  0.034279755  0.035305133            2 
  302000    1.2016815    -6.575347    124.61283  0.034385439  0.035298979            4 
  303000    1.1896465   -6.5980321    125.00539   0.03437992  0.035293488            2 
  304000    1.2138737   -6.6155841     125.4197  0.034380401  0.035288072            3 
  305000    1.2366413   -6.5925839     125.8447  0.034383798  0.035282473            4 
  306000    1.2380454   -6.5978999    126.31995  0.034400858  0.035276478            4 
  307000    1.1947934   -6.6048754    126.77808  0.034413159  0.035269959            3 
  308000     1.184823   -6.5560333     127.0082   0.03436369   0.03526384            2 
  309000    1.2170503   -6.6008676     127.3027  0.034331905  0.035259623            2 
  310000    1.2149306   -6.5750347    127.60698  0.034302951  0.035254216            2 
  311000    1.2185044   -6.5620348    128.41823  0.034410029  0.035249966            2 
  312000    1.1918997   -6.6016342    128.77759  0.034395724  0.035245789            1 
  313000    1.1943185   -6.6460489    129.22177  0.034404093  0.035242596            1 
  314000    1.1797926   -6.6078659    129.75678  0.034436512  0.035237859            3 
  315000    1.1952873   -6.5954344    129.90624  0.034366731  0.035233311            2 
  316000     1.205049   -6.5826529    130.86341  0.034510393  0.035228812            3 
  317000    1.2173965   -6.6058415    130.78694  0.034381424   0.03522309            3 
  318000    1.2174774   -6.6156445    131.11624  0.034359603  0.035216868            1 
  319000    1.1910317   -6.6294287    131.88222  0.034451992  0.035212018            1 
  320000    1.2211926   -6.5399372    132.69012  0.034554719   0.03520804            3 
  321000    1.2151391   -6.5811712    132.64214  0.034434617  0.035205633            2 
  322000    1.1725167   -6.6285621    133.17982  0.034466828  0.035202429            3 
  323000    1.1858553   -6.6060984    133.70165  0.034494749   0.03519939            2 
  324000    1.1776873   -6.5978558    133.70003  0.034387869  0.035196326            2 
  325000      1.19696   -6.5900674    134.58362   0.03450862  0.035192109            1 
  326000     1.190221   -6.5793815    135.08883  0.034531908  0.035187348            2 
  327000    1.1755777    -6.586567    134.96058  0.034393623  0.035182857            4 
  328000    1.2043665   -6.5968753    135.63129   0.03445917  0.035178548            2 
  329000    1.1974929   -6.5985741    136.09879  0.034472844  0.035173618            2 
  330000    1.2000845   -6.5796821    136.11863  0.034373392   0.03516966            3 
  331000    1.2013463   -6.6112613    136.24551  0.034301487  0.035164125            2 
  332000    1.1680338   -6.5836944    136.85292  0.034350632  0.035157285            5 
  333000    1.2044654   -6.6072387     136.4764  0.034153253  0.035150997            6 
  334000    1.2330484    -6.584371     138.3928  0.034529142   0.03514466            1 
  335000    1.1906427   -6.5805642    137.87558  0.034297407  0.035138863            2 
  336000    1.2187247   -6.5768742    138.16887  0.034268072   0.03513214            1 
  337000    1.1968393   -6.5446597    139.24775  0.034433172   0.03512578            4 
  338000    1.1823622   -6.6005496     139.0104  0.034272782  0.035119144            3 
  339000    1.1797535   -6.6318009    139.36518  0.034258893  0.035112586            2 
  340000    1.2132219   -6.6155496    139.80211  0.034265224  0.035105728            4 
  341000    1.2075443   -6.5798966    139.93585  0.034197421  0.035099708            2 
  342000    1.1887282    -6.624935    140.64235  0.034269578  0.035094765            1 
  343000     1.228304   -6.6279977    141.38325  0.034349671   0.03508954            2 
  344000    1.1909371   -6.6578313    141.08055   0.03417649  0.035083197            2 
  345000    1.2021004   -6.5913438    142.11972  0.034328435  0.035077397            3 
  346000    1.1978626   -6.6169493    142.20264  0.034249191  0.035072452            2 
  347000    1.1963217   -6.5695821    142.72359  0.034275599  0.035067071            1 
  348000    1.1780077   -6.5940362    143.53062   0.03437036  0.035060805            4 
  349000    1.2038196   -6.5988264    143.69751  0.034311726  0.035054734            4 
  350000    1.1742369   -6.6307323    143.75773  0.034228031  0.035048775            3 
  351000    1.1939046   -6.5928401    144.47247  0.034300206  0.035043423            3 
  352000     1.197785    -6.613239    144.25693  0.034151736  0.035037681            5 
  353000    1.1983632   -6.5864449    145.60372  0.034372928  0.035032961            5 
  354000    1.1769842   -6.6162974    145.56495  0.034266701  0.035027519            4 
  355000    1.2193096   -6.6396943     145.6678   0.03419432  0.035021376            2 
  356000     1.216136    -6.627031    145.96158  0.034167037   0.03501371            2 
  357000     1.180832   -6.6021802    146.80216  0.034267545  0.035007108            2 
  358000    1.1928203   -6.6294628    146.53617   0.03410991  0.035000751            3 
  359000    1.1894066   -6.6244481    147.21529  0.034172538  0.034994376            1 
  360000    1.2082733   -6.6335505    147.91303  0.034239127  0.034988292            1 
  361000    1.2015137   -6.6081688    148.58274  0.034298877  0.034982834            1 
  362000    1.2076713   -6.6188482    149.22946  0.034353006   0.03497867            3 
  363000    1.1943575   -6.5662128    149.42584  0.034303453  0.034974464            2 
  364000    1.2027905   -6.6243774    150.01612  0.034344351  0.034969671            1 
  365000    1.2170111   -6.6438107    149.66833  0.034170852  0.034964143            3 
  366000    1.2151983   -6.6274593    150.76661  0.034327553  0.034959852            1 
  367000    1.1800681    -6.597106    151.02243  0.034292105  0.034955937            2 
  368000    1.2173101   -6.6562896    151.08548  0.034213197  0.034951396            4 
  369000    1.2186318   -6.6146179    151.65722  0.034249599  0.034946669            1 
  370000    1.2095199   -6.6384365    152.27507  0.034296186  0.034941918            2 
  371000    1.1961873   -6.5804774    153.06391  0.034380931  0.034938288            6 
  372000    1.1947106   -6.6065972    152.70405  0.034207898  0.034934645            2 
  373000    1.2114795   -6.6115399    152.83394  0.034145207  0.034929554            2 
  374000    1.2167846   -6.6158983     153.4373  0.034188346  0.034923777            3 
  375000    1.1863311   -6.5952644    154.40498  0.034312217  0.034919426            3 
  376000    1.1657276   -6.6447488    154.17823  0.034170708  0.034914377            2 
  377000    1.1633558    -6.578945    154.67804  0.034190548   0.03490871            2 
  378000    1.2093592   -6.6264356    155.55004  0.034292336  0.034903679            3 
  379000    1.1671793   -6.6125195    155.34453  0.034156669  0.034898276            3 
  380000    1.2041999   -6.5920483    156.19048  0.034252298  0.034892794            2 
  381000    1.1885239    -6.646373    155.78605  0.034073938  0.034885943            3 
  382000    1.1975025    -6.619366    156.05607  0.034043646  0.034879384            2 
  383000    1.1792188   -6.6172998    156.48754  0.034048638  0.034873288            4 
  384000    1.1887265   -6.6443241    156.56717  0.033977251  0.034867021            2 
  385000    1.1618668   -6.6633406    157.60091  0.034112751  0.034860049            6 
  386000    1.1740385   -6.5931935    158.55717  0.034230822   0.03485325            3 
  387000     1.186463    -6.638246    158.57655  0.034146544  0.034847012            2 
  388000    1.2100742   -6.6031649    158.77103  0.034100306   0.03484061            2 
  389000    1.2117184    -6.620994    158.50787   0.03395627  0.034834151            3 
  390000    1.2233392   -6.6583317     158.6786  0.033905684  0.034825746            3 
  391000    1.2131511   -6.6091602    159.72185  0.034041316  0.034816525            2 
  392000     1.180813   -6.6180385    159.98837  0.034011132  0.034807571            5 
  393000    1.1745216   -6.6258701     159.8037  0.033885433   0.03479917            5 
  394000    1.1959387   -6.6402041    160.85511  0.034021808  0.034791479            2 
  395000    1.1913397   -6.5988394    161.56188  0.034084785  0.034784125            5 
  396000    1.2040886   -6.6427912    162.03293  0.034097839  0.034777778            3 
  397000     1.192992   -6.6615875    162.28979  0.034065866  0.034771536            3 
  398000    1.1763898   -6.6720637    162.67277  0.034060462  0.034765729            2 
  399000     1.172901   -6.6415594    163.10647  0.034065679  0.034759606            3 
  400000    1.2069647   -6.6123966    163.77446   0.03411968  0.034754457            1 
  401000    1.1917149   -6.6115716    163.99573  0.034080576  0.034749714            2 
  402000    1.1749469     -6.60008    165.24946  0.034255693  0.034744986            3 
  403000    1.1881231   -6.6510234    164.90347  0.034099147  0.034739473            2 
  404000    1.1748834   -6.5559883    166.07077  0.034255523  0.034734721            4 
  405000     1.182046   -6.6902248     165.5669  0.034067264  0.034730885            2 
  406000    1.1980968   -6.6234529    166.36076  0.034146298   0.03472618            3 
  407000    1.1902529   -6.6259463    166.67685   0.03412712  0.034721173            2 
  408000    1.1742145   -6.6004911    166.87629   0.03408421  0.034716743            3 
  409000    1.2037888   -6.6602946    167.30775  0.034088784  0.034711826            2 
  410000    1.1669815   -6.6553102    167.76124  0.034097812  0.034706663            2 
  411000    1.1914833   -6.6410345    168.16741  0.034097203  0.034701384            4 
  412000    1.1717253   -6.6983017    167.55764  0.033891108  0.034694413            3 
  413000    1.1757468   -6.6428446    168.78842  0.034057389  0.034688165            2 
  414000    1.1962975   -6.6318746    169.24365  0.034066758  0.034681648            2 
  415000    1.1630463   -6.6692037    169.46367   0.03402885  0.034675613            2 
  416000    1.2067782   -6.6102001    169.94006  0.034042481  0.034670541            2 
  417000    1.1732272   -6.6350481    170.88818  0.034150316  0.034665951           12 
  418000    1.1954648   -6.5869547      171.764  0.034243222  0.034660446            2 
  419000    1.1728954   -6.6405546    170.95308  0.034000215   0.03465544            5 
  420000    1.1811468   -6.6690884    171.54814   0.03403733  0.034649503            3 
  421000    1.1689119   -6.5699582    172.30281  0.034105861  0.034643826            4 
  422000    1.1747339   -6.6479777    172.11367  0.033987691  0.034638428            2 
  423000    1.1770434   -6.5983774    173.06772  0.034095296  0.034633409            2 
  424000     1.186284   -6.6547404     173.0085  0.034003243  0.034628015            3 
  425000    1.1937043   -6.6161591     173.2241  0.033965511  0.034621577           10 
  426000    1.1954561   -6.6748149    173.62694  0.033964581  0.034614907            3 
  427000    1.1878935   -6.6124802    173.75162  0.033909371  0.034608057            2 
  428000    1.1690859   -6.6206931    174.17864  0.033913286  0.034600606            2 
  429000    1.1636134   -6.6248862    174.64484  0.033924794  0.034593643            2 
  430000    1.1897818   -6.6341559    174.84785  0.033885242   0.03458569            4 
  431000    1.1888199   -6.5986034    175.39279  0.033911986  0.034577835            2 
  432000    1.2126595   -6.6536009    174.96848  0.033751635  0.034570137            6 
  433000    1.1876287   -6.6557405    175.77833  0.033829548  0.034562698            2 
  434000    1.1625054   -6.6136344    176.57178  0.033903952  0.034554944            3 
  435000    1.1864074   -6.6411791    175.94438  0.033705821  0.034547537            2 
  436000    1.1900078   -6.5992621    177.52887   0.03393136  0.034540646            5 
  437000    1.1810556   -6.6593152    177.12627   0.03377694  0.034533381            2 
  438000    1.1616833   -6.5837662     178.2683  0.033917105  0.034526455            3 
  439000    1.1937568   -6.6530272    177.86781  0.033763821  0.034519303            4 
  440000    1.1718058   -6.6149526     178.6865   0.03384214  0.034511704            2 
  441000    1.1881345   -6.6073651    178.57656  0.033744625  0.034504226            3 
  442000    1.1665333   -6.6044387     179.2049  0.033786746  0.034497072            5 
  443000    1.2046873   -6.6931171    178.94697  0.033661959  0.034489168            4 
  444000    1.1952276   -6.6415763    180.24625  0.033830001  0.034481012            2 
  445000    1.1629937   -6.6053809    180.12428  0.033731139  0.034474475            7 
  446000    1.1996483   -6.5949426     181.1923  0.033855063  0.034467636            3 
  447000    1.1683305   -6.6235297    182.03305  0.033936065    0.0344606            3 
  448000    1.2161482   -6.6324838    181.96137  0.033846981  0.034453334            3 
  449000    1.1680084   -6.6482198     182.2546  0.033826022  0.034446906            5 
  450000    1.1567517   -6.6169789    182.83085  0.033857565  0.034440222            5 
  451000    1.1703727   -6.6721123    183.68581  0.033940468  0.034433832            2 
  452000    1.1680396   -6.6227504    183.98594  0.033920712  0.034428288            2 
  453000    1.1892431   -6.6685049    183.56699  0.033768763  0.034422828            5 
  454000    1.1676237   -6.6136616    184.86901  0.033933371  0.034417714            2 
  455000    1.1717064   -6.6168698    185.28356  0.033934718  0.034412329            1 
  456000    1.1635559    -6.659345    185.52836  0.033905036  0.034407242            4 
  457000    1.2065783   -6.6496515    185.70499  0.033863054  0.034402557            7 
  458000    1.1682059   -6.6828243      185.997  0.033842249   0.03439728            2 
  459000     1.184818   -6.6251464    186.76703   0.03390832  0.034391929            2 
  460000    1.2048855   -6.6556909    185.92213  0.033681545  0.034386394            3 
  461000    1.1621253   -6.6124565      187.465  0.033887383  0.034380338            2 
  462000    1.1727343   -6.6057177    188.16244  0.033939834   0.03437537            2 
  463000    1.1845583   -6.6491768    187.31001  0.033713104  0.034369586            6 
  464000    1.1664449   -6.6529231    188.09017  0.033780561  0.034362724            3 
  465000    1.1874723   -6.6119545    188.84037  0.033842359  0.034355912            2 
  466000    1.1538486   -6.6482067    188.66094  0.033737651  0.034348993            2 
  467000    1.1790479   -6.6113193    188.68615  0.033669905  0.034342747            3 
  468000    1.1646492   -6.6297853      189.998  0.033831553  0.034335609            4 
  469000    1.1860045   -6.6456126    189.80299  0.033724767  0.034328694            4 
  470000     1.150205   -6.6170758     189.9974  0.033687482  0.034322074            3 
  471000    1.1905252   -6.6319771    191.10653  0.033812195  0.034315384            2 
  472000    1.1607743   -6.6387947    190.98986   0.03371996  0.034308836            3 
  473000    1.1740854   -6.6225666    191.39201  0.033719523  0.034301985            3 
  474000    1.1544691   -6.6651365    191.48691  0.033665069  0.034294908            2 
  475000    1.1580143   -6.6543536    192.14646  0.033709905  0.034287875            1 
  476000    1.1746569   -6.6272432    192.71933  0.033739379   0.03428079            3 
  477000    1.1777253   -6.6594081    192.21449  0.033580448  0.034273583            3 
  478000    1.1967462   -6.6516167    192.58526  0.033574836  0.034265796            2 
  479000    1.2033559   -6.6615682    193.10436  0.033595052    0.0342581            4 
  480000    1.1992733   -6.6875881    193.06573  0.033518355  0.034249945            3 
  481000    1.1978334   -6.6152502    193.79934  0.033575769  0.034241662            7 
  482000    1.1861972   -6.6699575    193.65719  0.033481534  0.034233789            3 
  483000    1.1582135   -6.6536782    194.95858  0.033636745  0.034226683            8 
  484000    1.1831066   -6.6571001    195.76761  0.033706545  0.034219082            2 
  485000    1.1568861   -6.6548366    195.78305  0.033639699  0.034212106            2 
  486000    1.1777086   -6.6357586    196.68091  0.033724435  0.034205965            2 
  487000    1.1847301      -6.6835    196.45285  0.033616162   0.03419935            1 
  488000    1.1360717   -6.6051153    196.94185  0.033630781  0.034192181            2 
  489000     1.161995   -6.6753854     196.6587  0.033513752  0.034184818            3 
  490000     1.183483   -6.6808112    196.34548  0.033392088  0.034176603            5 
  491000    1.1836843   -6.7008025    196.54134  0.033357322   0.03416814            2 
  492000    1.1940914   -6.6325132    197.34238  0.033425199  0.034158969            1 
  493000    1.1671031   -6.6067133    198.30889  0.033520773  0.034150603            4 
  494000    1.1649178   -6.6479412     198.5607  0.033495394  0.034142968            4 
  495000    1.1754929   -6.6840621    198.20937  0.033368582  0.034134376            4 
  496000    1.1730035   -6.6708265     199.2833  0.033481737  0.034126283            5 
  497000    1.1624413   -6.6162461     199.7737  0.033496596  0.034118761            3 
  498000     1.192282   -6.6539118    200.38212  0.033531144  0.034110721            2 
  499000    1.1920318   -6.6613964    200.42371  0.033470894  0.034103589            2 
  500000    1.1757142   -6.6425334    201.24844  0.033541406  0.034096323            2 
  501000     1.173537   -6.7048093    200.49031  0.033348354  0.034088038            3 
  502000    1.1763398   -6.7068437    200.86511  0.033344142     0.034079            1 
  503000     1.187591   -6.6585449    201.75484  0.033425254  0.034070934            4 
  504000    1.1960623   -6.6442673    202.40343  0.033466176  0.034063312            3 
  505000    1.1709604   -6.6525035    202.52737  0.033420359  0.034055925            3 
  506000    1.1608015   -6.6325343    203.14727  0.033456402   0.03404828            3 
  507000    1.1790918   -6.6676964    202.60051  0.033300544  0.034040621            3 
  508000     1.186127   -6.6570211    203.34042  0.033356368  0.034032419            5 
  509000    1.1767315   -6.6211296    203.98614  0.033396552  0.034023319            2 
  510000    1.1846155   -6.6711153    203.57767  0.033264325  0.034014512            2 
  511000    1.1848632   -6.6618971    204.20688   0.03330184  0.034006574            8 
  512000    1.1802608   -6.7149121    204.23957  0.033242118  0.033997589            6 
  513000    1.1904806   -6.6515693    204.56558  0.033230275  0.033988786            3 
  514000    1.1658684   -6.6659584    205.85197  0.033374185  0.033980643            3 
  515000      1.17075     -6.64138    206.13769  0.033355614  0.033972199            1 
  516000    1.1389583   -6.6531559    206.58563  0.033363313  0.033964533            6 
  517000     1.150925   -6.6779063    206.26185  0.033246591  0.033955432            3 
  518000    1.1825121   -6.6555256    207.38859  0.033363673  0.033946981            3 
  519000    1.1462591   -6.6900252    206.74832  0.033196583  0.033939341            2 
  520000    1.1968902   -6.6680869    207.74225  0.033292028  0.033931601            4 
  521000    1.1768917   -6.6569336    208.75887  0.033390734  0.033924073            3 
  522000    1.1556035   -6.6341599    209.05185  0.033373539  0.033916888            3 
  523000    1.1655457   -6.6916045    209.59267    0.0333959  0.033909995            3 
  524000    1.1537762   -6.6944419    209.46396  0.033311698  0.033902783            4 
  525000     1.171694   -6.6794216    210.30117  0.033381138  0.033895226            2 
  526000     1.163542   -6.6444982    210.54132  0.033355722  0.033887944            4 
  527000    1.1617185   -6.6694408    210.69097  0.033316092  0.033880577            1 
  528000    1.1663014   -6.6509048    211.42594  0.033368994  0.033873463            3 
  529000     1.189822   -6.6274031    211.06952  0.033249767   0.03386634            3 
  530000    1.1818555   -6.6755015     212.0338  0.033338649  0.033858825            4 
  531000    1.1547803   -6.6457944    211.98603  0.033268366  0.033851343            3 
  532000    1.1745196   -6.6895459    212.45525  0.033279331  0.033844984            1 
  533000     1.178537   -6.6816122    212.67005  0.033250477  0.033838265            3 
  534000    1.1352527   -6.6718048    213.27341  0.033282368  0.033831234            3 
  535000    1.1598575   -6.7017985    212.69796  0.033130523  0.033823699            4 
  536000    1.1740976    -6.654686    215.10175  0.033442436  0.033816279            2 
  537000    1.1411091    -6.713724    213.53816  0.033137517  0.033809139            2 
  538000    1.1774787     -6.68601    214.78573  0.033269166  0.033802002            3 
  539000    1.1561186   -6.6835312    214.86774   0.03322012  0.033794896            2 
  540000    1.1379741   -6.6459545    216.53993  0.033416656  0.033788311            2 
  541000    1.1632455   -6.6722567    215.60836  0.033211393  0.033781594            2 
  542000    1.1811533   -6.6516342    216.83386  0.033338539  0.033775435            3 
  543000     1.159135   -6.7055041    215.62763  0.033092024  0.033768237            2 
  544000    1.1896077   -6.6749535    216.89959   0.03322604  0.033760764            3 
  545000    1.1776287   -6.6346683    217.44823  0.033248965  0.033753524           10 
  546000    1.1436221   -6.6913528    217.54351  0.033202611  0.033745888            2 
  547000    1.1410436   -6.6416258    218.75558  0.033326566  0.033739028            5 
  548000    1.1575418   -6.7003758    217.77977  0.033117362  0.033732018            3 
  549000    1.1521267   -6.6716123     219.1682   0.03326779  0.033724388            2 
  550000    1.1758706   -6.6700152    218.41277  0.033092844  0.033716675            2 
  551000    1.1675203   -6.6757022    219.30923  0.033168365  0.033709211            3 
  552000    1.1715462    -6.689914    219.15997  0.033085744  0.033701435            5 
  553000     1.158483   -6.7240343     219.4322  0.033066938  0.033693913            1 
  554000    1.1525814   -6.7002233    220.43295  0.033157785  0.033686089            4 
  555000    1.1664237   -6.6649703    221.12543  0.033202017  0.033679128            4 
  556000    1.1688221   -6.6886753     221.6365    0.0332189  0.033672841            6 
  557000    1.1774005   -6.6830316    221.49767   0.03313849  0.033665907            4 
  558000    1.1500466   -6.7073096    222.03435  0.033159252  0.033658532            3 
  559000    1.1547589   -6.6965098    222.52102  0.033172484  0.033651178            3 
  560000    1.1460483   -6.6868953    222.81713   0.03315731  0.033644352            3 
  561000    1.1926814   -6.6440862     223.8587  0.033252927  0.033638658            2 
  562000    1.1653245   -6.6974562    223.66384  0.033164863  0.033632109            2 
  563000    1.1401053   -6.7100326    223.46644  0.033076738  0.033625458            3 
  564000     1.157888   -6.6813896    224.05859  0.033105584  0.033618327            3 
  565000    1.1709201   -6.6775609    224.37042  0.033092983  0.033611365            3 
  566000    1.1621173   -6.6799666    224.69128  0.033081755  0.033603945            3 
  567000    1.1545767   -6.6748684    224.56763  0.033005236  0.033596464            3 
  568000    1.1631429   -6.6680399    225.87257  0.033138581  0.033589443            2 
  569000    1.1698429   -6.7029589    225.86267  0.033078891  0.033582392            2 
  570000    1.1671232   -6.7078915    226.08181  0.033052897  0.033575298            3 
  571000     1.159641   -6.7189554    226.19606  0.033011684  0.033568099            2 
  572000    1.1748751   -6.6855019     226.8546  0.033049913  0.033560394            7 
  573000    1.1792622   -6.7044223    227.28417  0.033054707  0.033552995            2 
  574000    1.1655466   -6.7117285     227.4057  0.033014765  0.033545333            2 
  575000    1.1680287   -6.7105168    227.35666   0.03295024  0.033537894            3 
  576000    1.1474018   -6.6869854    227.94752  0.032978518  0.033530381            3 
  577000    1.1811713   -6.7094186    228.15449  0.032951255  0.033522197            3 
  578000    1.1219456   -6.6579805     229.2502  0.033052221  0.033515096            2 
  579000    1.1585877   -6.7183122    229.27717  0.032999016  0.033508444            4 
  580000     1.148175   -6.7161736    229.51195  0.032975855  0.033501454            5 
  581000     1.171068   -6.6862476    230.62056  0.033078107  0.033494606            3 
  582000    1.1639861   -6.7072986    230.41522   0.03299187  0.033488239            2 
  583000    1.1885728   -6.7104036    231.02465  0.033022391  0.033482228            5 
  584000    1.1609676   -6.6982802    231.96493  0.033100018  0.033475703            2 
  585000    1.1503789   -6.7134948    231.05983  0.032914505  0.033470049            2 
  586000    1.1390964   -6.7289649    231.78152  0.032960967  0.033464378            3 
  587000    1.1436472   -6.6984653     233.4151  0.033136727  0.033458604            6 
  588000    1.1368984   -6.7153782    233.01726  0.033023989   0.03345234            1 
  589000    1.1714976   -6.6977052    233.72221  0.033067659  0.033446947            2 
  590000    1.1373308   -6.6517569    234.72084  0.033152661  0.033441616            2 
  591000    1.1584321   -6.6821557    234.63543  0.033084522  0.033436109            2 
  592000    1.1556225   -6.6964534    235.29969   0.03312214  0.033430815            5 
  593000    1.1372222   -6.6632737    236.39916  0.033220792  0.033425529            2 
  594000    1.1394603   -6.6895491    235.15279  0.032990009  0.033420111            3 
  595000    1.1669504   -6.7529704    235.81235   0.03302694  0.033414692            2 
  596000    1.1490636   -6.6810025    236.87771  0.033120485  0.033409126            3 
  597000      1.14625   -6.7223412    236.32611  0.032988011  0.033403853            2 
  598000    1.1358503     -6.73895    236.95689  0.033020749  0.033398146            3 
  599000      1.15872   -6.6905456    238.27714  0.033149296  0.033392764            2 
  600000    1.1713421   -6.7053279    238.02103  0.033058476  0.033386855           13 
  601000    1.1804174   -6.7070556    238.03207  0.033005001  0.033380785            2 
  602000    1.1483597   -6.6835182    238.62546  0.033032318  0.033374465            6 
  603000    1.1661186   -6.6828586    238.57867  0.032971071  0.033368489            3 
  604000    1.1769275   -6.7392458    238.28468  0.032875921  0.033362088            1 
  605000    1.1393817    -6.730936    239.74525  0.033022761  0.033355349            2 
  606000    1.1561588   -6.6737826     239.7207  0.032964893  0.033349454            9 
  607000    1.1721627   -6.6797234     240.6988  0.033044865  0.033343465            2 
  608000    1.1576143   -6.7207627    240.13483  0.032913217  0.033336899            4 
  609000     1.131268    -6.721513    240.56178  0.032917595   0.03332978            3 
  610000     1.130114    -6.682842    241.94651  0.033052801  0.033323495            3 
  611000    1.1653637    -6.730501    241.56955  0.032947293   0.03331776            3 
  612000    1.1356587    -6.661827    242.82575  0.033064508   0.03331234            2 
  613000    1.1678378   -6.6941269     242.5986   0.03297969  0.033307276            1 
  614000    1.1421865   -6.6850655    242.74757  0.032946196  0.033301501            2 
  615000    1.1884461   -6.7614648    242.31294  0.032833732  0.033295985            3 
  616000     1.169388   -6.6982054    244.38641  0.033060932  0.033290484           13 
  617000    1.1604187   -6.6938451    244.52595  0.033026195  0.033285443            2 
  618000    1.1669228   -6.6554375    244.76342  0.033004777  0.033280657            4 
  619000    1.1138058   -6.6726291    246.01704  0.033120226  0.033275991            4 
  620000    1.1553259   -6.6889033     246.6258  0.033148629  0.033271788            4 
  621000     1.151752   -6.7296851    246.49832  0.033078143  0.033267601            5 
  622000    1.1622037   -6.6619485    247.35569  0.033139829  0.033263392            3 
  623000     1.165308   -6.7555632    247.70567   0.03313345  0.033259764            2 
  624000     1.163186   -6.7238716     246.7043  0.032946622  0.033255583            2 
  625000    1.1833677   -6.7607144    247.44554  0.032992739  0.033250873            5 
  626000    1.1532217    -6.700194    248.72703  0.033110627   0.03324627            3 
  627000    1.1563753   -6.7195647    248.86394  0.033076015  0.033241932            3 
  628000    1.1342455   -6.7016096    248.42692  0.032965356  0.033237213            3 
  629000    1.1436802   -6.6879576    248.91235  0.032977259  0.033231959            4 
  630000    1.1421725   -6.6851281    249.62836  0.033019625  0.033226612            6 
  631000    1.1521131   -6.7057242    249.59195  0.032962487  0.033221932            3 
  632000    1.1504964   -6.7167048    249.46252  0.032893264   0.03321674            6 
  633000     1.178548   -6.7348789    249.78346  0.032883552  0.033211674            3 
  634000    1.1377488    -6.693891     250.8838  0.032976315  0.033206723            4 
  635000    1.1475565   -6.7155022    250.63788  0.032892111  0.033202388            7 
  636000    1.1475003   -6.6720594    251.50684  0.032954251  0.033197249            2 
  637000     1.146526   -6.7475783    251.72876  0.032931549  0.033191856            1 
  638000    1.1421086   -6.7483181    251.98184  0.032912988  0.033186757            4 
  639000    1.1259095   -6.7253661    252.78574   0.03296632  0.033182413            3 
  640000    1.1878777   -6.6629412    253.09875  0.032955567  0.033177702            3 
  641000    1.1460106   -6.7381724     252.8439  0.032871021  0.033173196            3 
  642000    1.1327575    -6.718532    252.77702   0.03281114  0.033167866            2 
  643000    1.1391542   -6.7364383    253.26923  0.032823902  0.033162301            9 
  644000    1.1414605   -6.6789609     254.7206   0.03296074  0.033157539            2 
  645000     1.144844   -6.7437273    253.61361  0.032766616  0.033152829            6 
  646000    1.1589144    -6.762144     254.3225   0.03280734  0.033147022            5 
  647000    1.1472697   -6.7178335    254.93311  0.032835279  0.033141768            5 
  648000    1.1468871   -6.7306759    254.69261   0.03275368  0.033136036            4 
  649000    1.1345397   -6.7549365    254.65173  0.032697963  0.033130079            5 
  650000    1.1422163   -6.7432818    255.43922  0.032748617  0.033124088            3 
  651000    1.1480555   -6.7804846    255.19829  0.032667472  0.033117923            2 
  652000    1.1420855   -6.7351324    256.61644  0.032798625  0.033111927            4 
  653000    1.1668298   -6.7519329    256.98969   0.03279603  0.033106261            3 
  654000    1.1586328   -6.7710436    256.62782  0.032699774  0.033100739            1 
  655000    1.1594704   -6.7253833     257.3757  0.032745001  0.033095179            3 
  656000    1.1439427   -6.7459578    257.90874  0.032762797  0.033089505            3 
  657000    1.1445385   -6.7436715    258.82178   0.03282874  0.033083608            4 
  658000    1.1515836   -6.7133002    259.11271  0.032815693  0.033077888            2 
  659000     1.149912   -6.7337925    259.44143  0.032807465  0.033072411            8 
  660000    1.1359693   -6.7319689    259.80751  0.032803979  0.033066908            3 
  661000    1.1572855   -6.7472635    259.79843  0.032753206  0.033061733            2 
  662000    1.1536558   -6.7452067    260.55036  0.032798384  0.033056284            3 
  663000    1.1266608   -6.7273696    260.90224  0.032793142  0.033050415            2 
  664000     1.150272   -6.7381604    261.41854  0.032808552  0.033045409            2 
  665000    1.1654509   -6.7125993    262.47774  0.032891947  0.033039922            2 
  666000    1.1447747   -6.7372418     261.8881  0.032768782  0.033034875            5 
  667000    1.1693253   -6.7049797    262.47617  0.032793124  0.033029942            2 
  668000    1.1528293   -6.7422579    261.97923   0.03268204  0.033024763            2 
  669000    1.1456168   -6.7444715    262.05171  0.032642216  0.033018526            3 
  670000    1.1550238   -6.6878063    263.58484  0.032784183  0.033012935            2 
  671000    1.1620579   -6.7420237    263.01689   0.03266479  0.033007358            1 
  672000    1.1213414   -6.7183512    264.10139  0.032750669  0.033001729            2 
  673000    1.1580372   -6.7479036    263.67579  0.032649305  0.032996125            2 
  674000    1.1389936   -6.7419409    264.17107  0.032662101  0.032990497            3 
  675000    1.1543308   -6.7135517    265.12325  0.032731266  0.032984985            2 
  676000    1.1344236   -6.7643958    264.91936  0.032657712  0.032979115            4 
  677000    1.1476202    -6.688473    266.80914   0.03284209  0.032973839            7 
  678000    1.1774497    -6.695298    265.76819  0.032665706  0.032968439            2 
  679000     1.154756   -6.7579354    265.18326  0.032545809  0.032962764            4 
  680000    1.1328844   -6.7368611    265.92493  0.032588839   0.03295643            2 
  681000    1.1367481   -6.7239833    267.87368  0.032779452  0.032950431            2 
  682000    1.1584666   -6.7399128    266.73271  0.032591973  0.032944369            4 
  683000    1.1418471   -6.7272469    267.44316  0.032630937  0.032938422            3 
  684000    1.1656496   -6.7548167    267.51887  0.032592454  0.032931951            6 
  685000    1.1366042   -6.6923801    268.17611   0.03262483  0.032925871            3 
  686000    1.1284533   -6.7682072    267.24551  0.032464226  0.032919579            2 
  687000    1.1668802   -6.7476923    267.70784  0.032473052  0.032912846            2 
  688000     1.149301   -6.7669972    267.75648  0.032431744   0.03290583            4 
  689000    1.1557338   -6.7634379    267.91511   0.03240386  0.032898847            1 
  690000    1.1415382   -6.7278287    268.31558  0.032405264  0.032891853            7 
  691000    1.1250575   -6.7259668    269.30828  0.032478084  0.032885194            3 
  692000    1.1272624   -6.7196473    270.42888  0.032566099  0.032878963            1 
  693000    1.1563238    -6.724272    271.09837  0.032599611  0.032872618            3 
  694000    1.1463831   -6.7515991    270.62619  0.032495941  0.032866663            2 
  695000    1.1431058    -6.764761    270.91343  0.032483625  0.032860491            5 
  696000    1.1551838   -6.7447354    272.13508  0.032583224  0.032853995            2 
  697000    1.1308552   -6.7443217    271.90615  0.032509104  0.032847862            3 
  698000    1.1380582   -6.7639243    271.69276  0.032437053  0.032841687            2 
  699000    1.1443831   -6.7351052    273.26727  0.032578358  0.032835455            2 
  700000    1.1341909   -6.7951482    271.63259  0.032337213  0.032828696            2 
  701000     1.131177   -6.7597466    271.75478  0.032305609  0.032821806            2 
  702000    1.1249618   -6.7495777    272.86378  0.032391237  0.032815191            5 
  703000    1.1504221   -6.7997789    272.27118  0.032274915  0.032807897            4 
  704000    1.1260523   -6.7206676    274.52878  0.032496304   0.03280112            2 
  705000    1.1584381   -6.7569095    274.52925  0.032450265  0.032794739            5 
  706000    1.1458812   -6.7449078    275.07879  0.032469168  0.032788293            1 
  707000    1.1538294   -6.7270212    275.57175  0.032481347  0.032782388            4 
  708000    1.1556194    -6.795098    275.51644  0.032428959  0.032776126            5 
  709000    1.1578824   -6.7906437    275.19826  0.032345823  0.032769947            7 
  710000    1.1454792   -6.7667627    276.34778  0.032435185  0.032763583           11 
  711000    1.1213848   -6.7648645    275.98629  0.032347197  0.032757404            6 
  712000    1.1636324   -6.7550094    277.43827  0.032471707  0.032751127            6 
  713000    1.1480197   -6.7257701    277.21362  0.032399909  0.032745388            3 
  714000    1.1493238   -6.7376399     278.3579  0.032488084  0.032739437            1 
  715000    1.1546518   -6.7532821    277.75276  0.032372117  0.032733202            2 
  716000    1.1448877   -6.8015425    277.23962  0.032267181  0.032727139            5 
  717000    1.1312233   -6.8098226    277.95486  0.032305307  0.032720324            4 
  718000    1.1392118   -6.7729486    277.28307  0.032182344   0.03271319            3 
  719000    1.1342419   -6.7271673    278.93775  0.032329363   0.03270628            2 
  720000    1.1402598   -6.7629633    278.51237  0.032235228  0.032699078            3 
  721000    1.1332451   -6.7190602    280.94801  0.032472031  0.032693008            3 
  722000    1.0987474   -6.7761512    280.09615  0.032328733  0.032686331            4 
  723000    1.1415494   -6.7137209    280.68491   0.03235188  0.032680051            3 
  724000    1.1274734   -6.7588047    280.38357   0.03227251  0.032673311            3 
  725000    1.1033114   -6.7358368    280.83489  0.032279873  0.032666454            5 
  726000    1.1224764   -6.7541603    281.54003  0.032316349  0.032659446            3 
  727000    1.1582624    -6.775555    280.92954  0.032201919    0.0326524            5 
  728000    1.1484673   -6.7379387     281.3994   0.03221147  0.032645167            2 
  729000    1.1452468    -6.766149    281.30378  0.032156353  0.032638115            4 
  730000    1.1471909   -6.7251656    282.69087  0.032270647  0.032630909            2 
  731000    1.1281333   -6.7377607    283.35046  0.032301694  0.032624063            3 
  732000    1.1434818   -6.7353842    281.88105  0.032090284  0.032617238            1 
  733000    1.1491691   -6.7429986    283.91541  0.032277786  0.032609831            3 
  734000    1.1069131   -6.7787242    283.88087   0.03222989  0.032602919            3 
  735000    1.1398466   -6.7622633    284.27823  0.032231091   0.03259637            4 
  736000    1.1298077   -6.7471727    284.30395  0.032190212  0.032589636            5 
  737000    1.1367832   -6.7614442    283.82582  0.032092471  0.032582906            5 
  738000    1.1638203   -6.7906664     284.5391  0.032129528  0.032575833            3 
  739000     1.129848   -6.7346429    285.85968  0.032234966  0.032569468            3 
  740000    1.1429828   -6.7390199    285.51337  0.032152407  0.032562918            2 
  741000    1.1398096    -6.729975    287.48046  0.032330237  0.032556155            2 
  742000    1.1270578   -6.7472056    286.40287  0.032165641  0.032549346            2 
  743000    1.1093365   -6.7840427    286.10017    0.0320884  0.032542058            5 
  744000    1.1465468   -6.7843892    285.85336  0.032017625  0.032534624            2 
  745000    1.1251646   -6.7610615    287.12515  0.032116908  0.032527616            2 
  746000    1.1240514   -6.7328031     287.6419  0.032131579    0.0325204            3 
  747000    1.1441133    -6.811027    286.61163  0.031973631  0.032513646            3 
  748000    1.1537086   -6.7561283    288.81655  0.032176532  0.032506446            5 
  749000    1.1122264   -6.7417245    289.32011  0.032189598  0.032499723            3 
  750000     1.114188   -6.7812701    289.32398  0.032147109  0.032492784            5 
  751000    1.1416285   -6.7614328    289.58236  0.032132974  0.032485984            3 
  752000    1.1087643   -6.7656635    290.57475  0.032200216  0.032479136            3 
  753000    1.1147948   -6.8026039    290.00774  0.032094703  0.032472585            1 
  754000     1.139437   -6.7579463    291.48869  0.032215815  0.032466202            2 
  755000    1.1420368   -6.7771342    290.63695  0.032079134  0.032459776            3 
  756000    1.1178779   -6.7720735    291.02499  0.032079474  0.032452874            4 
  757000    1.1245385   -6.7775803    290.77112   0.03200915  0.032446027            1 
  758000     1.124414   -6.7824291    290.87651  0.031978508  0.032438977            5 
  759000    1.1297301   -6.7387054    292.19738  0.032081399  0.032432091            2 
  760000    1.1230642   -6.7737274    291.83816  0.031999799  0.032424952            4 
  761000    1.1146759    -6.806234    291.65407   0.03193759  0.032417723            6 
  762000    1.1434301   -6.7642665    292.81317  0.032022437  0.032410484            3 
  763000    1.1221735   -6.7881989    293.20488   0.03202325  0.032403497            2 
  764000    1.1181211   -6.7757619    293.32052  0.031993948  0.032396133            2 
  765000     1.133191   -6.7659882    294.06938  0.032033701  0.032389465            2 
  766000     1.126628    -6.828002    292.92784  0.031867694  0.032382578            4 
  767000    1.1322645   -6.8058489    294.75255  0.032024397   0.03237527            3 
  768000    1.1104497   -6.7858536    294.81393  0.031989359  0.032368359            4 
  769000    1.1380427    -6.811392    294.60585  0.031925211  0.032360779            2 
  770000    1.1363983   -6.7988922    295.23367  0.031951696  0.032353131            3 
  771000    1.1375661    -6.776031    295.25802  0.031912886  0.032345978            5 
  772000    1.1382664   -6.7947772    295.65281  0.031914164   0.03233885            6 
  773000    1.1010962   -6.7279759    297.12791  0.032031901  0.032332371            5 
  774000    1.1310971   -6.7579138    296.32981  0.031904588  0.032326167            3 
  775000    1.1057089   -6.7776092    296.46608  0.031878073  0.032319239            3 
  776000    1.1260646   -6.7596908    297.00385  0.031894743  0.032312147            3 
  777000    1.1327682   -6.7636925    297.23294  0.031878264  0.032305249            4 
  778000    1.1203353    -6.800763    297.42144  0.031857481  0.032298271            3 
  779000    1.1254152   -6.7813622    297.78733  0.031855726  0.032291042            2 
  780000    1.1486585   -6.7895855    298.87977  0.031931599  0.032283848            3 
  781000    1.1207837   -6.7280217    299.24224   0.03192939  0.032276732            2 
  782000    1.1335671   -6.7657659    298.86957  0.031848846  0.032269715            6 
  783000    1.1457389   -6.7950468    298.32312  0.031750013  0.032262263            2 
  784000    1.1131005   -6.8070508    299.08516  0.031790514  0.032254979            4 
  785000     1.122586   -6.7522499    300.36371  0.031885745  0.032247751            3 
  786000    1.1095287   -6.7810817    298.93237  0.031693423  0.032240284            3 
  787000    1.1177283   -6.7717317    299.71029  0.031735524  0.032232547            4 
  788000    1.1369893   -6.7981418    299.74344  0.031698757  0.032224452            1 
  789000    1.1261901   -6.7774927    300.14772   0.03170128  0.032216445            4 
  790000    1.1392761   -6.7773604    300.01577  0.031647233  0.032207982            2 
  791000    1.1210403   -6.7849942    300.23368  0.031630181  0.032199557            6 
  792000    1.1364326   -6.7846677    299.99594  0.031565229  0.032191187            2 
  793000    1.1293791   -6.8106981    300.70038  0.031599451  0.032183029            4 
  794000    1.1228849   -6.7270263    302.54504  0.031753257  0.032175369            2 
  795000    1.1208081    -6.773222    303.51912  0.031815421   0.03216799            4 
  796000    1.1197506   -6.8079603    302.76106  0.031696091  0.032160713            3 
  797000    1.1132451    -6.784969    304.06305  0.031792456  0.032153339            2 
  798000    1.1466502   -6.7634198    304.35531  0.031783136  0.032146343            4 
  799000    1.1238629   -6.7773218    304.24815  0.031732181  0.032139227            2 
  800000    1.1225941   -6.7912931    305.31145  0.031803276  0.032131973            5 
  801000    1.1323106   -6.7880426    305.49491  0.031782658  0.032124451            1 
  802000     1.115342   -6.7321741    305.26457  0.031719095   0.03211761            6 
  803000     1.122443   -6.8062225    305.33773  0.031687186  0.032110577            1 
  804000    1.1433504    -6.744621    306.64995  0.031783784  0.032103375            3 
  805000    1.0932229   -6.7661695    306.35782   0.03171406  0.032096027            3 
  806000    1.1365221   -6.7855487    305.34292   0.03156978  0.032088695            3 
  807000    1.1410213     -6.77911    306.20127  0.031619297   0.03208134            2 
  808000    1.0955598   -6.7695342    307.53517  0.031717736  0.032073362            2 
  809000    1.1326755   -6.8537233    305.32776  0.031451149  0.032065168            1 
  810000     1.101122   -6.7902873    305.07303  0.031386114  0.032056895            4 
  811000    1.1222194   -6.7726687    306.28665  0.031472117  0.032048795            5 
  812000    1.1534292    -6.729611    308.29991  0.031639974  0.032040811            4 
  813000    1.1264356   -6.8095841    306.49255  0.031415801  0.032032402            3 
  814000    1.1412548   -6.8457981    306.08634   0.03133562  0.032023886            9 
  815000    1.1214871   -6.8225765    306.23053  0.031311915  0.032015124            2 
  816000    1.1375175   -6.8078515     307.2827  0.031380994  0.032006435            3 
  817000    1.1195898   -6.8235512    307.74577  0.031389817  0.031997715            3 
  818000    1.1215581   -6.8043729    307.39832  0.031316047   0.03198891            3 
  819000    1.1249464   -6.8096953    308.51179  0.031391106  0.031979909            6 
  820000    1.1031205   -6.7994374    308.73519  0.031375527    0.0319707            2 
  821000    1.1342028   -6.8189947    308.53254  0.031316742  0.031961289            3 
  822000    1.0957284    -6.827147    307.97469  0.031222089  0.031951546            3 
  823000    1.1116324   -6.8013151    309.64431  0.031353211  0.031942044            2 
  824000     1.117553   -6.7945285    310.10964   0.03136222  0.031932804            3 
  825000     1.135446    -6.790514    309.09292  0.031221507   0.03192354            5 
  826000     1.138044   -6.8427921    309.26985  0.031201559  0.031914362            3 
  827000    1.1175087   -6.8030203    310.66719  0.031304634  0.031905132            2 
  828000    1.1117993   -6.7930401    310.60888  0.031260958  0.031895583            2 
  829000    1.1245798   -6.8686145     308.9157  0.031053046  0.031885842            4 
  830000    1.1181375   -6.8159578    311.11416  0.031236361  0.031876256            5 
  831000    1.1248357   -6.7395888    310.89236   0.03117653  0.031866655            3 
  832000     1.127527   -6.8009235    311.24218  0.031174097  0.031857467            7 
  833000    1.1398851   -6.7858922    311.48534  0.031160998  0.031847753            4 
  834000    1.1264464   -6.8093779    311.89679  0.031164747   0.03183817            3 
  835000    1.0910914   -6.8105907    312.38753    0.0311764  0.031828731            3 
  836000    1.1197557   -6.8133521    311.40583  0.031041251   0.03181906            3 
  837000    1.1282299   -6.8265522    312.04752  0.031068053  0.031809487            4 
  838000    1.1353122   -6.7946108    313.57164  0.031182542  0.031800066            3 
  839000     1.142803   -6.7849574    312.93997  0.031082635  0.031790543            4 
  840000    1.1346772   -6.8402736    313.13967  0.031065444  0.031780576            4 
  841000    1.1245277   -6.7615757    313.63914  0.031077996  0.031770986            7 
  842000     1.091097   -6.7685458    313.54306  0.031031578  0.031761215            2 
  843000    1.0902894   -6.7904421    314.24079   0.03106374  0.031751435            3 
  844000    1.1214066   -6.8114351    314.02955  0.031006077   0.03174171            2 
  845000    1.1020259   -6.7875805    313.75589  0.030942395   0.03173158            2 
  846000    1.1291985   -6.8290395    314.63147  0.030992068  0.031721439            5 
  847000    1.1205559   -6.7763401    315.64621  0.031055314   0.03171156            4 
  848000    1.1273066   -6.7744809    316.28416  0.031081384  0.031701826            2 
  849000    1.1173638   -6.7857891    315.86433  0.031003566  0.031691651            2 
  850000    1.1154366   -6.8574338    314.76176  0.030858996  0.031681449            2 
  851000    1.1232504   -6.7972798    315.02043  0.030848064  0.031670942            5 
  852000    1.1031777   -6.8254248    315.59155  0.030867718  0.031660755            3 
  853000    1.1189026   -6.7948732    317.48741  0.031016746  0.031650532            1 
  854000    1.1180049   -6.8531399    315.73876  0.030809793  0.031640387            2 
  855000    1.1188909   -6.8531219    316.21359  0.030820038   0.03163015            3 
  856000     1.095198   -6.8010277    317.79001  0.030937501  0.031619947            1 
  857000     1.116302   -6.8292933     318.8162  0.031001186   0.03161043            4 
  858000    1.1274224   -6.8489689    318.82895  0.030966293  0.031600796            3 
  859000    1.1343982   -6.8246999    317.70655  0.030821357  0.031590929            2 
  860000    1.0884217   -6.8069043    318.56693  0.030868889  0.031580917            2 
  861000    1.0970996   -6.8115078    319.41018  0.030914652  0.031571188            3 
  862000    1.1355372   -6.8513285    319.20393  0.030858849  0.031561375            5 
  863000    1.1100369   -6.8342962    318.65195   0.03076979  0.031551038            3 
  864000    1.0846258   -6.7970278    320.39027  0.030901839  0.031541064            5 
  865000    1.1219124   -6.8419135    319.94911  0.030823614  0.031531604            5 
  866000     1.113836   -6.7736099    321.38997  0.030926672  0.031521832            2 
  867000    1.0976985   -6.7537247    322.24567  0.030973248  0.031512257            5 
  868000    1.0927918   -6.8097747    320.83607  0.030802234  0.031502627            4 
  869000    1.0941445   -6.8413725    320.54876  0.030739237  0.031492881            4 
  870000    1.0899185   -6.8782963    321.35936  0.030781548  0.031482869            4 
  871000    1.1150536   -6.7971496    323.03449  0.030906476  0.031473262            3 
  872000    1.1011976   -6.8452256    321.80486  0.030753522  0.031464024            3 
  873000    1.1120779   -6.7830232    322.85167   0.03081822  0.031454566            2 
  874000    1.1274325   -6.8462677    323.53749   0.03084835  0.031444951            4 
  875000    1.0877589   -6.7934714    324.50903  0.030905622   0.03143542            3 
  876000    1.1231731    -6.809028    323.65699  0.030789287    0.0314263            5 
  877000    1.1069108      -6.8155    323.83655  0.030771242  0.031417045            3 
  878000    1.1257222   -6.8433205    324.60196  0.030808842  0.031407842           15 
  879000    1.1179624   -6.8326026    325.37242  0.030846835  0.031398367            3 
  880000    1.1210449   -6.8598398    324.76694  0.030754445  0.031388958            3 
  881000    1.1173759   -6.8321447    325.37459  0.030777014  0.031379844            1 
  882000    1.0937657   -6.8527651    325.90856   0.03079257  0.031370741            2 
  883000    1.1032043   -6.8112985    326.07231  0.030773151  0.031361797            3 
  884000    1.0921714   -6.7896122    327.44528  0.030867768  0.031352998            2 
  885000    1.1260415   -6.8394838    327.39245  0.030827914  0.031344025            1 
  886000     1.088433   -6.7860832    328.03914  0.030853945  0.031335302            7 
  887000    1.0863609   -6.8306197    326.82549  0.030705138  0.031326404            2 
  888000    1.1319681   -6.8032977    328.16998  0.030796732  0.031317561            2 
  889000    1.1207505   -6.8421101    329.41685   0.03087897  0.031309009            7 
  890000    1.1030284   -6.8092303    329.35374  0.030838365  0.031300303            3 
  891000    1.1279256   -6.7986387    329.48169  0.030815721  0.031291656            4 
  892000    1.1089169   -6.8291712    329.41875  0.030775295  0.031282987            2 
  893000    1.0980037   -6.7993885     329.4753  0.030746108  0.031273599            3 
  894000     1.116132   -6.7884258    329.25835  0.030691494  0.031264398            2 
  895000     1.088368   -6.8202992    330.29241  0.030753483  0.031255433            4 
  896000    1.1292199   -6.7855532    331.64002  0.030844496  0.031246295            5 
  897000    1.1108681   -6.8539798    329.17865  0.030581443  0.031237038            4 
  898000    1.1196473   -6.7838748    330.20725   0.03064284  0.031227775            2 
  899000    1.1065772    -6.853806    329.75151   0.03056651  0.031218535            2 
  900000    1.0949247   -6.8564408    331.09991    0.0306574   0.03120921            7 
  901000    1.1066931   -6.8363919    331.46658  0.030657286  0.031199634            5 
  902000    1.1087534   -6.8485875    330.16049  0.030502632  0.031190413            2 
  903000     1.108634   -6.8212219    331.39413  0.030582699  0.031180626            6 
  904000    1.1021861   -6.8203778    331.62966  0.030570581  0.031171186            2 
  905000    1.1089828   -6.8539542    331.16378  0.030493902  0.031161702            2 
  906000    1.1185341    -6.855753    331.71955  0.030511364  0.031152142            3 
  907000    1.0801277   -6.8460531    331.81604   0.03048659  0.031142692            3 
  908000    1.0808341   -6.8689446    332.83451  0.030546485  0.031133212            2 
  909000    1.1136405   -6.8240035    334.04254  0.030623628  0.031123769            5 
  910000    1.1188257   -6.8537976    333.22265  0.030514895  0.031114496            2 
  911000    1.1193155   -6.8208951    334.46441  0.030594988   0.03110535            2 
  912000    1.0762119    -6.832231    333.18158  0.030444223  0.031096283            4 
  913000    1.0943349    -6.813236    334.84217  0.030562447  0.031087152            2 
  914000     1.100894   -6.8030911    336.08383  0.030642216  0.031078362            4 
  915000     1.095181   -6.8715075    333.82942  0.030403408  0.031069213            6 
  916000    1.1079094   -6.7718176    337.20643   0.03067744  0.031060201            2 
  917000    1.1027596   -6.8409161    335.09235  0.030451867  0.031051332            6 
  918000    1.0998998   -6.8609922    336.47249  0.030543981   0.03104233            6 
  919000    1.1020305   -6.8509451    335.85205  0.030454484  0.031033026            3 
  920000    1.1345852   -6.8347685    337.43682  0.030564929  0.031024179            3 
  921000    1.0916353   -6.8275277     337.3457  0.030523498  0.031015674            4 
  922000     1.096568   -6.8844014    338.15046  0.030563129  0.031007172            2 
  923000    1.0848499   -6.7925751    339.03569  0.030609939  0.030998784            2 
  924000    1.0877316   -6.7995602    340.00084  0.030663857  0.030990768            5 
  925000    1.0961461   -6.8119335    339.59274   0.03059394  0.030982553            2 
  926000    1.1071918   -6.8220259    338.51453  0.030463871  0.030973922            3 
  927000     1.126075   -6.8180064    340.22578  0.030584842  0.030965502            5 
  928000    1.0715622   -6.8198633    340.57636  0.030583365  0.030957021            5 
  929000    1.1049918   -6.8762688    338.65084  0.030377721  0.030948081            1 
  930000    1.0808831   -6.8682095    338.34642   0.03031778  0.030939072            3 
  931000    1.1044209   -6.8733071    340.14428   0.03044614  0.030930356            2 
  932000    1.1111893   -6.8379998    340.22875  0.030421026  0.030921856            5 
  933000    1.0967925    -6.869224    340.52567  0.030414941  0.030913132            5 
  934000    1.1044682   -6.8736146    340.46068  0.030376578  0.030904495            3 
  935000    1.1032482   -6.8476712    341.51194  0.030437784  0.030895873            5 
  936000    1.0803536   -6.8550792    341.61718  0.030414635  0.030887094            2 
  937000    1.1418517   -6.8594034    341.61737  0.030382192  0.030877767            3 
  938000    1.0803932   -6.8705552    342.32084  0.030412299  0.030868451            7 
  939000    1.1031428   -6.8161139    342.55461  0.030400658  0.030859344            4 
  940000    1.1243465   -6.8779028    340.54775  0.030190403  0.030850361            3 
  941000    1.0791343   -6.8657703     342.3996  0.030322317  0.030841558            4 
  942000    1.1076187   -6.8003103    343.53779  0.030390816  0.030832782            6 
  943000    1.1180766   -6.8797891    342.09274  0.030230889  0.030824031            6 
  944000    1.0749544   -6.8553789    342.68307  0.030250977  0.030815118            2 
  945000    1.1046115   -6.8481289    344.55859  0.030384355  0.030806485            2 
  946000    1.1067778    -6.795533    345.63526  0.030447081  0.030797883            2 
  947000    1.1063149   -6.8516901    344.56586  0.030320825  0.030789297            3 
  948000    1.1125177   -6.8276072    344.42661    0.0302766  0.030780559            3 
  949000    1.1205787   -6.8773724    344.61602  0.030261329  0.030771752            4 
  950000    1.0833174   -6.8817554    344.22858   0.03019549  0.030762847            2 
  951000    1.0777512   -6.8422211    344.60801  0.030196986  0.030754122            2 
  952000    1.1239193   -6.8393463    345.29723  0.030225598  0.030745169            2 
  953000     1.117298    -6.843077    345.27606   0.03019203    0.0307363            4 
  954000    1.1225845   -6.8116004    346.71827  0.030286362  0.030727368            4 
  955000    1.1005045   -6.8480791    346.04773  0.030196137  0.030718203            3 
  956000    1.0970098   -6.8714924    346.16528  0.030174798  0.030708874            4 
  957000    1.1035652   -6.8572712    345.40354  0.030076936  0.030699492            8 
  958000    1.1242363   -6.8360116    346.99344  0.030183841  0.030690046            3 
  959000    1.0810652    -6.862833     347.3323  0.030181813  0.030680776            4 
  960000    1.1042243   -6.8257081    347.78968  0.030190076  0.030671654            1 
  961000    1.1030354   -6.8642784    346.40787  0.030038837  0.030662632            5 
  962000    1.0886782   -6.9017878    346.83258  0.030044402  0.030653275            3 
  963000    1.0908184   -6.8391817    348.35139  0.030144634  0.030643938            2 
  964000    1.0850796   -6.8032465    348.07744  0.030089682  0.030634692            6 
  965000    1.0897859   -6.8161483    348.70388  0.030112598  0.030625424            4 
  966000    1.0925665   -6.8559536    348.26392  0.030043471  0.030616097            5 
  967000     1.097467   -6.8256728    348.35875  0.030020575  0.030606606            5 
  968000    1.0887156   -6.8533356    347.74073  0.029936358  0.030596881            4 
  969000    1.0999474    -6.857007    348.65336  0.029983949  0.030587106            3 
  970000    1.0745859   -6.8666088    348.30439  0.029923058  0.030577323            2 
  971000    1.0915976   -6.8642285    348.47877  0.029907207  0.030567431            3 
  972000    1.0882844   -6.8414342    348.78668  0.029902836  0.030557866            2 
  973000    1.0960633   -6.8770392    350.11985  0.029986284  0.030548442            3 
  974000    1.1148503    -6.891323    348.55973  0.029822017  0.030538812            4 
  975000    1.1018145   -6.8373445    350.36046  0.029945339  0.030529021            6 
  976000    1.1029161   -6.8870407    350.24008  0.029904378  0.030519669            3 
  977000    1.1273021    -6.825518    351.85487  0.030011503  0.030510114            4 
  978000    1.0750397   -6.8777105    350.50179  0.029865524  0.030500644            4 
  979000     1.085442    -6.855982    351.12694  0.029888231  0.030490907            6 
  980000    1.0982595   -6.8987383    351.25792  0.029868871  0.030480797            2 
  981000    1.0864011   -6.9137025     351.6364  0.029870574  0.030470889            4 
  982000    1.0921442   -6.8549509    352.13708  0.029882644  0.030461222            3 
  983000    1.1225388   -6.8580893    352.22713  0.029859879  0.030451942            3 
  984000    1.1016198   -6.8994676    353.19395  0.029911412  0.030442281            3 
  985000    1.1113645   -6.8826545     352.6421  0.029834357  0.030432857            1 
  986000    1.1112058   -6.8182967    355.03156  0.030006048  0.030423473            2 
  987000    1.0672601    -6.856847    354.16542  0.029902517  0.030414408            4 
  988000    1.0913758   -6.9186071     353.1408   0.02978583  0.030405146            3 
  989000    1.1054883   -6.8868008    354.37535  0.029859736  0.030395582            2 
  990000    1.1050803   -6.9080102    352.89803  0.029705221  0.030385894            3 
  991000    1.0726405   -6.8876942    353.20858  0.029701361  0.030376218            5 
  992000    1.1000598   -6.8931617     353.0762  0.029660299  0.030366176            4 
  993000    1.1109233   -6.9106924    353.80013  0.029691182  0.030356165            5 
  994000    1.0793528   -6.8910902    354.77689    0.0297432  0.030346119            4 
  995000    1.1003166    -6.891743    354.77877  0.029713464  0.030336421            2 
  996000    1.1064605   -6.8397207    356.40816   0.02981996  0.030326636            3 
  997000    1.0929174   -6.8703324    355.54089   0.02971756  0.030316801            3 
  998000     1.102634   -6.8898314    355.32898  0.029670089  0.030306935            3 
  999000    1.0936113   -6.8795462     356.4465  0.029733609  0.030297231            6 
 1000000    1.1012616   -6.8797567    357.02621  0.029752185  0.030287256            3 
 1001000    1.0969236   -6.8989674    356.66691   0.02969255  0.030277451            4 
 1002000    1.0960345   -6.8534594    357.88905  0.029764558  0.030267757            3 
 1003000    1.1074001   -6.8581899    357.37122  0.029691859  0.030258277            2 
 1004000    1.0630697   -6.8825745    357.23298  0.029650811  0.030248331            7 
 1005000     1.081391   -6.9022354    356.01774  0.029520542  0.030238192            6 
 1006000    1.0794469   -6.8963639    357.80742  0.029639449  0.030228268            6 
 1007000    1.1043675   -6.8868004    358.54174  0.029670783  0.030218202            2 
 1008000    1.1283241   -6.8727569    358.48325  0.029636512  0.030208258            3 
 1009000    1.1073547   -6.8954449    358.15623  0.029580132  0.030198131            2 
 1010000    1.0957527    -6.874481     358.6219  0.029589265  0.030188236            3 
 1011000    1.0949619   -6.8894965    358.96356   0.02958816  0.030178165            4 
 1012000    1.0955181   -6.8911551    359.03968  0.029565191  0.030168253            4 
 1013000    1.0951061   -6.8623332    359.01374  0.029533871  0.030158482            8 
 1014000    1.0969284    -6.913401    359.33539  0.029531179  0.030148439            4 
 1015000    1.0699323   -6.9305643    359.23081  0.029493498  0.030138707            3 
 1016000    1.0956721   -6.8103615    361.17104  0.029623609  0.030128861            3 
 1017000    1.0956542   -6.8675282    360.70901  0.029556621  0.030119288            4 
 1018000    1.1015856   -6.8887505    360.90476  0.029543612  0.030109754            2 
 1019000    1.1087774   -6.8412918     361.4855  0.029562111  0.030100231            1 
 1020000     1.087824    -6.862569    361.41741  0.029527566  0.030090713            5 
 1021000    1.1095007   -6.8588456    362.26768  0.029568044  0.030081438            3 
 1022000    1.0969313   -6.8977516    362.55938  0.029562898  0.030072017            7 
 1023000    1.0946444   -6.9440668     361.3879  0.029438571  0.030062346            3 
 1024000     1.075957   -6.8973468    362.28115  0.029482515  0.030052871            4 
 1025000     1.082601   -6.8852313    362.27211  0.029453017  0.030043462            3 
 1026000    1.0854449   -6.8590838    364.04901  0.029568633  0.030034339            3 
 1027000    1.0694634   -6.8755613    364.28482  0.029558976  0.030025034            7 
 1028000    1.0812239   -6.8888585    363.84715  0.029494743  0.030015914            3 
 1029000    1.0684338   -6.9081728    364.77254  0.029541022  0.030006634            2 
 1030000    1.0950558   -6.8818673    364.97667  0.029528857  0.029997579            5 
 1031000    1.1032181   -6.8746983    365.40931  0.029535185  0.029988606            7 
 1032000    1.1005786   -6.8878149    365.71876  0.029531554  0.029979867            5 
 1033000    1.0812637   -6.8819304    367.49521  0.029646274  0.029971115            4 
 1034000    1.0836556   -6.8736086    367.79146  0.029641478  0.029962839            3 
 1035000    1.0935005   -6.8711097    368.04152  0.029632973  0.029954292            3 
 1036000    1.0790326    -6.851987    368.33286  0.029627804  0.029945825            4 
 1037000    1.0768726    -6.871955    367.62269  0.029542164  0.029937662            4 
 1038000    1.0927732   -6.9237015    367.67587  0.029517973  0.029929262            6 
 1039000    1.0885841   -6.9049895     368.2887  0.029538715  0.029920663            4 
 1040000    1.0917842   -6.9021993    368.37002  0.029516829  0.029912126            5 
 1041000    1.0881431   -6.8924779    367.82298  0.029444683  0.029903633            4 
 1042000    1.0707035    -6.891448    368.22237  0.029448366  0.029895111            4 
 1043000    1.0779664   -6.8844046    368.42405  0.029436246  0.029886386            3 
 1044000    1.0948565   -6.9274399    368.17633  0.029388277  0.029877432            2 
 1045000    1.0867914   -6.9015028    369.62677  0.029475819  0.029868467            3 
 1046000    1.0520306   -6.9202827    368.70795  0.029374439  0.029859468            2 
 1047000    1.0993175   -6.9251136    369.86942  0.029438827  0.029850549            4 
 1048000    1.0802242   -6.8907334    371.02977  0.029503003  0.029841707            3 
 1049000    1.0685362   -6.9181488    370.87055   0.02946223  0.029832759            2 
 1050000    1.0858289   -6.9242758     369.7997  0.029349182  0.029823738            3 
 1051000    1.0771204    -6.964319    369.68488  0.029312154  0.029814759            4 
 1052000    1.0511085   -6.9296028    370.67339  0.029362594   0.02980591            1 
 1053000    1.0602587   -6.8615295    373.89132  0.029589373  0.029797087            5 
 1054000    1.0891784   -6.9308643    371.49949  0.029372193  0.029788453            6 
 1055000    1.0956877    -6.904594     371.2309  0.029323136  0.029779744            7 
 1056000    1.0829154   -6.8828194    372.68481  0.029410102  0.029771061            4 
 1057000    1.0733088   -6.9636891    371.67114   0.02930236  0.029762262            3 
 1058000     1.089785   -6.8731722    373.36417  0.029408016   0.02975354            5 
 1059000    1.0674679   -6.9138761    373.63046  0.029401201  0.029745036            7 
 1060000    1.0888174   -6.9108829    372.75775  0.029304855  0.029736391            3 
 1061000    1.0856657   -6.8936043    374.13531  0.029385431  0.029727762            4 
 1062000    1.0941921   -6.9097591    373.82253  0.029333218  0.029719219            3 
 1063000    1.1016572   -6.8967732    374.70628  0.029374904   0.02971084            3 
 1064000    1.0901075   -6.9275045    373.97922  0.029290353  0.029702073            5 
 1065000    1.0554418   -6.8483231    376.00197  0.029421124   0.02969353            8 
 1066000    1.0833524   -6.9451973    373.59829   0.02920562  0.029684709            6 
 1067000    1.0867189   -6.8961638    376.20289  0.029381669  0.029675819            2 
 1068000    1.0808736   -6.8752787    375.98266  0.029336974  0.029667119            3 
 1069000    1.0870106   -6.9356665    373.00237  0.029077204  0.029658027            3 
 1070000     1.102348   -6.9088358    374.83618  0.029192849  0.029648799            4 
 1071000    1.0751908   -6.8758137    374.47971  0.029137855  0.029639452            3 
 1072000    1.0741439    -6.904589    375.25961    0.0291713  0.029630219            5 
 1073000    1.0368185   -6.9250659    374.43093  0.029079755  0.029620629            3 
 1074000    1.0656309   -6.9393955    374.54949  0.029061879  0.029610869            2 
 1075000    1.0579686   -6.8671887    374.84906  0.029058067  0.029601572            3 
 1076000    1.0765512   -6.9111265    375.51963  0.029082995  0.029592152            4 
 1077000    1.0943753    -6.896404    375.87567   0.02908354  0.029582873            2 
 1078000    1.0904406   -6.9218896    376.06949  0.029071544  0.029573478            5 
 1079000    1.0738098   -6.8916464    377.41514  0.029148528  0.029564278            4 
 1080000     1.098415   -6.9205462    376.65718  0.029063054  0.029554837            3 
 1081000    1.0615439   -6.8921376    377.81108  0.029125122   0.02954549            2 
 1082000    1.0822456   -6.9458237    376.42955  0.028991801   0.02953609            4 
 1083000    1.0790026   -6.9071529    377.70686  0.029063316   0.02952642            6 
 1084000     1.054587   -6.9290605    378.56211  0.029102253  0.029517047            4 
 1085000    1.0620751   -6.8906996     379.0055  0.029109486  0.029507867            4 
 1086000    1.0867692   -6.9012872    378.84052  0.029070021  0.029498875            3 
 1087000    1.0764231   -6.9278014    379.51025  0.029094622  0.029489828            5 
 1088000    1.0626596   -6.8927164    379.88984  0.029096954  0.029480778            4 
 1089000    1.0894103   -6.8543549    381.52767  0.029195567  0.029471913            4 
 1090000    1.0769137   -6.9245402    378.42133  0.028931295   0.02946286            1 
 1091000    1.0616327   -6.9073547    378.86431  0.028938612  0.029453676            3 
 1092000     1.079003   -6.8855673    380.28141  0.029020254  0.029444409            3 
 1093000    1.0998798   -6.9402159    379.37689   0.02892474  0.029435247            3 
 1094000    1.0934104   -6.8769263    380.34693  0.028972192  0.029425934            7 
 1095000     1.076723   -6.9370411    379.71856  0.028897911  0.029416884            3 
 1096000    1.0762703   -6.8709599    381.96566  0.029042401  0.029407744            4 
 1097000    1.0705148   -6.9057265    381.18391  0.028956541  0.029398699            6 
 1098000    1.0661642   -6.9316413    380.05362  0.028844385  0.029389541            4 
 1099000    1.0840032   -6.8701002    382.76087   0.02902342  0.029380084            3 
 1100000    1.0424886   -6.8723903    382.41928  0.028971158  0.029370859            4 
 1101000    1.0779263   -6.8970438    381.24338  0.028855841  0.029361478            3 
 1102000    1.0408393   -6.8957663    381.95232  0.028883266     0.029352            7 
 1103000    1.0684264   -6.8951725    382.60081  0.028906075  0.029342512            3 
 1104000    1.0771934    -6.896643    382.37289  0.028862688  0.029333216            5 
 1105000    1.0643959   -6.9151969    381.87102   0.02879872  0.029323914            2 
 1106000    1.0686993   -6.9396956    381.85202  0.028771249   0.02931454            3 
 1107000    1.0893027   -6.9184878    382.42605  0.028788471  0.029304962            3 
 1108000    1.0511866   -6.9346237    383.28198  0.028826864  0.029295709            4 
 1109000     1.099706   -6.9252875    383.47041  0.028815029  0.029286358            4 
 1110000    1.0754141   -6.9094928    384.38567  0.028857783  0.029276984            4 
 1111000    1.0724467   -6.8948089    384.64939  0.028851589  0.029267616            3 
 1112000    1.0887634   -6.9546713    384.19413  0.028791527  0.029258405            2 
 1113000    1.0738193   -6.9058966    384.93415  0.028821066  0.029249246            5 
 1114000    1.1169051   -6.9363027    385.05517  0.028804247  0.029239987            3 
 1115000    1.0660914   -6.9200834    385.69337  0.028826111  0.029230871            3 
 1116000    1.0845404    -6.929248    386.30078  0.028845638  0.029222078            8 
 1117000    1.0687605     -6.87695    386.73661  0.028852328   0.02921313            2 
 1118000    1.0479658   -6.8845796    387.60369  0.028891152  0.029204217           12 
 1119000    1.0699813   -6.9243083    387.11175  0.028828698  0.029195323            3 
 1120000    1.1015795   -6.9309752    386.89175  0.028786588  0.029186301            4 
 1121000    1.0581781   -6.9200167    387.14213  0.028779522  0.029177268            4 
 1122000    1.0678978   -6.9136294    387.14349  0.028753973  0.029168322            5 
 1123000    1.0696658   -6.9166887    388.21818  0.028808117  0.029159326            4 
 1124000    1.0805364   -6.8853952    389.19054  0.028854578  0.029150433            3 
 1125000    1.0472554   -6.9589658    387.62224  0.028712758  0.029141622            3 
 1126000    1.0549592   -6.8982535    388.66585  0.028764494  0.029132839            4 
 1127000    1.0932679   -6.9200031    389.09372  0.028770609  0.029124143            3 
 1128000    1.0692133   -6.9515302    389.00429  0.028738496  0.029115227            7 
 1129000    1.0426279   -6.9436066    389.09036  0.028719395  0.029106264            3 
 1130000    1.0634121   -6.9102731    390.60649  0.028805788  0.029097513            2 
 1131000    1.0769355   -6.9448389    390.91168  0.028802806  0.029088675            4 
 1132000    1.0689127   -6.9393371    389.48266  0.028672163  0.029079594            3 
 1133000    1.0782394   -6.8685787    391.97881  0.028830451  0.029070735            4 
 1134000    1.0670894   -6.9517033    390.63002   0.02870591  0.029062029            6 
 1135000    1.0925039   -6.9086742    391.04686  0.028711223  0.029053204            7 
 1136000    1.0662639   -6.9274353    390.18199  0.028622505  0.029044344            3 
 1137000    1.0570571   -6.9069258    391.77147  0.028713828  0.029035365            4 
 1138000    1.0736969   -6.9302771    390.71559  0.028611277  0.029026285            3 
 1139000    1.0584287   -6.9370014    391.17055  0.028619443  0.029017411            4 
 1140000     1.059128   -6.9566137    391.96632  0.028652509  0.029008369            5 
 1141000    1.0880184   -6.9469502    391.34943  0.028582342  0.028999527            8 
 1142000    1.0813596    -6.974255    391.96336  0.028602113  0.028990657            4 
 1143000    1.0431377   -6.9390932    392.35856  0.028605902  0.028981657            4 
 1144000    1.0687821     -6.93495    392.29432  0.028576218  0.028972698            8 
 1145000    1.0651368   -6.9619027    391.11123  0.028465155  0.028963502            3 
 1146000    1.0790912    -7.021921    391.19375  0.028446317  0.028954345            4 
 1147000    1.0651052   -6.9285441    394.79482  0.028683146  0.028945395            4 
 1148000    1.0699564   -6.9262537    393.85089  0.028589641  0.028936714            4 
 1149000    1.0758439   -6.9301053    394.38826  0.028603732  0.028927991            2 
 1150000    1.0751316   -6.9427359     394.9283  0.028617993  0.028919196            2 
 1151000    1.0738626   -6.8853269    395.45014  0.028630911  0.028910743            3 
 1152000    1.0455852   -6.9557938    395.90862  0.028639223  0.028902705            5 
 1153000    1.0791972    -6.966493    396.60587  0.028664778  0.028894523            7 
 1154000    1.0805334    -6.942922    395.38664  0.028551895  0.028886178            3 
 1155000    1.0714706    -6.922796    396.09468   0.02857826  0.028877709            2 
 1156000    1.0805638   -6.9555829    394.84371  0.028463358  0.028869266            2 
 1157000    1.0494983   -6.9340302    396.68999  0.028571737  0.028860589            3 
 1158000    1.0936808   -6.9438648    396.71564  0.028548909  0.028852016            6 
 1159000    1.0843918   -6.9464219    396.84918  0.028533878  0.028843438            4 
 1160000    1.0387824   -6.9770947    395.80936   0.02843458  0.028834748            1 
 1161000    1.0822956   -6.9565351    397.37188  0.028522242  0.028826182            4 
 1162000    1.0777875   -6.9188378    398.68055  0.028591549  0.028817898            4 
 1163000    1.0677612    -6.942724    398.33273  0.028542041  0.028809489            3 
 1164000    1.0991471   -6.9374667    399.75957  0.028619671  0.028801371            2 
 1165000    1.0657716    -6.916859    398.08598  0.028475392  0.028793126            3 
 1166000    1.0678107   -6.9366813    398.61778  0.028488978  0.028784746            3 
 1167000    1.0818915   -6.9663008    398.02801  0.028422451  0.028776092            5 
 1168000    1.0618909   -6.9167256    398.92498  0.028462113  0.028767356            2 
 1169000    1.0644268   -6.9743756     398.3507  0.028396827  0.028758805            4 
 1170000    1.0717647   -6.9393522    399.72655  0.028470552  0.028750228            6 
 1171000    1.0647668   -6.9802664    398.92207  0.028388989  0.028741448            3 
 1172000    1.0576288   -6.8897362    400.61387  0.028485059  0.028732747           10 
 1173000    1.0518618    -6.953937    399.45755  0.028378626  0.028724162            5 
 1174000    1.0640412   -6.9472346    401.08037  0.028469646  0.028715586            3 
 1175000    1.0606304   -6.9979217     399.6426  0.028343447  0.028706843            3 
 1176000    1.0580729   -6.9474441    401.33112  0.028438997  0.028698256            7 
 1177000    1.0706796   -6.9380968    401.07502  0.028396702  0.028689874            4 
 1178000     1.052514   -6.9753572    401.74537  0.028420017  0.028681408            3 
 1179000    1.0635229    -6.931083    402.06241  0.028418321  0.028672922            2 
 1180000    1.0700924   -6.9358954    402.38164  0.028416783  0.028664503            5 
 1181000    1.0570599   -6.9774054    402.67869  0.028413681  0.028656211            2 
 1182000    1.0728543   -6.9537981    403.33286  0.028435763  0.028647819            3 
 1183000     1.067669   -6.9332567    402.64918  0.028363566  0.028639391            3 
 1184000    1.0582691   -6.9933672    401.40122  0.028251775  0.028631065            3 
 1185000    1.0756541   -6.9587437    403.67583  0.028387892  0.028622635            2 
 1186000    1.0566314   -6.9171861    404.13566  0.028396266  0.028614379            6 
 1187000    1.0559037   -6.9312048    405.42469   0.02846284  0.028606329            3 
 1188000    1.0559945   -6.9414237    403.80295  0.028325123  0.028598201            4 
 1189000    1.0434793   -6.9447233    405.10295  0.028392413  0.028590123            3 
 1190000    1.0622732   -6.9469382    404.65068  0.028336883  0.028581787            4 
 1191000    1.0612294   -6.9454163     405.9739  0.028405675   0.02857372            3 
 1192000    1.0981762   -6.9539846    405.02748  0.028315679  0.028565616            4 
 1193000    1.0674392   -6.9533074    406.39332  0.028387351  0.028557439            5 
 1194000     1.051237    -6.958241    405.39316  0.028293771  0.028549145           10 
 1195000    1.0654051   -7.0138391    404.73665  0.028224313  0.028540743            2 
 1196000    1.0751351   -6.9706762    405.35984  0.028244136  0.028532281            2 
 1197000    1.0461426   -6.9442159    406.32016  0.028287396  0.028524104            5 
 1198000    1.0722045   -6.9316308    407.36243  0.028336285  0.028516121            3 
 1199000    1.0789204   -6.9561034    406.75825  0.028270659  0.028507977            5 
 1200000    1.0650482   -6.9193833    407.16547   0.02827538  0.028499726            2 
 1201000    1.0566146   -6.9826373    407.19425  0.028253834   0.02849152            4 
 1202000    1.0806359   -6.9391132    408.13021  0.028295217  0.028483358            3 
 1203000    1.0251979   -6.9675041    406.42221  0.028153381  0.028475165            2 
 1204000    1.0595172   -6.9308149    409.82549  0.028365552  0.028467012            5 
 1205000    1.0531833   -6.9328091    408.24065   0.02823241  0.028458938            4 
 1206000    1.0604651   -6.9552469    409.44781  0.028292414  0.028450797            4 
 1207000    1.0736326   -6.9587146    408.82533  0.028225996  0.028442661            5 
 1208000    1.0354941    -6.938745    408.89703  0.028207577  0.028434424            2 
 1209000    1.0450721   -6.9614196    408.35788  0.028147083  0.028426171            2 
 1210000    1.0579128   -6.9535414    410.72615  0.028286925  0.028418105            3 
 1211000     1.044467   -6.9659492    410.18377  0.028226243  0.028409981            4 
 1212000    1.0571816   -6.9778389    410.12759  0.028199092   0.02840185            4 
 1213000    1.0377786   -6.9447739    411.36272  0.028260698  0.028393913            4 
 1214000    1.0657502   -6.9688778    410.82604  0.028200579  0.028386048            5 
 1215000    1.0472884   -6.9369535    411.20861  0.028203608  0.028378205            2 
 1216000    1.0410288    -6.941184    413.31382  0.028324686  0.028370544            4 
 1217000    1.0545979   -6.9790504    411.93542  0.028207027  0.028362869            4 
 1218000    1.0493398   -6.9773052    411.39417  0.028146837  0.028355187            4 
 1219000    1.0474769   -6.9472636    412.68992  0.028212327  0.028347437            3 
 1220000    1.0584655   -6.9748782    413.38706  0.028236821  0.028339771            4 
 1221000    1.0395885    -6.958422    412.75075  0.028170267  0.028332146            5 
 1222000    1.0417047   -6.9741847     414.2979  0.028252721  0.028324497            3 
 1223000    1.0488492   -6.9679376    413.36499  0.028166053  0.028316796            3 
 1224000    1.0594207   -6.9561315     414.0499  0.028189672  0.028309134            5 
 1225000    1.0625328   -6.9367921    413.89532  0.028156144  0.028301401            2 
 1226000    1.0624893   -6.9403842    414.72401  0.028189506  0.028293745            4 
 1227000    1.0541788   -6.9473019    415.02343  0.028186867  0.028286161            2 
 1228000    1.0540567   -6.9452278    415.03149  0.028164461  0.028278399            3 
 1229000    1.0432508   -6.9657801    413.46531  0.028035348  0.028270481            3 
 1230000    1.0386373   -6.9541443    415.09343  0.028122861  0.028262485            2 
 1231000    1.0664331   -6.9971248    414.19987  0.028039526   0.02825443            3 
 1232000    1.0579131   -6.9496178    414.89553  0.028063821  0.028246434            6 
 1233000    1.0700248   -6.9518797    415.44385  0.028078119  0.028238537            6 
 1234000    1.0658111   -6.9967258    415.49154  0.028058586  0.028230738            3 
 1235000     1.046787   -6.9733406    415.61998  0.028044533  0.028222893            3 
 1236000    1.0328981   -6.9869097    417.03171  0.028117025  0.028215146            5 
 1237000    1.0828872   -6.9759352    418.18152  0.028171754  0.028207408            3 
 1238000    1.0672365   -7.0134338    415.62542   0.02797694  0.028199547            3 
 1239000     1.057019   -6.9983208    417.01988  0.028048149   0.02819163            4 
 1240000    1.0567481   -6.9597013    417.95639  0.028088467   0.02818418            4 
 1241000    1.0361503   -6.9830472    417.36632   0.02802621  0.028176479            2 
 1242000    1.0748798   -6.9878716    418.05294  0.028049714  0.028168662            3 
 1243000    1.0557422   -6.9854555    417.70895  0.028004086  0.028161029            6 
 1244000    1.0489317   -6.9387054      418.702  0.028048098  0.028153415            1 
 1245000    1.0428093   -6.9712356    417.78185  0.027963979  0.028145648            5 
 1246000    1.0555062   -6.9887915    418.13932  0.027965444  0.028137738            4 
 1247000    1.0435404   -7.0086377    418.48904  0.027966389  0.028129688            4 
 1248000    1.0672141   -7.0094353    418.15005  0.027921344  0.028121748            3 
 1249000    1.0647717   -6.9965808    417.97466  0.027887287  0.028113683            4 
 1250000    1.0419532   -6.9642975    419.99554  0.027999703  0.028105804            4 
 1251000    1.0601763   -6.9999816    419.76472  0.027961945  0.028097867            7 
 1252000    1.0854092    -7.004447    418.16229  0.027832953  0.028089911            4 
 1253000    1.0513233   -7.0098633    420.26573  0.027950634  0.028081822            5 
 1254000     1.035604   -6.9873898    420.80871  0.027964428   0.02807402            5 
 1255000    1.0643496   -7.0107935    420.58738  0.027927449  0.028066155            4 
 1256000    1.0654373   -6.9840356    420.60728  0.027906534  0.028058359            2 
 1257000    1.0379452   -6.9983651     420.7982   0.02789699  0.028050487            4 
 1258000    1.0634285   -6.9866165    422.65925  0.027998095  0.028042651           10 
 1259000    1.0676345   -6.9744184    422.24385  0.027948362  0.028034903            2 
 1260000    1.0675696   -7.0148394    422.26556  0.027927617  0.028027104            5 
 1261000    1.0547697   -7.0249802    421.61616  0.027862553  0.028019294            5 
 1262000    1.0545287   -6.9905481    421.28307   0.02781848  0.028011381            2 
 1263000     1.041534   -7.0196735    422.87785  0.027901679  0.028003612            5 
 1264000      1.06966    -6.902777    424.18388   0.02796571  0.027995989            5 
 1265000     1.063546   -6.9984703    422.84516  0.027855412  0.027988408            4 
 1266000    1.0485125   -6.9818376    422.45581  0.027807781  0.027980764            3 
 1267000    1.0505823   -7.0079149    424.50232  0.027920437  0.027972987            5 
 1268000    1.0464742   -6.9856202    425.93469  0.027992553    0.0279652            3 
 1269000    1.0380753   -7.0540669    423.45417  0.027807603  0.027957209            4 
 1270000    1.0286557   -7.0335186    422.78152  0.027741569   0.02794919            6 
 1271000    1.0422976    -6.968203    425.94907  0.027927424  0.027941358            2 
 1272000    1.0514892   -6.9948285    424.74904   0.02782685  0.027933735            8 
 1273000    1.0376258   -7.0066064    424.15858  0.027766338   0.02792605            5 
 1274000    1.0432119   -6.9674692     425.8384  0.027854422  0.027918452            3 
 1275000    1.0315367   -6.9875737    425.20813  0.027791381   0.02791068            5 
 1276000    1.0309678   -7.0164459    424.55843   0.02772717  0.027902767            3 
 1277000    1.0310936   -7.0185826    424.59447   0.02770781  0.027894917            4 
 1278000    1.0642015   -7.0720288     424.0311  0.027649393  0.027887026            5 
 1279000     1.047821   -6.9615851    426.56511  0.027792879  0.027879287            7 
 1280000     1.050273   -6.9920127    426.29233  0.027753407  0.027871635            4 
 1281000    1.0631684   -7.0276107    425.30764  0.027667684  0.027863909            3 
 1282000    1.0601034   -6.9811393    426.62537  0.027731758  0.027856252            4 
 1283000    1.0653327   -6.9617229    427.16793  0.027745384  0.027848605            6 
 1284000    1.0461717   -6.9759021    427.64408  0.027754678  0.027840919            3 
 1285000    1.0373164   -6.9605323    427.81993  0.027744483  0.027833268            3 
 1286000    1.0356289   -6.9821566    428.71295  0.027780777  0.027825566            7 
 1287000    1.0277106   -6.9557767     429.0876   0.02778345  0.027817715            3 
 1288000    1.0229584    -7.030685    427.25525  0.027643326  0.027809969            4 
 1289000    1.0317833   -7.0389414    428.02702  0.027671775  0.027802143            7 
 1290000    1.0395102   -7.0393357    427.70481  0.027629509  0.027794353            3 
 1291000    1.0541839   -7.0040693    428.25711  0.027643759  0.027786681            5 
 1292000    1.0402771   -7.0089074    429.57142  0.027707135  0.027778834            6 
 1293000    1.0388927   -6.9870201    428.61231  0.027623892  0.027770999           10 
 1294000    1.0671773   -7.0103637    429.70829  0.027673126  0.027763227            1 
 1295000    1.0518147   -7.0017256     427.7153  0.027523507  0.027755282            6 
 1296000     1.043551   -7.0183004    428.45116  0.027549586  0.027747233            6 
 1297000    1.0417349   -7.0315999    427.82617  0.027488189  0.027739021            4 
 1298000    1.0359306   -7.0303035    428.03916  0.027480686  0.027730938            7 
 1299000    1.0720246   -6.9937506    430.23818  0.027600602  0.027722703            4 
 1300000    1.0258752   -6.9180035    430.55736  0.027599831  0.027714751            3 
 1301000    1.0414046   -7.0107845    429.15084  0.027488524  0.027706663            3 
 1302000     1.030556   -7.0597494    428.62265  0.027433605  0.027698292            5 
 1303000    1.0277938   -6.9569355    430.62765  0.027540781  0.027690139            6 
 1304000    1.0491196   -6.9788665    431.18946  0.027555563  0.027682134            6 
 1305000    1.0604334   -6.9935588    428.78683  0.027381024  0.027674004            7 
 1306000    1.0166445   -7.0064471    429.41677  0.027400254  0.027665624            5 
 1307000    1.0542456   -7.0419964    429.57828  0.027389587  0.027657274            7 
 1308000    1.0131712   -7.0215051    429.43631  0.027359602  0.027648957            2 
 1309000     1.042636   -6.9637979    430.62572  0.027414421  0.027640642            2 
 1310000     1.030115   -7.0074811    431.18521  0.027429084  0.027632298            6 
 1311000    1.0460688   -7.0464457    429.15561  0.027279152  0.027623988            7 
 1312000    1.0240913   -7.0205886    430.49648  0.027343527  0.027615559            4 
 1313000    1.0141092   -7.0471284    431.48582  0.027385492  0.027607139            3 
 1314000     1.035859   -7.0354942     431.4799  0.027364276  0.027598794            5 
 1315000    1.0458489   -7.0363304    431.97274  0.027374698  0.027590579            4 
 1316000    1.0590611   -7.0333428    432.15439    0.0273654  0.027582334            2 
 1317000    1.0253487   -7.0782925    431.64036  0.027312095   0.02757395            6 
 1318000    1.0484004   -6.9998703    432.53013  0.027347631  0.027565642            4 
 1319000     1.010207   -7.0144269    432.08458  0.027298748  0.027557331            3 
 1320000    1.0526188   -7.0353955    433.28688   0.02735397  0.027549023            4 
 1321000    1.0183418   -6.9912554     433.8699  0.027370042  0.027540747            9 
 1322000    1.0237553   -7.0166163    433.37546  0.027318171  0.027532587           10 
 1323000    1.0561329   -7.0228296    432.76569  0.027259113  0.027524226            5 
 1324000    1.0405586   -7.0018903    434.31421   0.02733599  0.027515991            4 
 1325000    1.0481799   -7.0224969    434.58184  0.027332191    0.0275078            4 
 1326000    1.0428985   -7.0099584    434.67105  0.027317185  0.027499468            3 
 1327000    1.0260788   -7.0386214    433.94455  0.027250977  0.027491323            4 
 1328000    1.0425342   -7.0346372    435.67119  0.027338804  0.027483021            4 
 1329000    1.0505058   -7.0023221    434.28643  0.027231404  0.027474805            4 
 1330000    1.0589607   -7.0453168    434.83813  0.027245497  0.027466598            6 
 1331000    1.0496176   -7.0239108    435.50795  0.027266964  0.027458355            3 
 1332000    1.0444855    -6.974459    437.03485   0.02734202  0.027450264            2 
 1333000    1.0411039   -7.0214938    436.61942  0.027295537  0.027442146            6 
 1334000    1.0139302   -7.0212212    436.95433  0.027295998  0.027433873            4 
 1335000    1.0424612   -7.0065603    436.44814  0.027243954  0.027425665            2 
 1336000     1.032442   -7.0330148    435.84697  0.027186064  0.027417652            2 
 1337000    1.0300263   -7.0287497    435.88098   0.02716785  0.027409714            5 
 1338000    1.0560118   -7.0096973     436.5181  0.027187226  0.027401516           10 
 1339000    1.0430905   -7.0042494    437.78755  0.027245927   0.02739331            1 
 1340000    1.0146739   -7.0334362    436.80215  0.027164313  0.027385242            4 
 1341000    1.0592514    -7.014961    437.95572  0.027215742  0.027377102            7 
 1342000     1.040752   -7.0256361     438.6788  0.027240362  0.027368996            5 
 1343000    1.0450438   -7.0305437    436.48967  0.027084244  0.027360928            4 
 1344000    1.0480278   -7.0093867    440.01556  0.027282711  0.027352582            4 
 1345000    1.0432024   -6.9871355     438.6185  0.027175868  0.027344523            4 
 1346000    1.0212054   -6.9902186    440.38482  0.027265033  0.027336596            2 
 1347000    1.0329625   -7.0008117    439.05705  0.027162648  0.027328908            2 
 1348000    1.0626362   -6.9996455    438.68868  0.027119726  0.027320936            5 
 1349000    1.0378752   -7.0304344    438.03704  0.027059367  0.027312946            2 
 1350000     1.053111   -7.0119781    439.96794  0.027158515  0.027304958            8 
 1351000     1.023775   -7.0257054    439.97268  0.027138705  0.027296989            5 
 1352000    1.0405631   -7.0475052    439.44217  0.027085933  0.027288821            4 
 1353000    1.0260537   -7.0147003    441.05506  0.027165253  0.027281027            6 
 1354000    1.0412839   -7.0373424    440.87585  0.027134161  0.027273197            6 
 1355000    1.0507282   -7.0280184    441.44108  0.027148898  0.027265233            3 
 1356000    1.0504439   -7.0638011    439.60211  0.027015862  0.027257172            3 
 1357000    1.0184204   -7.0386291    439.77101  0.027006326  0.027249031            2 
 1358000    1.0532583   -7.0859303    441.09585  0.027067737  0.027240958            3 
 1359000    1.0604473   -7.0638363    441.30585  0.027060697  0.027233069            5 
 1360000    1.0293391    -7.035331    442.33249  0.027103706  0.027225194            7 
 1361000    1.0437084    -7.058849        441.6  0.027038942  0.027217235            2 
 1362000     1.033627   -7.0803272    441.31215  0.027001477  0.027209166            6 
 1363000    1.0385953   -7.0466132     443.8384  0.027136121  0.027201113            4 
 1364000    1.0495791   -7.0824906    443.30643  0.027083726    0.0271931            4 
 1365000    1.0381068    -7.040068    441.61866  0.026960846  0.027185114            6 
 1366000    1.0533333   -7.0172292     443.7764  0.027072743  0.027177195            5 
 1367000    1.0146287   -7.0401154    442.34812  0.026965869  0.027169198            5 
 1368000    1.0130113   -7.0336187    445.14813  0.027116723  0.027161425            8 
 1369000    1.0407205   -7.0189267    443.83933  0.027017247  0.027153605            3 
 1370000    1.0540262    -7.046048    443.43643  0.026973019  0.027145721            5 
 1371000    1.0071432    -7.027917    444.97247   0.02704671  0.027137722            4 
 1372000    1.0382405   -7.0081638    445.11591  0.027035709   0.02713008            2 
 1373000     1.045086   -7.0425594     445.2994  0.027027154  0.027122282            7 
 1374000    1.0384389   -7.0128341    445.60555  0.027026052  0.027114437            5 
 1375000    1.0300693   -7.0394581    446.70416  0.027072979  0.027106543            6 
 1376000    1.0340877   -7.0104315    446.13407  0.027018779   0.02709877            2 
 1377000    1.0252403    -7.031975      447.375  0.027074256  0.027091091            5 
 1378000    1.0396617   -7.0875624    444.62015  0.026888011  0.027083402            2 
 1379000    1.0202241   -7.0712982    446.72888  0.026995944  0.027075428            7 
 1380000    1.0254056   -7.0509264    444.58994  0.026847219  0.027067539            2 
 1381000    1.0142029   -7.0529211    446.53278  0.026945014  0.027059677            4 
 1382000    1.0156965   -7.0505219    445.59197  0.026868788  0.027051859            2 
 1383000    1.0334137   -7.0052163    447.92056   0.02698967  0.027044171            4 
 1384000    1.0156302   -7.0223022    448.43442  0.027001109  0.027036596            3 
 1385000    1.0345087   -7.0091863    448.47172  0.026983858  0.027029128            3 
 1386000    1.0620708   -7.0191489    449.22872  0.027009904  0.027021492            5 
 1387000    1.0374342   -7.0354593    448.85602  0.026968038  0.027013959            6 
 1388000    1.0294476   -7.0662619    447.52564  0.026868734   0.02700626           11 
 1389000     1.042255   -7.0364301    447.98322  0.026876843  0.026998555            7 
 1390000    1.0137078   -7.0508427    448.16073  0.026868149  0.026990732            7 
 1391000    1.0243738   -7.0134632    450.78624  0.027006125  0.026982989            5 
 1392000    1.0303433   -7.0653883    449.33026  0.026899561  0.026975144            5 
 1393000    1.0276335   -7.0560938    448.40243  0.026824744  0.026967292            5 
 1394000    1.0120679   -7.0257335    449.48442  0.026870183  0.026959452            3 
 1395000    1.0266355   -7.0402409    449.40269  0.026846039  0.026951797            2 
 1396000     1.030194   -7.0132555    452.24317  0.026996369  0.026944289            6 
 1397000    1.0276371   -6.9663701    452.62973  0.027000103  0.026936776            5 
 1398000    1.0148022    -7.051501    449.56505  0.026798107  0.026929207            5 
 1399000     1.043832   -7.0603367    449.13324  0.026753231  0.026921463            3 
 1400000    1.0512036   -7.0312712    450.52702  0.026817085  0.026913915            3 
 1401000    1.0514138   -7.0634957     448.9804  0.026705948  0.026906149            2 
 1402000    1.0109098   -7.0286966    451.69051  0.026847986  0.026898406            5 
 1403000     1.023917   -7.0805129    451.36613  0.026809582  0.026890808            4 
 1404000    1.0272757     -7.07289    450.88556  0.026761964  0.026883032            4 
 1405000    1.0357715   -7.0137845    453.25922  0.026883702  0.026875389            4 
 1406000    1.0285664   -7.0762075    451.38281  0.026753367  0.026867767            2 
 1407000    1.0319397   -7.0588933    452.76652  0.026816307  0.026860079            7 
 1408000    1.0327293   -7.0597785    451.83293  0.026742005  0.026852379            4 
 1409000    1.0409696   -7.0682125    451.71034  0.026715776  0.026844487            5 
 1410000    1.0441408   -7.0237746    454.28026  0.026848715  0.026836719            5 
 1411000    1.0274795    -7.111194    450.54327  0.026608981  0.026829002            4 
 1412000    1.0321432   -7.0494616    453.89754  0.026788098  0.026821292            3 
 1413000    1.0405978   -7.0732062    452.69643  0.026698303  0.026813648            4 
 1414000    1.0396951   -7.0218965    453.94753  0.026753155  0.026805989            3 
 1415000    1.0360609   -7.0783589    453.09622  0.026684112  0.026798272            5 
 1416000    1.0416639   -7.0530406    454.22973  0.026731976   0.02679055            4 
 1417000    1.0489503   -7.0667248    453.78309  0.026686844  0.026782846            3 
 1418000    1.0502258    -7.036076    456.44283  0.026824332  0.026775242            3 
 1419000    1.0083859   -7.0960051    452.53624  0.026576007  0.026767361            5 
 1420000    1.0166327   -7.0828212    453.25668  0.026599571  0.026759399            9 
 1421000    1.0080665   -7.0621988    454.17764   0.02663486  0.026751506            6 
 1422000    1.0370743   -7.0573492     453.5093  0.026576963  0.026743619           10 
 1423000    1.0240302   -7.0569214    454.32359  0.026605972  0.026735502            4 
 1424000    1.0604106   -7.0701176    454.18168  0.026578984  0.026727593            3 
 1425000     1.037995   -7.0689668     455.7157  0.026650041  0.026719877            3 
 1426000    1.0010857   -7.0572331    455.67206  0.026628802  0.026712094            6 
 1427000    1.0426163   -7.0554879    455.04511  0.026573529  0.026704278            4 
 1428000    1.0141721   -7.0486325    455.49788  0.026581342  0.026696626            3 
 1429000    1.0203203    -7.043783    456.47691  0.026619834  0.026688909            5 
 1430000    1.0407963   -7.0797071    456.26451  0.026588841  0.026680951            7 
 1431000    1.0504313   -7.0611944     457.5216  0.026643466  0.026673138            3 
 1432000    1.0547064   -7.0646824    455.26945  0.026493799  0.026665214            4 
 1433000     1.042117    -7.063848    456.84225  0.026566774  0.026657297            2 
 1434000    1.0249508   -7.1111869    455.37433  0.026462943  0.026649422            3 
 1435000    1.0280676   -7.0682098    456.70086  0.026521537   0.02664143            4 
 1436000    1.0272694   -7.0444711    457.95085  0.026575607  0.026633687            3 
 1437000    1.0529958   -7.0420232    457.90212  0.026554287  0.026625873            4 
 1438000    1.0165759   -7.0780613    458.04957  0.026544365  0.026617995            7 
 1439000    1.0148161   -7.0587917    458.44608  0.026548881  0.026610272            7 
 1440000    1.0173179   -7.0812304    457.52642  0.026477223  0.026602368            5 
 1441000    1.0246468    -7.096509    456.79764  0.026416704  0.026594605           16 
 1442000    1.0262411   -7.0733644    459.37385  0.026547264  0.026586777            2 
 1443000    1.0159991   -7.0423827    458.19222  0.026460627  0.026578955            6 
 1444000    1.0170856    -7.095666    458.08025  0.026435841  0.026571121            5 
 1445000    1.0277874   -7.0988552    458.48319  0.026440784  0.026563345            4 
 1446000    1.0352411   -7.0810672    460.89178  0.026561306  0.026555516            6 
 1447000    1.0212145   -7.0593956    461.05204  0.026552179  0.026547837            9 
 1448000     1.037733   -7.0644886    461.78713  0.026576147  0.026540089            2 
 1449000     1.009013   -7.0995071    458.68502  0.026379401  0.026532375            3 
 1450000    1.0137707   -7.0509679    461.09012  0.026499432   0.02652475            5 
 1451000    1.0376325   -7.0785207    460.22219  0.026431323  0.026517249            3 
 1452000    1.0234554   -7.0948536    459.63403  0.026379364  0.026509615            4 
 1453000    1.0100816   -7.0992694    460.52874  0.026412523  0.026501893            3 
 1454000    1.0104257   -7.1146701    460.52024   0.02639387  0.026494224            7 
 1455000    1.0268067   -7.0820839    459.61912  0.026324119  0.026486621            5 
 1456000    1.0230797   -7.1135473    461.76115  0.026428637  0.026478995            8 
 1457000    1.0228517   -7.1025991     460.5407  0.026340694  0.026471372            9 
 1458000    1.0404574   -7.0856586    461.96356  0.026403953  0.026463688            5 
 1459000    1.0092626   -7.0841939     462.5728  0.026420653  0.026456072            7 
 1460000    1.0343295   -7.1118761    460.23507  0.026269125  0.026448525            4 
 1461000    1.0264985   -7.1189194    462.59866   0.02638596  0.026440889            2 
 1462000    1.0255957   -7.0614506    463.72107   0.02643189  0.026433305            6 
 1463000    1.0121595   -7.0990301    462.88903  0.026366429  0.026425847            3 
 1464000    1.0595688   -7.0619209    465.05751  0.026471853  0.026418435            3 
 1465000    1.0168335   -7.1146705    461.67331   0.02626128  0.026410867            3 
 1466000    1.0272526   -7.0707127     464.3624  0.026396226  0.026403342            3 
 1467000    1.0410053   -7.0504864    464.30366  0.026374896   0.02639587            3 
 1468000    1.0096319   -7.1007139    464.38899  0.026361773  0.026388417            7 
 1469000    1.0075362   -7.0405871    466.10467  0.026441154  0.026380773            4 
 1470000     1.008025   -7.0501096    464.70248  0.026343678  0.026373285            2 
 1471000    1.0150388   -7.0496463    465.48937  0.026370347  0.026365827            6 
 1472000    1.0288429   -7.0833933    465.13547  0.026332397  0.026358277            2 
 1473000   0.99539954   -7.0530422    465.47102  0.026333504  0.026350754            1 
 1474000    1.0237211     -7.08523     465.2816   0.02630493   0.02634331            7 
 1475000   0.99756136    -7.057015    465.30965  0.026288681  0.026335728            4 
 1476000    1.0037119   -7.0998308    465.24091  0.026266989   0.02632816           13 
 1477000     1.014531   -7.1041368    464.33898  0.026198318   0.02632036            3 
 1478000    1.0055687   -7.1297452    465.53123  0.026247814  0.026312665            5 
 1479000    1.0233439   -7.0875046    465.23235  0.026213227  0.026304977            3 
 1480000    1.0170107   -7.0167191      468.404  0.026374099  0.026297357            8 
 1481000    1.0289668   -7.0626477    467.46183  0.026303277  0.026289993            6 
 1482000    1.0247452   -7.0725946    466.72346  0.026244009  0.026282557            5 
 1483000    1.0109434   -7.0931729    467.05112  0.026244725  0.026274928            3 
 1484000    1.0009784   -7.1106037    466.40271  0.026190628  0.026267262            4 
 1485000    1.0036207   -7.1086035    466.94085   0.02620319  0.026259565            4 
 1486000   0.99295089   -7.0488781    466.98609  0.026188094  0.026252019            4 
 1487000    1.0137221   -7.0944611     468.4028  0.026249877  0.026244602            4 
 1488000    1.0157416   -7.0860151    468.58599  0.026242495   0.02623723            3 
 1489000    1.0177025   -7.0902776    466.92136  0.026131708  0.026229583            2 
 1490000    1.0152925   -7.0997619    468.54505   0.02620498  0.026221986           11 
 1491000    1.0231806   -7.0831963    468.69708  0.026195902  0.026214384            3 
 1492000    1.0211588   -7.0794511    468.15163  0.026147879   0.02620661            6 
 1493000    1.0254794   -7.1185729    468.09931  0.026127445  0.026198895            3 
 1494000    1.0030403   -7.1060582    470.41781   0.02623928  0.026191208            6 
 1495000    1.0409102   -7.1121102    468.89754  0.026136987  0.026183679           12 
 1496000    1.0003512   -7.0327663    471.75913  0.026278918  0.026176217            5 
 1497000   0.99318749   -7.0537244     468.9993  0.026107732  0.026168986            1 
 1498000    1.0040968   -7.1118357    468.93854  0.026086924  0.026161528            3 
 1499000    1.0127471   -7.0814487    469.53953  0.026102931  0.026153947            2 
 1500000     0.999283   -7.0819321    471.02821  0.026168234  0.026146603            3 
 1501000    1.0449283   -7.0745509    472.13659  0.026212336  0.026139181            6 
 1502000    1.0183106   -7.1179552    470.74047  0.026117425   0.02613168            4 
 1503000    1.0315307   -7.1177392    470.41424  0.026081961  0.026124215            6 
 1504000   0.98972252   -7.0810957     472.2874  0.026168406  0.026116766            5 
 1505000    0.9960492   -7.0915842    472.20018  0.026146189  0.026109411            5 
 1506000   0.99414034   -7.1140882    471.37808  0.026083338  0.026101928            3 
 1507000    1.0048502   -7.0786556    472.04245  0.026102768  0.026094547            3 
 1508000    0.9778162   -7.0798941    472.26364  0.026097681  0.026087225            3 
 1509000    1.0211046   -7.0947192    472.37673  0.026086632  0.026079976            5 
 1510000    1.0259735   -7.1485483    472.27543  0.026063766    0.0260725            2 
 1511000    1.0203559   -7.1026893    471.42351  0.025999532  0.026064995            6 
 1512000    1.0277341   -7.1240575    470.69842  0.025942373   0.02605748            4 
 1513000    1.0018415   -7.1238091    472.01464  0.025997722  0.026049882            3 
 1514000    1.0353569    -7.085403    473.93352  0.026086169  0.026042299            5 
 1515000    1.0228586   -7.0985422    472.77881  0.026005435  0.026034703            6 
 1516000    1.0047664   -7.1040175    473.22051  0.026012561  0.026027224            7 
 1517000    1.0166101   -7.1097669    472.72155  0.025968004  0.026019726            6 
 1518000   0.98536353       -7.081    473.79226  0.026009676  0.026012208            3 
 1519000    1.0145022   -7.0685966    473.95862   0.02600168  0.026004712            4 
 1520000    1.0227462   -7.0853017    472.89021  0.025925999  0.025997216            6 
 1521000   0.99932057   -7.1063324    474.47625   0.02599585    0.0259897            4 
 1522000   0.99561941   -7.1530264    472.24435  0.025856568  0.025982001           20 
 1523000   0.99368425    -7.124557    474.67261  0.025972456  0.025974494           10 
 1524000    1.0184183   -7.1072822    474.95195  0.025970688  0.025966865            3 
 1525000     1.019444   -7.1444269    473.62054  0.025880904  0.025959213            6 
 1526000   0.99852671   -7.1431312    473.23384  0.025842826  0.025951437            3 
 1527000    1.0065833   -7.1105554    474.04978  0.025870431  0.025943827            3 
 1528000    1.0142592   -7.1268164    474.06062  0.025854091  0.025936167            5 
 1529000     1.031573   -7.0852699    475.75212  0.025929372  0.025928555            2 
 1530000    1.0296745   -7.0760402    475.20428  0.025882586  0.025921058            4 
 1531000    1.0291827   -7.1405297    474.89262  0.025848716  0.025913459            6 
 1532000    1.0005277   -7.1256127    475.02524  0.025839058  0.025905894            3 
 1533000    1.0341561   -7.1584401    475.64728  0.025856016  0.025898213            8 
 1534000   0.99669207   -7.1071644    475.41146  0.025826351  0.025890521            4 
 1535000   0.99346371   -7.0856329    476.08589  0.025846139  0.025882876           10 
 1536000    0.9822931   -7.1216543    477.01647    0.0258798  0.025875218            4 
 1537000    1.0130622   -7.1315232    475.65376  0.025789078  0.025867578            4 
 1538000   0.99722669   -7.1600377    475.41645  0.025759452  0.025859876            6 
 1539000    1.0150227   -7.1595743    476.97045   0.02582686  0.025852257            4 
 1540000   0.99379252   -7.1050939     476.0635  0.025761012  0.025844523            3 
 1541000    1.0222036   -7.1581898    475.58236  0.025718276  0.025836863            3 
 1542000    1.0111567   -7.1243013    475.26464  0.025684427  0.025829097            3 
 1543000    1.0258338   -7.1336935    476.87689  0.025754855  0.025821337            3 
 1544000   0.99835927   -7.1471228    476.12427  0.025697553  0.025813745            4 
 1545000    1.0382388   -7.1649427    476.30335   0.02569058  0.025806112            5 
 1546000    1.0119352   -7.1424443    476.11744  0.025663941  0.025798308            4 
 1547000   0.99265879   -7.1065118    479.30627  0.025819127  0.025790582            4 
 1548000   0.98620332   -7.1096471    477.08857  0.025683063  0.025783029            9 
 1549000    1.0102405   -7.1107412    478.43883  0.025739124  0.025775513           11 
 1550000    1.0079069   -7.1007947    479.83076  0.025797353   0.02576803            9 
 1551000    1.0073592    -7.072766     479.9345  0.025786294   0.02576055            4 
 1552000   0.99227568   -7.1384417    480.30179    0.0257894  0.025753213            4 
 1553000   0.98258935   -7.1020876    478.82985  0.025693811  0.025745763           10 
 1554000   0.99925936   -7.1081332     479.0254  0.025687763  0.025738159            4 
 1555000    1.0104555   -7.1101194    478.64011  0.025650595  0.025730715            3 
 1556000    1.0225137   -7.1348678    479.26642  0.025667653  0.025723218            4 
 1557000    1.0115377   -7.1222647      479.497  0.025663509  0.025715622           10 
 1558000   0.99609202   -7.1054246    479.82749  0.025664714  0.025708025            6 
 1559000   0.99724803   -7.1147123    480.81595  0.025701088  0.025700538            6 
 1560000     1.009504    -7.148976    479.32259  0.025604839  0.025692937            2 
 1561000   0.99450491    -7.133675    479.91325  0.025619968  0.025685301            4 
 1562000     1.011586   -7.1292546    482.00526  0.025715176   0.02567765            3 
 1563000   0.99807767   -7.0974212    481.74267  0.025684723  0.025670201            5 
 1564000    1.0068755   -7.1450435    481.35335  0.025647557  0.025662675            4 
 1565000   0.99885454   -7.1267823    481.13796    0.0256197  0.025655002            4 
 1566000    0.9985222   -7.1289022    481.12425   0.02560261  0.025647252            3 
 1567000    0.9877104   -7.1020337    482.80619  0.025675718  0.025639704            6 
 1568000   0.99058255   -7.1264349    481.86536  0.025609341  0.025632182            3 
 1569000   0.99196431   -7.1327626    481.12506    0.0255537  0.025624656            3 
 1570000   0.99633306   -7.1071828    481.43612  0.025553934  0.025617035            5 
 1571000    1.0191841   -7.1170307    481.15405  0.025522706  0.025609382            6 
 1572000    0.9902136   -7.1219586    481.75363  0.025538254  0.025601877            3 
 1573000     1.003566   -7.1219751    484.27895  0.025655804  0.025594416            6 
 1574000    0.9868335   -7.1012046    484.39245  0.025645513  0.025586883            4 
 1575000   0.99285025   -7.1284664    484.12661  0.025615165  0.025579432            3 
 1576000    1.0137311   -7.1425323    482.73213  0.025525176  0.025571937            6 
 1577000   0.99646048    -7.114965    483.67065  0.025558584  0.025564488            4 
 1578000    1.0029838   -7.1318008    483.22447  0.025518825   0.02555705            3 
 1579000    1.0156686   -7.1183924    483.18425  0.025500541  0.025549667            3 
 1580000    1.0280317   -7.1114293    486.19732  0.025643318  0.025542346            7 
 1581000    1.0003022   -7.1323036    484.79274  0.025553064   0.02553502            4 
 1582000   0.98598075   -7.0899911    487.19172  0.025663281  0.025527754            3 
 1583000    1.0015755   -7.1750874    484.78106  0.025520165  0.025520433            5 
 1584000    1.0014151   -7.1407442    484.27694  0.025477533   0.02551305            7 
 1585000    1.0265431   -7.1648727    484.49419   0.02547288  0.025505556            3 
 1586000    1.0110857   -7.1359713    486.07373  0.025539814  0.025498111            4 
 1587000    0.9878626   -7.1538911    484.76141  0.025454811  0.025490711            5 
 1588000   0.95099349    -7.152309     486.0119  0.025504403   0.02548321            3 
 1589000   0.99770442   -7.1745693    485.39034  0.025455755   0.02547576            3 
 1590000   0.99409947    -7.158844    485.91544  0.025467266  0.025468171            3 
 1591000    1.0121076   -7.1410224    486.04167  0.025457871   0.02546074            5 
 1592000   0.98612728   -7.1151594    486.53877  0.025467901  0.025453341            1 
 1593000   0.99560152    -7.120377    486.70035  0.025460366  0.025446025            4 
 1594000    1.0274971   -7.1660918    486.27917  0.025422374  0.025438478            3 
 1595000   0.99880802   -7.1106371    487.35803  0.025462802  0.025430937            5 
 1596000   0.98290375   -7.1292119    486.08097  0.025380168   0.02542343            5 
 1597000    1.0009714   -7.1237612    486.70409   0.02539679  0.025415872            3 
 1598000   0.99062401   -7.1324917    487.43579  0.025419055  0.025408286            9 
 1599000    1.0135144   -7.0948575    488.60718  0.025464206  0.025400848            5 
 1600000   0.99174084   -7.1380869    487.38053  0.025384403  0.025393352            3 
 1601000   0.99514739   -7.1243092    487.64785  0.025382462  0.025385888            7 
 1602000    1.0011547   -7.1397019    486.74356  0.025319578  0.025378451            2 
 1603000   0.98943278   -7.1456528    488.26377  0.025382812  0.025370942            5 
 1604000   0.98285155   -7.1146224    488.52911  0.025380773  0.025363451            6 
 1605000   0.99563036   -7.1315206    488.00004  0.025337489  0.025355962            9 
 1606000    1.0055408   -7.1080313    488.39187  0.025342044  0.025348473            3 
 1607000   0.98423028   -7.1672804    487.97839  0.025304833  0.025340952            4 
 1608000    1.0168203   -7.1838386    487.33562  0.025255784  0.025333277            5 
 1609000    1.0001271   -7.1761239    486.50283  0.025196956  0.025325655            6 
 1610000   0.98190403   -7.1241001     488.2561  0.025272055  0.025318029            2 
 1611000   0.98310068   -7.1343606    489.33206  0.025312025  0.025310454            8 
 1612000       1.0062   -7.1081422    490.75765  0.025370019  0.025303092            7 
 1613000    1.0057471   -7.1038404     490.7193  0.025352309  0.025295703            3 
 1614000   0.98259064   -7.1184158    490.60492  0.025330696  0.025288406            6 
 1615000    1.0103699   -7.1295585    490.95698  0.025333178  0.025280997            3 
 1616000   0.96882563   -7.1565111    489.55132  0.025245014  0.025273507            3 
 1617000    1.0012434   -7.1352539    490.83275  0.025295441  0.025266003            5 
 1618000   0.97462309   -7.1284016    490.59441  0.025267532  0.025258521            7 
 1619000   0.96799974    -7.187137      489.758  0.025208874  0.025250936           16 
 1620000    1.0091085   -7.1913469    490.17703  0.025214868  0.025243376            3 
 1621000   0.97939723   -7.1894468    489.67361  0.025173433  0.025235782            5 
 1622000   0.98781538   -7.1618474    491.56254   0.02525496    0.0252283           10 
 1623000   0.98533793   -7.1650592    491.60694  0.025241679  0.025220873            6 
 1624000     1.014331   -7.1201177    492.40645  0.025267162   0.02521351            3 
 1625000    1.0032841   -7.1501168    492.43172  0.025252909  0.025206218            6 
 1626000   0.99603153   -7.1601316    492.60082  0.025246044  0.025198946            4 
 1627000    1.0017457   -7.1199796    493.89374   0.02529675  0.025191715            5 
 1628000    1.0037102   -7.1882402    491.70132  0.025168987  0.025184466            7 
 1629000    1.0297436   -7.1866468    492.34623  0.025186527  0.025177292            6 
 1630000   0.98902085   -7.1277592    493.40042  0.025224971  0.025170142            4 
 1631000   0.98320448   -7.1246266     493.0449   0.02519134  0.025162876            2 
 1632000    1.0087894   -7.1010902    494.62407   0.02525654  0.025155733           10 
 1633000   0.99229734   -7.1227337    494.45352   0.02523237  0.025148694            4 
 1634000    1.0106916   -7.1407563    495.76157  0.025283638  0.025141592            6 
 1635000   0.99373803   -7.2091138    492.79097  0.025116767  0.025134335            4 
 1636000    1.0015566   -7.1630344    493.65926  0.025145643  0.025126955            4 
 1637000   0.99900239   -7.1763411    493.12009  0.025102835  0.025119702            4 
 1638000   0.97948802   -7.1280769    495.19969  0.025193309  0.025112281            5 
 1639000   0.98881119   -7.1776056    494.47149  0.025140914  0.025104949            6 
 1640000   0.98958142    -7.133217    494.83624  0.025144118  0.025097539            4 
 1641000   0.97871849   -7.1550359    494.98821  0.025136513  0.025090304            3 
 1642000    1.0004037   -7.1810542    494.74971    0.0251091  0.025082894            3 
 1643000   0.97200859   -7.1780443     493.7198  0.025041581  0.025075576            4 
 1644000   0.99458301   -7.1775517    494.75971  0.025079061  0.025068263            5 
 1645000    1.0072485   -7.1986248    494.80619   0.02506617  0.025060843           12 
 1646000    1.0075072   -7.1746207    494.42961  0.025031876   0.02505343            4 
 1647000   0.98635336   -7.1604696    496.30647  0.025111641   0.02504611           15 
 1648000   0.96590003   -7.1430998    497.79384  0.025171614  0.025038842            4 
 1649000   0.99991188   -7.1696993     497.1125  0.025121917  0.025031647            4 
 1650000    1.0004793   -7.1366543    496.57367  0.025079478  0.025024404            3 
 1651000   0.99974752   -7.1615231    496.40959  0.025056006  0.025017081           10 
 1652000   0.99210892   -7.1935225     494.8517  0.024962253  0.025009755            3 
 1653000   0.98830458   -7.1936328    495.95358  0.025002701  0.025002332            4 
 1654000    1.0093804   -7.1790202    497.17259  0.025049002  0.024994899            3 
 1655000   0.97629196   -7.1401945      496.029  0.024976284   0.02498758            4 
 1656000   0.98516271   -7.1852275    497.47142  0.025033787  0.024980167            5 
 1657000   0.99859076   -7.1723733    498.27638  0.025059162  0.024972808           10 
 1658000    0.9899153   -7.1960159    497.30583  0.024995267  0.024965409            3 
 1659000   0.99017902   -7.1415892    498.50743  0.025040558  0.024958039            6 
 1660000   0.99132297   -7.1574631    497.90713  0.024995338  0.024950616            5 
 1661000   0.99430861   -7.1908666    497.24105  0.024946872  0.024943111            3 
 1662000   0.96981442   -7.1872368    496.65622  0.024902538  0.024935669            3 
 1663000   0.98276486   -7.2107331    495.61822  0.024835549  0.024928149            5 
 1664000   0.99829781   -7.1713677    498.59406  0.024969655  0.024920691            7 
 1665000   0.98482677    -7.163928    497.77201  0.024913514  0.024913369            7 
 1666000   0.98383353   -7.2036813    497.30159   0.02487503  0.024905879            9 
 1667000   0.99514157    -7.167837    498.40947   0.02491549  0.024898355            5 
 1668000   0.95804228   -7.1643482    498.91242   0.02492568  0.024890873            4 
 1669000   0.97654952   -7.1672789    499.25787  0.024927994  0.024883581            5 
 1670000    0.9742781   -7.1924515    499.01848  0.024901122  0.024876268            8 
 1671000   0.98864122   -7.1440081    499.77463  0.024923929  0.024868851            5 
 1672000   0.99201769   -7.1822678    500.58799  0.024949561  0.024861553            5 
 1673000   0.98338748   -7.1736559    500.48019  0.024929278  0.024854168            2 
 1674000   0.98749371   -7.1733355    500.30725  0.024905777  0.024846828            3 
 1675000   0.99654384   -7.1741583    499.25923  0.024838767  0.024839479            4 
 1676000   0.97314461   -7.1483394    500.85635  0.024903359  0.024832182            3 
 1677000    1.0023028   -7.1636658    500.30753  0.024861237  0.024824784            6 
 1678000   0.97336125    -7.193142    499.96851  0.024829584  0.024817307            5 
 1679000     0.978825    -7.183434    499.63943  0.024798463  0.024809823            5 
 1680000   0.99183095   -7.1831378    499.45985  0.024774794  0.024802414            5 
 1681000   0.99683277   -7.2012725    499.84515  0.024779157  0.024794824            4 
 1682000   0.99489066   -7.2115301    499.16526   0.02473074  0.024787214            4 
 1683000   0.98640001   -7.1630715    499.27468  0.024721463   0.02477975            5 
 1684000   0.97606258    -7.147863    501.74927  0.024829239  0.024772336            3 
 1685000   0.97062136   -7.1945592    500.87055  0.024771046  0.024764912           10 
 1686000   0.97858506   -7.1346385    501.37306  0.024781191  0.024757509            4 
 1687000   0.99303128   -7.1592669    502.14319  0.024804544  0.024750125            3 
 1688000   0.99204724   -7.1702355    501.38033  0.024752189  0.024742596            9 
 1689000     0.968916   -7.1869156    501.63401   0.02475005  0.024735007            6 
 1690000   0.98516872   -7.1637559    501.85045  0.024746078  0.024727468            3 
 1691000   0.96720112   -7.1457725    502.64282  0.024770492  0.024719989            4 
 1692000   0.98427554   -7.2082135    499.92133  0.024621815  0.024712502            5 
 1693000   0.97074624   -7.1893779    500.69656   0.02464543  0.024704867            5 
 1694000    1.0062698   -7.2028947    501.68558  0.024679535  0.024697296            8 
 1695000   0.96240112   -7.2185441    499.88475  0.024576438  0.024689726           12 
 1696000   0.97672558   -7.1683666    502.64344  0.024697496  0.024682153            3 
 1697000   0.98187995   -7.1835897    501.60163  0.024631783  0.024674672            5 
 1698000   0.99267321   -7.2069377    499.88513  0.024533035  0.024667105            5 
 1699000   0.98769153   -7.1626093    503.15451  0.024678954  0.024659591            4 
 1700000   0.98307121   -7.1563923    503.65825   0.02468913  0.024652058            3 
 1701000   0.98167492   -7.1856056    502.41692  0.024613802  0.024644555            6 
 1702000   0.96289763   -7.2082604    503.67177   0.02466078  0.024637174            4 
 1703000   0.95028994   -7.1709498    505.47146  0.024734364  0.024629723            7 
 1704000   0.97679817    -7.151335    504.06406   0.02465102  0.024622401            2 
 1705000   0.96502675   -7.1982724    502.06722  0.024538965  0.024614909            4 
 1706000   0.98964766   -7.1969578    502.68463  0.024554739  0.024607281            4 
 1707000   0.99893914   -7.1811117    503.78326  0.024593988  0.024599779           19 
 1708000   0.96151786   -7.2223753    502.31855  0.024508126  0.024592245            2 
 1709000   0.97979417   -7.1977144    504.51374  0.024600826  0.024584744            3 
 1710000   0.99359456   -7.2084888    504.63714  0.024592453  0.024577245            2 
 1711000   0.96523211   -7.1958126    502.78337  0.024487793  0.024569671           10 
 1712000   0.97483493   -7.2321827    502.75828  0.024472268  0.024562048            6 
 1713000   0.95037251     -7.19428    504.51103  0.024543249   0.02455437            4 
 1714000   0.99041019    -7.181933      503.552  0.024482303  0.024546774            3 
 1715000   0.98774311   -7.1528971    506.07013  0.024590385  0.024539354            8 
 1716000   0.97504436   -7.1604758     505.1428  0.024531022   0.02453177            3 
 1717000   0.99506167   -7.1853819    504.14969  0.024468535  0.024524139            7 
 1718000   0.96759501   -7.1871274    506.26323  0.024556812  0.024516538            6 
 1719000   0.98121804   -7.2253802     504.0002  0.024432819  0.024508768            4 
 1720000   0.97267168   -7.2518249    502.59577   0.02435057  0.024500965            5 
 1721000   0.97989843   -7.2548892    503.05214  0.024358519  0.024493118            5 
 1722000   0.97659185   -7.1943337    502.99435  0.024341577  0.024485325            5 
 1723000   0.95506146   -7.2049113    505.14027  0.024431238  0.024477581            9 
 1724000   0.96243995   -7.2030957    506.55047  0.024485231   0.02446998            3 
 1725000   0.97904627   -7.1761978    506.31143  0.024459489  0.024462353            5 
 1726000   0.95598406   -7.1988258    505.14158  0.024388837  0.024454688            3 
 1727000   0.98164742   -7.2044331    504.31198  0.024334683   0.02444697            5 
 1728000    0.9760084   -7.1874929    506.88552  0.024444711  0.024439298            5 
 1729000    0.9916602   -7.2112891    506.01247  0.024388494  0.024431614            6 
 1730000   0.98178205   -7.1875185    505.93317  0.024370577   0.02442405            2 
 1731000   0.97388423   -7.1993548    506.52102  0.024384798  0.024416404            3 
 1732000   0.99394507   -7.1692132    506.24189  0.024357289  0.024408678           12 
 1733000   0.98577654   -7.2475056    505.62201  0.024313426  0.024400822            5 
 1734000   0.99212917   -7.2829125    503.98348   0.02422066  0.024392944            6 
 1735000    0.9872622   -7.2265146    504.76911  0.024244434  0.024384967            4 
 1736000   0.97504471   -7.2137753    505.48534  0.024264849  0.024377114            9 
 1737000   0.98306656   -7.1675435    506.44781  0.024297055  0.024369326            6 
 1738000   0.99863493   -7.2061991     505.8555  0.024254675    0.0243616            5 
 1739000   0.96011583   -7.2203053    505.95531   0.02424551  0.024353736            4 
 1740000   0.97102554   -7.2070953    505.18602  0.024194733  0.024345752            7 
 1741000   0.98175646    -7.173899    507.11442  0.024273139  0.024337943            3 
 1742000   0.97120083    -7.218265    506.45092  0.024227464  0.024330109            4 
 1743000   0.97844554   -7.2477351    504.56153  0.024123232  0.024322204            8 
 1744000   0.96170069   -7.2228937     506.8202  0.024217326  0.024314397            4 
 1745000   0.96161698    -7.145072    508.49074  0.024283225   0.02430665            3 
 1746000   0.96491566   -7.2118825    507.74973   0.02423395  0.024299017            5 
 1747000   0.98419869   -7.2030101    508.44974   0.02425347  0.024291438            7 
 1748000   0.96220968   -7.2051533    508.40942  0.024237673  0.024283905            5 
 1749000   0.95670852   -7.1827464    508.76346  0.024240683  0.024276276            5 
 1750000   0.96137197   -7.2435691    508.76093  0.024226711  0.024268572            5 
 1751000   0.99422887   -7.2311377    509.25384  0.024236333  0.024260881            8 
 1752000   0.95848399   -7.2573751    507.33649  0.024131302  0.024253165            2 
 1753000   0.98037464   -7.2266668    507.81977   0.02414051  0.024245377            4 
 1754000   0.96724439     -7.21872    508.90581  0.024178345  0.024237579            5 
 1755000    0.9540824    -7.198963    510.04889  0.024218846  0.024229985            3 
 1756000   0.97463918   -7.1775002    509.66251  0.024186718  0.024222361            2 
 1757000    0.9626149   -7.2413539    509.02519  0.024142724   0.02421465            4 
 1758000   0.98652544   -7.2188737    509.69834    0.0241609  0.024206993            4 
 1759000    0.9717839   -7.1557437    511.61893  0.024238153  0.024199421            7 
 1760000   0.96516271   -7.1727644    510.53593  0.024173103  0.024191915            5 
 1761000   0.96143205   -7.1942823    510.22106  0.024144476  0.024184267            4 
 1762000   0.96903443   -7.2177141    509.54011  0.024098567    0.0241766            3 
 1763000   0.96495936   -7.2194244    510.78414  0.024143701   0.02416889            9 
 1764000   0.99123486   -7.2063995    510.99356  0.024139908  0.024161299            8 
 1765000    0.9708073   -7.2119304    513.08722  0.024225081  0.024153715            7 
 1766000   0.95126338   -7.2012043    511.35393  0.024129574  0.024146155            6 
 1767000   0.96317065   -7.2553707    511.45029  0.024120463   0.02413858            5 
 1768000   0.97997466   -7.1915419    511.84846  0.024125587  0.024131058           10 
 1769000   0.95469021   -7.2025693    512.14986  0.024126147  0.024123571            6 
 1770000   0.98648721   -7.2033963    512.24539  0.024117015  0.024116028            8 
 1771000   0.96469245   -7.1945998    511.38602   0.02406296  0.024108418            5 
 1772000   0.96851426   -7.2307303    509.68589  0.023969427  0.024100818            4 
 1773000   0.98135856   -7.2347007    511.73599  0.024052265  0.024093155            6 
 1774000   0.96697165   -7.2168246    511.10366  0.024009003  0.024085644            4 
 1775000    0.9737339   -7.1997735    511.56422  0.024017099  0.024078037            5 
 1776000   0.97699723   -7.2290086    512.94962  0.024068582  0.024070427            8 
 1777000    0.9604776   -7.2119283    512.33651  0.024026285  0.024062667            6 
 1778000   0.94991609   -7.2389954    511.52835  0.023974894  0.024054861            7 
 1779000   0.94591904   -7.2202396    512.23611  0.023994572  0.024047145           10 
 1780000   0.95587971    -7.233492    511.29134  0.023936861  0.024039433            7 
 1781000   0.98757876   -7.2670232    511.84601  0.023949374  0.024031659            6 
 1782000   0.97392287   -7.2093176    511.68236  0.023928281  0.024023836            4 
 1783000   0.95430413   -7.2237549     512.9374  0.023973519  0.024016195            6 
 1784000   0.97846084   -7.2121391    513.26905  0.023975572  0.024008521            4 
 1785000   0.96017767    -7.197026     513.6957  0.023982059  0.024000817            3 
 1786000   0.95749406   -7.2363569    513.56574  0.023962567  0.023993198            3 
 1787000   0.96109035   -7.2584673    511.33181  0.023844983  0.023985448            3 
 1788000   0.96282442   -7.2055258    513.07111   0.02391271  0.023977643            4 
 1789000   0.96319068   -7.1963165    513.25812  0.023908055  0.023969885            4 
 1790000   0.98936161   -7.2439501    510.76823  0.023778782  0.023962026            8 
 1791000   0.94114317   -7.2208645    512.81182  0.023860591  0.023954165            7 
 1792000   0.95899701   -7.2421075    511.74644  0.023797732  0.023946384            9 
 1793000   0.97980296   -7.1761196    514.65511  0.023919646  0.023938594            9 
 1794000    0.9574266   -7.2219041    513.62589  0.023858505  0.023930785           11 
 1795000   0.97378098   -7.2614878    511.71835  0.023756655  0.023922889            3 
 1796000   0.99024201   -7.2260444    513.73068  0.023836799  0.023915018            3 
 1797000    0.9470687   -7.2196533    514.30863  0.023850335  0.023907218           10 
 1798000   0.97537223   -7.2304919    513.83463  0.023815102   0.02389939           10 
 1799000   0.95157437   -7.2191308    514.30552  0.023823676  0.023891648            5 
 1800000   0.96501977    -7.214689    513.30808  0.023764263  0.023883827            7 
 1801000   0.95920174   -7.2030591    514.70045  0.023815494  0.023876066            9 
 1802000   0.97053946    -7.217671    514.47908   0.02379204  0.023868384            9 
 1803000   0.97699581   -7.2552158    514.29982  0.023770559   0.02386063            5 
 1804000   0.95839282   -7.2411562    512.34564  0.023667112  0.023852752            3 
 1805000   0.96692912   -7.2398178    514.62065  0.023759033  0.023844971            4 
 1806000   0.97775496   -7.2624738    514.39793    0.0237356  0.023837152            3 
 1807000   0.96795594   -7.2667968    515.32806   0.02376536  0.023829362            7 
 1808000   0.95012568   -7.2843981    514.74918  0.023725534  0.023821572           10 
 1809000     0.962902   -7.2227413      515.192  0.023732818  0.023813787            5 
 1810000   0.96795897   -7.2106076     515.6964  0.023742928  0.023806146            6 
 1811000     0.949967   -7.2379944    516.50018  0.023766804  0.023798556            4 
 1812000   0.97196672   -7.2668833    514.88941  0.023679609  0.023790899            3 
 1813000   0.94359377   -7.2202652    516.21543  0.023727497  0.023783252            8 
 1814000    0.9452416   -7.2354584    516.90617  0.023746149  0.023775619            4 
 1815000   0.96049679   -7.1929754    518.27581  0.023795951  0.023767938            5 
 1816000   0.96471808   -7.2281611    517.46242  0.023745522    0.0237603            6 
 1817000   0.95084552   -7.2426291    517.25264  0.023722832  0.023752736            5 
 1818000   0.96283021   -7.2199644    518.64892  0.023773786  0.023745143            8 
 1819000   0.97276701   -7.2479139    518.22336   0.02374122  0.023737532            9 
 1820000   0.97556865   -7.2341752    517.39737  0.023690356  0.023730005           11 
 1821000   0.95623479   -7.2450559     517.0274  0.023660416  0.023722477            3 
 1822000   0.97165244   -7.2147802    519.61657  0.023765851  0.023714911            6 
 1823000   0.96482831   -7.2109972    519.88779  0.023765212  0.023707456            5 
 1824000   0.95238025    -7.220255    519.39487  0.023729663  0.023699993            5 
 1825000   0.95742495   -7.2332785    518.11343  0.023658147  0.023692562            6 
 1826000   0.97429974   -7.2312817    519.93173  0.023728173  0.023685202            5 
 1827000   0.94802484   -7.2097069    519.53901  0.023697273  0.023677725            3 
 1828000   0.95190957   -7.2201476    519.97157  0.023704029  0.023670259            5 
 1829000   0.95983949   -7.2813324    518.15846  0.023608459  0.023662782            2 
 1830000   0.95601113   -7.2620354    519.15739  0.023641047  0.023655273            5 
 1831000   0.96217736   -7.2364322    519.03139  0.023622401  0.023647778            6 
 1832000   0.95694925   -7.2461341     519.1838  0.023616439  0.023640176            6 
 1833000   0.94874084   -7.2111771    520.60568  0.023668198  0.023632654           11 
 1834000   0.95277092   -7.2524876    520.38754  0.023645381  0.023625106           11 
 1835000   0.94492832   -7.2276365     520.6308  0.023643542   0.02361751            5 
 1836000   0.97248075   -7.2296248    520.69365  0.023633517   0.02361006            6 
 1837000   0.94186126   -7.2541513    520.01641   0.02358993  0.023602558            5 
 1838000   0.94507229   -7.2386706    520.97273  0.023620454  0.023595049            5 
 1839000   0.97637138   -7.2405269    519.82846  0.023555757   0.02358755            8 
 1840000   0.94489315   -7.2466651    520.21832  0.023560612   0.02357995            6 
 1841000   0.94081263   -7.2423023    520.33944  0.023553297  0.023572358            4 
 1842000   0.96209642   -7.2666266    519.60311  0.023507198  0.023564763            6 
 1843000   0.94333014   -7.3121088    520.01078  0.023512877  0.023557137            5 
 1844000   0.97242235   -7.2378997    520.42499  0.023518845  0.023549474            4 
 1845000   0.95638756   -7.2582403    522.13465  0.023583318  0.023541854            4 
 1846000   0.95287177   -7.2443224    520.71139  0.023506293  0.023534257            7 
 1847000   0.95278561   -7.2542998      520.231  0.023471891  0.023526733            4 
 1848000   0.95988999   -7.2714559    521.21681  0.023503644  0.023519222            5 
 1849000    0.9690704   -7.2650291    520.87508  0.023475531  0.023511727            6 
 1850000   0.94796959   -7.2397622    522.87617  0.023552981  0.023504297            6 
 1851000   0.92822286   -7.2785292     521.6738  0.023486125  0.023496835           12 
 1852000   0.94350451    -7.247664    522.85699  0.023526682  0.023489377            4 
 1853000   0.93955796   -7.2777544    523.49592   0.02354272  0.023481928           11 
 1854000   0.96456186   -7.2742858    521.87272  0.023457062  0.023474454            8 
 1855000    0.9578612   -7.2763743    523.34027  0.023510345  0.023466952            7 
 1856000     0.945655   -7.2718945    522.52103  0.023460894  0.023459391            4 
 1857000   0.98278734   -7.2597436    524.18124  0.023522762  0.023451928            5 
 1858000    0.9456629   -7.2610488    522.76741  0.023446691  0.023444399            7 
 1859000   0.94929836   -7.2235021      523.708  0.023476242  0.023436911            4 
 1860000   0.94823529   -7.2895238    523.23546  0.023442449  0.023429432            5 
 1861000   0.95552099   -7.2638683    521.33158  0.023344599  0.023421862            5 
 1862000    0.9374619   -7.2515221    521.60612  0.023344349  0.023414215            2 
 1863000   0.95144199    -7.293551    523.02706  0.023395378  0.023406487            4 
 1864000   0.95524649   -7.2761712    522.27235  0.023349086  0.023398796            4 
 1865000   0.96212213   -7.2575641    522.80937  0.023360561  0.023391205            7 
 1866000   0.95546401   -7.2907758    522.63897  0.023340433  0.023383513           11 
 1867000   0.91906274   -7.2781086    522.64636  0.023328261  0.023375759            7 
 1868000   0.97490177   -7.3022854    520.11894  0.023203022  0.023368006            5 
 1869000   0.94776198   -7.2756145     521.7786  0.023264607  0.023360297            3 
 1870000    0.9507567   -7.2231174    525.34493  0.023411093  0.023352646            1 
 1871000   0.95782804   -7.2538141    523.53103   0.02331779  0.023344938            6 
 1872000   0.95417726   -7.2601535    522.96359  0.023280074  0.023337206            5 
 1873000   0.94508215    -7.285034    521.82016  0.023216771  0.023329451            4 
 1874000   0.96653667   -7.2604952    522.07556   0.02321574  0.023321707            5 
 1875000   0.94917728    -7.275469    524.30986  0.023302661  0.023314041            6 
 1876000   0.94793725   -7.2669957    524.54391  0.023300636  0.023306444            6 
 1877000   0.95508487   -7.2230245    524.34992  0.023279609  0.023298858            5 
 1878000   0.93812083   -7.2673718    524.21469  0.023261213  0.023291192            8 
 1879000   0.95537006   -7.2365485    524.93675  0.023280856  0.023283596            3 
 1880000   0.94161293   -7.2849576    522.93496  0.023179741  0.023275941            6 
 1881000   0.92850931   -7.2944079    522.58313  0.023151831  0.023268127            3 
 1882000     0.970625   -7.2357408    524.05989  0.023204919  0.023260378            5 
 1883000   0.94344823   -7.2953733    524.28407  0.023202517   0.02325264            5 
 1884000   0.96809116    -7.293006    523.75703  0.023166889  0.023244899            4 
 1885000   0.97536363   -7.2552836    524.05699   0.02316786   0.02323717            3 
 1886000   0.94446003    -7.241873    523.61282   0.02313595  0.023229559            4 
 1887000   0.95921694   -7.2966388    524.62438  0.023168362  0.023221909            5 
 1888000   0.93330179   -7.2685743    525.69638  0.023203406  0.023214241            4 
 1889000   0.94719179   -7.2649666    526.35707  0.023220269  0.023206652            3 
 1890000   0.96274894   -7.2941044    524.05785  0.023106607  0.023199084            5 
 1891000   0.95024303   -7.2612525    525.27647   0.02314809  0.023191491            3 
 1892000   0.92260171   -7.2566182    526.82106  0.023203887  0.023183877            6 
 1893000   0.95375162   -7.2843326    524.81872  0.023103483  0.023176244            6 
 1894000   0.95959048   -7.3112071    525.18971  0.023107608   0.02316864            4 
 1895000   0.94801433   -7.2752476    524.92606   0.02308382  0.023160992            8 
 1896000   0.93534738   -7.3331263    524.82712  0.023067296  0.023153306            9 
 1897000   0.93997388    -7.344531    525.17083  0.023070235  0.023145503            4 
 1898000   0.94304552   -7.3073724    525.24794  0.023061466  0.023137748            6 
 1899000   0.96084997   -7.2807081    525.58188  0.023063976  0.023130014            5 
 1900000   0.96004184   -7.2885114     526.2949  0.023083109  0.023122285            5 
 1901000   0.91711905   -7.2623779    526.18508  0.023066153  0.023114568            5 
 1902000   0.95841558   -7.2770159    525.28712  0.023014683  0.023106871           11 
 1903000   0.95259206   -7.3103193    526.08206    0.0230374    0.0230993            6 
 1904000   0.93133168   -7.2496524    527.31034  0.023079059  0.023091704            6 
 1905000   0.94806083   -7.2654224    528.22554  0.023106979  0.023084075            3 
 1906000   0.93870179   -7.2222187    529.05307  0.023131037   0.02307654            6 
 1907000   0.93880471   -7.2720566    526.74863  0.023018206  0.023069067            5 
 1908000   0.92136498   -7.2349654    527.33168  0.023031607  0.023061541           11 
 1909000    0.9428136   -7.2692132    528.55441  0.023072918  0.023054021            6 
 1910000   0.95502874   -7.2726389    529.29786  0.023093275  0.023046438            5 
 1911000   0.94135995     -7.24803    528.48933  0.023045933   0.02303893            6 
 1912000   0.94385669     -7.28635    527.81906  0.023004666  0.023031387            5 
 1913000   0.94413208   -7.2835445    529.43102   0.02306286  0.023023763            5 
 1914000   0.93442305   -7.2861884    527.43281  0.022963811  0.023016115           10 
 1915000   0.96352153   -7.3105881     528.7089   0.02300735  0.023008452            7 
 1916000   0.94706291   -7.3211128    527.95002  0.022962336  0.023000788            5 
 1917000   0.95059152   -7.2860334    528.47869  0.022973339  0.022993101           12 
 1918000   0.92785698   -7.3557538    526.34963  0.022868858  0.022985415            4 
 1919000   0.95025727   -7.2952837    529.12593  0.022977503   0.02297779            7 
 1920000       0.9566   -7.3027988    529.38147  0.022976626  0.022970124            9 
 1921000   0.93496853   -7.3182434    528.96267  0.022946498   0.02296252            3 
 1922000   0.94384904   -7.2545813    530.62818  0.023006771  0.022954922            5 
 1923000   0.94146812   -7.2968543     529.2358  0.022934469  0.022947256            7 
 1924000   0.93012078    -7.309423    526.87047    0.0228201  0.022939508            9 
 1925000   0.95306622   -7.2952756    529.43988  0.022919475  0.022931771            4 
 1926000   0.94523487   -7.3079631    528.20227  0.022854027  0.022924013            8 
 1927000   0.91646889   -7.2699911    529.10134  0.022881047  0.022916336           11 
 1928000   0.95155275   -7.3485427    529.39532  0.022881886   0.02290863            4 
 1929000   0.95742798   -7.3062539    529.52167  0.022875482  0.022900956            6 
 1930000   0.92627646   -7.3077502    529.81663  0.022876366  0.022893233            9 
 1931000   0.94107362   -7.2989607    528.96672  0.022827841  0.022885523            6 
 1932000   0.92381291     -7.28427     529.5376  0.022840649  0.022877843            4 
 1933000    0.9479914   -7.3211863    530.10815  0.022853429  0.022870181            4 
 1934000   0.95257095   -7.2495703    530.30032  0.022849893  0.022862597            6 
 1935000   0.92344611   -7.2583882    531.90404  0.022907151  0.022855065            8 
 1936000   0.94479323   -7.2663787    531.33971  0.022871028  0.022847594            5 
 1937000   0.94615729   -7.3048937    530.84871  0.022838096  0.022840107            5 
 1938000   0.93465347   -7.2901601    532.02901  0.022877064  0.022832549            3 
 1939000    0.9436937   -7.2537622    532.03251  0.022865417  0.022824949            6 
 1940000   0.91767075   -7.2781946    533.70538  0.022925489   0.02281747            3 
 1941000   0.95135047   -7.2783219     531.2946  0.022810175  0.022810027            7 
 1942000   0.94596912   -7.2759918    532.51016   0.02285059  0.022802548            4 
 1943000   0.93712629   -7.3034924    532.37548  0.022833054    0.0227951            5 
 1944000   0.95794015   -7.2574907    532.68552  0.022834599  0.022787731            6 
 1945000   0.94829702   -7.2624207    533.77802  0.022869667  0.022780346            5 
 1946000   0.95305214   -7.3223947    531.64202  0.022766445  0.022772964            5 
 1947000   0.93681371   -7.3145674    532.65331  0.022798036  0.022765483           15 
 1948000   0.94812833   -7.3436695    530.14228  0.022678913  0.022757942            5 
 1949000    0.9494668   -7.3209301      531.223  0.022713486  0.022750414            3 
 1950000   0.93330261   -7.2973736    532.58177  0.022759905  0.022742859            4 
 1951000   0.92415813   -7.3162163    531.39519  0.022697556  0.022735422            6 
 1952000   0.93495969    -7.337657    532.24222  0.022722089  0.022727937            5 
 1953000   0.91717085   -7.2884965    533.61772  0.022769147  0.022720453            3 
 1954000   0.95563599   -7.3056358    533.60207  0.022756826  0.022712959            8 
 1955000   0.93001823   -7.3094382     534.0755  0.022765366   0.02270547            4 
 1956000   0.92330043   -7.3071068    533.09918  0.022712133  0.022697869           12 
 1957000   0.92927539   -7.3261896    532.08508  0.022657344  0.022690324            3 
 1958000   0.95346261   -7.3141139    531.99854   0.02264209  0.022682745            9 
 1959000   0.94670348   -7.3181881    532.71955  0.022661202  0.022675136            6 
 1960000   0.95605995   -7.3257832    532.75689  0.022651228  0.022667577            6 
 1961000   0.93456233   -7.2877854    533.39352  0.022666731  0.022659982            7 
 1962000   0.94339311    -7.278703    535.70845  0.022753502  0.022652424            3 
 1963000   0.91980374   -7.2968385    534.52252  0.022691565  0.022644839            6 
 1964000   0.92621685   -7.2994193    533.27837  0.022627222  0.022637351            8 
 1965000   0.93427242   -7.2774423    534.54585  0.022669459  0.022629814           12 
 1966000   0.95214683   -7.3091898    533.25227  0.022603097  0.022622247           13 
 1967000   0.92859331   -7.3463519    531.69311  0.022525551  0.022614612           10 
 1968000   0.92829624   -7.3020755    533.56531  0.022593382  0.022606949           10 
 1969000   0.95084807   -7.3449332    532.58832  0.022540559  0.022599308            3 
 1970000    0.9317204   -7.3339721    534.35529  0.022603862  0.022591709            3 
 1971000   0.93883542   -7.3582474    533.13167  0.022540659  0.022584056            6 
 1972000   0.95885653   -7.3185645    533.27585  0.022535321  0.022576402            2 
 1973000   0.92704508   -7.3732077    531.98638  0.022469436  0.022568703           10 
 1974000    0.9395754   -7.3392604    533.97873  0.022542162  0.022561026            3 
 1975000   0.94379432   -7.3623437    533.06151  0.022492047  0.022553329            7 
 1976000   0.92664233   -7.3194157    532.49806  0.022456902  0.022545602            9 
 1977000   0.92538527   -7.3427173      533.011  0.022467164  0.022537901            4 
 1978000   0.95037422   -7.3281895    532.61299  0.022439037  0.022530184            4 
 1979000   0.93568023   -7.3350356    533.78307  0.022476969  0.022522511            8 
 1980000   0.93192403   -7.2861385    534.59071  0.022499609  0.022514872            5 
 1981000   0.93522604   -7.3404345     534.9336  0.022502675  0.022507272            5 
 1982000   0.93578119   -7.3397809    534.03372  0.022453486  0.022499689            6 
 1983000   0.92922884   -7.3945157    533.86042  0.022434881  0.022492033            4 
 1984000   0.94507625   -7.2974361    536.88966  0.022550809  0.022484439            6 
 1985000   0.93757804   -7.3229985    535.79445   0.02249347  0.022476896            7 
 1986000   0.91264769    -7.330688    535.56494  0.022472513  0.022469367            5 
 1987000   0.91709571   -7.3097845    536.55855  0.022502875  0.022461772            4 
 1988000   0.91339624   -7.3355969    536.46945  0.022487821  0.022454283            6 
 1989000   0.91873941   -7.3457801    535.84855  0.022450501  0.022446758            5 
 1990000   0.93731136   -7.2720762    537.22905  0.022497029  0.022439312            3 
 1991000   0.94233972   -7.3250095     537.0298   0.02247739  0.022431986            3 
 1992000   0.93024587   -7.3584751    536.07152  0.022426017   0.02242453            4 
 1993000    0.9399552    -7.326789    537.70092  0.022482895  0.022417061            6 
 1994000    0.9391577   -7.3212793    536.84155  0.022435705  0.022409633            5 
 1995000   0.93598322   -7.3120028    537.63371  0.022457548  0.022402195            3 
 1996000   0.94863913    -7.302752    536.89677   0.02241553  0.022394785            7 
 1997000   0.93787612     -7.28132    537.26068  0.022419491  0.022387366            5 
 1998000   0.93752754   -7.3414785    537.93389  0.022436348  0.022379993            3 
 1999000   0.93734378   -7.3184545    538.53759  0.022450292  0.022372591            2 
 2000000   0.91970771   -7.3132074    537.68052  0.022403355  0.022365158            7 
 2001000   0.93145723   -7.3336989    537.10571   0.02236822  0.022357696           16 
 2002000   0.94044122   -7.3213544    539.45595  0.022454876  0.022350238           16 
 2003000    0.9161529   -7.3434757    536.08772  0.022303533  0.022342743           14 
 2004000   0.93094437   -7.3605332    537.01539  0.022330979  0.022335262            5 
 2005000    0.9287441   -7.3264673    537.17643  0.022326535  0.022327811            9 
 2006000   0.91162091    -7.370657    537.63312  0.022334377  0.022320286            7 
 2007000   0.93736189   -7.3568549    537.08741   0.02230059  0.022312746            5 
 2008000   0.92602364   -7.3205641    537.43608  0.022303954  0.022305347            5 
 2009000   0.93334142   -7.3153325    539.42558  0.022375377  0.022297888            9 
 2010000   0.93349699   -7.3439225    537.60492  0.022288761  0.022290514            8 
 2011000   0.92415797   -7.3442809    537.75283  0.022283807  0.022283101           10 
 2012000   0.94479503   -7.3439247    538.70128  0.022312015  0.022275556            7 
 2013000    0.9317929   -7.3278338    537.71988  0.022260303  0.022267988            8 
 2014000   0.92265919   -7.2881181    539.70345  0.022331325  0.022260452            2 
 2015000   0.93221942   -7.3377546    537.97164   0.02224862  0.022252911            6 
 2016000    0.9269154   -7.3136797    539.72431  0.022310033  0.022245369            3 
 2017000   0.91740029   -7.3300891    537.97974  0.022226894  0.022237823            3 
 2018000    0.9402336   -7.3103183    538.59184  0.022241156    0.0222303           11 
 2019000   0.93536682   -7.3423638    538.64153  0.022232191  0.022222767            4 
 2020000    0.9170871   -7.3561239    538.76596  0.022226318  0.022215161            3 
 2021000   0.93082969   -7.3517474    538.57815  0.022207577  0.022207441           10 
 2022000   0.93010808   -7.3566105    536.74356  0.022120984  0.022199761           10 
 2023000    0.9522601   -7.3888985    537.23063  0.022130113  0.022192016            6 
 2024000   0.93718421   -7.3729644    537.82255   0.02214355  0.022184275           10 
 2025000   0.93987463   -7.3534571    537.35002  0.022113169  0.022176598            7 
 2026000   0.93923269   -7.3811959    538.09182  0.022132767  0.022168926           10 
 2027000   0.91910674   -7.3758282    538.35286  0.022132579   0.02216125            6 
 2028000    0.9468141   -7.3369312    537.45978  0.022084968  0.022153527            4 
 2029000   0.92459636   -7.3869903    537.92792   0.02209331  0.022145852            7 
 2030000   0.93980481   -7.3599406    537.02268  0.022045266  0.022138158            3 
 2031000   0.91837405   -7.3575705    539.10754  0.022119955  0.022130455            3 
 2032000   0.91144527   -7.3633822    537.11919  0.022027526  0.022122706            9 
 2033000    0.9179837   -7.3871098    537.85928  0.022047027  0.022114971            4 
 2034000    0.9308376   -7.3588913     538.5268  0.022063537  0.022107267            4 
 2035000   0.92669434   -7.3469607     538.9926  0.022071769  0.022099578            4 
 2036000   0.94146964   -7.4062047    537.61039  0.022004355  0.022091843            7 
 2037000   0.92965727   -7.3675511    539.26257  0.022061143  0.022084198            4 
 2038000   0.94904139   -7.3503562    538.14837  0.022004758   0.02207654            5 
 2039000   0.92413998   -7.3488579    540.25329  0.022079994  0.022068863            6 
 2040000   0.92332968   -7.3694722    537.51131  0.021957161  0.022061198            7 
 2041000   0.91268995   -7.3813528    538.42774  0.021983821  0.022053486            6 
 2042000   0.93642431   -7.4037502    537.18724   0.02192243  0.022045709            6 
 2043000   0.93621016   -7.3896808    539.11111  0.021990174  0.022038071            6 
 2044000   0.92704331   -7.3947895    538.12876  0.021939366  0.022030312            5 
 2045000   0.94297014   -7.3597656    540.98774   0.02204514  0.022022541           10 
 2046000   0.91855733   -7.3497141    540.48677  0.022013961  0.022014908            6 
 2047000    0.8982199   -7.3404104    540.63341  0.022009176  0.022007312            4 
 2048000    0.9334523    -7.357178    541.15195  0.022019529  0.021999734            4 
 2049000   0.91364564   -7.3784348    540.53219  0.021983577  0.021992122            5 
 2050000   0.92881622   -7.3335924    538.94293  0.021908249  0.021984459           10 
 2051000   0.90240558   -7.3594761    540.14492  0.021946405  0.021976807            7 
 2052000   0.92924957   -7.3648181    539.56063  0.021911982  0.021969139            8 
 2053000   0.93763126   -7.3981309     540.0938   0.02192295  0.021961502            6 
 2054000   0.91755683   -7.3960078    539.92695  0.021905507  0.021953843           10 
 2055000   0.92777257   -7.3770276    539.62529  0.021882615  0.021946213            4 
 2056000   0.94548592   -7.3473414    541.43607  0.021945366  0.021938675            4 
 2057000   0.92337327   -7.3529219    542.36455  0.021972312   0.02193114            9 
 2058000   0.91497866   -7.3552688     541.1118  0.021910909  0.021923526            5 
 2059000   0.93453037   -7.3673722    542.86723  0.021971314   0.02191596            5 
 2060000   0.92200512   -7.3332418    542.66655   0.02195253  0.021908468            4 
 2061000   0.89898146   -7.3214558    543.04814  0.021957308  0.021900982            5 
 2062000   0.92142251   -7.3367786    541.03793  0.021865419  0.021893426            6 
 2063000   0.92405881   -7.3503697    543.08506  0.021937513  0.021885879            7 
 2064000   0.91498857   -7.3315147    542.17964  0.021890328  0.021878313            5 
 2065000   0.92834439   -7.3684844    543.40837  0.021929313  0.021870798            6 
 2066000   0.92612466   -7.3464303    543.97832  0.021941687   0.02186336            5 
 2067000   0.90534337     -7.31673    544.13548  0.021937409  0.021855837            6 
 2068000   0.91081416   -7.3778464     542.8925  0.021876713  0.021848293            8 
 2069000   0.93108884   -7.3704145    542.23294  0.021839574  0.021840724            5 
 2070000   0.92139929   -7.3908648    541.69756   0.02180747  0.021833108            3 
 2071000    0.9233232   -7.3875112    540.99518  0.021768678  0.021825516            5 
 2072000   0.93105348   -7.3526483    541.54429  0.021780256  0.021817878            6 
 2073000   0.91439775   -7.3818201    543.11278  0.021832802  0.021810302            4 
 2074000   0.92277952   -7.3505094    544.03657  0.021859393  0.021802772            7 
 2075000   0.92453518   -7.3531504    543.22354  0.021816207  0.021795163           10 
 2076000   0.90351036   -7.3974993    542.64183  0.021782347  0.021787542            6 
 2077000   0.92597784   -7.3289086     544.3307   0.02183962  0.021779978            9 
 2078000   0.93190002   -7.3368885    542.56531  0.021758314  0.021772491            7 
 2079000   0.93060426   -7.3717651    542.51634  0.021745885  0.021764925            9 
 2080000   0.91942651   -7.3809708    543.33513  0.021768234  0.021757387            5 
 2081000   0.90431319     -7.37935    543.50942  0.021764753  0.021749821            5 
 2082000   0.91920271   -7.3459173    544.08188  0.021777213  0.021742314            8 
 2083000   0.90254529   -7.4073454    542.41445   0.02170005  0.021734758            6 
 2084000   0.90379125   -7.3883085    543.25806  0.021723371  0.021727169            6 
 2085000    0.9118865   -7.3774265    543.50026  0.021722632  0.021719614            7 
 2086000   0.91752686   -7.3458157    543.92785    0.0217293  0.021712128            8 
 2087000   0.90809815   -7.3717081    543.65237  0.021707889  0.021704536            9 
 2088000   0.92278024   -7.3787399    543.71656  0.021700054  0.021696945           11 
 2089000   0.91801453   -7.3964835     543.9643  0.021699549  0.021689325            4 
 2090000   0.91523899   -7.3979028    542.53462  0.021632162  0.021681691            5 
 2091000   0.92092129   -7.3867807    542.36792  0.021615173  0.021674065            4 
 2092000   0.92191418   -7.3777277    543.72798  0.021659018  0.021666396            5 
 2093000   0.90771523   -7.3922427    544.71101  0.021687809  0.021658727            5 
 2094000   0.90815679   -7.3925248    543.92745  0.021646269  0.021651171            4 
 2095000    0.9000857   -7.3279878    544.80788  0.021670958  0.021643548            8 
 2096000   0.92979631   -7.3778424    545.62221  0.021692995  0.021635963            3 
 2097000   0.91769956   -7.4036674    543.64329  0.021604009  0.021628398           21 
 2098000   0.89628496   -7.3404566    546.04248  0.021689009  0.021620932            3 
 2099000   0.92126057   -7.3357766    545.13048  0.021642468  0.021613424            8 
 2100000     0.928918   -7.3900709    544.90624  0.021623264  0.021605856            8 
 2101000    0.9131658   -7.3819253    544.01055  0.021577445  0.021598331            6 
 2102000   0.91308729   -7.3763113    544.84139  0.021600119  0.021590747           18 
 2103000   0.91632464   -7.3670448      546.629  0.021660683  0.021583268            5 
 2104000   0.92370667   -7.4397461    543.85927  0.021540687  0.021575776            4 
 2105000   0.91900201   -7.4152519    544.74769  0.021565625  0.021568163            8 
 2106000   0.90457645   -7.3638982    545.21295  0.021573795  0.021560584            9 
 2107000    0.9019057   -7.3820642    545.14745  0.021560965     0.021553            6 
 2108000   0.90457981    -7.360338    545.06225  0.021547369  0.021545446            7 
 2109000    0.9030096   -7.4135535    544.29868  0.021506981   0.02153789            6 
 2110000   0.90563973   -7.3728021    547.27857  0.021614478  0.021530306            3 
 2111000   0.92178334   -7.3573803    545.84584   0.02154768  0.021522786            9 
 2112000   0.90557672   -7.3615099    546.17883  0.021550617  0.021515269            3 
 2113000   0.89808555   -7.3582048    546.56857  0.021555788  0.021507839            9 
 2114000   0.89723084   -7.3282905    547.66108  0.021588658  0.021500388            4 
 2115000   0.90759631   -7.4102479    545.76655  0.021503804  0.021492899           11 
 2116000   0.89940321   -7.3419314    546.90169  0.021538346  0.021485423            7 
 2117000   0.90129009   -7.3553039    547.70095  0.021559634   0.02147804            3 
 2118000   0.91327178    -7.372405    547.03922  0.021523419  0.021470584            5 
 2119000   0.90304862   -7.3660998    546.53533  0.021493445  0.021463085            4 
 2120000   0.91252523   -7.3934745    546.94153  0.021499274  0.021455631            7 
 2121000   0.91694744   -7.3862022    547.00853   0.02149177  0.021448093            8 
 2122000   0.91159794   -7.3584814    546.76386  0.021472033  0.021440637            7 
 2123000   0.89653873   -7.3860646    546.83106  0.021464557  0.021433255            5 
 2124000   0.90291955   -7.3692522    547.74001  0.021490113  0.021425813            9 
 2125000   0.92999521   -7.4007514    547.04864  0.021452888  0.021418359           14 
 2126000   0.90996901   -7.4143219    545.30523   0.02137446  0.021410883            6 
 2127000   0.88072009   -7.4323674    547.24367  0.021440357  0.021403382            9 
 2128000   0.90138102   -7.4079346    546.80445  0.021413081  0.021395853            7 
 2129000   0.92434551   -7.4184359    546.23409  0.021380699  0.021388391           11 
 2130000   0.92716365   -7.4377669    547.00433  0.021400796  0.021380887            7 
 2131000   0.91717126   -7.4217792    546.28258  0.021362529  0.021373386            6 
 2132000   0.88915446   -7.3954478    547.73829  0.021409408  0.021365807            7 
 2133000   0.90571065   -7.3977768    546.91309  0.021367131  0.021358253            9 
 2134000   0.90856582   -7.4569858    546.26514  0.021331816  0.021350704            9 
 2135000   0.91091168   -7.3877629    547.81783  0.021382429  0.021343136            6 
 2136000   0.91843498   -7.4012377    547.89498  0.021375429  0.021335546            8 
 2137000   0.93377898   -7.4378804    545.99681  0.021291406  0.021327946           12 
 2138000   0.89434092   -7.4420049      545.958  0.021279935  0.021320338           10 
 2139000   0.92779144   -7.4319255    546.64672  0.021296818   0.02131273            5 
 2140000   0.90705115   -7.3668044    548.29312  0.021350978  0.021305148            7 
 2141000     0.893668   -7.3838373    546.63393  0.021276426  0.021297593            5 
 2142000   0.91736953   -7.3894352    548.69149  0.021346541   0.02129003            4 
 2143000   0.92690876   -7.4435044    546.56168  0.021253759  0.021282472            9 
 2144000   0.91729962   -7.3847791    547.62834  0.021285305   0.02127489            4 
 2145000   0.89012296   -7.4261712    547.33221  0.021263878  0.021267347            5 
 2146000   0.92770452    -7.428035    546.07063  0.021204979   0.02125978            8 
 2147000   0.91299428   -7.3919756    548.12893  0.021274993  0.021252258            9 
 2148000   0.90821243   -7.3524073    549.31602  0.021311143  0.021244771            5 
 2149000   0.90166455   -7.4121778    547.51494  0.021231384  0.021237303            3 
 2150000   0.91564945   -7.4124556    548.79906  0.021271281  0.021229661            5 
 2151000   0.90389052    -7.426552    548.19733   0.02123808  0.021222076            6 
 2152000   0.90558641   -7.3996744    548.50267  0.021240035   0.02121445            4 
 2153000   0.89867963   -7.4158361    547.96242  0.021209259  0.021206864            6 
 2154000    0.9233669   -7.4142292    548.47403  0.021219206  0.021199309            5 
 2155000    0.9194321   -7.4503409    548.87669   0.02122493  0.021191759            4 
 2156000   0.90394376   -7.4613937    546.06462  0.021106394  0.021184104            5 
 2157000   0.91393939   -7.4188226    548.45727  0.021189046   0.02117649            7 
 2158000   0.89472151   -7.4205682    548.67722  0.021187721  0.021168876            9 
 2159000   0.89606146   -7.4218929    549.03442  0.021191695   0.02116134            7 
 2160000   0.89029462   -7.4154049    548.91291  0.021177196  0.021153855            5 
 2161000   0.91062047   -7.3752393    550.96882  0.021246677  0.021146435           11 
 2162000   0.90773789   -7.4119621      549.356  0.021174684  0.021139074            5 
 2163000   0.89745308   -7.3958171    549.29608  0.021162586   0.02113167            4 
 2164000    0.9220406   -7.4082735    550.13662  0.021185175  0.021124286           13 
 2165000   0.90832324   -7.4286171    549.31072    0.0211436  0.021116869            3 
 2166000   0.86992336   -7.4595067    548.49993  0.021102644  0.021109412            5 
 2167000   0.91153937   -7.4138466    548.93674  0.021109704  0.021101912           10 
 2168000   0.90334312   -7.4597567    548.98334  0.021101758  0.021094443           11 
 2169000   0.91443384   -7.3932526    551.97395  0.021206929  0.021086948            9 
 2170000   0.90893343   -7.3833141    551.48624  0.021178427  0.021079553            8 
 2171000    0.9166414   -7.4007004    551.24457  0.021159395  0.021072216            5 
 2172000   0.90709227   -7.3764761    552.62012  0.021202429  0.021064915            4 
 2173000   0.91288598   -7.3956142      551.724  0.021158306  0.021057589            3 
 2174000   0.89750542   -7.4040744    550.05839  0.021084728  0.021050239            5 
 2175000    0.9221578   -7.4532722    549.22072  0.021042939   0.02104288            4 
 2176000   0.89077967   -7.4113279    551.93046  0.021137043  0.021035529            7 
 2177000   0.88689423    -7.393173    552.76304  0.021159204   0.02102823            5 
 2178000   0.89384601   -7.4332922    552.25603   0.02113009  0.021020927            9 
 2179000   0.91121909   -7.4115994    553.24203  0.021158101  0.021013629            5 
 2180000   0.89255934   -7.4105054     550.6359  0.021048773   0.02100635            6 
 2181000   0.89739421   -7.4282984    553.09967  0.021133259  0.020999028            6 
 2182000   0.90877852   -7.4266018    551.52057  0.021063267  0.020991636           14 
 2183000   0.89937323    -7.451886    550.84001  0.021027638  0.020984255            3 
 2184000   0.90173827   -7.4249373    551.08287  0.021027277  0.020976869            5 
 2185000   0.91943812   -7.4340662    552.42603   0.02106888  0.020969538           11 
 2186000   0.89786751   -7.4421658    551.86843  0.021037985  0.020962183            5 
 2187000   0.89452645    -7.448928    551.69361  0.021021704   0.02095479           11 
 2188000   0.89999396   -7.4153131    549.88375  0.020943165  0.020947384            7 
 2189000   0.89562906   -7.4161511    553.18744  0.021059367  0.020939959            3 
 2190000    0.8820503   -7.4327976     551.6295  0.020990468  0.020932619            9 
 2191000   0.89365976     -7.42772    552.81166   0.02102585   0.02092521            8 
 2192000   0.88227829   -7.4554555    551.09339  0.020950935  0.020917749            5 
 2193000   0.91884088   -7.4340544    549.84703   0.02089402  0.020910295            3 
 2194000   0.90859494   -7.4283667    552.08806  0.020969616  0.020902859           14 
 2195000   0.89665882   -7.4233345    552.31117  0.020968533  0.020895457            6 
 2196000   0.91607456   -7.4280009    551.72972   0.02093692  0.020888034            4 
 2197000    0.9192674   -7.4912022    551.20306  0.020907414  0.020880545           10 
 2198000   0.91964825   -7.4540168    551.19284  0.020897515  0.020873024            4 
 2199000   0.90473875   -7.4920193     550.8615  0.020875455  0.020865524            5 
 2200000   0.90406397   -7.4834655    549.85679  0.020827909  0.020857955           12 
 2201000   0.87394951   -7.4389359    551.58658  0.020883938  0.020850441           12 
 2202000   0.87938898   -7.4574202     551.8681  0.020885108  0.020842944            6 
 2203000   0.90510949   -7.4680323    552.34839  0.020893796  0.020835515            9 
 2204000   0.89693576    -7.413063    552.66465  0.020896274  0.020828108            8 
 2205000   0.91157906   -7.4384269    554.01232  0.020937729  0.020820724            4 
 2206000   0.90825364   -7.4365698    552.90078  0.020886249  0.020813339            6 
 2207000   0.89853965   -7.3820644    553.23296  0.020889328   0.02080606            5 
 2208000   0.91246574   -7.4068706    553.51197  0.020890397  0.020798732            8 
 2209000   0.91171157   -7.4301715    550.89904  0.020782369  0.020791381            7 
 2210000   0.88261128    -7.410999    554.35132  0.020903142  0.020784012            3 
 2211000   0.89926634   -7.3788759    556.44705  0.020972676  0.020776714           11 
 2212000   0.88935192   -7.4355465    553.82474  0.020864404  0.020769452           13 
 2213000   0.91472581   -7.4510944    552.55587  0.020807195  0.020762093           14 
 2214000   0.89531607     -7.44502    553.57523  0.020836165  0.020754674            4 
 2215000    0.8902568   -7.4362094    553.11078  0.020809285  0.020747338            9 
 2216000   0.89268742   -7.4153956    554.01612   0.02083394   0.02073996            4 
 2217000   0.90419987   -7.4210057    555.18291    0.0208684  0.020732713            6 
 2218000   0.90231979   -7.4223887    554.77462  0.020843651  0.020725434            3 
 2219000   0.90932808   -7.4361199    555.07205  0.020845428  0.020718194            7 
 2220000   0.90634956   -7.4329402    552.57734  0.020742393  0.020710904            6 
 2221000   0.88972929   -7.4318584    554.78587  0.020815919  0.020703594            8 
 2222000   0.90450403   -7.4363042    555.44245  0.020831175  0.020696308            8 
 2223000   0.91371419   -7.4402102      553.325  0.020742428  0.020689029            7 
 2224000   0.88822928   -7.4501745     553.1416  0.020726229   0.02068171            7 
 2225000   0.89985698   -7.4223256    554.19904  0.020756518  0.020674364            8 
 2226000   0.89082147   -7.4242321    554.64884  0.020764033  0.020667034            8 
 2227000   0.90625407   -7.4202056      554.685  0.020756062  0.020659729            5 
 2228000   0.91206669    -7.423292    555.61229  0.020781429  0.020652329            8 
 2229000   0.87574931   -7.4099908    554.83737  0.020743135  0.020644954            6 
 2230000   0.90830015   -7.4213369    552.66132  0.020652516  0.020637611            6 
 2231000   0.87716138    -7.445088    555.23468   0.02073938  0.020630242           11 
 2232000    0.8845174   -7.4388553    553.93775  0.020681666  0.020622899            6 
 2233000   0.90335347   -7.4197154    556.69853  0.020775434  0.020615587            4 
 2234000   0.89585754   -7.4331066    553.38781  0.020642637  0.020608284            9 
 2235000   0.90206961    -7.434625    553.81912  0.020649482  0.020600892            7 
 2236000   0.89278529   -7.4263347    554.49087  0.020665283   0.02059351            5 
 2237000   0.90277416    -7.412663    554.85104  0.020669462   0.02058615            7 
 2238000   0.90993501    -7.424219    555.52639  0.020685373  0.020578836            7 
 2239000   0.89101195   -7.4498111    555.24089  0.020665509  0.020571524            8 
 2240000   0.88232138   -7.4289801    555.58323  0.020669019  0.020564176            7 
 2241000   0.90679487   -7.4522323    554.88053  0.020633665  0.020556863            4 
 2242000   0.91380282   -7.4408532    554.49922  0.020610289   0.02054951           11 
 2243000   0.88751518   -7.4775971    555.41466  0.020635111  0.020542159            9 
 2244000   0.90503115   -7.4543905    555.76522  0.020638934  0.020534789            7 
 2245000   0.86308753   -7.4231923    557.16941  0.020681864  0.020527438            7 
 2246000   0.90255744   -7.4810616    555.91282  0.020626032  0.020520128           10 
 2247000   0.88590399   -7.4721819     553.8688  0.020541047  0.020512799            7 
 2248000   0.88931105   -7.4275654    556.44919  0.020627565  0.020505502           12 
 2249000   0.88044019   -7.4509538    557.11745  0.020643154  0.020498235           12 
 2250000   0.88473042   -7.4487341    555.64648  0.020579499  0.020490943            8 
 2251000   0.89279363   -7.4939634    554.76078  0.020537568  0.020483631            5 
 2252000   0.86931942   -7.4593588    556.06649  0.020576765  0.020476325            6 
 2253000   0.89186619   -7.4633504    556.81973  0.020595492  0.020469074            6 
 2254000   0.87343143   -7.4180033    557.73582  0.020620224  0.020461803           20 
 2255000   0.88943649   -7.4108543    557.31419  0.020595499  0.020454566            8 
 2256000   0.91298852   -7.4271024    557.25725  0.020584266   0.02044733           12 
 2257000   0.89826503   -7.4640131    557.49689  0.020583994  0.020440114            6 
 2258000   0.88456763   -7.4724838    555.40855  0.020497806  0.020432863            2 
 2259000   0.88567103   -7.4359964    557.21146  0.020555241  0.020425591            2 
 2260000   0.90333266   -7.4628194    555.73335  0.020491643  0.020418369           11 
 2261000   0.89284737   -7.4479916    557.83444  0.020560019  0.020411127            3 
 2262000   0.91378439   -7.4528182    556.12552  0.020487972   0.02040389            4 
 2263000   0.87114377   -7.4325567    557.42056  0.020526608  0.020396652            7 
 2264000   0.87340884   -7.4995983    556.64609  0.020489034  0.020389417           14 
 2265000   0.89162497   -7.4568107    557.57026  0.020513991  0.020382201            4 
 2266000    0.8876914   -7.4814419    557.16682  0.020490101  0.020374944            7 
 2267000   0.88326502   -7.4892443    557.36769  0.020488446  0.020367641            6 
 2268000   0.89941363   -7.4478265    558.06554  0.020505054  0.020360381            9 
 2269000   0.91006688   -7.4712113    556.79199  0.020449243  0.020353142            7 
 2270000   0.89250619   -7.4685993    558.03161  0.020485742  0.020345942            8 
 2271000   0.89067753   -7.4776709     556.4692   0.02041939  0.020338766            7 
 2272000   0.88614092   -7.4692734    558.55503  0.020486907  0.020331586            7 
 2273000   0.89017847   -7.5022465    556.71307  0.020410363  0.020324434            7 
 2274000    0.8906824   -7.4884717     557.7228  0.020438391  0.020317235            6 
 2275000   0.88927122   -7.4948187    557.40579  0.020417795  0.020310058            8 
 2276000   0.88495265   -7.4688274    556.54967  0.020377478  0.020302884           10 
 2277000   0.87413144   -7.5124968    557.27187  0.020394959  0.020295695            5 
 2278000   0.89503383   -7.4966718    558.38713  0.020426805  0.020288483            5 
 2279000   0.89712104   -7.4825266    558.46589  0.020420721  0.020281243            4 
 2280000   0.87996912   -7.4767005    558.50014  0.020413017  0.020274104            6 
 2281000   0.90105975   -7.4925776    559.04179  0.020423856  0.020266996           10 
 2282000   0.87826199   -7.4663079    559.47595  0.020430761  0.020259876           10 
 2283000   0.88645859   -7.4609774    560.47403  0.020458243  0.020252774            7 
 2284000   0.90931297   -7.4946248    558.14192  0.020364197  0.020245709            8 
 2285000   0.87612565   -7.5017961    559.22412  0.020394753  0.020238519            6 
 2286000   0.90630918   -7.5110626    559.40971  0.020392597  0.020231341           17 
 2287000   0.85250621   -7.4855039    559.93484  0.020402815    0.0202242           25 
 2288000   0.90403433   -7.4511654    560.97989   0.02043196  0.020217087            5 
 2289000   0.88834948   -7.4767122     559.5802  0.020372077   0.02020998            4 
 2290000   0.90862694   -7.4757315    560.09145  0.020381785   0.02020287            6 
 2291000   0.89023273    -7.477599    557.56999  0.020281172  0.020195734            7 
 2292000   0.88634775   -7.4635466     559.9846  0.020360115   0.02018855            9 
 2293000   0.89147102   -7.4419599     560.2238  0.020359929  0.020181414            9 
 2294000   0.88399975   -7.4922718    558.82264  0.020300154  0.020174291            5 
 2295000   0.88678401   -7.4497868    560.99433  0.020370164  0.020167192            9 
 2296000      0.89912   -7.4998986    559.89468  0.020321381  0.020160069            6 
 2297000    0.8957115   -7.4902809    559.19623  0.020287194  0.020152983            6 
 2298000   0.88104074   -7.4167375    562.29672  0.020390801  0.020145923            2 
 2299000   0.87640984   -7.4844613    560.65094  0.020322276  0.020138895            5 
 2300000   0.85505471   -7.4754912    560.67205  0.020314205  0.020131787            8 
 2301000   0.86130602   -7.4724703    560.04874  0.020282802  0.020124715           11 
 2302000   0.87271223   -7.5026066    560.12161  0.020276629  0.020117629           11 
 2303000   0.87678784   -7.4853905    559.76302   0.02025485  0.020110545            6 
 2304000   0.86410466   -7.4584792    560.57955  0.020275591  0.020103474            8 
 2305000   0.88892504   -7.4785308    560.71965   0.02027186   0.02009643            8 
 2306000   0.88584023   -7.4981983    560.94931  0.020271369  0.020089369            5 
 2307000   0.88012209   -7.4991276    561.18261  0.020271009   0.02008231            6 
 2308000   0.88296589    -7.499593    561.34871  0.020268223  0.020075272            8 
 2309000   0.89523841   -7.4932412    560.67463  0.020235117  0.020068217            8 
 2310000    0.8700649   -7.4817336     560.4296  0.020217518  0.020061131            3 
 2311000   0.89267638   -7.4731105    561.23587  0.020237843  0.020054045            5 
 2312000   0.88061423   -7.4818968    561.21098  0.020228193  0.020046963            7 
 2313000   0.89598083   -7.4911112     562.6913  0.020272781  0.020039962           14 
 2314000   0.88576991   -7.5325934    560.40697  0.020181755  0.020032921            6 
 2315000   0.86838532   -7.4987693     561.2762  0.020204327  0.020025909            5 
 2316000   0.87205107   -7.5033696    562.38855  0.020235627  0.020018914           12 
 2317000   0.86485492   -7.5273115     560.7616  0.020168379  0.020011909            7 
 2318000   0.86920372   -7.4686484    562.21574  0.020211955  0.020004845            6 
 2319000   0.86426913   -7.4977991    561.96812  0.020194341  0.019997821            9 
 2320000   0.87983484   -7.5093749    561.70864  0.020176316  0.019990785            6 
 2321000   0.88710465   -7.5227183     560.3648  0.020119374  0.019983718            8 
 2322000   0.87100194   -7.5118422    562.67263  0.020193534  0.019976664           14 
 2323000   0.87394143   -7.5113426    562.30671  0.020171714  0.019969616           17 
 2324000   0.88184545   -7.5052061    563.38709  0.020201774  0.019962567           12 
 2325000   0.87817094   -7.5187268     562.0635  0.020145645  0.019955588            6 
 2326000    0.8735094    -7.473878    563.03031  0.020171622  0.019948645            9 
 2327000   0.88278408   -7.5020007    562.49712  0.020143859   0.01994165            9 
 2328000   0.84753129   -7.4659786    563.13035  0.020157873  0.019934659           12 
 2329000   0.88824401   -7.4968392    563.09461  0.020147939  0.019927684            4 
 2330000   0.87100648   -7.5384696    561.61081  0.020086223  0.019920657            8 
 2331000   0.88607434   -7.5367344    562.72906  0.020117584  0.019913572            7 
 2332000   0.88212633    -7.524462    561.80655  0.020075992  0.019906486            5 
 2333000   0.88908181   -7.5393525    561.92964  0.020071783  0.019899453            5 
 2334000   0.89437181   -7.5142746    561.80177  0.020058618  0.019892462            5 
 2335000   0.87185125   -7.4703235     563.2721  0.020102502  0.019885474            8 
 2336000   0.87191761   -7.5164224    562.95972  0.020082753  0.019878511            4 
 2337000   0.87268988   -7.5088025    562.02565  0.020040852  0.019871578            7 
 2338000   0.85216326   -7.5254305     562.9094  0.020063779  0.019864609           10 
 2339000   0.88722491   -7.5126839    563.43061  0.020073771  0.019857632            4 
 2340000    0.8841185   -7.5184087    564.32913  0.020097191  0.019850651            9 
 2341000   0.86711261   -7.5053649    563.97563  0.020076023  0.019843709            8 
 2342000   0.88645983   -7.5460234    563.27112  0.020042383  0.019836706            9 
 2343000   0.87416905    -7.519342    563.71827  0.020049732  0.019829745            7 
 2344000   0.86071069   -7.5150093    563.96402  0.020049916  0.019822807           14 
 2345000   0.88400484   -7.5158711    563.97386  0.020041715  0.019815926            7 
 2346000   0.87543481   -7.5029819    565.09362  0.020072947  0.019809101           10 
 2347000   0.88085219   -7.4605042    566.26163  0.020105867  0.019802269            7 
 2348000   0.88940897    -7.459728    565.31464  0.020063694   0.01979547            7 
 2349000   0.87134986   -7.4689337    566.53138  0.020098318  0.019788638           12 
 2350000   0.87437998   -7.4504391    565.53637  0.020054481  0.019781813           10 
 2351000   0.89729257   -7.4853054    565.13149    0.0200316  0.019775001            5 
 2352000   0.87513147   -7.4875468    566.56359  0.020073823  0.019768235            8 
 2353000   0.89020711   -7.4972502    567.77988  0.020108368  0.019761415            7 
 2354000   0.88528844   -7.5158169    565.24583  0.020010119   0.01975453           11 
 2355000   0.87939267   -7.4929324    565.80959  0.020021571  0.019747697            6 
 2356000   0.88214847   -7.4622436     566.8567   0.02005011  0.019740906           11 
 2357000   0.86816188   -7.4892975    564.19432  0.019947473  0.019734088           15 
 2358000   0.88989239   -7.5331168    565.42957  0.019982668  0.019727204           15 
 2359000   0.87674952   -7.5002948    566.61271  0.020015992  0.019720292           11 
 2360000   0.86071347   -7.5282828    565.88631  0.019981861  0.019713449            8 
 2361000    0.8872214   -7.5168423    565.15481  0.019947579  0.019706603           11 
 2362000    0.8642671   -7.5344414    563.88231  0.019894239  0.019699721            6 
 2363000   0.86670386   -7.5200243    566.48623   0.01997765  0.019692803           14 
 2364000   0.85936862    -7.510068    566.75226  0.019978576  0.019685903            8 
 2365000   0.86928349   -7.5459011    565.97704  0.019942813  0.019679038            6 
 2366000   0.87581661   -7.4952118    565.56886  0.019920008  0.019672189            6 
 2367000   0.84886367   -7.5093208    566.00157  0.019926826  0.019665373            7 
 2368000    0.8582627   -7.5310124    565.84751   0.01991299  0.019658506            8 
 2369000   0.88500707   -7.5174307    565.88402  0.019905868  0.019651615           11 
 2370000   0.87596287   -7.5381582    565.79943  0.019894495   0.01964467           12 
 2371000   0.87974223   -7.5178674    565.75585  0.019884572  0.019637754            7 
 2372000   0.86207485   -7.5433229    565.72846  0.019875227  0.019630839            8 
 2373000     0.857582   -7.5102563    566.82116  0.019905224  0.019623936            9 
 2374000   0.87449832     -7.51183    567.54151  0.019922125  0.019617081            4 
 2375000   0.85744714    -7.530819    566.89825  0.019891167  0.019610257            5 
 2376000   0.85780933   -7.4992254    567.56773  0.019906276  0.019603452           12 
 2377000   0.85899389   -7.5223522    565.93047  0.019840502  0.019596628           15 
 2378000   0.86645231    -7.504807    568.89957  0.019936206  0.019589789            9 
 2379000   0.87312181   -7.5151921    567.03556  0.019862532  0.019582962            7 
 2380000    0.8634531    -7.546382    565.36756  0.019795783   0.01957609           11 
 2381000   0.86532422   -7.5273928    567.87454  0.019875212  0.019569238            4 
 2382000   0.85443936   -7.5294419    566.65539  0.019824216  0.019562397            8 
 2383000   0.88678476   -7.5060372    566.16993  0.019798921  0.019555582           10 
 2384000   0.86385568   -7.5267198    566.96831  0.019818523  0.019548754            7 
 2385000   0.85218649   -7.5230253    565.48284   0.01975831  0.019541902            8 
 2386000   0.86142425   -7.5160501    567.48862  0.019820083  0.019535023           13 
 2387000   0.85249512   -7.5053343    566.89553  0.019791074   0.01952818            7 
 2388000   0.86762327    -7.542606    566.60221   0.01977255  0.019521341            6 
 2389000   0.87357878   -7.5399601    567.86079  0.019808176   0.01951451           14 
 2390000   0.88027566   -7.5129392    566.68323   0.01975883  0.019507688           12 
 2391000   0.86853666   -7.5363004    567.99782  0.019796383  0.019500882           11 
 2392000   0.86535401   -7.5132594    567.63807  0.019775574  0.019494079           17 
 2393000   0.85759384   -7.4976646    569.20166   0.01982176  0.019487249           19 
 2394000   0.84716873   -7.5189787    568.83506  0.019800719  0.019480469           17 
 2395000   0.85376789    -7.539855     567.5444  0.019747544  0.019473732           21 
 2396000   0.86258243   -7.5360327    567.21363  0.019727797  0.019466996           21 
 2397000   0.85917675    -7.553344    565.97858   0.01967663  0.019460229           11 
 2398000   0.87647994   -7.5556489    567.64186  0.019726225  0.019453418           26 
 2399000   0.87736003   -7.5255166    568.98283  0.019764584  0.019446639           30 
 2400000   0.85506383   -7.5614809    567.43911  0.019702747  0.019439893           13 
 2401000   0.86435206   -7.5111711    568.82086  0.019742498  0.019433128            7 
 2402000   0.88068474   -7.5568683      569.372    0.0197534  0.019426367            7 
 2403000   0.86547748   -7.5631573    569.39149  0.019745855  0.019419628           13 
 2404000   0.85583614   -7.5691714    567.65827  0.019677561  0.019412816            6 
 2405000   0.86170079   -7.5333056    569.33423  0.019727451  0.019406038            9 
 2406000   0.84276869   -7.5395255    569.46157  0.019723662  0.019399319            7 
 2407000   0.87419641   -7.5063484    570.21349    0.0197415  0.019392634            7 
 2408000   0.84818371   -7.5464589    568.97608  0.019690479  0.019385938            8 
 2409000   0.87076808   -7.5216716    569.27523  0.019692654  0.019379259           10 
 2410000   0.87579374   -7.5044478    569.88155  0.019705448  0.019372585            4 
 2411000    0.8575796   -7.4845505    571.34991  0.019748027  0.019365946           10 
 2412000   0.88117394   -7.5017691    571.67429  0.019751046  0.019359255            4 
 2413000   0.85621947   -7.5348534     569.9574  0.019683568  0.019352606            7 
 2414000   0.88340526   -7.5483215    569.69913  0.019666499  0.019345879            5 
 2415000   0.86551412   -7.5635359     568.9925  0.019633972  0.019339163            8 
 2416000   0.89121931   -7.5477086    570.19529  0.019667332   0.01933245            5 
 2417000    0.8715737   -7.5255918    570.42808  0.019667221    0.0193258           14 
 2418000   0.87195648   -7.5430322    569.88027  0.019640208  0.019319158            4 
 2419000   0.87595227   -7.5596715    570.94923  0.019668914  0.019312506            4 
 2420000   0.86741559    -7.531614    571.43276  0.019677437  0.019305814            6 
 2421000   0.85788797   -7.5396623    570.26985   0.01962928   0.01929917           21 
 2422000   0.85689948   -7.5391794     570.2388  0.019620108  0.019292475            5 
 2423000   0.87891521   -7.5463457    570.08615   0.01960676   0.01928578            7 
 2424000    0.8559985   -7.5079699    570.98663  0.019629628  0.019279097            9 
 2425000    0.8950428   -7.5105675    570.44323   0.01960286  0.019272449           14 
 2426000    0.8706866   -7.5622987    569.52044  0.019563082  0.019265731           25 
 2427000   0.88614906    -7.523211    571.76002  0.019631919  0.019259025           22 
 2428000   0.85832463   -7.5846031    569.73724  0.019554408  0.019252292           10 
 2429000   0.82451156   -7.5335973    570.39549  0.019568941  0.019245563           10 
 2430000   0.84124814   -7.5586899    570.21176  0.019554587  0.019238802           19 
 2431000   0.86569053   -7.5664597    569.92302  0.019536646  0.019232107           17 
 2432000   0.87408711   -7.5393154    570.65863  0.019553818   0.01922537           12 
 2433000   0.85421884   -7.5244553    570.16702  0.019528943  0.019218645           15 
 2434000   0.86766903   -7.5306597    570.41105  0.019529274  0.019211935            8 
 2435000   0.87267302   -7.5338925    570.39933  0.019520853  0.019205177            9 
 2436000   0.84694149   -7.5391383    570.71071  0.019523492  0.019198419           25 
 2437000   0.86853655   -7.5498031    571.55494  0.019544349  0.019191701           13 
 2438000   0.86177455   -7.5310747    570.21694  0.019490598  0.019184953            7 
 2439000   0.87930601   -7.5692022    570.18486  0.019481511  0.019178205           10 
 2440000   0.87896811   -7.5437413    569.56236  0.019452266  0.019171442           16 
 2441000   0.84596174   -7.5858041    569.44477  0.019440283  0.019164661            9 
 2442000   0.87313046   -7.5570008    570.56894  0.019470685  0.019157888            4 
 2443000   0.84731043   -7.5732107    569.32104  0.019420147  0.019151102            5 
 2444000   0.86155754   -7.5389817    570.70444  0.019459371  0.019144331           11 
 2445000    0.8615421   -7.5521567    570.93062  0.019459121  0.019137565            9 
 2446000   0.85531287   -7.5658877      569.264  0.019394385  0.019130796            6 
 2447000    0.8575399   -7.5542847    570.37784  0.019424392  0.019124004           26 
 2448000   0.85549881   -7.5279964    571.72645  0.019462366  0.019117257           10 
 2449000   0.85524095   -7.6097237    570.48127  0.019412048  0.019110522            4 
 2450000   0.86873308     -7.55102    571.33083  0.019433021  0.019103746            6 
 2451000     0.861085   -7.5574931    570.71361  0.019404107  0.019096974            6 
 2452000   0.85336293   -7.5676717    570.40609  0.019385743  0.019090213           18 
 2453000   0.84875442   -7.5410254    570.16147   0.01936953  0.019083483            6 
 2454000   0.85366778   -7.5413598    573.02861  0.019458999  0.019076817            4 
 2455000   0.85319486   -7.5481902    569.69926  0.019338061  0.019070114           16 
 2456000   0.87379516   -7.6013961    569.62507  0.019327669   0.01906336            7 
 2457000   0.87005727   -7.5483319    571.68333  0.019389612  0.019056655           10 
 2458000   0.86647761   -7.5452683    571.63136  0.019379962  0.019050013           15 
 2459000    0.8585386   -7.5578791    571.48026   0.01936696  0.019043319            9 
 2460000    0.8643012   -7.5715025    571.96621  0.019375549  0.019036607            4 
 2461000   0.86202551    -7.546061     573.8698  0.019432135  0.019029922            7 
 2462000   0.87493721   -7.5609577    571.98157  0.019360329  0.019023218            8 
 2463000   0.87345714   -7.5816092    572.29243  0.019362986  0.019016559            6 
 2464000   0.85924777   -7.5900117    570.44603  0.019292682  0.019009896            8 
 2465000   0.85466171   -7.5844981    571.90834  0.019334291  0.019003213            5 
 2466000   0.85148588    -7.545943    571.61296  0.019316469  0.018996533           16 
 2467000   0.87040194   -7.5700736    572.01471   0.01932221  0.018989881            6 
 2468000   0.85720714   -7.5717095    572.23608  0.019321856  0.018983268           21 
 2469000   0.85288132   -7.5887745    572.34371  0.019317663  0.018976616           17 
 2470000   0.86110053   -7.5339054    572.68959  0.019321511  0.018969996            8 
 2471000   0.86398998   -7.5621954    572.26187  0.019299267  0.018963395            9 
 2472000   0.86587218    -7.569696    572.34998   0.01929443   0.01895677            6 
 2473000    0.8537206   -7.5472148     572.7956  0.019301644  0.018950139           13 
 2474000   0.86410026   -7.5630611    572.97021  0.019299724  0.018943551           11 
 2475000   0.84376016   -7.5532405    574.29353  0.019336483  0.018936982            5 
 2476000   0.85928637   -7.5656976    572.89684  0.019281665  0.018930443            9 
 2477000   0.85657482   -7.5601581    573.99455  0.019310811   0.01892383           10 
 2478000   0.83736913   -7.5975704     572.1408  0.019240678  0.018917247            9 
 2479000    0.8714823    -7.553171    573.59477  0.019281793  0.018910621           14 
 2480000   0.83915896   -7.6034896    572.45903  0.019235854  0.018904068            7 
 2481000   0.83891063   -7.5902266    573.25929  0.019254981  0.018897491           12 
 2482000   0.86206952    -7.564844    573.89524  0.019268575  0.018890915            6 
 2483000   0.84318083    -7.557874    574.72014    0.0192885  0.018884381            9 
 2484000   0.84679736   -7.5815381    573.41417  0.019236922  0.018877865           11 
 2485000   0.86947039   -7.5913596    572.97877   0.01921458  0.018871268            7 
 2486000    0.8720552   -7.5762785    573.56694  0.019226567  0.018864707            4 
 2487000   0.87015958   -7.5696051    574.00922  0.019233656  0.018858169            8 
 2488000   0.84060029   -7.5692002    574.76906  0.019251375  0.018851645           17 
 2489000   0.84743874   -7.5869493    574.40382  0.019231412  0.018845124            6 
 2490000   0.85752716   -7.5860769     573.5425  0.019194863  0.018838592            5 
 2491000   0.87601462   -7.5765885     574.6315  0.019223588  0.018832064            7 
 2492000   0.85257795   -7.6002511    574.12512   0.01919894  0.018825523           16 
 2493000   0.84930656   -7.5711015    573.62478  0.019174515  0.018818978            7 
 2494000    0.8554251   -7.5691804    575.74769   0.01923776  0.018812442            6 
 2495000   0.85825037   -7.6088148    573.57692  0.019157546  0.018805882           12 
 2496000   0.86385378   -7.6127012    575.15875  0.019202683  0.018799321            6 
 2497000   0.86732216   -7.5905613    574.62497  0.019177178  0.018792734            9 
 2498000   0.84985961   -7.5737952     572.8603  0.019110632  0.018786135           11 
 2499000   0.85239047   -7.5855136    574.17089  0.019146688  0.018779586            9 
 2500000   0.85409044   -7.5911089    573.59241  0.019119747  0.018773025            7 
 2501000   0.86023855   -7.5789651    575.23208  0.019166736  0.018766448           14 
 2502000    0.8569275   -7.5929657    574.03873  0.019119329   0.01875989           20 
 2503000   0.86508634   -7.6270886    572.76442  0.019069264  0.018753307           12 
 2504000   0.85544945   -7.6057765    573.68986  0.019092447  0.018746684           28 
 2505000    0.8634203   -7.6219391    573.18821  0.019068137  0.018740049           17 
 2506000   0.85454299   -7.6485196    572.49378  0.019037436  0.018733434           16 
 2507000   0.86030322   -7.6430415    573.28194  0.019056041  0.018726773           10 
 2508000   0.86455322   -7.6259778    573.38199  0.019051767  0.018720144           16 
 2509000    0.8541071   -7.6315433    574.38452  0.019077472  0.018713545           11 
 2510000   0.85839549   -7.6088847    574.89488  0.019086815  0.018707003           11 
 2511000    0.8672633   -7.5831215    575.51675  0.019099852  0.018700427           36 
 2512000   0.86680147   -7.6237099    573.92715  0.019039515  0.018693856           13 
 2513000   0.84277426   -7.5826405    574.58292  0.019053685  0.018687323            6 
 2514000   0.85483841   -7.5990512    574.47813  0.019042632  0.018680774            9 
 2515000   0.83957342   -7.5986041    574.88628  0.019048585  0.018674226           16 
 2516000    0.8597083   -7.5972703    575.22147  0.019052116   0.01866768           19 
 2517000   0.84647876   -7.5936061    575.85653  0.019065572  0.018661145           18 
 2518000   0.83317036   -7.6168534    574.52015  0.019013772  0.018654575           13 
 2519000   0.87263259   -7.6376509    573.35457  0.018967665  0.018647974           11 
 2520000   0.84364448   -7.5915048    574.66307  0.019003408    0.0186414           13 
 2521000   0.83074441   -7.5891696    574.32712  0.018984765  0.018634819           13 
 2522000   0.86137181   -7.6082062    575.90187  0.019029271  0.018628278           18 
 2523000   0.84867744   -7.5952424    574.53869  0.018976704  0.018621741           18 
 2524000   0.84543607   -7.5705834     576.5679  0.019036183  0.018615218           16 
 2525000   0.84838573   -7.5814688    575.05328  0.018978656  0.018608707           20 
 2526000   0.84763668   -7.5917715    575.05882  0.018971325  0.018602186           38 
 2527000    0.8614644   -7.6211254    576.06573  0.018997023  0.018595668           12 
 2528000   0.83517042   -7.5935675     574.7804  0.018947139  0.018589131           13 
 2529000   0.84085971   -7.5930339    575.85664   0.01897511  0.018582629            9 
 2530000   0.83843014   -7.5839967    575.14976  0.018944327  0.018576105           10 
 2531000   0.84704316   -7.6041481    575.32419  0.018942585  0.018569675            7 
 2532000   0.83483001   -7.5748947    575.46862  0.018939857  0.018563235           15 
 2533000    0.8473304   -7.5696219    576.03947   0.01895116  0.018556786           10 
 2534000   0.87518106   -7.5710123    576.33114  0.018953274  0.018550342           24 
 2535000   0.82848775   -7.5893511    576.63336  0.018955732   0.01854393           12 
 2536000   0.84713522   -7.5756144    576.60619  0.018947364  0.018537495           16 
 2537000   0.84927632   -7.5904387    577.86831  0.018981353  0.018531066            3 
 2538000    0.8371686   -7.6017761    576.53444  0.018930077  0.018524667           10 
 2539000   0.86700283   -7.5955263    577.42039    0.0189517  0.018518209            5 
 2540000   0.83878178   -7.6101928    577.13722  0.018934948  0.018511754           19 
 2541000   0.86755552   -7.6082461    577.05893  0.018924929  0.018505288            6 
 2542000   0.85628119   -7.5912951    577.30054  0.018925404  0.018498888            9 
 2543000    0.8321353   -7.5822297    576.49168  0.018891456  0.018492485            7 
 2544000   0.82900101    -7.636223    575.44434  0.018849723  0.018486043           11 
 2545000    0.8617388   -7.6213703    576.44345  0.018875031  0.018479608            5 
 2546000   0.82449319   -7.6129938    578.18138  0.018924502  0.018473206           11 
 2547000   0.83284212   -7.6247927    578.70974  0.018934359  0.018466772           10 
 2548000   0.84766187   -7.5724827    578.21517  0.018910752  0.018460356            5 
 2549000   0.85899525   -7.6432636    575.60934  0.018818143  0.018453924           14 
 2550000   0.85512608   -7.5897018    577.75617  0.018880921  0.018447488            6 
 2551000   0.83492539   -7.5892736    577.40899  0.018862178  0.018441029           11 
 2552000   0.86882651   -7.6074424    578.38536  0.018886669  0.018434618           11 
 2553000   0.86152381   -7.6218961    576.68302  0.018823705  0.018428184           20 
 2554000   0.85023013    -7.593615     576.8882  0.018823029  0.018421742           15 
 2555000   0.83133197   -7.6172378    576.99108  0.018819018  0.018415331            8 
 2556000   0.85012092   -7.6030565    577.49273   0.01882801  0.018408924           14 
 2557000    0.8433172   -7.6168172    577.85682  0.018832513  0.018402478            7 
 2558000   0.85302738   -7.6337628    577.36782   0.01880922   0.01839601           21 
 2559000   0.82935915   -7.6238832    577.10954  0.018793459  0.018389584            8 
 2560000   0.85507932    -7.647712    576.14491  0.018754717  0.018383169           11 
 2561000   0.85265635   -7.6688723    577.40018   0.01878824  0.018376735            8 
 2562000   0.82869436   -7.6059267    577.58182  0.018786814   0.01837031           22 
 2563000   0.85195261    -7.617546    578.59618  0.018812465  0.018363873           14 
 2564000   0.82519833   -7.6583106    576.11014  0.018724328  0.018357441           16 
 2565000   0.83261344   -7.6387683    577.32584  0.018756525  0.018350995           20 
 2566000   0.82983559    -7.607399    578.29078  0.018780553  0.018344585            8 
 2567000   0.85403757   -7.6387322     578.4336  0.018777873   0.01833818            7 
 2568000   0.83431113   -7.6137466    578.19508  0.018762821  0.018331793            9 
 2569000   0.83569816   -7.6208563    578.53861  0.018766661  0.018325419           13 
 2570000   0.83452454   -7.5961708    578.24419  0.018749812  0.018319063            5 
 2571000   0.83472076   -7.5959814    578.39248  0.018747325  0.018312705            7 
 2572000   0.84819726   -7.5909924    579.08386  0.018762437  0.018306316           10 
 2573000   0.84675357   -7.6192285    579.22142    0.0187596  0.018299989            9 
 2574000    0.8535296    -7.584625    579.10157  0.018748432  0.018293649           12 
 2575000   0.83241036   -7.6004395     579.5161  0.018754566  0.018287343            9 
 2576000   0.84796319   -7.5923075    579.97382  0.018762093  0.018281034           18 
 2577000   0.83858399   -7.6082056    579.47631  0.018738724  0.018274754            8 
 2578000   0.83947522   -7.6246086    579.49862  0.018732177  0.018268456            7 
 2579000   0.85218398   -7.5858083    579.36524  0.018720603   0.01826214            7 
 2580000   0.85115253   -7.6051832    579.48739  0.018717293  0.018255808           22 
 2581000   0.86232629   -7.6051008    579.21413  0.018701218  0.018249485           17 
 2582000   0.82885447   -7.6258514     580.1035  0.018722679  0.018243138           17 
 2583000   0.85205824   -7.6110819    578.18851  0.018653649  0.018236811           32 
 2584000   0.83892976   -7.6135751    579.56275  0.018690749  0.018230463           27 
 2585000   0.84708509   -7.6121644    580.74452  0.018721616  0.018224173           15 
 2586000   0.83244547   -7.6222634    580.76869  0.018715155  0.018217876            7 
 2587000   0.84366127   -7.6252174    578.69857  0.018641237  0.018211584           18 
 2588000    0.8488985    -7.647705    580.02285  0.018676676  0.018205293           31 
 2589000   0.82904675    -7.640192    579.64324  0.018657243   0.01819898            9 
 2590000   0.83362176   -7.5663271    581.19044  0.018699821  0.018192729            8 
 2591000   0.84944269   -7.6306968    580.07716  0.018656798  0.018186466           12 
 2592000    0.8530646    -7.614633    579.43125  0.018628834  0.018180187           37 
 2593000   0.82370993   -7.5864962    580.85321  0.018667348  0.018173921           10 
 2594000   0.84032144   -7.6001091    580.66101  0.018653978  0.018167708           11 
 2595000   0.83850701   -7.5893863    580.84228   0.01865261  0.018161484            7 
 2596000    0.8352241   -7.6392246    581.54721  0.018668054  0.018155264           14 
 2597000    0.8401259    -7.574585    582.22006  0.018682456   0.01814904            8 
 2598000   0.82721903   -7.5979953    580.13752  0.018608466  0.018142867            7 
 2599000   0.85696612   -7.5754585    582.57038  0.018679312  0.018136683           12 
 2600000   0.84742699   -7.6396314    580.04103  0.018591059  0.018130471            9 
 2601000   0.83591904    -7.635825    580.20429  0.018589142  0.018124218            7 
 2602000   0.84075648   -7.6309902    579.93405  0.018573343  0.018117939            7 
 2603000   0.82833853   -7.6625526    582.03833  0.018633574  0.018111664           12 
 2604000    0.8315243   -7.6377745     580.8292  0.018587724  0.018105414           25 
 2605000   0.83352318   -7.6393934    580.08489  0.018556778  0.018099121            5 
 2606000   0.84819053    -7.624704    579.20173  0.018521416  0.018092848           14 
 2607000   0.83730238   -7.6553811    582.13263  0.018607999  0.018086554            7 
 2608000   0.83373493   -7.6464744    580.57225  0.018551005  0.018080267            5 
 2609000   0.84061114   -7.6254515     580.3266  0.018536048  0.018073997           14 
 2610000   0.84216307   -7.6956919    579.38814  0.018498983   0.01806769            9 
 2611000    0.8057265   -7.6795376    579.89157  0.018507965  0.018061354            8 
 2612000   0.83520361   -7.6683582    580.56008  0.018522208  0.018055003           10 
 2613000    0.8447459   -7.6690791    579.85473  0.018492624  0.018048663           11 
 2614000   0.83796263   -7.6310104    580.53855   0.01850735  0.018042318           10 
 2615000   0.83740722   -7.6567855    578.85339  0.018446571  0.018035938            8 
 2616000   0.81425818   -7.6439211    579.91498  0.018473336   0.01802957           15 
 2617000   0.81938751   -7.6722017    578.79206   0.01843052  0.018023222           10 
 2618000   0.84402162   -7.6734826    580.35855  0.018473343  0.018016889            6 
 2619000   0.82756476   -7.6496668    581.44853  0.018500971  0.018010594           15 
 2620000   0.83441814   -7.6603348    580.09513  0.018450863  0.018004303           10 
 2621000   0.83045882    -7.675874    580.86044  0.018468156  0.017998009            9 
 2622000   0.83043807   -7.6639636    579.15415  0.018406883    0.0179917           12 
 2623000   0.83853949   -7.6939389    580.29762  0.018436193  0.017985392            8 
 2624000     0.831412   -7.6639139    580.16455  0.018424941  0.017979129            9 
 2625000   0.82728888   -7.6518357    580.61407  0.018432193  0.017972887           11 
 2626000   0.83045735   -7.6656539      582.215  0.018475977  0.017966634           24 
 2627000   0.84788434    -7.679634    579.49805  0.018382758  0.017960379           16 
 2628000   0.83290029   -7.6503714    580.19657  0.018397913  0.017954092           10 
 2629000   0.81377479   -7.6498888    580.96547  0.018415287   0.01794782            8 
 2630000   0.82808762   -7.6438108    581.49933    0.0184252  0.017941544           11 
 2631000   0.83277612   -7.6431445    582.43862  0.018447948  0.017935291            7 
 2632000   0.82812226   -7.6344903    581.16971  0.018400763  0.017929043            8 
 2633000   0.83137495   -7.6642663    581.67346  0.018409718  0.017922778           11 
 2634000   0.82553665   -7.6389155    581.96751  0.018412032  0.017916487           15 
 2635000    0.8334696   -7.6208013    582.45989  0.018420617  0.017910235           13 
 2636000   0.84166549   -7.6474076    580.47518  0.018350885  0.017903967           15 
 2637000   0.83042017   -7.6281878    582.13484  0.018396373  0.017897691           25 
 2638000   0.83726275   -7.6638066    581.31799  0.018363596  0.017891438           13 
 2639000   0.81255932   -7.6547572    580.58099  0.018333364  0.017885122           11 
 2640000   0.82978474   -7.6727021    579.52601  0.018293119  0.017878823           14 
 2641000   0.83717823   -7.6793431    581.86826  0.018360099   0.01787252           10 
 2642000   0.83835353   -7.6592337     579.5423  0.018279785  0.017866207            8 
 2643000   0.84004632   -7.6369077    581.71805   0.01834147  0.017859911           12 
 2644000    0.8212156    -7.649012    580.88095  0.018308149  0.017853647           13 
 2645000   0.85819416   -7.6674228    580.89294  0.018301605  0.017847334            9 
 2646000    0.8155857   -7.6411371    582.04428  0.018330949  0.017841051            8 
 2647000   0.83201938   -7.6537855    580.85443  0.018286564  0.017834739            8 
 2648000   0.83592918   -7.6512215    581.70187  0.018306328  0.017828441            9 
 2649000   0.81893333   -7.6751056     582.0152  0.018309274  0.017822152           15 
 2650000   0.81370978   -7.6735838    581.21496    0.0182772  0.017815879           24 
 2651000    0.8284786   -7.6424538    584.00406   0.01835798  0.017809641           40 
 2652000    0.8426257    -7.648214    582.27235  0.018296642    0.0178034           15 
 2653000   0.82742118   -7.6527298    581.94756  0.018279544   0.01779715           34 
 2654000   0.84394208   -7.6442242     582.0397  0.018275549  0.017790939           20 
 2655000   0.81755316   -7.6713872    581.22573  0.018243118  0.017784711           22 
 2656000   0.83844962   -7.6649677    583.12754  0.018295919  0.017778447           10 
 2657000   0.82735733   -7.7115965    581.02157  0.018222982  0.017772187           12 
 2658000    0.8329127   -7.7104867    579.74566  0.018176124  0.017765861           18 
 2659000   0.82012714    -7.705042    582.67819  0.018261194  0.017759554           13 
 2660000   0.81851114    -7.718804    579.58654  0.018157473  0.017753232           26 
 2661000   0.83566751   -7.7180476    581.48977  0.018210252  0.017746905           16 
 2662000   0.82793725    -7.719473    580.75544  0.018180423  0.017740555           19 
 2663000   0.81440289    -7.716367    580.18643   0.01815579  0.017734235           29 
 2664000   0.83070485   -7.7007623    579.97473  0.018142353  0.017727932           42 
 2665000   0.83955099   -7.6850726    580.35548  0.018147451  0.017721638           20 
 2666000   0.83134357    -7.706856    579.24621  0.018105971  0.017715348           16 
 2667000   0.84099212   -7.6956414    581.22578  0.018161036   0.01770903           17 
 2668000   0.82237402   -7.6995321    580.64095  0.018135962  0.017702688           17 
 2669000   0.82817386   -7.6907818    580.48762  0.018124379   0.01769635           25 
 2670000   0.82335488    -7.710044     580.4262  0.018115674  0.017690014            7 
 2671000    0.8136158   -7.6832099    581.64766  0.018147001  0.017683642           16 
 2672000   0.83046646   -7.6733964    583.95326  0.018212115  0.017677324           23 
 2673000   0.82616538   -7.6937654    580.61352  0.018101182  0.017671033           25 
 2674000   0.82469234   -7.6837374    582.28859  0.018146615  0.017664748           16 
 2675000   0.84673686   -7.6932651     581.6035  0.018118489  0.017658472            7 
 2676000   0.82035757   -7.7066628    580.57983   0.01807984   0.01765216           21 
 2677000   0.82721225   -7.7072082    581.71587  0.018108451  0.017645846            5 
 2678000   0.81827266   -7.6953299    581.53314  0.018096003  0.017639509           11 
 2679000   0.82184624   -7.7116958    580.99004  0.018072354  0.017633209           17 
 2680000   0.81717536   -7.6878575    580.71899  0.018057182  0.017626946            6 
 2681000   0.83360225   -7.7220419     581.7088  0.018081214  0.017620666           10 
 2682000   0.82290645   -7.7048446    582.28644   0.01809242  0.017614401            7 
 2683000   0.81609168   -7.7069989    582.24903  0.018084515  0.017608124           13 
 2684000   0.82840308   -7.7240673    581.11295  0.018042503  0.017601823           12 
 2685000   0.82875155   -7.7108815    582.12192  0.018067099  0.017595567            8 
 2686000   0.83830051   -7.7298833    580.91897  0.018023051  0.017589293            9 
 2687000   0.83114189   -7.7369675    581.05727  0.018020632   0.01758299           16 
 2688000   0.82473306   -7.7437693    581.26989   0.01802052  0.017576657           16 
 2689000   0.84348436   -7.7234033    582.60589  0.018055222  0.017570368           22 
 2690000   0.81829806   -7.7519935    579.36835  0.017948214  0.017564077           15 
 2691000   0.83297138   -7.6777513     582.4791  0.018037876  0.017557787           21 
 2692000   0.82092495   -7.6687166    584.57012  0.018095905   0.01755153            9 
 2693000   0.83773715   -7.6919235    581.62469  0.017998041  0.017545302           14 
 2694000   0.82945098   -7.6941748    582.61948  0.018022132   0.01753908           18 
 2695000   0.82244438   -7.6657914     585.2838  0.018097829  0.017532888            9 
 2696000   0.83823533   -7.7107234    582.50804  0.018005318  0.017526698           18 
 2697000   0.82154585   -7.7036467    584.67789  0.018065687  0.017520511           14 
 2698000   0.79465028   -7.6582296    584.52394  0.018054236  0.017514351           14 
 2699000   0.81832877   -7.7040834    582.76664  0.017993289  0.017508182           29 
 2700000   0.84458843   -7.6931513    582.79705  0.017987563  0.017502016            8 
 2701000   0.80055792   -7.6861319    583.48306  0.018002069  0.017495843            9 
 2702000   0.82030101   -7.7119544    583.01572  0.017980993  0.017489628           13 
 2703000   0.80940846   -7.7193479    583.83519  0.017999605  0.017483417           11 
 2704000   0.82141607   -7.6793477    583.32777   0.01797731  0.017477208           16 
 2705000    0.8341632   -7.6980548    582.51221  0.017945539     0.017471           19 
 2706000   0.81085103    -7.711809     583.3774  0.017965552  0.017464821            7 
 2707000   0.82169536   -7.7389058    582.95949   0.01794605  0.017458661            8 
 2708000   0.83756105   -7.7180965    583.31027  0.017950217  0.017452506           16 
 2709000   0.83990664   -7.7024372    584.15501  0.017969577  0.017446347           13 
 2710000   0.81578961    -7.708573    583.77268  0.017951189  0.017440158           14 
 2711000   0.81322312   -7.6871703    584.34833  0.017962263  0.017433981           10 
 2712000   0.82305816   -7.6881459     583.7769  0.017938081  0.017427816            6 
 2713000   0.84210523    -7.713363    582.43208  0.017890161  0.017421616           12 
 2714000   0.81240078    -7.723402    582.65936  0.017890548  0.017415404           11 
 2715000   0.81891626   -7.7036089    583.53031  0.017910691  0.017409223           15 
 2716000   0.82806534   -7.7240176    583.19895   0.01789393  0.017402999            5 
 2717000   0.82724225   -7.6913307    584.36003  0.017922955  0.017396822           10 
 2718000   0.82431566   -7.7366857    582.56549  0.017861341  0.017390643           23 
 2719000   0.80720107   -7.7227972    583.52303  0.017884119  0.017384407           19 
 2720000   0.81582729    -7.712122    583.22376  0.017868375  0.017378184           17 
 2721000   0.82244189   -7.7010942    584.18228  0.017891164  0.017371948           11 
 2722000   0.80102179   -7.7142934    582.73816   0.01784038  0.017365747           17 
 2723000   0.82380932   -7.7127015    582.14052  0.017815538  0.017359515           25 
 2724000   0.82346255   -7.7272866    583.98123  0.017865309  0.017353256           13 
 2725000   0.80632606   -7.7429941    582.37636  0.017809674  0.017347017           31 
 2726000   0.82317451   -7.7175039    582.50189  0.017806979  0.017340803           31 
 2727000   0.81984288    -7.731388    582.76401  0.017808459   0.01733458           23 
 2728000   0.81797343   -7.7450079    583.56364  0.017826358  0.017328363           30 
 2729000   0.82411616   -7.7433116    582.39093  0.017784015   0.01732213           25 
 2730000   0.82293292   -7.7451919    583.36082  0.017807107  0.017315906           65 
 2731000   0.82840259   -7.7420911     581.1412  0.017732857  0.017309713           28 
 2732000   0.81725049   -7.7129105    582.82778  0.017777812  0.017303524           27 
 2733000   0.82706734   -7.7300208    583.56756  0.017793864  0.017297314           39 
 2734000   0.80599564   -7.7152841    583.38076  0.017781662  0.017291146           51 
 2735000   0.82721102   -7.7286159    583.31065  0.017773024  0.017284969           26 
 2736000    0.7982792   -7.7266797    583.28686  0.017765804  0.017278822           38 
 2737000   0.80472779   -7.7198644    583.63402  0.017769883  0.017272659           30 
 2738000    0.7921056    -7.731092    584.36001  0.017785488  0.017266488           21 
 2739000   0.81071185   -7.7161679    583.75839  0.017760691  0.017260325           19 
 2740000   0.81174922   -7.7133914    585.03471  0.017793026  0.017254177           15 
 2741000     0.812587   -7.7384182    583.06017  0.017726504  0.017248014           20 
 2742000   0.82205994   -7.7575365    583.05953   0.01772002  0.017241812            6 
 2743000    0.8009295   -7.7244647    583.09668  0.017714688  0.017235612           19 
 2744000   0.81761687    -7.729193    583.15916   0.01771013  0.017229427           23 
 2745000   0.80564336   -7.7332334    583.21997  0.017705524  0.017223239            8 
 2746000   0.81395062    -7.711582    586.09338  0.017786276  0.017217074           27 
 2747000   0.82659265   -7.7230969    584.26601  0.017724366  0.017210952           11 
 2748000   0.82667013    -7.727146    584.99371  0.017739984  0.017204828            9 
 2749000   0.81151808   -7.7250107    584.05599  0.017705105  0.017198705           10 
 2750000   0.81916589   -7.7050338    584.87927  0.017723614  0.017192586            8 
 2751000   0.82019199   -7.7452958    583.67589  0.017680719  0.017186445           12 
 2752000   0.79789487   -7.7312544    584.13592  0.017688224  0.017180302           17 
 2753000   0.80826318   -7.7392067    584.98232   0.01770742  0.017174154           15 
 2754000   0.79857388   -7.7451793    583.10048  0.017644048  0.017168007           10 
 2755000   0.80831737     -7.77669    583.68085  0.017655198  0.017161838            9 
 2756000   0.81921265   -7.7332633      583.811  0.017652727  0.017155673           14 
 2757000   0.79774422   -7.7232878    584.03246  0.017653018   0.01714953           16 
 2758000   0.80772701   -7.7284771    584.03271  0.017646625  0.017143386           45 
 2759000   0.80176352   -7.7608887    581.99916  0.017578808  0.017137229           35 
 2760000   0.82099205   -7.7519344    584.01713  0.017633367  0.017131045           53 
 2761000   0.81113729   -7.7711441     583.9764  0.017625752  0.017124849           45 
 2762000   0.81241835   -7.7339908    584.52286  0.017635858   0.01711868           38 
 2763000    0.8024196    -7.766075    583.44221  0.017596882  0.017112496           41 
 2764000   0.79484395   -7.7656873    583.99345  0.017607135  0.017106311           44 
 2765000   0.80682432   -7.7740324    583.75858  0.017593688  0.017100124           28 
 2766000   0.82015839   -7.7511388    583.63404  0.017583576   0.01709394           49 
 2767000   0.81634392   -7.7750211    584.42865  0.017601152  0.017087761           21 
 2768000   0.80811463   -7.7479404    584.72785  0.017603801  0.017081593           43 
 2769000   0.80365082   -7.7488228    585.75695  0.017628414  0.017075429           73 
 2770000   0.81745223   -7.7721229     583.1619   0.01754398  0.017069254           65 
 2771000   0.80288782   -7.7490905    584.96829  0.017591973  0.017063091           78 
 2772000   0.81262539   -7.7733616    582.76921  0.017519517  0.017056917           43 
 2773000   0.80924213   -7.7530337    585.19557  0.017586115  0.017050739           73 
 2774000   0.79978165   -7.7529547    583.89085  0.017540581  0.017044559           18 
 2775000   0.81618456   -7.7532994    585.18788   0.01757321  0.017038398           42 
 2776000   0.81675663   -7.7524808    584.44803  0.017544669  0.017032253           39 
 2777000    0.8049871   -7.7672911    581.83577  0.017459962  0.017026099           27 
 2778000   0.82464339   -7.7487348    584.34551  0.017528963  0.017019955           54 
 2779000   0.79237266   -7.7744095    584.68401  0.017532806  0.017013793           66 
 2780000   0.80821388   -7.7833389    584.65069    0.0175255  0.017007629           72 
 2781000   0.80269075   -7.7601993    583.42641  0.017482513  0.017001459           47 
 2782000   0.81606342   -7.7776995    584.08773  0.017496038  0.016995298           28 
 2783000   0.80153238   -7.7964065    583.46298  0.017471044  0.016989126           26 
 2784000   0.82065929   -7.7786568    582.91965  0.017448505  0.016982948           14 
 2785000    0.8060614   -7.7535946    584.97831  0.017503839  0.016976811           12 
 2786000   0.80977655   -7.7282474     586.8131  0.017552438  0.016970687           54 
 2787000   0.80241329   -7.7588687    584.99456  0.017491764  0.016964584           39 
 2788000   0.80687987   -7.7384475    585.14601  0.017490017  0.016958479           50 
 2789000   0.80175141   -7.7387654    585.50645  0.017494516  0.016952382           38 
 2790000    0.8125093   -7.7353593    585.31079  0.017482401  0.016946286           45 
 2791000   0.79478812   -7.7644231    585.98653  0.017496313  0.016940216           65 
 2792000   0.79666165   -7.7365612    585.86887  0.017486535  0.016934107           72 
 2793000   0.79314341   -7.7706717    585.02411   0.01745507  0.016927995           78 
 2794000   0.81015217   -7.8011752    585.15179   0.01745263  0.016921879           50 
 2795000   0.80315899   -7.7892435    582.90358  0.017379356  0.016915735           58 
 2796000   0.79686269    -7.778127    584.39019  0.017417447  0.016909622           90 
 2797000   0.78776511     -7.76359    585.72067   0.01745086  0.016903494           54 
 2798000   0.81180105   -7.7763465    583.43138  0.017376441  0.016897346           66 
 2799000   0.81075358    -7.775982    585.64699  0.017436197  0.016891189           30 
 2800000   0.81257376   -7.7985116    583.78644  0.017374597  0.016885048           44 
 2801000   0.81584926   -7.7780244    584.57516  0.017391859  0.016878877           71 
 2802000   0.80211849   -7.7562665     585.0788  0.017400631  0.016872745           15 
 2803000   0.80060852   -7.7711586    585.14564   0.01739641  0.016866628           30 
 2804000   0.80618365   -7.7841219    584.98738  0.017385502  0.016860509           22 
 2805000   0.80311936   -7.7695439    584.22429  0.017356634   0.01685443           22 
 2806000    0.7991955   -7.7724765    586.07954  0.017405546  0.016848316           46 
 2807000   0.80184329   -7.7800318    585.60283  0.017385193  0.016842277           45 
 2808000   0.80038691   -7.7111339    585.74626  0.017383258  0.016836188           24 
 2809000   0.80110832   -7.7560825    585.47937  0.017369152  0.016830098           33 
 2810000   0.80698135   -7.7565132    583.84799   0.01731459  0.016824035           28 
 2811000   0.79161053   -7.7458447    585.91394  0.017369677  0.016817966           11 
 2812000    0.7822964   -7.7339352    587.92815  0.017423191  0.016811885           18 
 2813000   0.81596231   -7.7493047    585.15923   0.01733497  0.016805832           19 
 2814000   0.79795357   -7.7517555    585.11127  0.017327389  0.016799783            7 
 2815000   0.79348211   -7.7497787     585.2033  0.017323958  0.016793727            8 
 2816000   0.81522874   -7.7371288    584.72138  0.017303545  0.016787669            6 
 2817000   0.79495384    -7.746041    585.98701  0.017334842  0.016781589            7 
 2818000    0.8001453   -7.7565075      584.812  0.017293944  0.016775484           14 
 2819000   0.78472228   -7.7493982    585.99365   0.01732274  0.016769436           16 
 2820000   0.80959343   -7.7577418    585.60344  0.017305066   0.01676339           11 
 2821000   0.81277792   -7.7792422     583.9781  0.017250919  0.016757298           10 
 2822000   0.78971101   -7.7651583     584.7708  0.017268214  0.016751193           10 
 2823000   0.82527379   -7.7914063    583.69689  0.017230396  0.016745076           18 
 2824000   0.80019704   -7.7517508    585.06738  0.017264736  0.016738999           15 
 2825000   0.79475139   -7.7562604    584.92276  0.017254359  0.016732907           32 
 2826000   0.79582183   -7.8009142    584.42577  0.017233598  0.016726793           17 
 2827000   0.81763861   -7.7384431    585.84014  0.017269194  0.016720721           15 
 2828000   0.80053471   -7.7901792     586.0213  0.017268426  0.016714626           18 
 2829000   0.79720209   -7.7713327    584.37192  0.017213736  0.016708545            7 
 2830000   0.79614285   -7.7965528    583.86911  0.017192848   0.01670244           12 
 2831000   0.79395987   -7.7819934    585.75529  0.017242296  0.016696355           11 
 2832000   0.78924172   -7.7350706    586.07747  0.017245688  0.016690301           18 
 2833000   0.77961116   -7.8050562    584.73546  0.017200125  0.016684234            8 
 2834000   0.78767483   -7.7511947    586.02274  0.017231908  0.016678153           11 
 2835000   0.79983941   -7.7801937    584.27475  0.017174449   0.01667208            7 
 2836000   0.79050881   -7.7619724    585.30359  0.017198624  0.016666015           14 
 2837000   0.80742744   -7.7645494     586.5643  0.017229594  0.016659964           12 
 2838000   0.78112428   -7.7767357    586.53918  0.017222785  0.016653905           10 
 2839000   0.80959402   -7.7662484    586.19636  0.017206656  0.016647856            8 
 2840000   0.78551634   -7.8037863    583.59551  0.017124281  0.016641791            8 
 2841000   0.80833465   -7.7811958    584.76279  0.017152493  0.016635722            6 
 2842000   0.78347387   -7.7709558    586.48699  0.017197015  0.016629683            7 
 2843000   0.80949854   -7.7720228     585.2905  0.017155895  0.016623645            6 
 2844000   0.80474122   -7.7493628    587.61274  0.017217907  0.016617641            6 
 2845000   0.81400026   -7.7868202    585.64014  0.017154076  0.016611631           32 
 2846000   0.81919997   -7.7735924    585.51067  0.017144257  0.016605565           13 
 2847000   0.79320509   -7.7580658     585.6085  0.017141099  0.016599541           14 
 2848000   0.81083179   -7.7679781    585.16913  0.017122224  0.016593505           29 
 2849000   0.81395749    -7.800962    584.63147  0.017100488  0.016587473           10 
 2850000   0.78342296   -7.7566804    586.77509  0.017157166  0.016581456           16 
 2851000   0.79923083    -7.769727     587.5607  0.017174111  0.016575445           16 
 2852000   0.79859137   -7.7340654    587.23617  0.017158607  0.016569452            7 
 2853000   0.79411818   -7.7666318    587.19805  0.017151479  0.016563459           12 
 2854000   0.78621595   -7.7741641     586.4353  0.017123199   0.01655747            9 
 2855000   0.80164454   -7.7360979    587.05003  0.017135144    0.0165515            9 
 2856000   0.79612463   -7.7398083    588.27109  0.017164773  0.016545538           20 
 2857000   0.79054629    -7.752201    587.32621  0.017131204  0.016539594            8 
 2858000   0.77639932    -7.756314    586.95037  0.017114251  0.016533649            5 
 2859000   0.79445905   -7.7522806    585.69504  0.017071675  0.016527696           11 
 2860000   0.78054056   -7.7760535    585.86391  0.017070627  0.016521734           10 
 2861000   0.80841302   -7.7732696     586.2088  0.017074706   0.01651577           10 
 2862000   0.78954325   -7.7830703    585.90917  0.017060015  0.016509795           14 
 2863000   0.79739928   -7.7661107    587.00394  0.017085922  0.016503838           24 
 2864000   0.80428685   -7.7510416    585.85407  0.017046499  0.016497869           23 
 2865000   0.78253364   -7.7446374    587.78754  0.017096787  0.016491897           26 
 2866000     0.801363   -7.7794833    587.05205  0.017069436  0.016485931           13 
 2867000   0.81345373   -7.7376219     586.6463  0.017051689  0.016479984           13 
 2868000   0.80335661   -7.7542433    588.20868   0.01709114   0.01647404           25 
 2869000   0.78369445   -7.7679905    587.70147   0.01707045  0.016468084           24 
 2870000   0.79417933   -7.7586051    588.27127  0.017081047  0.016462144           25 
 2871000   0.79124366   -7.7697554    587.17863  0.017043383  0.016456218           15 
 2872000   0.79859476   -7.7963513    587.27505  0.017040246  0.016450296           17 
 2873000    0.8027084   -7.7932332    586.51392  0.017012238  0.016444343           37 
 2874000   0.79908766   -7.7618981    587.42866  0.017032842  0.016438401           49 
 2875000   0.79281205   -7.7724661    587.66745  0.017033839  0.016432447           29 
 2876000   0.78056153   -7.7559814    588.31255  0.017046608  0.016426509           21 
 2877000    0.8068992   -7.7634493    587.42543  0.017014988  0.016420559           14 
 2878000   0.79250166   -7.7521869    586.92616  0.016994619   0.01641462           41 
 2879000   0.77832061   -7.7732929    587.99867   0.01701976    0.0164087           40 
 2880000   0.79701499   -7.8035465    586.56876  0.016972476  0.016402792           34 
 2881000   0.78978083   -7.7766112    587.43809   0.01699173  0.016396885           26 
 2882000   0.79528432   -7.7392921    588.45237  0.017015162  0.016390998           21 
 2883000   0.79987539   -7.7633367    587.48277  0.016981234  0.016385121           25 
 2884000   0.78562429    -7.772087    586.51548  0.016947396  0.016379215           16 
 2885000   0.79065243   -7.7631761    587.49251  0.016969743  0.016373297           24 
 2886000   0.80132934   -7.8068272    586.97905  0.016949037  0.016367362           19 
 2887000   0.80464487   -7.8065844    586.95432  0.016942452  0.016361406           20 
 2888000   0.78809502   -7.7890722    588.39296  0.016978098  0.016355479           17 
 2889000   0.78977285   -7.8014049     586.1561  0.016907699   0.01634956           20 
 2890000   0.77832695   -7.7812669    587.51552  0.016941047  0.016343608           11 
 2891000   0.78245408   -7.7883167    586.95084  0.016918911  0.016337673           10 
 2892000    0.7875498   -7.7460611    587.84252  0.016938754  0.016331759           29 
 2893000    0.7837544   -7.7683653     587.5688  0.016925014  0.016325835           13 
 2894000   0.79446361   -7.7891861    586.91139  0.016900236  0.016319887           12 
 2895000   0.77259455   -7.7858698    587.60186  0.016914274  0.016313921           21 
 2896000   0.79969237   -7.8272552    587.67124  0.016910429  0.016308006           12 
 2897000    0.7955416   -7.8228084    585.48759  0.016841778  0.016302054           16 
 2898000    0.7816414   -7.7909756     587.7439  0.016900848  0.016296078           16 
 2899000   0.79993915   -7.7916345    585.82962  0.016839991  0.016290107           10 
 2900000   0.78614748   -7.8272532    586.37528  0.016849864  0.016284151           23 
 2901000   0.79095247   -7.8084843    585.62183  0.016822413  0.016278197           25 
 2902000   0.77931651   -7.8067759    587.22036  0.016862519  0.016272239           22 
 2903000    0.7771402   -7.7947778    586.61318  0.016839281  0.016266296           14 
 2904000   0.78405206   -7.8348772    587.45782   0.01685772  0.016260351           14 
 2905000   0.78956661   -7.8078932    587.54774  0.016854496   0.01625441           23 
 2906000   0.78174006   -7.7975373    586.79799  0.016827196  0.016248442           22 
 2907000   0.78693145    -7.830437    584.24058  0.016748096  0.016242507           26 
 2908000   0.78663586    -7.801443    586.80281  0.016815761  0.016236545           27 
 2909000   0.77201616   -7.8077371    586.91902   0.01681331  0.016230594           23 
 2910000   0.78340111   -7.8098523    585.89296  0.016778149  0.016224656           11 
 2911000   0.79012202   -7.8070818    587.34999  0.016814096  0.016218717           30 
 2912000    0.7822226   -7.7877885    587.79472  0.016821049  0.016212777           23 
 2913000   0.77089485   -7.8127804    587.00149  0.016792582  0.016206833           11 
 2914000   0.77839042   -7.8498248    585.27601  0.016737475  0.016200847           28 
 2915000   0.79176218   -7.8372812    586.47772  0.016766087  0.016194883           27 
 2916000   0.80025829   -7.8193474    586.07838  0.016748925  0.016188925           29 
 2917000   0.78435576   -7.8200723    587.61652  0.016787125  0.016182972           26 
 2918000    0.7876371    -7.830543    586.82272  0.016758702  0.016177028           11 
 2919000   0.77910546   -7.8061787    587.02366  0.016758698  0.016171083           30 
 2920000   0.78587925   -7.8168841    587.17315  0.016757225  0.016165178           25 
 2921000   0.78749454   -7.8162577    587.83617  0.016770403  0.016159228           28 
 2922000   0.78390038   -7.8130548     587.1299  0.016744521  0.016153289           43 
 2923000   0.78316035   -7.8557424    585.89868  0.016703691  0.016147333           25 
 2924000   0.76922327   -7.8104703     586.4744  0.016714387  0.016141376           43 
 2925000   0.78836692   -7.8213519    586.49289  0.016709199  0.016135423           23 
 2926000   0.78063642    -7.838392    585.30927  0.016669779  0.016129468           46 
 2927000   0.79347013   -7.8509029    586.25568  0.016691028  0.016123513           29 
 2928000   0.78651154   -7.7974907    587.79889  0.016729249  0.016117555           27 
 2929000   0.79078226    -7.820853    585.67682  0.016663162  0.016111615           37 
 2930000      0.80628   -7.8026618     588.2929   0.01673188  0.016105713           12 
 2931000   0.78584003   -7.8045258    587.85767  0.016713797  0.016099806           21 
 2932000   0.77942722   -7.7997998    586.85637  0.016679637  0.016093893            9 
 2933000   0.78809581   -7.7859558    586.95287  0.016676693  0.016087978           16 
 2934000   0.77353708   -7.8088592     586.6535  0.016662506  0.016082075           22 
 2935000   0.77809123   -7.7650047    587.01103   0.01666698  0.016076155           22 
 2936000   0.79423851   -7.8004035    586.71361  0.016652861  0.016070238           59 
 2937000   0.79077137   -7.7831198    587.33293  0.016664764  0.016064315           11 
 2938000    0.7659896   -7.7928626     587.2217  0.016655937   0.01605841            9 
 2939000   0.78765407   -7.7915566    587.54188  0.016659348   0.01605247           10 
 2940000   0.77294862   -7.7930545    586.26413  0.016617464  0.016046523           16 
 2941000   0.78214748    -7.837361    585.20379  0.016581769   0.01604057           13 
 2942000   0.77568871   -7.8238253    585.72969  0.016591029  0.016034604           18 
 2943000   0.78726344   -7.8049756    587.54241   0.01663672  0.016028662           16 
 2944000   0.77282375   -7.8306663    585.64781   0.01657744  0.016022727           10 
 2945000   0.77077944   -7.8543621      584.916  0.016551104  0.016016767           24 
 2946000   0.79609391   -7.8266412    587.05839  0.016606087  0.016010832           18 
 2947000   0.76043758    -7.834206    585.90423  0.016567815   0.01600488           28 
 2948000   0.76859737   -7.8300703    586.84321  0.016588738  0.015998926           22 
 2949000   0.77157967   -7.8040589    585.71741    0.0165513  0.015992973           20 
 2950000   0.77852618   -7.8199258    587.27597  0.016589717   0.01598702           25 
 2951000   0.78677079   -7.8729585    584.65974  0.016510215  0.015981078           15 
 2952000   0.78810321   -7.8234029    586.03142  0.016543344  0.015975138           19 
 2953000   0.76756312   -7.8209243    585.37602  0.016519247  0.015969193           24 
 2954000   0.77439399   -7.8357298    586.38014  0.016541981  0.015963236           10 
 2955000   0.79067183   -7.8530938    585.07712  0.016499637  0.015957282           32 
 2956000   0.77886308   -7.8198166    586.47313   0.01653341  0.015951336            8 
 2957000   0.77414348   -7.8374254    585.53997  0.016501521  0.015945404           18 
 2958000   0.77968956   -7.8343909    587.18218  0.016542207  0.015939496            9 
 2959000    0.7735023   -7.8055189    587.41464  0.016543163  0.015933591           21 
 2960000   0.78143001    -7.852749    586.42756  0.016509785  0.015927682           19 
 2961000   0.76792114   -7.8244363    586.94298  0.016518715  0.015921782           12 
 2962000     0.776051   -7.8191964    585.85796  0.016482612  0.015915861           12 
 2963000   0.77939269   -7.8062418    587.13489  0.016512962  0.015909949            7 
 2964000   0.77941496    -7.836283    587.41463  0.016515256  0.015904033            6 
 2965000   0.77545286   -7.8566931    587.01496  0.016498453  0.015898102           17 
 2966000   0.76920201   -7.8525347    585.14094  0.016440238  0.015892164           35 
 2967000   0.76372001   -7.8527669    586.06303  0.016460595  0.015886229           21 
 2968000   0.78013283   -7.8650388    585.85393  0.016449178  0.015880293           25 
 2969000    0.7666447   -7.8448262    586.58998  0.016464297  0.015874364           17 
 2970000   0.78379301   -7.8515966    585.87674  0.016438741  0.015868443           15 
 2971000   0.77377802   -7.8526542    586.40475  0.016448018  0.015862501           14 
 2972000   0.78003856   -7.8725543    585.57329   0.01641917  0.015856568           16 
 2973000   0.77819265   -7.8708947    585.47165  0.016410799  0.015850634           22 
 2974000   0.77688104   -7.8510518    585.56849  0.016407994   0.01584471           21 
 2975000   0.77385103   -7.8519682    585.36327   0.01639673  0.015838766           33 
 2976000   0.77790287    -7.859681    585.29281  0.016389247  0.015832838           26 
 2977000   0.79137736   -7.8667348     585.5889  0.016392031  0.015826913           12 
 2978000   0.76324296   -7.8593946    584.81281  0.016364809  0.015820968           24 
 2979000   0.76716206   -7.8353486    586.90336  0.016417796   0.01581503           19 
 2980000    0.7738047   -7.8559964    585.30409  0.016367564  0.015809098           22 
 2981000   0.76840027   -7.8626064    585.52596  0.016368276  0.015803149           20 
 2982000   0.76757981   -7.8413482    586.39127  0.016386968  0.015797201           13 
 2983000   0.76475282   -7.8687031    586.13662  0.016374361  0.015791257           27 
 2984000   0.77277045    -7.855261    585.89093  0.016362012  0.015785315           12 
 2985000   0.77174821   -7.8588638    584.98323   0.01633119   0.01577936           22 
 2986000   0.77984973   -7.8311653    586.02691  0.016354848   0.01577344           26 
 2987000   0.76503849   -7.8343305    586.17602  0.016353532  0.015767522           13 
 2988000   0.78247501   -7.8411091    587.55094  0.016386405  0.015761598           15 
 2989000   0.75587756   -7.8564177    585.68072  0.016328781  0.015755677           15 
 2990000   0.78422364   -7.8773087    585.52551  0.016318994  0.015749733           30 
 2991000   0.77176564   -7.8870934    585.78972    0.0163209  0.015743786           12 
 2992000   0.76019259   -7.8815391    586.69407  0.016340633  0.015737847           17 
 2993000   0.75469181   -7.8785363    584.72589  0.016280373  0.015731909           28 
 2994000   0.76161725   -7.8835091    585.76954  0.016303984  0.015725967           13 
 2995000   0.77957968   -7.8670965      585.136  0.016280913  0.015720023           17 
 2996000   0.77481904   -7.8675196    586.34827  0.016309198  0.015714106           15 
 2997000   0.77258198   -7.8577415    585.96876  0.016293203  0.015708181           30 
 2998000   0.76816534   -7.8709755    585.12684  0.016264366   0.01570226           14 
 2999000   0.76184364   -7.8681229    585.84268  0.016278834  0.015696337           62 
 3000000   0.76650958   -7.8740464    584.15659  0.016226572  0.015690424           43 
 3001000   0.75865849   -7.8797153     586.4688  0.016285372  0.015684492           24 
 3002000   0.77448222   -7.8679021    585.44972  0.016251658  0.015678579           52 
 3003000   0.79954674   -7.8522872    586.51037  0.016275679  0.015672655           26 
 3004000   0.77248246   -7.8888303    585.30953  0.016236949   0.01566674           46 
 3005000    0.7871693   -7.8681682    584.15761  0.016199601  0.015660803           23 
 3006000   0.78433054   -7.8562495    584.65648  0.016208042  0.015654903           27 
 3007000   0.76024664   -7.8733467    586.50012  0.016253744  0.015649019           33 
 3008000   0.75667172    -7.876999     585.7789   0.01622836  0.015643125           28 
 3009000   0.77267738   -7.8521377    585.82639  0.016224282  0.015637229           39 
 3010000   0.76911246    -7.875011     584.7752  0.016189789  0.015631324           39 
 3011000    0.7699222   -7.8490199     587.1833   0.01625106   0.01562543           20 
 3012000     0.756421   -7.8775538    585.51843  0.016199602  0.015619543           20 
 3013000   0.75276118   -7.8660553    584.98715  0.016179532  0.015613657           42 
 3014000   0.76861967   -7.8540756    587.15624  0.016234136  0.015607791           24 
 3015000   0.75891986   -7.8468965    586.00893  0.016197041  0.015601924           31 
 3016000     0.754389   -7.8826716    585.57501  0.016179681  0.015596055           27 
 3017000   0.76138626   -7.8590016    586.01417  0.016186448  0.015590169           24 
 3018000   0.76089666   -7.8660531    585.73775  0.016173452   0.01558431           11 
 3019000   0.77239876   -7.8594916    586.81361  0.016197792  0.015578442           24 
 3020000   0.76082814    -7.886447    586.97567    0.0161969  0.015572589           22 
 3021000   0.77150923   -7.8807729    586.39836  0.016175614  0.015566739           22 
 3022000   0.76371793   -7.8503221    586.05632   0.01616083   0.01556089           26 
 3023000   0.75900875   -7.8653423    586.15866  0.016158305  0.015555036           18 
 3024000     0.758558   -7.8943558    585.35411   0.01613079   0.01554918           31 
 3025000   0.74935815   -7.8758511    586.32636  0.016152241  0.015543306           36 
 3026000   0.75770574   -7.8930758     586.8439  0.016161156  0.015537443           52 
 3027000   0.75649305    -7.865249    585.96308  0.016131568  0.015531556           44 
 3028000   0.75882625   -7.8791357    586.19141  0.016132524  0.015525697           35 
 3029000     0.749705   -7.8912021    585.20268  0.016099997  0.015519833           41 
 3030000   0.77767541   -7.8854636    585.15099  0.016093262  0.015513973           40 
 3031000   0.77872968     -7.90633    585.19037  0.016089035  0.015508084           38 
 3032000   0.76306292   -7.9038105    584.89018  0.016075478  0.015502182           23 
 3033000   0.78426722   -7.8778619    585.65528  0.016091199  0.015496276           17 
 3034000   0.77171108   -7.8911799    584.35415  0.016050158  0.015490393           35 
 3035000   0.75068307    -7.894868    585.37747  0.016072967  0.015484504           35 
 3036000   0.76686134   -7.8690139    585.44638  0.016069565  0.015478624           32 
 3037000     0.754801   -7.9020595    586.13381  0.016083136  0.015472768           41 
 3038000   0.78304062   -7.9055639    585.51433  0.016060849  0.015466921           60 
 3039000   0.74671794   -7.9072376    585.58099  0.016057393  0.015461076           42 
 3040000   0.77234183   -7.9009041    584.45714  0.016021303  0.015455207           49 
 3041000   0.75593075   -7.8877106    586.87163    0.0160822  0.015449353           71 
 3042000   0.76391749   -7.9030526      585.272  0.016033092   0.01544349           72 
 3043000   0.76311663   -7.8949062    584.66491  0.016011198  0.015437631           40 
 3044000   0.76214717   -7.8870818    585.53075  0.016029642  0.015431761           36 
 3045000   0.77414978   -7.9343026     586.0514  0.016038626  0.015425886          107 
 3046000   0.76269903    -7.915756    584.84578  0.016000377  0.015420004           61 
 3047000   0.78465237   -7.9166735    584.35145  0.015981606  0.015414124           95 
 3048000    0.7644167   -7.9279365    585.96822  0.016020566   0.01540825           95 
 3049000   0.74434011   -7.9145745    584.38381  0.015972007  0.015402361           27 
 3050000   0.76275741   -7.8944696    586.04478  0.016012153  0.015396514           28 
 3051000   0.75522676   -7.8948875    585.70584  0.015997647  0.015390684           57 
 3052000   0.76993653   -7.8810893    587.35519   0.01603744  0.015384839           53 
 3053000   0.75250369    -7.901926    584.91622  0.015965614  0.015378979           88 
 3054000   0.75148873   -7.9217045    586.30572  0.015998301  0.015373115           82 
 3055000   0.77007551   -7.8856433    585.15805  0.015961758  0.015367267           37 
 3056000   0.76416944   -7.9201608    585.01013  0.015952501  0.015361429           35 
 3057000   0.76480077   -7.9035476    585.16157  0.015951411  0.015355591           59 
 3058000   0.76706456   -7.9315071    584.93403  0.015939994  0.015349749           28 
 3059000   0.78016542   -7.9086867    584.61516  0.015926097  0.015343905           34 
 3060000   0.75575651    -7.896514    586.26555  0.015965837  0.015338062           31 
 3061000   0.75802956   -7.9054951    585.54918  0.015941119  0.015332245           27 
 3062000   0.76562699   -7.8843619    585.41115  0.015932156  0.015326412           38 
 3063000   0.76535375   -7.9143599    585.96498  0.015942023  0.015320587           44 
 3064000   0.76506212   -7.8974053    586.02371  0.015938417   0.01531478           30 
 3065000    0.7591036   -7.9000293    586.55933   0.01594778   0.01530898           45 
 3066000   0.75566393   -7.8750825    586.62253  0.015944296  0.015303167           49 
 3067000   0.75287575   -7.8960496    586.23374  0.015928533  0.015297359           69 
 3068000   0.75560291   -7.8811106    586.61171  0.015933608   0.01529156           42 
 3069000   0.76955651   -7.8967495    586.26286  0.015918944  0.015285775           66 
 3070000   0.76665551   -7.8926216    584.01729  0.015852804  0.015279987           60 
 3071000   0.75763824   -7.9151339    585.43604   0.01588614  0.015274189           27 
 3072000   0.75664471   -7.9296781     586.0559  0.015897784  0.015268369           76 
 3073000   0.78522752   -7.8976792    586.00859  0.015891327  0.015262564           68 
 3074000   0.76774452   -7.9055792    585.97798  0.015885328  0.015256777           35 
 3075000   0.77222658    -7.908206    586.68662  0.015899366  0.015250989           55 
 3076000   0.76280489    -7.920529    585.32745  0.015857376  0.015245211           42 
 3077000   0.76335931   -7.9383802    585.83279  0.015865908  0.015239414           33 
 3078000   0.77205473   -7.9203713    583.27032  0.015791378  0.015233599           54 
 3079000   0.75223308   -7.9383478    586.02215  0.015860727  0.015227789           66 
 3080000   0.75245765   -7.9316323    584.54235   0.01581554  0.015221971           50 
 3081000   0.77095204   -7.9378123    585.75247  0.015843137  0.015216165           56 
 3082000   0.75933865   -7.9219702    584.98637  0.015817282  0.015210344           61 
 3083000   0.74721048   -7.9067669    586.57286  0.015855035  0.015204548           85 
 3084000   0.75703782   -7.9139348    586.14445  0.015838317  0.015198753           83 
 3085000   0.77139337   -7.9210817    585.09111   0.01580473   0.01519296           71 
 3086000   0.74409589   -7.9260164    586.07889  0.015826283   0.01518717           64 
 3087000   0.75199449   -7.9377441    584.88484  0.015788922  0.015181371           64 
 3088000   0.75455656   -7.9412625    585.08378  0.015789178  0.015175573           62 
 3089000   0.76318506   -7.9198277    586.60652  0.015825146  0.015169789           84 
 3090000    0.7525231   -7.9176437    585.44075  0.015788586  0.015163992           60 
 3091000   0.76770724   -7.9680848    584.23747  0.015751037  0.015158182          117 
 3092000   0.75338242   -7.9405474    586.97982  0.015819853  0.015152375           90 
 3093000   0.76419223   -7.9464566    586.09534  0.015790908  0.015146553           77 
 3094000   0.75425435   -7.9304129    585.47413  0.015769073   0.01514075          106 
 3095000    0.7491663   -7.9352939    586.96166   0.01580403  0.015134973          102 
 3096000   0.74982267   -7.9525013      584.358  0.015728844  0.015129174          129 
 3097000   0.75055367   -7.9541557    585.72574  0.015760568  0.015123377          109 
 3098000   0.75840539   -7.9503559    584.74736  0.015729163  0.015117594          146 
 3099000   0.76215744   -7.9778275    583.72456  0.015696584  0.015111788           95 
 3100000   0.76086195   -7.9447147    585.04284  0.015726958   0.01510599           94 
 3101000   0.75869099   -7.9629461    584.03013  0.015694672  0.015100201          170 
 3102000   0.75925248   -7.9179293    585.86575  0.015738925  0.015094414          129 
 3103000   0.76130316   -7.9390975    585.95112  0.015736146  0.015088649          137 
 3104000   0.76073486   -7.9513993    585.04859  0.015706846   0.01508288           93 
 3105000   0.73982734    -7.955134    585.44249  0.015712359  0.015077117          117 
 3106000   0.74329823   -7.9839057    585.76138  0.015715856  0.015071338          116 
 3107000   0.75905364   -7.9622421    584.60272  0.015679721  0.015065559          144 
 3108000   0.77079221   -7.9361995    587.39934   0.01574966  0.015059799           65 
 3109000   0.75936148   -7.9434526     586.0439  0.015708264  0.015054042           89 
 3110000   0.74021701   -7.9579675    584.19641  0.015653709  0.015048283           59 
 3111000   0.75605045   -7.9354965    584.96364  0.015669229  0.015042517           74 
 3112000   0.72993628   -7.9516114    585.43985  0.015676945  0.015036745           83 
 3113000   0.75331203   -7.9923563    585.09108  0.015662573  0.015030963           98 
 3114000   0.76055462   -7.9458154    584.48618  0.015641356  0.015025185           76 
 3115000   0.74100492   -7.9685075    584.65676  0.015640898  0.015019407           85 
 3116000   0.75147553   -7.9820394     584.3281  0.015627089  0.015013622           97 
 3117000    0.7594675    -7.970409     585.0203  0.015640581  0.015007849          119 
 3118000   0.75458223   -7.9776757    584.50265   0.01562173  0.015002069           75 
 3119000   0.75155801   -7.9630014    586.07142  0.015658636  0.014996304           83 
 3120000   0.74135758   -7.9548335    584.32853  0.015607065  0.014990543           78 
 3121000   0.75382948   -7.9703881    583.88181  0.015590137  0.014984788           87 
 3122000   0.76230751   -7.9618886    584.75612  0.015608481  0.014979047           74 
 3123000   0.74619126   -7.9659021    584.75821  0.015603539  0.014973324           97 
 3124000   0.76242584   -7.9582013    585.09762  0.015607598  0.014967589           92 
 3125000   0.75463694    -7.942703    585.74224  0.015619793  0.014961858          100 
 3126000   0.77071987   -7.9620275    584.50502  0.015581814  0.014956123          101 
 3127000   0.74046594    -7.959029    585.05381  0.015591456  0.014950394          107 
 3128000   0.73986038   -7.9506202    585.83233  0.015607213  0.014944673          129 
 3129000   0.76127149   -7.9639244    585.49553  0.015593255  0.014938937           92 
 3130000   0.75596498   -7.9745479    585.22368  0.015581035  0.014933205           79 
 3131000   0.77462553   -7.9680916    584.96329  0.015569128   0.01492747           88 
 3132000   0.75964994   -7.9722177    585.66629  0.015582862  0.014921745          127 
 3133000   0.74030482    -7.950685    585.42409  0.015571446   0.01491604          100 
 3134000   0.76625384    -7.969112    585.93088  0.015579953  0.014910325          140 
 3135000   0.76158313     -7.95653      586.768  0.015597236  0.014904625           89 
 3136000   0.73635516   -7.9793433    586.18402  0.015576744  0.014898943           88 
 3137000   0.77078984   -7.9416589    585.89016  0.015563972  0.014893241          103 
 3138000   0.74856805   -7.9651571    585.12907    0.0155388  0.014887546          116 
 3139000   0.75233356   -7.9486327    585.44125  0.015542138  0.014881832          124 
 3140000   0.74429662   -7.9712352    585.20381  0.015530887  0.014876135          259 
 3141000   0.73806042   -7.9590864     586.3539  0.015556455   0.01487043           85 
 3142000   0.73157919   -8.0015362    583.33847  0.015471527  0.014864702          110 
 3143000   0.75998412   -7.9869357    585.38525  0.015520873  0.014858979           89 
 3144000   0.74618064   -7.9796026    584.32973  0.015487959  0.014853239          113 
 3145000   0.76016787   -7.9719477    585.56104  0.015515661  0.014847528           90 
 3146000   0.75644887   -7.9617474    585.11461  0.015498904  0.014841835          162 
 3147000   0.73727416   -7.9858351    584.86197  0.015487289  0.014836136          205 
 3148000   0.74186269    -7.975066    584.77309  0.015480016  0.014830438          203 
 3149000   0.75783675   -7.9372365    585.81868   0.01550277  0.014824751          292 
 3150000   0.74328124   -7.9486015     585.4503  0.015488103  0.014819067          262 
 3151000   0.74283409   -7.9741794    586.68156  0.015515751  0.014813378          253 
 3152000   0.75162845   -7.9662721    585.85403  0.015488949  0.014807699          164 
 3153000   0.75022579   -7.9573916    585.32818  0.015470139  0.014802026          289 
 3154000   0.72935887   -7.9595024    584.88434  0.015453507  0.014796339          219 
 3155000    0.7510251   -8.0121646    583.91446  0.015422992   0.01479065          320 
 3156000   0.73937224   -7.9702751    586.56588  0.015488115  0.014784965          319 
 3157000   0.73483347    -7.956858    585.71362  0.015460712  0.014779288          351 
 3158000   0.77140374   -7.9898254    584.82826  0.015432453   0.01477362          326 
 3159000   0.73124182   -7.9735757    585.84008   0.01545426  0.014767945          380 
 3160000   0.75091328   -7.9768298    584.55183  0.015415396  0.014762259          344 
 3161000   0.75518679   -7.9974004    585.96388  0.015447745  0.014756589          266 
 3162000   0.72311015   -8.0001954    585.16603  0.015421833  0.014750903          453 
 3163000   0.74612741    -7.970256    584.46208  0.015398411  0.014745217          383 
 3164000    0.7500515   -7.9970798     584.5639  0.015396226  0.014739519          349 
 3165000   0.74015356   -7.9952712    584.10519  0.015379283  0.014733831          386 
 3166000   0.73817819   -7.9976312    585.93037  0.015422467  0.014728162          397 
 3167000   0.73863079   -7.9584251    586.34937  0.015428623  0.014722503          331 
 3168000   0.74881767   -7.9831142    585.77188  0.015408562  0.014716855          437 
 3169000   0.74806928   -7.9820591    585.00352  0.015383494  0.014711201          305 
 3170000    0.7407907   -8.0091024    584.97505  0.015377893   0.01470553          375 
 3171000   0.73352132   -7.9986837    583.94433  0.015345956  0.014699873          316 
 3172000   0.74840163   -7.9530708    585.98874  0.015394828  0.014694222          308 
 3173000   0.73152044    -7.969542    586.66488  0.015407734  0.014688588          248 
 3174000   0.74466707   -7.9750004    584.61179  0.015348976  0.014682929          380 
 3175000   0.74804622    -8.011549    585.65337  0.015371479  0.014677277          358 
 3176000   0.73848315   -8.0103969    585.09788  0.015352065  0.014671625          303 
 3177000   0.74718102   -8.0039275    584.74669  0.015338021  0.014665953          372 
 3178000    0.7593464   -7.9849198    585.18591  0.015344711  0.014660293          429 
 3179000   0.74542737   -8.0128393    584.58258  0.015324069  0.014654635          445 
 3180000   0.74779025   -7.9970951    584.02232  0.015304568  0.014648983          376 
 3181000   0.74937385   -7.9949386    584.56084  0.015313865  0.014643327          340 
 3182000   0.74949581   -7.9768357    584.82845   0.01531606  0.014637679          378 
 3183000   0.75328829   -7.9800108     585.4603  0.015327791  0.014632025          390 
 3184000   0.73610412   -7.9962738    585.00242  0.015310993  0.014626382          423 
 3185000   0.74310037   -8.0186545    584.49558  0.015292925  0.014620726          451 
 3186000   0.74911998    -8.005248    584.39035  0.015285372  0.014615058          479 
 3187000   0.74084348   -7.9995446    584.20696  0.015275781  0.014609406          459 
 3188000   0.74163128   -8.0373155    584.21948  0.015271316  0.014603754          402 
 3189000   0.72427045   -8.0263726    585.29105  0.015294529  0.014598101          441 
 3190000    0.7538878   -7.9903412    585.09987   0.01528474  0.014592448          494 
 3191000   0.75783273   -8.0280235    584.67166  0.015268768  0.014586802          483 
 3192000   0.75421432   -8.0081696    584.96405  0.015271618  0.014581162          481 
 3193000   0.74239614   -8.0282726    584.24525  0.015248075  0.014575518          599 
 3194000   0.75262642   -8.0206601    584.93414  0.015261275  0.014569882          459 
 3195000   0.74231639   -8.0225857    584.28011   0.01523944  0.014564251          555 
 3196000   0.76243343   -8.0170196      584.946  0.015252034  0.014558629          452 
 3197000   0.74162901    -7.997916    585.33994  0.015257532  0.014553028          554 
 3198000   0.74377085    -7.996057    585.26508   0.01525081  0.014547412          522 
 3199000   0.73183077   -8.0274921    585.11079  0.015242023  0.014541815          560 
 3200000   0.73554009   -7.9962012    584.99174   0.01523416   0.01453621          488 
 3201000   0.73990752   -8.0084019    586.74774  0.015275116  0.014530629          569 
 3202000   0.75826518   -8.0026641    584.94332  0.015223384  0.014525039          510 
 3203000   0.73880724   -8.0021935    584.79701  0.015214825  0.014519451          515 
 3204000   0.73704262   -8.0220887    585.35591  0.015224613  0.014513867          625 
 3205000   0.72912959   -8.0214382    585.55416  0.015225017  0.014508277          620 
 3206000   0.74965569   -8.0197714    585.10627  0.015208626  0.014502694          670 
 3207000   0.73141368   -8.0034702    584.63468   0.01519163  0.014497097          602 
 3208000   0.75266076   -7.9976747    585.99669  0.015222275  0.014491526          691 
 3209000   0.73768794   -8.0113322    584.85577  0.015187903  0.014485941          572 
 3210000   0.75437183   -8.0062266    585.49185  0.015199685  0.014480361          657 
 3211000   0.73642506   -8.0310443    583.86575   0.01515275  0.014474783          571 
 3212000   0.74529422   -8.0127075     585.5217  0.015190995  0.014469202          652 
 3213000   0.73449748   -8.0419266    583.83372  0.015142487  0.014463602          574 
 3214000   0.72635177   -8.0325251    584.65269   0.01515901  0.014458014          613 
 3215000   0.73126971   -8.0065036    584.29417  0.015145002   0.01445243          614 
 3216000   0.74191978   -8.0432931    585.59743  0.015174063  0.014446849          649 
 3217000   0.72567675   -8.0423075    584.05512  0.015129394  0.014441253          643 
 3218000   0.75100076    -8.041741    584.47779  0.015135638  0.014435668          695 
 3219000   0.73804568     -8.04365    584.37874  0.015128372  0.014430068          639 
 3220000   0.75139456   -8.0318957    583.82217  0.015109269  0.014424471          523 
 3221000   0.72768394   -8.0414988    583.62595  0.015099502  0.014418876          629 
 3222000   0.74200589   -8.0601208    585.01696  0.015130792   0.01441327          643 
 3223000   0.73076159   -8.0455136    584.54937  0.015114008  0.014407671          636 
 3224000   0.75171134   -8.0365622    584.60815  0.015110839  0.014402081          680 
 3225000   0.74389065   -8.0357997    584.44827  0.015102023  0.014396501          677 
 3226000    0.7335674    -8.024297    585.57897  0.015126549   0.01439092          651 
 3227000   0.70595695   -8.0483003    585.18484  0.015111684  0.014385333          728 
 3228000   0.73715966   -8.0397128    584.25666  0.015083041  0.014379756          608 
 3229000   0.71449639   -8.0596803    584.50138  0.015084685  0.014374169          714 
 3230000   0.72195997   -8.0288569    585.19568  0.015097928  0.014368596          727 
 3231000    0.7408703   -8.0594346    585.04622    0.0150894  0.014363023          808 
 3232000   0.73367636   -8.0779389    583.50273  0.015044934  0.014357428          768 
 3233000   0.74312086   -8.0310066    584.47982  0.015065466  0.014351853          792 
 3234000   0.72887335   -8.0319477    585.11806  0.015077254  0.014346276          702 
 3235000   0.73413048   -8.0505511    583.65485  0.015034901  0.014340699          713 
 3236000   0.73187587    -8.048803    584.68476  0.015056777  0.014335124          790 
 3237000   0.74277674   -8.0674894    582.97719  0.015008166  0.014329545          700 
 3238000   0.72932739   -8.0879532    583.90775   0.01502748  0.014323958          796 
 3239000   0.73550689   -8.0660293    583.06916  0.015001265  0.014318373          710 
 3240000   0.72270409   -8.0660511    585.84918  0.015068137  0.014312805          678 
 3241000    0.7308267   -8.0446371    583.92708  0.015014067  0.014307228          720 
 3242000   0.73534452   -8.0802044      584.166  0.015015577  0.014301665          782 
 3243000   0.72857047   -8.0393557    584.81816  0.015027705  0.014296093          754 
 3244000   0.74942227   -8.0916172    584.03175  0.015002871  0.014290517          744 
 3245000   0.73715502   -8.0536036    584.20592   0.01500272  0.014284967          761 
 3246000   0.74564001   -8.0713313    584.35778  0.015001997  0.014279402          833 
 3247000   0.72646977   -8.0828144    584.50687  0.015001203  0.014273834          782 
 3248000   0.72618382   -8.0561843    584.19929  0.014988693  0.014268253          730 
 3249000   0.72520138   -8.0639922    583.63768  0.014969675  0.014262668          744 
 3250000   0.72654757   -8.0660904    583.54237  0.014962625  0.014257109          800 
 3251000   0.73172842    -8.051239    584.24621  0.014976064  0.014251544          818 
 3252000   0.74114607   -8.0491416    585.27685  0.014997869  0.014245969          864 
 3253000    0.7346171     -8.07197    584.53696  0.014974305   0.01424041          914 
 3254000   0.71920114    -8.064691    583.10726  0.014933089  0.014234849          880 
 3255000   0.72320397   -8.0797423    582.75601  0.014919509  0.014229299          887 
 3256000    0.7225987   -8.0918401     582.3805  0.014905316  0.014223747          875 
 3257000   0.72460993   -8.0772606    584.86444  0.014964293   0.01421819          773 
 3258000   0.72776818   -8.0574244    583.91723  0.014935472  0.014212634          805 
 3259000   0.73558941   -8.0431512    585.13412  0.014962006  0.014207087          739 
 3260000   0.73669767    -8.095902    582.90679   0.01490048  0.014201524          817 
 3261000   0.72679304   -8.0956372    583.30784   0.01490616  0.014195966          870 
 3262000   0.73465952   -8.0820592    584.53541   0.01493295   0.01419042          863 
 3263000   0.74330652   -8.0912627    583.50669  0.014902102  0.014184876          813 
 3264000   0.72283926   -8.0597698    585.39147  0.014945656   0.01417934          854 
 3265000   0.74436826   -8.0830864    583.95749  0.014904479    0.0141738          861 
 3266000   0.72900052   -8.0996885    582.45293  0.014861526  0.014168249          896 
 3267000    0.7326991   -8.0970547    582.55691  0.014859629  0.014162703          864 
 3268000   0.74105628   -8.0928325    584.52374  0.014905236  0.014157146          891 
 3269000   0.73823874   -8.0771904     584.3326  0.014895804  0.014151594          913 
 3270000   0.73306427   -8.0938834     582.5879  0.014846787  0.014146039          890 
 3271000   0.72885041   -8.0936548    582.73543  0.014846006  0.014140488          948 
 3272000   0.72363994   -8.1093032    583.48692  0.014860608  0.014134934         1015 
 3273000   0.73674065   -8.0927377    584.08647  0.014871333  0.014129383         1012 
 3274000   0.72956364   -8.1102968    583.36809  0.014848506  0.014123824          935 
 3275000   0.72108846   -8.1044511    583.54728  0.014848531  0.014118261         1022 
 3276000   0.71835583   -8.1178886    582.38053   0.01481432  0.014112692         1023 
 3277000   0.73715013   -8.1167842    582.30191  0.014807799  0.014107129          941 
 3278000   0.73373162   -8.1039576    581.77269  0.014789828   0.01410157          923 
 3279000   0.73318172   -8.1303972    582.44734  0.014802464  0.014096015          999 
 3280000   0.73159232   -8.1338387     583.1767  0.014816481  0.014090438         1001 
 3281000   0.73682997   -8.1205763    582.56059  0.014796317  0.014084881         1043 
 3282000    0.7168052   -8.1077393    582.70125   0.01479538   0.01407934         1027 
 3283000   0.74086764   -8.1316181    582.33046  0.014781462    0.0140738          993 
 3284000   0.73254437   -8.1181025     582.7503  0.014787614  0.014068254          964 
 3285000   0.72732877   -8.0970608    583.29069  0.014796821  0.014062723          991 
 3286000   0.72860135   -8.1082694    581.77131  0.014753787  0.014057192         1005 
 3287000   0.71603932   -8.1439886     582.6229  0.014770888   0.01405166         1061 
 3288000   0.72755126   -8.1066802    583.43599  0.014787003  0.014046123         1074 
 3289000   0.72733455   -8.1015287    583.21981   0.01477703  0.014040589         1111 
 3290000   0.73274644   -8.1234523    581.79491  0.014736447  0.014035057         1120 
 3291000   0.73440761   -8.1206523    582.92744  0.014760646  0.014029529          967 
 3292000   0.71468912   -8.1187083    583.73534  0.014776614  0.014023988         1014 
 3293000   0.73666267   -8.1135285    582.28033  0.014735306  0.014018456         1061 
 3294000   0.71884977   -8.1264886    582.07496  0.014725636  0.014012925         1054 
 3295000   0.72542232   -8.1249644    581.92857  0.014717465  0.014007388         1126 
 3296000   0.72005854   -8.1216285    582.79285  0.014734852  0.014001859         1030 
 3297000   0.72963663   -8.1567759    580.69454  0.014677347  0.013996321         1033 
 3298000    0.7201817   -8.1381993    582.11372  0.014708756  0.013990794          998 
 3299000   0.74215492   -8.1120763    583.08457  0.014728821  0.013985272         1126 
 3300000   0.70687725   -8.1247215    582.06481  0.014698606  0.013979751          961 
 3301000   0.71107247   -8.1299756    581.22456  0.014672941  0.013974225         1037 
 3302000   0.71966076   -8.1157574    582.90726  0.014710965  0.013968693         1104 
 3303000   0.72937719   -8.1089291    581.34339  0.014667055  0.013963169         1071 
 3304000   0.74329058   -8.1464989    582.10651  0.014681863  0.013957659         1108 
 3305000   0.73061652   -8.1213625    581.12592  0.014652696  0.013952146         1195 
 3306000   0.73276671   -8.1233872    581.68047  0.014662242  0.013946627         1188 
 3307000   0.71801513   -8.1308928     582.0169  0.014666286   0.01394111         1180 
 3308000   0.71944113    -8.129678    582.41821  0.014671962  0.013935596         1190 
 3309000   0.71811867   -8.1429507    581.62073  0.014647445  0.013930076         1118 
 3310000   0.71675372   -8.1481849    579.98395  0.014601811  0.013924555         1083 
 3311000   0.71360397   -8.1647517    582.52353  0.014661319  0.013919046         1199 
 3312000   0.72514614    -8.140872    581.67299  0.014635492  0.013913528         1223 
 3313000    0.7237787   -8.1608217    581.63329  0.014630076  0.013908008         1245 
 3314000   0.72198868   -8.1457545    582.76324  0.014654075  0.013902504         1203 
 3315000    0.7344494   -8.1453789    581.30082  0.014612891  0.013896986         1196 
 3316000   0.72000422   -8.1227066     582.5028  0.014638691  0.013891485         1223 
 3317000   0.71652014   -8.1353377    581.91286  0.014619457  0.013885977         1209 
 3318000   0.73220248   -8.1399544    581.50948   0.01460492  0.013880479         1225 
 3319000   0.71142494   -8.1346112    581.86474  0.014609439  0.013874973         1184 
 3320000   0.72859114   -8.1222721    581.48613  0.014595535  0.013869468         1219 
 3321000    0.7115176   -8.1697711    581.32993  0.014587221  0.013863968         1278 
 3322000   0.72894738   -8.1477227     582.2987  0.014607132  0.013858468         1241 
 3323000   0.73302172   -8.1351281    580.88223  0.014567214  0.013852973         1260 
 3324000    0.7217577    -8.149362    581.52554   0.01457896  0.013847476         1214 
 3325000   0.71140056   -8.1366465    582.01197  0.014586766  0.013841981         1269 
 3326000   0.72325643   -8.1577159    581.48363  0.014569143  0.013836485         1292 
 3327000   0.70492904   -8.1530276    581.27595  0.014559562  0.013830987         1215 
 3328000   0.73022461   -8.1451608    582.60211  0.014588394  0.013825495         1316 
 3329000   0.72993381   -8.1463966    581.69405  0.014561281  0.013820006         1394 
 3330000    0.7209392   -8.1480022    582.98685   0.01458926  0.013814514         1279 
 3331000   0.72057538   -8.1635958    581.45012  0.014546435  0.013809021         1311 
 3332000   0.71202597   -8.1550055    581.43842  0.014541777  0.013803529         1294 
 3333000   0.72063186   -8.1569192    581.74319  0.014545034  0.013798023         1292 
 3334000   0.71617132   -8.1449609    581.24986  0.014528341  0.013792525         1302 
 3335000   0.70923073   -8.1744608    580.79883  0.014512714  0.013787027         1233 
 3336000   0.71180013   -8.1768518    580.59609    0.0145033  0.013781536         1300 
 3337000   0.72444587   -8.1558357    581.64127  0.014525054  0.013776042         1359 
 3338000   0.70529153    -8.154965    582.47347  0.014541479  0.013770557         1285 
 3339000   0.72339035   -8.1739673    580.77321  0.014494689  0.013765081         1328 
 3340000   0.70893625   -8.1814385    580.78666  0.014490685  0.013759599         1268 
 3341000   0.72577876   -8.1539675    581.90686  0.014514289  0.013754124         1357 
 3342000   0.72479824   -8.1686819    582.18073  0.014516775  0.013748648         1359 
 3343000   0.73333745   -8.1628687    580.43833  0.014468998  0.013743185         1300 
 3344000   0.72090163   -8.1847068    580.79967  0.014473676  0.013737705         1333 
 3345000   0.71407112   -8.1781569     582.0971  0.014501672  0.013732232         1380 
 3346000   0.71147615   -8.1670115    580.87225  0.014466832  0.013726761         1294 
 3347000   0.72575681   -8.1823578    580.46695  0.014452419  0.013721288         1301 
 3348000   0.72210535   -8.1525793    580.81602  0.014456791  0.013715819         1334 
 3349000   0.70422547   -8.1701714    579.89051  0.014429444  0.013710337         1434 
 3350000   0.72995778   -8.1761901    580.98299  0.014452313  0.013704864         1395 
 3351000   0.71795144   -8.1639538    580.53238  0.014436795  0.013699403         1319 
 3352000   0.71659335   -8.1503425    581.36454  0.014453176  0.013693939         1386 
 3353000   0.70727587   -8.1936828    578.66424  0.014381754  0.013688468         1387 
 3354000   0.71576265   -8.1786186     581.3321  0.014443751  0.013682998         1390 
 3355000   0.71443961   -8.1697092    580.42515  0.014416919  0.013677541         1385 
 3356000   0.70673753    -8.162181    581.40986  0.014437074  0.013672079         1311 
 3357000   0.73511402   -8.1615688    581.74924  0.014441198   0.01366663         1415 
 3358000   0.70020171   -8.1822817    581.02724   0.01441898   0.01366118         1351 
 3359000   0.72865481   -8.1648394     582.3461  0.014447407  0.013655724         1402 
 3360000   0.71702269   -8.2024852    580.34403  0.014393453  0.013650267         1477 
 3361000   0.71626267   -8.1769677    580.99722  0.014405366  0.013644803         1382 
 3362000    0.7081891   -8.1932218    579.18459  0.014356152  0.013639347         1432 
 3363000   0.70854466   -8.1711903    580.20874  0.014377261  0.013633893         1453 
 3364000    0.7104427   -8.2105286    579.98899  0.014367543  0.013628452         1490 
 3365000   0.71688451   -8.1900532    580.74234   0.01438193  0.013622993         1558 
 3366000    0.7274364   -8.1765583    580.26911  0.014365942  0.013617539         1535 
 3367000   0.69967788   -8.1684789     580.8555  0.014376188   0.01361209         1453 
 3368000   0.72589157   -8.1947541    579.87092  0.014347558  0.013606647         1441 
 3369000   0.71808589   -8.1854463    580.86509  0.014367891  0.013601223         1472 
 3370000   0.72044261    -8.175707    580.16507  0.014346317  0.013595781         1458 
 3371000   0.71801732   -8.1915778    581.12568  0.014365808  0.013590338         1476 
 3372000   0.70752676   -8.1925116    581.57669  0.014372694  0.013584905         1524 
 3373000   0.71867647     -8.20222    578.98941  0.014304512  0.013579475         1535 
 3374000   0.72033491   -8.1788944    581.69691  0.014367144  0.013574052         1493 
 3375000   0.70224508   -8.2075345    580.74568    0.0143394  0.013568616         1479 
 3376000   0.71758482   -8.1819395    579.99586  0.014316644  0.013563185         1583 
 3377000   0.69931771   -8.1764387    580.68393  0.014329383  0.013557764         1516 
 3378000   0.72330485   -8.1547272    580.62448  0.014323675  0.013552339         1525 
 3379000   0.72183147   -8.1883914    579.58161  0.014293716  0.013546916         1613 
 3380000   0.71730383   -8.1680407    580.78236  0.014319092  0.013541496         1520 
 3381000   0.70082625   -8.1894604    579.92723   0.01429378  0.013536085         1571 
 3382000   0.72515072   -8.1850774     580.3581   0.01430017  0.013530665         1611 
 3383000   0.71843263   -8.1880462    579.63168  0.014278049  0.013525241         1528 
 3384000   0.71980611   -8.2067169    580.20876  0.014288041   0.01351982         1653 
 3385000   0.70503676   -8.1967282    579.50759  0.014266558  0.013514397         1574 
 3386000   0.70028221   -8.2156016    579.53455  0.014263008  0.013508979         1668 
 3387000   0.70856368    -8.196688    579.83681  0.014266234  0.013503569         1697 
 3388000   0.71686689   -8.1868267    579.85571  0.014262488  0.013498155         1600 
 3389000   0.71144178   -8.2233478    579.63013  0.014252733  0.013492736         1661 
 3390000    0.7356828    -8.209147     580.8018   0.01427733  0.013487339         1604 
 3391000   0.70034793   -8.2067988    579.56556   0.01424274  0.013481921         1625 
 3392000    0.7114866   -8.1887334    580.15747  0.014253082  0.013476516         1622 
 3393000   0.71208478    -8.212259    578.78094  0.014215074  0.013471112         1583 
 3394000   0.69108501   -8.2061561    579.56122  0.014230044  0.013465707         1599 
 3395000   0.71856706   -8.1829375    579.13386  0.014215362  0.013460307         1551 
 3396000   0.71642268   -8.1981312    580.79118  0.014251845  0.013454905         1570 
 3397000   0.71050121   -8.2059022    579.51068  0.014216237  0.013449511         1613 
 3398000   0.71659158   -8.1862759    580.65499  0.014240116   0.01344412         1599 
 3399000   0.70911465   -8.2059291    579.20583  0.014200398  0.013438732         1612 
 3400000    0.7077835   -8.1961725    579.72493  0.014208944  0.013433332         1641 
 3401000   0.71115313   -8.2041257    580.31578  0.014219244   0.01342794         1677 
 3402000   0.70232846   -8.2095512     579.1294  0.014186003  0.013422553         1622 
 3403000   0.71656554   -8.2032733    579.78225  0.014197822  0.013417173         1646 
 3404000   0.71474879   -8.2011103    580.19977  0.014203872  0.013411794         1557 
 3405000   0.70255021   -8.1899749    579.45122  0.014181381  0.013406415         1547 
 3406000   0.69316242   -8.2185679     580.0579  0.014192061  0.013401037         1583 
 3407000   0.69861912   -8.2310427    579.55776  0.014175662  0.013395666         1597 
 3408000   0.69613865   -8.2104956    581.17632   0.01421108    0.0133903         1531 
 3409000   0.69606981   -8.2072083    579.84234  0.014174302  0.013384934         1596 
 3410000   0.70055146   -8.2012717    579.90076  0.014171573  0.013379568         1589 
 3411000   0.70400835    -8.207487    579.44819  0.014156361  0.013374205         1590 
 3412000   0.71049519   -8.1920181    580.52847  0.014178597  0.013368849         1556 
 3413000   0.70671086    -8.199439    580.31591  0.014169253  0.013363501         1565 
 3414000   0.71139506   -8.1910254    580.25216  0.014163546  0.013358145         1604 
 3415000   0.69854006   -8.2156248     578.5779  0.014118543  0.013352797         1574 
 3416000    0.6865455   -8.1968512    581.05254  0.014174779  0.013347448         1505 
 3417000    0.7088956   -8.1845545    580.23637  0.014150726  0.013342099         1644 
 3418000   0.70669529    -8.211015    579.63151  0.014131839  0.013336756         1573 
 3419000   0.70196531     -8.21526    579.22697  0.014117846  0.013331409         1603 
 3420000   0.70425692    -8.213899    578.78435  0.014102933  0.013326055         1526 
 3421000     0.700038   -8.2030683    579.37569  0.014113215  0.013320706         1562 
 3422000   0.68981302   -8.1929182    578.86642  0.014096689  0.013315364         1552 
 3423000   0.70422859   -8.2146545    579.15092  0.014099497  0.013310019         1603 
 3424000   0.69139077   -8.1981044    579.52201   0.01410441   0.01330468         1619 
 3425000   0.68902154   -8.1860057    580.36249  0.014120742  0.013299341         1538 
 3426000   0.69306817   -8.2038344    578.89382  0.014080896  0.013294006         1574 
 3427000   0.69291023   -8.2125997    578.51774  0.014067643   0.01328868         1694 
 3428000   0.69073418   -8.2172934    579.38497  0.014084621  0.013283348         1554 
 3429000   0.71815152   -8.2225851    578.87494  0.014068118  0.013278019         1597 
 3430000   0.70483478    -8.201173    579.37283  0.014076114  0.013272693         1548 
 3431000   0.72172362   -8.2253117    579.67132  0.014079261  0.013267375         1581 
 3432000   0.69215263   -8.2043647    578.99891  0.014058831  0.013262047         1605 
 3433000   0.69693085    -8.205035    579.30648  0.014062202  0.013256715         1597 
 3434000   0.70177819    -8.213324    580.56405  0.014088625  0.013251392         1574 
 3435000   0.69446608   -8.1965531    579.96736  0.014070048  0.013246072         1612 
 3436000   0.69461665   -8.1896775    580.47293  0.014078214  0.013240761         1602 
 3437000    0.6985218   -8.2131513    580.62848   0.01407789  0.013235458         1556 
 3438000   0.69426664   -8.2074263    580.07512  0.014060382  0.013230155         1531 
 3439000   0.69964028   -8.2179664    578.93117  0.014028573  0.013224852         1642 
 3440000   0.70777696   -8.2125602    581.28755  0.014081578   0.01321955         1590 
 3441000   0.69659964   -8.2320971    579.09113  0.014024294  0.013214257         1583 
 3442000   0.70726525   -8.1910968    579.44798  0.014028859  0.013208954         1601 
 3443000   0.70801856   -8.2051874    578.83153  0.014009864  0.013203655         1752 
 3444000   0.68811768   -8.2059364    579.60855  0.014024597  0.013198359         1695 
 3445000   0.71326629   -8.2076881    579.56002  0.014019352  0.013193061         1752 
 3446000   0.70554069   -8.2359911    579.41522  0.014011782  0.013187766         1673 
 3447000   0.69808159   -8.2409575    578.52404  0.013986172  0.013182464         1710 
 3448000   0.69343541    -8.233654    579.17182  0.013997772  0.013177167         1670 
 3449000   0.70545147   -8.2366602    578.04797   0.01396656   0.01317188         1687 
 3450000   0.69611776   -8.2218188    579.92986  0.014007968  0.013166586         1694 
 3451000   0.70281424   -8.2107221    578.67352  0.013973571  0.013161308         1756 
 3452000   0.70606566   -8.2387445    579.45986  0.013988506  0.013156015         1832 
 3453000   0.69510614   -8.2158098    580.06803  0.013999132  0.013150722         1742 
 3454000   0.69442996   -8.2100375    580.44232  0.014004109  0.013145438         1704 
 3455000   0.70816044   -8.2387551    578.81294  0.013960756  0.013140152         1683 
 3456000    0.6968589   -8.2147521    580.14948  0.013988944  0.013134871         1743 
 3457000   0.68940454   -8.2181701    579.25165  0.013963254  0.013129599         1739 
 3458000   0.70326517   -8.2340457    580.12764  0.013980327  0.013124336         1718 
 3459000   0.70834959   -8.2456733    579.13925  0.013952473  0.013119063         1747 
 3460000   0.70932251   -8.2398985     579.1646  0.013949051  0.013113799         1830 
 3461000   0.73208533   -8.2253239    579.25496  0.013947196  0.013108525         1782 
 3462000   0.70500601   -8.2474566    579.71004  0.013954122  0.013103257         1781 
 3463000   0.68218862   -8.2228208    579.57853  0.013946928  0.013097998         1818 
 3464000   0.69598836   -8.2645708    580.21861    0.0139583  0.013092741         1873 
 3465000   0.68128481   -8.2391242    578.90397  0.013922654  0.013087483         1847 
 3466000   0.69370504   -8.2547572     579.0288  0.013921639  0.013082227         1833 
 3467000   0.70215586    -8.243289    577.29565  0.013875965  0.013076968         1864 
 3468000   0.69627606   -8.2457898    579.17129  0.013917034  0.013071722         1906 
 3469000   0.69675582   -8.2434866    577.65399  0.013876573  0.013066461         1947 
 3470000   0.69418458   -8.2483646    578.63219  0.013896066  0.013061201         1921 
 3471000   0.69806818   -8.2520493    579.72697  0.013918347  0.013055946         1971 
 3472000   0.68106841   -8.2415945    579.06464  0.013898441  0.013050697         1934 
 3473000   0.67083125   -8.2318153    577.89009  0.013866256  0.013045437         1854 
 3474000   0.70031472   -8.2569001    577.46736  0.013852124  0.013040183         1844 
 3475000   0.68483471    -8.236787     578.3496  0.013869295  0.013034929         1875 
 3476000   0.69234737   -8.2472862    577.92875  0.013855216  0.013029679         2013 
 3477000   0.68179594   -8.2462426    579.07883  0.013878795   0.01302444         2047 
 3478000   0.69720913   -8.2192192      579.387  0.013882188  0.013019192         1992 
 3479000   0.70248915   -8.2433638    578.87966  0.013866045  0.013013945         2002 
 3480000   0.70111243   -8.2375356    579.12205  0.013867865  0.013008714         1982 
 3481000   0.70146805    -8.261924    579.39688  0.013870461   0.01300348         2036 
 3482000   0.69746368   -8.2689347    578.13586  0.013836298  0.012998244         2036 
 3483000   0.70278457   -8.2348905    578.74999  0.013847019  0.012993015         2044 
 3484000   0.69551263    -8.249548    578.33714  0.013833169  0.012987784         2040 
 3485000    0.7141044   -8.2340481    578.60388  0.013835578  0.012982556         2003 
 3486000   0.69516085   -8.2802544    578.33365  0.013825149  0.012977325         1958 
 3487000   0.70735619   -8.2597361    579.75867   0.01385524  0.012972095         1885 
 3488000   0.71176476   -8.2397185    579.25733   0.01383929  0.012966871         1977 
 3489000   0.70366983   -8.2574652    579.88594  0.013850338  0.012961658         1895 
 3490000   0.69213863   -8.2536187    578.77752  0.013819903   0.01295643         1978 
 3491000   0.67851705   -8.2653283    577.97992  0.013796904  0.012951197         1962 
 3492000   0.69497686   -8.2833175    578.06408  0.013794962  0.012945968         1973 
 3493000   0.68294059   -8.2692568    579.26829  0.013819742  0.012940739         1891 
 3494000    0.6860798   -8.2826553    578.41176  0.013795358  0.012935503         2028 
 3495000   0.69078236   -8.2837758    577.42742   0.01376794  0.012930278         1913 
 3496000   0.68617047   -8.2700928    579.19217  0.013806068  0.012925049         1997 
 3497000   0.68197033   -8.2782768    577.94277  0.013772347  0.012919828         1973 
 3498000   0.70809839   -8.2645763      578.013  0.013770083  0.012914608         2018 
 3499000   0.67797025   -8.2524666     578.7347  0.013783336  0.012909384         1997 
 3500000    0.6947836   -8.2600994     577.5569  0.013751355  0.012904164         2023 
 3501000   0.69926282    -8.274647     577.4577  0.013745066  0.012898936         2016 
 3502000   0.69181749   -8.2553174    576.88278   0.01372746   0.01289372         2033 
 3503000   0.68001675   -8.2567885    578.71014  0.013767013  0.012888502         2011 
 3504000   0.67878243    -8.294774    577.74709   0.01374018  0.012883281         2077 
 3505000   0.70560336   -8.2813471    577.41961  0.013728474  0.012878065         2003 
 3506000    0.6773027     -8.29475    577.59527  0.013728733  0.012872851         2116 
 3507000   0.69720751   -8.2648585    578.53357  0.013747115  0.012867651         1998 
 3508000   0.67915031   -8.2822481    577.00792  0.013706954  0.012862439         2023 
 3509000   0.69435291   -8.2691278    577.41417  0.013712695  0.012857243         2001 
 3510000   0.69095817   -8.2580898    577.74444   0.01371663   0.01285204         1972 
 3511000   0.69870703   -8.2699889    576.34881  0.013679598  0.012846849         2053 
 3512000   0.69385208   -8.2818085    577.68904  0.013707504  0.012841646         1958 
 3513000   0.69948703   -8.2656354    579.12993  0.013737782  0.012836445         2095 
 3514000   0.68114814   -8.2985072    576.91969  0.013681457  0.012831249         2092 
 3515000   0.69509419   -8.2912681    578.10879  0.013705756  0.012826048         2150 
 3516000   0.69051126   -8.2998988    576.63235  0.013666865  0.012820852         2065 
 3517000   0.67015148   -8.2956794    578.27309  0.013701855  0.012815655         2053 
 3518000   0.69189884    -8.283098    576.60891   0.01365854  0.012810452         2150 
 3519000   0.67517431   -8.2747258    579.05166  0.013712505  0.012805258         2049 
 3520000     0.689427   -8.2845285    577.00118  0.013660066  0.012800063         2117 
 3521000   0.68507555   -8.3017749    576.83392  0.013652228   0.01279487         2089 
 3522000   0.68002726   -8.2859495    577.76549  0.013670393  0.012789686         2015 
 3523000   0.67618668   -8.2784234    577.71352  0.013665283   0.01278451         1953 
 3524000   0.68803904   -8.2683058     577.2554  0.013650572  0.012779325         2046 
 3525000   0.68743829   -8.2967279    577.06873  0.013642287  0.012774147         2028 
 3526000   0.67861918   -8.2800657    575.80617  0.013608578  0.012768969         2111 
 3527000   0.69376697   -8.2705509    577.28285   0.01363961  0.012763798         2115 
 3528000   0.69602143   -8.2869946    577.27043   0.01363545  0.012758623         2106 
 3529000   0.69166033   -8.2896674    578.83934  0.013668635  0.012753447         2194 
 3530000   0.70046934   -8.2977753    576.74219  0.013615255  0.012748281         2121 
 3531000   0.70304961   -8.2931086    577.46511   0.01362846  0.012743111         2059 
 3532000   0.68490398   -8.3041798    576.04802  0.013591167  0.012737943         2108 
 3533000   0.68474335   -8.2810295    577.21665  0.013614885  0.012732773         2091 
 3534000   0.69829555   -8.3234404    575.95493   0.01358128  0.012727608         2109 
 3535000   0.69385039   -8.2991447    576.88419  0.013599345  0.012722452         2141 
 3536000   0.69173049   -8.2897312      575.948  0.013573435  0.012717287         2113 
 3537000   0.67653321   -8.2884501    577.19651  0.013599013  0.012712132         2240 
 3538000   0.70761259   -8.2947589    577.10025  0.013592902  0.012706979         2181 
 3539000   0.67182549   -8.3244075    577.14518  0.013590119  0.012701826         2203 
 3540000    0.6903453   -8.2882187    577.36126  0.013591367  0.012696668         2083 
 3541000   0.68457789   -8.3005134    577.42573  0.013589046   0.01269152         2159 
 3542000   0.66968568    -8.286954     577.6413  0.013590281  0.012686376         2210 
 3543000   0.68149087   -8.2648526    576.85865  0.013568037  0.012681234         2174 
 3544000   0.68570699    -8.277774     577.6034   0.01358172  0.012676089         2173 
 3545000   0.68137295    -8.313175    576.80651  0.013559156  0.012670942         2146 
 3546000     0.671892   -8.3001951    576.79893  0.013555154  0.012665797         2189 
 3547000    0.6883776   -8.3095818    576.95413  0.013554979  0.012660651         2230 
 3548000   0.69938269   -8.3039616    575.80324  0.013524127  0.012655502         2140 
 3549000   0.68966081   -8.3104387     576.4879  0.013536393  0.012650363         2217 
 3550000   0.69210271   -8.2903578      576.814  0.013540235  0.012645226         2179 
 3551000   0.67996447   -8.3143749    576.64743  0.013532513  0.012640093         2188 
 3552000   0.68837628   -8.3154414    577.27677  0.013543468  0.012634961         2164 
 3553000   0.67558938   -8.2998529    577.30321  0.013540276  0.012629833         2178 
 3554000   0.68015011   -8.2978659    576.13766  0.013509137  0.012624702         2091 
 3555000   0.67458451   -8.2996777    577.29431   0.01353245  0.012619573         2141 
 3556000   0.67512341   -8.3148353    575.98284  0.013497911  0.012614449         2221 
 3557000    0.6886369   -8.2940301     575.9361  0.013493021  0.012609324         2229 
 3558000   0.67419608   -8.3111085    576.99758   0.01351409    0.0126042         2129 
 3559000   0.69463223   -8.3153828    576.20843  0.013491815  0.012599078         2225 
 3560000   0.68422472   -8.3373467     575.8663  0.013480016  0.012593955         2166 
 3561000   0.69100755   -8.3130498    576.05085   0.01348055  0.012588833         2267 
 3562000   0.68657183   -8.3283269    575.84299  0.013471902  0.012583718         2215 
 3563000   0.68900661    -8.318793    576.58371  0.013485446   0.01257861         2234 
 3564000   0.66447169   -8.3083856    576.14846  0.013471485  0.012573495         2249 
 3565000   0.70067383   -8.3119627     576.7161  0.013480975  0.012568377         2259 
 3566000   0.67077523   -8.2829931    576.15386  0.013464055  0.012563267         2181 
 3567000   0.66905498   -8.3238818    575.65404  0.013448604  0.012558161         2278 
 3568000   0.67930287   -8.2998681    576.67349  0.013468645  0.012553053         2239 
 3569000   0.67801374   -8.3230762    575.93779  0.013447693  0.012547945         2209 
 3570000   0.68694269   -8.3232513    576.23784   0.01345093  0.012542845         2252 
 3571000   0.67864888   -8.3155213     577.2087  0.013469819  0.012537751         2285 
 3572000   0.68687545   -8.3096723    577.08903  0.013463257  0.012532651         2193 
 3573000   0.67568384   -8.3303588     576.3655  0.013442614  0.012527556         2227 
 3574000   0.69580004   -8.3251686    574.63384  0.013398476  0.012522457         2221 
 3575000    0.6788724    -8.301904     575.5726  0.013416611  0.012517356         2182 
 3576000    0.6673462      -8.3028    576.36578  0.013431343  0.012512266         2171 
 3577000   0.66656143   -8.3357019    576.19418   0.01342359  0.012507172         2284 
 3578000   0.67469359    -8.337486    576.43246  0.013425388  0.012502081         2274 
 3579000   0.67523074   -8.3167531     576.1117  0.013414168  0.012496997         2184 
 3580000   0.67403754   -8.3079627    576.89889  0.013428745  0.012491913         2288 
 3581000   0.69845754   -8.3050508    575.49651   0.01339236  0.012486837         2277 
 3582000   0.68392302   -8.3432211    575.49566  0.013388602  0.012481758         2304 
 3583000   0.68430853   -8.3253574    575.97429  0.013395997  0.012476678         2203 
 3584000   0.67919148   -8.3180425    576.80478  0.013411569  0.012471602         2272 
 3585000    0.6688993   -8.3442877    575.79098  0.013384263  0.012466528         2279 
 3586000   0.68431551   -8.2866263    576.48742  0.013396714  0.012461456         2234 
 3587000   0.67960826   -8.3187864    577.17102  0.013408861  0.012456391         2342 
 3588000    0.6952346   -8.3287698    576.01879  0.013378363  0.012451327         2257 
 3589000   0.68202505   -8.3121526    575.33063  0.013358657  0.012446262         2331 
 3590000   0.68927089   -8.3174653    576.56432  0.013383573  0.012441209         2258 
 3591000   0.66858525   -8.3154438     575.4973  0.013355085  0.012436154         2248 
 3592000   0.67132258   -8.3487414    576.75631  0.013380575  0.012431098         2199 
 3593000   0.67624167   -8.3168735    576.05879  0.013360673  0.012426043         2197 
 3594000    0.6842996   -8.3152021    575.63359  0.013347097  0.012420998         2252 
 3595000   0.68015037   -8.3336258    576.64505   0.01336683  0.012415962         2187 
 3596000   0.67550415   -8.3304821    576.48264  0.013359349  0.012410928         2278 
 3597000   0.67068324   -8.3250648    576.06237  0.013345899  0.012405894         2265 
 3598000   0.67339063   -8.3436933    576.40408  0.013350104  0.012400866         2297 
 3599000    0.6764518   -8.3306975    575.65816  0.013329123  0.012395843         2329 
 3600000   0.67788471   -8.3535916      575.373  0.013318819  0.012390813         2307 
 3601000   0.66217199   -8.3312129    575.98797  0.013329352  0.012385782         2316 
 3602000   0.66801851   -8.3348189     575.8763  0.013323068  0.012380757         2315 
 3603000   0.67235767   -8.2899844    576.44809  0.013332595  0.012375743         2253 
 3604000   0.68030358     -8.32665    576.59412  0.013332272  0.012370722         2288 
 3605000    0.6690813   -8.3409854    574.30282  0.013275608  0.012365702         2355 
 3606000   0.68509324    -8.338938    575.35604  0.013296266  0.012360682         2298 
 3607000   0.66070887   -8.3485135    575.77189  0.013302188  0.012355663         2406 
 3608000     0.666217    -8.323999    575.78038  0.013298697  0.012350644         2372 
 3609000   0.67894232   -8.3482845     576.6666  0.013315475  0.012345632         2339 
 3610000   0.68004981    -8.358774    575.38449  0.013282191  0.012340615         2363 
 3611000   0.66994389   -8.3275985    576.44991    0.0133031  0.012335604         2298 
 3612000   0.65927771   -8.3603248    575.17745  0.013270059  0.012330585         2356 
 3613000   0.68108646   -8.3445636    575.71879  0.013278872  0.012325576         2518 
 3614000   0.68609263   -8.3709578    574.65657  0.013250705  0.012320565         2448 
 3615000   0.66734793   -8.3177603    576.51451  0.013289869  0.012315559         2285 
 3616000   0.66400975   -8.3403724    576.31255  0.013281539  0.012310555         2372 
 3617000     0.665362    -8.345255    575.15483  0.013251194  0.012305546         2370 
 3618000   0.66319519   -8.3437754    575.46533  0.013254683  0.012300547         2377 
 3619000   0.69766928   -8.3401844    575.41341  0.013249825  0.012295555         2340 
 3620000   0.65878346   -8.3507438    575.20926  0.013241465  0.012290558         2319 
 3621000   0.65703565   -8.3301909    574.57713  0.013223261   0.01228556         2372 
 3622000   0.66704107   -8.3557803    574.95029  0.013228196  0.012280563         2416 
 3623000   0.68334323   -8.3465879    575.43387  0.013235667   0.01227557         2371 
 3624000   0.66266486   -8.3377272    576.31191  0.013252205  0.012270577         2332 
 3625000   0.68574501   -8.3523637    576.14903  0.013244805  0.012265594         2383 
 3626000   0.68269586      -8.3756    575.25925  0.013220703  0.012260616         2408 
 3627000   0.66998636    -8.332588    576.17939  0.013238199  0.012255636         2403 
 3628000   0.66446871   -8.3430374    574.95829  0.013206503  0.012250657         2432 
 3629000   0.67196911   -8.3363454    575.38917  0.013212758  0.012245677         2345 
 3630000   0.67445154   -8.3448086       574.96  0.013199265  0.012240699         2458 
 3631000   0.66695556   -8.3703974    574.81767  0.013192364  0.012235716         2490 
 3632000   0.67027711   -8.3563674    574.85265  0.013189534  0.012230745         2415 
 3633000   0.66562352   -8.3348665    576.02833  0.013212871  0.012225773         2377 
 3634000   0.68119818   -8.3769541    575.69322  0.013201551    0.0122208         2388 
 3635000   0.66921054   -8.3766736    574.87414  0.013179141  0.012215837         2409 
 3636000    0.6790016   -8.3416911      574.956  0.013177393  0.012210872         2343 
 3637000   0.65517057   -8.3642075    575.33577  0.013182471  0.012205913         2392 
 3638000   0.67650264   -8.3517705    575.06988  0.013172757  0.012200953         2369 
 3639000   0.66696042   -8.3718351    574.91997  0.013165704  0.012195996         2430 
 3640000   0.66687322   -8.3514611    575.37128  0.013172419   0.01219104         2394 
 3641000   0.66978159   -8.3667597    575.08165  0.013162173  0.012186089         2357 
 3642000   0.68690931   -8.3739881    574.38684  0.013142661  0.012181139         2425 
 3643000    0.6758569   -8.3643734    575.86876  0.013172952  0.012176195         2403 
 3644000   0.67607196   -8.3838558    575.00274  0.013149532  0.012171242         2419 
 3645000   0.65832319    -8.348781    575.44716  0.013156085  0.012166296         2362 
 3646000   0.68095327   -8.3345217    575.47856  0.013153194  0.012161352         2366 
 3647000   0.66848441   -8.3496899    574.69379  0.013131656  0.012156404         2365 
 3648000   0.67147444   -8.3758966    574.39611  0.013121256  0.012151465         2380 
 3649000   0.67073912   -8.3700921    575.68072  0.013146997  0.012146527         2519 
 3650000   0.66821602   -8.3729039    575.30611  0.013134843  0.012141592         2426 
 3651000   0.66061042   -8.3573358    575.13109   0.01312725  0.012136663         2326 
 3652000   0.65871611   -8.3664644    574.40276  0.013107036  0.012131723         2358 
 3653000   0.66778203   -8.3693603    573.79141  0.013089502  0.012126792         2398 
 3654000   0.66144799   -8.3833286    573.80474  0.013086224   0.01212186         2431 
 3655000   0.66853823   -8.3670567    573.67726  0.013079737  0.012116931         2491 
 3656000   0.65556018   -8.3672709     575.2348  0.013111661  0.012112008         2499 
 3657000   0.67276842   -8.3280683    574.37403  0.013088461  0.012107087         2502 
 3658000   0.66348523   -8.3727439    574.33779  0.013084058  0.012102175         2482 
 3659000   0.66263348    -8.374222    575.22685   0.01310073  0.012097259         2452 
 3660000    0.6511402   -8.3625306    575.17475  0.013095964  0.012092345         2500 
 3661000   0.67324402   -8.3581533    574.46454  0.013076221   0.01208743         2533 
 3662000     0.666195    -8.363803    575.44627  0.013094991  0.012082516         2511 
 3663000   0.67069924   -8.3566532    574.62733  0.013072785  0.012077604         2563 
 3664000   0.66610131   -8.3678575    573.65176  0.013047029  0.012072691         2498 
 3665000   0.66738334   -8.3781652    574.13412  0.013054437  0.012067781         2519 
 3666000   0.65054119   -8.3439449    575.39183  0.013079465  0.012062878         2439 
 3667000   0.67296801   -8.3704706    574.85239  0.013063639  0.012057979         2469 
 3668000   0.66581123   -8.3701611    574.38469  0.013049452  0.012053079         2448 
 3669000   0.66805097    -8.375117    574.56477  0.013049986  0.012048183         2552 
 3670000   0.66111704   -8.3906236    575.36803  0.013064669  0.012043281         2569 
 3671000   0.66446866   -8.3716489    574.78166  0.013047799  0.012038385         2490 
 3672000   0.65834176   -8.3615889    575.59365  0.013062674  0.012033489         2542 
 3673000   0.67206263   -8.3842977    574.49563  0.013034205  0.012028601         2486 
 3674000    0.6542152   -8.3682171    575.13052  0.013045058  0.012023705         2504 
 3675000   0.67147599   -8.3738319    575.19819  0.013043043  0.012018818         2507 
 3676000   0.65889214    -8.374361    574.69579  0.013028105  0.012013939         2472 
 3677000   0.66795797   -8.3896556    574.66317  0.013023823  0.012009051         2527 
 3678000   0.66576054   -8.3650161    574.76666  0.013022627  0.012004169         2524 
 3679000   0.63379224   -8.3953167    574.30455   0.01300862  0.011999283         2516 
 3680000   0.66203764   -8.3867475    574.61863  0.013012197  0.011994408         2513 
 3681000   0.65576675   -8.3502867    574.06818  0.012996201  0.011989528         2501 
 3682000   0.64976516   -8.3725003    575.15569  0.013017284  0.011984658         2462 
 3683000   0.66028901   -8.3859881     574.4009  0.012996672  0.011979786         2531 
 3684000   0.66787984   -8.3736775    573.77957  0.012979089  0.011974922         2466 
 3685000    0.6722691   -8.3667709    576.18524  0.013029969  0.011970063         2498 
 3686000   0.65155757   -8.3782508    574.87866  0.012996895  0.011965197         2508 
 3687000   0.66012637   -8.3808541     574.2064  0.012978176   0.01196033         2478 
 3688000   0.66547783   -8.3858388    574.49695  0.012981222  0.011955473         2535 
 3689000   0.66548856   -8.3913148    573.67291  0.012959088  0.011950621         2511 
 3690000   0.66761624   -8.3794424    574.40244  0.012972051  0.011945769         2554 
 3691000   0.66795096   -8.4012166    573.43573  0.012946711  0.011940914         2506 
 3692000   0.67351036   -8.3925225    574.33221  0.012963439   0.01193607         2521 
 3693000   0.65851225   -8.3967186    574.31178  0.012959468  0.011931226         2538 
 3694000   0.64899666   -8.3874772      574.881  0.012968801  0.011926384         2672 
 3695000   0.66423137   -8.3828946    574.29853  0.012952154  0.011921545         2596 
 3696000   0.65313754   -8.3710103    574.74355  0.012958684  0.011916702         2553 
 3697000   0.65575198    -8.378685    573.79765  0.012933857  0.011911867         2560 
 3698000   0.65578643   -8.3764481     573.7496  0.012929277   0.01190704         2540 
 3699000   0.66191602   -8.3695383     575.8931  0.012974072  0.011902215         2459 
 3700000   0.67034529   -8.3757373    574.77837  0.012945459  0.011897394         2535 
 3701000   0.65890539   -8.3644076    573.80862  0.012920126  0.011892574         2581 
 3702000   0.65578996   -8.3641481    574.95972  0.012942547  0.011887752         2536 
 3703000   0.66790269   -8.3701766    573.37857  0.012903469   0.01188293         2622 
 3704000   0.64936224   -8.3901378    574.56692  0.012926722  0.011878111         2621 
 3705000    0.6451252   -8.3435854    575.41029  0.012942202  0.011873296         2628 
 3706000     0.665465   -8.3973275    573.80407  0.012902592  0.011868475         2580 
 3707000   0.64115702   -8.3684873    574.07995  0.012905313  0.011863663         2526 
 3708000   0.66241446   -8.3969523    573.80156  0.012895576  0.011858854         2622 
 3709000   0.64806392   -8.3860026    574.34683   0.01290435  0.011854042         2586 
 3710000   0.64211231   -8.3733421    575.23108  0.012920734  0.011849234         2545 
 3711000   0.65714879   -8.3842154    575.00789   0.01291224  0.011844436         2593 
 3712000   0.65067786   -8.3885751    575.02327  0.012909107  0.011839624         2667 
 3713000   0.66618882   -8.3910615    574.36403  0.012890835  0.011834818         2651 
 3714000   0.65490025   -8.3677755    574.19929  0.012883667  0.011830017         2584 
 3715000   0.65674287   -8.3824582    574.16549  0.012879441  0.011825223         2545 
 3716000   0.66031753   -8.4121449    574.19132  0.012876555  0.011820427         2532 
 3717000   0.64527989    -8.406388     573.7312  0.012862775  0.011815625         2518 
 3718000   0.65770055   -8.3904124    574.70985   0.01288125  0.011810831         2559 
 3719000   0.65491747   -8.3868182    573.70295  0.012855224  0.011806037         2508 
 3720000   0.65644841    -8.370792    573.71866   0.01285212  0.011801242         2557 
 3721000   0.66081142   -8.3981462    574.53974  0.012867055  0.011796447         2561 
 3722000   0.65246262   -8.3701349    572.39975  0.012815685  0.011791661         2491 
 3723000   0.64808783   -8.3832367    573.94683  0.012846871  0.011786881         2563 
 3724000   0.66157003    -8.388321    573.76675  0.012839392  0.011782095         2649 
 3725000   0.66650179   -8.4287835    574.50469  0.012852454  0.011777316         2605 
 3726000   0.65818697   -8.3927478    573.69254   0.01283084  0.011772537         2578 
 3727000   0.65657862   -8.3903869    573.75845  0.012828871  0.011767756         2636 
 3728000    0.6415155   -8.3910346     573.2613  0.012814317  0.011762983         2577 
 3729000   0.64694191   -8.4032123    573.84713  0.012823973  0.011758218         2552 
 3730000   0.66932241   -8.4073153     573.6487  0.012816101  0.011753449         2531 
 3731000   0.66040506   -8.4026891    574.20055  0.012824992  0.011748683         2509 
 3732000    0.6578657   -8.3874119    575.23448  0.012844643  0.011743925         2496 
 3733000   0.64590965   -8.4111667    572.47429  0.012779585  0.011739161         2689 
 3734000   0.64921668   -8.3924004    573.25801  0.012793653  0.011734406         2534 
 3735000   0.67289114   -8.4090694    574.01157  0.012807041  0.011729655         2599 
 3736000   0.65338271   -8.4021927    573.56322  0.012793612  0.011724904         2569 
 3737000   0.66552468    -8.412188    574.49639  0.012810998  0.011720155         2624 
 3738000   0.63451852   -8.4170252    574.49626  0.012807568  0.011715407         2517 
 3739000   0.65865468   -8.3950003    574.41891  0.012802418  0.011710658         2505 
 3740000   0.64259814    -8.362489    573.82658  0.012785797  0.011705913         2494 
 3741000    0.6577955   -8.4029299    573.48653  0.012774805  0.011701172         2569 
 3742000   0.65668026   -8.3842992    574.06757   0.01278433  0.011696431         2569 
 3743000   0.64794321   -8.3975013    574.07659  0.012781116  0.011691693         2585 
 3744000    0.6366666   -8.3865325    573.31931  0.012760847  0.011686959         2622 
 3745000   0.66505344   -8.3982882    572.24586  0.012733553  0.011682224         2564 
 3746000   0.66304154   -8.3908136    573.27884  0.012753133  0.011677494         2616 
 3747000   0.64385228   -8.4185073    572.52248  0.012732908  0.011672763         2597 
 3748000   0.64374142   -8.3951655    573.19437   0.01274445  0.011668035         2593 
 3749000   0.65463543   -8.3866565    574.84218  0.012777678  0.011663319         2589 
 3750000   0.66144123   -8.4241751     573.7178  0.012749284  0.011658604         2580 
 3751000   0.64676294   -8.3839388    573.50462  0.012741149  0.011653897         2638 
 3752000   0.65342329   -8.3904334    573.55668   0.01273891  0.011649187         2483 
 3753000   0.65302783   -8.4146567    574.52584  0.012757035  0.011644483         2553 
 3754000   0.64664643   -8.3982764    573.79815  0.012737483  0.011639774         2539 
 3755000   0.65918581   -8.4019422    574.10084  0.012740809  0.011635066         2524 
 3756000   0.63925971   -8.4099629    573.51066  0.012724322  0.011630366         2591 
 3757000   0.64377653   -8.4078713    573.65172  0.012724064  0.011625662         2642 
 3758000   0.62810249   -8.4104971    574.46948  0.012738812   0.01162096         2557 
 3759000   0.65730393   -8.3930641    574.19839  0.012729414  0.011616262         2553 
 3760000   0.63745451   -8.4044297      573.398  0.012708289  0.011611573         2572 
 3761000   0.64424568   -8.3895795    574.41069  0.012727348  0.011606877         2598 
 3762000   0.64463651   -8.4027601    574.32281  0.012722019  0.011602197         2541 
 3763000   0.66000067   -8.4090092    574.93408  0.012732175  0.011597511         2521 
 3764000    0.6419951   -8.4299943     572.8547  0.012682755  0.011592824         2543 
 3765000   0.65754362   -8.4054796    573.43062  0.012692134  0.011588135         2660 
 3766000   0.65227183   -8.4146298    573.90421  0.012699243  0.011583451         2587 
 3767000   0.64782343   -8.4078333    574.09122  0.012700009  0.011578775         2590 
 3768000   0.67087101    -8.403067    574.77985  0.012711869  0.011574096         2657 
 3769000   0.65298534   -8.4185717    573.12862  0.012671987  0.011569421         2682 
 3770000   0.63616276   -8.4191715    573.16732  0.012669481  0.011564743         2658 
 3771000   0.65143573   -8.3941367    574.48272  0.012695189  0.011560072         2600 
 3772000   0.63604573   -8.4082296    573.81788  0.012677136  0.011555407         2628 
 3773000     0.622151   -8.4006966    573.55457   0.01266796  0.011550742         2604 
 3774000   0.65048453   -8.4247068    573.92917  0.012672875  0.011546077         2630 
 3775000   0.67130099   -8.4083653    573.66819  0.012663757  0.011541408         2594 
 3776000    0.6531769   -8.3970025     573.8869   0.01266523  0.011536746         2626 
 3777000   0.64562608   -8.4327506    572.62197  0.012633968  0.011532083         2634 
 3778000   0.62514881   -8.4057663     573.7397  0.012655278   0.01152742         2653 
 3779000   0.65117552   -8.4192373    574.04594  0.012658683  0.011522761         2664 
 3780000   0.63745175   -8.4304548    573.11541  0.012634819  0.011518104         2665 
 3781000   0.63508779   -8.4186433    573.14414  0.012632111  0.011513449         2615 
 3782000   0.63697248   -8.3916433    574.57422  0.012660282  0.011508804         2599 
 3783000    0.6340351   -8.4502103    573.90516  0.012642197  0.011504153         2665 
 3784000   0.65088877   -8.4082727    574.02732  0.012641546  0.011499504         2586 
 3785000   0.64302801   -8.4308867    573.11459  0.012618111  0.011494858         2598 
 3786000   0.64523693   -8.4135794    574.41485  0.012643398  0.011490211         2659 
 3787000   0.63703028   -8.4247406    574.29006  0.012637313  0.011485578         2626 
 3788000   0.64599724    -8.411867    573.07097  0.012607158  0.011480939         2669 
 3789000   0.64835817    -8.418768    573.50314  0.012613336  0.011476298         2570 
 3790000   0.67007871    -8.410707    573.06661  0.012600409  0.011471664         2648 
 3791000   0.65311657   -8.4196782    573.62179  0.012609289  0.011467033         2649 
 3792000   0.63930549   -8.3969467    572.78362  0.012587544  0.011462401         2619 
 3793000   0.63809876   -8.4247509    573.72284  0.012604861  0.011457777         2630 
 3794000   0.62500938   -8.4374634    572.93636  0.012584264  0.011453156         2645 
 3795000   0.65215716   -8.4095009    573.91483  0.012602434  0.011448535         2567 
 3796000   0.65359723   -8.4242616    573.22579  0.012583987  0.011443921         2580 
 3797000   0.65731806   -8.4091569    573.32449  0.012582839  0.011439301         2645 
 3798000    0.6518874   -8.4479276    573.26921  0.012578313  0.011434691         2580 
 3799000   0.63647676   -8.4065074    574.34991  0.012598708  0.011430078         2638 
 3800000   0.64614285   -8.4162219    573.83824  0.012584172  0.011425471         2647 
 3801000   0.65593237   -8.4030738    573.39801   0.01257121   0.01142087         2613 
 3802000   0.64500267   -8.3927369    572.74368  0.012553561  0.011416266         2620 
 3803000   0.64135839   -8.4166315    574.11982  0.012580415  0.011411672         2592 
 3804000   0.64743132   -8.4340467    573.46818  0.012562832  0.011407072         2630 
 3805000   0.64625094   -8.4199653    574.34843  0.012578809  0.011402475         2659 
 3806000   0.64504661   -8.4272703     573.0389  0.012546832  0.011397882         2757 
 3807000    0.6315728   -8.4139601     573.2316  0.012547754  0.011393285         2702 
 3808000   0.66031973   -8.4128343    572.90606  0.012537335  0.011388697         2605 
 3809000   0.63925995    -8.412819    573.74834  0.012552471  0.011384114         2609 
 3810000    0.6473157   -8.4069645    572.58845  0.012523807  0.011379533         2693 
 3811000   0.63629185   -8.4118697    573.04409  0.012530484  0.011374953         2646 
 3812000   0.64794075   -8.4290003    572.79491   0.01252175  0.011370378         2642 
 3813000   0.63529089   -8.4078032    573.57547  0.012535525  0.011365798         2635 
 3814000   0.63951481    -8.417844    573.09714  0.012521787  0.011361218         2625 
 3815000   0.64536365    -8.413538    573.27998  0.012522498  0.011356643         2635 
 3816000   0.64252432   -8.4309127    572.89321  0.012510771  0.011352068         2671 
 3817000   0.64961043   -8.4344786    572.99288  0.012509669  0.011347494         2703 
 3818000    0.6349005   -8.4095199    574.02412  0.012528901   0.01134292         2709 
 3819000   0.64250194   -8.4252865    573.62308  0.012516869  0.011338347         2652 
 3820000     0.639131   -8.4240028    573.61506  0.012513418  0.011333774         2714 
 3821000   0.63465459   -8.4294331    573.01645  0.012497087  0.011329205         2666 
 3822000   0.63612827   -8.4358893    571.67492  0.012464567  0.011324634         2681 
 3823000   0.63447833   -8.4363793    573.45985  0.012500215  0.011320068         2732 
 3824000   0.64925597   -8.4538424    572.69997  0.012480386  0.011315502         2692 
 3825000   0.64295292   -8.4150691    573.77507  0.012500546  0.011310942         2657 
 3826000    0.6410519   -8.4291299    571.85022  0.012455354  0.011306385         2718 
 3827000   0.63628978   -8.4262565    573.33931  0.012484525  0.011301827         2642 
 3828000    0.6514074    -8.420893    573.53674  0.012485561  0.011297276         2685 
 3829000   0.64499184   -8.4240499    572.82115  0.012466727  0.011292723         2682 
 3830000    0.6342986   -8.4160401     573.1364  0.012470331  0.011288173         2683 
 3831000   0.64556437   -8.4396497    572.94026  0.012462809  0.011283627         2704 
 3832000   0.63959334   -8.4515774    571.15944   0.01242083  0.011279083         2791 
 3833000   0.64958595   -8.4254897    572.59828  0.012448871  0.011274542         2705 
 3834000    0.6451846   -8.4090883    573.80583  0.012471871  0.011270006         2707 
 3835000   0.62942956   -8.4256256    572.90971  0.012449146  0.011265471         2709 
 3836000   0.64291354    -8.431747    572.81228  0.012443784  0.011260937         2795 
 3837000   0.63529738   -8.4216984    572.71204  0.012438364  0.011256401         2730 
 3838000   0.63361961   -8.4417214    572.10832  0.012422015  0.011251861         2742 
 3839000   0.62428505   -8.4275182    573.02893  0.012438763  0.011247326         2789 
 3840000   0.63503979   -8.4234937    573.00289  0.012434958  0.011242795         2784 
 3841000   0.63974826   -8.4479982    573.49492  0.012442396  0.011238272         2802 
 3842000    0.6323798   -8.4329993    572.59055  0.012419542  0.011233751         2769 
 3843000   0.63767196   -8.4394908    572.18768  0.012407574  0.011229224         2740 
 3844000   0.64258671   -8.4530309    571.74908  0.012394838  0.011224703         2804 
 3845000   0.62782892   -8.4217474     573.6625  0.012433084  0.011220182         2681 
 3846000   0.64306769   -8.4472938    572.59901  0.012406808  0.011215667         2748 
 3847000   0.63882274   -8.4311332    572.54571  0.012402428  0.011211153         2793 
 3848000   0.62678503   -8.4494527    572.14786  0.012390589  0.011206639         2800 
 3849000   0.62851298   -8.4373537    572.92938  0.012404291  0.011202126         2705 
 3850000   0.64966061   -8.4428737    573.02454  0.012403129  0.011197618         2765 
 3851000   0.64249793   -8.4337827    572.25076  0.012383164  0.011193107         2806 
 3852000    0.6390254   -8.4279567    572.99507  0.012396051  0.011188598         2774 
 3853000   0.63955432   -8.4526738    572.29205  0.012377629  0.011184096         2771 
 3854000   0.63195973   -8.4368237      573.072  0.012391282    0.0111796         2718 
 3855000   0.63009098   -8.4452357    572.71548  0.012380361    0.0111751         2814 
 3856000   0.62446883   -8.4399232    572.20476  0.012366113    0.0111706         2779 
 3857000   0.63121284   -8.4491877    571.30265  0.012343416  0.011166101         2813 
 3858000   0.63948024   -8.4591344    572.80135  0.012372588  0.011161604         2748 
 3859000   0.64753678   -8.4489787    572.21156  0.012356646  0.011157115         2762 
 3860000   0.64513343   -8.4405405    572.54134  0.012360564  0.011152625         2816 
 3861000   0.62870217   -8.4252924    573.49398  0.012377924  0.011148142         2791 
 3862000   0.64243084   -8.4320013    572.25511  0.012347987  0.011143663         2714 
 3863000   0.62214599   -8.4351935    572.84758  0.012357571  0.011139181         2740 
 3864000   0.63459997    -8.450348    572.12169  0.012338718  0.011134702         2842 
 3865000   0.64257115   -8.4432642    571.06674   0.01231278  0.011130222         2722 
 3866000    0.6352407   -8.4636441    572.86721  0.012348405  0.011125746         2753 
 3867000   0.64365663   -8.4450747     573.1978  0.012352336  0.011121273         2785 
 3868000   0.62642866   -8.4650392     571.4005  0.012310421  0.011116802         2799 
 3869000   0.63789062   -8.4483483    573.03047  0.012342347  0.011112335         2764 
 3870000   0.63080146   -8.4502219    572.13188  0.012319808  0.011107865         2824 
 3871000   0.64143789    -8.445027    571.60576  0.012305299  0.011103399         2791 
 3872000    0.6333835   -8.4539763    571.62937  0.012302629  0.011098929         2825 
 3873000   0.64240717   -8.4446247    571.93202  0.012305965  0.011094468         2885 
 3874000   0.63972249    -8.450664    571.90379  0.012302181  0.011090014         2802 
 3875000   0.63694395   -8.4598525    572.07341  0.012302654  0.011085555         2861 
 3876000   0.63556042   -8.4694751    571.49955  0.012287142  0.011081098         2896 
 3877000   0.64053863   -8.4462907    573.00869  0.012316411  0.011076641         2822 
 3878000   0.64095396   -8.4715178    571.58239  0.012282585  0.011072189         2790 
 3879000   0.64607614   -8.4514677    572.69229  0.012303263  0.011067739         2861 
 3880000   0.62545462   -8.4511437    571.66058  0.012277933  0.011063287         2796 
 3881000   0.62502203   -8.4464131    571.50828    0.0122715  0.011058842         2726 
 3882000    0.6374027   -8.4241774    571.82526  0.012275143  0.011054399         2839 
 3883000   0.62536324   -8.4415886     572.2354  0.012280784  0.011049956         2786 
 3884000   0.63976725   -8.4590433    572.03125  0.012273242  0.011045512         2800 
 3885000   0.62833428   -8.4514371    571.62973   0.01226147  0.011041074         2906 
 3886000   0.62930756   -8.4663886    573.01703  0.012288065  0.011036643         2884 
 3887000    0.6159027   -8.4577152    572.18623  0.012267092  0.011032208         2816 
 3888000   0.63221581   -8.4706607    571.45792  0.012248327  0.011027777         2810 
 3889000   0.62501791   -8.4701871    571.44725  0.012244948  0.011023344         2950 
 3890000   0.63317297   -8.4552897    571.43576  0.012241554  0.011018912         2830 
 3891000    0.6302279   -8.4687631    571.41697  0.012238006  0.011014482         2897 
 3892000    0.6206566   -8.4582416    570.87887   0.01222334  0.011010058         2859 
 3893000   0.62188273   -8.4693469    571.69784  0.012237731  0.011005636         2859 
 3894000   0.63682229    -8.454941    572.22168  0.012245799  0.011001218         2902 
 3895000   0.61986441   -8.4557703    572.91303  0.012257446  0.010996806         2823 
 3896000   0.62177783   -8.4219945    572.63003  0.012248247  0.010992392         2836 
 3897000   0.64061899   -8.4735271    573.17722  0.012256805  0.010987973         2846 
 3898000   0.64546476   -8.4622301    572.17904  0.012232321  0.010983557         2843 
 3899000   0.62246249   -8.4442609    571.90632  0.012223355  0.010979148         2857 
 3900000   0.63799128   -8.4727994    570.84735  0.012197593  0.010974737         2832 
 3901000    0.6255681   -8.4563123    572.17594  0.012222848  0.010970332         2802 
 3902000   0.63065452   -8.4865536    571.02063  0.012195042  0.010965927         2877 
 3903000   0.63101526   -8.4754122    571.06451  0.012192854  0.010961528         2848 
 3904000   0.62877812   -8.4637738    572.23644  0.012214746  0.010957129         2842 
 3905000   0.63874136   -8.4669564    572.38101  0.012214704  0.010952734         2857 
 3906000   0.62434248   -8.4662418    572.61937  0.012216662  0.010948344         2766 
 3907000   0.62214222   -8.4588121    572.24637  0.012205579  0.010943958         2816 
 3908000   0.62804399   -8.4734806    572.16195  0.012200656  0.010939573         2794 
 3909000   0.62417639   -8.4706384    572.38785   0.01220235  0.010935186         2858 
 3910000   0.62255856   -8.4355358    570.75254  0.012164376  0.010930803         2780 
 3911000   0.62804746   -8.4575105    572.00058  0.012187859  0.010926419         2843 
 3912000    0.6445101   -8.4620523    572.03143    0.0121854  0.010922044         2852 
 3913000    0.6178976    -8.475031    572.21094  0.012186109  0.010917668         2787 
 3914000   0.61944249   -8.4787673    571.50266  0.012167916  0.010913288         2902 
 3915000   0.63215078   -8.4710414    571.57501  0.012166348  0.010908909         2810 
 3916000   0.62881636   -8.4737553    571.84415  0.012168968  0.010904534         2852 
 3917000   0.63325259    -8.474266    572.23012  0.012174073  0.010900155         2849 
 3918000   0.62102178    -8.470988    571.73633  0.012160463  0.010895779         2801 
 3919000   0.61916322   -8.4384054    572.24475  0.012168171  0.010891412         2826 
 3920000   0.61304075   -8.4721955    570.98044   0.01213819  0.010887048         2913 
 3921000   0.63114213    -8.462395    571.53248  0.012146827  0.010882683         2858 
 3922000   0.61909864   -8.4772898    571.10081  0.012134557  0.010878318         2879 
 3923000   0.62462512   -8.4723804    571.25015  0.012134637  0.010873962         2765 
 3924000   0.63091167   -8.4758403    571.25782  0.012131707  0.010869611         2855 
 3925000   0.61375239   -8.4875326    572.78615  0.012161065  0.010865252         2883 
 3926000   0.61973065   -8.4772818    571.44463  0.012129492  0.010860898         2902 
 3927000   0.62741698   -8.4598097    572.28636  0.012144265  0.010856544         2840 
 3928000   0.61345496   -8.4669635    571.57308  0.012126041  0.010852192         2905 
 3929000   0.61191891   -8.4829755    571.30332  0.012117233  0.010847842         2864 
 3930000   0.62739243   -8.4860657    571.17062  0.012111336  0.010843494         2998 
 3931000   0.62536249   -8.4684094    571.32082  0.012111439  0.010839148         2928 
 3932000   0.62552897   -8.4778828    572.12162  0.012125331  0.010834796         2896 
 3933000   0.63035695   -8.4663366    571.69883   0.01211329  0.010830454         2844 
 3934000   0.62279244   -8.4772181    572.10968  0.012118914  0.010826117         2897 
 3935000   0.63021974    -8.461567    572.11492  0.012115945   0.01082178         2914 
 3936000   0.62216753   -8.4701608    572.02303  0.012110921   0.01081745         2881 
 3937000   0.62191571    -8.477325    571.22514  0.012090956  0.010813114         2785 
 3938000   0.61220701   -8.4845763    571.96559  0.012103555  0.010808792         2900 
 3939000   0.62379508   -8.4608605    571.78999  0.012096767  0.010804468         2847 
 3940000    0.6306744   -8.4495124    570.66041  0.012069806  0.010800148         2936 
 3941000     0.629377   -8.4717245    571.14271  0.012076941  0.010795833         2862 
 3942000   0.62118005   -8.4793532    571.38314   0.01207896  0.010791508         2905 
 3943000   0.61710759   -8.4804531    572.16155  0.012092348   0.01078719         2853 
 3944000   0.62600762   -8.4663872    571.94233   0.01208465  0.010782869         2918 
 3945000   0.61956126   -8.4890055    569.85525    0.0120375  0.010778549         2918 
 3946000   0.59850815   -8.4848499    570.84348  0.012055319  0.010774235         2953 
 3947000   0.60118718   -8.4804028    570.48966  0.012044795   0.01076992         2864 
 3948000   0.61347616    -8.496633    571.30883  0.012059035  0.010765607         2949 
 3949000   0.62934261   -8.4699153    571.02134  0.012049914  0.010761297         2908 
 3950000   0.61816637   -8.4689203    570.47058  0.012035244  0.010756992         2849 
 3951000   0.61369234   -8.4809928    571.51508  0.012054228   0.01075269         2886 
 3952000   0.62474663   -8.4863793    570.76233  0.012035306  0.010748387         2947 
 3953000   0.61171464   -8.4530971    571.54141  0.012048685  0.010744089         2916 
 3954000     0.619978   -8.4821381    571.84456  0.012052027  0.010739791         2965 
 3955000   0.61284251   -8.4828912    571.55708  0.012042922  0.010735496         2947 
 3956000   0.62272045   -8.4780509    571.42127  0.012037017  0.010731201         2959 
 3957000   0.61028611   -8.4895014    570.04217  0.012004931  0.010726907         2867 
 3958000   0.61594278   -8.4777407     571.7391  0.012037626  0.010722626         2863 
 3959000   0.61076612   -8.4930823    571.10669  0.012021274  0.010718334         2931 
 3960000   0.62997089   -8.4924961     571.1495  0.012019139  0.010714048         2957 
 3961000   0.62011404   -8.4953292    569.51776  0.011981776  0.010709764         2966 
 3962000   0.62952147   -8.4902525    570.43217  0.011997984  0.010705478         2875 
 3963000   0.62499444   -8.5022179    572.22721  0.012032703  0.010701201         2866 
 3964000   0.61561579   -8.4876416    571.09432  0.012005851  0.010696921         2896 
 3965000   0.60679837   -8.4801667    571.25742  0.012006251  0.010692648         2886 
 3966000    0.6063136    -8.516372    571.13998  0.012000756  0.010688366         2944 
 3967000   0.61978627   -8.4912154    571.63316  0.012008091  0.010684094         2860 
 3968000    0.6167192   -8.4726656    571.24466  0.011996906  0.010679822         2864 
 3969000   0.61933092   -8.4863254    570.57795  0.011979885  0.010675556         2879 
 3970000   0.62503799   -8.4854946    569.87858  0.011962187  0.010671292         2933 
 3971000   0.61800688   -8.5035002    570.25054   0.01196698  0.010667029         2969 
 3972000   0.61976498   -8.4833704    571.79839  0.011996441  0.010662767         2915 
 3973000   0.61786586    -8.464948    571.75349   0.01199248  0.010658512         2902 
 3974000   0.61324399   -8.4813979    571.26953  0.011979314  0.010654253         2913 
 3975000   0.61546823   -8.4949589    571.03913   0.01197147  0.010650007         2905 
 3976000   0.60300038   -8.4740622    572.28836  0.011994642  0.010645754         2962 
 3977000   0.60665421   -8.5006339    571.27098  0.011970308  0.010641503         2970 
 3978000    0.6248141   -8.4976401    570.39633  0.011948976  0.010637251         2941 
 3979000   0.62228527    -8.497774    570.49156  0.011947968  0.010633002         2964 
 3980000   0.61610851   -8.4981526    572.12982  0.011979268  0.010628759         2905 
 3981000   0.60818368   -8.5033882    570.42641  0.011940601   0.01062451         2939 
 3982000   0.61162178   -8.5018254    570.82383   0.01194592  0.010620263         2938 
 3983000   0.61816321   -8.4973092    570.39333  0.011933914  0.010616023         2897 
 3984000   0.59616738    -8.488721    571.08915  0.011945472  0.010611792         2861 
 3985000   0.61762878   -8.4914385    571.36921  0.011948331  0.010607558         2939 
 3986000   0.61506596   -8.5172884    570.49935  0.011927148  0.010603322         2904 
 3987000   0.62077277   -8.5090421     570.2068  0.011918042   0.01059909         2984 
 3988000   0.62414166   -8.4693134    571.06804   0.01193305  0.010594862         2942 
 3989000   0.60794953   -8.4786479    570.02265  0.011908219  0.010590638         3002 
 3990000   0.62227196   -8.5040055    570.72341  0.011919871  0.010586416         2967 
 3991000   0.61444168   -8.4886576    570.93356  0.011921272  0.010582187         2960 
 3992000   0.61603178    -8.513113    570.73947  0.011914234  0.010577963         2940 
 3993000    0.6078994   -8.4800343    570.84601  0.011913474  0.010573741         2935 
 3994000   0.59346503   -8.4669103    571.67932  0.011927878  0.010569528         2889 
 3995000   0.62302666   -8.5101286    570.57305  0.011901816  0.010565313         2860 
 3996000   0.61479345   -8.5085671    571.33157  0.011914656  0.010561101         2961 
 3997000   0.60560889   -8.4781839    571.52208  0.011915647  0.010556893         2939 
 3998000   0.60940222   -8.4948736    570.32626  0.011887741  0.010552684         2977 
 3999000   0.60985086   -8.4915593    570.36408  0.011885556  0.010548479         2923 
 4000000   0.61040149   -8.5002036    569.95274  0.011874015  0.010544273         2873 
 4001000    0.6086966   -8.5095637    570.42306  0.011880844  0.010540074         2937 
 4002000   0.60609413   -8.5130773    570.68245  0.011883276   0.01053587         2892 
 4003000   0.61508223   -8.4792456    570.22124  0.011870706  0.010531666         2951 
 4004000   0.63417209   -8.4781182    571.38761  0.011892017   0.01052747         2909 
 4005000   0.62327168   -8.4989188     570.8137  0.011877106  0.010523278         2948 
 4006000   0.62928029   -8.4931328    572.13526  0.011901632  0.010519084         2869 
 4007000   0.60562938   -8.4722726    571.50269  0.011885506  0.010514894         2913 
 4008000   0.60322523   -8.5052782    570.78366  0.011867591  0.010510709         2930 
 4009000   0.60655173   -8.4834965    570.69991   0.01186289  0.010506523         2873 
 4010000   0.60459965   -8.4978384    570.56957  0.011857223  0.010502335         2928 
 4011000   0.60306615    -8.488793    571.39515  0.011871419  0.010498153         2914 
 4012000   0.61063641    -8.511895    570.22394  0.011844133   0.01049397         2960 
 4013000   0.60786771    -8.504854    569.71354  0.011830583  0.010489789         2934 
 4014000   0.61649795   -8.4939966    570.61909  0.011846435  0.010485615         2974 
 4015000   0.61686537   -8.5126306     570.3741    0.0118384  0.010481441         2908 
 4016000   0.61887525   -8.5000876    570.90676  0.011846505  0.010477268         2849 
 4017000   0.60988662   -8.4941359    570.93041  0.011844046  0.010473099         2922 
 4018000   0.62393491   -8.4834619     571.8102  0.011859346  0.010468933         2934 
 4019000    0.6085005   -8.5052564    570.32481  0.011825595  0.010464771         2934 
 4020000   0.61646101   -8.5120205    571.20542  0.011840908  0.010460609         2875 
 4021000   0.61951187    -8.495332    572.13141  0.011857154  0.010456445         2917 
 4022000   0.61206422   -8.5036782    570.43378  0.011819032  0.010452289         2921 
 4023000   0.60094623   -8.5015826    571.62855  0.011840843   0.01044813         3021 
 4024000    0.6050823   -8.5129947    570.24897  0.011809331  0.010443975         2904 
 4025000   0.60044171   -8.5032898    571.57634  0.011833879  0.010439819         2904 
 4026000   0.60804258   -8.4916932    571.34594   0.01182617  0.010435671         2947 
 4027000   0.61543857   -8.4883837    569.68825   0.01178893  0.010431517         2889 
 4028000   0.60284933   -8.4918893    569.39736  0.011779985  0.010427369         2877 
 4029000   0.60296548   -8.4979136    570.12645  0.011792141  0.010423223         2892 
 4030000   0.61355612   -8.4867579    569.92412  0.011785031  0.010419084         2954 
 4031000   0.60473738   -8.4997003    570.20671   0.01178795  0.010414947         2955 
 4032000   0.60413312   -8.5073388    570.71038  0.011795436  0.010410812         2966 
 4033000   0.61282736   -8.4906174    570.64776  0.011791217  0.010406674         2937 
 4034000    0.6082504   -8.5178879    570.56569  0.011786599  0.010402542         2926 
 4035000   0.58837987   -8.4963724    570.67689  0.011785975  0.010398407         2888 
 4036000   0.62192647   -8.5016853    570.08062  0.011770743  0.010394275         2920 
 4037000   0.60852507   -8.4922314    570.52186  0.011776935  0.010390143         2999 
 4038000   0.60536435   -8.5011647    569.99911  0.011763231  0.010386016         2982 
 4039000   0.61161287   -8.5318323    569.28435  0.011745571  0.010381895         3038 
 4040000   0.61113013   -8.4911125    571.18638  0.011781897  0.010377771         2978 
 4041000   0.60646341   -8.5138285    570.13891  0.011757381  0.010373653         2950 
 4042000   0.59967418   -8.5244059    570.38326   0.01175951  0.010369535         2961 
 4043000   0.60586009   -8.5044693     570.3492  0.011755899   0.01036542         2937 
 4044000   0.61721939   -8.5078231    570.46512  0.011755381  0.010361306         3003 
 4045000   0.61244924   -8.5093594    569.72415   0.01173721   0.01035719         2952 
 4046000   0.60639258     -8.52293    569.83654  0.011736624   0.01035308         3036 
 4047000   0.60599576   -8.5166625    570.17658  0.011740725  0.010348972         3038 
 4048000   0.60197452   -8.5191368    569.54355  0.011724793  0.010344862         2972 
 4049000    0.6064587   -8.4998698    570.22509  0.011735924  0.010340758         2981 
 4050000   0.60295737   -8.5043995    570.79951  0.011744846  0.010336656         2971 
 4051000   0.60271932    -8.485402    570.17658  0.011729132  0.010332555         2944 
 4052000   0.59584771   -8.5016702    571.34199  0.011750206  0.010328456         2937 
 4053000   0.58751903   -8.5145194    569.45251  0.011708457   0.01032436         2941 
 4054000   0.59295412   -8.5214106    570.26567  0.011722284  0.010320258         2919 
 4055000   0.60476968   -8.5043868     570.9873  0.011734223  0.010316169         3012 
 4056000   0.59523984   -8.5171856    571.25167  0.011736762  0.010312074         2995 
 4057000   0.61329272   -8.5106298    570.88659   0.01172637  0.010307987         3033 
 4058000   0.59203065    -8.528801    570.38004  0.011713078  0.010303901         2989 
 4059000   0.60851536   -8.5170994    569.87159  0.011699753   0.01029982         2956 
 4060000    0.6024349    -8.521603    570.31983  0.011706072  0.010295735         2980 
 4061000   0.61784068   -8.4897153    570.68471  0.011710677   0.01029166         2951 
 4062000   0.61789026   -8.5263649    570.35117  0.011700951  0.010287583         2904 
 4063000   0.59950113   -8.5024341    570.53993  0.011701943  0.010283508         2980 
 4064000   0.59495261   -8.5233156    569.96012  0.011687174  0.010279437         3032 
 4065000   0.59253403    -8.522793    570.05435  0.011686231  0.010275371         2943 
 4066000   0.59555189   -8.4939929    569.66185  0.011675313  0.010271303         2941 
 4067000   0.60070652   -8.5006559    570.05237  0.011680444  0.010267234         2934 
 4068000   0.60264183   -8.4996629    569.80841  0.011672575  0.010263167         2962 
 4069000   0.60102711   -8.5165552    570.00845  0.011673803  0.010259101         3034 
 4070000    0.6163496   -8.5233217      569.311  0.011656654  0.010255038         2953 
 4071000   0.60332927   -8.5088495    570.02828  0.011668474  0.010250975         3045 
 4072000   0.59776111   -8.4990385    569.58588  0.011656555  0.010246918         3022 
 4073000   0.59580769   -8.5193988    569.33493  0.011648558  0.010242866         2953 
 4074000   0.60178351   -8.5146279    569.70178  0.011653203   0.01023881         2946 
 4075000   0.60373446   -8.4774922    569.99526  0.011656345  0.010234761         2940 
 4076000   0.59233441   -8.5191775    569.92749  0.011652099   0.01023072         2958 
 4077000   0.59212678   -8.4972981    569.57386  0.011642013  0.010226677         2958 
 4078000   0.60011965   -8.5082142    569.56475  0.011638972  0.010222636         2954 
 4079000   0.59910741   -8.5035495    569.41773  0.011633115   0.01021859         2976 
 4080000   0.60450247    -8.507038    570.34521  0.011649208   0.01021455         3018 
 4081000   0.60104833   -8.5030109    570.85346  0.011656732  0.010210507         3024 
 4082000   0.58462803   -8.4933575    569.11783  0.011618443   0.01020647         3038 
 4083000   0.58638702   -8.5248213    570.54607  0.011644748  0.010202432         2924 
 4084000    0.5911373   -8.5231628    569.03334   0.01161103  0.010198397         2978 
 4085000   0.58940239   -8.5096143    569.94594  0.011626804  0.010194365         2987 
 4086000   0.59159686   -8.4950002    569.97254  0.011624501  0.010190333         3025 
 4087000   0.61482623   -8.5086037    570.51196  0.011632656  0.010186305         2889 
 4088000   0.60512271    -8.521671    569.43664   0.01160789  0.010182277         2968 
 4089000   0.59545902   -8.5180256    569.88031  0.011614093  0.010178251         2948 
 4090000   0.57673714   -8.5280586    570.52976  0.011624486  0.010174219         3006 
 4091000   0.58921109   -8.5274016    570.13841  0.011613672  0.010170192         3021 
 4092000   0.60389157   -8.5287101    569.85038  0.011604969  0.010166164         2995 
 4093000   0.59220753   -8.5170249    569.61372  0.011597315  0.010162137         3015 
 4094000   0.58931698   -8.5243206    569.48698  0.011591902  0.010158119         2948 
 4095000   0.58124562   -8.5457626    570.44664  0.011608601  0.010154097         3047 
 4096000   0.59027238   -8.5352598    569.59103  0.011588359   0.01015007         2988 
 4097000   0.58948313    -8.524461    570.28212  0.011599587  0.010146052         2988 
 4098000   0.60531616   -8.5309952    570.74788  0.011606228  0.010142042         3034 
 4099000   0.58742342   -8.5545932    570.29883  0.011594267  0.010138026         3042 
 4100000   0.59434519   -8.5313787    569.11413   0.01156736  0.010134017         3015 
 4101000    0.5951755   -8.5414677    570.19048  0.011586411   0.01013001         3028 
 4102000   0.59236019    -8.530947    570.41151  0.011588077  0.010126004         3029 
 4103000   0.58735031   -8.4999499     569.9152  0.011575173     0.010122         3049 
 4104000   0.59857179   -8.5260891    569.78306  0.011569669  0.010118003         3018 
 4105000   0.59797621   -8.5338827    568.39653  0.011538703  0.010114003         3063 
 4106000   0.58954499    -8.534129    567.94257   0.01152668  0.010110003         3010 
 4107000   0.60300243   -8.5168138    569.95614   0.01156473  0.010106005         2962 
 4108000   0.60440339   -8.5087485    569.00485  0.011542617  0.010102006         2932 
 4109000   0.59855883   -8.5414243    569.84199  0.011556786  0.010098014         3012 
 4110000   0.59562111   -8.5285959      569.372  0.011544445  0.010094024         2974 
 4111000    0.5917843   -8.5322933    569.61901  0.011546643  0.010090036         3071 
 4112000   0.59563637   -8.5296874    570.69543   0.01156565  0.010086053         3054 
 4113000   0.59219985   -8.5453415    569.26785  0.011533914  0.010082067         3021 
 4114000   0.57395901   -8.5332902    569.42319  0.011534257  0.010078084         2980 
 4115000   0.58747713   -8.5399778    570.00854  0.011543308  0.010074103         3032 
 4116000   0.58243016   -8.5190172    569.24604  0.011525066  0.010070128         3091 
 4117000   0.59765256    -8.521448    569.90987  0.011535703  0.010066152         3070 
 4118000    0.5935477    -8.523099    568.65701  0.011507548   0.01006218         3100 
 4119000   0.59042952   -8.5346372    570.05701  0.011533079  0.010058208         3012 
 4120000   0.58774944   -8.5396407    570.25415  0.011534267  0.010054239         3072 
 4121000   0.59010165   -8.5088868    570.63682  0.011539206  0.010050269         3112 
 4122000   0.60167637   -8.5423266    569.05324  0.011504392  0.010046301         3101 
 4123000   0.59990711   -8.5408508    568.68186  0.011494095  0.010042334         3140 
 4124000   0.59932584   -8.5407069    569.44915  0.011506813  0.010038374         3123 
 4125000   0.59122111   -8.5560824    568.10231  0.011476814  0.010034411         3104 
 4126000   0.59427011   -8.5341161    569.69354  0.011506171  0.010030454         3097 
 4127000   0.57899263   -8.5261607    569.32124  0.011495866  0.010026499         3090 
 4128000   0.59653067   -8.5222723    569.55906  0.011497882  0.010022546         3047 
 4129000   0.59473147   -8.5434274     569.6746  0.011497429  0.010018594         3088 
 4130000   0.57818912   -8.5406679    570.16237  0.011504487  0.010014639         3031 
 4131000   0.58905047   -8.5427521    569.39441   0.01148621  0.010010694         3099 
 4132000   0.58613624   -8.5374263    569.70772  0.011489749  0.010006748         3043 
 4133000   0.60115805   -8.5387695    569.00277  0.011472755  0.010002803         3085 
 4134000   0.59831829   -8.5516024    569.62775  0.011482578 0.0099988587         3115 
 4135000   0.57764368    -8.545893    569.78023  0.011482874 0.0099949192         3013 
 4136000   0.58574129     -8.52978    569.71137  0.011478711 0.0099909777         3077 
 4137000   0.58749953   -8.5356414    568.59995  0.011453548 0.0099870363         3148 
 4138000   0.57756385   -8.5258102    569.48836  0.011468672 0.0099830982         3099 
 4139000   0.57948447   -8.5403064    568.95623  0.011455187 0.0099791654         3128 
 4140000   0.58347913   -8.5391978    569.32523  0.011459848 0.0099752332         3100 
 4141000   0.58276562   -8.5473365    569.11079  0.011452765 0.0099713029         3117 
 4142000   0.58677454   -8.5300742    569.35954  0.011455005 0.0099673749         3152 
 4143000   0.58840997   -8.5654758    568.40027  0.011432945 0.0099634487         3136 
 4144000   0.59304055   -8.5168799    568.82664   0.01143876 0.0099595259         3096 
 4145000   0.57698374   -8.5407971    570.37853    0.0114672 0.0099556023         3107 
 4146000   0.58016099   -8.5383259    569.61875  0.011449163 0.0099516835         3069 
 4147000   0.58861809   -8.5353469    569.98458  0.011453753 0.0099477668         3115 
 4148000    0.5895739   -8.5354714    569.80351  0.011447354 0.0099438477         3136 
 4149000   0.59552053   -8.5393581    568.67655   0.01142196 0.0099399357         3140 
 4150000   0.59783898   -8.5363831    568.48355  0.011415332 0.0099360226         3072 
 4151000   0.58928014   -8.5505076    567.77424  0.011398343 0.0099321091         3091 
 4152000   0.59327718   -8.5489254    569.52306  0.011430697 0.0099282002         3094 
 4153000   0.58110799   -8.5688621     568.2416  0.011402231 0.0099242869         3116 
 4154000   0.58567547   -8.5601763    568.95886  0.011413875 0.0099203785         3142 
 4155000    0.5821143   -8.5499659    569.32617  0.011418495 0.0099164736         3112 
 4156000   0.58598286   -8.5492499    569.41953   0.01141762 0.0099125742         3142 
 4157000   0.58244133   -8.5411822    568.63732  0.011399192 0.0099086733         3098 
 4158000    0.5902395   -8.5387186    568.75629  0.011398835 0.0099047701         3090 
 4159000   0.60070117   -8.5315274    568.64936  0.011393952 0.0099008759         3131 
 4160000   0.59035039   -8.5351083    570.04991  0.011419269 0.0098969828         3108 
 4161000   0.60531173   -8.5648912    568.72799   0.01139005 0.0098930909         3174 
 4162000   0.58657829   -8.5636786    568.33177   0.01137938 0.0098891922         3135 
 4163000   0.58781074   -8.5454149    568.96761  0.011389375 0.0098853014         3148 
 4164000   0.59671086   -8.5403316    568.56861  0.011378655  0.009881414         3129 
 4165000   0.59597574   -8.5626171    569.00012  0.011384556 0.0098775279         3124 
 4166000   0.57767273   -8.5337156    568.80034  0.011377827 0.0098736407         3085 
 4167000   0.58220544   -8.5642128    568.96261  0.011378342 0.0098697597         3088 
 4168000    0.5998001   -8.5307837    569.50082  0.011386373 0.0098658777         3063 
 4169000   0.59306566   -8.5358254    568.27256   0.01135909 0.0098619986         3088 
 4170000   0.57837402   -8.5515194    569.24677  0.011375835 0.0098581193         3066 
 4171000   0.58791555   -8.5491376    568.99435  0.011368064 0.0098542435         3042 
 4172000   0.58137932   -8.5429667    569.90541  0.011383537 0.0098503718         3020 
 4173000   0.58317411   -8.5507048    569.35998  0.011369917 0.0098465037         3105 
 4174000   0.58384193   -8.5416839    570.34156   0.01138679 0.0098426349         3071 
 4175000    0.5871419   -8.5309272     569.2015  0.011361307 0.0098387712         3067 
 4176000   0.59363052   -8.5544255    569.45723   0.01136369 0.0098349071         3094 
 4177000   0.58935707   -8.5261426    569.86267  0.011369058 0.0098310472         3126 
 4178000   0.57610882   -8.5621558    569.68655  0.011362824 0.0098271851         3110 
 4179000   0.58531265   -8.5562444    569.37524  0.011353897 0.0098233243         3088 
 4180000   0.58294295   -8.5515926    569.09249  0.011345544 0.0098194662         3137 
 4181000   0.57894679    -8.576959    568.84378  0.011337873 0.0098156088         3118 
 4182000    0.5787681    -8.552964     568.4865  0.011328043 0.0098117552         3113 
 4183000    0.5816139   -8.5388653    569.53777  0.011346278 0.0098079028         3072 
 4184000   0.58298054   -8.5618267    569.37664  0.011340357 0.0098040536         3095 
 4185000    0.5846242   -8.5692232    567.82492  0.011306749 0.0098002014         3109 
 4186000   0.58084213      -8.5314    568.65404  0.011320554 0.0097963519         3118 
 4187000   0.58255973   -8.5538976    569.67209  0.011338112  0.009792505         3062 
 4188000   0.58761223    -8.531885    569.13805  0.011324778 0.0097886634         3114 
 4189000   0.58076577   -8.5513943    568.96493  0.011318631  0.009784823         3161 
 4190000   0.57649848   -8.5512519    569.39759  0.011324534 0.0097809866         3160 
 4191000   0.58383153   -8.5558126    568.69659  0.011307894 0.0097771452         3105 
 4192000   0.57887999   -8.5666506    567.62439  0.011283882 0.0097733078         3169 
 4193000   0.58978354   -8.5536649    569.66027  0.011321653 0.0097694735         3119 
 4194000   0.57735132   -8.5548428    569.18051   0.01130942  0.009765641         3056 
 4195000   0.57584734   -8.5605361    568.60044  0.011295202 0.0097618115         3105 
 4196000   0.57264918    -8.543903    569.75812  0.011315501 0.0097579822         3153 
 4197000   0.57554944   -8.5600202     569.2939  0.011303588 0.0097541571         3099 
 4198000   0.56596325   -8.5686481    568.70721  0.011289249 0.0097503343         3057 
 4199000   0.58668893     -8.56068    568.48685  0.011282187 0.0097465102         3130 
 4200000   0.58656121   -8.5662499    568.38542  0.011277488 0.0097426898         3137 
 4201000   0.58322905   -8.5630775    568.51438  0.011277362 0.0097388695         3128 
 4202000   0.58136108   -8.5719663     568.1864  0.011268174  0.009735055         3090 
 4203000   0.57720093   -8.5642143     568.1684  0.011265136 0.0097312426         3114 
 4204000    0.5850407   -8.5699719    569.25898  0.011284074 0.0097274321         3135 
 4205000   0.58025644   -8.5691573    567.42659  0.011245077 0.0097236227         3150 
 4206000   0.57132076   -8.5678914     568.7371  0.011268369 0.0097198127         3119 
 4207000    0.5781612   -8.5565012    568.67814  0.011264522 0.0097160075         3156 
 4208000   0.58357967   -8.5708696    568.11284   0.01125065 0.0097121999         3136 
 4209000   0.57514217   -8.5663274     569.0531  0.011266593 0.0097083957         3199 
 4210000   0.57384706   -8.5600527    569.26845   0.01126818 0.0097045937         3135 
 4211000   0.58591161   -8.5484448    568.53407  0.011250971 0.0097007946         3104 
 4212000   0.57194933   -8.5547957    569.15063  0.011260498 0.0096970038         3132 
 4213000   0.57553886   -8.5712246    568.99582  0.011254763 0.0096932052         3111 
 4214000   0.58331083   -8.5797255    569.79411  0.011267879 0.0096894136         3126 
 4215000   0.56083691   -8.5712139     568.7061  0.011243695 0.0096856195         3058 
 4216000   0.59423675   -8.5660819    568.25153  0.011232043 0.0096818291         3163 
 4217000   0.58404653   -8.5727019    567.89511  0.011222336 0.0096780401         3169 
 4218000   0.59929482   -8.5575235    567.87831  0.011219344 0.0096742527         3094 
 4219000   0.56743696   -8.5649585    568.01794  0.011219443 0.0096704698         3128 
 4220000   0.58427431   -8.5555566    568.80848  0.011232395 0.0096666894         3097 
 4221000   0.57416211   -8.5821423    568.66604  0.011226922 0.0096629116         3125 
 4222000   0.57507678   -8.5461886    569.64866  0.011243658 0.0096591351         3112 
 4223000    0.5664456   -8.5549358    568.77805  0.011223815  0.009655359         3137 
 4224000   0.57578054   -8.5704278    568.91121  0.011223785 0.0096515827         3114 
 4225000   0.59358516    -8.560897    568.19153  0.011206934  0.009647814         3136 
 4226000   0.57917063   -8.5827613    568.99165  0.011220059 0.0096440469         3082 
 4227000   0.58707134    -8.565572    569.48287  0.011227089 0.0096402793         3140 
 4228000   0.58925467   -8.5606173    568.65015  0.011208021 0.0096365115         3132 
 4229000   0.58685365   -8.5648845    568.60882  0.011204556 0.0096327505         3130 
 4230000   0.56786055   -8.5800672    568.16043  0.011193074 0.0096289836         3114 
 4231000   0.56516495   -8.5676943    567.92861  0.011185862 0.0096252221         3105 
 4232000   0.58036588   -8.5869701    568.14082  0.011187398 0.0096214643         3185 
 4233000   0.57887864   -8.5630212    568.06381  0.011183239 0.0096177053         3149 
 4234000   0.57148684   -8.5687395    568.60863  0.011191321 0.0096139469         3140 
 4235000   0.56200582   -8.5849801    568.87989  0.011194016 0.0096101944         3052 
 4236000    0.5713424   -8.5700067    568.54341  0.011184754 0.0096064372         3138 
 4237000   0.58144089   -8.5691826    567.97843  0.011171002 0.0096026905         3102 
 4238000    0.5617076   -8.5538276    568.29516  0.011174594 0.0095989414         3147 
 4239000   0.58671752   -8.5742519    568.54333  0.011176837 0.0095951979         3126 
 4240000   0.57447681   -8.5635836    567.62634  0.011156178 0.0095914522         3168 
 4241000   0.56924684     -8.56113    568.44781  0.011169689  0.009587706         3148 
 4242000   0.57278194   -8.5765092     568.5619  0.011169297  0.009583966         3093 
 4243000   0.58351873   -8.5860323    568.30743  0.011161667 0.0095802234         3130 
 4244000   0.59157291   -8.5788678    568.00896  0.011153176 0.0095764854         3185 
 4245000    0.5716614   -8.5613721    568.56527   0.01116147 0.0095727544         3094 
 4246000   0.57925311   -8.5871397    567.96348   0.01114703 0.0095690258         3187 
 4247000   0.57939907   -8.5722647    568.31465  0.011151296  0.009565295         3200 
 4248000   0.56147051   -8.5792325    568.33169  0.011149005 0.0095615678         3156 
 4249000   0.56513927   -8.5830627    568.24049  0.011144593 0.0095578402         3155 
 4250000   0.56626695   -8.5672892    569.21548  0.011161088 0.0095541164         3177 
 4251000   0.56650894   -8.5730044    568.51011  0.011144635 0.0095503955         3127 
 4252000   0.56543699   -8.5676399    567.88487   0.01112976  0.009546678         3128 
 4253000   0.56641298   -8.5906847    568.35211  0.011136298 0.0095429585         3128 
 4254000   0.58548016   -8.5473706    569.18849  0.011150065 0.0095392383         3152 
 4255000   0.57511833   -8.5757202    567.68738  0.011118045 0.0095355257         3142 
 4256000     0.582155   -8.5808458    567.88564  0.011119315 0.0095318124         3078 
 4257000   0.58005317   -8.5620652    570.00142   0.01115812 0.0095281061         3084 
 4258000   0.56871078   -8.5683721    568.63235  0.011128706 0.0095243997         3162 
 4259000   0.57085897   -8.5805728    567.74864  0.011108802 0.0095206953         3137 
 4260000   0.56015887   -8.5681339    567.54293   0.01110217 0.0095169919         3095 
 4261000   0.57164274   -8.5629239    569.05267  0.011129091 0.0095132897         3150 
 4262000   0.57649511   -8.5658775    568.35249  0.011112789 0.0095095896         3118 
 4263000   0.56706131   -8.5833761     568.7289   0.01111754 0.0095058962         3129 
 4264000   0.57129336   -8.5787231    567.93655  0.011099448 0.0095022002         3105 
 4265000   0.55868979   -8.5788354    568.40353   0.01110597 0.0094985036         3210 
 4266000   0.57846216   -8.5809818    567.77266  0.011091043 0.0094948121         3177 
 4267000   0.56015177   -8.5585948    568.40898  0.011100871 0.0094911227         3114 
 4268000   0.57235937   -8.5867212    568.84749  0.011106832 0.0094874316         3238 
 4269000   0.57738551   -8.5750757    568.12846  0.011090194 0.0094837414         3101 
 4270000   0.56766591   -8.5850635    568.45624  0.011093994 0.0094800559         3130 
 4271000   0.57087768   -8.5874867    568.38286  0.011089965 0.0094763706         3198 
 4272000   0.56351316   -8.5863239    567.55687  0.011071256  0.009472687         3172 
 4273000   0.57054328   -8.5674673    568.00177  0.011077342 0.0094690033         3135 
 4274000    0.5669447   -8.5861469    568.59721   0.01108636 0.0094653213         3161 
 4275000    0.5613225   -8.5847145    569.04286  0.011092453 0.0094616453         3189 
 4276000   0.56473627   -8.5706675    569.29168  0.011094708 0.0094579681         3180 
 4277000   0.57576972   -8.5729183    568.68238  0.011080243 0.0094542935         3188 
 4278000   0.56617877   -8.5816688    567.79273  0.011060323 0.0094506225         3197 
 4279000   0.56837882   -8.5799963    568.54442  0.011072377 0.0094469501         3124 
 4280000    0.5635153   -8.5590978    567.25817  0.011044746 0.0094432822         3130 
 4281000   0.57043701   -8.5905801    567.72993  0.011051349  0.009439616         3179 
 4282000   0.56927875   -8.5775166    567.88148  0.011051718 0.0094359489         3169 
 4283000   0.55780972   -8.5815215    567.86421  0.011048802 0.0094322831         3166 
 4284000   0.56678292   -8.5845537    568.88728  0.011066124 0.0094286196         3188 
 4285000    0.5697622   -8.5856401    568.03501  0.011046966 0.0094249565         3135 
 4286000   0.56878826   -8.5746439     568.5534  0.011054468 0.0094213005         3169 
 4287000   0.57259131   -8.5817162    568.10673  0.011043207 0.0094176416         3099 
 4288000   0.58373138   -8.5740862    567.89385  0.011036494 0.0094139876         3088 
 4289000   0.58083914   -8.5842481    567.95038  0.011035019 0.0094103329         3128 
 4290000   0.56790407   -8.5689033    567.52081  0.011024103 0.0094066821         3170 
 4291000    0.5557801   -8.5761253    567.67261  0.011024482 0.0094030278         3180 
 4292000   0.57724803   -8.5848033    566.89042  0.011006726 0.0093993751         3140 
 4293000    0.5570406   -8.5880154    567.66807  0.011019258 0.0093957262         3244 
 4294000   0.55912801   -8.5887281    567.33282  0.011010185 0.0093920799         3134 
 4295000   0.56370663   -8.5817145     567.6841  0.011014437 0.0093884351         3150 
 4296000   0.57297979    -8.586627    568.12888  0.011020501 0.0093847942         3219 
 4297000   0.58121464   -8.5830831    567.41071  0.011004009 0.0093811533         3148 
 4298000    0.5687021   -8.5973504    567.90138  0.011010962 0.0093775141         3151 
 4299000   0.56998678   -8.5834684    567.55882   0.01100176 0.0093738782         3136 
 4300000   0.55882205   -8.5753358    567.04515  0.010989247 0.0093702448         3181 
 4301000   0.54911811   -8.5838499    567.36531  0.010992895 0.0093666092         3195 
 4302000   0.55355942   -8.5930847     567.7716   0.01099821 0.0093629724         3122 
 4303000   0.56448169   -8.5863262    567.91534  0.010998438 0.0093593433         3147 
 4304000   0.56781062   -8.5694818    568.04353  0.010998365 0.0093557144         3205 
 4305000    0.5683612   -8.5798679     568.1705  0.010998268 0.0093520883         3145 
 4306000   0.57115355   -8.5776689    567.29145  0.010978701 0.0093484654         3153 
 4307000   0.57036131   -8.5903112    568.46954  0.010998946  0.009344841         3162 
 4308000   0.56723424    -8.598407    568.29511  0.010993019 0.0093412196         3130 
 4309000    0.5719771   -8.5919268    568.92425  0.011002635 0.0093375985         3124 
 4310000   0.55037087   -8.5885075    568.18208  0.010985732 0.0093339799         3200 
 4311000   0.55674848   -8.5814583    568.55416  0.010990377 0.0093303625         3142 
 4312000    0.5686554   -8.5981219    567.67681  0.010970872 0.0093267506         3143 
 4313000   0.54962376   -8.5759173    567.84142  0.010971509  0.009323139         3199 
 4314000   0.56397757   -8.5943434    568.11565  0.010974263 0.0093195304         3142 
 4315000   0.54720168   -8.5957967    567.16531  0.010953366 0.0093159239         3154 
 4316000   0.55403408   -8.5958623    567.83032  0.010963669 0.0093123178         3127 
 4317000   0.57425572   -8.6009709    566.69318  0.010939178 0.0093087148         3203 
 4318000   0.55300343   -8.5760882    567.83508  0.010958682 0.0093051082         3183 
 4319000   0.57053256   -8.5673146    568.43418  0.010967704 0.0093015071         3141 
 4320000   0.55593938   -8.5981427    566.44246  0.010926745 0.0092979066         3138 
 4321000   0.57496794   -8.5964725     567.6716  0.010947921  0.009294307         3156 
 4322000   0.54965582   -8.5957095     568.3526  0.010958518  0.009290714         3165 
 4323000   0.56459491   -8.5923369    567.86064    0.0109465 0.0092871229         3168 
 4324000   0.56798274   -8.5748953    567.74648  0.010941768 0.0092835326         3092 
 4325000   0.57395779   -8.5818889    568.30203  0.010949943 0.0092799463         3078 
 4326000   0.56521567    -8.567865    567.72556  0.010936307   0.00927636         3158 
 4327000   0.56305198   -8.5919493    567.70362  0.010933357  0.009272775         3155 
 4328000   0.56594719   -8.5732152     567.4603  0.010926146 0.0092691909         3126 
 4329000   0.55197773   -8.5839938    568.17293   0.01093734 0.0092656066         3141 
 4330000   0.56299524   -8.6080907    566.68778  0.010906231 0.0092620269         3223 
 4331000   0.56295746   -8.5823635    567.72157  0.010923604 0.0092584455         3173 
 4332000   0.55746662     -8.59069    567.04576  0.010908082 0.0092548659         3112 
 4333000   0.55639601   -8.6039858    567.16573  0.010907872 0.0092512907         3147 
 4334000   0.55445586   -8.5898769    567.64721  0.010914613 0.0092477174         3186 
 4335000   0.54994721   -8.5825568     567.0834  0.010901257 0.0092441432         3211 
 4336000   0.56386349   -8.5956184    566.24881  0.010882703 0.0092405706         3204 
 4337000    0.5564668   -8.5970975    567.72784  0.010908613 0.0092370005         3139 
 4338000   0.55496501   -8.5927392    567.89701  0.010909348 0.0092334328         3203 
 4339000   0.55619561    -8.600558    567.35865  0.010896494 0.0092298643         3144 
 4340000   0.55741833   -8.5805694    568.25818  0.010911255    0.0092263         3182 
 4341000   0.56246983   -8.6123368    567.19235  0.010888281 0.0092227378         3190 
 4342000   0.55567641   -8.6179454    567.29446  0.010887733 0.0092191769         3143 
 4343000   0.55745221   -8.5841587    566.78271  0.010875407 0.0092156169         3181 
 4344000   0.54513466   -8.5875463    567.09985  0.010878987 0.0092120619         3185 
 4345000   0.56807737   -8.6133395    567.85082  0.010890886 0.0092085098         3151 
 4346000   0.54842898   -8.5930949    567.92968  0.010889893 0.0092049567         3092 
 4347000   0.55772005   -8.5965512    567.76614  0.010884252 0.0092014061         3170 
 4348000   0.54644667    -8.605225    567.48469  0.010876355  0.009197855         3179 
 4349000   0.54152909   -8.5795944    565.98519  0.010845121 0.0091943083         3166 
 4350000   0.55789711    -8.617551    566.93752  0.010860872 0.0091907644         3127 
 4351000   0.55121158    -8.603762    567.58827  0.010870839 0.0091872212         3141 
 4352000   0.56060099   -8.5844778    567.51898  0.010867015 0.0091836777         3249 
 4353000   0.55269802   -8.6135278     567.0247  0.010855056 0.0091801387         3150 
 4354000   0.55672573   -8.6036536    567.34461  0.010858686 0.0091765988         3119 
 4355000   0.56430489   -8.5778946    567.12664  0.010852021 0.0091730619         3118 
 4356000   0.55926418   -8.6090744    567.19039   0.01085075 0.0091695301         3148 
 4357000   0.55818053   -8.5982944    567.76131  0.010859179 0.0091659943         3213 
 4358000    0.5547888   -8.5906832    567.67547  0.010855046 0.0091624593         3138 
 4359000    0.5417969   -8.5998147    567.11048  0.010841754 0.0091589262         3155 
 4360000   0.55351656   -8.5967868    567.34062  0.010843666 0.0091553988         3199 
 4361000   0.56769632   -8.6086813    566.95065  0.010833728 0.0091518687         3205 
 4362000   0.55525168   -8.5977699    566.79708   0.01082831 0.0091483471         3184 
 4363000    0.5463993   -8.5941933    566.24333  0.010815252  0.009144826         3181 
 4364000   0.56188944   -8.6006765    566.98753  0.010826985 0.0091413054         3200 
 4365000   0.56515669   -8.6192811    568.06316  0.010845039   0.00913779         3186 
 4366000   0.55248601   -8.5955737    566.83311  0.010819078 0.0091342707         3148 
 4367000    0.5555777   -8.6240819    566.26445  0.010805749 0.0091307572         3168 
 4368000   0.55284232   -8.6006193    567.36419  0.010824256 0.0091272427         3181 
 4369000    0.5454722   -8.6003266    567.18839  0.010818425  0.009123731         3187 
 4370000   0.56117467   -8.5940268    567.48702  0.010821644 0.0091202204         3150 
 4371000   0.57223888   -8.6120511    566.81007  0.010806262 0.0091167142         3247 
 4372000   0.55377003   -8.6111705    567.23583  0.010811906 0.0091132074         3250 
 4373000   0.55211107   -8.6065471    567.85653  0.010821262 0.0091097035         3113 
 4374000   0.55068428    -8.607631    566.45493  0.010792084 0.0091062042         3205 
 4375000   0.55466526   -8.5783975    567.78663  0.010814983 0.0091027049         3193 
 4376000   0.54894597   -8.6215217    567.55066  0.010808018 0.0090992053         3171 
 4377000   0.55898435   -8.6191044    567.30951  0.010800958 0.0090957064         3235 
 4378000   0.55031864   -8.6049719    568.30962  0.010817527 0.0090922111         3203 
 4379000    0.5538224    -8.586058    567.55648  0.010800725 0.0090887187         3177 
 4380000   0.55601926   -8.6077535    566.64119  0.010780845 0.0090852279         3181 
 4381000   0.54484009   -8.6043805    567.23907  0.010789756 0.0090817373         3136 
 4382000   0.55592862   -8.5966145    567.90579  0.010799973 0.0090782474         3168 
 4383000     0.551182   -8.6118223    566.58152  0.010772331 0.0090747605         3205 
 4384000   0.55168364   -8.6213678    566.41184  0.010766648 0.0090712759         3122 
 4385000   0.55586365   -8.6114922    566.83541  0.010772243 0.0090677897         3205 
 4386000   0.54348018   -8.5866997    567.41335  0.010780767 0.0090643066         3213 
 4387000   0.57158488   -8.6109353    567.32339  0.010776601 0.0090608265         3238 
 4388000   0.55238312   -8.6003014    567.29768  0.010773657 0.0090573477         3189 
 4389000   0.55787929   -8.6043386    567.11239  0.010767684 0.0090538715         3132 
 4390000   0.55649078   -8.6019156    567.44708  0.010771585 0.0090503941         3211 
 4391000   0.54387468   -8.6174863     567.2028  0.010764496 0.0090469194         3185 
 4392000   0.55247416   -8.5936757    566.88026  0.010755925 0.0090434458         3179 
 4393000   0.55122566    -8.630756    566.67044  0.010749496 0.0090399724         3175 
 4394000   0.54669107   -8.6069561    567.75124  0.010767547 0.0090365057         3159 
 4395000   0.55309499   -8.6061145    567.49019  0.010760148 0.0090330379         3210 
 4396000    0.5469911   -8.6025722    567.67016  0.010761112 0.0090295717         3164 
 4397000   0.54188351   -8.6293437    567.81423  0.010761395 0.0090261098         3124 
 4398000   0.53799846   -8.6095562    566.94046  0.010742392 0.0090226477         3158 
 4399000   0.56344681   -8.6145921    566.58551  0.010733226 0.0090191857         3225 
 4400000   0.54833036   -8.6177163    566.83996  0.010735605  0.009015732         3178 
 4401000   0.55227646   -8.6003136    567.02915  0.010736748 0.0090122773         3171 
 4402000   0.55510467   -8.6117412    568.01057  0.010752888 0.0090088225         3209 
 4403000   0.54401123   -8.6324687    567.23956  0.010735854 0.0090053673         3165 
 4404000   0.54235014   -8.6037171    567.35903  0.010735677 0.0090019155         3182 
 4405000   0.54587597   -8.6294273    566.50947  0.010717167 0.0089984639         3072 
 4406000   0.53774306   -8.6130112    567.28347  0.010729374 0.0089950151         3196 
 4407000   0.55417328    -8.609669    566.70121  0.010715929 0.0089915693         3188 
 4408000   0.55302454   -8.6158523    566.46302  0.010708995 0.0089881244         3218 
 4409000   0.54576283   -8.6319882    566.08384    0.0106994 0.0089846803         3108 
 4410000   0.54043509   -8.6257236    567.00722  0.010714422 0.0089812403         3169 
 4411000   0.53574639   -8.6126873    567.20849  0.010715796 0.0089778014         3141 
 4412000   0.54820449   -8.6082659    566.39975  0.010698091 0.0089743634         3242 
 4413000   0.55825038   -8.6092486    567.47225   0.01071592 0.0089709277         3214 
 4414000   0.55654331   -8.6159865    565.73356  0.010680667 0.0089674925         3148 
 4415000   0.55226347   -8.6029705    568.08611  0.010722652 0.0089640595         3202 
 4416000   0.54047398   -8.5985554    567.10574  0.010701724 0.0089606259         3181 
 4417000   0.53980146    -8.601893    566.96975  0.010696735 0.0089571956         3137 
 4418000   0.54622985   -8.6013372    566.68262  0.010688898 0.0089537662         3164 
 4419000   0.54983474   -8.6166975    566.19639   0.01067731 0.0089503385         3124 
 4420000   0.54060079    -8.628444    566.90633  0.010688279 0.0089469137         3230 
 4421000    0.5380521   -8.6036319    566.57527  0.010679621 0.0089434922         3207 
 4422000   0.54204125   -8.6194507    566.31017   0.01067221 0.0089400708         3180 
 4423000   0.54911007   -8.6267208    566.81433  0.010679296 0.0089366531         3181 
 4424000   0.54584834   -8.6230917    566.51861  0.010671312 0.0089332374         3197 
 4425000   0.54625986   -8.5969956    566.40958  0.010666847 0.0089298212         3176 
 4426000   0.54021836   -8.6154536    567.29633  0.010681133 0.0089264069         3174 
 4427000   0.54210664   -8.6134972    567.08384   0.01067472 0.0089229936         3146 
 4428000   0.54406561   -8.6153166    567.18085  0.010674135 0.0089195806         3212 
 4429000   0.54335897   -8.6197615    566.85662  0.010665625 0.0089161685         3116 
 4430000   0.54190343   -8.6158353    567.37055  0.010672885 0.0089127628         3262 
 4431000   0.53477943   -8.6166191    567.34002  0.010669902 0.0089093563         3177 
 4432000   0.53602261   -8.6136889    567.10626  0.010663099 0.0089059497         3185 
 4433000   0.54693684    -8.620248    565.90534  0.010638118 0.0089025498         3173 
 4434000   0.54142603     -8.63717    568.25571  0.010679892  0.008899149         3234 
 4435000   0.53134227   -8.6198289    566.52613  0.010644986 0.0088957481         3184 
 4436000   0.53416441   -8.6276421    568.39031  0.010677606 0.0088923542         3211 
 4437000   0.55170177   -8.6138431    567.09629  0.010650896 0.0088889601         3221 
 4438000   0.53632056   -8.6207277     567.0273    0.0106472 0.0088855649         3205 
 4439000    0.5580848   -8.6415185    566.52147  0.010635306 0.0088821744         3201 
 4440000   0.53375447   -8.6418958    567.54605  0.010652141  0.008878781         3230 
 4441000   0.53277048   -8.6264989    567.00347  0.010639561 0.0088753942         3205 
 4442000   0.53766483    -8.626285    567.26681  0.010642106  0.008872007         3207 
 4443000   0.55166425   -8.6301065    566.55987  0.010626451 0.0088686202         3190 
 4444000   0.54170154   -8.6294782    566.77288  0.010628054 0.0088652386         3148 
 4445000   0.53477469    -8.643285    566.39321  0.010618545 0.0088618564         3185 
 4446000   0.54507726   -8.6369409    566.19576  0.010612456 0.0088584771         3239 
 4447000   0.53789039   -8.6245503    566.57129  0.010617107 0.0088550971         3199 
 4448000   0.54567463   -8.6171113     567.0697  0.010624058 0.0088517206         3198 
 4449000   0.54514866   -8.6256378    567.09901  0.010622219  0.008848349         3233 
 4450000   0.53609783   -8.6340062    566.60849  0.010610646 0.0088449749         3164 
 4451000   0.52741286   -8.6133106    567.11214  0.010617692 0.0088416075         3254 
 4452000   0.54181534   -8.6265597    566.14043  0.010597118 0.0088382382         3116 
 4453000    0.5482011   -8.6062424    567.09818  0.010612661 0.0088348732         3187 
 4454000   0.54028776   -8.6287294    566.58146  0.010600611 0.0088315079         3182 
 4455000   0.55039948   -8.6210923      566.944  0.010605013 0.0088281421         3206 
 4456000   0.54277443   -8.6263178    567.49376  0.010612914  0.008824777         3179 
 4457000   0.53419824   -8.6246096     566.8977  0.010599389  0.008821414         3218 
 4458000   0.53640146   -8.6277393    567.24119  0.010603432 0.0088180572         3158 
 4459000   0.53670771   -8.6166359    567.57407  0.010607275 0.0088147017         3219 
 4460000   0.53460963   -8.6231339    567.39446  0.010601541 0.0088113431         3212 
 4461000   0.52995662   -8.6517265    566.16894  0.010576271 0.0088079897         3236 
 4462000   0.54157493   -8.6206049    565.84176   0.01056779 0.0088046343         3277 
 4463000     0.541937   -8.6194488    566.69339  0.010581324 0.0088012815         3208 
 4464000   0.54467006   -8.6309267    565.82604  0.010562762 0.0087979327         3255 
 4465000   0.53352368   -8.6438237    565.45758   0.01055352 0.0087945837         3216 
 4466000   0.54635633   -8.6364042    565.96399  0.010560606 0.0087912368         3243 
 4467000   0.53999591   -8.6263439    566.50343  0.010568305 0.0087878938         3246 
 4468000   0.54165034    -8.640571    567.10389  0.010577139 0.0087845498         3234 
 4469000   0.54437584   -8.6512372    566.18455  0.010557629 0.0087812106         3251 
 4470000    0.5432037    -8.632869    567.12118  0.010572729 0.0087778698         3177 
 4471000   0.53801819   -8.6186156    566.07432  0.010550852 0.0087745345         3220 
 4472000   0.53989474   -8.6188061    565.93465   0.01054589 0.0087711985         3179 
 4473000   0.53856073   -8.6502083     565.2822  0.010531377 0.0087678604         3260 
 4474000   0.54405412   -8.6145843    566.58962  0.010553375 0.0087645278         3237 
 4475000   0.54395091   -8.6595322     565.8339  0.010536944 0.0087611955         3217 
 4476000   0.53000793   -8.6326545    566.26013  0.010542525 0.0087578667         3179 
 4477000   0.54093724   -8.6344425    566.44757   0.01054366 0.0087545401         3239 
 4478000   0.54566133   -8.6315284    567.45027  0.010559965 0.0087512151         3205 
 4479000   0.53376709   -8.6271489    567.02952  0.010549779 0.0087478911         3242 
 4480000   0.53032159   -8.6485188    566.09337  0.010530011 0.0087445696         3238 
 4481000   0.53339984   -8.6380178    566.27128  0.010530969 0.0087412478         3179 
 4482000     0.530228   -8.6363808    566.81105  0.010538656 0.0087379303         3170 
 4483000   0.53777484   -8.6342138     566.0797   0.01052271 0.0087346129         3222 
 4484000   0.53920631   -8.6306261    566.64273  0.010530827 0.0087312977         3185 
 4485000   0.53106282   -8.6470162    567.05906  0.010536214 0.0087279816         3200 
 4486000   0.52512325   -8.6387379    566.53513  0.010524133 0.0087246705         3223 
 4487000   0.53899874   -8.6409983    566.42551  0.010519752 0.0087213561         3193 
 4488000   0.53471841   -8.6311778     566.5709  0.010520107 0.0087180451         3222 
 4489000   0.54148797   -8.6289081    565.43625    0.0104967 0.0087147388         3223 
 4490000   0.54196588   -8.6352083     567.0306  0.010523953 0.0087114335         3195 
 4491000   0.53526296   -8.6291863    566.57392  0.010513136 0.0087081304         3181 
 4492000    0.5317035   -8.6203841    566.89768  0.010516802 0.0087048262         3193 
 4493000   0.53426701   -8.6314418    566.52413  0.010507533 0.0087015246         3210 
 4494000   0.53454191   -8.6416108    566.71146  0.010508668  0.008698225         3197 
 4495000   0.53760047    -8.636948    566.02867  0.010493672  0.008694926         3182 
 4496000   0.53274729   -8.6335249    566.11577  0.010492952 0.0086916308         3236 
 4497000   0.53992841   -8.6385365    567.17672   0.01051028 0.0086883359         3146 
 4498000    0.5379966   -8.6350236    565.94461  0.010485116  0.008685044         3170 
 4499000   0.52884327   -8.6358893    566.81629  0.010498931 0.0086817491         3226 
 4500000   0.52716181   -8.6373785    567.58149  0.010510768 0.0086784581         3229 
 4501000   0.53950546   -8.6297955     566.5043   0.01048849 0.0086751703         3204 
 4502000   0.53637805   -8.6261545    565.76086  0.010472398 0.0086718829         3198 
 4503000   0.52786682   -8.6417834    566.02437  0.010474949 0.0086685965         3234 
 4504000   0.52177958   -8.6390651    566.04532  0.010473011 0.0086653142         3240 
 4505000   0.52608154   -8.6410248    566.39432  0.010477142 0.0086620329         3225 
 4506000   0.52552616   -8.6499515    566.78586  0.010482058  0.008658753         3246 
 4507000    0.5292536   -8.6507165    565.85746  0.010462567 0.0086554762         3168 
 4508000   0.52553609   -8.6309416    565.92359  0.010461468 0.0086522005         3203 
 4509000   0.52066873   -8.6305187    565.56884  0.010452592 0.0086489262         3154 
 4510000   0.53600581   -8.6435817    566.23136  0.010462516 0.0086456511         3178 
 4511000   0.53772681   -8.6296748    566.58332  0.010466699 0.0086423808         3239 
 4512000   0.51665906   -8.6319715    567.34102  0.010478373 0.0086391095         3250 
 4513000   0.53008345   -8.6454251    565.87412  0.010448965 0.0086358415         3216 
 4514000    0.5261378   -8.6293941    565.41113  0.010438102 0.0086325754         3186 
 4515000   0.53269936   -8.6464846    566.19926  0.010450337  0.008629311         3180 
 4516000   0.53447201   -8.6336461    566.15898   0.01044728 0.0086260499         3221 
 4517000   0.53804144    -8.641705    566.11371  0.010444132 0.0086227886         3229 
 4518000   0.52904637   -8.6436239    566.30853  0.010445413 0.0086195313         3266 
 4519000   0.54191306   -8.6582014    566.23397  0.010441727 0.0086162714         3275 
 4520000   0.53248143   -8.6416337     565.4611  0.010425168 0.0086130133         3305 
 4521000   0.51745429    -8.653213    565.89922  0.010430937 0.0086097553         3210 
 4522000   0.52599328   -8.6520804    566.66695  0.010442779  0.008606497         3188 
 4523000   0.52224105   -8.6543172    566.14569  0.010430866 0.0086032458         3253 
 4524000   0.53598885   -8.6226207    566.78264  0.010440293 0.0085999916         3240 
 4525000    0.5268191   -8.6459407    566.22264  0.010427673 0.0085967403         3271 
 4526000    0.5209918   -8.6328499    566.50456   0.01043056 0.0085934935         3222 
 4527000   0.51759205   -8.6417194    565.53733  0.010410451 0.0085902487         3194 
 4528000     0.535914   -8.6487863      565.688  0.010410925 0.0085870023         3199 
 4529000   0.52620798   -8.6262866    565.87132  0.010411999 0.0085837578         3180 
 4530000    0.5263115   -8.6420664    565.72785  0.010407061 0.0085805142         3262 
 4531000   0.51086448   -8.6462985    566.39975  0.010417122 0.0085772725         3263 
 4532000   0.52652836   -8.6453795    566.47004  0.010416116 0.0085740351         3258 
 4533000   0.52475277   -8.6395866    567.25099  0.010428175 0.0085707963         3253 
 4534000   0.52320764    -8.641894    565.66979  0.010396813 0.0085675603         3224 
 4535000   0.52283494   -8.6458495    566.80558  0.010415391 0.0085643277         3227 
 4536000   0.54340234   -8.6628993    565.62759  0.010391453 0.0085610905         3234 
 4537000   0.52265283   -8.6517618    566.19135  0.010399518  0.008557861         3227 
 4538000   0.52374086   -8.6513278    567.56146  0.010422386 0.0085546311         3234 
 4539000   0.52956239   -8.6600102    566.13164  0.010393839 0.0085514012         3284 
 4540000    0.5211237   -8.6661228    566.33168  0.010395222 0.0085481764         3250 
 4541000   0.52373407   -8.6452656    566.07761   0.01038827  0.008544949         3286 
 4542000   0.52546157    -8.643254    566.26189  0.010389364 0.0085417254         3233 
 4543000    0.5345789    -8.654223    565.10997  0.010365947  0.008538504         3265 
 4544000   0.51936014    -8.657156    565.63406  0.010373277 0.0085352808         3238 
 4545000   0.52969479   -8.6395386    566.73935   0.01039126 0.0085320631         3194 
 4546000   0.52848878   -8.6542799    566.87648  0.010391488 0.0085288446         3244 
 4547000   0.53979492   -8.6473824    564.92916  0.010353514 0.0085256283         3240 
 4548000   0.52301071   -8.6487323    565.86501  0.010368386 0.0085224144         3227 
 4549000   0.53158563   -8.6547299    565.50871  0.010359579  0.008519203         3195 
 4550000   0.52110221   -8.6428779      565.547  0.010358004 0.0085159925         3262 
 4551000   0.53136248   -8.6500023    565.67286  0.010358032 0.0085127823         3266 
 4552000   0.52543246   -8.6491449    566.31966  0.010367598 0.0085095715         3165 
 4553000   0.52375403   -8.6434329    565.25773  0.010345884 0.0085063694         3210 
 4554000   0.52159594    -8.667589    566.07078   0.01035849 0.0085031637         3202 
 4555000   0.52712094   -8.6285373    566.31534   0.01036069 0.0084999615         3281 
 4556000   0.52596156   -8.6464046      566.426   0.01036044 0.0084967654         3258 
 4557000   0.52737328   -8.6529225    565.99011  0.010350196 0.0084935688         3197 
 4558000   0.53788664   -8.6486341    565.92066  0.010346655 0.0084903714         3245 
 4559000    0.5281624   -8.6549096     565.3246   0.01033349 0.0084871734         3260 
 4560000    0.5187489    -8.645697    565.82181  0.010340311 0.0084839794         3250 
 4561000   0.52815147   -8.6622719    564.94547  0.010322032 0.0084807869         3294 
 4562000   0.51025766   -8.6494576    565.53198  0.010330483 0.0084775959         3294 
 4563000   0.51498034    -8.652224    566.35531  0.010343256 0.0084744059         3268 
 4564000   0.50527395   -8.6574198    566.47029  0.010343089 0.0084712178         3236 
 4565000   0.52492953   -8.6430861    566.44544   0.01034037 0.0084680305         3255 
 4566000   0.51474667   -8.6476107    565.88868  0.010327943  0.008464844         3263 
 4567000   0.51999763   -8.6423755    566.26317  0.010332515 0.0084616631         3211 
 4568000   0.52028717   -8.6591346    565.16605  0.010310239  0.008458484         3236 
 4569000   0.50779037   -8.6473777    566.32831  0.010329181 0.0084553083         3243 
 4570000   0.52391611   -8.6601113     565.3156  0.010308454 0.0084521324         3239 
 4571000   0.51717997   -8.6603925    565.23065   0.01030465  0.008448957         3215 
 4572000   0.51103383   -8.6676165    565.21747  0.010302156 0.0084457838         3204 
 4573000   0.51014866   -8.6626192    565.83051  0.010311074 0.0084426102         3209 
 4574000   0.51526075   -8.6613361    566.35562  0.010318387 0.0084394372         3288 
 4575000   0.52358145   -8.6464417     565.9353  0.010308475 0.0084362666         3180 
 4576000     0.521333   -8.6637525    565.45941  0.010297556 0.0084330963         3221 
 4577000    0.5237412   -8.6501048    565.74497  0.010300506 0.0084299303         3247 
 4578000   0.51927836   -8.6497752    565.99997  0.010302897 0.0084267652         3217 
 4579000   0.52483791   -8.6509049    566.46602  0.010309129 0.0084236004         3259 
 4580000    0.5189209   -8.6661139    565.62423  0.010291562 0.0084204375         3242 
 4581000   0.51320337   -8.6537977    564.88521  0.010275872 0.0084172772         3187 
 4582000   0.52041019   -8.6593883    565.52205  0.010285211 0.0084141202         3275 
 4583000   0.51736713   -8.6564634    565.35214  0.010279878 0.0084109624         3204 
 4584000   0.53259193   -8.6551051      566.014  0.010289667 0.0084078094         3239 
 4585000   0.51703837   -8.6546514    566.15616  0.010290007 0.0084046585         3230 
 4586000    0.5255631   -8.6581233    565.89465  0.010283011 0.0084015056         3218 
 4587000   0.51379826   -8.6605185    565.93172  0.010281442 0.0083983523         3247 
 4588000   0.51396138   -8.6479477    566.37599  0.010287271 0.0083952024         3238 
 4589000   0.52329971   -8.6643361    564.96283  0.010259367 0.0083920552         3218 
 4590000   0.51811698   -8.6399617    566.39649  0.010283161 0.0083889087         3207 
 4591000   0.52309637   -8.6530466     566.0287  0.010274245 0.0083857642         3229 
 4592000   0.51948622    -8.645978    565.61902  0.010264573 0.0083826215         3197 
 4593000   0.51202161   -8.6691215    564.46332   0.01024137 0.0083794799         3277 
 4594000   0.50578364   -8.6491216    566.43795  0.010274959 0.0083763394         3215 
 4595000   0.50375285   -8.6632217    566.23621  0.010269064 0.0083731986         3253 
 4596000   0.52779569   -8.6595914    566.04736  0.010263406 0.0083700596         3297 
 4597000   0.51494587   -8.6644628    565.62367  0.010253493 0.0083669216         3247 
 4598000   0.52108518   -8.6765995    565.27494  0.010244942 0.0083637877         3257 
 4599000   0.51248396   -8.6545424    565.66499  0.010249782 0.0083606528         3271 
 4600000   0.52868066   -8.6711066    565.77829  0.010249607 0.0083575192         3280 
 4601000    0.5045541   -8.6609716    565.44077  0.010241266  0.008354389         3191 
 4602000   0.50494831   -8.6720062    565.22112  0.010235063 0.0083512597         3230 
 4603000   0.52146504   -8.6566972     565.3006  0.010234278 0.0083481321         3259 
 4604000   0.50506253   -8.6572046    565.32986  0.010232585 0.0083450068         3225 
 4605000   0.50958817     -8.67158    565.80525  0.010238966 0.0083418834         3208 
 4606000   0.50832646   -8.6866027    565.52519  0.010231676 0.0083387585         3281 
 4607000   0.50481037   -8.6671426    565.22376  0.010224003 0.0083356368         3199 
 4608000   0.50674268   -8.6545472    565.65186  0.010229526 0.0083325183         3243 
 4609000   0.51641696   -8.6607736    565.71717  0.010228487 0.0083294008         3256 
 4610000   0.52294923   -8.6462033    565.06567  0.010214492 0.0083262849         3306 
 4611000   0.51561698   -8.6753974     565.6059   0.01022204 0.0083231726         3270 
 4612000   0.52280131   -8.6628892    565.72591  0.010221992 0.0083200619         3215 
 4613000   0.52445841   -8.6799476    565.29278  0.010211951 0.0083169531         3270 
 4614000   0.49883094   -8.6526123    565.30667  0.010209989 0.0083138444         3224 
 4615000   0.51495161   -8.6605497    565.52847  0.010211782 0.0083107353         3263 
 4616000   0.51515455   -8.6683622    564.66941  0.010194061  0.008307628         3292 
 4617000   0.51354754   -8.6642857    566.05477  0.010216857  0.008304526         3259 
 4618000   0.51725305    -8.663855    566.05355  0.010214623 0.0083014213         3245 
 4619000   0.52125586   -8.6576628    565.74891  0.010206915 0.0082983206         3244 
 4620000   0.50072621   -8.6709841    566.12685  0.010211523 0.0082952216         3183 
 4621000   0.51707403   -8.6586541    565.39409  0.010196099  0.008292122         3252 
 4622000   0.51866998   -8.6716623    565.54926  0.010196691 0.0082890238         3229 
 4623000   0.50021943   -8.6596533    565.11333  0.010186627 0.0082859284         3224 
 4624000   0.50751485   -8.6878632    565.81191  0.010197014 0.0082828342         3176 
 4625000   0.50657742   -8.6762039    565.31312  0.010185822 0.0082797395         3225 
 4626000    0.5024827   -8.6741817     565.3343  0.010184002 0.0082766506         3240 
 4627000   0.52038609   -8.6475726    565.44952  0.010183876 0.0082735627         3195 
 4628000    0.5143177   -8.6686776    565.71645  0.010186482 0.0082704738         3229 
 4629000   0.50562422   -8.6784571     565.5301  0.010180926 0.0082673849         3242 
 4630000   0.51003232   -8.6616492    565.94856  0.010186259 0.0082642971         3209 
 4631000   0.49848721   -8.6658962    565.83755  0.010182062 0.0082612126         3250 
 4632000   0.51754324   -8.6694156    565.97895  0.010182408 0.0082581342         3217 
 4633000   0.50803609   -8.6723251    565.91955  0.010179141 0.0082550556         3214 
 4634000   0.49891052   -8.6657449      565.167  0.010163412 0.0082519797         3229 
 4635000   0.50293255   -8.6706174    565.80039  0.010172607 0.0082489029         3222 
 4636000   0.50985756   -8.6720777    564.74084  0.010151367  0.008245829         3248 
 4637000   0.50773506   -8.6755477    564.50927  0.010145016 0.0082427561         3215 
 4638000   0.50974927   -8.6895652     564.9454  0.010150665 0.0082396804         3258 
 4639000   0.51398991   -8.6603597    566.12923  0.010169743 0.0082366094         3216 
 4640000    0.5130895   -8.6735865    565.11607  0.010149355 0.0082335404         3248 
 4641000   0.51568909   -8.6600905    565.06068  0.010146173 0.0082304703         3254 
 4642000   0.51188694   -8.6548089    565.26258  0.010147612 0.0082274046         3235 
 4643000   0.50526363    -8.655277    565.17094  0.010143782 0.0082243391         3264 
 4644000    0.5033689   -8.6575156    565.77087  0.010152363 0.0082212755         3258 
 4645000   0.51116619   -8.6770528    565.00839  0.010136498 0.0082182134         3254 
 4646000    0.5121663   -8.6697836    566.62311  0.010163279 0.0082151555         3254 
 4647000   0.51193519   -8.6682011    565.12126  0.010134159 0.0082120943         3188 
 4648000    0.5011122   -8.6741511    564.99918   0.01012979 0.0082090347         3236 
 4649000   0.50185835    -8.688709    565.35321  0.010133957 0.0082059782         3241 
 4650000   0.51266163   -8.6853398    565.32717  0.010131311 0.0082029226         3225 
 4651000   0.51522881   -8.6696403     564.8742  0.010121017 0.0081998707         3213 
 4652000   0.49920903   -8.6857133    565.24238  0.010125437   0.00819682         3238 
 4653000   0.51483032   -8.6738246    566.11921  0.010138964 0.0081937694         3188 
 4654000   0.50480807   -8.6590162    565.40393  0.010123978 0.0081907216         3265 
 4655000   0.50911851    -8.679838    565.87807  0.010130291 0.0081876754         3269 
 4656000   0.49174883   -8.6838966    566.08308  0.010131785 0.0081846288         3260 
 4657000   0.51097695   -8.6855779    565.55983  0.010120246 0.0081815839         3293 
 4658000   0.50182764   -8.6811765    565.12007  0.010110206 0.0081785391         3298 
 4659000   0.50686104   -8.6555547    565.47966  0.010114468 0.0081754969         3241 
 4660000   0.50375314   -8.6654479    565.27943  0.010108717 0.0081724556         3223 
 4661000   0.50303197   -8.6808773    564.51779   0.01009293 0.0081694163         3250 
 4662000   0.50288698   -8.6657878    564.62242  0.010092636  0.008166379         3228 
 4663000   0.50475395   -8.6889813      564.736  0.010092501 0.0081633434         3248 
 4664000   0.50903501   -8.6814744     565.3415  0.010101156 0.0081603104         3288 
 4665000   0.49797472   -8.6892276    564.44713  0.010083014 0.0081572762         3278 
 4666000   0.51579942   -8.6708872     564.3207  0.010078595 0.0081542423         3245 
 4667000   0.49867943   -8.6642467    564.60978  0.010081597  0.008151212         3173 
 4668000   0.50780887   -8.6743246    564.91395  0.010084868  0.008148184         3190 
 4669000   0.49611241   -8.6714943    566.01526  0.010102364 0.0081451562         3212 
 4670000   0.50353349   -8.6781629    564.89548  0.010080219 0.0081421326         3266 
 4671000   0.49849628   -8.6813374    565.68698  0.010092182 0.0081391083         3184 
 4672000   0.51075734   -8.6897889    565.23734  0.010082002 0.0081360851         3236 
 4673000   0.50922158   -8.6877118    565.15868  0.010078441 0.0081330638         3228 
 4674000   0.49435666     -8.67076    565.97381  0.010090818 0.0081300443         3239 
 4675000   0.50549392   -8.6799558      565.522  0.010080606 0.0081270273         3161 
 4676000   0.50892529   -8.6856779    565.54001  0.010078771 0.0081240114         3285 
 4677000   0.50150797   -8.6669712    565.26849  0.010071778 0.0081209974         3266 
 4678000   0.50889449   -8.6955771    565.98948  0.010082469 0.0081179872         3209 
 4679000   0.49867783   -8.6809724    566.14021  0.010082999 0.0081149769         3250 
 4680000   0.49066583   -8.6770579    565.54829  0.010070304 0.0081119663         3289 
 4681000   0.49737051   -8.6917091     564.2357  0.010044786 0.0081089564         3258 
 4682000   0.49929512    -8.669929    565.67074  0.010068182 0.0081059482         3256 
 4683000   0.49758928   -8.6657181    565.22268  0.010058059 0.0081029425         3262 
 4684000   0.49686018   -8.6789565    565.22626  0.010055975 0.0080999392         3238 
 4685000   0.48705379   -8.6779429    564.76213  0.010045573 0.0080969345         3212 
 4686000   0.51093875   -8.6688127    565.25561  0.010052205 0.0080939317         3334 
 4687000   0.50678352   -8.6973271     564.4256  0.010035303 0.0080909294         3275 
 4688000   0.50816391   -8.6864088    565.31731  0.010049014 0.0080879289         3275 
 4689000   0.50681602   -8.6932749    565.33983  0.010047271 0.0080849331         3249 
 4690000   0.50406203   -8.6918048    565.52367  0.010048395 0.0080819364         3257 
 4691000   0.50392055   -8.6876247    564.09225  0.010020824 0.0080789421         3278 
 4692000   0.49968819   -8.6912602    564.73764  0.010030151 0.0080759498         3285 
 4693000   0.50486487   -8.6847524    564.26671  0.010019652 0.0080729573         3279 
 4694000   0.50457021   -8.6890934    565.13533  0.010032938 0.0080699663         3256 
 4695000   0.50144625   -8.6708527    565.10118  0.010030195 0.0080669799         3226 
 4696000   0.50960029   -8.6886843    565.07723  0.010027634 0.0080639915         3236 
 4697000   0.49277202   -8.6880217    565.51054  0.010033187 0.0080610031         3232 
 4698000   0.50566447   -8.6869742    565.83096  0.010036735 0.0080580186         3234 
 4699000   0.49722525   -8.6771928    565.01401  0.010020111 0.0080550373         3207 
 4700000   0.49854864   -8.6922515    564.55658  0.010009868 0.0080520541         3247 
 4701000   0.49570972   -8.6766864    565.79944  0.010029771 0.0080490757         3262 
 4702000    0.5048057   -8.6930426    565.28526  0.010018525 0.0080460965         3213 
 4703000   0.49639786   -8.6832741    564.82402  0.010008222 0.0080431144         3277 
 4704000    0.4976244   -8.6798817      564.977  0.010008805 0.0080401365         3152 
 4705000   0.50403984   -8.7013848    564.27496  0.009994243 0.0080371607         3226 
 4706000   0.50011076    -8.694067    563.82196 0.0099840976 0.0080341874         3291 
 4707000   0.49002265   -8.6718417    564.99242  0.010002698 0.0080312153         3202 
 4708000   0.50333864   -8.6840412    565.20075  0.010004261  0.008028244         3215 
 4709000   0.49518104   -8.6814871    565.19929  0.010002111 0.0080252781         3211 
 4710000   0.49305502   -8.7005861    564.50247 0.0099876586 0.0080223115         3214 
 4711000   0.49596317   -8.7018378    565.12181 0.0099964943 0.0080193457         3260 
 4712000   0.49498765   -8.6838018    564.34558 0.0099806448 0.0080163781         3209 
 4713000   0.49672467   -8.6859278    565.34932 0.0099962748 0.0080134157         3229 
 4714000   0.48713507   -8.6960903    564.87399 0.0099857515 0.0080104508         3213 
 4715000   0.49541947   -8.6953605    564.17135 0.0099712151 0.0080074899         3270 
 4716000   0.49264341   -8.6912907    564.91569 0.0099822535 0.0080045321         3248 
 4717000    0.5099777   -8.6767421     564.3477 0.0099701029 0.0080015756         3171 
 4718000    0.4926949   -8.6925495    565.20601 0.0099831497 0.0079986173         3304 
 4719000   0.50009225   -8.6860973    565.00351 0.0099774583 0.0079956613         3205 
 4720000   0.49830698    -8.703851    564.18292 0.0099608567 0.0079927084         3236 
 4721000   0.49639864   -8.6884153    564.40554 0.0099626763  0.007989757         3264 
 4722000   0.50497739   -8.7062886    565.36501 0.0099774991 0.0079868083         3212 
 4723000   0.49519165   -8.7000931     564.7384 0.0099643306 0.0079838595         3251 
 4724000   0.50340922   -8.6916535    564.42272 0.0099566526 0.0079809117         3263 
 4725000   0.49746257   -8.6906068    564.84117 0.0099619254 0.0079779645         3245 
 4726000   0.49457861   -8.6934635     564.5174 0.0099541085 0.0079750189         3204 
 4727000   0.49835097   -8.6954694    564.21821 0.0099467282 0.0079720746         3172 
 4728000   0.49662899   -8.6878325    564.23054 0.0099448417 0.0079691345         3244 
 4729000   0.50121345   -8.6769194    564.76998 0.0099522446 0.0079661952         3247 
 4730000   0.49184671   -8.6994565     565.0062 0.0099543023 0.0079632575         3218 
 4731000   0.49464135    -8.685136    565.19896 0.0099555935 0.0079603201         3165 
 4732000   0.49427359   -8.6914095    565.04957 0.0099508589  0.007957383         3177 
 4733000    0.4943683   -8.6843797    564.97891 0.0099475123 0.0079544515         3224 
 4734000   0.49187475    -8.689346    564.43966 0.0099359186 0.0079515198         3233 
 4735000   0.49191617   -8.6986017    564.23758 0.0099302636 0.0079485902         3230 
 4736000   0.50228825   -8.6956216    564.55716 0.0099337902 0.0079456618         3154 
 4737000   0.50346355   -8.7014334     563.7252 0.0099170573 0.0079427346         3244 
 4738000   0.49896964   -8.6939744    564.79502 0.0099337804 0.0079398047         3162 
 4739000   0.47527306   -8.6804432    564.47342 0.0099260291  0.007936878         3205 
 4740000    0.4877701   -8.6803371    563.87617 0.0099134348 0.0079339554         3249 
 4741000   0.48596677    -8.692424    565.71374  0.009943643 0.0079310331         3228 
 4742000   0.49290136   -8.6910163    565.85073 0.0099439536 0.0079281108         3249 
 4743000   0.49371093   -8.7115489    564.08976 0.0099109172 0.0079251906         3223 
 4744000   0.48201719   -8.6964672    564.02742 0.0099077329 0.0079222718         3224 
 4745000   0.49506276   -8.6894069    565.07009 0.0099239567 0.0079193526         3232 
 4746000   0.49161926   -8.6844145    565.25884 0.0099251798  0.007916437         3208 
 4747000   0.49373531   -8.6909823    564.82368 0.0099154497 0.0079135226         3224 
 4748000   0.48832729   -8.7060382     563.9764 0.0098984906 0.0079106091         3233 
 4749000   0.48446457   -8.7113324    564.39065 0.0099036753 0.0079076972         3231 
 4750000   0.48210001   -8.6866915    564.69971 0.0099070124 0.0079047882         3210 
 4751000   0.47719413   -8.7022413    564.84838 0.0099075349 0.0079018791         3277 
 4752000   0.49951955   -8.7022902    564.81211 0.0099048139 0.0078989705         3190 
 4753000   0.49416012   -8.7021981    564.28031  0.009893406 0.0078960667         3217 
 4754000   0.48848642   -8.7040476    564.50081 0.0098951901 0.0078931606         3223 
 4755000   0.49990262   -8.7182327    564.83359 0.0098989413 0.0078902576         3250 
 4756000   0.48937714    -8.686947    565.25924  0.009904318 0.0078873534         3245 
 4757000   0.47668011   -8.6992619    564.67134 0.0098919371 0.0078844546         3221 
 4758000   0.48537083   -8.7244884    564.14353 0.0098806139 0.0078815521         3246 
 4759000   0.47861246   -8.6912785    564.62382 0.0098869479 0.0078786527         3206 
 4760000   0.48400412   -8.6934692    564.79308 0.0098878341  0.007875756         3213 
 4761000   0.49573826    -8.707856    564.73799  0.009884793 0.0078728615         3213 
 4762000   0.48744177   -8.6898163    564.20971 0.0098734724 0.0078699667         3251 
 4763000   0.49921353   -8.7003623     564.2478  0.009872066 0.0078670753         3228 
 4764000   0.48753967   -8.6943395    564.58693 0.0098759258 0.0078641829         3218 
 4765000   0.47759709   -8.7115311    564.01489  0.009863849 0.0078612917         3257 
 4766000   0.49047027   -8.6857933    564.14455 0.0098640465 0.0078584026         3228 
 4767000   0.49603415   -8.6840882    564.43672 0.0098670849 0.0078555155         3183 
 4768000   0.49339848   -8.7039393    565.05339 0.0098757933 0.0078526323         3230 
 4769000    0.4877352   -8.7053876    564.01503 0.0098555782 0.0078497473         3203 
 4770000   0.49175596   -8.6999209    564.81816  0.009867543 0.0078468646         3265 
 4771000   0.48695841   -8.6916281    565.20927 0.0098723062 0.0078439841         3174 
 4772000   0.48570891   -8.7012787    563.94106 0.0098480906 0.0078411044         3216 
 4773000   0.49336106   -8.7130144    563.24944 0.0098339522 0.0078382263         3216 
 4774000   0.48969143   -8.6923379    564.72823 0.0098577054 0.0078353478         3246 
 4775000   0.47852181   -8.7100101    564.84856  0.009857741 0.0078324733         3191 
 4776000   0.47439122   -8.7055414    564.20855 0.0098445098 0.0078296019         3217 
 4777000   0.48456186   -8.6909745    564.24955 0.0098431642 0.0078267306         3220 
 4778000    0.4890276   -8.7133928    565.47062 0.0098624009 0.0078238597         3233 
 4779000   0.48523973   -8.7075577    564.15324 0.0098373655 0.0078209881         3217 
 4780000    0.4799415   -8.7001807    563.59314 0.0098255429 0.0078181198         3246 
 4781000   0.48423264   -8.6851633    564.06997  0.009831799 0.0078152519         3248 
 4782000    0.4740758   -8.6917365    564.92553 0.0098446523 0.0078123862         3262 
 4783000   0.48285161   -8.7159756    564.16398 0.0098293258 0.0078095206         3168 
 4784000   0.49301158   -8.6999047    563.62494 0.0098178816 0.0078066565         3153 
 4785000   0.49552088   -8.7071282    564.21153 0.0098260455 0.0078037944         3178 
 4786000   0.48980151   -8.7087507    564.19402 0.0098236875 0.0078009327         3202 
 4787000   0.48704082   -8.6888237      564.501 0.0098269794 0.0077980769         3226 
 4788000   0.49067738   -8.7062881    564.34971 0.0098222937 0.0077952194         3224 
 4789000   0.48271608   -8.6984552    564.84948 0.0098289392 0.0077923642         3219 
 4790000   0.48637359   -8.7091248    564.62625 0.0098230037 0.0077895108         3252 
 4791000    0.4738058   -8.7034355    563.96523 0.0098094558  0.007786655         3235 
 4792000   0.48207221   -8.7163495    564.55074 0.0098175907 0.0077838019         3189 
 4793000   0.48393079   -8.7169846    564.56835 0.0098158487 0.0077809506         3200 
 4794000    0.4892265   -8.6952712    563.95551 0.0098031483 0.0077781022         3202 
 4795000   0.47354275   -8.7005551    563.97676 0.0098014731 0.0077752567         3206 
 4796000   0.48814342   -8.6958808    564.43588 0.0098074068 0.0077724106         3202 
 4797000   0.47011981   -8.7191271    563.80638 0.0097944268 0.0077695643         3298 
 4798000   0.48445639   -8.7062119    564.45354 0.0098036255 0.0077667209         3233 
 4799000   0.49112316   -8.6930461    564.13376 0.0097960297 0.0077638791         3255 
 4800000   0.48117109   -8.7144701    564.91971 0.0098076339 0.0077610405         3231 
 4801000   0.48642722   -8.7120598    563.08818 0.0097738002 0.0077582006         3263 
 4802000   0.49246632   -8.7033963    563.39394  0.009777071 0.0077553633         3175 
 4803000   0.47824188   -8.7223817    563.93405 0.0097844064 0.0077525263         3255 
 4804000   0.48143618   -8.6948252    563.90234 0.0097818196 0.0077496898         3205 
 4805000   0.48285492   -8.7030824    564.36883 0.0097878743 0.0077468572         3230 
 4806000   0.47733002   -8.7051745    563.39534 0.0097689579 0.0077440243         3251 
 4807000   0.48453786   -8.7207232    563.33749 0.0097659228 0.0077411923         3218 
 4808000   0.48378073   -8.6995044    564.77446 0.0097887974 0.0077383622         3201 
 4809000   0.48297814   -8.6949032    564.58338 0.0097834509 0.0077355358         3239 
 4810000   0.48492258   -8.7316147    564.02816 0.0097717977 0.0077327099         3215 
 4811000   0.47765081   -8.7127789    564.11048 0.0097711923 0.0077298839         3228 
 4812000   0.48340006   -8.7129327    563.15438 0.0097526042 0.0077270605         3228 
 4813000   0.46660927   -8.7128112    564.52618 0.0097743296 0.0077242385         3241 
 4814000   0.47283637    -8.720659    563.93843 0.0097621248  0.007721416         3270 
 4815000   0.47093992   -8.7103143    564.57508  0.009771116 0.0077185959         3302 
 4816000   0.47589066   -8.7086376    564.68147 0.0097709279 0.0077157759         3255 
 4817000   0.48269761   -8.7137565    563.85108  0.009754534 0.0077129582         3324 
 4818000    0.4818546   -8.7212634    564.00244 0.0097551273 0.0077101437         3264 
 4819000    0.4825114   -8.7125585    564.04655 0.0097538657 0.0077073304         3242 
 4820000   0.48893723   -8.7067497    564.15455 0.0097537093 0.0077045179         3233 
 4821000   0.48371501   -8.7171752    563.83403 0.0097461458 0.0077017064         3251 
 4822000   0.48745656     -8.70298    563.78612 0.0097432968 0.0076988959         3271 
 4823000    0.4835318   -8.7143607    563.28106 0.0097325499 0.0076960855         3256 
 4824000   0.47927681   -8.6853181    564.04551 0.0097437381  0.007693278         3208 
 4825000   0.47649418   -8.7236243      563.439 0.0097312435 0.0076904739         3264 
 4826000   0.47190964   -8.7181357    564.29054 0.0097439311 0.0076876705         3237 
 4827000   0.47117175   -8.7208478    563.83904 0.0097341178 0.0076848678         3257 
 4828000    0.4749303   -8.7186398    564.49286 0.0097433869 0.0076820663         3298 
 4829000   0.47085152   -8.7156622    563.80787 0.0097295483  0.007679268         3240 
 4830000   0.49192402   -8.7102189    563.41699   0.00972079 0.0076764688         3286 
 4831000    0.4791511   -8.7164076     563.9084 0.0097272545 0.0076736705         3238 
 4832000   0.48500856   -8.7182663    563.80638  0.009723482  0.007670871         3285 
 4833000   0.47832503   -8.7063874    564.17816 0.0097278805  0.007668074         3262 
 4834000   0.47361802   -8.7210975    563.44935 0.0097133041 0.0076652802         3258 
 4835000   0.47334495   -8.7187917    564.43948 0.0097283605 0.0076624881         3227 
 4836000   0.47645842   -8.7237405    564.68143 0.0097305182 0.0076596941         3214 
 4837000   0.46921956   -8.7206252    563.03414 0.0097001265 0.0076569032         3255 
 4838000   0.46879851   -8.7287078    563.98684 0.0097145315 0.0076541135         3240 
 4839000   0.47432762   -8.7057285    564.04463 0.0097135192  0.007651324         3267 
 4840000   0.47034765   -8.7332579    563.94311 0.0097097643 0.0076485367         3271 
 4841000   0.46886753   -8.7566305    563.31563  0.009696957 0.0076457502         3248 
 4842000   0.47151204   -8.7187128    564.62061 0.0097174138 0.0076429665         3282 
 4843000   0.48317909   -8.7209117    564.01918 0.0097050586 0.0076401858         3227 
 4844000   0.47602904    -8.719135    564.87428 0.0097177656 0.0076374052         3211 
 4845000   0.46959819   -8.7075533    563.92842 0.0096994912 0.0076346269         3277 
 4846000   0.48539391   -8.7003156    564.51296 0.0097075415 0.0076318509         3218 
 4847000   0.48204824   -8.7347666    564.00085 0.0096967343  0.007629076         3285 
 4848000   0.47506272   -8.7345694    563.08167 0.0096789341 0.0076263014         3265 
 4849000   0.47031486   -8.7152475    563.21599 0.0096792464 0.0076235263         3215 
 4850000   0.46883198   -8.7270076    563.28262 0.0096783956 0.0076207527         3224 
 4851000   0.47734341   -8.7190217    563.94714 0.0096878159  0.007617981         3261 
 4852000   0.48467968   -8.7371882    564.45817 0.0096945962 0.0076152111         3271 
 4853000   0.47461747   -8.7212139    564.85136 0.0096993502 0.0076124414         3300 
 4854000   0.47168311   -8.7108699    564.12009 0.0096847975 0.0076096723         3263 
 4855000   0.46866061   -8.7129232    563.23093 0.0096675409  0.007606905         3300 
 4856000   0.47967006   -8.7264757    563.31014 0.0096669094 0.0076041392         3278 
 4857000   0.47225487   -8.7196129    562.56392 0.0096521159 0.0076013764         3219 
 4858000   0.46908477   -8.7239074    563.94727 0.0096738587 0.0075986139         3249 
 4859000   0.47912138   -8.7328337    563.44844 0.0096633128 0.0075958558         3208 
 4860000   0.48055117   -8.7192607    564.19371 0.0096741034  0.007593096         3222 
 4861000   0.46726167   -8.7173265    563.90312 0.0096671317 0.0075903376         3246 
 4862000   0.47214805   -8.7163545    563.16293 0.0096524566 0.0075875794         3255 
 4863000    0.4831947   -8.7334338    563.40932 0.0096546939 0.0075848249         3243 
 4864000    0.4762822   -8.7386105    563.50956 0.0096544264 0.0075820725         3270 
 4865000   0.48491254   -8.7168887    563.95843 0.0096601306 0.0075793205         3237 
 4866000   0.46390078   -8.7374696    563.73221 0.0096542712 0.0075765695         3225 
 4867000   0.46622471   -8.7393047    564.01985 0.0096572127  0.007573819         3256 
 4868000   0.48372896   -8.7268363    563.65399 0.0096489659 0.0075710701         3189 
 4869000   0.48030106     -8.71599    563.40851 0.0096427827 0.0075683226         3259 
 4870000   0.47862861   -8.7389849    564.02697 0.0096513856 0.0075655764         3221 
 4871000   0.47213215   -8.7364442    564.00026 0.0096489472 0.0075628342         3236 
 4872000   0.46408971    -8.714956    564.14631 0.0096494648 0.0075600889         3262 
 4873000   0.47127241   -8.7331882    563.98811 0.0096447793 0.0075573459         3293 
 4874000   0.47682979   -8.7272718     563.2977 0.0096309961 0.0075546045         3232 
 4875000   0.48996167   -8.7214559    563.68254  0.009635599 0.0075518656         3258 
 4876000    0.4632581   -8.7295184    562.44527 0.0096124772  0.007549126         3229 
 4877000     0.474272   -8.7310489    563.25822 0.0096243971 0.0075463872         3254 
 4878000   0.47361849   -8.7320886    563.02475 0.0096184357 0.0075436541         3253 
 4879000   0.47104685    -8.723233    563.34466 0.0096219283 0.0075409225         3186 
 4880000   0.47077862   -8.7310951    563.47001 0.0096220971 0.0075381898         3255 
 4881000   0.47496969   -8.7367271    564.34488 0.0096350624 0.0075354604         3230 
 4882000   0.47107362   -8.7308655    563.08266 0.0096115434 0.0075327304         3284 
 4883000   0.46217323   -8.7169917    564.47777 0.0096333839 0.0075300008         3206 
 4884000   0.47077542   -8.7329731    563.92001 0.0096218948 0.0075272723         3254 
 4885000   0.47050482   -8.7198133    563.98628 0.0096210557 0.0075245446         3228 
 4886000   0.46665845   -8.7519615    562.80591 0.0095989547 0.0075218182         3193 
 4887000   0.46752713   -8.7399174    563.43592 0.0096077334 0.0075190927         3268 
 4888000   0.46404957    -8.728744    563.40124 0.0096051767 0.0075163712         3242 
 4889000    0.4613276   -8.7248367     563.5828 0.0096063066 0.0075136507         3333 
 4890000   0.47798188    -8.744722    563.20886 0.0095979696 0.0075109322         3273 
 4891000   0.46177985   -8.7215814    562.55599 0.0095848836 0.0075082125         3251 
 4892000   0.47852679   -8.7376673    563.43668 0.0095979265 0.0075054942         3207 
 4893000   0.47357395   -8.7376095    562.71048  0.009583597 0.0075027779         3263 
 4894000   0.47287148   -8.7348126    563.29376 0.0095915706 0.0075000623         3217 
 4895000   0.47157357   -8.7392781     563.1992 0.0095880013 0.0074973484         3204 
 4896000   0.47308368   -8.7262542    562.65496 0.0095767797 0.0074946364         3231 
 4897000   0.46206497    -8.744339    563.60631 0.0095910134  0.007491925         3295 
 4898000   0.47494538   -8.7267397     563.0746 0.0095800088 0.0074892147         3241 
 4899000    0.4763877   -8.7266054    563.83296 0.0095909533 0.0074865043         3198 
 4900000   0.47516936   -8.7381479    563.18878 0.0095780404 0.0074837971         3217 
 4901000   0.47684826   -8.7348712    563.29048 0.0095778155 0.0074810921         3263 
 4902000   0.46469115   -8.7295639    563.85876 0.0095855222 0.0074783869         3223 
 4903000   0.46039152   -8.7616094     562.9212 0.0095676321 0.0074756858         3241 
 4904000   0.45995705   -8.7513524    563.17376 0.0095699728  0.007472983         3239 
 4905000   0.46971629     -8.73244    563.96404 0.0095814482 0.0074702808         3290 
 4906000   0.46333787   -8.7304825    563.26255 0.0095675797 0.0074675819         3270 
 4907000   0.46868698   -8.7532813     563.4693  0.009569141 0.0074648841         3263 
 4908000   0.46194837   -8.7304075    563.94391 0.0095752498 0.0074621882         3258 
 4909000   0.47675155   -8.7402158    563.55981 0.0095667789 0.0074594935         3288 
 4910000   0.45480808   -8.7328674     562.9753 0.0095549101 0.0074568003         3272 
 4911000   0.46215861   -8.7231648    563.52329 0.0095622631 0.0074541084         3229 
 4912000    0.4638497   -8.7344739    563.23558 0.0095554353 0.0074514165         3238 
 4913000   0.46426385   -8.7320934    563.41881 0.0095565983 0.0074487277         3273 
 4914000   0.45730577   -8.7426756    563.11055  0.009549426 0.0074460378         3237 
 4915000   0.46005131   -8.7332114     563.5545 0.0095550101  0.007443349         3249 
 4916000    0.4636371   -8.7543623    562.94023 0.0095426538 0.0074406617         3278 
 4917000   0.45714249   -8.7327752     563.3046 0.0095468883 0.0074379749         3218 
 4918000   0.45915906   -8.7432702    563.68225 0.0095513462 0.0074352919         3276 
 4919000   0.46573318   -8.7365969    563.65773 0.0095489891 0.0074326094         3237 
 4920000   0.47502684   -8.7344115    563.37173  0.009542204 0.0074299276         3240 
 4921000   0.46258083   -8.7413733    563.49165 0.0095422958 0.0074272477         3319 
 4922000   0.46705492   -8.7371978    563.25192 0.0095362982 0.0074245703         3241 
 4923000   0.46869452   -8.7458594    563.48755 0.0095383497 0.0074218911         3255 
 4924000   0.46507114   -8.7615412      563.537 0.0095372495 0.0074192153         3266 
 4925000   0.46221016   -8.7411713    563.21049 0.0095297884   0.00741654         3251 
 4926000    0.4615759   -8.7449531    561.81346 0.0095042202 0.0074138671         3266 
 4927000   0.45643589   -8.7387822    563.38903 0.0095289398 0.0074111947         3242 
 4928000   0.46400242   -8.7394587    563.75343 0.0095331681 0.0074085233         3281 
 4929000   0.46959522   -8.7536919    564.12616 0.0095375356 0.0074058525         3323 
 4930000   0.46628049   -8.7351536    563.19634  0.009519884 0.0074031851         3284 
 4931000   0.46596672   -8.7324566    563.05687 0.0095155964 0.0074005166         3228 
 4932000    0.4615752   -8.7454147    564.12188 0.0095316619 0.0073978515         3276 
 4933000   0.46318388   -8.7412739    563.16319 0.0095135345 0.0073951853         3236 
 4934000   0.47067832   -8.7525948    563.35456 0.0095148385 0.0073925212         3288 
 4935000   0.47365401   -8.7423871     563.3685 0.0095131459 0.0073898582         3233 
 4936000   0.46214783   -8.7288694    563.65258 0.0095160147  0.007387197         3295 
 4937000    0.4633917    -8.740962    562.73552 0.0094986078 0.0073845374         3280 
 4938000   0.46074045   -8.7351261    563.21274 0.0095047378 0.0073818799         3288 
 4939000   0.46816674   -8.7566582     562.7645 0.0094952503 0.0073792237         3282 
 4940000   0.45924647   -8.7458656     563.4213 0.0095044079   0.00737657         3257 
 4941000   0.45175539   -8.7497725    563.07531  0.009496649 0.0073739167         3294 
 4942000   0.46469923   -8.7505929    562.66231 0.0094877631 0.0073712611         3319 
 4943000   0.45405564   -8.7491914    563.42462 0.0094986954 0.0073686083         3257 
 4944000   0.47025349   -8.7546919    562.76092 0.0094855873 0.0073659583         3296 
 4945000   0.46800711   -8.7369158    563.03713 0.0094883238 0.0073633088         3304 
 4946000    0.4591003   -8.7604978    563.11058  0.009487643 0.0073606608         3294 
 4947000   0.45332524   -8.7482637    562.76999 0.0094799876 0.0073580121         3278 
 4948000   0.46524287   -8.7375926    562.65366 0.0094761126 0.0073553655         3300 
 4949000   0.44805588   -8.7490013    562.88367 0.0094780708 0.0073527203         3313 
 4950000   0.45501555   -8.7521533    563.85681 0.0094925388 0.0073500779         3288 
 4951000   0.45004431   -8.7513865    563.12492 0.0094783027 0.0073474349         3255 
 4952000   0.44534155   -8.7524428    562.45725  0.009465153 0.0073447926         3275 
 4953000   0.45549441   -8.7376622     562.4252 0.0094627027  0.007342153         3313 
 4954000   0.45200138   -8.7547199    562.31757 0.0094589821 0.0073395137         3329 
 4955000   0.46668652   -8.7437539    562.96409 0.0094679463 0.0073368751         3277 
 4956000    0.4543238   -8.7546287    563.46457 0.0094744513  0.007334239         3295 
 4957000   0.45893668   -8.7427902    563.09721 0.0094663642 0.0073316051         3289 
 4958000   0.45966337   -8.7591781    563.64055 0.0094735872   0.00732897         3259 
 4959000   0.46229123   -8.7399706    563.08362 0.0094623179 0.0073263378         3271 
 4960000   0.45149595   -8.7560256    563.40081 0.0094657394 0.0073237055         3313 
 4961000   0.45775672   -8.7432319    563.07861 0.0094584192 0.0073210747         3287 
 4962000   0.45379994   -8.7524818    563.96345 0.0094713732 0.0073184479         3271 
 4963000    0.4678894   -8.7474057    563.00585 0.0094533859 0.0073158208         3272 
 4964000   0.44841356   -8.7426194    562.98971 0.0094512106 0.0073131955         3223 
 4965000   0.46515771   -8.7529456    563.64332 0.0094602773 0.0073105737         3277 
 4966000   0.45490056     -8.74501    562.88102 0.0094455802 0.0073079501         3284 
 4967000   0.45661064   -8.7464889    563.14262 0.0094480676 0.0073053297         3284 
 4968000   0.45866571   -8.7390974    562.92359 0.0094424918 0.0073027078         3262 
 4969000   0.46418732   -8.7545349    562.27905 0.0094297821   0.00730009         3283 
 4970000   0.46217361   -8.7707445    562.90061 0.0094383066 0.0072974724         3277 
 4971000   0.44735211    -8.757152    562.55085 0.0094305447 0.0072948534         3316 
 4972000   0.44628399   -8.7517079    563.72674 0.0094483565 0.0072922384         3319 
 4973000   0.44720999    -8.746958    562.73413 0.0094298232 0.0072896238         3280 
 4974000   0.45492628   -8.7454193    563.18867 0.0094355426 0.0072870089         3225 
 4975000   0.45848026   -8.7659555    562.68777 0.0094252559 0.0072843971         3356 
 4976000   0.45544979   -8.7621109     562.8115 0.0094254337 0.0072817846         3281 
 4977000   0.45183785   -8.7482678    563.13946 0.0094290312 0.0072791748         3322 
 4978000    0.4527663   -8.7586255     562.9002 0.0094231317 0.0072765652         3297 
 4979000   0.45012273   -8.7418825    563.07186 0.0094241122 0.0072739571         3288 
 4980000   0.44677888   -8.7481583    562.96053 0.0094203569 0.0072713502         3286 
 4981000   0.46382662   -8.7489045    562.85489 0.0094166982 0.0072687457         3276 
 4982000   0.45152868   -8.7509865    563.47912 0.0094252495 0.0072661414         3228 
 4983000   0.44998041   -8.7468317    562.54928 0.0094078079 0.0072635379         3317 
 4984000   0.46505584   -8.7555115    562.95568 0.0094127153 0.0072609367         3280 
 4985000   0.46430402   -8.7430852    562.81756 0.0094085182 0.0072583368         3312 
 4986000    0.4552369   -8.7659151    562.90557 0.0094081022 0.0072557362         3312 
 4987000   0.46323073   -8.7541112    562.61231 0.0094013153 0.0072531387         3330 
 4988000   0.45785385   -8.7556125    562.54921 0.0093983763 0.0072505407         3306 
 4989000   0.45621174   -8.7607605    562.57662 0.0093969503 0.0072479448         3337 
 4990000   0.45147761   -8.7582669    562.05382 0.0093863363   0.00724535         3315 
 4991000   0.45330465   -8.7672121    562.30269 0.0093886111 0.0072427554         3322 
 4992000   0.45391385   -8.7659307    563.06256  0.009399415 0.0072401623         3336 
 4993000   0.45510339   -8.7607835    563.24768 0.0094006221 0.0072375711         3265 
 4994000   0.44719656   -8.7573515    563.42409 0.0094016835 0.0072349823         3284 
 4995000   0.44141964   -8.7493009    563.04056 0.0093934028 0.0072323942         3308 
 4996000   0.46082379   -8.7827872    562.87451 0.0093887528 0.0072298082         3308 
 4997000    0.4413119   -8.7562318     563.3681 0.0093951054 0.0072272204         3303 
 4998000   0.45374306    -8.751403    562.35494 0.0093763329 0.0072246355         3293 
 4999000   0.45399166   -8.7696395    562.25045 0.0093727154 0.0072220517         3340 
 5000000   0.45057871   -8.7613684    563.34905 0.0093891508 0.0072194666         3255 
 5001000   0.45617908   -8.7706017    562.60255 0.0093748343 0.0072168846         3307 
 5002000   0.46505236   -8.7637323    562.77655 0.0093758588 0.0072143054         3343 
 5003000   0.45687935   -8.7547745    562.77898 0.0093740253 0.0072117258         3335 
 5004000   0.44915056   -8.7521116    562.60774 0.0093693003 0.0072091508         3288 
 5005000   0.44893268   -8.7589628    562.48227 0.0093653391 0.0072065742         3345 
 5006000   0.44813712   -8.7595776    562.86106 0.0093697739 0.0072039982         3317 
 5007000   0.45348267   -8.7621049    563.03787 0.0093708453 0.0072014239         3338 
 5008000   0.45248279   -8.7643949    562.35528 0.0093576159 0.0071988516         3345 
 5009000   0.44767499   -8.7480874    563.12928 0.0093686245 0.0071962802         3282 
 5010000   0.44710363   -8.7664942    562.05618 0.0093489051  0.007193709         3241 
 5011000   0.45080704   -8.7619142    561.82642 0.0093432185 0.0071911394         3289 
 5012000   0.45293574   -8.7678066    562.32205 0.0093495952 0.0071885709         3348 
Loop time of 13241.8 on 48 procs for 5000000 steps with 4000 atoms

Performance: 65248.111 tau/day, 377.593 timesteps/s
99.4% CPU use with 48 MPI tasks x no OpenMP threads

MPI task timing breakdown:
Section |  min time  |  avg time  |  max time  |%varavg| %total
---------------------------------------------------------------
Pair    | 942.92     | 1098.7     | 1187.5     | 163.6 |  8.30
Neigh   | 93.027     | 96.705     | 100.26     |  18.7 |  0.73
Comm    | 846.66     | 941.21     | 1088.3     | 188.6 |  7.11
Output  | 18.146     | 18.152     | 18.265     |   0.4 |  0.14
Modify  | 10921      | 10966      | 11013      |  21.9 | 82.81
Other   |            | 121.1      |            |       |  0.91

Nlocal:        83.3333 ave          91 max          77 min
Histogram: 4 2 7 6 4 12 7 4 1 1
Nghost:        2452.58 ave        2480 max        2427 min
Histogram: 2 2 6 10 8 4 5 7 1 3
Neighs:        17043.7 ave       20941 max       14161 min
Histogram: 3 2 8 10 10 5 5 3 1 1
FullNghs:      34086.9 ave       37959 max       31045 min
Histogram: 5 3 4 7 8 11 6 3 0 1

Total # of neighbors = 1636170
Ave neighs/atom = 409.04250
Neighbor list builds = 266243
Dangerous builds = 0

#clear
#
#next RN
#
#jump SELF
Total wall time: 3:40:45
