
units lj                  # Use reduced LJ style units
atom_style atomic         # Uncharged point particles
atom_modify map hash      # Needed for indexing of clusters etc
                          # Used to be able to find where atoms are in relation to each other.

lattice fcc 1.0 spacing 1 1 1
Lattice spacing in x,y,z = 1.5874011 1.5874011 1.5874011
region box block 0 10 0 10 0 10 units lattice
create_box 2 box
Created orthogonal box = (0.0000000 0.0000000 0.0000000) to (15.874011 15.874011 15.874011)
  3 by 4 by 4 MPI processor grid
create_atoms 1 box
Created 4000 atoms
  using lattice units in orthogonal box = (0.0000000 0.0000000 0.0000000) to (15.874011 15.874011 15.874011)
  create_atoms CPU = 0.010 seconds
set type 1 type/fraction 2 0.47 78393
Setting atom values ...
  1873 settings made for type/fraction
mass 1 1.0
mass 2 1.0
pair_style lj/cut  3.5
pair_modify tail  yes
pair_coeff 1  1  1.0  1.0   # Intearaction between 1 and 1 set with epsilon = 1 and sigma = 1
pair_coeff 1  2  1.5  0.8
pair_coeff 2  2  0.5  0.88

write_data data.0
System init for write_data ...
Neighbor list info ...
  update every 1 steps, delay 10 steps, check yes
  max neighbors/atom: 2000, page size: 100000
  master list distance cutoff = 3.8
  ghost atom cutoff = 3.8
  binsize = 1.9, bins = 9 9 9
  1 neighbor lists, perpetual/occasional/extra = 1 0 0
  (1) pair lj/cut, perpetual
      attributes: half, newton on
      pair build: half/bin/atomonly/newton
      stencil: half/bin/3d
      bin: standard
WARNING: Not all mixed pair coeffs generated from mixing. Use write_data with 'pair ij' option to store all pair coeffs. (../write_data.cpp:312)


#############################
#   M E L T   S Y S T E M   #
#############################

velocity all create 2.4 3143649 mom yes dist gaussian # Assign velocities
                                                    # Temperature 2.4, random number seed, zero linear momentum
                                                                                # Gaussian distribution

timestep 0.002   # simulation timestep
thermo 1000       # output thermodynamic data every 1000 steps bf 100

# Define a fix  in this case with index 1 applied to all
# particles in the simulation. This fix is for simulations
# in the anisotropic NPT ensemble. Note that we use the MTK
# correction.
fix 1 all npt temp 2.4 2.4 0.1 iso 5.68 5.68 0.5 mtk yes tchain 5 pchain 5 # Use NPT ensemble
                                                                         # Set temperature and pressure and damping
                                                                         # Numbers of thermostats in chain and in barostat
run 10000          # run for 10000 steps
Per MPI rank memory allocation (min/avg/max) = 3.642 | 3.644 | 3.648 Mbytes
Step Temp E_pair E_mol TotEng Press Volume 
       0          2.4   -5.4815223            0   -1.8824223   -4.2035566         4000 
    1000    2.3936865   -4.9677666            0   -1.3781344    5.7329522    3746.3007 
    2000    2.4231946   -4.9612155            0   -1.3273323    5.8438474    3744.4134 
    3000    2.4142548   -5.0138864            0   -1.3934095    5.4591535     3744.551 
    4000    2.3488872   -4.9401425            0   -1.4176925    5.5281585     3778.063 
    5000    2.3883519    -4.939143            0   -1.3575108    5.5254454    3763.0244 
    6000    2.4140213   -4.9528868            0   -1.3327601    5.5798138    3771.0942 
    7000     2.396621   -4.9130535            0   -1.3190207    5.8774733    3755.2418 
    8000    2.3645676   -4.9654433            0   -1.4194786    5.7306173    3746.9221 
    9000    2.3507065   -4.9637019            0   -1.4385236    5.8421281    3737.6267 
   10000    2.3714849   -5.0310629            0   -1.4747248    5.5082913    3733.4742 
Loop time of 2.57613 on 48 procs for 10000 steps with 4000 atoms

Performance: 670774.690 tau/day, 3881.798 timesteps/s
99.6% CPU use with 48 MPI tasks x no OpenMP threads

MPI task timing breakdown:
Section |  min time  |  avg time  |  max time  |%varavg| %total
---------------------------------------------------------------
Pair    | 1.1689     | 1.2348     | 1.3014     |   2.7 | 47.93
Neigh   | 0.21336    | 0.22081    | 0.22844    |   0.7 |  8.57
Comm    | 0.79237    | 0.86294    | 0.95397    |   3.9 | 33.50
Output  | 0.00025006 | 0.00025422 | 0.00032524 |   0.0 |  0.01
Modify  | 0.21356    | 0.24155    | 0.27227    |   3.6 |  9.38
Other   |            | 0.01574    |            |       |  0.61

Nlocal:        83.3333 ave          95 max          71 min
Histogram: 2 1 3 3 10 15 7 5 1 1
Nghost:        1719.69 ave        1745 max        1689 min
Histogram: 1 4 3 5 7 8 7 2 8 3
Neighs:        10228.3 ave       11788 max        8401 min
Histogram: 2 0 2 5 8 17 5 5 2 2

Total # of neighbors = 490960
Ave neighs/atom = 122.74000
Neighbor list builds = 903
Dangerous builds = 198

# Equilibrate just above the melting temperature to avoid step fn in T

fix 1 all npt temp 1.25 1.25 0.1 iso 5.68 5.68 0.5 mtk yes tchain 5 pchain 5
run 2000
Per MPI rank memory allocation (min/avg/max) = 3.644 | 3.646 | 3.649 Mbytes
Step Temp E_pair E_mol TotEng Press Volume 
   10000    2.3714849   -5.0310629            0   -1.4747248    5.5082913    3733.4742 
   11000    1.2678097   -7.0996166            0   -5.1983776    5.6340065    2928.5484 
   12000    1.2466155    -7.150838            0   -5.2813822    6.0755972    2897.5485 
Loop time of 0.638871 on 48 procs for 2000 steps with 4000 atoms

Performance: 540954.232 tau/day, 3130.522 timesteps/s
99.6% CPU use with 48 MPI tasks x no OpenMP threads

MPI task timing breakdown:
Section |  min time  |  avg time  |  max time  |%varavg| %total
---------------------------------------------------------------
Pair    | 0.2833     | 0.31249    | 0.33483    |   2.2 | 48.91
Neigh   | 0.040313   | 0.042518   | 0.045367   |   0.5 |  6.66
Comm    | 0.20854    | 0.23398    | 0.26656    |   2.8 | 36.62
Output  | 5.2489e-05 | 6.0573e-05 | 7.0446e-05 |   0.0 |  0.01
Modify  | 0.040267   | 0.044798   | 0.049201   |   1.2 |  7.01
Other   |            | 0.005027   |            |       |  0.79

Nlocal:        83.3333 ave          93 max          77 min
Histogram: 3 8 6 12 2 9 4 0 3 1
Nghost:        2037.21 ave        2058 max        2015 min
Histogram: 1 1 7 7 5 9 8 6 3 1
Neighs:        13193.0 ave       14920 max       11455 min
Histogram: 1 2 5 9 9 6 6 4 4 2

Total # of neighbors = 633266
Ave neighs/atom = 158.31650
Neighbor list builds = 141
Dangerous builds = 10

#############################
# L I N E A R  Q U E N C H  #
#############################

# Define solid atoms. This closely follows ten Wolde  Ruiz-Montero and Frenkel  Faraday Discuss  1996  104  93-110
# Compute components of the per-atom q6 vector
compute q6 all orientorder/atom degrees 1 6 components 6 nnn NULL cutoff 1.3 # compute the Q6 parameter.
                                                                             # Use all neighbours within 1.3 unit cell.

# get number of connections
compute coord_number all coord/atom orientorder q6 0.5

# An atom is solid if it has 8 or more connections (of a possible 14)
variable is_solid atom c_coord_number>=8
group solid dynamic all var is_solid    # Must be dynamic to update
dynamic group solid defined

# do clustering
compute cluster solid cluster/atom 1.3 # Create a cluster where all atoms within are solid and max 1.3 units from another member

# define chunks one chunk per cluster
compute clus_chunks solid chunk/atom c_cluster nchunk every compress yes  # Says which atoms are in which chunk

# count the size of each chunk
compute size_chunks solid property/chunk clus_chunks count


# Find the maximum entry in the vector of chunk sizes
variable max_n equal max(c_size_chunks)


# Thermo style which includes this variable
# thermo_style custom step temp pe vol v_max_n

thermo ${N}  # Print the thermo information every 100 steps
thermo 1000  

# Reset the npt fix at a lower temperature (below freezing)
fix 1  all npt temp  ${temp} ${temp}  0.1  iso  5.68  5.68  0.5  mtk yes tchain  5  pchain  5
fix 1  all npt temp  0.45 ${temp}  0.1  iso  5.68  5.68  0.5  mtk yes tchain  5  pchain  5
fix 1  all npt temp  0.45 0.45  0.1  iso  5.68  5.68  0.5  mtk yes tchain  5  pchain  5

dump dmp2 all dcd ${N} traj.dcd
dump dmp2 all dcd 1000 traj.dcd


compute msd all msd com yes
variable twopoint equal c_msd[4]/6/(step*dt+1.0e-6)
fix 9 all vector 10 c_msd[4]
variable fit equal slope(f_9)/6/(10*dt)
thermo_style custom step temp pe c_msd[4] v_twopoint v_fit v_max_n

fix 1 all npt temp 1.25 ${temp} 0.1 iso 5.68 5.68 0.5 mtk yes tchain 5 pchain 5
fix 1 all npt temp 1.25 0.45 0.1 iso 5.68 5.68 0.5 mtk yes tchain 5 pchain 5
run 5000000 # 5000000  # Run for this many steps
Neighbor list info ...
  update every 1 steps, delay 10 steps, check yes
  max neighbors/atom: 2000, page size: 100000
  master list distance cutoff = 3.8
  ghost atom cutoff = 3.8
  binsize = 1.9, bins = 8 8 8
  4 neighbor lists, perpetual/occasional/extra = 1 3 0
  (1) pair lj/cut, perpetual
      attributes: half, newton on
      pair build: half/bin/atomonly/newton
      stencil: half/bin/3d
      bin: standard
  (2) compute orientorder/atom, occasional
      attributes: full, newton on
      pair build: full/bin/atomonly
      stencil: full/bin/3d
      bin: standard
  (3) compute coord/atom, occasional
      attributes: full, newton on
      pair build: full/bin/atomonly
      stencil: full/bin/3d
      bin: standard
  (4) compute cluster/atom, occasional
      attributes: full, newton on
      pair build: full/bin/atomonly
      stencil: full/bin/3d
      bin: standard
Per MPI rank memory allocation (min/avg/max) = 9.836 | 9.841 | 9.844 Mbytes
Step Temp PotEng c_msd[4] v_twopoint v_fit v_max_n 
   12000    1.2466155    -7.150838 1.9721523e-34 1.3695501e-36 8.3333333e+20            3 
   13000    1.2054147   -7.1590931   0.45857466 0.0029395811  0.037080512            1 
   14000    1.2343525   -7.1400442   0.86289804 0.0051362977  0.034723826            8 
   15000    1.2333328   -7.1262201    1.3033515 0.0072408415  0.035166516            1 
   16000    1.2564985   -7.1583822    1.7487922 0.0091082926  0.035967206            2 
   17000    1.2417794   -7.1489432    2.1526479  0.010552195  0.035670427            1 
   18000    1.2233528    -7.111664    2.5696331  0.011896449  0.035335021            1 
   19000    1.2526594    -7.119497    2.9688942  0.013021466  0.035205817            2 
   20000    1.2633452   -7.0720534    3.4668905  0.014445377  0.035215775            3 
   21000    1.2416561   -7.1508529    3.7466534  0.014867672  0.035185072            1 
   22000     1.212018   -7.1535434    4.1495479  0.015717984  0.034665856            2 
   23000    1.2785954   -7.1156868    4.5522535  0.016493672  0.034431292            1 
   24000    1.2314593   -7.1484262    4.9893242  0.017324042   0.03433762            1 
   25000    1.2434999   -7.1329141    5.4456666  0.018152222  0.034325138            1 
   26000    1.2378014   -7.1813575    5.7836796  0.018537434  0.034272871            2 
   27000    1.2376301   -7.1671918    6.1487312  0.018977565  0.034119076            3 
   28000    1.2267535   -7.1525512    6.4937111  0.019326521  0.033939198            2 
   29000    1.2567389   -7.1430298    6.7549356  0.019410734  0.033613498            1 
   30000    1.2312146   -7.1393838    7.2517737  0.020143815  0.033408405            1 
   31000    1.2584755   -7.1532371    7.6902949  0.020672835  0.033354678            2 
   32000    1.2267617   -7.0942019    8.0983097  0.021089348  0.033288561            2 
   33000     1.267181   -7.1593178    8.5448932  0.021578013  0.033245495            1 
   34000    1.2274988    -7.144711    8.8955958  0.021802931  0.033224492            1 
   35000     1.265947   -7.1630945    9.2901107  0.022119311  0.033208738            1 
   36000    1.2503783   -7.1745768     9.623191  0.022275905  0.033174371            5 
   37000    1.2581266   -7.0908684    10.171788  0.022909433  0.033187276            1 
   38000    1.2512837   -7.1844953    10.479392  0.022981122   0.03319535            2 
   39000    1.2302522   -7.1335052    10.935528  0.023366512  0.033225827            1 
   40000    1.2342239   -7.1652613    11.308989  0.023560394  0.033256357            2 
   41000    1.2440601   -7.1225017    11.729805  0.023841066  0.033247941            2 
   42000    1.2592605   -7.1352802    12.120566  0.024048742  0.033249456            1 
   43000    1.2477641   -7.1437838    12.377352  0.023987116  0.033210573            2 
   44000     1.269594   -7.1430864     12.71681  0.024084867  0.033151107            1 
   45000    1.2622194   -7.1628187    13.214044  0.024470451  0.033097384            1 
   46000    1.2498197   -7.1277912    13.654851  0.024737048  0.033081785            3 
   47000    1.2426867   -7.1379167     14.07971  0.024964025  0.033094418            2 
   48000    1.2829151    -7.106046    14.570952  0.025296791  0.033102241            2 
   49000    1.2564429   -7.1680179    15.059064  0.025610653  0.033162391            1 
   50000    1.2540217   -7.1446308    15.347721  0.025579535  0.033217794            1 
   51000    1.2518421   -7.1498815    15.691864  0.025640301  0.033227046            2 
   52000    1.2613913    -7.159836     16.15103  0.025883061  0.033234761            1 
   53000    1.2381164   -7.1297257    16.600238  0.026101003  0.033257084            3 
   54000    1.2430399   -7.0678408    17.021857  0.026268298  0.033300233            3 
   55000    1.2483095   -7.1687406     17.41362  0.026384273  0.033330711            1 
   56000    1.2339411    -7.149718    17.990501  0.026771579  0.033378867            1 
   57000    1.2653577   -7.0952472    18.303803  0.026759946  0.033432844            1 
   58000     1.277251   -7.1677871    18.674149  0.026830674  0.033472341            1 
   59000    1.2612364   -7.1283992    18.908779  0.026707314  0.033478017            1 
   60000    1.2302169   -7.2025585    19.336965  0.026856895  0.033475323            3 
   61000    1.2461186   -7.0826702    19.879774  0.027158161  0.033482978            1 
   62000    1.2437577   -7.1303731    20.268034  0.027241981  0.033505421            3 
   63000    1.2649346   -7.1250394    20.840221   0.02756643  0.033538847            2 
   64000    1.2391638   -7.1441604    21.263943  0.027687426   0.03358432            2 
   65000    1.2358649   -7.1518624    21.752898  0.027888331  0.033625755            1 
   66000    1.2224685   -7.1600793    22.032369  0.027818647  0.033667409            4 
   67000    1.2450158   -7.1680251    22.208827  0.027622919  0.033673844            2 
   68000    1.2332942    -7.192944    22.648873  0.027755971  0.033665672            1 
   69000    1.2408406     -7.17781    22.928745  0.027691721   0.03364829            2 
   70000    1.2636773   -7.1646218    23.362901  0.027812977  0.033627746            2 
   71000     1.233503   -7.1785969    23.990831  0.028158252   0.03362717            1 
   72000     1.239812   -7.1739797    24.201161  0.028010603  0.033629908            2 
   73000    1.2483708   -7.1888354    24.542364  0.028016397  0.033624396            2 
   74000    1.2350929   -7.1701305    25.094721  0.028259821   0.03361962            2 
   75000    1.2302518   -7.1621264    25.573125  0.028414583  0.033628257            2 
   76000    1.2266429   -7.1971082     25.91688  0.028417631   0.03363497            1 
   77000    1.2427896   -7.1834313    26.504173  0.028684169  0.033649156            1 
   78000       1.2434   -7.1848076    26.942698  0.028784934  0.033675308            1 
   79000    1.2334725    -7.191274    27.258724  0.028753928  0.033691762            1 
   80000    1.2357043   -7.1589344    27.813042  0.028971919  0.033700881            2 
   81000    1.2468067   -7.1620391     28.28873  0.029103631  0.033722401            2 
   82000    1.2207475   -7.1926529    28.580758  0.029045486  0.033757396            3 
   83000    1.2259088   -7.1771211    28.927239  0.029043413   0.03377988            1 
   84000    1.2197118   -7.1785738    29.267604  0.029035322    0.0338003            1 
   85000    1.2379275   -7.1776157    29.636595  0.029055485  0.033814697            1 
   86000    1.2568017   -7.1462455    30.054714  0.029122784  0.033818674            2 
   87000    1.2223671   -7.1283917     30.43955  0.029156657  0.033816402            2 
   88000    1.2336132   -7.1304321    30.916002  0.029276517  0.033817968            2 
   89000    1.2592153   -7.1520544    31.187078  0.029201384  0.033815353            3 
   90000    1.2569024   -7.1978404    31.411245  0.029084486  0.033803203            1 
   91000    1.2187725   -7.1454627    31.976619  0.029282618   0.03378145            2 
   92000    1.2639428   -7.1679652    32.104351  0.029080028  0.033764544            1 
   93000    1.2206668   -7.1674819      32.6027  0.029213889  0.033743946            3 
   94000    1.2357653   -7.1583341     32.96234  0.029221932  0.033731362            1 
   95000    1.2517072   -7.1520169    33.288483  0.029200424  0.033709809            2 
   96000    1.2356313   -7.1439238    33.748455  0.029295534  0.033693494            2 
   97000    1.2088223   -7.1367577    34.177704  0.029362288  0.033674502            3 
   98000    1.2219328   -7.1459695      34.4675  0.029309098  0.033652193            2 
   99000     1.245773   -7.1790637    34.832237  0.029320065  0.033633482            2 
  100000    1.2300122    -7.147122    35.249563  0.029374635  0.033611986            1 
  101000    1.2616121   -7.1857732    35.634981    0.0294018  0.033591953            2 
  102000     1.245239   -7.2170498    35.811045   0.02925739  0.033569884            1 
  103000    1.2314913   -7.2079159     36.17404  0.029267022  0.033542951            2 
  104000    1.2461068   -7.2100185    36.658156  0.029373522  0.033518424            2 
  105000    1.2621043    -7.195447    37.022458  0.029382903  0.033491543            1 
  106000    1.2377841   -7.2056655    37.289488  0.029315635  0.033462741            1 
  107000     1.250818   -7.1636013    37.593741  0.029278615  0.033426695            1 
  108000    1.2400928   -7.1619838    38.080639  0.029383209  0.033392507            1 
  109000     1.222975   -7.2096702    38.262267  0.029252498  0.033360368            5 
  110000    1.2676479   -7.1394926    38.996929  0.029543128  0.033331952            4 
  111000    1.2193824   -7.1795132    39.230331    0.0294522  0.033310194            1 
  112000    1.2249363   -7.2059248     39.88486  0.029676235  0.033287555            2 
  113000      1.23816   -7.1573789    40.378838  0.029777904  0.033274938            3 
  114000    1.2246077   -7.1867301     40.74054  0.029781096  0.033262885            4 
  115000    1.2359132    -7.179665    41.167215  0.029831315  0.033255665            1 
  116000    1.2359448   -7.2236247    41.294972  0.029665928   0.03323874            1 
  117000     1.228271   -7.1328078     41.93026  0.029864857  0.033228631            1 
  118000    1.2410391   -7.1964831    42.544806  0.030045767  0.033226392            2 
  119000    1.1993188   -7.1906602    42.948522  0.030075996  0.033229545            3 
  120000     1.234756   -7.2077028     43.45573   0.03017759  0.033234801            2 
  121000    1.2342792   -7.1687395    43.886676  0.030224983  0.033241949            7 
  122000    1.2367931   -7.2033597    44.335879   0.03028407  0.033252435            1 
  123000    1.2413505   -7.1866025     44.65519  0.030254193   0.03326497            1 
  124000    1.2373652   -7.1985158    45.029134  0.030261515  0.033272268            1 
  125000     1.238218   -7.1776439    45.562086  0.030374724  0.033284669            2 
  126000    1.2177363   -7.2146254    45.884403  0.030346827  0.033289256            2 
  127000    1.2635626   -7.1929516    46.303624  0.030382955   0.03328997            1 
  128000    1.2556957   -7.2367615    46.307429  0.030148065  0.033287197            3 
  129000    1.1922072   -7.2414984    46.806015  0.030236444    0.0332834            1 
  130000    1.2294043   -7.2186344    47.589664  0.030506195    0.0332845            1 
  131000    1.2269884   -7.1782341    47.799245  0.030406644    0.0332905            3 
  132000    1.2251148   -7.2111968    48.013972  0.030311851  0.033293819            2 
  133000    1.2487945   -7.1657188    48.608158  0.030456239  0.033297466            1 
  134000    1.2608642   -7.1734071    49.078995  0.030521763  0.033302459            1 
  135000    1.2522033   -7.2074768    49.306783  0.030436286  0.033302798            5 
  136000    1.2509209   -7.1483643    49.813392  0.030522911  0.033300486            2 
  137000    1.2057281   -7.2100564    49.999579  0.030413369  0.033301418            3 
  138000    1.2463492   -7.1410647    50.659992  0.030591783  0.033296385            1 
  139000    1.2391054   -7.1830369    50.692343  0.030391093  0.033294481            1 
  140000    1.2359234    -7.237917    51.111284  0.030423383  0.033287637            1 
  141000    1.2051598   -7.1897422    51.461368   0.03041452  0.033278836            2 
  142000    1.2477277   -7.1766795    52.076867  0.030561542   0.03327439            1 
  143000    1.2198151    -7.227765      52.3745   0.03052127  0.033272663            1 
  144000     1.226942   -7.1818463     52.92818  0.030629734  0.033269287            1 
  145000    1.2798718   -7.1800754    53.302828  0.030633809  0.033267512            1 
  146000    1.2392453   -7.1454185     53.65684   0.03062605  0.033265908            3 
  147000     1.255301   -7.1850147    54.150761   0.03069771  0.033265309            1 
  148000    1.2495442   -7.1558945    54.613077  0.030750606  0.033267424            4 
  149000     1.251825   -7.1810025    55.014467  0.030768718  0.033268867            2 
  150000    1.2103977   -7.1594991    55.707429  0.030948572  0.033273828            1 
  151000    1.2264864    -7.195436    55.885954  0.030842138  0.033278169            1 
  152000    1.2235536   -7.1856336    56.382722   0.03091158   0.03328388            4 
  153000    1.2065872   -7.1435961    57.012172  0.031052381  0.033288601            5 
  154000    1.2257201     -7.18366    57.150262  0.030925466  0.033295308            2 
  155000    1.2377203   -7.1527675    57.444293  0.030884028   0.03329816            2 
  156000    1.2460195   -7.1552422     57.78266  0.030866806  0.033300716            2 
  157000    1.2602047   -7.1662716    58.001686  0.030786457  0.033299212            1 
  158000    1.2486121   -7.2331756    58.260737  0.030728237  0.033297201            1 
  159000    1.2283549   -7.2013412    58.931681  0.030886625  0.033295173            3 
  160000    1.2395218   -7.2018079    59.085759  0.030773833  0.033292544            1 
  161000    1.2047911     -7.22456    59.386892  0.030738557  0.033287523            1 
  162000    1.2196921   -7.2301634    59.933639  0.030830061  0.033280023            2 
  163000    1.2077614   -7.2255001    60.070394  0.030710835  0.033274276            2 
  164000    1.2245727   -7.2060005     60.37229  0.030676977  0.033264999            1 
  165000    1.2084902   -7.1969274    61.012392  0.030814339  0.033258524            3 
  166000    1.2382191    -7.203401    61.366005  0.030806227  0.033253008            1 
  167000    1.2453637   -7.1799062    61.553267  0.030715203  0.033242958            1 
  168000    1.2246738   -7.2328568    61.789144  0.030649377  0.033230998            2 
  169000    1.2135045   -7.1728073    62.082151  0.030612501  0.033216983            1 
  170000     1.233281   -7.2107193     62.33682  0.030557264  0.033202725            1 
  171000    1.1902002   -7.2173786    62.549347  0.030482138  0.033184518            2 
  172000    1.1905433   -7.1830497    63.020565  0.030533219  0.033165369            4 
  173000     1.245571   -7.1696952    63.878442  0.030769962    0.0331509            1 
  174000    1.2390027    -7.163333    64.143666  0.030720146  0.033137764            3 
  175000    1.2021223   -7.1887135    64.284945  0.030611879  0.033121709            2 
  176000    1.2230663   -7.1835351    64.697448  0.030633261  0.033106246            2 
  177000    1.2267452   -7.1978808    65.260537    0.0307253  0.033092537            1 
  178000     1.211088   -7.1772511      65.5961  0.030709785  0.033079982            2 
  179000    1.2373124   -7.2229644    65.509498  0.030497904   0.03306515            2 
  180000    1.1884473   -7.1995618    65.932516  0.030524313  0.033048015            2 
  181000    1.2125855   -7.1878821    66.341741   0.03054408    0.0330291            1 
  182000    1.2401536   -7.2615946    66.312056  0.030362663  0.033008386            2 
  183000    1.2108456   -7.2526259    66.830337  0.030432758  0.032988175            2 
  184000    1.2232676   -7.2198777     67.10852  0.030393351  0.032967966            3 
  185000    1.2252553   -7.2082995    67.544828  0.030425598  0.032946502            1 
  186000    1.2338045   -7.2027097    68.131034  0.030524657  0.032925476            1 
  187000    1.2191996   -7.2347225    68.013602  0.030309092   0.03290402            2 
  188000    1.2444905   -7.1907712    68.386528  0.030313177  0.032880036            1 
  189000    1.2081055    -7.198248    68.993727  0.030420514  0.032857056            1 
  190000    1.2138015   -7.1860132    69.560836  0.030509139  0.032834968            2 
  191000    1.2539977   -7.2291629     69.69445  0.030407701  0.032815282            1 
  192000    1.2032779   -7.2738374    69.801739  0.030295894  0.032794454            1 
  193000    1.2050407    -7.235829    70.470262  0.030427574  0.032772088            1 
  194000    1.2330968   -7.1786513    71.218686  0.030592219  0.032754682            1 
  195000    1.2604126   -7.1792969    71.793285  0.030680891  0.032741388            2 
  196000    1.1856049    -7.193675    72.245614  0.030716673  0.032730716            2 
  197000    1.2366917   -7.2007004    72.583322  0.030703605  0.032720624            1 
  198000    1.2185585   -7.2187023    72.608643  0.030559193  0.032709886            4 
  199000    1.2392014   -7.2370086    72.994508  0.030567214  0.032696447            4 
  200000    1.2191525   -7.2406165    73.322658  0.030551107  0.032681853            1 
  201000    1.2087261   -7.1716976    74.063841  0.030706402  0.032667802            1 
  202000    1.1837568   -7.2311275     73.94191  0.030504088  0.032652884            1 
  203000     1.187536   -7.2011931    74.522208  0.030592039  0.032637768            3 
  204000    1.2167595    -7.202368    74.849294  0.030575692  0.032624856            1 
  205000    1.1989499   -7.2122767    75.131324  0.030541189  0.032613789            3 
  206000    1.2212672   -7.1813416    75.923661  0.030713455  0.032602779            2 
  207000    1.2170693   -7.2130378    76.323862  0.030726192  0.032594178            3 
  208000    1.2258496   -7.2387868    76.728247  0.030740484  0.032586518            2 
  209000    1.2203992     -7.19512     77.09266    0.0307387  0.032577594            1 
  210000    1.2456239   -7.2192953    77.304805   0.03067651   0.03256873            1 
  211000    1.2208553   -7.2393776    77.768492  0.030714254  0.032559772            3 
  212000    1.2005148    -7.171453    78.349989  0.030797952  0.032553797            1 
  213000    1.2137297   -7.1995744    78.734885  0.030803946  0.032546836            2 
  214000    1.2224984   -7.2312184    78.908236  0.030727506    0.0325393            2 
  215000    1.2160591    -7.247489    79.209569  0.030701383  0.032530034            1 
  216000    1.2134638   -7.2574325    79.765061  0.030773558  0.032522353            1 
  217000    1.2286201   -7.2538838    80.113347  0.030765494   0.03251588            4 
  218000    1.2169801    -7.231094    80.523126  0.030781011  0.032508535            2 
  219000     1.218112    -7.206314    80.934155  0.030796862  0.032502392            2 
  220000    1.2273736   -7.2302952      81.3045  0.030797159  0.032496823            3 
  221000    1.2352241   -7.2129375    81.811116  0.030848837  0.032490185            2 
  222000    1.2243834   -7.2608107    82.199022  0.030855489  0.032485552            1 
  223000     1.189866   -7.1731994    82.635936  0.030880395  0.032480449            2 
  224000    1.2225994   -7.2235131    82.974874  0.030868629  0.032476028            2 
  225000    1.1943689   -7.2067824    83.238951  0.030829241  0.032469985            2 
  226000    1.1963948   -7.2248005    83.818088  0.030906375   0.03246456            3 
  227000    1.1821168    -7.217237    84.292179  0.030944265  0.032461367            3 
  228000    1.2218123   -7.2269325    84.753768  0.030977254   0.03245979            1 
  229000    1.2275436   -7.1922796    85.260964  0.031026552  0.032456543            1 
  230000    1.2020259   -7.2122485    85.480867  0.030971328  0.032453668            2 
  231000    1.2143441   -7.1746248    85.961097  0.031010497  0.032450939            2 
  232000    1.2058903   -7.2170102    86.398588  0.031033976  0.032448132            4 
  233000    1.2006265   -7.1888025    86.356223  0.030885631  0.032446187            2 
  234000    1.2361778   -7.2439877    87.033573  0.030994862  0.032443557            3 
  235000    1.2100922   -7.2242606    87.492697  0.031025779  0.032441906            2 
  236000    1.2283422   -7.2286953    87.898933  0.031037759  0.032439269            1 
  237000    1.2005143   -7.2321102     87.73658  0.030849712  0.032436034            2 
  238000    1.2247248   -7.1904483    88.651411   0.03104041  0.032434057       -1e+20 
  239000    1.2324714   -7.2753264    88.611971  0.030896782  0.032430648            2 
  240000    1.2057409   -7.2529282    89.149998   0.03095486  0.032427111            1 
  241000    1.1887896   -7.2138324    89.800149  0.031051227  0.032424839            1 
  242000    1.2451879   -7.1885213    90.503918  0.031165261  0.032423705            3 
  243000      1.20947   -7.2624191    90.123889  0.030906683  0.032420579            3 
  244000    1.2146552   -7.2393664    90.695632  0.030975284  0.032416329            5 
  245000    1.2071287   -7.2314645    90.849767  0.030901281  0.032412692            2 
  246000    1.1774054    -7.262747    91.335532  0.030940221  0.032408824            1 
  247000    1.1834926   -7.2163203    92.068973  0.031062406  0.032405591            1 
  248000    1.2152178   -7.2079511    92.324473  0.031023008  0.032403696            3 
  249000     1.227618   -7.2042436    92.606978  0.030992964  0.032402176            1 
  250000    1.2061671   -7.2313772    93.087873  0.031029291   0.03240093            4 
  251000    1.2076073    -7.229604    93.716739  0.031114455  0.032399849            1 
  252000    1.2304451   -7.2467195    94.064001   0.03110582   0.03239769            3 
  253000    1.2105756   -7.2000402    94.758424  0.031211602  0.032397198            2 
  254000    1.2129424   -7.2305433    95.127876  0.031209933   0.03239675            1 
  255000    1.1790167   -7.1894724    95.793119  0.031304941  0.032398002            2 
  256000    1.1799903   -7.2056831     96.31098   0.03135123  0.032401011            6 
  257000     1.204024   -7.2369495    96.601544  0.031323458   0.03240644            2 
  258000    1.2101438   -7.1732095    97.184832   0.03139045  0.032409536            4 
  259000    1.2490232   -7.2628974    97.086516  0.031237618  0.032412969            2 
  260000    1.2071796   -7.1888971    97.625144   0.03129011  0.032414495            2 
  261000    1.2417344   -7.2265967    97.872781  0.031249291  0.032415784            1 
  262000    1.2215753   -7.2494121    97.982476   0.03116491  0.032415392            2 
  263000    1.2322549   -7.2263502    97.932398  0.031030544  0.032413321            5 
  264000    1.2147427   -7.2496507    98.667179  0.031144943  0.032411887            3 
  265000    1.2094669   -7.2152548    98.601454  0.031006746  0.032408357            1 
  266000    1.2137314   -7.2786408    98.949556  0.030999234  0.032402371            2 
  267000    1.2007556    -7.287934    99.203244  0.030962311  0.032396646            2 
  268000    1.2066256   -7.2045528    100.15035  0.031141279  0.032391524            3 
  269000    1.2123475   -7.2327896     100.2128  0.031044856  0.032387357            2 
  270000    1.2012537   -7.2219605     100.0732  0.030886791   0.03238123            2 
  271000    1.2178034   -7.2211907    100.51451  0.030908522  0.032374971            2 
  272000    1.2151124   -7.2658902     100.6646  0.030840869  0.032368388            3 
  273000    1.2049749    -7.246113    101.22166  0.030897944  0.032361578            1 
  274000    1.2050064   -7.2650664    101.53864  0.030881581  0.032353841            1 
  275000    1.1980892   -7.2696126    101.70016   0.03081823  0.032346822            2 
  276000    1.2328671   -7.2628251    102.14866  0.030841986  0.032338848            1 
  277000    1.2118118   -7.2150681    102.58744  0.030862646   0.03233106            1 
  278000    1.1969847   -7.2518709    102.60776  0.030757723  0.032322497            1 
  279000     1.214444   -7.2021801    102.87427  0.030727083  0.032312425            2 
  280000    1.1907612   -7.2266475    103.54789  0.030817823  0.032302287            2 
  281000    1.1921759   -7.2258604    103.60081  0.030723846  0.032291407            1 
  282000    1.1993409   -7.2390947    103.68647  0.030640208  0.032279655            1 
  283000    1.1940946   -7.2501034     103.6836  0.030531094  0.032266441            1 
  284000    1.2244281   -7.2097307    104.46354  0.030652448  0.032252315            2 
  285000    1.2211938   -7.2472155    104.76645  0.030633464  0.032240598            1 
  286000    1.2154566    -7.255428    105.01489  0.030598745  0.032228396            2 
  287000    1.1914288   -7.2661803    105.02532  0.030495157  0.032215991            1 
  288000    1.2382839   -7.2763863    105.65664  0.030571943  0.032203193            2 
  289000    1.2332766   -7.2183112    106.10662   0.03059591  0.032190677            4 
  290000    1.2149752    -7.220888    106.59546  0.030630881  0.032179501            1 
  291000     1.205085   -7.2484703    106.88737  0.030609213  0.032167229            2 
  292000    1.1840721   -7.2230802    107.42476  0.030657752  0.032155395            2 
  293000    1.2130022    -7.238276    107.66526  0.030621518  0.032143276            2 
  294000    1.2185484   -7.2589113    107.77913   0.03054964  0.032130691            3 
  295000    1.1939667   -7.2457385    108.46558  0.030639995  0.032119062            1 
  296000    1.2210219   -7.2679848     108.2589  0.030478294  0.032107055            2 
  297000    1.1993789    -7.231216    108.82386  0.030534193  0.032093783            3 
  298000    1.2020059   -7.1989713    109.66383  0.030666618  0.032082276            4 
  299000    1.1950444   -7.2215514    109.57794  0.030540117  0.032069123            3 
  300000    1.1895138    -7.257555    109.70565  0.030473792  0.032054959            1 
  301000    1.2040459   -7.2771966    110.33501  0.030546792   0.03204235            2 
  302000    1.2192028    -7.192377    110.72365  0.030552883  0.032029822            7 
  303000    1.2034496   -7.2010413    111.01448  0.030532035  0.032016915            1 
  304000    1.2160321   -7.2571983      110.955  0.030415296  0.032003443            1 
  305000    1.2210287   -7.2600397    111.65804  0.030507662  0.031991725            1 
  306000    1.1878511   -7.1800472    112.26907  0.030574365  0.031979308            1 
  307000    1.2147996   -7.2658561    112.37091  0.030502419  0.031966843            1 
  308000    1.2312788   -7.2111759    113.12728  0.030608031  0.031954637            2 
  309000    1.2036086   -7.2704623    112.63467  0.030376125  0.031940497            1 
  310000    1.1797548   -7.2601472    112.68677  0.030292143  0.031926885            3 
  311000    1.2126769   -7.2174694    114.08318  0.030568911   0.03191315            6 
  312000     1.231873   -7.2938371    113.71155  0.030371676  0.031900599            1 
  313000    1.2202684   -7.2566411    114.75497  0.030552441  0.031888025            2 
  314000    1.2142816   -7.2194968    115.07809  0.030540894   0.03187719            2 
  315000    1.2325916   -7.2675526    114.81892  0.030375376  0.031865645            1 
  316000    1.2032236   -7.1909815     115.9212  0.030569936  0.031854324            2 
  317000     1.197477   -7.2390429    116.13016  0.030528433  0.031844017            6 
  318000    1.2282234   -7.2660267    116.28066  0.030471871   0.03183348            3 
  319000    1.2025308   -7.2705278    115.99581  0.030301935  0.031820988            2 
  320000    1.2061713   -7.2461598    117.09385  0.030493191  0.031810483            2 
  321000    1.1934631   -7.2610567    117.35513  0.030466026  0.031799529            2 
  322000    1.1741074   -7.2547902    117.89505  0.030511141  0.031787752            2 
  323000    1.1956638   -7.2527324    118.05978   0.03045918  0.031777472            7 
  324000    1.2030774   -7.2596802    118.43463  0.030461581   0.03176664            3 
  325000    1.2219424   -7.2640789    119.15638  0.030552918  0.031756535            3 
  326000    1.1914639   -7.3351601    119.14209  0.030455543  0.031745953            3 
  327000    1.1968417   -7.2408001    119.62385  0.030485182  0.031735869            1 
  328000    1.2167621   -7.2189067    119.58736  0.030382968  0.031724309            1 
  329000    1.1713506    -7.263514    120.00838   0.03039726  0.031711811            3 
  330000    1.1901353   -7.2833821    119.87431  0.030271289  0.031699219            2 
  331000    1.1944202   -7.2301999    120.18624  0.030258369  0.031685918            4 
  332000    1.1844507   -7.2659351    120.91189  0.030349371  0.031673454            1 
  333000    1.2063222   -7.2813807     120.9523  0.030268342  0.031661488            2 
  334000    1.2036536     -7.24129    121.38643  0.030286036  0.031649084            2 
  335000    1.1957655   -7.2427029    121.83988  0.030308428  0.031637082            1 
  336000    1.2079617   -7.2822838     121.6515  0.030171504  0.031624274            3 
  337000    1.2033552   -7.2734598    122.40089  0.030267283  0.031610789            2 
  338000    1.2090754   -7.2175725    122.69641  0.030250593  0.031597866            1 
  339000    1.2011805   -7.2455377    123.10635  0.030262132  0.031585749            3 
  340000    1.2135746    -7.295568    122.95726  0.030136584  0.031572542            2 
  341000    1.1841869   -7.2567442    123.68442  0.030225908  0.031559087            2 
  342000    1.2164869   -7.2470111    123.73318  0.030149409   0.03154584            1 
  343000    1.2119318   -7.2551897     124.2444  0.030185714   0.03153205            2 
  344000    1.1889337   -7.2687474    124.22793  0.030093974  0.031518139            3 
  345000    1.1725928   -7.3162452    124.38024  0.030043536  0.031503804            2 
  346000    1.1646911   -7.2551543    124.78423  0.030054005  0.031490293            2 
  347000    1.1885274   -7.2937417    125.40863  0.030117345  0.031476401            1 
  348000    1.2001263   -7.1883464    126.30601  0.030245691  0.031463594            3 
  349000    1.2190056   -7.2849219    125.57493  0.029984464  0.031450591            2 
  350000    1.2066168   -7.3475558    126.25356   0.03006037  0.031436748            2 
  351000    1.2040515   -7.2756395    127.12657  0.030181996  0.031423355            3 
  352000    1.1904481   -7.2659394    127.00688  0.030067916   0.03141066            2 
  353000    1.1919177   -7.2626697     127.6398  0.030132153  0.031398356            2 
  354000    1.2079368   -7.2934505    127.39466  0.029989328  0.031385427            4 
  355000     1.188045   -7.2833371    128.20772  0.030095708  0.031373304            2 
  356000    1.1967964    -7.276148     128.2826  0.030028699  0.031360318            2 
  357000    1.1963084   -7.2922271    128.57033  0.030011749  0.031346092            3 
  358000    1.2061751   -7.2565857     129.1875  0.030071578  0.031332449            2 
  359000    1.1771259    -7.278153    129.52193  0.030065443   0.03131947            2 
  360000    1.1859151   -7.2715744    129.53609  0.029985207  0.031305632            1 
  361000    1.1880822   -7.2441985    130.03212  0.030016648  0.031292786            4 
  362000    1.2051039   -7.2590195    130.32933  0.030002148  0.031280018            4 
  363000    1.1987799   -7.2621579    131.02405  0.030078983  0.031267803            2 
  364000    1.1684904   -7.3059193    130.68287  0.029918239  0.031254371            2 
  365000    1.1783461   -7.3102578    131.08317  0.029927665  0.031240679            2 
  366000     1.189476   -7.2845377    131.94616  0.030042386  0.031227154            2 
  367000    1.1841203   -7.2987166     132.3631    0.0300552  0.031214579            2 
  368000    1.1894175   -7.3069758    132.48353    0.0300008  0.031203099            1 
  369000    1.1692503   -7.2811668    132.75646  0.029981134  0.031191502            2 
  370000    1.2130129   -7.2744707    133.29434  0.030021249  0.031180308            2 
  371000    1.2088993   -7.2184254    133.77321   0.03004789  0.031169211            1 
  372000    1.1832357   -7.3202683    134.18943  0.030060357   0.03115819            1 
  373000    1.1872151   -7.2849966    134.31127  0.030006987  0.031147043            1 
  374000    1.1884049   -7.2450377    135.25178  0.030136314  0.031135996            1 
  375000    1.1807877   -7.2168175    135.29091  0.030064647  0.031125031            1 
  376000    1.1819011   -7.2579584    135.54611  0.030041247  0.031114173            2 
  377000    1.2108877   -7.3327149    135.60717   0.02997506  0.031103166            1 
  378000    1.1887862   -7.3515334    136.07249  0.029998345  0.031091816            1 
  379000     1.186613   -7.2775151    136.41337  0.029994144  0.031080923            1 
  380000    1.2074308   -7.2619498    136.63877  0.029964642  0.031069484            4 
  381000    1.2044821   -7.2554046    137.19874  0.030008472  0.031057884            3 
  382000    1.2099792   -7.2566442    137.10358  0.029909159  0.031046127            2 
  383000    1.1850422   -7.3002621    137.90794  0.030006079  0.031034984            1 
  384000    1.1918315   -7.2808653    138.15134  0.029980759  0.031024266            4 
  385000    1.1979635   -7.3221746    137.95298  0.029859953  0.031013988            2 
  386000    1.1929601   -7.3120475    138.43803  0.029887312  0.031002894            2 
  387000    1.1912298    -7.286424    139.26295  0.029987715  0.030992308            1 
  388000    1.1698846   -7.3376505    138.75413  0.029801145  0.030981475            1 
  389000    1.1724997    -7.288068    139.34173  0.029850413  0.030970415            3 
  390000    1.1958195   -7.2433187    140.62113   0.03004725  0.030959785            2 
  391000    1.2007583   -7.2874709     140.7985  0.030008206  0.030950019            5 
  392000    1.1764785   -7.3334125    140.44788  0.029857116  0.030939653            2 
  393000    1.1789333   -7.3419723    140.85248  0.029866937   0.03092883            2 
  394000    1.1597798   -7.2973458     141.3736  0.029901353  0.030918313            4 
  395000    1.1872061   -7.3005556    141.72359  0.029899491  0.030908167            1 
  396000    1.2183395   -7.3111371     141.8637  0.029853473  0.030897538            4 
  397000    1.2014158   -7.3317386    142.21362  0.029851726  0.030887585            3 
  398000     1.197302   -7.3096126     142.4892  0.029834423  0.030877672            1 
  399000    1.1895139   -7.2643382    143.06737  0.029880402  0.030867707            2 
  400000    1.1823002   -7.3300105    143.17395  0.029827906  0.030856394            2 
  401000    1.1682221   -7.2570863    144.06389  0.029938464  0.030846109            1 
  402000     1.207315   -7.2650696    144.32951  0.029919053  0.030836565            3 
  403000     1.166929    -7.268616    144.45973  0.029871739  0.030826833            1 
  404000    1.1872964     -7.30165    144.48016  0.029802013  0.030816073            1 
  405000    1.1853802   -7.2787977    144.51928  0.029736478  0.030805351            1 
  406000    1.1835527   -7.2984858    145.05066  0.029772304  0.030794191            5 
  407000    1.2000631   -7.2700671    145.65656  0.029823211  0.030782489            2 
  408000    1.1619641   -7.3363508    145.69021  0.029756988  0.030771547            2 
  409000    1.1899489   -7.3148104    145.89212  0.029725371  0.030760138            2 
  410000    1.1956124   -7.2949466    146.98201  0.029874392  0.030750222            2 
  411000    1.1853705   -7.2819365      146.947  0.029794606   0.03073947            2 
  412000    1.1837209   -7.3499894    147.15406  0.029764172  0.030728589            3 
  413000     1.181314   -7.3048591      147.206  0.029702582  0.030718541            2 
  414000    1.2187783   -7.3072358    147.79406  0.029749208  0.030708014            3 
  415000    1.2051339   -7.3090047    148.26653  0.029772395  0.030697576            2 
  416000    1.2029871   -7.2962672    148.39794  0.029727152  0.030688229            2 
  417000    1.1964126   -7.3007966    148.26344  0.029628985  0.030677969            3 
  418000    1.1936889   -7.2587556     149.9168  0.029887719  0.030667375            4 
  419000    1.1991413   -7.2946599    149.63573  0.029760487  0.030657437            2 
  420000     1.194953   -7.3088133    149.31373  0.029625741  0.030647143            2 
  421000    1.1913707    -7.312888    150.02699  0.029696554  0.030636566            2 
  422000    1.1894679   -7.3037472    150.25021  0.029670263  0.030625858            2 
  423000    1.1783522   -7.3181832    150.57368  0.029663845  0.030616023            4 
  424000    1.1975628   -7.2974183     150.9583  0.029669477  0.030605553            2 
  425000     1.165678   -7.3318844    151.44692  0.029695475  0.030595452            2 
  426000    1.2000948   -7.2908702    151.88168  0.029710814  0.030585691            1 
  427000    1.1901663    -7.288592    152.14853  0.029693313  0.030575952            3 
  428000    1.1872952   -7.2894655    152.66576  0.029724642  0.030566313            2 
  429000    1.1623407   -7.2665727    153.09603  0.029738934  0.030556585            2 
  430000    1.1701971    -7.298647    153.22595  0.029694952  0.030547686            2 
  431000    1.1784968    -7.289896    153.99942  0.029775604  0.030538577            2 
  432000    1.1722908   -7.3296669    154.59931  0.029822397  0.030530596            1 
  433000    1.1771702   -7.2897754    154.59168  0.029752055  0.030522262            2 
  434000    1.1988969   -7.2980979    154.48614  0.029663238  0.030513328            2 
  435000    1.1430833   -7.3009875    154.94997  0.029683902  0.030504609            4 
  436000    1.1856167    -7.270083    155.63216  0.029746207  0.030495665            2 
  437000    1.1910927   -7.2814656    155.60703  0.029673347  0.030486442            1 
  438000    1.1829174   -7.2944026    155.47513  0.029580505  0.030476802            2 
  439000    1.1915577   -7.3066845     156.2365   0.02965765  0.030467237            2 
  440000    1.1874048   -7.2844478    157.05738  0.029745716  0.030457965            4 
  441000    1.1624281   -7.3381416      157.017  0.029670636  0.030448596            3 
  442000    1.1536155   -7.2816399    157.68215  0.029728913  0.030439768            2 
  443000    1.2155583   -7.2825897    158.39152  0.029795244  0.030431163            4 
  444000    1.1710002   -7.3230907    157.16787  0.029498473  0.030422118            1 
  445000    1.1913705   -7.3191706    158.05534  0.029598377  0.030412645            2 
  446000    1.1732277   -7.3041326     158.7896  0.029669207  0.030403732            2 
  447000    1.1685771   -7.3085396    159.00566  0.029643113  0.030394516            4 
  448000    1.1918164   -7.3299951    159.52916  0.029674322  0.030385756            2 
  449000    1.2005916   -7.3412484     159.1482  0.029537527   0.03037675            1 
  450000    1.1883448   -7.3088618    159.86356  0.029604363  0.030367774            4 
  451000    1.1820321   -7.3121154    160.19918  0.029600734  0.030358698            3 
  452000    1.1895516   -7.3217223    160.82964  0.029651483  0.030349027            5 
  453000    1.1698315   -7.3081487    160.62753  0.029548847  0.030339545            2 
  454000    1.1887311   -7.2780572    160.83079  0.029521071  0.030329912            4 
  455000    1.1806521   -7.3274086    161.03459  0.029493515  0.030320532            1 
  456000    1.1686648    -7.314488    161.61818  0.029535487     0.030311            1 
  457000    1.1716324   -7.3314308    161.80219  0.029504411  0.030301142            1 
  458000    1.1790191    -7.305794    162.13946  0.029501357  0.030291299       -1e+20 
  459000    1.1763002   -7.3321021    162.50297  0.029503081  0.030282198            1 
  460000     1.198215   -7.2991959    162.87663  0.029506635  0.030273196            2 
  461000     1.183116   -7.3482295    163.34355  0.029527033  0.030263476            2 
  462000    1.1775811   -7.3301355    163.73823  0.029534313   0.03025486            1 
  463000    1.1737953   -7.3364054    163.68408  0.029460777  0.030246275            2 
  464000    1.1962258   -7.3407046    164.72809  0.029584786  0.030237458            1 
  465000    1.1527184   -7.3090168    164.52532  0.029484825  0.030228687            1 
  466000    1.1667272   -7.3200225    165.63428  0.029619863  0.030220607            1 
  467000    1.1739629   -7.3353215    164.94275  0.029433039  0.030212672            2 
  468000    1.1578402   -7.3469431    165.32262  0.029437789  0.030204731            3 
  469000    1.1753579   -7.3031106    165.91224  0.029479787  0.030195989            5 
  470000     1.172978   -7.3347096    165.89201  0.029413476   0.03018715            4 
  471000    1.1791561   -7.3333064    166.14554  0.029395885  0.030177888            4 
  472000    1.1745225   -7.3041823    166.15028  0.029334443   0.03016821            2 
  473000     1.205725   -7.3367453    166.72162  0.029373083  0.030158861            4 
  474000     1.160783   -7.3415165    167.40129  0.029430606  0.030149017            3 
  475000    1.1839298   -7.3018837    167.56933  0.029398129  0.030139213            5 
  476000    1.1994729   -7.3135867    167.93222  0.029399899  0.030130188            2 
  477000    1.1698018   -7.3134516    168.22752  0.029389853  0.030120331            1 
  478000    1.1732626   -7.3321092    168.84967  0.029436832  0.030110899            2 
  479000    1.1860495   -7.3434246    168.81787  0.029369845  0.030101925            1 
  480000    1.1811381   -7.3212957    169.77942  0.029475594   0.03009297            1 
  481000    1.1742982    -7.318864    170.09173  0.029468422  0.030084823            1 
  482000    1.1858545   -7.3496729     170.0413  0.029398566   0.03007615            1 
  483000    1.1447693   -7.2941715    170.40671  0.029400744  0.030067939            3 
  484000    1.1960026   -7.3033621    171.61251  0.029547608  0.030060046            5 
  485000    1.1756424    -7.341722    170.89916  0.029364117  0.030052052            1 
  486000    1.1729809   -7.3256177    171.36441  0.029383472  0.030043798            2 
  487000    1.1844335    -7.331017     171.6863  0.029378217   0.03003604            1 
  488000     1.179661   -7.3472281    172.29575  0.029422088  0.030028113            2 
  489000    1.1836546   -7.3007667    173.24941  0.029524439   0.03002059            1 
  490000    1.1845087   -7.3442009    172.93201  0.029410206  0.030012838            3 
  491000    1.1674204   -7.3419245     171.9548  0.029184453  0.030004724            3 
  492000    1.1716187   -7.3080436    173.05152  0.029310894  0.029996359            5 
  493000    1.1818619   -7.3171719    172.94574   0.02923356  0.029988147            3 
  494000    1.1591445   -7.3348065    174.20711  0.029387165  0.029979645            4 
  495000    1.1442518   -7.3678601    173.21674  0.029161068  0.029970226            1 
  496000    1.1819705   -7.2958621    174.91271  0.029387215  0.029961256            2 
  497000    1.1559895   -7.3429967    174.17855  0.029204989  0.029952111            2 
  498000    1.1648459   -7.3482202    174.17762  0.029146189  0.029942722            3 
  499000    1.1910159   -7.3393061    175.01564  0.029227729   0.02993344            2 
  500000    1.1738998   -7.3740628    175.02727  0.029171212  0.029923963            3 
  501000    1.1859091   -7.3490949    175.23394  0.029147363  0.029914084            1 
  502000     1.136682   -7.3173716    176.17485  0.029245492  0.029904887            2 
  503000    1.1456455   -7.3555862    176.21573  0.029194123  0.029895984            2 
  504000    1.1806539   -7.3699138    176.52644  0.029187573   0.02988644            1 
  505000    1.1994455   -7.3605262    176.46513  0.029119658  0.029876596            2 
  506000    1.1660736   -7.3325644    177.58552  0.029246628  0.029866948            2 
  507000    1.1607724   -7.3520832    177.31654  0.029144731  0.029857152            1 
  508000    1.1576853   -7.3336903    177.94202  0.029189964  0.029847758            3 
  509000    1.1962033   -7.3397316    177.62293  0.029080375  0.029838158            5 
  510000    1.1743201   -7.3275685    178.14717  0.029109014  0.029828518            3 
  511000    1.1688686   -7.3362425    178.26439  0.029071165  0.029818672       -1e+20 
  512000    1.1815844   -7.3389193    178.24874  0.029011838  0.029808823            1 
  513000    1.1906202   -7.3459796    178.82887  0.029049524  0.029799331            1 
  514000    1.1654585   -7.2967578    179.07647   0.02903315  0.029789442            2 
  515000     1.163453   -7.3035838    180.28079  0.029171648  0.029780115            1 
  516000    1.1773466   -7.3421429    179.84403  0.029044579  0.029770429            1 
  517000    1.1665475   -7.3523441     179.4552  0.028925725  0.029760324            2 
  518000    1.1673572   -7.3268303    180.54107  0.029044573  0.029750173            4 
  519000    1.1528302   -7.3241539    180.57825  0.028994581  0.029739511            3 
  520000    1.1613164    -7.323339    180.96183  0.029000293  0.029729149            1 
  521000    1.1608627    -7.364734    181.01858  0.028953708  0.029718898            2 
  522000    1.1619018   -7.3622607    181.65966  0.029000584  0.029708651            2 
  523000    1.1783452   -7.3352683    182.04292  0.029006201   0.02969855            2 
  524000    1.1728659   -7.3522799    181.99318  0.028942936  0.029688364            2 
  525000    1.1666829   -7.3105763    182.71253  0.029001989  0.029678121            1 
  526000    1.1752852   -7.2929078    182.96328  0.028986578  0.029668266            2 
  527000    1.1964576   -7.3269551    182.91188  0.028923447  0.029658439            1 
  528000    1.1825716   -7.3340787    183.42361  0.028949434  0.029648476            3 
  529000    1.1547881   -7.3824784    182.89276  0.028811083  0.029638824            2 
  530000    1.1538343   -7.3341072    184.93532   0.02907788  0.029629084            3 
  531000    1.1571645   -7.3382525    184.16223  0.028901794  0.029619811            1 
  532000    1.1722617   -7.3386221    184.45222  0.028892891  0.029610063            2 
  533000     1.186175   -7.3406035    185.44116  0.028993302  0.029600527            3 
  534000    1.1731115   -7.3479113    185.95716  0.029019531  0.029591497            2 
  535000    1.1654758   -7.3392818    185.64122  0.028916077  0.029582492            4 
  536000    1.1535035    -7.337799    186.35424  0.028972985  0.029573523            1 
  537000     1.175308   -7.3263571    187.66342  0.029122195   0.02956478            2 
  538000    1.1849841   -7.3443609     187.6895  0.029072104  0.029556676            1 
  539000    1.1500247   -7.3760199    187.47049  0.028984306  0.029548705            7 
  540000    1.1847817   -7.3832715    187.61305  0.028952631  0.029540104            3 
  541000    1.1654469   -7.3181633    188.64302  0.029057766  0.029532293            3 
  542000    1.1507139   -7.3291912    188.53714  0.028987875  0.029524656            3 
  543000    1.1518719   -7.3206902    189.06853  0.029016042  0.029516356            2 
  544000    1.1651495   -7.3623663    189.26373  0.028992606  0.029508473            3 
  545000    1.1612504   -7.3429448    189.68907  0.029004445  0.029500361            1 
  546000    1.1526342   -7.3623836    189.79773  0.028967907  0.029492207            2 
  547000    1.1664528   -7.3245985    190.22569  0.028980147  0.029483876            1 
  548000    1.1615138   -7.3541925    190.58056  0.028981228  0.029475592            2 
  549000    1.1402956   -7.3464093    190.71045  0.028948155  0.029467404            4 
  550000     1.169309   -7.3312842    191.06834  0.028949749  0.029459242            2 
  551000    1.1359105   -7.3261605    191.67233  0.028988556  0.029451273            1 
  552000    1.1642788   -7.3830048    191.13304  0.028854626  0.029443291            2 
  553000     1.164368   -7.3524476    191.76636  0.028897884  0.029435196            1 
  554000    1.1920399   -7.3464303    192.50799  0.028957278  0.029427671            1 
  555000    1.1561978   -7.3154188    193.76101  0.029093245  0.029420525            3 
  556000    1.1923598   -7.3612366    193.35546  0.028980134  0.029412745            2 
  557000    1.1715024    -7.342295    193.30204  0.028920114  0.029405274            3 
  558000     1.144742   -7.3708642    193.30786  0.028869155   0.02939783            1 
  559000    1.1607374   -7.3217667    194.50845  0.028996489  0.029390887            2 
  560000    1.1527636   -7.3699927     195.2961   0.02906192   0.02938451            1 
  561000    1.1561985   -7.3694082    195.18103  0.028993023  0.029378347            1 
  562000     1.169154    -7.385801    195.25932  0.028953042  0.029371967            4 
  563000    1.1494997   -7.3670658     196.0965  0.029025533  0.029365486            1 
  564000    1.1664486   -7.3363847    196.00699  0.028960844  0.029359148            1 
  565000    1.1420195   -7.3367825    197.29521  0.029099588  0.029352534            3 
  566000    1.1823491   -7.3272007    196.84269  0.028981551  0.029345772            2 
  567000    1.1596598    -7.387153    196.86528  0.028933757  0.029338399            2 
  568000    1.1764448   -7.3605373    196.71353  0.028860553    0.0293307            1 
  569000    1.1669327   -7.3850956    196.53832  0.028784171  0.029322924            3 
  570000    1.1770383   -7.3620411     196.5889  0.028741067  0.029314818            1 
  571000    1.1544378   -7.3401966    197.33817  0.028800083  0.029306814            1 
  572000    1.1539173   -7.3658869    197.05416  0.028708357  0.029298863            5 
  573000    1.1762625   -7.4081396     197.4799  0.028720171  0.029290531            3 
  574000    1.1461499   -7.3545654     198.3043  0.028789823  0.029282042            3 
  575000    1.1525936   -7.3406095    198.72959   0.02880139   0.02927407            1 
  576000    1.1454096   -7.3715069    198.72076   0.02875011  0.029266124            6 
  577000     1.153081   -7.3401217    199.75566  0.028849749  0.029258578            3 
  578000    1.1876485   -7.3370592    200.36921  0.028888295  0.029251096            2 
  579000    1.1560363   -7.3707228    201.06392  0.028938388  0.029244487            1 
  580000    1.1414003   -7.3676045    200.77731  0.028847314  0.029237554            1 
  581000    1.1481152   -7.3268626    200.82323   0.02880425  0.029230616            2 
  582000    1.1688629   -7.3696312    201.25653  0.028816799  0.029223852            2 
  583000    1.1587571    -7.369171    202.17292  0.028898359  0.029217295            5 
  584000    1.1473411   -7.3157128    202.45598  0.028889267  0.029210555            2 
  585000     1.152394    -7.382029    201.43573  0.028694548   0.02920364            2 
  586000    1.1520487   -7.3607264    202.38923  0.028781176   0.02919614            2 
  587000    1.1561181   -7.3564839    203.18575  0.028845223  0.029188865            2 
  588000    1.1789995   -7.3915749    202.72646  0.028731075  0.029181441            4 
  589000    1.1352496    -7.386867     203.0567  0.028729018  0.029173938            9 
  590000    1.1546631   -7.3763085    203.27336  0.028710927  0.029166314            2 
  591000    1.1598337   -7.3928922    203.43714  0.028685439    0.0291591            5 
  592000    1.1660809   -7.3774106    203.83781  0.028693385  0.029151944            4 
  593000    1.1603098   -7.3779911    204.64469  0.028758389  0.029145262            2 
  594000    1.1359248   -7.4022641    204.90994  0.028747186  0.029138083           10 
  595000    1.1695364    -7.334118    205.50829  0.028782674  0.029130636            1 
  596000    1.1443987   -7.3735699    204.88428  0.028647131  0.029122961            2 
  597000     1.158294   -7.3248575    205.22098  0.028646145  0.029114841            1 
  598000    1.1777165   -7.4040606    205.37115  0.028619168  0.029106975            1 
  599000    1.1478529   -7.3706242    205.36592  0.028570662  0.029099189            3 
  600000    1.1517826   -7.4050926     205.4625  0.028536459  0.029090929            4 
  601000    1.1546815   -7.3489134    206.74488  0.028666789  0.029082835            1 
  602000    1.1311348   -7.3890058    206.30821  0.028558723  0.029074361            2 
  603000    1.1467195   -7.3529339    206.38029  0.028521323  0.029065535            3 
  604000    1.1641931   -7.3898762    206.36458  0.028471935  0.029056755            2 
  605000    1.1591235   -7.3459991    207.27793  0.028550679  0.029047868            2 
  606000    1.1705913   -7.3494602    207.27937  0.028503764   0.02903881            2 
  607000    1.1519665   -7.3800744    207.28609  0.028457728   0.02903002            1 
  608000    1.1506513   -7.3441378    207.98438  0.028506631   0.02902129            2 
  609000    1.1581069   -7.3658138    208.07716  0.028472518  0.029012568            3 
  610000    1.1722103   -7.3686329    208.08103   0.02842637   0.02900365            2 
  611000    1.1514768   -7.4030767    207.47817  0.028297623  0.028994544            1 
  612000    1.1621499   -7.3678995       208.76  0.028425927  0.028984936            3 
  613000    1.1432878   -7.3855552    209.26599   0.02844834  0.028976013            1 
  614000     1.159117   -7.3886472    209.05032  0.028372737  0.028966792            4 
  615000    1.1669842   -7.3530203    210.01167  0.028456865  0.028957739            2 
  616000    1.1524821   -7.3966417    209.84196  0.028387712  0.028948713            2 
  617000    1.1455883   -7.3726723    209.69142   0.02832137  0.028939941            3 
  618000    1.1553602   -7.3598282     211.0859  0.028463579   0.02893073            3 
  619000    1.1452606   -7.3864868    210.74989   0.02837236  0.028922257            2 
  620000    1.1720788   -7.3755764    211.35508  0.028407941  0.028913888            2 
  621000    1.1753619   -7.3543585    212.83699  0.028561056  0.028905632            1 
  622000    1.1447598   -7.3726951    212.55364  0.028477175  0.028898053            1 
  623000    1.1723651   -7.3910956    213.23054  0.028522009  0.028890315            2 
  624000    1.1774359   -7.4106496    212.89562  0.028431573  0.028883134            1 
  625000    1.1470357   -7.3814611    213.19671  0.028426228   0.02887589            2 
  626000    1.1429246   -7.3879204    213.66907    0.0284437  0.028868079            1 
  627000    1.1607965   -7.3823967    213.96042  0.028437058  0.028860174            1 
  628000    1.1484409   -7.3834168    214.47925  0.028460623  0.028852643            2 
  629000    1.1662676   -7.4131878    214.18763   0.02837674  0.028845011            2 
  630000    1.1647187   -7.3656113    215.10423  0.028452941  0.028836951            1 
  631000    1.1627545   -7.3485631    215.07662  0.028404203  0.028829212            1 
  632000    1.1068931   -7.3288094    215.98586  0.028479148  0.028821401            2 
  633000    1.1532671   -7.3735551    215.31747  0.028346166  0.028813565            1 
  634000    1.1675685   -7.3972394    215.46716   0.02832113  0.028804991            3 
  635000    1.1440655   -7.3993218    215.33154  0.028258732  0.028796673            1 
  636000    1.1650885   -7.3816524    216.11981  0.028317586  0.028788348            2 
  637000     1.148065   -7.3882229    216.56183  0.028330956  0.028780207            1 
  638000    1.1412431   -7.3348148    217.40223   0.02839632   0.02877226            2 
  639000    1.1556477    -7.413204    217.16388  0.028320797  0.028764423            1 
  640000    1.1429109   -7.3924713    216.84059  0.028234452  0.028755989            1 
  641000    1.1434623   -7.3950911    217.43428  0.028267587  0.028747412            3 
  642000    1.1413705   -7.4028149    217.76383  0.028266333  0.028738884            1 
  643000    1.1290101   -7.4022521    218.04599  0.028258942  0.028730922            2 
  644000    1.1674357   -7.3977328    218.54987  0.028280263  0.028723125            3 
  645000    1.1500151   -7.4355158    219.15423    0.0283145  0.028715372            4 
  646000    1.1290769   -7.4076696     220.2208  0.028408256  0.028708118            1 
  647000    1.1596856    -7.393852    219.99722  0.028335551  0.028700804            5 
  648000    1.1529202   -7.3699664    220.23916  0.028322938  0.028693729            2 
  649000    1.1357162   -7.3864711    220.73802  0.028343351   0.02868652            2 
  650000     1.156312   -7.3841426    221.22977  0.028362791  0.028679052            2 
  651000    1.1538469   -7.4153313    221.37129  0.028337339  0.028671971            2 
  652000    1.1783249   -7.4489686    220.66257  0.028203294  0.028664947            3 
  653000    1.1526069   -7.3603917    222.25451  0.028363261  0.028657775            2 
  654000    1.1490415    -7.401762    222.07327  0.028296798  0.028650834            1 
  655000     1.137343   -7.3601777    223.28134  0.028407295  0.028644061            3 
  656000     1.150394   -7.4482224    221.89275  0.028187595  0.028636833            1 
  657000    1.1422528   -7.3986785    223.18201   0.02830822  0.028629516            1 
  658000     1.124751   -7.3727193    223.40145   0.02829299   0.02862252            5 
  659000    1.1464541   -7.3688246    224.45148  0.028382837  0.028616017            2 
  660000    1.1589516   -7.4294361    223.73339  0.028249166  0.028609462            3 
  661000      1.12944   -7.3614794    225.10984  0.028379959  0.028603149            2 
  662000    1.1530187   -7.4135439    225.22842  0.028352017  0.028596765            3 
  663000    1.1528623   -7.4296281    224.77959  0.028252839  0.028590372            2 
  664000    1.1485917    -7.419233     225.3679  0.028284124  0.028584104            2 
  665000    1.1540937   -7.3833803     226.1188  0.028335689  0.028577315            1 
  666000    1.1501441   -7.4441644    225.26652  0.028186502  0.028570308            1 
  667000    1.1526237    -7.394345    226.25349  0.028267553  0.028563156            8 
  668000    1.1556048   -7.3642621    227.26047  0.028350858   0.02855646            2 
  669000    1.1447837   -7.3710621    227.29132  0.028312322  0.028549954            1 
  670000    1.1579613   -7.3525873    227.87056  0.028342109  0.028543516            3 
  671000    1.1749662   -7.4315442    226.73115  0.028158365   0.02853657            2 
  672000    1.1579323    -7.412777    227.72856  0.028240149  0.028529604            2 
  673000    1.1698928   -7.4212577    227.07886   0.02811774  0.028522701            3 
  674000    1.1279169   -7.3666488    228.84912  0.028294896  0.028515775            2 
  675000    1.1479304   -7.3973578    228.31434  0.028186956  0.028508786            2 
  676000    1.1534084   -7.3852892    229.64354  0.028309115  0.028502141            2 
  677000    1.1489276   -7.3745381    229.07553  0.028197382  0.028495366            3 
  678000    1.1606292   -7.4330886    229.55368  0.028214562  0.028488658            6 
  679000    1.1471258   -7.3901159    228.04787  0.027988202  0.028481416            3 
  680000    1.1307379   -7.4121361     229.4798  0.028122524  0.028473829            2 
  681000    1.1248589   -7.4035335    229.80077  0.028120505  0.028466655            1 
  682000    1.1581594   -7.3907503    231.18925  0.028248931  0.028459432            2 
  683000    1.1604147   -7.3912738    230.91149  0.028173681  0.028452239            2 
  684000    1.1143631   -7.4262926    230.75063  0.028112894  0.028445052            1 
  685000    1.1487619    -7.453067     230.3239  0.028019939    0.0284381            1 
  686000    1.1363899   -7.4424514    230.36157  0.027983669  0.028431051            3 
  687000    1.1451871    -7.441847    232.11825  0.028156023  0.028424137            3 
  688000    1.1499984   -7.4352148    231.85207  0.028082857   0.02841749            3 
  689000    1.1453555   -7.4185293    233.20077  0.028205222  0.028411005            1 
  690000    1.1537937   -7.4091666    233.17545  0.028161286  0.028404589            2 
  691000    1.1286668   -7.4307521    234.09718  0.028231691  0.028398623            2 
  692000    1.1202317    -7.422055    233.75414  0.028149584  0.028392547            5 
  693000    1.1314691   -7.4359499    234.82126  0.028237285   0.02838643            3 
  694000    1.1574646   -7.4070253     235.0389  0.028222731  0.028380885            3 
  695000    1.1414443   -7.4409034    234.60498  0.028130093  0.028374955            1 
  696000      1.14011   -7.4519315    235.37431   0.02818179   0.02836919            2 
  697000    1.1189198   -7.4440293    236.28836  0.028250641  0.028363243            2 
  698000    1.1194178   -7.4092708    236.18343   0.02819764  0.028357493            1 
  699000    1.1528732   -7.4624601    236.19945  0.028159209    0.0283518            2 
  700000    1.1582774   -7.3957345    237.30471  0.028250561  0.028346138            2 
  701000     1.149475   -7.3922576    237.25268  0.028204076  0.028340488            2 
  702000    1.1176291   -7.4192876    238.36014  0.028295363  0.028335644            1 
  703000    1.1259291   -7.4167936    237.70483  0.028177433  0.028330429            1 
  704000    1.1381168   -7.3998613    238.80556  0.028267703  0.028325526            3 
  705000    1.1551816   -7.3735452    239.32309  0.028288781  0.028321085            2 
  706000    1.1459069   -7.4333544     239.2875  0.028244512  0.028316154            4 
  707000     1.145319   -7.4224295    238.15281  0.028070817  0.028310842            1 
  708000     1.139276   -7.4156531    239.52619  0.028192819  0.028305609            3 
  709000    1.1319998   -7.3941235    240.07355  0.028217389  0.028300389            2 
  710000    1.1619351   -7.4452965    240.01381  0.028170635  0.028294802            2 
  711000    1.1218709   -7.4792096    238.86932  0.027996873  0.028288887            2 
  712000     1.118777   -7.4365221    240.53849  0.028152914  0.028283198            3 
  713000    1.1078582   -7.4208989    241.33319   0.02820631  0.028278264            2 
  714000    1.1598952   -7.4044637    241.16534  0.028147215   0.02827355            1 
  715000     1.127356   -7.4017372    242.31602  0.028241961  0.028268707            3 
  716000    1.1643087   -7.4096788    242.62777    0.0282388  0.028263891            2 
  717000    1.1353306   -7.3824594    242.66814  0.028204108  0.028259321            1 
  718000    1.1560612    -7.462755    242.58302  0.028154947  0.028254758            4 
  719000     1.147954   -7.3976083    243.65732  0.028240302  0.028250003            2 
  720000    1.1304187   -7.4123413    243.58617  0.028192843  0.028245392            1 
  721000    1.1455372   -7.4528237    243.78612  0.028176852  0.028240371            3 
  722000    1.1104323   -7.4395735    243.23836  0.028074603  0.028235353            1 
  723000    1.1540663   -7.4032098    244.52922  0.028184558  0.028230535            7 
  724000    1.1284844   -7.4212236    245.14825   0.02821688  0.028225759            3 
  725000    1.1353328   -7.4184525    244.92164  0.028151913  0.028220953            3 
  726000    1.1457415   -7.4363449    245.41197  0.028169418  0.028216188            5 
  727000    1.1403721    -7.386917    246.58352  0.028264961  0.028211748            1 
  728000    1.1299792   -7.4210356    246.03216  0.028163022  0.028207302            3 
  729000    1.1379455   -7.4005325    246.80027  0.028212194  0.028202466            4 
  730000    1.1232992   -7.4327541    246.68248  0.028160101    0.0281978            1 
  731000    1.1265851   -7.4039847    246.70453  0.028124092  0.028193242            4 
  732000    1.1278277   -7.4355916    247.00599  0.028119989  0.028188532            2 
  733000    1.1623022   -7.4726076    246.67362   0.02804384    0.0281833            4 
  734000    1.1379336   -7.4510044    247.55442  0.028105633  0.028177962            2 
  735000      1.13727   -7.3910746    247.48059  0.028059024  0.028172663            4 
  736000    1.1216746   -7.4662926     247.3469  0.028005763  0.028167336            2 
  737000    1.1245122   -7.4242116    247.55359  0.027991134   0.02816201            2 
  738000     1.130223   -7.4433634    249.11422  0.028129429   0.02815699            2 
  739000     1.129087   -7.4718244    248.03088  0.027969201  0.028151731            3 
  740000    1.1252136   -7.3963126    249.07456  0.028048937  0.028146653            2 
  741000    1.1363091   -7.4283227    248.08985  0.027900343  0.028140947            3 
  742000    1.1138066     -7.43294    248.47694  0.027906216  0.028135029            2 
  743000    1.1266347   -7.4527929    248.11579   0.02782815  0.028129017            3 
  744000    1.1179168   -7.4273213    249.79531  0.027978865  0.028122942            1 
  745000    1.1298587   -7.4101344    249.87487  0.027950209  0.028116989            2 
  746000    1.1277229   -7.4619523    249.26125  0.027844197   0.02811108            3 
  747000    1.1140718    -7.473673    250.11957  0.027902674  0.028105182            1 
  748000    1.1433378    -7.428349     250.2198  0.027876538  0.028099239            3 
  749000    1.1293221   -7.3636599    251.94665  0.028031447  0.028093758            1 
  750000     1.112166   -7.4367048    251.27462  0.027919402  0.028088127            1 
  751000    1.1186982    -7.453263    251.37684  0.027893569  0.028082447            2 
  752000    1.1353391   -7.4525602    251.07368  0.027822882  0.028076422            2 
  753000    1.1292994   -7.4539634    252.03581  0.027892409  0.028070195            1 
  754000    1.1389451   -7.4432782    251.93357  0.027844117  0.028064299            5 
  755000    1.1178659   -7.4160068    252.81009  0.027903984  0.028058551            2 
  756000     1.120777   -7.4788624    251.99938   0.02777771  0.028052538            2 
  757000    1.1269244   -7.4595823    252.64978  0.027812614  0.028046322            2 
  758000    1.1311864   -7.4054133    253.75009  0.027896888  0.028039979            1 
  759000    1.1212506   -7.4576755    253.64138  0.027848197  0.028033903            1 
  760000    1.1191039   -7.4922842    253.23326  0.027766805   0.02802756            1 
  761000    1.0960775   -7.4590004    253.75123  0.027787037  0.028021188            2 
  762000    1.1197087   -7.5152147    253.52062  0.027725352  0.028014815            2 
  763000    1.1418012    -7.489741    253.78878  0.027718303  0.028008073            4 
  764000    1.1387067   -7.4308764    254.83767   0.02779643   0.02800126            2 
  765000    1.1191395   -7.4306928    254.77917  0.027753722  0.027994875            2 
  766000     1.112229   -7.4097158    255.51937  0.027798016  0.027988379            3 
  767000     1.097756   -7.4404833    255.92844  0.027806219  0.027982044            1 
  768000     1.139907   -7.4885738    255.88009  0.027764767  0.027975705            1 
  769000     1.120462   -7.4220182    256.34076  0.027778582  0.027969422            3 
  770000    1.1140573   -7.4427765    256.26603  0.027734419  0.027963473            2 
  771000    1.1434368    -7.417652    257.00281  0.027778082   0.02795739            3 
  772000    1.1292802   -7.4388571    256.59568  0.027698152  0.027951355            8 
  773000    1.1266858   -7.4624215    257.46136  0.027755645  0.027945456            3 
  774000     1.129887   -7.4657919    256.15398  0.027579024  0.027939051            1 
  775000    1.1402698   -7.4297879    257.53141   0.02769155  0.027932658            4 
  776000     1.126029   -7.4149573    258.68027  0.027779238  0.027926596            2 
  777000    1.1585416   -7.4291385    258.45311  0.027719124  0.027920507            1 
  778000    1.1236847   -7.4333025    259.07025  0.027749598   0.02791414            1 
  779000    1.1203539   -7.3890684    259.18838  0.027726614  0.027907789            4 
  780000    1.1209206    -7.427151    258.75219  0.027644465  0.027901578            2 
  781000    1.1162584   -7.4380334     259.5701   0.02769634  0.027895199            1 
  782000    1.1249305   -7.4589543    258.98177  0.027598228  0.027888824            2 
  783000    1.1610571   -7.4422511    259.58301  0.027626969  0.027882518            3 
  784000    1.1112846     -7.45422    259.14204   0.02754486  0.027875613            1 
  785000    1.1226918   -7.4377087    261.12304  0.027720068   0.02786927            1 
  786000    1.1491832   -7.4786007    261.11471  0.027683918  0.027862767            2 
  787000    1.1310957   -7.4684921    260.99367  0.027635924  0.027856618            2 
  788000    1.1316168   -7.4392148     261.8326  0.027689573  0.027850581            4 
  789000    1.1586615    -7.458342    261.55164  0.027624803   0.02784419            1 
  790000    1.1302993   -7.4856633    261.99913  0.027637039  0.027837895            1 
  791000    1.1084186   -7.4406063    263.06455  0.027714344  0.027831688            3 
  792000    1.1030636   -7.4472654    262.92624  0.027664798  0.027825955            3 
  793000    1.1342764   -7.4317622    263.81553  0.027723363  0.027820026            6 
  794000    1.1276209   -7.4451866     263.7204  0.027678464  0.027814462            1 
  795000    1.1414868   -7.4542118    264.54662  0.027730253  0.027809085            3 
  796000    1.1111758   -7.4655915    265.15422  0.027759026  0.027803364            3 
  797000    1.1348686   -7.4467829    264.18345  0.027622694  0.027797517            3 
  798000     1.146498   -7.4531123    264.52785  0.027624044  0.027791601            1 
  799000     1.138961   -7.4548342    264.62582  0.027599689  0.027785389            2 
  800000     1.101853    -7.456767    263.98097  0.027498017   0.02777919            1 
  801000    1.1416824    -7.422673    265.98416  0.027672093  0.027772942            5 
  802000    1.1394111   -7.4624381    264.72602  0.027506859  0.027766922            4 
  803000    1.1397456   -7.4569122     266.5105  0.027657794   0.02776097            8 
  804000     1.117864    -7.470827    266.38069  0.027609939   0.02775522            2 
  805000    1.1244037   -7.4487587    265.99102  0.027535303  0.027749364            1 
  806000    1.1175393   -7.4164488    267.24677  0.027630973  0.027743383            4 
  807000    1.1342045   -7.4818421    266.65893  0.027536031  0.027737349            1 
  808000    1.1302064   -7.4328882    268.18632  0.027659481  0.027731644            2 
  809000    1.1178545   -7.4564879    268.08148  0.027614491   0.02772622            3 
  810000    1.1051796   -7.4268337     269.4099  0.027717068  0.027720865            8 
  811000    1.1210947   -7.4427703    268.64979  0.027604787  0.027715615            2 
  812000    1.0984168   -7.4745261     268.5884  0.027564491  0.027710362            2 
  813000    1.1139093   -7.4395255    268.42265  0.027513596  0.027704832            3 
  814000    1.1147809   -7.4736127    269.09704  0.027548837  0.027698846            2 
  815000    1.1205392   -7.4663066    268.84715  0.027489484  0.027692753            3 
  816000    1.0981148   -7.4489851     269.5787  0.027530505  0.027686721            2 
  817000    1.1484252   -7.4715964    269.36079  0.027474581  0.027680748            3 
  818000    1.1437294   -7.4389584    270.27306   0.02753393  0.027674626            1 
  819000    1.1164864   -7.4267795    270.51298  0.027524723  0.027668461            1 
  820000    1.1072147   -7.4356519    270.56462  0.027496404  0.027662314            1 
  821000    1.1138321   -7.4519699    270.65681   0.02747227  0.027656065            3 
  822000    1.1651456   -7.4832825    271.11665  0.027485467  0.027649964            2 
  823000    1.1137367    -7.451964    270.78479  0.027418468  0.027643648            3 
  824000    1.1212309   -7.4698615    270.66906  0.027373489  0.027637088            2 
  825000    1.1280086   -7.4205455    271.79051  0.027453587   0.02763088            3 
  826000    1.1161364   -7.4784273    270.91083  0.027331601   0.02762446            1 
  827000    1.1266514   -7.4400647    272.75197  0.027484076  0.027618102            1 
  828000    1.1275578   -7.4825872    272.65523  0.027441147  0.027611874            3 
  829000    1.1338482   -7.4770361    272.35979  0.027378347  0.027605576            2 
  830000     1.135828   -7.4544206    273.24026  0.027433762  0.027599693            2 
  831000      1.11944   -7.4731994    273.00868  0.027377525  0.027593572            2 
  832000    1.1025154   -7.4761462     273.1763  0.027361408  0.027587141            1 
  833000    1.1024691   -7.4303002    273.23642  0.027334576  0.027580911            3 
  834000    1.1225857   -7.4190663    274.73823  0.027451862  0.027574659            3 
  835000    1.0992935   -7.4695523     274.5224  0.027397445  0.027568632            2 
  836000    1.0981271   -7.4888762    274.28555  0.027341063  0.027562261            2 
  837000    1.1315202   -7.5025958    273.98063   0.02727804  0.027556017            2 
  838000    1.1094545   -7.5329784     274.1765  0.027264967  0.027549623            2 
  839000    1.1161192    -7.460167    275.03788  0.027318025  0.027543432            3 
  840000    1.1560589   -7.4879933    276.61747  0.027442209  0.027537426            1 
  841000    1.1290441   -7.4380052    277.21763  0.027469048  0.027531467            1 
  842000    1.1238042   -7.4563791     276.6948   0.02738468   0.02752562            4 
  843000    1.1155418    -7.438827    276.73524  0.027356192  0.027519852            3 
  844000    1.0867538    -7.466967    277.41367  0.027390765  0.027514122            2 
  845000    1.1171473    -7.484701    277.66173  0.027382814  0.027508336            1 
  846000    1.1255451   -7.4572861    277.87112  0.027371071  0.027502596            2 
  847000    1.1264916   -7.4528834    277.98036  0.027349504  0.027496742            3 
  848000    1.1069123   -7.5013955     277.7431  0.027293936  0.027490605            5 
  849000    1.1200819   -7.5049322    277.04678  0.027193441  0.027484313            3 
  850000    1.1321778   -7.4916477    278.05488  0.027260283  0.027478004            5 
  851000     1.110208   -7.4631675    279.40712  0.027360666  0.027471584            2 
  852000    1.1198292   -7.4054077    279.39189  0.027327063  0.027465176            1 
  853000    1.1410416   -7.4866566    278.31752  0.027190067  0.027458475            2 
  854000    1.1001208   -7.4881779      279.099  0.027234485  0.027451736            3 
  855000    1.0986817    -7.464192    279.60648  0.027252094  0.027444874            3 
  856000    1.1042673   -7.4680608    278.48616  0.027111191     0.027438            3 
  857000    1.1223981   -7.5265695    278.73374  0.027103631  0.027431094            3 
  858000    1.1080842   -7.5160819    278.64424  0.027063349  0.027423934            2 
  859000     1.122549   -7.5057477    279.71165  0.027135395  0.027416928            3 
  860000    1.1076095   -7.4841776    279.94218   0.02712618  0.027410304            2 
  861000    1.1239985   -7.4664415    280.74327   0.02717221  0.027403491            6 
  862000    1.1176214   -7.4659288    280.69787  0.027136298   0.02739653            1 
  863000    1.1148826   -7.4246661    281.14014  0.027147561  0.027389782            1 
  864000    1.1394295   -7.5057428    281.13551  0.027115694  0.027382848            1 
  865000    1.1289044   -7.4969934    281.54166  0.027123474  0.027375782            2 
  866000    1.1036034    -7.508035    280.85294  0.027025879  0.027368823            2 
  867000    1.1281541   -7.4556938    281.60373  0.027066872  0.027361911            2 
  868000    1.1248363   -7.4950619    281.38028  0.027014236   0.02735493            1 
  869000    1.1320976   -7.4817264    282.20922  0.027062641  0.027347809            2 
  870000    1.0883076   -7.5125601     281.8433  0.026996484  0.027340681            2 
  871000    1.1103576   -7.4924081    283.46063  0.027120228  0.027333736            2 
  872000    1.1196603   -7.4762746    283.05778  0.027050629  0.027326641            2 
  873000    1.1230783   -7.5135778    282.50425  0.026966805  0.027319403            4 
  874000    1.0779161   -7.5444878    283.20323  0.027002596  0.027312068            8 
  875000    1.1217004   -7.4835815    283.76286  0.027025034  0.027304914            1 
  876000    1.1269987   -7.4590017    283.98152  0.027014985  0.027297946            1 
  877000    1.1319962   -7.4768576    284.04796  0.026990494  0.027290796            5 
  878000    1.1188479   -7.4777982    285.14648  0.027064017  0.027283872            8 
  879000    1.1323051   -7.4847512    283.85919  0.026911186  0.027276737            2 
  880000    1.1249532   -7.5060286    284.04048  0.026897773  0.027269459            2 
  881000    1.1014669   -7.4351762    285.66836  0.027021222  0.027262153            2 
  882000    1.0929356   -7.4725431    285.65561  0.026989381  0.027254797            5 
  883000    1.1008461   -7.4160153    286.42809  0.027031719  0.027247504            5 
  884000    1.0930904    -7.465298    285.72239  0.026934614  0.027240198            1 
  885000    1.1018077    -7.502044    285.54662  0.026887629  0.027232762            3 
  886000    1.1113783   -7.5113011    285.40732   0.02684418  0.027225251            1 
  887000    1.1088463    -7.511892    286.02115  0.026871585  0.027217806            3 
  888000    1.0983441   -7.4932015    287.25766  0.026957363    0.0272108            2 
  889000      1.09692    -7.494827    287.31661  0.026932566  0.027203762            2 
  890000    1.1130247   -7.4798888    287.44337  0.026914173  0.027196771            1 
  891000    1.1320352   -7.5101983    288.03585   0.02693938  0.027189633            1 
  892000    1.0796377   -7.4871903     288.3826  0.026941573  0.027182531            2 
  893000    1.1326022   -7.4810006    288.09173   0.02688426  0.027175528            2 
  894000    1.0908481   -7.4951568    286.89898  0.026743007  0.027168397            1 
  895000    1.1244155   -7.5143705    287.61079  0.026779403   0.02716086            3 
  896000    1.0883809    -7.483487    288.19981  0.026804298  0.027153526            1 
  897000    1.0833927   -7.4736623    289.02002  0.026850615  0.027146235            3 
  898000    1.1036784   -7.4849139    288.22092  0.026746559   0.02713876            6 
  899000    1.0982092   -7.4364444    288.66943  0.026758383  0.027131004            2 
  900000    1.0866256   -7.5211466    288.38617  0.026702423  0.027123302            2 
  901000    1.1029425    -7.516256    288.35853   0.02667023  0.027115512            2 
  902000    1.1226503   -7.5152156    288.65787  0.026668318  0.027107685            3 
  903000     1.090204    -7.482656    289.77105  0.026741514  0.027099845            2 
  904000    1.0936885   -7.4735929    288.62144  0.026605958  0.027091961            2 
  905000     1.115139   -7.5102113    289.73051  0.026678684  0.027083935            1 
  906000    1.0985584   -7.5250546    289.26119  0.026606069  0.027075884            4 
  907000    1.0821331   -7.5114645    290.04291  0.026648559  0.027067908            4 
  908000    1.1207639    -7.489118    290.71998  0.026681349  0.027059786            2 
  909000    1.1104554   -7.4890875    290.86578  0.026665363  0.027051745            1 
  910000     1.125861   -7.4978224    290.28602  0.026582969  0.027043505            1 
  911000    1.0939111   -7.5160391    291.44559   0.02665986  0.027035016            2 
  912000    1.0769859    -7.499619    289.95917  0.026494808  0.027026466            1 
  913000    1.0947554   -7.5301253    291.17138  0.026576431  0.027018183            2 
  914000    1.1181647   -7.5310337    291.76591   0.02660156  0.027009935            3 
  915000    1.0898752     -7.49585    291.82976  0.026578302  0.027001821            3 
  916000    1.1152383   -7.5331886    292.07401  0.026571507  0.026993665            3 
  917000    1.0868138   -7.5126175    292.93403  0.026620686   0.02698551            2 
  918000    1.1007721    -7.504579    292.23247  0.026528002  0.026977325            1 
  919000    1.1131556   -7.4929273    292.66834   0.02653866  0.026969235            3 
  920000    1.1092324   -7.5013709    293.81766  0.026613919  0.026961169            4 
  921000    1.1088918    -7.511172    293.24506  0.026533212   0.02695315            2 
  922000    1.1051433   -7.5378936    293.37693  0.026516353  0.026944869            1 
  923000    1.0909215   -7.5371515    293.68466  0.026515408  0.026936649            1 
  924000    1.1039255   -7.5101691    294.23778  0.026536596  0.026928507            4 
  925000    1.0943587   -7.4833893    295.07575  0.026583401  0.026920765            3 
  926000    1.0828933   -7.5592494    294.00979  0.026458764  0.026912831            3 
  927000    1.1071691   -7.5433941    294.20882  0.026448114  0.026905018            2 
  928000    1.1067194   -7.5457231     295.2998  0.026517583  0.026897143            1 
  929000    1.0844582   -7.4913914    295.28545  0.026487751  0.026889294            1 
  930000    1.0847269   -7.5611389    295.38152  0.026467878   0.02688132            2 
  931000    1.1035863   -7.4893392    296.40418  0.026530987  0.026873542            2 
  932000    1.1030198   -7.5486466    296.84387  0.026541834  0.026865622            2 
  933000    1.1080434   -7.4886993    296.74127  0.026504222  0.026857979            2 
  934000    1.0896735   -7.4752626    297.04893  0.026503295  0.026850428            1 
  935000    1.1138483   -7.5161706     296.8994  0.026461622  0.026842755            2 
  936000    1.0778184   -7.5442005    296.83885   0.02642796  0.026834871            2 
  937000    1.1093491   -7.4372233    298.05973  0.026508336  0.026827354            1 
  938000     1.092099   -7.4499796    298.74824  0.026541244  0.026819734            2 
  939000    1.1038684   -7.4941973     298.1609  0.026460854  0.026811822            2 
  940000    1.1218743   -7.5013104    298.46697  0.026459838  0.026803865            1 
  941000     1.080966   -7.5111459    297.56232  0.026351604  0.026796154            2 
  942000    1.0929426   -7.4834901    297.99686  0.026362072  0.026788163            2 
  943000    1.0893572   -7.5647194    297.41474  0.026282674  0.026780324            1 
  944000    1.0929936   -7.5420152    298.65564  0.026364375  0.026772337            2 
  945000    1.0838061   -7.5150253    300.14384  0.026467711  0.026764957            2 
  946000    1.0854611   -7.5345993    299.72996  0.026403273  0.026757365            2 
  947000    1.1098139   -7.5120388    300.14239  0.026411685  0.026749683            3 
  948000    1.1066718   -7.5039291    300.37885  0.026404611  0.026742029            3 
  949000     1.072638   -7.5207963    300.63142  0.026398965  0.026734703            1 
  950000    1.1015243   -7.5283051     300.7149    0.0263785  0.026727223            1 
  951000    1.0918119   -7.4903085    302.50501  0.026507624  0.026719644            5 
  952000     1.113293   -7.5220372    302.42662  0.026472918  0.026712378            4 
  953000    1.1208204   -7.5225175    301.98539  0.026406558  0.026705243            2 
  954000    1.0895734   -7.5469578    301.66341  0.026350752  0.026698078            1 
  955000    1.0871749   -7.5104969    303.30671  0.026466554  0.026690998            1 
  956000    1.1057819   -7.4816261    304.47775  0.026540947  0.026684107            1 
  957000    1.0855048   -7.5412537    304.10348  0.026480623   0.02667746            4 
  958000     1.088247   -7.5201634    304.91489  0.026523564  0.026670722            2 
  959000    1.0702879   -7.5409262    304.45536  0.026455975  0.026664196            3 
  960000    1.0956351   -7.4923394    305.88093  0.026552164  0.026657722            1 
  961000    1.0894989   -7.4989294    306.17414   0.02654996  0.026651337            5 
  962000    1.1120971   -7.4989047    305.63185  0.026475385  0.026644785            3 
  963000    1.1229581    -7.489927    306.82813  0.026551413  0.026638359            1 
  964000    1.0883563    -7.437702    307.33473  0.026567663  0.026632081            2 
  965000    1.0820559    -7.477128    306.83739  0.026497184  0.026625996            2 
  966000    1.0803115   -7.5296987    307.00453  0.026484173  0.026619727            2 
  967000    1.0910318   -7.4757213    306.66674  0.026427675  0.026613215            1 
  968000    1.0881508   -7.5427882    307.34231  0.026458532  0.026606806            4 
  969000    1.1078912   -7.4955084    308.39034  0.026521357  0.026600587            1 
  970000    1.1157102   -7.5415082    307.59913  0.026426042  0.026594475            3 
  971000    1.1303189   -7.5292138     307.8082   0.02641677  0.026587947            7 
  972000     1.111703   -7.5428036    308.64496  0.026461331  0.026581579            2 
  973000    1.1072273   -7.5048676    309.26403  0.026487156  0.026575174            3 
  974000    1.1238008   -7.5380847    308.15435   0.02636502  0.026568749            4 
  975000     1.107235   -7.4809536    309.68865  0.026469115  0.026562364            2 
  976000      1.10301   -7.4954985    309.76285  0.026448331   0.02655618            4 
  977000    1.0988782   -7.4767471    309.18478  0.026371954  0.026549743            2 
  978000     1.111073   -7.4882149    311.28619  0.026524045  0.026543397            1 
  979000     1.111254   -7.5088065    310.44947   0.02642573  0.026536968            2 
  980000    1.1044665   -7.5252474    310.31058  0.026386954  0.026530284            3 
  981000    1.1093893   -7.5231209    310.88792    0.0264091   0.02652358            1 
  982000    1.1059282   -7.5263662    310.71508  0.026367539  0.026516674            2 
  983000    1.1104572   -7.5748286    309.11232  0.026204843  0.026509688            3 
  984000    1.0999912   -7.5106468    311.54587  0.026384304  0.026502795            2 
  985000    1.0903708   -7.5129981    311.11998  0.026321487  0.026496288            3 
  986000    1.0890965   -7.5344223    310.96891  0.026282024  0.026489613            1 
  987000    1.1003309   -7.5451915    311.78209  0.026324054  0.026482991            2 
  988000    1.0855113   -7.5262268    311.97545  0.026313719  0.026476535            2 
  989000    1.1221235   -7.5124546      312.034  0.026292046  0.026469872            2 
  990000    1.1164689   -7.5428073     312.0313  0.026265261  0.026463324            2 
  991000    1.0819345   -7.5554376    312.36887  0.026267144  0.026456417            2 
  992000      1.11925   -7.5314241    313.09203  0.026301414  0.026449555            4 
  993000    1.1008158   -7.5408421    313.00439  0.026267572  0.026442906            3 
  994000    1.0876366   -7.5894268    311.22919  0.026092319  0.026436088            2 
  995000    1.0849661    -7.539115    312.83497  0.026200584  0.026429162            3 
  996000    1.0766748   -7.5296522    313.48712  0.026228842  0.026422377            2 
  997000    1.0900409   -7.5197856    313.63648  0.026215019  0.026415604            1 
  998000    1.1063327    -7.456726    314.55394  0.026265359  0.026408986            2 
  999000     1.103275   -7.5218392     313.6329  0.026162237  0.026402224            7 
 1000000    1.1251154   -7.4916947    314.58882  0.026215735  0.026395381            2 
 1001000    1.0796604   -7.5249105    314.50519  0.026182583  0.026388594            2 
 1002000    1.0912491   -7.5289652    314.73417  0.026175497  0.026381726            3 
 1003000    1.0810608   -7.5097759    314.43573  0.026124604  0.026374683            9 
 1004000    1.0890928   -7.4910696    315.94054  0.026223484   0.02636787            4 
 1005000    1.0863036   -7.5299619    315.27436  0.026142152  0.026360986            5 
 1006000    1.1189356   -7.5277827    315.20463   0.02611039  0.026353818            2 
 1007000    1.0887712   -7.5759811    315.41569  0.026101927  0.026346595            4 
 1008000    1.0757423    -7.524118    316.33849  0.026152322  0.026339467            3 
 1009000    1.0784244   -7.5460687    315.99445  0.026097989  0.026332279            1 
 1010000    1.1081081   -7.5308787    316.17123  0.026086735  0.026324992            2 
 1011000    1.0636334   -7.5190367    316.12769  0.026057343  0.026317842            2 
 1012000    1.0912701   -7.5079935    317.08862  0.026110723  0.026310709            5 
 1013000    1.1042618   -7.5426357    317.02018  0.026079318  0.026304059            2 
 1014000    1.1140161   -7.4778798    318.06789  0.026139702  0.026297324            3 
 1015000    1.1021116   -7.4654157    318.68002  0.026164205  0.026290409            1 
 1016000    1.0856984   -7.5325797    318.09506  0.026090474  0.026283504            3 
 1017000    1.1120521   -7.5249567    318.43472  0.026092652  0.026276491            3 
 1018000    1.0755241   -7.5361274    317.95294  0.026027581  0.026269737            3 
 1019000     1.063911   -7.5611233     318.0764  0.026012136  0.026262717            2 
 1020000    1.1090731   -7.5300972    318.49472  0.026020811  0.026255649            6 
 1021000    1.0903551   -7.5447872    318.84315  0.026023763  0.026248515            3 
 1022000    1.0994355   -7.5592342    318.14914  0.025941711  0.026241228            1 
 1023000    1.0969258   -7.5105937    319.45026  0.026022341  0.026234044            5 
 1024000    1.0873893   -7.5017765    319.49668  0.026000707   0.02622717            1 
 1025000    1.1019562   -7.5388431    319.64584  0.025987466  0.026220125            1 
 1026000    1.0979173   -7.5179945    320.96406  0.026069205  0.026213226            1 
 1027000    1.0968833   -7.5296031    319.63965  0.025936356  0.026206303            2 
 1028000    1.1038716   -7.5461234    320.92073  0.026014975  0.026199379            2 
 1029000     1.087095   -7.5099551    321.17656  0.026010411  0.026192537            3 
 1030000    1.0883238   -7.5491045    320.72331  0.025948488  0.026185508            2 
 1031000    1.0760966   -7.5126804    322.24753  0.026046519  0.026178814            3 
 1032000    1.0755992   -7.5492649    321.52724  0.025963117  0.026171943            4 
 1033000    1.0923007   -7.5430279    321.96958  0.025973667  0.026164998            3 
 1034000    1.0822753   -7.5676391    321.90323    0.0259432  0.026158178            2 
 1035000    1.1050038   -7.5291979    322.42336  0.025960013  0.026151312            3 
 1036000     1.095373   -7.5421787    321.25795  0.025841212  0.026144231            2 
 1037000     1.084194   -7.5251893    321.52761  0.025837963  0.026136983            4 
 1038000    1.0710617   -7.5824589    321.61072  0.025819743  0.026129776            3 
 1039000    1.0994334   -7.5358902     322.8854  0.025897129  0.026122537            2 
 1040000    1.0910862    -7.591644    322.02157   0.02580301  0.026115135            6 
 1041000    1.0799188   -7.5499087    322.82858  0.025842826  0.026107942            3 
 1042000    1.0766972   -7.5270606    323.86962  0.025901281  0.026100942           11 
 1043000    1.0880958   -7.5583086    323.55976  0.025851691  0.026093693            3 
 1044000    1.1047802   -7.5691674    324.09594  0.025869727  0.026086581            2 
 1045000    1.0996955   -7.5833475    323.14785  0.025769366   0.02607945            3 
 1046000    1.0847698   -7.6241231     322.4099  0.025685938  0.026071985            3 
 1047000    1.0906674   -7.5870222    323.81773  0.025773458   0.02606453            4 
 1048000    1.0821901   -7.5346461    325.76621  0.025903801  0.026057226            3 
 1049000     1.072233   -7.5708221    324.74441  0.025797935  0.026050116            2 
 1050000    1.0895307   -7.5535158    324.90218  0.025785887  0.026043003            1 
 1051000    1.0679571   -7.5514532    325.35427  0.025797199    0.0260358            3 
 1052000    1.0881719   -7.5704401    325.83289  0.025810591  0.026028672            2 
 1053000    1.0688809   -7.5558702    325.42118  0.025753496  0.026021613            2 
 1054000    1.0742999   -7.5666928    325.48551  0.025734149  0.026014289            3 
 1055000    1.0890217   -7.5270797    325.96879   0.02574793  0.026007062            2 
 1056000    1.0906853    -7.541592    326.13227  0.025736448   0.02599988            1 
 1057000    1.0771963   -7.5413876    326.20061  0.025717487  0.025992645            2 
 1058000    1.0945964   -7.5949967    325.47637  0.025636135  0.025985255            4 
 1059000    1.0944236   -7.5975425    326.32209  0.025678477  0.025977755            6 
 1060000    1.1013673   -7.5636811    327.48056  0.025745327  0.025970389            3 
 1061000    1.0915584   -7.5775559    327.64257  0.025733787  0.025963257            2 
 1062000    1.0862806   -7.5597869    327.46905  0.025695939  0.025955926            2 
 1063000    1.0693269   -7.5890061    326.87075  0.025624863  0.025948502            2 
 1064000    1.0787597   -7.5341561    328.23929  0.025707965  0.025941064            2 
 1065000    1.0802437   -7.5545212    329.01864  0.025744807    0.0259338            4 
 1066000    1.1014762   -7.5896547    327.93568  0.025635997  0.025926536            3 
 1067000    1.0658363   -7.5604912    327.68078  0.025592064  0.025919099            1 
 1068000    1.0943781   -7.5839746    328.05743   0.02559749   0.02591161            2 
 1069000    1.0871467   -7.5580212    329.38318  0.025676892  0.025903895            5 
 1070000    1.0827959    -7.521628     330.1636  0.025713676  0.025896678            4 
 1071000    1.0902066   -7.5494905    330.20898  0.025693198  0.025889473            3 
 1072000    1.0644017   -7.4881112    331.53921  0.025772638  0.025882569            5 
 1073000    1.0591318   -7.5940106    329.48922  0.025589408  0.025875461            2 
 1074000    1.0806784    -7.555427    330.75286   0.02566363  0.025868317            1 
 1075000     1.090161   -7.5787296    331.07321   0.02566459  0.025861256            3 
 1076000    1.0713712   -7.5760806    331.27938  0.025656705  0.025854342            3 
 1077000    1.0984609   -7.5940885    330.52717   0.02557468  0.025847303            1 
 1078000    1.0769859   -7.5396921    331.99573  0.025664481   0.02584026            1 
 1079000    1.0962873   -7.6042027    331.16077   0.02557621  0.025833334            5 
 1080000    1.0915736   -7.5501036    332.92956  0.025689009   0.02582645            2 
 1081000    1.1244619   -7.6085973    332.31155  0.025617603  0.025819455            3 
 1082000    1.0651976   -7.5656306    331.98071  0.025568446  0.025812485            2 
 1083000    1.0850303   -7.5637033     332.8721  0.025613427  0.025805576            1 
 1084000    1.0809142   -7.5377283    333.98589  0.025675422  0.025798578            2 
 1085000    1.0893316   -7.6063026    333.50234  0.025614619  0.025791589            2 
 1086000    1.0776318   -7.5899983    332.95695  0.025549183  0.025784538            3 
 1087000    1.0701271   -7.5415864     333.4598  0.025564229  0.025777491            1 
 1088000    1.0801059   -7.5300822      334.364  0.025609988  0.025770629            2 
 1089000    1.0783069   -7.5450511    334.72696  0.025614246  0.025763702            3 
 1090000    1.0847713   -7.5598215    334.68346   0.02558742  0.025756807            2 
 1091000    1.0995269   -7.5615469     334.4738  0.025547953  0.025749859            3 
 1092000    1.0789078   -7.5845249    334.19453  0.025503245  0.025742717            3 
 1093000    1.0741291   -7.6342569    333.30009  0.025411718  0.025735312            3 
 1094000    1.0722402   -7.6064944    334.36254   0.02546942  0.025728044            2 
 1095000    1.0740036   -7.5789926    335.27433   0.02551555  0.025720786            1 
 1096000    1.1027394    -7.574457    335.05487  0.025475583  0.025713551            2 
 1097000    1.0785282   -7.5353971    335.68717  0.025500393  0.025706602            3 
 1098000    1.0609592   -7.6057648    335.06516   0.02542996  0.025699539            1 
 1099000    1.0853957    -7.605635    336.25804  0.025497273  0.025692319            3 
 1100000    1.0576698   -7.5835657    336.85103  0.025519017  0.025685439            3 
 1101000    1.0834212   -7.5804316    336.71725  0.025485714  0.025678466            5 
 1102000    1.0601577   -7.5808929    338.25017  0.025578506  0.025671686            1 
 1103000    1.0918814   -7.5944077    336.61955  0.025432121  0.025664855            3 
 1104000    1.0669654   -7.6121709    336.70985  0.025415901  0.025658072            2 
 1105000    1.0632583   -7.5784234    337.91341  0.025483666  0.025651184            2 
 1106000    1.0881863   -7.5857416    338.76057  0.025524455  0.025644353            2 
 1107000    1.0617069   -7.5703675    339.02305  0.025521157  0.025637554            1 
 1108000    1.0963179   -7.5550611     338.9825  0.025495074  0.025630996       -1e+20 
 1109000    1.0715637   -7.5355934    339.75285   0.02552997  0.025624233            1 
 1110000    1.0939693   -7.5644238    339.59052  0.025494784  0.025617489            2 
 1111000     1.081739   -7.5951414     339.6317  0.025474925  0.025610802            2 
 1112000    1.0813443   -7.6035473    338.99613  0.025404386  0.025603928            4 
 1113000    1.0695683    -7.554409    339.89363  0.025448759  0.025596964            3 
 1114000    1.0988368   -7.5724842     339.3821  0.025387649  0.025590058            1 
 1115000     1.078188   -7.5564141     339.9102   0.02540435  0.025583112            2 
 1116000     1.062648   -7.5794201    339.63087  0.025360728  0.025576079            3 
 1117000    1.0624111   -7.5891212     339.8455  0.025354036  0.025569018            2 
 1118000    1.0843488   -7.5910096    339.39302  0.025297631   0.02556192            3 
 1119000    1.0476233   -7.5565026    340.32014  0.025344068  0.025554675            2 
 1120000    1.0607459   -7.5892343    340.18411  0.025311318  0.025547443            3 
 1121000    1.0750389   -7.5762084    340.42211  0.025306431  0.025540024            2 
 1122000    1.0940827   -7.5266279    341.60237  0.025371536  0.025532761            2 
 1123000    1.0857374   -7.5976927    340.44006  0.025262694  0.025525342            2 
 1124000    1.0795417   -7.5437592    341.84749  0.025344565  0.025518039            3 
 1125000    1.0929368    -7.547762    341.39668  0.025288643  0.025510772            1 
 1126000    1.0715946   -7.5710813    341.33971  0.025261968  0.025503534            2 
 1127000     1.072644     -7.60893    341.17054  0.025227044  0.025496192            2 
 1128000    1.0647125   -7.5826048    341.47683  0.025227307  0.025488789            2 
 1129000    1.0465837   -7.5712938    341.46424  0.025204033  0.025481101            2 
 1130000    1.0912053   -7.6315727    341.42743  0.025179014  0.025473584            2 
 1131000    1.0755528   -7.5823579    342.36798  0.025226052  0.025466046            2 
 1132000    1.0881968   -7.6617119    340.87426  0.025093806  0.025458652            3 
 1133000    1.0783696   -7.5915639    341.83034  0.025141978  0.025451289            3 
 1134000    1.0760894   -7.5927492    341.82582  0.025119476  0.025443959            3 
 1135000    1.0484672   -7.5850993    343.69351  0.025234472  0.025436507            4 
 1136000    1.0844176   -7.6112568    343.77619  0.025218324  0.025429263            1 
 1137000    1.0470053   -7.5571786    344.07444  0.025218003  0.025422061            4 
 1138000    1.0902549   -7.5925249    343.90376  0.025183345  0.025414779            3 
 1139000    1.0827009   -7.5893952    343.20915  0.025110415  0.025407474            3 
 1140000    1.0668256     -7.54472    345.19988  0.025233909  0.025400241            2 
 1141000    1.0686601   -7.5627043    345.14608  0.025207865  0.025392978            1 
 1142000    1.0787826   -7.6032418    344.01292  0.025103103  0.025385852            1 
 1143000    1.0577992    -7.576201    345.36232  0.025179521   0.02537869            4 
 1144000     1.056177   -7.5952697    345.30849  0.025153591  0.025371579            2 
 1145000    1.0698211   -7.5865243     346.0729  0.025187256  0.025364567            2 
 1146000    1.0720231   -7.6353725    345.50565  0.025124029  0.025357495            2 
 1147000    1.0764869   -7.5494349    346.42493  0.025168914  0.025350369            2 
 1148000    1.0695743    -7.604714    346.07154  0.025121337  0.025343326            2 
 1149000    1.0611865   -7.6131343    346.82776   0.02515432  0.025336256            2 
 1150000    1.0617461   -7.5926216    348.09561   0.02522432  0.025329045            8 
 1151000    1.0678633    -7.592148     347.1663  0.025135122  0.025321982            3 
 1152000    1.0856431   -7.5772605    348.05256  0.025177413  0.025314993            3 
 1153000    1.0634227   -7.5703318    348.29128   0.02517283  0.025308119            1 
 1154000    1.0596781   -7.5897907    347.92319  0.025124436  0.025301151            3 
 1155000    1.0579801   -7.6030429    348.35539  0.025133866  0.025294151            1 
 1156000    1.0501981   -7.5934073    348.78755  0.025143278  0.025287314            1 
 1157000    1.0748988   -7.5242119    349.63998  0.025182943  0.025280546            2 
 1158000    1.0760528   -7.6012305    348.96681  0.025112753  0.025273681            1 
 1159000    1.0775868   -7.5885418     349.0128  0.025094392  0.025266699            4 
 1160000    1.0597571   -7.5658124    349.78334  0.025128114  0.025259685            2 
 1161000    1.0627496   -7.6017914    349.91183  0.025115692  0.025252696            2 
 1162000    1.0826374   -7.6175931    349.80449   0.02508638   0.02524563            4 
 1163000    1.0800191   -7.6085784    349.50808  0.025043571  0.025238694            2 
 1164000    1.0664998    -7.634198    349.71333   0.02503675  0.025231694            2 
 1165000    1.0723217   -7.6370119    350.03891  0.025038548  0.025224599            2 
 1166000     1.061194   -7.6206624    350.34393  0.025038874   0.02521756            4 
 1167000    1.0773304    -7.618392    349.62738  0.024966251  0.025210383            3 
 1168000    1.0771062   -7.5553173    351.34096  0.025067135  0.025203401            4 
 1169000    1.0652117   -7.6057845    351.54394  0.025060161  0.025196296            1 
 1170000    1.0615757   -7.6559376    351.27799    0.0250198  0.025189246            2 
 1171000    1.0652243   -7.6312693    351.31427  0.025001015  0.025182218            4 
 1172000    1.0383164   -7.5831019    351.22548   0.02497337  0.025175294            3 
 1173000    1.0699082   -7.5627438    352.24312  0.025024377  0.025168483            4 
 1174000    1.0750807    -7.650554    351.46129  0.024947564  0.025161505            2 
 1175000    1.0580231   -7.6064919    352.30066  0.024985862  0.025154277            2 
 1176000    1.0549244   -7.5883694    352.73045  0.024995071  0.025147243            2 
 1177000    1.0714888   -7.6092991    353.28987  0.025013443  0.025140312            2 
 1178000     1.060568   -7.5814751    353.50065   0.02500712  0.025133517            3 
 1179000    1.0864268   -7.5990051    353.47969  0.024984428  0.025126751            3 
 1180000    1.0616711   -7.6192041     354.2097   0.02501481  0.025119979            2 
 1181000    1.0606283   -7.6062893    355.25302  0.025067247  0.025113207            3 
 1182000    1.0680665   -7.6094666    355.20059  0.025042343   0.02510657            1 
 1183000     1.071087   -7.5986993    355.28203  0.025026911  0.025100009            1 
 1184000      1.04214   -7.6150486    355.59898  0.025028081  0.025093338            1 
 1185000    1.0559865   -7.6217347    353.99435  0.024894117  0.025086736            3 
 1186000    1.0572036   -7.5711835    356.54613  0.025052426  0.025080037            1 
 1187000    1.0685335   -7.6144791    355.52937  0.024959939  0.025073393            7 
 1188000    1.0334534    -7.626872    354.97814  0.024900263  0.025066678            1 
 1189000    1.0428265   -7.6367994    355.49562  0.024915589  0.025059932            2 
 1190000    1.0479297   -7.6394336    355.24885   0.02487737   0.02505313            2 
 1191000    1.0681865   -7.6412142     356.3086  0.024930633   0.02504627            2 
 1192000    1.0550132   -7.6199453    357.19219   0.02497149  0.025039551            3 
 1193000    1.0400089    -7.659771    355.85919  0.024857446  0.025032807            2 
 1194000    1.0613963    -7.624331    356.97781  0.024914699  0.025026083            2 
 1195000    1.0758211   -7.6100519    356.58086  0.024866169  0.025019264            1 
 1196000    1.0501885    -7.625378    357.19639  0.024888266  0.025012485            2 
 1197000    1.0464833   -7.5980383    357.28041  0.024873323   0.02500556            3 
 1198000    1.0679387   -7.6018478    357.40672  0.024861346  0.024998813            2 
 1199000    1.0262022   -7.6521085    358.30149    0.0249028  0.024991962            5 
 1200000    1.0448036   -7.6097849    357.98322  0.024859946  0.024985251            3 
 1201000    1.0508312   -7.6558761    357.77452  0.024824765    0.0249784            3 
 1202000    1.0666225   -7.6505688    358.00271  0.024819933  0.024971505            2 
 1203000    1.0806606   -7.6701033    357.34584  0.024753799  0.024964545            3 
 1204000    1.0812305   -7.6480456    358.22046  0.024793775  0.024957586            4 
 1205000    1.0496412   -7.5746649    359.88529  0.024888333  0.024950955            3 
 1206000    1.0565435   -7.5914332    361.08615  0.024950674  0.024944321            2 
 1207000    1.0547807   -7.6593222    358.51875  0.024752744  0.024937667            1 
 1208000    1.0534753   -7.6463248    360.27301   0.02485327  0.024930917            2 
 1209000    1.0532797   -7.6239729    359.97464  0.024812148  0.024924388            3 
 1210000    1.0733015   -7.5997019    361.38799   0.02488898  0.024917868            2 
 1211000      1.05486   -7.5742141    360.09241  0.024779274  0.024911355            5 
 1212000    1.0711172   -7.6138069    360.57939  0.024792313  0.024904855            3 
 1213000    1.0681124   -7.6103854    361.43326  0.024830535  0.024898369            3 
 1214000    1.0541038   -7.6522394    361.23871  0.024796727  0.024891796            4 
 1215000    1.0564959   -7.6328167    361.43208   0.02478958  0.024885111            2 
 1216000    1.0618543   -7.6620512    360.71838  0.024720284  0.024878348            2 
 1217000    1.0452816   -7.6607137    361.07005  0.024724051  0.024871474            2 
 1218000    1.0558806   -7.6263623    362.20409  0.024781342  0.024864657            2 
 1219000    1.0878768   -7.6431459      361.568  0.024717528   0.02485799            1 
 1220000    1.0550858   -7.6369116    362.48773  0.024760091  0.024851411            2 
 1221000    1.0567337    -7.632696    361.89695  0.024699492  0.024844763            2 
 1222000    1.0552572   -7.6424733    363.52811  0.024790515  0.024838191            2 
 1223000     1.039141   -7.6303472    362.42053  0.024694776  0.024831523            2 
 1224000    1.0583307   -7.6001731     363.8007  0.024768566  0.024825045            4 
 1225000    1.0752001   -7.6154606    364.12963  0.024770723  0.024818476            3 
 1226000    1.0466805   -7.5962892    365.34099  0.024832857  0.024811912            2 
 1227000    1.0671366   -7.6398241    364.10242  0.024728499   0.02480556            3 
 1228000    1.0618806   -7.6349007    364.60535  0.024742491   0.02479919            1 
 1229000     1.074653    -7.666176    364.19244  0.024694362   0.02479261            3 
 1230000    1.0634399   -7.6180675    364.94552  0.024725306  0.024785881            1 
 1231000    1.0471218   -7.6518594    365.45805  0.024739917  0.024779451            3 
 1232000    1.0562193   -7.6332232    365.46398  0.024720237   0.02477308            2 
 1233000    1.0211556   -7.6219311    365.92216  0.024731154   0.02476662            3 
 1234000    1.0440171   -7.6333407    364.53368  0.024617347  0.024759914            3 
 1235000    1.0775028   -7.6526634    366.02876  0.024698297  0.024753361            1 
 1236000    1.0512986   -7.6340576    366.17688  0.024688301  0.024746779            1 
 1237000    1.0760828    -7.662369    366.22396  0.024671515  0.024740145            4 
 1238000    1.0494056   -7.7070378     365.7452  0.024619359  0.024733531            5 
 1239000    1.0667351   -7.6530273    366.14538  0.024626405  0.024726933            3 
 1240000      1.04931   -7.6542256    365.64526  0.024572934  0.024720332            3 
 1241000      1.04035   -7.6323337    366.86204   0.02463484   0.02471374            1 
 1242000    1.0198873   -7.6492502    366.80699  0.024611312  0.024707218            2 
 1243000    1.0541505   -7.6002861    368.67623  0.024716829  0.024700744            4 
 1244000    1.0670534   -7.6281818     367.4296  0.024613451  0.024694586            5 
 1245000    1.0659927   -7.5964013    368.89104  0.024691502  0.024688216            1 
 1246000    1.0653098   -7.6230955    368.19267  0.024624978  0.024681757            3 
 1247000    1.0311054   -7.6451902    368.63585  0.024634847  0.024675226            2 
 1248000    1.0322936   -7.6088572    369.48363  0.024671717  0.024668835            3 
 1249000    1.0480544   -7.6397904    368.44401    0.0245826  0.024662358            5 
 1250000     1.033802    -7.669372    368.39046  0.024559364  0.024655926            5 
 1251000    1.0607007   -7.6065108    369.58857  0.024619542  0.024649392            2 
 1252000    1.0458312    -7.620003    369.72083  0.024608682  0.024642982            2 
 1253000    1.0534086   -7.6849417    369.07096  0.024545821  0.024636464            3 
 1254000     1.054482   -7.6653308    369.74044  0.024570736   0.02462989            1 
 1255000    1.0574729   -7.6549596    369.70341  0.024548699  0.024623602            2 
 1256000    1.0401377    -7.678618    369.74776  0.024532097  0.024617114            1 
 1257000    1.0475786   -7.6370614     370.8599   0.02458631   0.02461081            1 
 1258000    1.0320842   -7.5929286    371.03949  0.024578663  0.024604471            3 
 1259000    1.0400775   -7.6460516    370.84575  0.024546316  0.024598284            2 
 1260000    1.0455066   -7.6012542    371.12748  0.024545468  0.024592073            2 
 1261000    1.0482508   -7.5896595    372.17161  0.024595004  0.024585767            2 
 1262000    1.0608917    -7.624951    372.26632   0.02458177  0.024579516            2 
 1263000    1.0561368   -7.6526535    371.56525   0.02451605  0.024573297            5 
 1264000    1.0636509    -7.662689    372.25891  0.024542386  0.024567104            4 
 1265000     1.040659   -7.6151658    372.19286  0.024518634  0.024560959            4 
 1266000    1.0398222   -7.6407563    371.58957  0.024459556  0.024554679            4 
 1267000    1.0499071   -7.6582103    372.74767  0.024516422  0.024548327            4 
 1268000    1.0610633   -7.6558929    373.86118  0.024570267  0.024542019            1 
 1269000    1.0407705   -7.6341678    374.03105   0.02456206  0.024535619            2 
 1270000    1.0637604    -7.673098    373.14639  0.024484671  0.024529235            1 
 1271000    1.0292075   -7.6400786    373.77331  0.024506511  0.024522895            4 
 1272000    1.0448922   -7.6513235    374.09643  0.024508414  0.024516655            1 
 1273000    1.0434968   -7.6339318    374.37017  0.024507081   0.02451035            1 
 1274000     1.044978   -7.6504977    374.70598  0.024509811  0.024504244            6 
 1275000    1.0706325   -7.6235808    375.76183  0.024559597  0.024498239            3 
 1276000    1.0497004   -7.6245038    375.67797  0.024534873  0.024492127            4 
 1277000    1.0545396   -7.6031864    374.84505  0.024461306  0.024485963            2 
 1278000    1.0501584   -7.6603157    375.17125  0.024463436  0.024479701            2 
 1279000    1.0578751   -7.6453101    375.42918  0.024461114  0.024473281            3 
 1280000    1.0450743   -7.6650981    375.14639  0.024423593  0.024466861            5 
 1281000    1.0230045   -7.6601891    375.18636  0.024407127  0.024460482            3 
 1282000    1.0461326   -7.6985602    375.05436  0.024379509  0.024454135            2 
 1283000    1.0294388   -7.6608969    377.12903  0.024495261  0.024447804            3 
 1284000    1.0372509   -7.6680605    376.02068   0.02440425  0.024441437            4 
 1285000    1.0539734   -7.6781524    375.87905  0.024376073  0.024435026            2 
 1286000    1.0518976    -7.627596    376.56855  0.024401798  0.024428741            2 
 1287000    1.0648033   -7.6603772    378.05762  0.024479255  0.024422553            4 
 1288000    1.0579234   -7.6750832    375.05784  0.024266165  0.024416306            4 
 1289000    1.0513161   -7.6488302     377.7174  0.024419278  0.024410056            1 
 1290000    1.0301671   -7.6626058    377.50388  0.024386555  0.024403845            2 
 1291000    1.0222954   -7.6664511    377.98436   0.02439868  0.024397492            3 
 1292000    1.0393225   -7.6185276    378.56151  0.024417022  0.024391283            1 
 1293000    1.0424991   -7.6508267    378.03302  0.024364077  0.024385005            4 
 1294000    1.0494693   -7.6561685    377.82674  0.024331964  0.024378625            2 
 1295000    1.0475779   -7.6608115    377.64635  0.024301567  0.024372283            4 
 1296000    1.0474899   -7.6743247    378.52415  0.024339258  0.024365887            7 
 1297000    1.0399584   -7.7093373    378.54865  0.024322067  0.024359437            3 
 1298000    1.0559561   -7.6968825    378.47504  0.024298603  0.024352977           16 
 1299000    1.0663481   -7.6468928    379.70859  0.024359032  0.024346533            3 
 1300000    1.0591713   -7.6587177    378.81032  0.024282713  0.024340165            2 
 1301000     1.037031   -7.6561225    379.19422  0.024288638  0.024333707            1 
 1302000    1.0434111   -7.6720071    378.86151  0.024248688  0.024327274            2 
 1303000    1.0398449   -7.6470486    379.59365  0.024276903  0.024320835            2 
 1304000    1.0280385    -7.635521    379.42171  0.024247298  0.024314246            1 
 1305000    1.0337727   -7.6566589    379.18146  0.024213376  0.024307669            2 
 1306000    1.0483395   -7.6568681    379.09385  0.024189245  0.024301032            4 
 1307000    1.0393384   -7.6807029    379.96814  0.024226482  0.024294426            3 
 1308000    1.0374219   -7.6097881    380.58284  0.024247123   0.02428793            2 
 1309000    1.0557997   -7.7024297    379.14824   0.02413727  0.024281433            4 
 1310000    1.0306185   -7.6975905     379.0624  0.024113384  0.024274775            1 
 1311000    1.0586315   -7.6680897    379.20599  0.024104118  0.024268055            2 
 1312000    1.0406366    -7.626638    380.74348  0.024183402  0.024261325            2 
 1313000    1.0395203   -7.6609713    380.99482  0.024180936  0.024254634            4 
 1314000    1.0509167   -7.6781668    380.69567  0.024143561  0.024247901            4 
 1315000    1.0434869   -7.6531646    380.11028  0.024088104  0.024241136            3 
 1316000    1.0540329   -7.6554943    380.98203  0.024125002  0.024234392            4 
 1317000    1.0154903   -7.6610962      381.883  0.024163693  0.024227545            1 
 1318000    1.0554812   -7.6364589    381.64385  0.024130238  0.024220677            3 
 1319000    1.0226809   -7.6428359    382.51204  0.024166795  0.024214023            3 
 1320000    1.0348047    -7.686274    381.74254  0.024099908  0.024207359            4 
 1321000    1.0339563     -7.65313    381.62519  0.024074261  0.024200752            3 
 1322000    1.0494264   -7.6872235    382.82892  0.024131929  0.024194084            2 
 1323000    1.0142324    -7.656909    382.61033   0.02409992  0.024187444            2 
 1324000    1.0493586   -7.6444661    384.01179  0.024169927  0.024180799            3 
 1325000    1.0347949     -7.65593    383.45336  0.024116563   0.02417413            2 
 1326000     1.054798   -7.6473838    383.52555  0.024102913  0.024167573            2 
 1327000    1.0455317   -7.6710269    383.81747  0.024103081  0.024160965            2 
 1328000    1.0402015   -7.6418453    384.55635  0.024131297  0.024154239            7 
 1329000    1.0337219   -7.6694264    383.30424  0.024034628  0.024147493            3 
 1330000    1.0407423   -7.6736729      383.729  0.024043171    0.0241407            1 
 1331000    1.0371591   -7.6934446    383.93475  0.024037988  0.024134022            3 
 1332000    1.0372895   -7.6998035    384.21024  0.024037177  0.024127344            4 
 1333000    1.0120382   -7.6888044    383.65432  0.023984391  0.024120555            3 
 1334000    1.0424714   -7.6791434    383.09085  0.023931213  0.024113825            1 
 1335000    1.0305154   -7.6873658    384.40628  0.023995398  0.024107051            4 
 1336000    1.0276812   -7.6524523    384.68878  0.023995059  0.024100323            1 
 1337000    1.0238569   -7.6856288    384.49091  0.023964779  0.024093424            3 
 1338000    1.0329665   -7.7039291    384.44647    0.0239441  0.024086566            3 
 1339000    1.0449947   -7.7132502     384.8947  0.023954114   0.02407969            2 
 1340000    1.0247176   -7.6566551    387.00151  0.024067258  0.024072878            2 
 1341000    1.0661276   -7.6796107    385.81455   0.02397555  0.024066198            4 
 1342000    1.0267794   -7.6942618    385.62881   0.02394615  0.024059477            4 
 1343000    1.0484659   -7.6790423     385.2998  0.023907905  0.024052724            4 
 1344000    1.0396761   -7.6297529    387.14006   0.02400422  0.024046014            5 
 1345000     1.045394   -7.7201695    384.66358  0.023832936  0.024039207            2 
 1346000    1.0400844   -7.6855918    387.15344  0.023969381  0.024032412            3 
 1347000    1.0372445   -7.6615214    386.40269  0.023905141  0.024025587            2 
 1348000    1.0421286   -7.7100807    387.11144  0.023931221  0.024018806            5 
 1349000    1.0320223   -7.7050273    386.23913  0.023859595  0.024011921            2 
 1350000    1.0322263   -7.6462357    386.38494  0.023850922  0.024005136            3 
 1351000    1.0354198   -7.6547119    387.42878  0.023897655  0.023998315            4 
 1352000    1.0524041   -7.7027495    386.92945  0.023849202  0.023991323            3 
 1353000    1.0493785   -7.6961213    387.67015  0.023877196  0.023984474            2 
 1354000    1.0172006   -7.6832344    387.03946  0.023820745   0.02397768            2 
 1355000    1.0540432    -7.682508    388.48328  0.023891961  0.023970886            1 
 1356000    1.0149882   -7.6883549    387.87671  0.023837064   0.02396419            5 
 1357000    1.0540866   -7.7094095    387.68821  0.023807922  0.023957366            5 
 1358000     1.032391    -7.652183    387.77527  0.023795734  0.023950512            3 
 1359000    1.0231576   -7.7008172    387.43565  0.023757398  0.023943665            2 
 1360000    1.0123416   -7.6685168    388.41864  0.023800162  0.023936776            2 
 1361000    1.0294241   -7.6725288      388.351  0.023778533  0.023929926            2 
 1362000    1.0415762   -7.7038946    388.32568  0.023759525  0.023923062            2 
 1363000    1.0433945   -7.6677154    389.40587  0.023808136  0.023916247            1 
 1364000    1.0353711   -7.6873162     389.0214  0.023767192  0.023909354            3 
 1365000    1.0226335   -7.6622775     390.2101   0.02382235  0.023902543            2 
 1366000    1.0247352   -7.6853983    389.28296   0.02374835  0.023895557            4 
 1367000    1.0279699   -7.7079699    389.78764  0.023761744  0.023888592            3 
 1368000    1.0383417   -7.7254599    388.45916  0.023663448  0.023881477            4 
 1369000    1.0288296     -7.68004    389.01988  0.023680295   0.02387434            3 
 1370000    1.0176831   -7.6833711    390.05172  0.023725773   0.02386731            9 
 1371000    1.0204232   -7.6998933     388.4634  0.023611926  0.023860257            5 
 1372000    1.0249325   -7.7068289    389.34778  0.023648432  0.023853313            2 
 1373000    1.0595301   -7.6823329    392.28912   0.02380973  0.023846293            2 
 1374000    1.0227984   -7.7050395    391.11684  0.023721303  0.023839523            3 
 1375000    1.0297723   -7.6680241    392.22736  0.023771355  0.023832779            1 
 1376000   0.99966208   -7.6596196    391.98506  0.023739405  0.023825978            3 
 1377000     1.021055   -7.7038141    391.83038  0.023712804  0.023819226            2 
 1378000    1.0219717   -7.6653354    391.83744  0.023696023    0.0238124            2 
 1379000    1.0318009   -7.7217446    391.22649   0.02364192    0.0238056            2 
 1380000    1.0422545   -7.7074255    392.72201  0.023715097  0.023798731            4 
 1381000    1.0330061   -7.6633915    393.00477  0.023714987  0.023792016            2 
 1382000     1.049197   -7.6962712      392.279  0.023654064  0.023785312            4 
 1383000    1.0320611   -7.7256107    393.29601  0.023698241  0.023778563            2 
 1384000    1.0333694   -7.7164717    393.40618  0.023687752  0.023771909            1 
 1385000    1.0377936   -7.6746794    393.80762  0.023694803   0.02376525            2 
 1386000    1.0374338   -7.6943933    394.14848  0.023698201  0.023758499            2 
 1387000    1.0393761   -7.6982989    394.53948  0.023704607  0.023751833            2 
 1388000    1.0315548   -7.7341426    393.48482  0.023624209   0.02374518            4 
 1389000    1.0246493   -7.7101088     393.5041  0.023608357  0.023738503            6 
 1390000    1.0453606    -7.667599    395.28053  0.023697873  0.023731997            2 
 1391000    1.0467523   -7.7243971    394.88743  0.023657287  0.023725492            4 
 1392000    1.0424884   -7.7484237    394.22531  0.023600653  0.023719009            2 
 1393000    1.0156487   -7.7571565    396.38728  0.023713046  0.023712566           11 
 1394000    1.0303554   -7.7046677    396.26938  0.023688987  0.023705968            3 
 1395000    1.0115582   -7.7192295    395.44132   0.02362254  0.023699453            3 
 1396000    1.0212046   -7.6854916    396.09224  0.023644475  0.023693008            2 
 1397000    1.0251887   -7.6911288    396.58601  0.023657003  0.023686691            3 
 1398000    1.0272164   -7.6945107    397.93064  0.023720234  0.023680291            1 
 1399000    1.0138832    -7.676407    397.52639  0.023679199  0.023674015            3 
 1400000    1.0134613   -7.7144109    396.89425  0.023624658  0.023667709            2 
 1401000    1.0318862   -7.7566169    396.14072  0.023562974   0.02366131            3 
 1402000    1.0299199   -7.7369631     397.6112  0.023633571  0.023654807            3 
 1403000    1.0313949   -7.7736478    395.57144  0.023495571  0.023648261            1 
 1404000    1.0202855   -7.7741256    398.36161  0.023644445  0.023641727            6 
 1405000    1.0384745   -7.7016624    397.92374  0.023601645  0.023635215            4 
 1406000     1.036136   -7.7212121    397.99085  0.023588836  0.023628839            6 
 1407000    1.0374676     -7.73045    398.75707  0.023617453  0.023622372            3 
 1408000    1.0332433   -7.6793537    399.48548   0.02364379  0.023615997            1 
 1409000    1.0303658   -7.7193458    399.73292  0.023641644  0.023609693            1 
 1410000    1.0365304   -7.6963192    398.86664  0.023573679  0.023603264            3 
 1411000   0.99352587   -7.7316472    399.22156  0.023577933  0.023596957            4 
 1412000    1.0229808   -7.7406798    399.14804  0.023556895  0.023590614            3 
 1413000    1.0274343   -7.6967255    399.57781   0.02356557  0.023584295            2 
 1414000    1.0325336   -7.7425724    400.28507  0.023590586  0.023577801            2 
 1415000    1.0166627   -7.7404256    398.29365  0.023456634  0.023571312            2 
 1416000    1.0256101   -7.7364505    398.81428  0.023470708  0.023564652            2 
 1417000    1.0185486   -7.7187274    400.52945  0.023555014  0.023558189            1 
 1418000    1.0275559   -7.6745905    400.83634  0.023556438  0.023551698            1 
 1419000    1.0393469   -7.6984793    400.32707  0.023509929   0.02354525            3 
 1420000    1.0406674    -7.678204    400.37767  0.023496342  0.023538866            3 
 1421000    1.0323593   -7.7388721    400.45789  0.023484511  0.023532497            2 
 1422000    1.0261492   -7.7066746    400.79196  0.023487574  0.023525941            5 
 1423000    1.0333757   -7.7412365    400.68376  0.023464732  0.023519451            3 
 1424000    1.0272255   -7.7198383    400.92021  0.023462091  0.023512999            2 
 1425000   0.99563413   -7.7592854    401.51534  0.023480429  0.023506556            4 
 1426000    1.0241231   -7.7415571    402.43767  0.023517863  0.023500169            3 
 1427000    1.0123873   -7.7504339    401.74721  0.023461061  0.023493845            4 
 1428000    1.0254655   -7.7644282    400.93555  0.023397266  0.023487374            2 
 1429000    1.0513494    -7.692915    403.72492  0.023543557  0.023480994            2 
 1430000    1.0126807   -7.6887154    403.52835  0.023515638  0.023474697            3 
 1431000    1.0235854   -7.7340245     402.0828  0.023415025  0.023468315            5 
 1432000    1.0340079    -7.666414    403.79449  0.023498283  0.023462044            6 
 1433000    1.0190069   -7.6977904     404.4285  0.023518755   0.02345584            1 
 1434000    1.0344098   -7.7345483    403.08677  0.023424382  0.023449595            2 
 1435000    1.0151347   -7.7310861    403.29861  0.023420361  0.023443322            2 
 1436000    1.0410257   -7.7248729    403.06441   0.02339046  0.023436988            6 
 1437000    1.0236103   -7.6803038    404.44071  0.023453996  0.023430799            3 
 1438000   0.99620875   -7.7271933    404.42661  0.023436869  0.023424469            7 
 1439000    1.0090745   -7.7535382    403.78175  0.023383238  0.023418167            3 
 1440000    1.0274729   -7.7209071    403.98506  0.023378765  0.023411898            1 
 1441000    1.0213409   -7.6916577    405.74459  0.023464295  0.023405642            3 
 1442000    1.0306307   -7.7188898    404.64072   0.02338423   0.02339935            1 
 1443000     1.029026   -7.7268221      404.836  0.023379302  0.023392984            3 
 1444000   0.99935171   -7.7652135    403.86391  0.023307012  0.023386534            3 
 1445000    1.0307648   -7.7270525    404.60974  0.023333895  0.023380018            3 
 1446000    1.0144306   -7.7152993    405.99545  0.023397617  0.023373566            3 
 1447000    1.0142936   -7.7549951     403.8017  0.023255108   0.02336707            3 
 1448000    1.0175666    -7.736422    404.32143  0.023268959  0.023360579            5 
 1449000   0.99468632   -7.7935732    405.05256  0.023294948  0.023353917            4 
 1450000     1.008157   -7.7397123    404.28416  0.023234722  0.023347161            3 
 1451000    1.0168491   -7.7647766    403.37107  0.023166269  0.023340406            2 
 1452000    1.0239172   -7.7486214     404.9534  0.023241127   0.02333368            5 
 1453000    1.0145916   -7.7447434    405.59126  0.023261715  0.023327036            2 
 1454000    1.0247421   -7.7194693    405.24032  0.023225603  0.023320292            5 
 1455000    1.0310076   -7.7772661    404.39992  0.023161508  0.023313454            2 
 1456000    1.0069991   -7.7238616    405.44607  0.023205476  0.023306628            2 
 1457000    1.0323671   -7.7267164    405.33208  0.023183029  0.023299806            6 
 1458000    1.0226529   -7.7149598    405.30497  0.023165579  0.023292996            3 
 1459000    1.0149023   -7.7131758    406.43212  0.023214081  0.023286214            2 
 1460000    1.0232595   -7.7160262    406.04573  0.023176126  0.023279475            2 
 1461000    1.0099288   -7.7006742    406.36577  0.023178518  0.023272767            2 
 1462000    1.0019392   -7.7423378    406.54109  0.023172657  0.023266103            3 
 1463000   0.98675888   -7.7110291    406.66958  0.023164137  0.023259297            2 
 1464000    1.0235607   -7.6680282    407.52353  0.023196923   0.02325265            3 
 1465000    1.0217421   -7.7598431    406.85128  0.023142848  0.023245904            4 
 1466000    1.0100967   -7.7180366    407.75199  0.023178262  0.023239146            3 
 1467000    1.0084253   -7.7252018    406.31807  0.023081008  0.023232346            1 
 1468000    1.0054522   -7.7354558    406.24943  0.023061389  0.023225671            2 
 1469000    1.0066944   -7.7247853    407.52021  0.023117779  0.023218978            3 
 1470000    1.0204312   -7.6936576    407.04172  0.023074928  0.023212208            2 
 1471000     1.007272   -7.7366595    407.04699  0.023059539  0.023205482            4 
 1472000    1.0227195   -7.7303423    407.85946   0.02308987  0.023198702            2 
 1473000    1.0043823    -7.755124    408.09781  0.023087679  0.023191926            1 
 1474000    1.0197722   -7.7810937    407.37707  0.023031268  0.023185111            2 
 1475000   0.99641001   -7.7337268    408.56684  0.023082872  0.023178245            3 
 1476000    1.0293185   -7.7271525    409.15191  0.023100266  0.023171528            2 
 1477000    1.0227614   -7.7402722    408.25729  0.023034151  0.023164814            2 
 1478000   0.98582432   -7.7201152     410.4137   0.02314015  0.023158196            2 
 1479000    1.0431002    -7.709702    408.76033  0.023031346  0.023151596            2 
 1480000      1.00806   -7.7364972    409.79764  0.023074191  0.023144934            3 
 1481000    1.0387532    -7.729512    410.55858  0.023101428  0.023138321            2 
 1482000   0.99365177   -7.7228533    410.83978  0.023101652  0.023131675            1 
 1483000    1.0219261    -7.738044    410.95624  0.023092618  0.023125156            2 
 1484000    1.0423194    -7.733326    410.69524  0.023062401  0.023118664            2 
 1485000    1.0233611    -7.730182    411.16426  0.023073191  0.023112126            6 
 1486000    1.0094191     -7.74271    410.93721  0.023044931  0.023105582            2 
 1487000   0.99458257    -7.736079    411.83351  0.023079663  0.023099026            3 
 1488000    1.0163035   -7.7695922    411.73902  0.023058861  0.023092352            2 
 1489000    1.0106388   -7.7660498    410.80145  0.022990902   0.02308575            4 
 1490000    1.0153925    -7.739401    412.85932  0.023090566  0.023079195            3 
 1491000    1.0032763   -7.7667902    410.47058  0.022941571   0.02307256            3 
 1492000    1.0238144   -7.7585287     412.6065  0.023045493   0.02306602            2 
 1493000    1.0324489    -7.705815    413.67528  0.023089712   0.02305952            2 
 1494000    1.0084519   -7.7382278    412.80666  0.023025806  0.023053064            2 
 1495000    1.0311381   -7.7556062    411.79349  0.022953929  0.023046523            3 
 1496000    1.0079155   -7.7813606    412.60605  0.022983849  0.023040007            2 
 1497000   0.99470232    -7.780154    412.90984  0.022985406  0.023033459            3 
 1498000    1.0002006   -7.7745656    412.26406  0.022934138  0.023026957            1 
 1499000    1.0063731   -7.7475151    413.19153  0.022970398  0.023020404            5 
 1500000    1.0018119   -7.7494068     414.2433  0.023013517  0.023013958            2 
 1501000    1.0033784   -7.7768067    413.46035  0.022954716  0.023007573            3 
 1502000    1.0017528   -7.7215931    416.12227  0.023087121  0.023001262            5 
 1503000    1.0124911   -7.7338945    414.55666  0.022984955  0.022994934            2 
 1504000    1.0152131    -7.756205     414.7786   0.02298197   0.02298848            5 
 1505000    1.0293393   -7.7415667    414.98122  0.022977919  0.022982067            3 
 1506000    1.0261036    -7.734442    415.70343  0.023002624  0.022975751            6 
 1507000   0.98694502   -7.7465002    414.99428  0.022948146   0.02296939            1 
 1508000    1.0287013   -7.7528243    414.46756  0.022903822  0.022962893            3 
 1509000    1.0247204   -7.7397576     415.6909  0.022956202  0.022956498            4 
 1510000   0.98536374   -7.7702978    414.99049  0.022902345  0.022950072            2 
 1511000    1.0160206   -7.7625342    415.76316  0.022929801  0.022943636            2 
 1512000    1.0185413    -7.802609    415.61291  0.022906355  0.022937134            4 
 1513000    1.0319766   -7.7332392    417.43377  0.022991505  0.022930717            3 
 1514000    1.0295776   -7.7815719     416.0719   0.02290136  0.022924168            4 
 1515000    1.0205389   -7.7919835    414.98657  0.022826544  0.022917571            2 
 1516000    1.0202383   -7.7970921    415.99306  0.022866813  0.022911012            3 
 1517000    1.0005008   -7.7573075    416.49763  0.022879457    0.0229045            5 
 1518000    1.0098536   -7.7315261     417.3315  0.022910161  0.022898075            1 
 1519000    1.0220312   -7.7968408    416.34433  0.022840922  0.022891589            3 
 1520000    1.0163004   -7.7475018    416.60371  0.022840116  0.022885078            2 
 1521000   0.96267792   -7.7576338    417.30312  0.022863419  0.022878598            3 
 1522000    1.0186966    -7.748331    416.78032  0.022819772   0.02287208            1 
 1523000   0.99875222   -7.7506602    417.02085   0.02281795  0.022865603            5 
 1524000    1.0069855   -7.7679409    417.70743   0.02284052  0.022859109            2 
 1525000    1.0119262   -7.7301857    418.91786  0.022891686  0.022852608            5 
 1526000      1.02121   -7.7502075     417.9631  0.022824547  0.022846063            2 
 1527000   0.99099245   -7.8110268     418.5165    0.0228398   0.02283951            2 
 1528000    1.0143042   -7.7486538    418.74847  0.022837504  0.022833036            2 
 1529000   0.98835231   -7.7668779    418.26349  0.022796135  0.022826524            1 
 1530000    1.0042406   -7.7598805    418.79458  0.022810162  0.022820099            4 
 1531000      1.00012   -7.7242743    419.49887  0.022833598  0.022813685            3 
 1532000    1.0204423   -7.7250562    419.43052  0.022814976  0.022807316            6 
 1533000    1.0105316   -7.7937749    418.82534  0.022767196   0.02280097            2 
 1534000    1.0022527   -7.7643962    417.84366  0.022699026  0.022794541           10 
 1535000    1.0298659   -7.7351855    419.33421  0.022765158  0.022788071            2 
 1536000   0.99950979   -7.7797647    419.22145   0.02274422  0.022781748            2 
 1537000    1.0171499   -7.7567152    419.39189  0.022738662   0.02277524            4 
 1538000    1.0072015   -7.7738765    419.55058  0.022732476  0.022768848            2 
 1539000    1.0185672   -7.7905226    419.39297  0.022709171  0.022762397            2 
 1540000    1.0024062    -7.761299    420.31237  0.022744176  0.022755791            3 
 1541000   0.98496988   -7.7417716    420.93021  0.022762828  0.022749375            2 
 1542000   0.99679887     -7.75176    419.32826  0.022661493   0.02274287            3 
 1543000    1.0132963   -7.7927361    419.88618  0.022676938  0.022736238            4 
 1544000    0.9812479    -7.776141    419.19261  0.022624817  0.022729595            1 
 1545000     1.008723   -7.7473937    420.83395  0.022698703  0.022723012            2 
 1546000    1.0115785   -7.7846053    420.07453  0.022643086  0.022716457            2 
 1547000    0.9907494   -7.7851082    421.03616   0.02268025  0.022709922            5 
 1548000    1.0166527   -7.7945073     419.6097  0.022588808  0.022703406            4 
 1549000     1.015657   -7.7677221    420.55549  0.022625107  0.022696806            3 
 1550000    1.0099807   -7.7977051    421.94695   0.02268532  0.022690236            2 
 1551000   0.97953202   -7.8222175    419.93796  0.022562753  0.022683632            4 
 1552000    1.0018052   -7.7932987    421.13185   0.02261232  0.022677002            1 
 1553000    1.0079514   -7.7719713     421.0169  0.022591591  0.022670367            4 
 1554000     0.991763   -7.7431356    423.07767  0.022687563  0.022663789            4 
 1555000   0.98579943   -7.7767303    421.79868  0.022604431  0.022657277            4 
 1556000   0.99092435   -7.7602176    422.35964  0.022619946  0.022650633            3 
 1557000   0.99173913   -7.7914986    422.25905  0.022600035  0.022643916            2 
 1558000    1.0167839   -7.7818275    422.22311  0.022583607  0.022637146            4 
 1559000   0.99882313   -7.7524504    421.93139  0.022553527  0.022630519            2 
 1560000   0.98372569   -7.7408853    422.01384  0.022543474  0.022623835            2 
 1561000    1.0008172   -7.7805031      423.762  0.022622357  0.022617079            2 
 1562000   0.98537455   -7.7585885    422.51351  0.022541267   0.02261038            3 
 1563000   0.98480508    -7.762807    421.91923   0.02249516  0.022603744            3 
 1564000   0.99846909   -7.7834144    422.24991  0.022498397  0.022597114            4 
 1565000    1.0189512   -7.7697041    423.43985  0.022547383  0.022590485           11 
 1566000   0.99434399   -7.8145892    421.12481  0.022409792  0.022583741            2 
 1567000   0.99380147   -7.7987859    420.90142  0.022383611  0.022576994            8 
 1568000   0.97813678   -7.7742084    422.87018  0.022473968   0.02257027            2 
 1569000   0.99944809    -7.770383    423.77269  0.022507579  0.022563519            1 
 1570000    1.0047899   -7.7814415    422.96763  0.022450511  0.022556762            2 
 1571000    1.0041842   -7.7715551    424.66114  0.022526052  0.022550032            3 
 1572000   0.99654436   -7.8279677    422.80732   0.02241345  0.022543298            2 
 1573000    1.0160234   -7.7827556    423.00959  0.022409917  0.022536587            3 
 1574000    1.0197408   -7.7993279    423.89583    0.0224426  0.022529848            4 
 1575000   0.99275362   -7.8426941    423.07748  0.022385052  0.022523068            2 
 1576000   0.98530207   -7.7630015    423.21515  0.022378128  0.022516372            2 
 1577000   0.99172838   -7.8054298    423.81901  0.022395847  0.022509643            5 
 1578000    1.0017885   -7.8047368    424.49074  0.022417128  0.022502913            3 
 1579000    1.0005449   -7.7837767     423.6694  0.022359584  0.022496102            3 
 1580000   0.98960753   -7.7809499    424.94963  0.022412955  0.022489343            2 
 1581000    1.0116613   -7.7434656    424.28009  0.022363488   0.02248264            1 
 1582000   0.98928055   -7.7620519    424.98505  0.022386486  0.022475938            5 
 1583000    0.9830401   -7.7913446    424.29648  0.022336096  0.022469395            3 
 1584000   0.98758148   -7.7546327    428.22401   0.02252862  0.022462862            7 
 1585000   0.98530705   -7.7722098    426.31666  0.022414125  0.022456339            2 
 1586000    1.0137434   -7.7787301    426.18038  0.022392832  0.022449792            1 
 1587000    1.0062323   -7.7904625       426.12  0.022375551  0.022443157            4 
 1588000    1.0061581   -7.7652941    426.64365   0.02238894  0.022436648            2 
 1589000   0.98394365    -7.784126    426.50372  0.022367512  0.022430138            5 
 1590000    0.9899554   -7.8190606    425.08492  0.022279084  0.022423544            1 
 1591000   0.99564742   -7.7961474    427.73908    0.0224041   0.02241686            3 
 1592000    1.0071394   -7.8133948    425.60853  0.022278504  0.022410224            4 
 1593000    1.0010999   -7.7873651     426.2815  0.022299723   0.02240349            3 
 1594000    0.9999116   -7.7935215    425.81202  0.022261189  0.022396866            2 
 1595000    1.0261574   -7.7825501    426.70383  0.022293826  0.022390107            5 
 1596000   0.99623489   -7.8037245    426.85762  0.022287888  0.022383403            3 
 1597000    1.0062076   -7.8005804    426.56824  0.022258831  0.022376704            2 
 1598000    1.0216504   -7.7778881    427.48421  0.022292668   0.02237005            3 
 1599000   0.97114218   -7.7749732    429.60598  0.022389305  0.022363422            3 
 1600000   0.96848317   -7.8353874     427.1397   0.02224686  0.022356875            1 
 1601000   0.99540145   -7.7949149    428.30161  0.022293442  0.022350223            8 
 1602000   0.97770983   -7.7836658    429.20359  0.022326446  0.022343673            5 
 1603000   0.99581787   -7.8143407    429.57486  0.022331818  0.022337083            8 
 1604000   0.98965341   -7.8137572     428.1407  0.022243386  0.022330496            2 
 1605000   0.99382693   -7.7714921    429.88183  0.022319929  0.022324011            4 
 1606000    0.9684338   -7.8142288    429.16845  0.022269015  0.022317528            1 
 1607000    1.0229977   -7.7890698    429.11302  0.022252283  0.022311028            6 
 1608000    0.9908574   -7.8076903    429.94858  0.022281747  0.022304576            3 
 1609000    1.0009228   -7.7822772    429.41233  0.022240125     0.022298            2 
 1610000   0.97538378   -7.8385875    430.18587   0.02226635  0.022291497            8 
 1611000    1.0248235   -7.8225691    429.89868  0.022237672  0.022285022            4 
 1612000    0.9975328   -7.8441861     430.4262  0.022251147  0.022278504            2 
 1613000    1.0088894   -7.7664202    430.95842  0.022264849  0.022271956            2 
 1614000    1.0028942    -7.787116    432.33359  0.022322056  0.022265503            3 
 1615000    0.9957496   -7.7778167    430.48369  0.022212781  0.022259019            7 
 1616000    1.0207339   -7.8361514    429.83507  0.022165588  0.022252505            2 
 1617000   0.97115926   -7.7921615    431.65523  0.022245683  0.022245948            4 
 1618000    1.0062588   -7.8329763    431.03227  0.022199849  0.022239403            3 
 1619000   0.99587173   -7.8095128      430.234  0.022145048  0.022232817            6 
 1620000    1.0032274   -7.8032985    432.00611  0.022222536   0.02222638            1 
 1621000   0.99786336   -7.7916196    431.46924  0.022181228  0.022219948            8 
 1622000   0.98450921   -7.8131918     432.0648   0.02219815  0.022213606            1 
 1623000   0.97920679   -7.7560727    432.72666  0.022218456  0.022207277           11 
 1624000    1.0014965   -7.7687539    433.29253  0.022233812  0.022200851            2 
 1625000    1.0033253    -7.795663    433.10034  0.022210274  0.022194399            1 
 1626000   0.97305175   -7.8238518    430.69005  0.022073086  0.022187883            4 
 1627000   0.99271488   -7.8013578    432.85927  0.022170624  0.022181373            1 
 1628000   0.97777163   -7.7970537    433.03266  0.022165881  0.022174888            4 
 1629000   0.97280529   -7.8089978     432.6015  0.022130218  0.022168393            3 
 1630000   0.98098817   -7.7886306    433.29704  0.022152201  0.022161856            2 
 1631000     0.995545   -7.8151376    433.28757  0.022138134  0.022155336            4 
 1632000     1.004064   -7.8309778    434.15475  0.022168849   0.02214877            2 
 1633000   0.99444545   -7.7659945    433.47924  0.022120802  0.022142358           13 
 1634000    1.0027669   -7.7872624    434.24945  0.022146545  0.022135913            2 
 1635000    0.9953332   -7.7472511    435.10825  0.022176771  0.022129452            3 
 1636000   0.99011185   -7.7949491    434.98886  0.022157134  0.022123014            2 
 1637000    1.0013876   -7.7913796    434.81696  0.022134849  0.022116597            1 
 1638000    1.0115695   -7.8039118    434.20035  0.022089965  0.022110093            3 
 1639000    1.0031258   -7.7982851    434.78859  0.022106396  0.022103576            2 
 1640000   0.99634918   -7.8451509    433.60187  0.022032616  0.022097039            2 
 1641000   0.97570503   -7.8277984    435.56826  0.022119046  0.022090512            3 
 1642000   0.97723542   -7.8130159     434.7608  0.022064596  0.022084026            5 
 1643000    0.9911215   -7.8405726    434.01672  0.022013427  0.022077555            2 
 1644000   0.97092774   -7.8493696    434.76156  0.022037792  0.022070938            3 
 1645000   0.98444878   -7.8558068    434.46688  0.022009467  0.022064509            6 
 1646000    1.0033758   -7.8222037    435.96269  0.022071825  0.022058122            4 
 1647000   0.98046769   -7.7675081    436.46079  0.022083626  0.022051738            4 
 1648000   0.98653914   -7.8092812    436.02371  0.022048124  0.022045353            2 
 1649000    1.0071761    -7.807543     436.3518  0.022051334  0.022038905            2 
 1650000    0.9824192   -7.8336365    435.62378  0.022001201  0.022032458            2 
 1651000    1.0010014   -7.8057961    436.95295  0.022054964  0.022025998            7 
 1652000   0.98162199   -7.8028272    436.50688  0.022019112  0.022019552            3 
 1653000    1.0112457   -7.8375903    437.02698  0.022032011  0.022013106            3 
 1654000   0.99111617   -7.8199232     436.7046  0.022002448  0.022006646            4 
 1655000   0.99904186   -7.8004713    437.46109  0.022027245  0.022000181            2 
 1656000   0.96054542   -7.8473994    437.69878  0.022025905  0.021993783            1 
 1657000   0.99470193   -7.7965757    437.61927  0.022008614  0.021987331            4 
 1658000   0.98583635   -7.8349708     436.9515  0.021961776  0.021980981            1 
 1659000   0.99359006   -7.8413496    435.66905   0.02188412  0.021974625            2 
 1660000   0.98803077   -7.7946631    438.65935  0.022021052  0.021968094            3 
 1661000   0.98063059    -7.819946    437.37114  0.021943164  0.021961703            3 
 1662000   0.99377078   -7.8040632    437.81463  0.021952198  0.021955208            2 
 1663000   0.98702117   -7.8310101    436.90044  0.021893187  0.021948716            4 
 1664000   0.99568984   -7.7949779    438.83309  0.021976817    0.0219423            1 
 1665000   0.99720577   -7.8271066    438.12979  0.021928418  0.021935839            6 
 1666000   0.98047159   -7.8003308    438.68542  0.021943048  0.021929452            4 
 1667000   0.99037263   -7.8150465    439.16014  0.021953616  0.021923049            4 
 1668000   0.99244744   -7.8140408    438.99962  0.021932435  0.021916755            2 
 1669000   0.98676949    -7.806242    439.79179  0.021958847  0.021910395            3 
 1670000   0.97883699    -7.797963    440.09255  0.021960706  0.021904047            3 
 1671000   0.97690469   -7.7887188    438.61655  0.021873955  0.021897676            5 
 1672000   0.98504095   -7.8451145    439.36579  0.021898215  0.021891262            4 
 1673000     1.010165   -7.8453507    437.42562  0.021788485  0.021884818            3 
 1674000    1.0049783   -7.8409215    438.71551  0.021839681  0.021878387            2 
 1675000   0.97056205   -7.8214106    440.87499  0.021934079  0.021872051           11 
 1676000   0.97493275   -7.8060473    439.82362  0.021868716  0.021865764            8 
 1677000   0.97603272   -7.8229452    440.87374  0.021907858  0.021859348            2 
 1678000   0.99122909   -7.8164722    439.62693  0.021832883  0.021852928            2 
 1679000   0.98708459   -7.8198516    440.30586  0.021853577  0.021846613            3 
 1680000    1.0039483   -7.8063419    440.77571  0.021863875  0.021840252            5 
 1681000   0.98361759   -7.7820985    441.28398  0.021876065  0.021833913            2 
 1682000   0.99126279   -7.8263896    441.32201  0.021864943  0.021827582            5 
 1683000   0.98994989   -7.8122291    440.99107  0.021835565  0.021821264            4 
 1684000   0.96016515   -7.8400297    439.66736  0.021757094  0.021814942            8 
 1685000    0.9917763   -7.8534983    440.26049  0.021773516  0.021808648            2 
 1686000   0.99301368   -7.8245097     442.5157  0.021872069  0.021802318            3 
 1687000   0.97778516   -7.8353299    441.25653  0.021796904  0.021796037            3 
 1688000     0.970664   -7.8304736     442.6465  0.021852611  0.021789776            1 
 1689000   0.98393512   -7.8343671    442.41156  0.021828082  0.021783487            5 
 1690000     0.997637   -7.8152429     442.7425  0.021831484  0.021777146           11 
 1691000   0.97924071   -7.8548031    442.10292  0.021787055  0.021770748            2 
 1692000    0.9910157   -7.8554073    441.37088  0.021738125  0.021764426            7 
 1693000   0.97390584   -7.8025405    443.92553   0.02185103  0.021758234            3 
 1694000   0.98464352   -7.8619912     443.3195  0.021808319  0.021751942            7 
 1695000   0.97731874   -7.8235112    443.56492  0.021807518  0.021745707            3 
 1696000   0.97405132    -7.867301    443.02437    0.0217681   0.02173932            3 
 1697000   0.97383255   -7.8430314    444.88316  0.021846551  0.021733006            3 
 1698000   0.97756941   -7.8405829    442.46824  0.021715167  0.021726713            1 
 1699000   0.97861562   -7.8798502    442.58439  0.021708083  0.021720425            3 
 1700000   0.97579534   -7.8363901    444.68896  0.021798478  0.021714195            1 
 1701000   0.96134721   -7.8425314    444.91658  0.021796814  0.021708018            3 
 1702000   0.99969834   -7.7890606    445.79804  0.021827166  0.021701882            4 
 1703000    0.9539063   -7.8557052    443.47393  0.021700623  0.021695832            3 
 1704000    1.0017472   -7.7965385    446.72261  0.021846763  0.021689777            3 
 1705000   0.97508541   -7.8615034    444.57339  0.021728905  0.021683645            3 
 1706000   0.98906998   -7.8392846    444.46582  0.021710914  0.021677519            4 
 1707000   0.98707449   -7.8103626    445.67599  0.021757274  0.021671422            8 
 1708000   0.98153549   -7.8048475    446.72267  0.021795603  0.021665368            1 
 1709000   0.96737428   -7.8181086     448.0001  0.021845139  0.021659387            2 
 1710000   0.98555427   -7.8059596    447.08396  0.021787718  0.021653399            5 
 1711000   0.95460997   -7.8601747     447.2028  0.021780771  0.021647343            1 
 1712000   0.96882845    -7.877306    446.81569  0.021749206  0.021641247            3 
 1713000   0.97673423   -7.8200153    447.41961  0.021765889  0.021635156            6 
 1714000   0.99254303   -7.8615791    447.37158  0.021750855  0.021629003            2 
 1715000   0.98127505   -7.8425874    447.43338  0.021741175  0.021622877            3 
 1716000   0.99322258   -7.8618963    445.99204   0.02165851  0.021616739            2 
 1717000   0.97660021   -7.8217503    448.05643   0.02174609  0.021610606            2 
 1718000   0.97931169   -7.8728501    446.73738   0.02166945  0.021604514            1 
 1719000    1.0029723   -7.8327414    447.04926  0.021671963  0.021598333            5 
 1720000   0.96920711    -7.831003    447.85534  0.021698418  0.021592219            2 
 1721000   0.97851502   -7.8390253    448.11283  0.021698278  0.021586109            2 
 1722000    0.9631091   -7.8171748    448.19623  0.021689713  0.021579906            2 
 1723000   0.97566061   -7.8055545    449.16391  0.021723927  0.021573799            4 
 1724000    0.9654258   -7.8074302      447.787   0.02164477   0.02156767            3 
 1725000   0.97444858   -7.8483014    448.46632   0.02166504  0.021561547            3 
 1726000   0.99073199    -7.865285    448.95188  0.021675931  0.021555403            2 
 1727000   0.96062384   -7.8823465    448.02936  0.021618865  0.021549255            4 
 1728000   0.99300688   -7.8243688    448.95165  0.021650832   0.02154306            2 
 1729000   0.98811081   -7.8365824    449.02442  0.021641817  0.021537031            3 
 1730000   0.96876721   -7.8610333    448.15737  0.021587542  0.021530939            3 
 1731000   0.94691804   -7.8472101    448.21482  0.021577836  0.021524821            3 
 1732000   0.98978582   -7.8729326    448.85137  0.021596005  0.021518683            5 
 1733000   0.96078364   -7.8817361    448.98232   0.02158984  0.021512568            2 
 1734000   0.97351867   -7.9186841    448.54629  0.021556435  0.021506379            3 
 1735000   0.97463028   -7.8820838    449.11847  0.021571493  0.021500202            3 
 1736000   0.97790846   -7.8570957     450.2462  0.021613201  0.021494094            2 
 1737000   0.95923038   -7.8292721    450.54048  0.021614876  0.021488019            1 
 1738000   0.97291276   -7.8862061    448.93392  0.021525408  0.021481976            3 
 1739000   0.98202626   -7.8918296    449.47289  0.021538858  0.021475878            4 
 1740000   0.96056514   -7.8348556      451.192  0.021608812   0.02146981            1 
 1741000   0.95327478   -7.8507937    449.20826  0.021501448   0.02146372            1 
 1742000   0.95922418    -7.848322    450.95317  0.021572578  0.021457668            3 
 1743000   0.98226498   -7.8603655    451.34471  0.021578921  0.021451606            6 
 1744000   0.95718919   -7.8478613    450.42427  0.021522567  0.021445527            2 
 1745000   0.98288591   -7.8807878    450.58128  0.021517731  0.021439467            2 
 1746000    0.9677789   -7.8447047    452.13603  0.021579612  0.021433419            3 
 1747000   0.96538709   -7.8547476    452.29959  0.021575062   0.02142747            5 
 1748000   0.96032008   -7.8856108    450.22776  0.021463947  0.021421513            7 
 1749000   0.97528624   -7.8818076    452.47775  0.021558879  0.021415443            2 
 1750000   0.95921981   -7.8673924    452.18387  0.021532565  0.021409444            3 
 1751000   0.97718369   -7.8497458     451.9067  0.021507077  0.021403459            4 
 1752000   0.97238721   -7.8514167    452.78942  0.021536787  0.021397532            4 
 1753000   0.94926124   -7.8522054    452.34902  0.021503566  0.021391633            2 
 1754000    0.9388351   -7.8629824    452.75689  0.021510685  0.021385747            2 
 1755000   0.94680363   -7.8567459    453.11623   0.02151549  0.021379794            3 
 1756000   0.98407096   -7.8313946    453.91756  0.021541266  0.021373898            4 
 1757000   0.98624972   -7.8334401     455.2439  0.021591913  0.021368041            1 
 1758000   0.97239068   -7.8644916    454.44016  0.021541532  0.021362126            6 
 1759000   0.96779233   -7.8208552    453.89698  0.021503552  0.021356151            3 
 1760000   0.96714623   -7.8811851    454.09544  0.021500731  0.021350195            4 
 1761000   0.99642611   -7.8684186    453.85634  0.021477207  0.021344256            3 
 1762000   0.98733354   -7.8917785    455.05175  0.021521554  0.021338331            3 
 1763000   0.96824551    -7.872179    455.22801  0.021517679  0.021332505            6 
 1764000   0.98666973   -7.9106334    453.77349  0.021436767  0.021326587            1 
 1765000   0.98571371   -7.8688451    455.24753  0.021494218  0.021320787            3 
 1766000   0.95308106   -7.8787186     454.4467  0.021444257  0.021314998            3 
 1767000   0.98413656    -7.829906    455.84469  0.021498052  0.021309154            1 
 1768000   0.97331818   -7.8623061    454.83351  0.021438231  0.021303231            2 
 1769000   0.98013798   -7.8913711    455.70626  0.021467225  0.021297248            8 
 1770000   0.97062846   -7.8683142    457.21968   0.02152635  0.021291338            2 
 1771000   0.98458482   -7.8516706    455.37627  0.021427455  0.021285426            1 
 1772000   0.98156251   -7.8356063    456.50643  0.021468512  0.021279537            2 
 1773000   0.96843191   -7.8577813    455.85887  0.021425967  0.021273671            3 
 1774000   0.95614865   -7.8743345    455.55818  0.021399764  0.021267769            5 
 1775000   0.96787752   -7.8934893    455.21707  0.021371693  0.021261872            3 
 1776000   0.99017982   -7.8568429    456.46418  0.021418177  0.021256005            3 
 1777000   0.96116513   -7.8229062    455.90804  0.021380043  0.021250089            2 
 1778000   0.95889325   -7.9028874    454.88998  0.021320303  0.021244193           10 
 1779000   0.96157383   -7.8588496    456.18257  0.021368867  0.021238217           15 
 1780000   0.97263058   -7.8293542    457.48856  0.021418004  0.021232306           12 
 1781000    0.9522136   -7.8899734    457.33553  0.021398818  0.021226363            5 
 1782000   0.97516795   -7.8550382    456.74071  0.021358993  0.021220409            3 
 1783000   0.96917494   -7.8704926    456.93681  0.021356179  0.021214478            1 
 1784000   0.96685889   -7.8979042    455.72644   0.02128767  0.021208563            1 
 1785000   0.96670182   -7.8594942    457.00868  0.021335606   0.02120265            3 
 1786000   0.96329993   -7.8829297    457.18893   0.02133207  0.021196774            4 
 1787000   0.96826679   -7.8258296    458.31352  0.021372576  0.021190957            2 
 1788000   0.95282636   -7.8669004    458.45985  0.021367442  0.021185209            7 
 1789000   0.95648917   -7.9030615    457.59142  0.021315046  0.021179459            3 
 1790000   0.94075079   -7.8546991    457.34664  0.021291743  0.021173689            4 
 1791000   0.96756419   -7.8964743    458.36437  0.021327209  0.021167854            2 
 1792000   0.97958031   -7.8667947    458.36306  0.021315247  0.021162095            6 
 1793000   0.96652553   -7.8546595    459.29703  0.021346767  0.021156321            4 
 1794000   0.96351759   -7.8881632    456.97599  0.021227053  0.021150501            2 
 1795000   0.97477169   -7.8953755    457.76073  0.021251659   0.02114463            2 
 1796000   0.96788133   -7.9008098    458.68582  0.021282749  0.021138734            4 
 1797000   0.95694834   -7.8726939    459.05898  0.021288211  0.021132862            1 
 1798000   0.95875365   -7.8914958    459.77566  0.021309587  0.021127015            3 
 1799000   0.96177235   -7.8446381    459.14479  0.021268519  0.021121146            2 
 1800000   0.94399617   -7.8828841    459.93803  0.021293427  0.021115338            3 
 1801000   0.95726416   -7.9048285    459.95067  0.021282189  0.021109429            3 
 1802000   0.94565293   -7.8988318    458.13604  0.021186462  0.021103434            1 
 1803000   0.95659708   -7.8957328    459.30932  0.021228939  0.021097444            1 
 1804000   0.99320421   -7.8779687    459.11462  0.021208177  0.021091437            4 
 1805000   0.94945481   -7.8819463    460.08268  0.021241121  0.021085488            2 
 1806000   0.97025215     -7.87362    459.76335  0.021214625  0.021079585            2 
 1807000   0.97957669   -7.9154004    459.31878  0.021182382  0.021073668            6 
 1808000   0.96571678    -7.879547    459.37352   0.02117319  0.021067647            1 
 1809000   0.98522859   -7.8785237    460.54466  0.021215435  0.021061748            2 
 1810000   0.97918654   -7.8663607     460.4073  0.021197389  0.021055893            2 
 1811000   0.94967339   -7.9031351    460.71193  0.021199702  0.021049941            2 
 1812000   0.95107044   -7.8886537    459.24391  0.021120489  0.021044013            2 
 1813000   0.96302139   -7.9050855     459.3847  0.021115311  0.021037991            4 
 1814000    0.9690844   -7.8942194    460.70315  0.021164239  0.021032002            1 
 1815000   0.92643436   -7.8704818    461.16025  0.021173565  0.021026046            3 
 1816000   0.96200938   -7.8945559    460.10513  0.021113488  0.021020016            2 
 1817000   0.98623572   -7.8977974    460.16044  0.021104404  0.021013966            1 
 1818000   0.95853974   -7.8576978    460.73329  0.021119054  0.021007933            2 
 1819000    0.9732518   -7.8704327    460.48447  0.021096045  0.021001955            5 
 1820000   0.96563664   -7.8572184    463.15779  0.021206859  0.020995946            3 
 1821000   0.94547467   -7.8723179    461.42668  0.021115993  0.020989974            2 
 1822000   0.97874358   -7.9065107    461.59631  0.021112162  0.020983989            1 
 1823000   0.95202647   -7.8850591    461.02296  0.021074372   0.02097801            1 
 1824000    0.9279589   -7.8845229    460.90189  0.021057287  0.020972123            2 
 1825000   0.96495934   -7.8970928    462.02164  0.021096878  0.020966204            6 
 1826000   0.95724448   -7.8817624    461.44478  0.021058999  0.020960309            2 
 1827000   0.97234253   -7.8438169    462.43954  0.021092845  0.020954387            2 
 1828000   0.97953554   -7.8899981    462.71402  0.021093819  0.020948474            4 
 1829000   0.95351266   -7.8820036    460.91643  0.021000384  0.020942413            2 
 1830000   0.96063521   -7.8857234    461.82868   0.02103045  0.020936273            2 
 1831000   0.95364376   -7.9144418    460.72731  0.020968838  0.020930144            3 
 1832000    0.9672926   -7.9295241    461.09388  0.020974066  0.020924025            3 
 1833000   0.96418102   -7.9139678    461.67377  0.020988988  0.020917817            6 
 1834000   0.95359458   -7.9164159    462.39626  0.021010372   0.02091163            4 
 1835000   0.94872269   -7.8631128    462.89348  0.021021502   0.02090549            3 
 1836000   0.97147759   -7.8833447    462.59194  0.020996366  0.020899415            2 
 1837000    0.9529846   -7.8904267    462.69447  0.020989587  0.020893322            4 
 1838000   0.97638527   -7.8922003    461.89264  0.020941813  0.020887269            2 
 1839000   0.97693119   -7.9365717    461.54598  0.020914717    0.0208811            3 
 1840000   0.98249175   -7.8605125    463.96978  0.021013124  0.020875026            2 
 1841000   0.95924422   -7.9123884    462.91865  0.020954131  0.020868895            3 
 1842000   0.95157008   -7.8978696    464.72119  0.021024303  0.020862798           10 
 1843000   0.96455697   -7.9306995    463.78736  0.020970671  0.020856738            2 
 1844000   0.95160276   -7.9008455    464.77901  0.021004113  0.020850651            2 
 1845000   0.95497657   -7.8833546    464.11643  0.020962802   0.02084459            2 
 1846000   0.98097804   -7.8935154    463.67811  0.020931659  0.020838535            4 
 1847000   0.96261882   -7.8751774    464.34804  0.020950552  0.020832467            5 
 1848000   0.93801567    -7.879398    465.59691  0.020995531  0.020826407            2 
 1849000   0.94493904   -7.8912694    463.86091  0.020905936  0.020820404            6 
 1850000   0.96160057   -7.8831804    464.37512  0.020917798  0.020814375            4 
 1851000   0.95116399   -7.9020083    464.08439  0.020893409  0.020808297            4 
 1852000   0.97095086   -7.9028747    463.92822    0.0208751  0.020802207            2 
 1853000   0.93807536   -7.9350808    463.29366  0.020835297  0.020796064            3 
 1854000   0.93196135    -7.866667    465.56774  0.020926274  0.020789989            4 
 1855000   0.94049402   -7.9408981    463.26986  0.020811764  0.020783758            7 
 1856000   0.96939226   -7.8735451    465.76821  0.020912725  0.020777643            5 
 1857000   0.95927391   -7.9184552    465.02539  0.020868129  0.020771546            5 
 1858000   0.97387681   -7.8901068    466.10916  0.020905506  0.020765438            2 
 1859000   0.95634692   -7.9434003    464.38951  0.020817174  0.020759387            3 
 1860000   0.93907499   -7.9211374    464.40617  0.020806728  0.020753266            3 
 1861000   0.96284359   -7.9664362    463.68368  0.020763196  0.020747145            2 
 1862000   0.96053991   -7.9251338    464.78396  0.020801287  0.020740977            8 
 1863000   0.96731914   -7.9436267    464.08173   0.02075871  0.020734785            4 
 1864000   0.96137435   -7.8980024    466.80786   0.02086945  0.020728622            3 
 1865000   0.93567696   -7.9060977    465.74738  0.020810875  0.020722509            2 
 1866000   0.94829545   -7.9212301    464.58415  0.020747774  0.020716451            6 
 1867000   0.93838245   -7.9213891    466.07037  0.020802998  0.020710421            4 
 1868000   0.95322355   -7.8899377    465.94024  0.020786057  0.020704348            4 
 1869000   0.97177925    -7.874901    467.43409  0.020841541  0.020698278            3 
 1870000   0.95178405   -7.9154717    466.47724  0.020787756  0.020692237            2 
 1871000    0.9374845   -7.9013538    465.65684  0.020740105  0.020686146            4 
 1872000   0.95953491   -7.9202981    467.00996  0.020789261  0.020680086            3 
 1873000   0.94200716   -7.8883404    468.33169  0.020836968  0.020674118            6 
 1874000   0.96745418   -7.9123377    466.94618  0.020764238  0.020668123            7 
 1875000   0.94896941   -7.8813312    468.22712  0.020810094  0.020662138            4 
 1876000   0.95324976   -7.9235418       466.64  0.020728501  0.020656138            6 
 1877000   0.96163355     -7.91659    467.80414  0.020769141  0.020650129            4 
 1878000   0.95162934   -7.8871722    467.55503  0.020747028  0.020644078            4 
 1879000    0.9448814   -7.9120928    466.49552  0.020688998  0.020637983            7 
 1880000   0.97712042   -7.9409359    466.81919   0.02069234  0.020631879            4 
 1881000   0.94176536   -7.8737484    467.94137  0.020731055  0.020625774            5 
 1882000   0.94955238   -7.9432824    466.21753  0.020643709  0.020619835            3 
 1883000   0.92767162   -7.9065399    469.06179  0.020758621  0.020613736            3 
 1884000   0.94614012   -7.9175067    468.15409  0.020707453  0.020607656            6 
 1885000   0.94983775   -7.8988998    468.81634  0.020725745  0.020601612            4 
 1886000   0.97763997   -7.9187968    467.94749  0.020676365  0.020595538            2 
 1887000   0.96100009   -7.8976013    469.06612  0.020714808  0.020589472            2 
 1888000   0.94280976   -7.9357873    469.33649   0.02071577  0.020583442            1 
 1889000   0.95182997   -7.9137763    469.11222   0.02069491   0.02057742            3 
 1890000   0.93723194   -7.9291468    468.70526  0.020666017  0.020571369            7 
 1891000   0.96619487   -7.9057422    470.61553  0.020739271   0.02056539            6 
 1892000   0.96305546   -7.9401622    468.99705  0.020657023  0.020559418            6 
 1893000   0.94901095   -7.9477165    468.98037  0.020645377  0.020553438            5 
 1894000   0.94726326    -7.915509    469.49874  0.020657284  0.020547458            3 
 1895000   0.94473122   -7.9123561    469.42856  0.020643296  0.020541524            3 
 1896000   0.93044485   -7.9404959    469.88081  0.020652286   0.02053553            1 
 1897000   0.94753553    -7.925121    469.45257  0.020622587   0.02052949            4 
 1898000   0.96113469   -7.9401416    469.34699  0.020607086  0.020523431           15 
 1899000   0.95300417   -7.9442137    468.23394  0.020547391  0.020517383            5 
 1900000    0.9621371   -7.9221099    470.07713  0.020617418  0.020511321            4 
 1901000   0.93315186    -7.933239    469.10592  0.020563998  0.020505289            2 
 1902000    0.9607699   -7.9333077     470.0081  0.020592714   0.02049922            2 
 1903000   0.93765533   -7.9458782    470.07557  0.020584847  0.020493107            3 
 1904000   0.93945132   -7.9625365    468.78569  0.020517581  0.020486997            4 
 1905000   0.95894799   -7.9509285    470.32016  0.020573935  0.020480861            2 
 1906000   0.94580834   -7.9275739    469.96184  0.020547475   0.02047477            4 
 1907000   0.93183753   -7.9031654    471.63026  0.020609608  0.020468692            4 
 1908000   0.96683505   -7.9213523    470.64597  0.020555816  0.020462668            1 
 1909000   0.95462287    -7.938973    470.03342  0.020518309  0.020456598            3 
 1910000   0.94616673     -7.93076     471.7304  0.020581606  0.020450573            4 
 1911000   0.93144075   -7.8760254     471.6338  0.020566623  0.020444511            2 
 1912000   0.94687184   -7.8980996    472.22641  0.020581695  0.020438517            6 
 1913000   0.96527839   -7.9023114    471.98598  0.020560463  0.020432517            6 
 1914000   0.92913058   -7.8961184    471.30607  0.020520118  0.020426548            3 
 1915000   0.95569073   -7.9305448    472.72094  0.020570972  0.020420545            3 
 1916000   0.95017694   -7.9289674     472.6877   0.02055879  0.020414552            4 
 1917000   0.96065833   -7.9552142    472.14812   0.02052461  0.020408551            5 
 1918000    0.9360316   -7.9315221    471.64166  0.020491904    0.0204025            3 
 1919000   0.95176676   -7.9101617    470.55835  0.020434182  0.020396379            6 
 1920000    0.9489793   -7.9490957    472.04494  0.020488062  0.020390246            1 
 1921000   0.94126641    -7.956115    470.40267  0.020406154  0.020384155            4 
 1922000   0.94719909   -7.9369298    473.70468  0.020538704  0.020378009            5 
 1923000   0.96323815   -7.9944528    470.75023  0.020399993  0.020371853            3 
 1924000   0.95297708   -7.9580759    471.57832  0.020425257  0.020365724            3 
 1925000   0.94109126   -7.9230928    472.37929   0.02044932  0.020359602            3 
 1926000   0.94305792   -7.9449978    472.19285  0.020430636  0.020353515            2 
 1927000   0.93822743    -7.927922     471.4003  0.020385759  0.020347455            5 
 1928000   0.93982838   -7.9366206    472.89647  0.020439854  0.020341321            7 
 1929000   0.96123676   -7.9267448    472.52471  0.020413198  0.020335211            2 
 1930000   0.94712389   -7.9020982    472.98836  0.020422641  0.020329093            2 
 1931000    0.9445158   -7.9315851    472.91658  0.020408967   0.02032295            1 
 1932000   0.95193428   -7.9152358    473.24838  0.020412715  0.020316829            3 
 1933000   0.95582019   -7.8737733    473.93907  0.020431931  0.020310728            1 
 1934000   0.94481802   -7.9127698     472.7197  0.020368825  0.020304616           10 
 1935000   0.92965508   -7.9251019    471.22269  0.020293828  0.020298476            5 
 1936000   0.93027587   -7.9463499    473.11763  0.020364912  0.020292308            5 
 1937000   0.94020229   -7.9390488    472.81918  0.020341558  0.020286171            2 
 1938000   0.93145168   -7.9540865    472.62843   0.02032286  0.020279951            3 
 1939000   0.93021644    -7.929387    473.20519  0.020337166  0.020273708            4 
 1940000   0.93863702    -7.945413    474.25932  0.020371964  0.020267509            2 
 1941000   0.94714113   -7.9372052    474.48446  0.020371134  0.020261386            2 
 1942000   0.92703239   -7.9560165    473.65476  0.020325041  0.020255264            5 
 1943000   0.92757797   -7.9230352    473.93416  0.020326564  0.020249127            8 
 1944000   0.93239266   -7.9443123    472.15658  0.020239908  0.020242995            6 
 1945000   0.94381365   -7.9244842    474.19703  0.020316925  0.020236878            2 
 1946000   0.95182939   -7.9320067    474.02206  0.020298992  0.020230791            2 
 1947000    0.9329822   -7.9609021    472.96604  0.020243368  0.020224684            5 
 1948000   0.95336905    -7.932328    473.88223  0.020272169  0.020218581            4 
 1949000   0.93252966   -7.9621329    474.02682   0.02026795  0.020212498            4 
 1950000   0.94175636   -7.9546739    474.43816  0.020275135  0.020206417            2 
 1951000    0.9293912   -7.9766612    475.38049  0.020304993  0.020200342            6 
 1952000   0.93411649   -7.9484666    475.96269  0.020319446  0.020194285            5 
 1953000   0.93559122   -7.9505815     475.6576  0.020296023  0.020188271            6 
 1954000    0.9383388   -7.9371264     475.8804  0.020295138  0.020182285            2 
 1955000   0.96080374   -7.9401682    476.02727  0.020291018  0.020176341            3 
 1956000    0.9313077   -7.9550473      477.006  0.020322341  0.020170369            2 
 1957000   0.93929351   -7.9477611    475.26953  0.020238014  0.020164379            4 
 1958000   0.91568891   -7.9401337    476.29044  0.020271129  0.020158392            4 
 1959000   0.93604631   -7.9631221    476.36849  0.020264101  0.020152371           15 
 1960000   0.95331762     -7.98186    476.04351  0.020239945  0.020146272            4 
 1961000     0.947177   -7.9718425    476.43041  0.020246065  0.020140286            2 
 1962000   0.93362336   -7.9081999    477.23381   0.02026987  0.020134364            7 
 1963000   0.93880987   -7.9524152    477.47824   0.02026992  0.020128483            3 
 1964000   0.93685313   -7.9562088    477.38932  0.020255827  0.020122535            2 
 1965000   0.93922507   -7.9760546    477.82263  0.020263895  0.020116596            2 
 1966000   0.93549986   -7.9659296    476.67205  0.020204817  0.020110666            1 
 1967000   0.93631249    -8.009373    476.81322  0.020200526  0.020104727            7 
 1968000   0.92261312   -7.9417383     478.3755  0.020256415   0.02009872            3 
 1969000   0.94582422   -7.9648262    478.75537  0.020262205  0.020092756            4 
 1970000    0.9292685    -7.991363    477.39845   0.02019452  0.020086785            2 
 1971000   0.94960467   -7.9433735    478.01115  0.020210179  0.020080808            2 
 1972000   0.93197262   -7.9232318    478.14497  0.020205585  0.020074852            2 
 1973000   0.93127606   -7.9924418    477.78603  0.020180184   0.02006892            3 
 1974000   0.92572383   -7.9385771    478.72977  0.020209801  0.020063017            2 
 1975000     0.919262   -8.0038604    478.02351  0.020169769  0.020057057            1 
 1976000   0.92471423   -7.9637248    477.89012  0.020153936  0.020051056            3 
 1977000   0.94116711    -7.984227    477.28951  0.020118425   0.02004509            4 
 1978000   0.93864476   -7.9677872     477.9684  0.020136855   0.02003912            2 
 1979000   0.92450314   -7.9775145    478.55855  0.020151531  0.020033129            3 
 1980000   0.94251673   -7.9864774    478.13191  0.020123397  0.020027043            3 
 1981000   0.93563114   -7.9668814    478.79378  0.020141081  0.020020967            3 
 1982000   0.92115845   -8.0122454    478.83283  0.020132561  0.020014861            6 
 1983000   0.94133558   -7.9728325    478.34962  0.020102102  0.020008769            2 
 1984000   0.93134639   -8.0192921    477.52543  0.020057352  0.020002657            2 
 1985000    0.9234333   -7.9843059      477.917  0.020063686  0.019996536            4 
 1986000   0.94646062   -7.9963926    478.08386  0.020060585  0.019990492            2 
 1987000   0.92612895   -8.0277453    478.33014  0.020060818  0.019984431            2 
 1988000   0.93607641   -7.9919183    478.71451  0.020066839  0.019978353            2 
 1989000   0.92454176   -8.0102963    477.85647  0.020020801  0.019972239            6 
 1990000   0.90729094   -7.9751116    480.44705  0.020119223  0.019966102            4 
 1991000   0.91687413   -7.9635788    479.03985   0.02005022  0.019960005            5 
 1992000   0.92890073   -7.9663056    479.26562  0.020049599  0.019953876            2 
 1993000    0.9326371   -7.9848534    478.32649  0.020000271  0.019947774            2 
 1994000    0.9342224   -7.9335065    480.14043  0.020066049  0.019941722            3 
 1995000   0.95279473   -7.9351387    479.62022  0.020034261  0.019935702            3 
 1996000   0.92746111     -7.99112    478.66994   0.01998455  0.019929633            3 
 1997000    0.9365794   -7.9696519     480.2682  0.020041237  0.019923547            9 
 1998000   0.94528539   -7.9794884     479.0943  0.019982245  0.019917433            4 
 1999000   0.92803161   -7.9929045    478.56335  0.019950115  0.019911362            2 
 2000000   0.92825094   -7.9416193    481.67954  0.020069981  0.019905258            3 
 2001000   0.92797956   -7.9521681    481.00095   0.02003169  0.019899253           10 
 2002000    0.9184868    -7.987548    479.27363  0.019949785  0.019893174            9 
 2003000   0.92713579   -8.0010149    479.75892  0.019960015  0.019887031            9 
 2004000   0.92206769   -8.0056926    480.31188  0.019973049   0.01988088            3 
 2005000   0.92495976   -7.9472546    480.94876  0.019989558  0.019874842            5 
 2006000    0.9080324   -7.9878486    479.83658  0.019933391  0.019868745           12 
 2007000   0.95132354   -7.9549925    479.42758  0.019906476  0.019862622            3 
 2008000   0.92671748   -7.9714541    479.92659  0.019917272  0.019856542            2 
 2009000   0.93158714   -7.9665945    481.81938  0.019985871  0.019850445            2 
 2010000   0.92307489   -7.9656584    481.18611  0.019949673   0.01984437            4 
 2011000   0.92362187   -7.9615684    480.79507  0.019923548  0.019838242            5 
 2012000   0.91801888   -8.0025193    480.46419  0.019899942  0.019832132            8 
 2013000   0.93287726   -7.9969699    480.72919  0.019901026  0.019825965            7 
 2014000   0.93841381   -7.9896626    480.50707  0.019881954  0.019819791            3 
 2015000   0.92746278   -7.9917066    481.63116  0.019918576  0.019813669            8 
 2016000   0.95441106   -7.9749922    480.74414  0.019872029  0.019807601            3 
 2017000    0.9415786   -7.9288875    482.76275  0.019945577  0.019801601            1 
 2018000   0.91776457   -7.9680419    483.12575  0.019950684  0.019795562            2 
 2019000   0.91401004   -7.9400665    481.96242  0.019892786  0.019789575            2 
 2020000   0.93438199   -7.9460948    482.53174  0.019906425  0.019783549            5 
 2021000   0.93297972   -7.9710393    482.69816  0.019903437   0.01977755            2 
 2022000   0.91214249   -7.9973986    482.22643  0.019874152  0.019771506            7 
 2023000   0.92716564   -7.9715218    482.23148  0.019864536  0.019765422            3 
 2024000   0.93657165    -7.961369    482.91995  0.019883068  0.019759396            7 
 2025000   0.91312288   -8.0047014    481.43361  0.019812083  0.019753249            2 
 2026000   0.93392773   -7.9350341    483.63667   0.01989292  0.019747128            4 
 2027000   0.93872375   -7.9874277    482.25192  0.019826177  0.019741066            3 
 2028000   0.93308311   -8.0039046    481.95254  0.019804098  0.019734958            4 
 2029000   0.93793934   -7.9794868     482.3679  0.019811397  0.019728853            3 
 2030000   0.92524416   -7.9345124    483.35666  0.019842227  0.019722724            4 
 2031000   0.92825717   -7.9900117    481.86317  0.019771179  0.019716591            2 
 2032000   0.92469125   -7.9844224    482.53398  0.019788959  0.019710437            5 
 2033000   0.92672811   -7.9764255    482.54339  0.019779611  0.019704274            3 
 2034000   0.92890342   -8.0017379    481.93133   0.01974481   0.01969811            3 
 2035000   0.94232628   -7.9382131    482.91573  0.019775419  0.019692018            3 
 2036000   0.93879979   -7.9800055     483.0107  0.019769593   0.01968591            4 
 2037000   0.89833277   -7.9661114    482.61875  0.019743853   0.01967977            7 
 2038000   0.93270521   -7.9794704    482.70943  0.019737873  0.019673626            8 
 2039000   0.90446366   -7.9717866    483.08726  0.019743635  0.019667472            6 
 2040000   0.90374579   -7.9435794    484.41651  0.019788256  0.019661411            3 
 2041000   0.91684445   -7.9733358    483.90307  0.019757597  0.019655371            6 
 2042000   0.93627353   -7.9762129    482.75333  0.019701001  0.019649225            3 
 2043000   0.92481061   -7.9880419    482.86948  0.019696096  0.019643087            2 
 2044000   0.92889469   -7.9486099    483.72266  0.019721243  0.019636959            6 
 2045000   0.92219878   -7.9908485    483.21962  0.019691101  0.019630797            7 
 2046000   0.94294037   -7.9222078    486.45863  0.019813401  0.019624762            3 
 2047000   0.91215298    -7.976217    484.06078  0.019706106  0.019618688            4 
 2048000   0.89894029   -7.9859982      483.478   0.01967277  0.019612562            2 
 2049000   0.91726099   -7.9786841    484.77539  0.019715934  0.019606439            3 
 2050000    0.9176766   -7.9724914    484.07114  0.019677689  0.019600337            4 
 2051000   0.92320345   -8.0120036    483.08458   0.01962801  0.019594221            3 
 2052000   0.91124987   -7.9567409    483.62942  0.019640571  0.019588077            2 
 2053000   0.91344316   -8.0152709    482.81911  0.019598113   0.01958194           12 
 2054000   0.92837641   -7.9899417     483.3162  0.019608739  0.019575781            5 
 2055000   0.90434473   -7.9925924     484.0421  0.019628633  0.019569605            3 
 2056000    0.9154086    -8.011383    482.33074  0.019549722  0.019563381            3 
 2057000   0.90744179   -8.0059693     485.7271  0.019677812  0.019557188            3 
 2058000   0.92190032   -8.0231202    483.55103  0.019580136   0.01955105            1 
 2059000   0.90671636   -8.0072054    484.09645  0.019592701  0.019544911            4 
 2060000   0.91208652   -7.9755954    486.22521  0.019669305   0.01953881            7 
 2061000   0.93592741   -8.0138936    484.33256  0.019583235  0.019532686            7 
 2062000   0.93327509   -7.9816039       485.72  0.019629809  0.019526497            4 
 2063000   0.92724442   -7.9887047    484.67365  0.019578028  0.019520339            3 
 2064000   0.91517947   -7.9996312    485.20651  0.019590056  0.019514153            4 
 2065000    0.9192248   -8.0102761    483.69826  0.019519704  0.019507972            3 
 2066000   0.89499139   -8.0112039    484.53845  0.019544145  0.019501789            2 
 2067000   0.93981232   -7.9788674    486.05706  0.019595914  0.019495614            3 
 2068000   0.91353679   -7.9719304    485.30858  0.019556277  0.019489452            3 
 2069000   0.91422524   -8.0239031    483.72078  0.019482873   0.01948327            3 
 2070000   0.89779065   -8.0135865    485.18741  0.019532504  0.019477045            4 
 2071000   0.93953146   -8.0103926    483.68968  0.019462807  0.019470796            3 
 2072000   0.90684969   -7.9724609    485.01927  0.019506888  0.019464558            4 
 2073000   0.92851564   -8.0081254    486.06571  0.019539544  0.019458315            4 
 2074000   0.93354289   -7.9899327     486.1657  0.019534141  0.019452104            2 
 2075000   0.93534788   -8.0066193    485.68262  0.019505326   0.01944588            6 
 2076000   0.90283515   -8.0133198    485.18132  0.019475808  0.019439655            4 
 2077000   0.92192196   -8.0231537    484.94975   0.01945714  0.019433461            4 
 2078000   0.93277749   -8.0353665    485.10374  0.019453952  0.019427211            4 
 2079000   0.92829018   -7.9768646    486.48667  0.019500027  0.019421003            7 
 2080000   0.92751164    -8.014226     485.9691  0.019469916   0.01941483            4 
 2081000   0.92776339   -7.9753185    485.45517  0.019439979  0.019408652            2 
 2082000    0.9161417   -7.9976488    485.86138  0.019446901  0.019402461            2 
 2083000   0.91649044   -8.0397346    484.89661  0.019398968  0.019396177            6 
 2084000   0.89217089   -7.9912256    486.73907  0.019463335  0.019389953            3 
 2085000   0.92872495     -8.05289    484.74687  0.019374375   0.01938369            4 
 2086000   0.92754494   -7.9708719    485.84657  0.019409019  0.019377453           10 
 2087000   0.92741772   -8.0343387    484.91638  0.019362577   0.01937129            5 
 2088000   0.92636014   -7.9988631    487.78427  0.019467763  0.019365113            3 
 2089000   0.91983467   -8.0145139    486.15422  0.019393419  0.019358917            3 
 2090000   0.93971713   -7.9977112    487.02288  0.019418775  0.019352666            1 
 2091000   0.92721672   -7.9786433    486.02451    0.0193697  0.019346486            3 
 2092000   0.92263442   -8.0212792    486.88721  0.019394806  0.019340324            7 
 2093000    0.8999832   -8.0315404    485.88447  0.019345615   0.01933412            8 
 2094000   0.92998751   -7.9857027    486.81427  0.019373379  0.019327859           10 
 2095000   0.91327206   -7.9956323    487.16117   0.01937793   0.01932168            3 
 2096000   0.90643636   -8.0197627     486.3277  0.019335548  0.019315404            5 
 2097000   0.90417963   -8.0394102    486.55584  0.019335393  0.019309129            7 
 2098000   0.91009772   -8.0074607    486.80192  0.019335952  0.019302844            8 
 2099000   0.92636049   -8.0195213    486.11108  0.019299312   0.01929658            4 
 2100000   0.91318499   -8.0114171    487.31879  0.019338047  0.019290291            5 
 2101000    0.9274241   -8.0340548    486.07302  0.019279431   0.01928405            2 
 2102000   0.92348784   -7.9759792    486.81931  0.019299846  0.019277827            1 
 2103000   0.91351993   -7.9897309    487.84593  0.019331349  0.019271583            7 
 2104000   0.92415869   -8.0330621    487.71623  0.019317024  0.019265378            2 
 2105000   0.91503724   -8.0189824    486.98128  0.019278752  0.019259184            5 
 2106000   0.92019312   -8.0206917    487.58632  0.019293539   0.01925297            3 
 2107000   0.92147243   -8.0512101    487.41642  0.019277663  0.019246711            4 
 2108000   0.91877548   -8.0336316    487.52381  0.019272763  0.019240446            3 
 2109000   0.93684638   -8.0302851     487.5391  0.019264229  0.019234221            5 
 2110000   0.89954134   -7.9708553    489.18214   0.01931999  0.019228066            4 
 2111000   0.89358621   -8.0105354    488.82146    0.0192966  0.019221924            8 
 2112000    0.9355507   -8.0068198    487.73041  0.019244413  0.019215805            3 
 2113000   0.91642902   -8.0441187    487.32988  0.019219509  0.019209634            4 
 2114000   0.91359355   -8.0447013    486.93056  0.019194677  0.019203421            8 
 2115000   0.91473899   -8.0400884    488.09325  0.019231412  0.019197217            7 
 2116000   0.90341057   -8.0093334    489.27297  0.019268784  0.019190984            6 
 2117000   0.90171141    -8.030026    487.63076  0.019195038  0.019184799            5 
 2118000   0.91923042   -8.0170045    489.85092  0.019273329   0.01917862            3 
 2119000   0.91570854   -8.0188534     488.1186  0.019196107  0.019172452            4 
 2120000   0.91170791   -8.0384527    488.97271  0.019220625  0.019166272            4 
 2121000    0.9311719   -8.0601443    488.17963  0.019180404  0.019160033            5 
 2122000   0.92897234   -7.9910782    490.51287  0.019262994   0.01915387            9 
 2123000   0.91005535    -8.045282    488.33821  0.019168559  0.019147716            5 
 2124000   0.89625985   -8.0699487    487.98299  0.019145598  0.019141538            6 
 2125000    0.9001908   -8.0463435    488.86906  0.019171336  0.019135295            6 
 2126000   0.92499178   -8.0622434    488.23135  0.019137322  0.019129048            3 
 2127000   0.89937565   -8.0871778    488.12052  0.019123982  0.019122823            2 
 2128000   0.92865042   -8.0753202    488.40575  0.019126165  0.019116596            5 
 2129000   0.91598548    -8.053786     489.9993  0.019179556   0.01911034            4 
 2130000   0.90214536   -8.0326781    488.88862  0.019127098  0.019104126            2 
 2131000   0.92682396    -8.071835    488.33658  0.019096534  0.019097923            4 
 2132000    0.9032397   -8.0807161    488.35764  0.019088401  0.019091731            3 
 2133000   0.91115654   -8.0356118    490.30141  0.019155392  0.019085525            2 
 2134000   0.92397653   -8.0682817    490.22182  0.019143308  0.019079269            1 
 2135000   0.91697526   -8.0691485    490.14125  0.019131196  0.019073025            5 
 2136000   0.91607324   -8.0639415    487.74916  0.019028915  0.019066773            5 
 2137000    0.9089533   -8.0686645    488.64003  0.019054751  0.019060502            3 
 2138000   0.90875643    -8.007799    490.71178  0.019126589  0.019054253            3 
 2139000    0.9166767   -8.0630592    489.30375  0.019062792  0.019048072            3 
 2140000   0.91749071   -8.0470981     490.7584   0.01911053  0.019041876            2 
 2141000   0.91865247   -8.0408125    490.57542  0.019094482  0.019035669            5 
 2142000   0.91265086   -8.0488488    489.62974  0.019048776  0.019029476            2 
 2143000   0.92095647   -8.0485103    489.99019  0.019053904  0.019023257            2 
 2144000   0.90534148   -8.0878205    489.28803  0.019017725  0.019017015            4 
 2145000   0.90466544   -8.0574007    489.51126  0.019017532  0.019010724            1 
 2146000    0.9311469   -8.0711695    490.01812  0.019028352  0.019004521            7 
 2147000   0.93252591     -8.03215    491.16235  0.019063901  0.018998317            2 
 2148000   0.86664504   -8.0415466    490.08555  0.019013251  0.018992113            3 
 2149000   0.91272439   -8.0089114    491.12749  0.019044807  0.018985889            1 
 2150000   0.90450696   -8.0479139     490.1879  0.018999531  0.018979622            2 
 2151000   0.89292425    -8.082082    490.33547  0.018996415  0.018973352            3 
 2152000   0.91932206   -8.0584177    489.47666  0.018954332  0.018967029            2 
 2153000   0.89522555   -8.0717515    490.65529  0.018991147  0.018960769            2 
 2154000   0.93320846   -8.0187464    491.08728  0.018999044  0.018954514            5 
 2155000   0.90184824   -8.0375691    490.94238  0.018984624  0.018948252            3 
 2156000   0.89702351   -8.0387633     490.3046  0.018951167  0.018941967            4 
 2157000   0.89867446   -8.0352161    491.35651  0.018983021  0.018935674            4 
 2158000    0.9108214   -8.0691814    491.98018  0.018998308  0.018929438            6 
 2159000   0.89198293   -7.9996285    491.55279  0.018973012  0.018923212            3 
 2160000   0.90773145   -8.0624326    491.32356  0.018955384  0.018917018            5 
 2161000   0.91825369   -8.0616487    490.18061  0.018902538  0.018910766            2 
 2162000   0.90922344   -7.9890113    492.55033  0.018985135  0.018904571            3 
 2163000   0.90888967   -8.0261052    491.58259  0.018939073  0.018898415            3 
 2164000   0.90837919   -8.0509174    490.87475  0.018903064  0.018892243            3 
 2165000   0.90579614    -8.048966    491.52487  0.018919356  0.018886038            3 
 2166000   0.91656936   -8.0278128    491.46828  0.018908444  0.018879851            2 
 2167000   0.89948796   -8.0319728    492.82956  0.018952067  0.018873635            3 
 2168000   0.88895047   -8.0088049    493.02905  0.018950994  0.018867399            3 
 2169000   0.90289331   -8.0360739    491.51408  0.018884051   0.01886115            3 
 2170000   0.91551166   -8.0236744    491.03819  0.018857073  0.018854901            3 
 2171000   0.90433356   -8.0244342    492.37713  0.018899782  0.018848677            4 
 2172000   0.92076648   -8.0529965    491.11338  0.018842594  0.018842446            3 
 2173000   0.91633184   -8.0608386    492.09469  0.018871556  0.018836222            5 
 2174000   0.91432388    -8.065162    492.63166  0.018883458   0.01882995            7 
 2175000   0.90284392   -8.0411675    492.42026  0.018866677  0.018823693            3 
 2176000    0.8990017   -8.0880439    490.65108  0.018790253  0.018817403            3 
 2177000   0.90624981   -8.0709135     492.1635  0.018839516  0.018811128            8 
 2178000   0.89813647    -8.069449    492.07639  0.018827532   0.01880488            3 
 2179000   0.91252856   -8.0547999    491.65549  0.018802795  0.018798617            3 
 2180000   0.91076712   -8.0795273    491.92521   0.01880448  0.018792332            3 
 2181000   0.89688911   -8.0387683    493.50795  0.018856333  0.018786059            3 
 2182000   0.88464443   -8.0123957    494.31977  0.018878696  0.018779856            3 
 2183000    0.8840792    -8.031304    492.90823  0.018816164  0.018773673            4 
 2184000   0.91328344   -8.0166257    493.53216  0.018831355  0.018767508            4 
 2185000   0.89789765   -8.0341268    493.25331  0.018812102  0.018761293            2 
 2186000   0.90177663   -8.0588563    492.89112  0.018789689   0.01875507            4 
 2187000   0.91604036   -8.0179173    493.17653  0.018791972  0.018748802            3 
 2188000   0.89062173   -8.0571907    492.93734  0.018774274  0.018742518            5 
 2189000   0.89180583   -8.0400707     491.8563  0.018724543   0.01873628           10 
 2190000   0.90861001    -8.071944    493.70241  0.018786241  0.018729981           12 
 2191000   0.89204058   -8.0579735     491.9316  0.018710315  0.018723703            9 
 2192000   0.87253278   -8.0815814    492.29413  0.018715561  0.018717398           10 
 2193000   0.87992733   -8.0706318    492.80829  0.018726565  0.018711093           11 
 2194000   0.90323558   -8.0545139    492.16717  0.018693679  0.018704765           11 
 2195000    0.9063314   -8.0358046    493.86946   0.01874979  0.018698496            2 
 2196000   0.86572078   -8.0418746    492.50174   0.01868935  0.018692244            2 
 2197000    0.9090911   -8.0856934    492.98654  0.018699232  0.018685951            8 
 2198000   0.90774258   -8.0683632    492.85422  0.018685708  0.018679671            4 
 2199000   0.90049795   -8.0762009    492.51968  0.018664532  0.018673419            4 
 2200000   0.90585767   -8.0728809    493.77644  0.018703653  0.018667186            2 
 2201000   0.90112287    -8.093509    492.30465  0.018639431  0.018660931            3 
 2202000   0.90619051   -8.0764742    492.97459   0.01865632  0.018654624            3 
 2203000   0.88681977   -8.0245234    495.20491  0.018732218  0.018648363            4 
 2204000   0.89908204   -8.0342696     494.4436  0.018694933  0.018642107            2 
 2205000   0.88541991   -8.0434232    494.57307  0.018691348  0.018635885            6 
 2206000   0.88877948   -8.0438387    494.50079  0.018680145  0.018629716            4 
 2207000    0.9107905    -8.013893    495.38054  0.018704899  0.018623568           10 
 2208000    0.9111496   -8.0088246    495.05242  0.018684043  0.018617438            4 
 2209000    0.9099871   -8.0623426    494.08195  0.018638975  0.018611232            2 
 2210000   0.88700679   -8.0510015    493.30285  0.018601163  0.018605004            2 
 2211000   0.89318544    -8.062694    495.33157  0.018669213  0.018598759            5 
 2212000   0.89635026   -8.0649422    494.87938  0.018643738  0.018592488            4 
 2213000   0.88380565   -8.0656443    494.03354  0.018603462   0.01858622            2 
 2214000   0.90449315   -8.0684912    493.49761  0.018574888  0.018579959            5 
 2215000    0.9084594   -8.0571312    492.84524  0.018541958  0.018573655            2 
 2216000   0.88845058    -8.073017    494.09007  0.018580403  0.018567388            3 
 2217000    0.8994741   -8.0930728    493.46582  0.018548557  0.018561097            2 
 2218000   0.91707286   -8.0973481    494.21741  0.018568433  0.018554819            4 
 2219000   0.89211665   -8.0666153    493.42531  0.018530318  0.018548557            6 
 2220000   0.89516352   -8.0901032    494.53709  0.018563705   0.01854229            5 
 2221000   0.89760081   -8.0595345    494.57793  0.018556878   0.01853602            4 
 2222000   0.90796983   -8.0967745    494.56601   0.01854808  0.018529735            5 
 2223000   0.90309858    -8.069374    494.29069  0.018529416  0.018523452            1 
 2224000   0.90236331   -8.0533166    494.83457  0.018541463  0.018517149            2 
 2225000   0.90823894   -8.0617659    494.88537  0.018535033  0.018510853            2 
 2226000   0.88973415   -8.0715088    494.90886  0.018527585  0.018504553            5 
 2227000    0.8904604   -8.0937324    494.14925  0.018490841  0.018498243            4 
 2228000   0.88825685   -8.0783959    494.57838  0.018498593  0.018491949            3 
 2229000   0.89940303   -8.0881771    494.63937  0.018492574  0.018485676            2 
 2230000   0.88504315   -8.0322568    495.57948  0.018519413  0.018479407            3 
 2231000   0.91963236    -8.104102    494.02138  0.018452913  0.018473134            4 
 2232000   0.87483483   -8.0879222     493.7435   0.01843427  0.018466805           11 
 2233000   0.90375265   -8.1160717    495.20755  0.018480652  0.018460495            8 
 2234000    0.8999916   -8.0446005    495.86546  0.018496921  0.018454192            6 
 2235000   0.89927019   -8.0493271    494.94397  0.018454287  0.018447941            7 
 2236000     0.905748   -8.0591961    494.56328  0.018431846  0.018441668            4 
 2237000   0.87636682   -8.0899813    494.46627  0.018419992  0.018435354            3 
 2238000   0.89364336    -8.093017    494.75689  0.018422583  0.018429056            2 
 2239000   0.90009214   -8.0475363    495.40666  0.018438539   0.01842271            6 
 2240000   0.87987724   -8.0899867    495.32783  0.018427374  0.018416402            9 
 2241000   0.89060492   -8.0802148    496.07576  0.018446964  0.018410089            8 
 2242000   0.88451699   -8.0633335    496.65263  0.018460178  0.018403763            2 
 2243000   0.90186169   -8.0671745    495.00651   0.01839079  0.018397499            7 
 2244000   0.91489947   -8.0506173    496.76544  0.018447915  0.018391247            7 
 2245000   0.89218577   -8.1301015    495.18673  0.018381096  0.018384938            5 
 2246000   0.90502367   -8.1094649    494.65795  0.018353293  0.018378596            5 
 2247000   0.88167354   -8.1010884    495.77579  0.018386582  0.018372357            3 
 2248000   0.87913291   -8.0852279    495.94529  0.018384686   0.01836608            5 
 2249000   0.91053548   -8.0998381    497.29121  0.018426383  0.018359815            3 
 2250000   0.88821368   -8.0935399    496.02841  0.018371422  0.018353575           11 
 2251000   0.90657201   -8.0987472    496.34692  0.018375053  0.018347316            2 
 2252000   0.90308509   -8.0770625    496.88377  0.018386759  0.018341115            3 
 2253000    0.9048992   -8.0835706    497.45025   0.01839955  0.018334842            4 
 2254000   0.89020841   -8.0946387    496.84903  0.018369159   0.01832855            2 
 2255000   0.88489268   -8.0759018    497.62704  0.018389765   0.01832231            3 
 2256000   0.89412346    -8.112027    496.72746  0.018348384  0.018316031            6 
 2257000   0.89868407   -8.0868221    497.73723  0.018377538  0.018309829            3 
 2258000   0.87566461    -8.088838    498.97366   0.01841503  0.018303623            6 
 2259000   0.90453951   -8.1091656    497.09498  0.018337575  0.018297408            3 
 2260000   0.88231082   -8.0871207    496.89953  0.018322254  0.018291192            2 
 2261000    0.8841771   -8.0861459    496.77076  0.018309404  0.018284989            5 
 2262000   0.87275256   -8.0760291    496.44326  0.018289245  0.018278756            3 
 2263000   0.90532393   -8.0793403    497.42332  0.018317253  0.018272559            5 
 2264000   0.88859102   -8.0798966    497.66287   0.01831798   0.01826639            5 
 2265000   0.91205568   -8.0412435    499.94582  0.018393886  0.018260265            3 
 2266000   0.89821965   -8.0557334    498.46711  0.018331388  0.018254118            5 
 2267000   0.91485078   -8.0839134    498.28486  0.018316603  0.018247957            6 
 2268000   0.88086793   -8.1053419     497.9679  0.018296881  0.018241774            6 
 2269000   0.87420162   -8.1133208    497.59023  0.018274946  0.018235581            6 
 2270000   0.88819353   -8.1075089    497.28209  0.018255583   0.01822938            7 
 2271000   0.86781816   -8.1041198    498.09975  0.018277548  0.018223153            4 
 2272000   0.89222583    -8.096483    498.54103  0.018285689  0.018216973            2 
 2273000   0.90120812   -8.0804737    498.19848  0.018265086  0.018210774            3 
 2274000   0.89388052    -8.083317     498.3512   0.01826265  0.018204588            3 
 2275000   0.87937958   -8.0882633    499.06773  0.018280869  0.018198419            7 
 2276000   0.87528816   -8.1039052    498.66537  0.018258105  0.018192244            3 
 2277000   0.89930908   -8.0682401    498.94002  0.018260138  0.018186096            3 
 2278000    0.8812299   -8.0894933     499.5651  0.018274989  0.018179954            4 
 2279000   0.88800188   -8.1041729    498.25466  0.018219053  0.018173809            9 
 2280000    0.8847805   -8.0789363    498.84508  0.018232642  0.018167677            3 
 2281000   0.89526295   -8.1009361    498.92632  0.018227617  0.018161515            4 
 2282000   0.90339054   -8.0936493    498.81827  0.018215683  0.018155359            3 
 2283000   0.87552935   -8.0976532    498.67208  0.018202368  0.018149207            4 
 2284000   0.90714596   -8.1077142    498.20011  0.018177178  0.018143048            7 
 2285000   0.87840791   -8.0950406     498.4392  0.018177943  0.018136901            5 
 2286000   0.88959394   -8.1292471    498.15957  0.018159798  0.018130733            3 
 2287000   0.87677898   -8.0945773    498.44836   0.01816238  0.018124553            5 
 2288000   0.89532983   -8.0948494    499.50833  0.018193048  0.018118425            2 
 2289000   0.89075973   -8.0812141    500.76106  0.018230707  0.018112322            4 
 2290000   0.86963583   -8.1144563     499.9904  0.018194702  0.018106208            5 
 2291000   0.87660606   -8.0886282    499.87645  0.018182615  0.018100124            4 
 2292000   0.89850383   -8.1114431     500.1381  0.018184195  0.018094024            5 
 2293000   0.88494389   -8.0795571    499.37532  0.018148544  0.018087951            2 
 2294000   0.87733002   -8.0803705    499.09108  0.018130307  0.018081892            7 
 2295000    0.8822573   -8.1040338    499.46545  0.018136001  0.018075789            4 
 2296000   0.89202302   -8.1188899    499.82708  0.018141227  0.018069644           10 
 2297000   0.89532626   -8.0977084    500.33655  0.018151812  0.018063474            4 
 2298000   0.89205539   -8.1008098    500.38871  0.018145805  0.018057344            3 
 2299000   0.88395509   -8.1117751    500.82082  0.018153575  0.018051278           10 
 2300000   0.86619037   -8.1132878    499.65494   0.01810344  0.018045148            2 
 2301000   0.88483634   -8.1312995    501.07939   0.01814716   0.01803904            5 
 2302000   0.88026646   -8.0992509    501.08041  0.018139314  0.018033009            3 
 2303000   0.87714409   -8.0903605    499.61951  0.018078575    0.0180269            3 
 2304000   0.87739238   -8.1148087    500.09147  0.018087799  0.018020818           10 
 2305000   0.87269296   -8.1190675    500.89854   0.01810913  0.018014712            3 
 2306000   0.85069514   -8.0978116    501.29529  0.018115615  0.018008631            8 
 2307000   0.87554175   -8.1099604    501.36925  0.018110434  0.018002546            4 
 2308000   0.88064233   -8.0977783    501.11346  0.018093351  0.017996416            6 
 2309000    0.8833698   -8.0809708    501.06164  0.018083645  0.017990375            2 
 2310000   0.87970105   -8.1207055     500.2425  0.018046266  0.017984265            3 
 2311000   0.89294612   -8.0803002    502.43912  0.018117666  0.017978189            8 
 2312000   0.89608585   -8.1309262    499.43829  0.018001668  0.017972115            6 
 2313000   0.87514079   -8.1396245    500.99829   0.01805009  0.017965959            3 
 2314000   0.89773259    -8.086117    501.86418  0.018073472  0.017959852            3 
 2315000   0.87542698   -8.1026302    501.03316  0.018035751  0.017953778            6 
 2316000   0.90026437   -8.1214313      501.794   0.01805534  0.017947733            5 
 2317000   0.86184151   -8.1000646    501.91253   0.01805181   0.01794167            3 
 2318000   0.87885095   -8.1066698    502.18942  0.018053977  0.017935595            4 
 2319000   0.90497243   -8.1151284    501.31143  0.018014641  0.017929483            6 
 2320000   0.88497086   -8.1179863    502.91818   0.01806459  0.017923426            5 
 2321000   0.87118798   -8.1519309    501.36132  0.018000909  0.017917333            3 
 2322000   0.87948023   -8.1199199    500.67255  0.017968438   0.01791125            6 
 2323000   0.87973653   -8.1733814    500.35981  0.017949484   0.01790514            7 
 2324000   0.88323994   -8.1405987    502.04923  0.018002339  0.017899058            3 
 2325000   0.87246317   -8.1220435    501.25663  0.017966187  0.017892994            1 
 2326000    0.8730275   -8.1496961    501.04996  0.017951059  0.017886906            2 
 2327000   0.86753226    -8.135568    502.32469  0.017988995  0.017880828            8 
 2328000    0.8872965     -8.06538    502.56511  0.017989874  0.017874754            7 
 2329000   0.87446283   -8.0924606    502.09252   0.01796524  0.017868712            7 
 2330000   0.88540642   -8.1146833    503.01675  0.017990585  0.017862676            3 
 2331000   0.86994248   -8.1297383    503.30248  0.017993082   0.01785664            3 
 2332000   0.88742162   -8.0833851    502.93199  0.017972127  0.017850638            4 
 2333000    0.8979366   -8.1039906    503.16806  0.017972855  0.017844579            6 
 2334000   0.87107543   -8.0983265    502.37173  0.017936723  0.017838548            3 
 2335000   0.88089298   -8.1126156    502.43864  0.017931429  0.017832509            5 
 2336000   0.88015003   -8.1143817    502.92909  0.017941249  0.017826481            4 
 2337000   0.86316163   -8.0985523    503.44631  0.017952015  0.017820437            4 
 2338000   0.87255938   -8.1395776    503.94574  0.017962138  0.017814389            3 
 2339000   0.86667768   -8.1236432    501.80254  0.017878101  0.017808361           11 
 2340000   0.88029432   -8.1297731    502.33872  0.017889555  0.017802321            7 
 2341000   0.86481681   -8.1421081    502.45991  0.017886228  0.017796269           10 
 2342000   0.87235516   -8.1027459    504.12815   0.01793795   0.01779022            3 
 2343000   0.88359947    -8.129057    503.19797  0.017897211  0.017784211            3 
 2344000   0.88407368   -8.1363884    503.56777  0.017902722  0.017778191            5 
 2345000    0.8777468    -8.154556    502.69493   0.01786407  0.017772143            8 
 2346000   0.88608046   -8.1338602    503.55306  0.017886937  0.017766086            3 
 2347000   0.87813394   -8.1379076    502.90005   0.01785613  0.017760036            3 
 2348000   0.88208179   -8.0772347    503.41289  0.017866727   0.01775401            4 
 2349000   0.86515427     -8.12729    503.93683  0.017877708  0.017747988            6 
 2350000   0.89210419   -8.1221024    502.15731  0.017806997  0.017741916            2 
 2351000   0.88425643   -8.1410425    502.78768  0.017821767  0.017735861            3 
 2352000   0.88052884   -8.1287765    504.98153  0.017891919  0.017729813            4 
 2353000    0.8725478   -8.1095623    503.54184  0.017833328   0.01772377            7 
 2354000   0.89702563    -8.123919     502.8142  0.017799993  0.017717726            3 
 2355000   0.86559372   -8.0722919    504.49972  0.017852078  0.017711731            4 
 2356000   0.87587363   -8.0953043    503.90466  0.017823453  0.017705741            3 
 2357000   0.86621268   -8.0994875    503.79244  0.017811923  0.017699755            9 
 2358000   0.88123998   -8.1349908     503.2008  0.017783461  0.017693754            6 
 2359000    0.8862341   -8.1136766    503.51247  0.017786932  0.017687703            4 
 2360000   0.84603577    -8.111494    505.00603  0.017832134  0.017681688            6 
 2361000   0.87529925   -8.0988453     505.8296   0.01785365   0.01767569            1 
 2362000   0.87561036    -8.129187    503.88789  0.017777586  0.017669697            4 
 2363000   0.86394149   -8.0904916    505.63675  0.017831737   0.01766377            4 
 2364000   0.87701227   -8.1328282    503.94683  0.017764623  0.017657783            3 
 2365000   0.88308425   -8.1239232    505.14011  0.017799158  0.017651775            5 
 2366000   0.88128759   -8.0959656    503.51053   0.01773424  0.017645725            6 
 2367000   0.86962243   -8.0990957    505.99143  0.017814091  0.017639707            4 
 2368000   0.86963034   -8.1096484    502.79844  0.017694202  0.017633668            4 
 2369000   0.88159201   -8.1079295    503.81201  0.017722387  0.017627624            4 
 2370000   0.86755762   -8.1153721    503.95272  0.017719857   0.01762154            1 
 2371000   0.86281564   -8.1096543    504.09647  0.017717435  0.017615478            3 
 2372000   0.88124842   -8.1385216    503.97035  0.017705535  0.017609449            3 
 2373000    0.8659441   -8.1062311    505.10891  0.017738057  0.017603411            3 
 2374000    0.8960621   -8.1291554    504.70038  0.017716245  0.017597385           10 
 2375000   0.87919872   -8.1376182    504.47724  0.017700956  0.017591331           14 
 2376000   0.85979817   -8.1478659    504.17705  0.017682977  0.017585251            3 
 2377000   0.89325795   -8.1754952    504.12617  0.017673755  0.017579203            4 
 2378000   0.85319161    -8.179087     503.9973  0.017661806  0.017573136            7 
 2379000   0.87972295   -8.1541183    504.25709  0.017663482  0.017567086            6 
 2380000   0.88068421    -8.149978    504.33507  0.017658791  0.017561036            3 
 2381000    0.8738803   -8.1338655     505.2259  0.017682553  0.017554978            5 
 2382000   0.85006317   -8.1808735    505.35998   0.01767982  0.017548948            9 
 2383000   0.87756576   -8.1699617    504.58941  0.017645454  0.017542912            6 
 2384000   0.87591822   -8.1705462    504.70369  0.017642047  0.017536853            8 
 2385000   0.84909911    -8.188417    505.36552  0.017657775   0.01753073            8 
 2386000   0.86969167   -8.1618858    505.01703  0.017638203  0.017524646           21 
 2387000   0.87353134   -8.1386692    504.57987  0.017615552  0.017518582           34 
 2388000   0.86130141   -8.1599145    504.51458  0.017605897  0.017512517           10 
 2389000   0.86823781   -8.1719296    505.23749  0.017623744  0.017506504            3 
 2390000   0.85764654   -8.1592474    505.97174  0.017641972  0.017500482            6 
 2391000   0.88128076   -8.1980909    504.97959  0.017600013  0.017494447            5 
 2392000   0.89164244   -8.1646816    505.16514   0.01759912  0.017488414            8 
 2393000   0.86889281   -8.1655439    505.50413  0.017603571  0.017482383           11 
 2394000   0.85495538   -8.1254271    505.28118  0.017588457   0.01747638            6 
 2395000   0.86958017   -8.1661736    504.40094  0.017550485  0.017470389            3 
 2396000   0.87817003   -8.1687949    504.46778  0.017545485  0.017464366            5 
 2397000   0.87106536   -8.1517208    504.89429  0.017552993  0.017458315            2 
 2398000   0.85128562   -8.1586659    505.54328  0.017568226  0.017452314            3 
 2399000   0.84854437    -8.160214    505.57284   0.01756193  0.017446294            3 
 2400000   0.87760499   -8.1693022    504.65472  0.017522733  0.017440286            3 
 2401000   0.88043671   -8.1617258    505.35974  0.017539905  0.017434299            5 
 2402000   0.87662952   -8.1457894    507.23266  0.017597581  0.017428301            9 
 2403000   0.86577613    -8.137376    506.53176  0.017565951  0.017422354            9 
 2404000   0.86591097   -8.1847466    504.80005  0.017498615  0.017416378           25 
 2405000   0.86892239   -8.1673136    506.63158  0.017554802  0.017410395            9 
 2406000   0.86833006   -8.1333899    507.33023  0.017571704   0.01740442            7 
 2407000   0.87206312   -8.1644137    507.66298  0.017575924  0.017398506            6 
 2408000   0.86129469   -8.1446156    506.79865  0.017538713  0.017392567            5 
 2409000   0.85254699   -8.1400859    507.45249   0.01755405  0.017386679            8 
 2410000   0.87349023   -8.1591454    508.15844  0.017571177  0.017380782            8 
 2411000   0.89352789   -8.1390917    506.76991  0.017515896  0.017374877            5 
 2412000   0.87513402   -8.1445197    506.46513  0.017498104   0.01736895            2 
 2413000   0.86340442   -8.1348605    508.20101  0.017550801  0.017363015            4 
 2414000   0.88385732   -8.1646036    505.90626  0.017464315  0.017357067            4 
 2415000   0.87658514   -8.1625355    506.91799  0.017491994  0.017351043            7 
 2416000    0.8602756   -8.1419636    506.76683   0.01747954  0.017345027            4 
 2417000   0.86890165   -8.1511595     505.7761   0.01743815   0.01733902            6 
 2418000    0.8448925    -8.197094    506.65235  0.017461137     0.017333           18 
 2419000   0.86688971   -8.1725443    505.68159  0.017420477  0.017326955            9 
 2420000   0.86708501   -8.1280874    507.79259  0.017485971  0.017320975            6 
 2421000   0.85184584    -8.122528    507.05979  0.017453525  0.017315025            6 
 2422000   0.85981183   -8.1676712    506.33838  0.017421497  0.017309064           10 
 2423000   0.86570466    -8.175068    507.33219  0.017448486  0.017303109            7 
 2424000   0.86641502   -8.1393358    508.25033  0.017472852  0.017297178           12 
 2425000   0.87595243   -8.1635133    507.56787  0.017442195  0.017291246            3 
 2426000   0.87063904   -8.1844806    506.99252  0.017415242  0.017285316            3 
 2427000   0.86780905   -8.1463154      507.577  0.017428135  0.017279409            5 
 2428000   0.87715797   -8.1798298    507.37393  0.017413987  0.017273495            5 
 2429000   0.86084827   -8.1743357    507.13072  0.017398474  0.017267606            2 
 2430000      0.88707   -8.2115548    506.21235   0.01735982  0.017261671            6 
 2431000   0.87124478   -8.1531941    507.37127  0.017392406  0.017255788            5 
 2432000   0.86442284   -8.1917172    508.31556  0.017417611  0.017249891            7 
 2433000   0.85145893   -8.1975429    508.50571  0.017416965     0.017244            3 
 2434000   0.83883843   -8.1738525    509.01719  0.017427321  0.017238109           18 
 2435000   0.85438761   -8.1822496    510.23743  0.017461924  0.017232254            6 
 2436000    0.8466925   -8.1598365    508.90611  0.017409213  0.017226404            3 
 2437000   0.82700014   -8.1932824    509.10711  0.017408942  0.017220532            4 
 2438000    0.8798262    -8.127637    509.39913  0.017411783  0.017214669            5 
 2439000   0.86578796    -8.202799    508.85057  0.017385902  0.017208805            8 
 2440000   0.85454876   -8.1265057    509.54115  0.017402362  0.017202942            6 
 2441000   0.83465342   -8.1532062    508.38477  0.017355755  0.017197084           10 
 2442000   0.85234345   -8.1783333    509.53621  0.017387941  0.017191244            3 
 2443000   0.85536901   -8.1959493    509.52583  0.017380469  0.017185397            3 
 2444000   0.85256588   -8.1716691    509.54025  0.017373849  0.017179566            4 
 2445000   0.85548872   -8.1635738     509.5287   0.01736635  0.017173715            4 
 2446000   0.88825412   -8.1804184    508.63063  0.017328653   0.01716787           10 
 2447000   0.85475447   -8.1619536    510.46989  0.017384208   0.01716202            3 
 2448000   0.86799283   -8.1784094    509.41266  0.017341117  0.017156173            2 
 2449000   0.84604193   -8.1673632    509.14332  0.017324871  0.017150346            4 
 2450000   0.84816117   -8.1244827    510.13119  0.017351401  0.017144516            4 
 2451000   0.87586119   -8.1670561    509.35692  0.017317997  0.017138697            1 
 2452000   0.84670837   -8.1853145    509.07118  0.017301223  0.017132862            6 
 2453000   0.86956368   -8.1760762    508.62869  0.017279137  0.017127035           10 
 2454000   0.86106504   -8.2001871    509.12713  0.017289022   0.01712114            7 
 2455000   0.86819163   -8.2185194    509.69515  0.017301261  0.017115254            3 
 2456000    0.8801664   -8.1958069     508.8289  0.017264824  0.017109367            5 
 2457000   0.85175115   -8.1863334    509.19282   0.01727014  0.017103468            4 
 2458000   0.84708751    -8.144251    508.46973  0.017238599  0.017097606            4 
 2459000   0.86309977   -8.1818744    509.68193  0.017272669  0.017091698            3 
 2460000   0.84865824   -8.1797032    509.17852  0.017248595  0.017085802            7 
 2461000   0.84951666    -8.200565    509.63686  0.017257106   0.01707995            4 
 2462000   0.85387321   -8.1757145    508.94087  0.017226539   0.01707409           13 
 2463000   0.88655646   -8.1728123    509.73614  0.017246452  0.017068215            4 
 2464000   0.84995565   -8.1591873    510.05012  0.017250072  0.017062362            8 
 2465000    0.8346592    -8.149825    509.64644  0.017229426  0.017056499            7 
 2466000   0.85525111   -8.1696307    510.84503  0.017262944  0.017050637            3 
 2467000   0.86439235    -8.181929    509.19666  0.017200265  0.017044746            4 
 2468000   0.84864731    -8.164408    510.40211  0.017233999  0.017038833            2 
 2469000   0.86497749   -8.1894817    510.44843  0.017228582  0.017032943            5 
 2470000     0.853402   -8.1792549    508.94592  0.017170915  0.017027066            4 
 2471000   0.87606637   -8.1582317    510.32439  0.017210454  0.017021207            4 
 2472000   0.87558679   -8.1775216    509.69735  0.017182354  0.017015329            5 
 2473000   0.85697049   -8.1904434    509.23859  0.017159947  0.017009449           18 
 2474000   0.84038662   -8.2051674    509.16036  0.017150376  0.017003542            3 
 2475000   0.87061489   -8.1881798    510.47088  0.017187572  0.016997691            3 
 2476000   0.85902295   -8.1692406    509.91249  0.017161837   0.01699182            4 
 2477000   0.85297346   -8.1746746    510.88516  0.017187632  0.016985921            5 
 2478000   0.85387879   -8.2121971    509.91034  0.017147913  0.016980056            3 
 2479000   0.87104914   -8.1912961    510.56286  0.017162931  0.016974199            6 
 2480000   0.84144684   -8.1958988    510.31577  0.017147707  0.016968295            8 
 2481000   0.86935106   -8.1779531    509.00309  0.017096705  0.016962385           11 
 2482000   0.83536833   -8.1762414    509.45008  0.017104824  0.016956489            5 
 2483000   0.84872152    -8.155608    510.77622  0.017142443  0.016950623            5 
 2484000   0.84484989   -8.1774689    511.13627  0.017147621  0.016944776            3 
 2485000   0.85224166   -8.1840788    509.00442  0.017069229  0.016938954            4 
 2486000     0.843315   -8.2053081     510.7805  0.017121899  0.016933084            4 
 2487000   0.85830901   -8.2054391    510.18781  0.017095155  0.016927259            6 
 2488000   0.84719652   -8.1842149    510.78096  0.017108151  0.016921404            5 
 2489000   0.85786058   -8.1891719    511.22337   0.01711609  0.016915558            4 
 2490000   0.84247457    -8.140454    510.52097  0.017085708  0.016909735            5 
 2491000   0.84336572   -8.1875835      511.652  0.017116687  0.016903922            6 
 2492000   0.87018575   -8.1695685    511.61997  0.017108747  0.016898112            4 
 2493000   0.84799836   -8.1763856    511.41197  0.017094932  0.016892326            6 
 2494000   0.85099422   -8.1794171    511.79992   0.01710104  0.016886552            6 
 2495000   0.84845993   -8.1712712    512.02925  0.017101845  0.016880766            3 
 2496000   0.84732473   -8.2113068    509.81963  0.017021222  0.016874968            2 
 2497000   0.82524146   -8.2164392    510.79436  0.017046935  0.016869128            3 
 2498000   0.86042621   -8.2005684    511.13526  0.017051483  0.016863289            3 
 2499000   0.83020851    -8.198581    510.54445  0.017024958  0.016857448            3 
 2500000   0.85608059   -8.2108125    512.39975  0.017079992  0.016851619            3 
 2501000   0.85267222   -8.2006339     512.4989  0.017076466  0.016845801            3 
 2502000    0.8364309   -8.1653103     511.6796  0.017042353  0.016840001            5 
 2503000   0.85456037    -8.183775    512.14803   0.01705114  0.016834191           13 
 2504000   0.83691909   -8.1782793    511.09585  0.017009314  0.016828395            3 
 2505000   0.84603113   -8.1594411    512.22563  0.017040107  0.016822567            5 
 2506000   0.85442078   -8.1903335    512.38755  0.017038692  0.016816736            4 
 2507000   0.85761776   -8.2267102    510.03316  0.016953635  0.016810818            2 
 2508000   0.84010636   -8.2077354    510.83563  0.016973539  0.016804931            1 
 2509000    0.8507405    -8.217388    511.35603  0.016984059  0.016799042            7 
 2510000   0.85638106   -8.2083891    510.29616  0.016942103  0.016793174            2 
 2511000   0.85465974   -8.2093348    510.01454   0.01692601  0.016787284            4 
 2512000   0.86428824    -8.202472    510.18728  0.016925003  0.016781389            6 
 2513000   0.84461723   -8.2043086     511.4706  0.016960824  0.016775484            6 
 2514000   0.83728542   -8.1936811    511.04912  0.016940106  0.016769579            6 
 2515000   0.85129737   -8.2055767    512.12432  0.016968997  0.016763692            6 
 2516000   0.83978343   -8.1757287    511.47331   0.01694069  0.016757838            3 
 2517000   0.84102137    -8.205415    511.71508  0.016941964   0.01675197            3 
 2518000   0.85834967   -8.2504259    510.54193   0.01689641  0.016746073            5 
 2519000     0.851932   -8.2224577    509.76739  0.016864079  0.016740146            2 
 2520000   0.84803909   -8.1916876    510.81983   0.01689219  0.016734263            3 
 2521000   0.83406431   -8.2126797    509.81389  0.016852238  0.016728398            3 
 2522000   0.84236522   -8.2155312    511.22854  0.016892299  0.016722509            1 
 2523000   0.84094406   -8.1860568    511.84516   0.01690597  0.016716662            1 
 2524000   0.84824111   -8.2047405    511.83055   0.01689879  0.016710866            5 
 2525000   0.85579489   -8.1842386    511.90264  0.016894477  0.016705062            7 
 2526000   0.85959892    -8.174067    511.69922  0.016881078  0.016699249            4 
 2527000    0.8237804   -8.1902058    513.14212   0.01692198  0.016693416            3 
 2528000   0.86541832   -8.2302692    511.08834  0.016847585  0.016687591            3 
 2529000   0.83175857   -8.2332576    511.22636  0.016845471  0.016681716            3 
 2530000    0.8435156    -8.240133    510.92456  0.016828872  0.016675866            4 
 2531000   0.85594188     -8.21462    511.22499  0.016832115  0.016670051            9 
 2532000   0.84764846   -8.2223842    510.32252  0.016795765  0.016664201            7 
 2533000   0.84731906   -8.2205907    511.14861  0.016816312  0.016658351            7 
 2534000   0.86158793   -8.1940583    513.32611  0.016881285  0.016652529            2 
 2535000   0.83645495   -8.2005903    512.40875  0.016844469  0.016646725            3 
 2536000   0.83238436   -8.2061168      512.458  0.016839445  0.016640926            2 
 2537000   0.85775324   -8.2077368    513.23705  0.016858397  0.016635093            5 
 2538000   0.84224957   -8.2539379    512.12149  0.016815126  0.016629278            4 
 2539000   0.84950866   -8.2190907    512.86056  0.016832761  0.016623465            2 
 2540000   0.84237754   -8.2283113    512.31323  0.016808177  0.016617653            4 
 2541000   0.84342641   -8.2252506    512.89313   0.01682058  0.016611821            5 
 2542000   0.85004224   -8.2233101    511.21808  0.016759051  0.016606005            6 
 2543000   0.84351504   -8.2039869    511.89968  0.016774796  0.016600129            3 
 2544000   0.84034879   -8.2266059    512.11865  0.016775375  0.016594283            7 
 2545000   0.83565378   -8.2160732    514.01378  0.016830838  0.016588462            5 
 2546000   0.85211611   -8.2221971    512.75228  0.016782937  0.016582628            3 
 2547000   0.83626141   -8.2420629    512.12976   0.01675598  0.016576811            2 
 2548000   0.85151618    -8.224239    511.95272  0.016743613  0.016570977            7 
 2549000   0.83445123   -8.2229365    514.13253  0.016808308  0.016565126            3 
 2550000   0.84425841   -8.2159414    513.45859  0.016779693  0.016559278            6 
 2551000   0.82728417   -8.1971317    514.13649   0.01679526  0.016553469           14 
 2552000   0.85016653   -8.2430902    512.32062  0.016729383  0.016547656           10 
 2553000   0.83584707   -8.2115888    511.98688  0.016711936  0.016541835            4 
 2554000   0.83417217   -8.2353802     512.0485  0.016707403  0.016535989            5 
 2555000   0.80994674   -8.2530579    512.57725   0.01671811   0.01653014            5 
 2556000    0.8395468    -8.219768    513.26132  0.016733872  0.016524299            8 
 2557000   0.84296471    -8.221866    512.62734  0.016706666  0.016518467            3 
 2558000   0.82679577   -8.2229072    513.31067  0.016722396  0.016512675           10 
 2559000   0.83858691   -8.2576241    512.03318   0.01667426  0.016506858            8 
 2560000   0.86630035   -8.2297823     513.0104  0.016699557  0.016501071            6 
 2561000   0.83743665   -8.2545844    512.91273  0.016689858  0.016495271           10 
 2562000   0.84145609   -8.2376105    512.48131  0.016669311  0.016489497            7 
 2563000   0.84284856   -8.2020938    514.09514   0.01671528  0.016483674            2 
 2564000   0.83415164   -8.2282621    513.15758  0.016678289  0.016477842            3 
 2565000   0.84804016   -8.2284595    512.62439  0.016654464  0.016472045            7 
 2566000   0.82214824   -8.2345678    512.40653  0.016640898   0.01646622            6 
 2567000   0.82233196   -8.2442608    512.80448  0.016647334  0.016460379            6 
 2568000   0.83842433   -8.2248914    513.38679  0.016659748  0.016454558            9 
 2569000   0.84059929   -8.2320562     513.1928   0.01664697  0.016448766            4 
 2570000   0.86595013   -8.2116572    514.28721   0.01667598  0.016442991            3 
 2571000    0.8472123   -8.2146563    513.62042  0.016647881  0.016437205            2 
 2572000   0.82638613   -8.2106266    514.26415  0.016662265  0.016431403            4 
 2573000    0.8429476   -8.2501628    513.41365  0.016628243   0.01642564            9 
 2574000   0.82362139   -8.2643313    512.37545  0.016588172  0.016419826            4 
 2575000   0.82230605   -8.2585388    513.73861  0.016625845  0.016414016            8 
 2576000   0.85224977   -8.2113076    513.63771  0.016616127  0.016408245            3 
 2577000    0.8606054   -8.2236732    515.73228  0.016677412  0.016402507            3 
 2578000    0.8244558   -8.2151005    514.33988  0.016625934   0.01639677            7 
 2579000   0.83026958   -8.2650077    513.75198   0.01660049  0.016391009            8 
 2580000   0.82385978   -8.2669124    513.63913  0.016590411  0.016385179            6 
 2581000   0.83433247   -8.2469538    513.58549  0.016582251  0.016379375            3 
 2582000    0.8240019   -8.2504467    513.69985   0.01657952   0.01637356            5 
 2583000   0.83903131   -8.2865263    512.95424  0.016549046  0.016367708            4 
 2584000    0.8515858   -8.2303954     513.0646  0.016546201  0.016361888            5 
 2585000   0.85064187   -8.2331026    512.81834  0.016531861  0.016356089            8 
 2586000   0.86303081   -8.2365841    513.94529  0.016561784  0.016350294            4 
 2587000   0.84650214   -8.2387157    513.45892  0.016539715  0.016344475            4 
 2588000   0.83977094   -8.2843143    512.31208  0.016496396  0.016338674            7 
 2589000   0.81596517   -8.2474383    513.37169   0.01652413  0.016332865            9 
 2590000   0.85533537   -8.2559766    513.11854  0.016509606   0.01632706           18 
 2591000   0.83682331   -8.2780593    513.96413   0.01653043  0.016321237            7 
 2592000   0.84261527   -8.2252079    513.12283  0.016497005  0.016315453            3 
 2593000   0.83606241   -8.2378568    514.53391  0.016535992  0.016309701            4 
 2594000   0.82709908   -8.2062078     514.6286  0.016532659  0.016303955            4 
 2595000   0.82917518   -8.2523541    513.28506  0.016483143  0.016298186            5 
 2596000   0.82899723   -8.2517769    514.28431   0.01650887  0.016292404            5 
 2597000   0.85559639   -8.2310466    515.08541  0.016528219  0.016286673            4 
 2598000   0.85001303    -8.233641    514.95258  0.016517596  0.016280919            5 
 2599000   0.84247592   -8.2437646    514.28777  0.016489925  0.016275167            4 
 2600000   0.83693124   -8.2246334    514.30311  0.016484074  0.016269406            3 
 2601000   0.84577348   -8.2632121    513.60376   0.01645533  0.016263628            6 
 2602000   0.84271484   -8.2431354     514.7204  0.016484768  0.016257863            2 
 2603000   0.82144671    -8.236058    514.72533  0.016478593  0.016252139           10 
 2604000   0.83872804   -8.2552147    514.28855  0.016458287  0.016246405            8 
 2605000   0.83214495   -8.2602909    514.30696  0.016452558  0.016240675            8 
 2606000   0.82869158   -8.2628719    515.62061  0.016488252  0.016234935            8 
 2607000   0.84150479   -8.2071481     514.7104  0.016452832  0.016229187            6 
 2608000   0.81911719    -8.232082    514.94587  0.016454048  0.016223451            7 
 2609000   0.81299401   -8.2516112    513.49978  0.016401552  0.016217696            6 
 2610000   0.84167591   -8.2169301    514.61423   0.01643085  0.016211937            4 
 2611000   0.83871514   -8.2650065    514.85044  0.016432096  0.016206182            3 
 2612000   0.83595136    -8.231425    515.12789  0.016434657  0.016200448            3 
 2613000   0.84104074   -8.2588591    514.69368   0.01641452  0.016194729            4 
 2614000   0.83738337   -8.2033646    516.28741  0.016459048  0.016188997            4 
 2615000   0.82018493   -8.2610601    513.47509  0.016363132  0.016183235            3 
 2616000   0.83195065   -8.2462635    514.00236  0.016373673   0.01617746            9 
 2617000   0.82412786   -8.2498047    514.30107  0.016376929  0.016171727            2 
 2618000   0.85143117   -8.2287003    516.05369  0.016426461  0.016165982            5 
 2619000   0.81094777   -8.2733961    514.89666  0.016383374  0.016160247            2 
 2620000   0.82721783   -8.2459531    515.71149  0.016403037  0.016154512            3 
 2621000   0.82063913   -8.2519367     515.0829  0.016376793  0.016148784            4 
 2622000   0.83980499   -8.2426545     514.9887  0.016367553  0.016143022            4 
 2623000   0.82819161   -8.2444804    515.26924  0.016370226  0.016137245            7 
 2624000   0.85201625   -8.2741075    514.26993  0.016332251   0.01613146            3 
 2625000   0.85547769   -8.2711221    514.14691  0.016322124  0.016125679            5 
 2626000   0.84471332   -8.2704965    514.61887  0.016330886  0.016119881            3 
 2627000   0.82582304   -8.2671636    514.94951  0.016335158  0.016114122            5 
 2628000   0.83670349   -8.2605441    515.07696  0.016332983  0.016108335            9 
 2629000    0.8312297    -8.260192    514.70848  0.016315091  0.016102567            5 
 2630000    0.8389757   -8.2352306     515.3121  0.016328013  0.016096828            9 
 2631000   0.81508074    -8.249986    513.86016  0.016275819  0.016091072            5 
 2632000   0.82679717   -8.2502394    514.90451  0.016302701  0.016085309            3 
 2633000   0.82954093   -8.2475339     515.9238   0.01632877  0.016079601           15 
 2634000   0.81875205   -8.2397248    515.89906  0.016321788  0.016073866            8 
 2635000   0.81525467   -8.2283828    514.60969  0.016274816  0.016068128            8 
 2636000   0.83262968   -8.2351659    515.99937  0.016312575  0.016062396            7 
 2637000   0.85054751   -8.2575482    515.22988  0.016282072  0.016056654           11 
 2638000   0.81357511   -8.2743014    514.29658  0.016246417  0.016050883            5 
 2639000   0.83557743   -8.2257479    514.58079  0.016249235  0.016045115            5 
 2640000   0.81283809   -8.2754784    514.45317  0.016239052  0.016039341            7 
 2641000   0.82975447   -8.2519493    515.73713  0.016273417  0.016033594            2 
 2642000   0.81478131   -8.2560441    514.92282  0.016241573  0.016027848            2 
 2643000   0.84563335   -8.2765596    515.31851  0.016247903  0.016022093            2 
 2644000   0.81830445   -8.2730726     514.9372   0.01622974  0.016016333            4 
 2645000   0.83221319   -8.2645431    514.89877  0.016222393  0.016010558            7 
 2646000   0.83511763   -8.2562932    515.21539  0.016226234    0.0160048            7 
 2647000   0.81914349   -8.2571453    515.26564  0.016221686  0.015999039            8 
 2648000   0.81713536   -8.2857725    515.15337  0.016212027  0.015993275            2 
 2649000   0.81301601   -8.2545658    515.01299  0.016201491  0.015987505            6 
 2650000   0.82303407    -8.261155     514.8226   0.01618939  0.015981754            3 
 2651000   0.83045679   -8.2552853    515.20039  0.016195159  0.015976006            4 
 2652000   0.82619972   -8.2689013    516.36589  0.016225675  0.015970255            3 
 2653000   0.82666758    -8.283298    515.03002  0.016177598  0.015964508            3 
 2654000   0.81996595   -8.2999118    515.65662  0.016191177   0.01595873            3 
 2655000   0.81858424   -8.2713111    514.87009  0.016160392  0.015952953            4 
 2656000   0.85246914   -8.2792485    515.29627  0.016167679  0.015947179            3 
 2657000   0.83881599   -8.2771971    514.84488  0.016147437  0.015941422            8 
 2658000   0.83033392    -8.320612    513.85725  0.016110398  0.015935631           13 
 2659000   0.82206669   -8.2758378    515.42864  0.016153586   0.01592983            6 
 2660000   0.84461312   -8.2681954    514.67931  0.016124039  0.015924048            7 
 2661000   0.82742147   -8.3021596    514.54022  0.016113623  0.015918255            5 
 2662000   0.79812122   -8.3013693    515.79421  0.016146826  0.015912469            3 
 2663000   0.82697032   -8.3017125    514.93759  0.016113956  0.015906694            6 
 2664000    0.8190325   -8.2519698    515.37211    0.0161215  0.015900948            6 
 2665000   0.82309328   -8.2618465    515.48183  0.016118882  0.015895229            5 
 2666000   0.80023826   -8.2920799    514.30962  0.016076195  0.015889485            4 
 2667000   0.82839478   -8.2718809    514.54941  0.016077659  0.015883753            5 
 2668000   0.82241176   -8.2598113     515.1832  0.016091429  0.015878009            8 
 2669000   0.83667092   -8.2972293    514.92718  0.016077407  0.015872283            4 
 2670000   0.81417424   -8.2907668    516.27973  0.016113599  0.015866543            3 
 2671000   0.83738657   -8.3169835    515.14381  0.016072127  0.015860785            3 
 2672000   0.81166058   -8.2750516    515.93361  0.016090744  0.015855074            1 
 2673000   0.85339982   -8.2409073     516.4683  0.016101393  0.015849409            2 
 2674000   0.82031031   -8.2674756    515.82617  0.016075361  0.015843725            4 
 2675000   0.82177134   -8.2874638    515.23615  0.016050971  0.015837995            9 
 2676000   0.82822149   -8.2199418    516.87429  0.016095985  0.015832279            6 
 2677000   0.81115398   -8.2815304    515.85593  0.016058272  0.015826579            3 
 2678000   0.81806421   -8.2741819    517.45105  0.016101912  0.015820899            3 
 2679000   0.82963993    -8.273758     515.8431  0.016045885  0.015815191            4 
 2680000    0.8353137   -8.2936122     515.6192  0.016032935  0.015809488            5 
 2681000   0.83979683   -8.2368962    515.50923  0.016023537  0.015803776            4 
 2682000   0.81719325   -8.2582588    517.13596  0.016068107  0.015798066           12 
 2683000   0.82413318   -8.2867174    514.98803  0.015995404  0.015792334            6 
 2684000   0.80634322   -8.3078915     516.1111  0.016024314  0.015786591            9 
 2685000   0.83021503    -8.308164    515.66624  0.016004539  0.015780873            5 
 2686000   0.81418751   -8.2874865    516.53652  0.016025581  0.015775156            3 
 2687000   0.81080331   -8.2742657    516.26571  0.016011218  0.015769469            8 
 2688000   0.82097281   -8.2839443     515.8305  0.015991769  0.015763784            5 
 2689000   0.83145762   -8.2834922    515.37966   0.01597185  0.015758091            4 
 2690000   0.82779946   -8.2979222    516.15021  0.015989783  0.015752413            4 
 2691000   0.82703281   -8.2999545    516.04557  0.015980601  0.015746727            5 
 2692000   0.81674137   -8.3202453    514.65032  0.015931474  0.015741029            4 
 2693000   0.84821928   -8.2686862    516.82038  0.015992709  0.015735298            4 
 2694000   0.81332973    -8.294175    515.75449  0.015953801  0.015729579            3 
 2695000   0.80590728   -8.3111643    515.27611  0.015933089  0.015723881            9 
 2696000   0.81329622   -8.2743571    515.46266  0.015932946  0.015718168            9 
 2697000   0.82372201   -8.3044102    516.04312  0.015944973  0.015712453            8 
 2698000   0.84385499   -8.2603497    516.92777  0.015966388  0.015706737            5 
 2699000   0.82434442   -8.3093291    516.94456   0.01596099  0.015701044            9 
 2700000    0.8032073    -8.301466    517.25302    0.0159646  0.015695343            1 
 2701000   0.81909392    -8.274483    515.42026  0.015902143  0.015689642            4 
 2702000    0.8320976   -8.2942113      516.843  0.015940137  0.015683923            4 
 2703000   0.81229135   -8.3254844    515.64304  0.015897245  0.015678214            2 
 2704000    0.8268179   -8.3260665    515.86042  0.015898065  0.015672483            3 
 2705000   0.80969928   -8.3117442    516.19336  0.015902445  0.015666755            6 
 2706000   0.81813601   -8.3145848    517.02917  0.015922307  0.015661053            9 
 2707000   0.82820076   -8.2909324    516.90576  0.015912627  0.015655345            4 
 2708000   0.82991462   -8.3440439    515.94601  0.015877216  0.015649635            8 
 2709000   0.83355773   -8.3283624    515.46747  0.015856634  0.015643909            3 
 2710000   0.81694742   -8.3257701    514.81313  0.015830662  0.015638203            3 
 2711000   0.81095918   -8.3604948    515.47806  0.015845262  0.015632481            3 
 2712000   0.82365078   -8.3081415    517.19264  0.015892104  0.015626764            6 
 2713000   0.81879057   -8.3032569    516.60478  0.015868189  0.015621052            9 
 2714000    0.8151711   -8.2954237    515.75687  0.015836308  0.015615375            5 
 2715000   0.80231288   -8.3186861    516.27879  0.015846495   0.01560969           10 
 2716000   0.80860755   -8.3099494    516.48796  0.015847078  0.015603993            4 
 2717000   0.83863322   -8.3174789    515.41505  0.015808338  0.015598301           17 
 2718000   0.78433749   -8.3221868    516.39999   0.01583272  0.015592585            6 
 2719000    0.8070349   -8.3047826    516.00879  0.015814907  0.015586878           10 
 2720000   0.81238784   -8.3293944    517.66291  0.015859771  0.015581158           10 
 2721000   0.81773386   -8.3173409    516.96485  0.015832563  0.015575457           13 
 2722000   0.80704821     -8.28622    517.85949  0.015854136  0.015569753           15 
 2723000   0.80458953   -8.3245894    515.90529  0.015788508  0.015564074            8 
 2724000   0.77981828    -8.309264     516.7036  0.015807134  0.015558396            8 
 2725000   0.81499541   -8.2899746    516.23401  0.015786973  0.015552715            9 
 2726000   0.81272637   -8.3288981    516.91911  0.015802125  0.015547061            5 
 2727000   0.81298546   -8.3336963     516.6942  0.015789457  0.015541412            4 
 2728000   0.81653392   -8.2882605    517.77872  0.015816799  0.015535783            5 
 2729000   0.80512136   -8.3197705    516.57485  0.015774241  0.015530153            3 
 2730000   0.81385486   -8.2804629    518.20904  0.015818347  0.015524517            8 
 2731000   0.82160969   -8.2934132    517.90085   0.01580315  0.015518881            7 
 2732000   0.81923806   -8.3198817    516.98325  0.015769377  0.015513263            2 
 2733000   0.81036252   -8.3310682    516.95369  0.015762706  0.015507617            8 
 2734000   0.80731336   -8.3322203    518.21676  0.015795439  0.015501967            7 
 2735000   0.82702582    -8.317388    517.58882  0.015770531  0.015496336           12 
 2736000   0.81086921   -8.2900249    518.81242  0.015802035   0.01549071           18 
 2737000   0.81671063    -8.327601    517.69868  0.015762352  0.015485095           13 
 2738000   0.80618398   -8.3118181     518.6403  0.015785254  0.015479486            6 
 2739000   0.80570057   -8.3215818    517.20986   0.01573597   0.01547387           14 
 2740000   0.81905261   -8.3225307    517.48309  0.015738537  0.015468237           14 
 2741000   0.82937989   -8.3279433    517.89737   0.01574539  0.015462597           14 
 2742000   0.80158562    -8.350187    515.70205  0.015672929  0.015456947           23 
 2743000   0.80432588   -8.2824232    517.31951  0.015716354  0.015451302           21 
 2744000   0.80556172    -8.340035    516.63911  0.015689963  0.015445663           23 
 2745000   0.80455998   -8.3220382    516.04347  0.015666165  0.015439998           23 
 2746000   0.82728836   -8.3257028    517.50114  0.015704696  0.015434349           25 
 2747000   0.81605776   -8.3585635    517.03475   0.01568483  0.015428702           25 
 2748000   0.81813495   -8.3363645      517.208  0.015684377  0.015423057           31 
 2749000   0.81425383   -8.3340447    516.59246  0.015660011    0.0154174           27 
 2750000   0.79242546   -8.3663261    517.14262  0.015670988  0.015411726           30 
 2751000    0.8147218   -8.3613973    516.74532  0.015653257  0.015406044           27 
 2752000   0.80653743   -8.3689645    515.98222  0.015624462  0.015400378           30 
 2753000   0.81164355   -8.3353159    516.72937  0.015641403  0.015394717           23 
 2754000   0.82100392   -8.3500683     516.6454  0.015633182  0.015389042           21 
 2755000   0.78991852   -8.3205289    516.80349  0.015632289  0.015383357           27 
 2756000   0.81200203   -8.3719612    516.38863  0.015614073  0.015377722           19 
 2757000   0.82768484   -8.3340729    517.07106  0.015629037  0.015372071           12 
 2758000   0.79583164   -8.3010213    517.87876  0.015647775  0.015366433           14 
 2759000   0.80999471    -8.288846    518.66369  0.015665812  0.015360824           13 
 2760000   0.81577356   -8.3472606    516.84794  0.015605312  0.015355217           15 
 2761000   0.82114081   -8.3251429     517.1907  0.015610005  0.015349603            5 
 2762000   0.84390932   -8.3199086    516.69545  0.015589411  0.015343995           10 
 2763000   0.80996355   -8.3398553    516.85138  0.015588472  0.015338373            7 
 2764000   0.81809413   -8.3456844    517.50059  0.015602406  0.015332747            4 
 2765000   0.79996745   -8.3013561    518.01609  0.015612299  0.015327122            7 
 2766000   0.82740447   -8.3298009    518.64745  0.015625676    0.0153215            9 
 2767000   0.80969304   -8.3017738     517.9382  0.015598669  0.015315879            7 
 2768000   0.83020211   -8.3286253    517.50302  0.015579932  0.015310266            9 
 2769000   0.81835157    -8.322807    518.07975  0.015591662  0.015304661            6 
 2770000   0.80296614   -8.3493634    518.34998  0.015594163  0.015299047            3 
 2771000   0.79427558   -8.3564868    516.19672   0.01552378  0.015293421            3 
 2772000   0.81562948   -8.3434337    517.64741  0.015561791  0.015287804            4 
 2773000   0.82437089   -8.3421995    516.39039  0.015518403  0.015282182            4 
 2774000   0.79051567   -8.3422394    517.58727  0.015548764  0.015276555           11 
 2775000   0.80537488   -8.3530035    517.34948  0.015536021   0.01527093            3 
 2776000   0.79733942   -8.3218849    517.75375   0.01554256  0.015265319            5 
 2777000   0.80623863   -8.3137816    517.72798   0.01553619  0.015259728            3 
 2778000   0.82421679   -8.3215944     517.9259  0.015536534  0.015254159            6 
 2779000   0.79477292   -8.2936701    517.80685  0.015527374  0.015248566            5 
 2780000   0.81682135   -8.3212504    518.72712  0.015549374  0.015242967            3 
 2781000   0.80338285   -8.3231729    516.76676   0.01548504  0.015237374            4 
 2782000   0.80254774   -8.3339692    517.56334  0.015503335  0.015231773            3 
 2783000   0.81458934   -8.3135777    517.70584  0.015502031  0.015226177            3 
 2784000   0.79831999   -8.3551119    517.57084  0.015492422   0.01522056            6 
 2785000   0.80217479   -8.3528742      517.278  0.015478097  0.015214931            7 
 2786000   0.80782758   -8.3411421    517.12133  0.015467855  0.015209317            6 
 2787000    0.8081194   -8.3560584    516.47975  0.015443121  0.015203684            9 
 2788000   0.82588823   -8.3567777    517.43223  0.015466052  0.015198041            5 
 2789000   0.80003098   -8.3683365    516.80737  0.015441836  0.015192395            3 
 2790000   0.78212343   -8.3704077    516.84072  0.015437298  0.015186754            3 
 2791000   0.81602041   -8.3811791    516.92618  0.015434318  0.015181098            8 
 2792000   0.81248313   -8.3519305    517.10508   0.01543413  0.015175456            5 
 2793000   0.80457845   -8.3667433    518.01666  0.015455802  0.015169848            5 
 2794000   0.81504477   -8.3345728    518.96235  0.015478476  0.015164258           10 
 2795000   0.79069972   -8.3221104    518.27747  0.015452519  0.015158689            8 
 2796000   0.82560024   -8.3049803    516.99312  0.015408712  0.015153121           20 
 2797000   0.80842169    -8.329998    518.65053  0.015452584  0.015147547            3 
 2798000   0.79713307   -8.3544945     518.2299  0.015434534   0.01514198            9 
 2799000   0.78376286   -8.3353037    518.95497  0.015450606  0.015136427            4 
 2800000   0.80011425   -8.3279752    518.66575  0.015436481  0.015130887            3 
 2801000   0.80604196   -8.3262411    519.10372     0.015444  0.015125372           13 
 2802000   0.81477861   -8.3456202    518.19072  0.015411335  0.015119856            9 
 2803000   0.82990914    -8.308143    518.45103  0.015413576  0.015114319            7 
 2804000   0.79402493   -8.3232786    518.99737  0.015424316  0.015108786            3 
 2805000   0.81315709   -8.3076351    518.93503  0.015416965  0.015103264            6 
 2806000   0.80726318    -8.350123    518.19131  0.015389383  0.015097716            6 
 2807000   0.80427447   -8.3471856    518.11922   0.01538176  0.015092139            2 
 2808000   0.81021061   -8.3454082    517.74019  0.015365034  0.015086585           11 
 2809000   0.78370715   -8.3522897     517.7054  0.015358532   0.01508102            7 
 2810000   0.79405838   -8.3473466    517.85255   0.01535743  0.015075471           10 
 2811000   0.79399824   -8.3417471    517.96616  0.015355335  0.015069932           15 
 2812000   0.81489535   -8.3409817     518.7194  0.015372197  0.015064384            9 
 2813000   0.80475746   -8.3074848    520.32101  0.015414178  0.015058882            7 
 2814000   0.79056149   -8.3353855    519.58208  0.015386818  0.015053382           13 
 2815000   0.79376849    -8.341133    519.55412  0.015380524  0.015047857            4 
 2816000   0.80497774   -8.3213593    519.16539  0.015363559  0.015042341           10 
 2817000   0.79812801   -8.3395694     519.1381  0.015357298  0.015036846           10 
 2818000   0.79946289   -8.3255435    519.89372  0.015374193  0.015031373            5 
 2819000   0.81281099   -8.3084495    519.69762  0.015362943  0.015025895            6 
 2820000   0.81421503    -8.370555    517.93303  0.015305349  0.015020415            3 
 2821000   0.79717543   -8.3484457    520.14156  0.015365165  0.015014909            5 
 2822000   0.80909308   -8.3431766    519.71049  0.015346991    0.0150094            4 
 2823000   0.79470158   -8.3434262    517.40937  0.015273626  0.015003901            2 
 2824000   0.78899198   -8.3358056    518.62312  0.015304034  0.014998404            6 
 2825000   0.80616591   -8.3370768    519.51413  0.015324901  0.014992914            5 
 2826000   0.80870056    -8.332767    518.97065  0.015303451   0.01498742           12 
 2827000   0.80814396   -8.3275329    518.89641   0.01529585  0.014981928            3 
 2828000    0.7915935   -8.3592254    519.42106  0.015305901  0.014976428            7 
 2829000   0.79830869   -8.3636151    518.42504  0.015271151  0.014970934            6 
 2830000   0.80174606   -8.3605453    518.71981  0.015274435  0.014965428            2 
 2831000   0.80717479   -8.3266399    519.90973  0.015304066  0.014959929            8 
 2832000   0.80007865   -8.3502772    519.38012  0.015283078  0.014954443            2 
 2833000   0.79291597   -8.3538566    518.11589  0.015240496  0.014948958            8 
 2834000   0.78513523   -8.3264844     519.7548   0.01528331  0.014943486            4 
 2835000   0.80286972   -8.3480096     518.6179    0.0152445  0.014938003            6 
 2836000   0.80794126   -8.3600093    518.54473  0.015236975  0.014932516            3 
 2837000   0.77259485   -8.3457098    520.11207  0.015277643  0.014927043            3 
 2838000   0.79791565   -8.3436667    520.29404  0.015277603  0.014921574            9 
 2839000    0.8048243   -8.3506234    519.66946  0.015253888  0.014916125            7 
 2840000   0.80989579   -8.3377204    519.70098  0.015249442  0.014910681           15 
 2841000   0.81321667   -8.3702287    518.36589  0.015204913  0.014905223            6 
 2842000   0.79961985   -8.3438365    519.47361  0.015232043  0.014899743            4 
 2843000   0.81756225   -8.3670487    519.97028  0.015241244  0.014894286           11 
 2844000   0.79394096   -8.3340733    520.00404  0.015236874  0.014888825            2 
 2845000   0.80279737   -8.3704745    518.99666  0.015202011  0.014883384            4 
 2846000   0.78607416   -8.3484067    519.56304  0.015213254  0.014877914           12 
 2847000   0.80967706   -8.3574802    518.78219  0.015185054  0.014872453            7 
 2848000   0.78422528   -8.3660953       519.41  0.015198092  0.014866998           10 
 2849000   0.79872207   -8.3289634     519.7373  0.015202331  0.014861545           13 
 2850000   0.77957487   -8.3334959    519.54564  0.015191393  0.014856093           13 
 2851000   0.79719591     -8.34529    519.58099  0.015187098  0.014850635            5 
 2852000   0.80913617   -8.3575753    519.04603  0.015166142  0.014845181            3 
 2853000   0.79824902   -8.3740829    518.94614  0.015157908  0.014839732           10 
 2854000    0.7997154   -8.3479074    520.60417  0.015201009   0.01483428            4 
 2855000   0.80278412   -8.3546108    520.49704  0.015192558  0.014828832            5 
 2856000   0.78346104   -8.3812874    519.24764  0.015150783  0.014823379            6 
 2857000   0.80319423   -8.3751703    518.45376  0.015122324  0.014817921            5 
 2858000   0.79034534    -8.368231      520.388  0.015173431  0.014812458            5 
 2859000   0.78700391   -8.3616451    519.41907  0.015139882  0.014806978           10 
 2860000   0.80121318   -8.4121907    518.68365   0.01511316  0.014801509            5 
 2861000    0.7944981   -8.4088143    520.00752  0.015146438  0.014796049            8 
 2862000   0.79427707   -8.3552412    520.43653  0.015153638  0.014790627            4 
 2863000   0.77532856   -8.4124682    518.52275   0.01509264  0.014785205            5 
 2864000   0.78283412   -8.3395204    520.08972  0.015132965  0.014779765            4 
 2865000   0.78766875    -8.382897    520.08091  0.015127426  0.014774307            4 
 2866000   0.78689015   -8.3993402    519.10568  0.015093792  0.014768849            6 
 2867000   0.78269398   -8.3493531    521.23486  0.015150414  0.014763398            9 
 2868000   0.80414605    -8.350748    519.08182  0.015082573  0.014757949            5 
 2869000   0.80588913   -8.3811749    520.28982  0.015112403  0.014752512            9 
 2870000   0.79213757   -8.3853601    519.74799  0.015091405  0.014747059            4 
 2871000   0.79516874   -8.3913821    519.73316  0.015085718  0.014741615            5 
 2872000   0.78659919   -8.3655235    519.57787   0.01507596  0.014736178           11 
 2873000    0.7842298   -8.3751427    519.93311  0.015081016  0.014730729           14 
 2874000   0.78037765   -8.3777223     519.1992  0.015054489  0.014725303            6 
 2875000   0.79344719   -8.3803182    519.57571  0.015060166  0.014719861            3 
 2876000   0.78001226   -8.4132585    519.01062  0.015038555   0.01471441            6 
 2877000   0.78409639   -8.3829667    519.67237  0.015052496   0.01470896           14 
 2878000   0.80308934   -8.3915478     519.0223  0.015028443  0.014703494           11 
 2879000    0.7989898   -8.4038734    520.57582   0.01506819   0.01469804           16 
 2880000    0.7885549   -8.3774299    520.25666  0.015053723  0.014692599           11 
 2881000   0.80907615   -8.3851394    517.99663  0.014983126  0.014687157           13 
 2882000   0.78747358   -8.4173253    519.03083  0.015007831  0.014681698           14 
 2883000   0.79085683   -8.3991794    519.51321  0.015016569  0.014676246           11 
 2884000   0.79870273   -8.3664654    518.99489  0.014996385  0.014670804           10 
 2885000   0.79010574   -8.3920991    519.53628  0.015006825   0.01466535           11 
 2886000   0.77900534   -8.3888042    518.86471  0.014982233    0.0146599            7 
 2887000   0.79920687   -8.3974932    518.83735  0.014976254  0.014654429            5 
 2888000   0.79372366   -8.4090034    518.83024  0.014970863  0.014648958           14 
 2889000   0.78301455   -8.4055646    518.02614  0.014942487  0.014643471            5 
 2890000   0.77656124   -8.4153082    517.60806  0.014925261  0.014637981            5 
 2891000   0.79274217   -8.3999182    519.87126  0.014985335  0.014632505            5 
 2892000    0.7923821   -8.3729595    519.87053  0.014980133  0.014627069            3 
 2893000   0.78874845    -8.403879    519.62702   0.01496794  0.014621652           11 
 2894000   0.78033877   -8.4029462     518.6599   0.01493492  0.014616207            8 
 2895000   0.77989758   -8.3597699    520.00119  0.014968371  0.014610781            9 
 2896000   0.79950735   -8.3655972    519.45512  0.014947488  0.014605353            6 
 2897000   0.77957671   -8.3845685    518.84872  0.014924885   0.01459992            4 
 2898000    0.7984502   -8.3896086    519.26141  0.014931603  0.014594457            3 
 2899000   0.78071355   -8.3973719    520.01198  0.014948027  0.014589017            5 
 2900000   0.78035688   -8.4026049    518.99722  0.014913713  0.014583581           10 
 2901000   0.78475996   -8.3958615     519.7528  0.014930277  0.014578133            5 
 2902000   0.78383729   -8.4245155    519.96506  0.014931227   0.01457267            7 
 2903000   0.77620802   -8.4133225     518.6062  0.014887077  0.014567201            4 
 2904000   0.77468606    -8.401084    518.05635  0.014866172  0.014561751            7 
 2905000    0.7933878   -8.4140394     520.0229  0.014917467  0.014556312            5 
 2906000   0.77881477   -8.4386384    519.62418    0.0149009  0.014550878            4 
 2907000   0.78913043   -8.3943799    520.09626  0.014909307  0.014545439            2 
 2908000   0.78691698   -8.4208264    519.96591  0.014900445  0.014540007            3 
 2909000   0.78419658   -8.4117349    518.85156    0.0148634  0.014534595            4 
 2910000   0.79139004   -8.3941883    520.91609  0.014917414    0.0145292            7 
 2911000   0.78970411   -8.4096742    519.52295  0.014872408  0.014523802            6 
 2912000    0.8098771   -8.4014127    519.74159  0.014873557    0.0145184            6 
 2913000   0.77542717   -8.4140533    519.62968   0.01486525  0.014512985            3 
 2914000   0.79965386    -8.400303    520.36354  0.014881135  0.014507597            5 
 2915000   0.79145505   -8.3895352    519.34113  0.014846802  0.014502204            7 
 2916000   0.77353543   -8.3874768    519.31382   0.01484093  0.014496817           13 
 2917000   0.78908256   -8.4209184    519.91337   0.01485297  0.014491438            9 
 2918000   0.77403197   -8.4008716    520.44284  0.014863001  0.014486041            5 
 2919000   0.79754294   -8.4189419    518.56095  0.014804184  0.014480654            6 
 2920000   0.80064402     -8.41981    519.52395  0.014826597  0.014475249            6 
 2921000   0.78832474   -8.4181576      519.415  0.014818413  0.014469826            5 
 2922000   0.77829549   -8.4087222    520.31241  0.014838935  0.014464415            4 
 2923000   0.79373189   -8.4130942    519.03552  0.014797455  0.014458985            4 
 2924000   0.77062327   -8.4303053    520.07245  0.014821946  0.014453546            6 
 2925000   0.77443173   -8.4297435    519.96106  0.014813705  0.014448124            4 
 2926000   0.78799438   -8.4215723    519.08343  0.014783647  0.014442716            5 
 2927000   0.78608191    -8.397141     520.6609  0.014823508  0.014437333            4 
 2928000   0.78217181   -8.3996648    520.09447  0.014802324  0.014431944            3 
 2929000   0.78430035   -8.3978246    520.62265  0.014812298  0.014426565            2 
 2930000   0.79553877   -8.4106596    519.51662  0.014775786  0.014421198            5 
 2931000   0.79015156   -8.3979588    520.09028  0.014787054  0.014415821            5 
 2932000   0.79534163   -8.4035839    519.77517  0.014773055  0.014410444            3 
 2933000   0.78518595   -8.3934531    519.91584  0.014772015  0.014405074            3 
 2934000   0.78316997   -8.4236165    519.20614  0.014746823  0.014399678            4 
 2935000    0.7654675   -8.3786297    520.53442  0.014779512    0.0143943            3 
 2936000   0.78140349   -8.4143681    520.00825  0.014759544  0.014388925            6 
 2937000   0.77941752   -8.3927292    520.38924  0.014765328  0.014383568            6 
 2938000   0.77919864    -8.398613    520.38467  0.014760173  0.014378208            6 
 2939000   0.77853768   -8.3859931    519.60679  0.014733095  0.014372841            5 
 2940000   0.77745342   -8.3840835    521.08905  0.014770098  0.014367489            4 
 2941000   0.77888235   -8.3973015    519.56323  0.014721841  0.014362138            2 
 2942000   0.78235392   -8.3602887    519.80557  0.014723702  0.014356784            4 
 2943000    0.7816682   -8.3941502    520.05757  0.014725834  0.014351446            8 
 2944000   0.77533663   -8.3826144    521.28122  0.014755469  0.014346107            4 
 2945000   0.77661058    -8.361383      520.822  0.014737465  0.014340791            6 
 2946000   0.78390533   -8.3764128    520.94196  0.014735856  0.014335484           10 
 2947000   0.77830515    -8.382349    521.05195  0.014733965  0.014330167            7 
 2948000   0.79634178   -8.3986072    521.54853  0.014743005  0.014324832            3 
 2949000   0.77860575   -8.4049901    520.06048  0.014695956  0.014319517            5 
 2950000   0.78039248   -8.3855871    520.91704  0.014715171  0.014314223            3 
 2951000   0.78719625   -8.3777363    521.38566  0.014723417  0.014308924            3 
 2952000   0.76902853   -8.3842949    520.44542  0.014691887  0.014303622            3 
 2953000   0.76480249    -8.386374    520.11715  0.014677649  0.014298325            3 
 2954000   0.79382099   -8.4268303    519.99285  0.014669173  0.014293006            5 
 2955000   0.78540196   -8.3885444    521.24109   0.01469941  0.014287715            4 
 2956000   0.77157698   -8.4014258    520.22856  0.014665893  0.014282416            7 
 2957000   0.76691194   -8.3836628    521.07091  0.014684672  0.014277125            7 
 2958000   0.77782241   -8.4234259    521.35236  0.014687637  0.014271825            8 
 2959000   0.78594932    -8.393483     521.7056  0.014692621  0.014266534            6 
 2960000   0.78068287   -8.4022708    520.48769   0.01465337   0.01426125            4 
 2961000   0.76434007   -8.4119187    520.51995  0.014649329  0.014255974           18 
 2962000   0.77020387   -8.3875156    521.64997  0.014676175  0.014250693           15 
 2963000   0.76963896   -8.4013802    519.83207  0.014620094  0.014245403            5 
 2964000   0.76967196   -8.3998757    520.11556  0.014623132  0.014240107            5 
 2965000   0.76221794   -8.4216527    521.08488  0.014645443  0.014234833            4 
 2966000    0.7607538   -8.4330476     520.9892  0.014637818   0.01422954            4 
 2967000   0.77123897   -8.3923728    521.50442  0.014647355  0.014224265            8 
 2968000   0.77613648    -8.403347    521.53668  0.014643326  0.014218995            3 
 2969000   0.79434878   -8.4350561    521.00701  0.014623527  0.014213696           15 
 2970000   0.79647812   -8.4141294    521.15607  0.014622785  0.014208408            6 
 2971000   0.78754936   -8.3994988    520.28858  0.014593531  0.014203131            3 
 2972000   0.76547721   -8.4094586    520.67837  0.014599551  0.014197858            5 
 2973000    0.7766911   -8.3801082    520.66816  0.014594354  0.014192583            4 
 2974000   0.77285097   -8.4002375    519.97607  0.014570053  0.014187288            6 
 2975000   0.80338529   -8.3919856    521.75419  0.014614963  0.014182003            8 
 2976000   0.76856764   -8.4049054    521.32106  0.014597924  0.014176741           13 
 2977000   0.78529047   -8.4460229    521.97085   0.01461121  0.014171451            3 
 2978000   0.79519115    -8.427229     521.0062  0.014579309  0.014166172            8 
 2979000   0.76535633   -8.4414277    520.41126  0.014557773   0.01416089           10 
 2980000   0.78652136   -8.4087164    521.24406  0.014576176   0.01415561           17 
 2981000   0.77583812   -8.4430699    520.33082  0.014545757  0.014150317           13 
 2982000     0.770802   -8.4373428    520.33823  0.014541086  0.014145026           13 
 2983000   0.79293774   -8.4283026    520.48967  0.014540442  0.014139753            9 
 2984000    0.7704686    -8.441733    520.94322  0.014548236  0.014134462            7 
 2985000   0.77436586   -8.4084426    520.35101  0.014526829  0.014129181           11 
 2986000   0.74891126   -8.4501176    520.41431  0.014523731  0.014123899            9 
 2987000   0.78602662   -8.4495573    520.25243  0.014514352  0.014118623            7 
 2988000   0.77777188   -8.4431347    520.16618  0.014507089  0.014113345           12 
 2989000   0.78052049   -8.4406185    520.01175   0.01449793  0.014108057           13 
 2990000   0.76566032   -8.4300295     520.1667    0.0144974  0.014102771           10 
 2991000   0.76585055   -8.4549064     520.2081  0.014493706  0.014097503            8 
 2992000   0.78223323   -8.4468403    519.97421  0.014482348  0.014092217           21 
 2993000   0.75682281    -8.444189    521.17211  0.014510862  0.014086939           15 
 2994000   0.77989552   -8.4351206    519.55997  0.014461144  0.014081658           27 
 2995000   0.76215201   -8.3983851    521.31921  0.014505265  0.014076415           20 
 2996000   0.77224387   -8.4447836    521.16976  0.014496266  0.014071172           14 
 2997000   0.77201541   -8.4433751    520.67536  0.014477682  0.014065925           16 
 2998000   0.76674348    -8.436919    520.90292  0.014479178  0.014060666            9 
 2999000   0.77417106   -8.4431041    520.39185  0.014460149   0.01405541           16 
 3000000   0.78695119    -8.434835    521.27717  0.014479921  0.014050158           23 
 3001000    0.7801968   -8.4509315    519.81762  0.014434567  0.014044901           12 
 3002000   0.75494994   -8.4386774    521.49452  0.014476308  0.014039638           16 
 3003000   0.75390564   -8.4562462    520.27999  0.014437784  0.014034376           18 
 3004000   0.75580085    -8.452887    521.45532  0.014465583  0.014029115           19 
 3005000   0.77855229   -8.4683705    520.98403  0.014447699  0.014023857           17 
 3006000   0.77094591    -8.466076    521.34547  0.014452913  0.014018573           14 
 3007000   0.75811987   -8.4728258    521.37052  0.014448801  0.014013315           15 
 3008000    0.7654379   -8.4401927    520.80013  0.014428195  0.014008047           11 
 3009000    0.7699487   -8.4625444    520.70022  0.014420633  0.014002789            8 
 3010000   0.77416633    -8.473029    520.52472  0.014410983  0.013997522           16 
 3011000    0.7680574   -8.4435545    520.48652   0.01440514  0.013992266           11 
 3012000   0.75893002   -8.4683722    520.83158  0.014409904  0.013987002           10 
 3013000   0.77835267   -8.4754857     519.4873  0.014367942  0.013981754           16 
 3014000   0.76699432   -8.4538487    520.21148  0.014383197  0.013976531           17 
 3015000   0.78408331   -8.4713485    519.75603  0.014365838  0.013971302           18 
 3016000   0.75583899   -8.4696492    520.66105  0.014386081  0.013966056           24 
 3017000   0.78082435   -8.4813924    521.52096  0.014405064  0.013960813            7 
 3018000   0.76861245   -8.4319261    520.83752   0.01438142  0.013955586           10 
 3019000   0.75683734   -8.4651696      520.888   0.01437805  0.013950371           13 
 3020000   0.78537643   -8.4314197    521.39341  0.014387235  0.013945163            6 
 3021000   0.76475483   -8.4439697    520.93734  0.014369893  0.013939962           12 
 3022000   0.77759001   -8.4424383    522.20476  0.014400087  0.013934759            5 
 3023000   0.78186101   -8.4524776     521.4764  0.014375245  0.013929562            6 
 3024000   0.75664139     -8.44183    521.12247  0.014360738  0.013924363            4 
 3025000   0.76579777   -8.4511341    520.86263  0.014348833  0.013919142            6 
 3026000   0.78396426   -8.4419076    521.02666  0.014348608  0.013913936           15 
 3027000   0.77163072   -8.4591113     521.1177  0.014346374  0.013908724            6 
 3028000   0.76240026   -8.4669604    520.23803  0.014317427  0.013903521            7 
 3029000   0.76854698   -8.4547625    520.18061  0.014311121  0.013898308            4 
 3030000   0.76639729   -8.4498666    520.95415  0.014327672  0.013893072           16 
 3031000   0.78498657   -8.4478927    521.48449  0.014337526   0.01388785            4 
 3032000   0.77808577    -8.471313    520.36566  0.014302047  0.013882624           11 
 3033000   0.76996228   -8.4685134    520.07823  0.014289434    0.0138774            6 
 3034000   0.76074683   -8.4613837    519.79771  0.014277019  0.013872155            9 
 3035000   0.77420696   -8.4525962    521.13272  0.014308971  0.013866917            5 
 3036000   0.73917322   -8.4988142    519.50981  0.014259711  0.013861683            8 
 3037000   0.76835325   -8.4429506    520.28622   0.01427632  0.013856441            8 
 3038000   0.76296491   -8.4676944    519.65521  0.014254312  0.013851195            5 
 3039000   0.78047821   -8.4743378    520.65624  0.014277071  0.013845962            9 
 3040000   0.77070449   -8.4733971    520.49452  0.014267942  0.013840736            7 
 3041000   0.76532682   -8.4776198    520.69131  0.014268643  0.013835515            8 
 3042000   0.78499482   -8.4982642      519.882  0.014241782  0.013830299           11 
 3043000   0.76667643   -8.4894042    520.37299  0.014250547  0.013825068           15 
 3044000   0.77656086    -8.467557    520.10616  0.014238561  0.013819834           11 
 3045000   0.77725639   -8.4983547    520.40362  0.014242026  0.013814613           13 
 3046000   0.77835768    -8.486396    520.45168  0.014238665  0.013809399           28 
 3047000   0.76203599   -8.4784771     521.4654  0.014261716  0.013804197           12 
 3048000   0.77302584   -8.4727013     521.0046  0.014244439  0.013798991            9 
 3049000   0.77543856   -8.4868475    520.75183  0.014232859  0.013793798           13 
 3050000    0.7492683   -8.4722095    521.21353  0.014240807    0.0137886           16 
 3051000   0.77887851    -8.512241    519.59961  0.014192057  0.013783387           11 
 3052000   0.78269717   -8.4864022    521.79016  0.014247219  0.013778183            9 
 3053000   0.75101696   -8.4614089    520.15365  0.014197883  0.013773002            6 
 3054000   0.76939817   -8.4914914    520.73363   0.01420906  0.013767813           14 
 3055000   0.77424764   -8.4657096    521.75864  0.014232369  0.013762639           11 
 3056000     0.756335   -8.4994561    520.94938  0.014205644  0.013757472            9 
 3057000    0.7421247   -8.4782682    520.10078  0.014177864  0.013752291           10 
 3058000   0.76239125   -8.4863114    521.06763  0.014199576  0.013747107            8 
 3059000   0.76747291   -8.4788234    521.39064  0.014203733  0.013741925           14 
 3060000   0.75982492   -8.4639226    521.69752  0.014207449  0.013736757            5 
 3061000   0.76610878   -8.4614126    521.48284  0.014196963  0.013731584            9 
 3062000   0.75281902   -8.4723547    521.52891   0.01419358  0.013726409            5 
 3063000   0.74993184   -8.4712951    521.88987  0.014198767  0.013721247           10 
 3064000   0.74411263   -8.4702701    520.23503  0.014149125  0.013716058           17 
 3065000   0.73544482   -8.4761064     521.2248  0.014171419  0.013710859           18 
 3066000   0.75883844   -8.5007526    520.16489  0.014137989  0.013705661            8 
 3067000   0.76698321    -8.492038    520.76692  0.014149737  0.013700458           13 
 3068000   0.76412952   -8.4721447    521.12139  0.014154753  0.013695286           29 
 3069000   0.76841011   -8.4609766    520.93073  0.014144964  0.013690109           25 
 3070000   0.75806087   -8.4632746    520.19803  0.014120468  0.013684934           25 
 3071000   0.77968111   -8.4778024    520.03806  0.014111529  0.013679741           39 
 3072000   0.76201808   -8.4687467    520.57736  0.014121565  0.013674548           37 
 3073000   0.76985582   -8.5060045    520.37745  0.014111548  0.013669348           20 
 3074000   0.75645687    -8.479433    519.99476  0.014096583  0.013664149           26 
 3075000   0.77352456    -8.502696     520.5891  0.014108106  0.013658954           12 
 3076000   0.76264789   -8.4848103    520.97367  0.014113938   0.01365375           14 
 3077000   0.76950801   -8.4855269     520.7611  0.014103594  0.013648551           15 
 3078000   0.77129032    -8.516571    520.49199  0.014091726  0.013643351           24 
 3079000   0.74631085   -8.4952357    519.18729  0.014051838   0.01363814           31 
 3080000   0.77810362   -8.4900365    520.69451  0.014088055  0.013632936           31 
 3081000   0.77361109   -8.4894719    521.05075  0.014093118   0.01362774           23 
 3082000   0.75329634   -8.4884392    519.60804  0.014049536   0.01362256           24 
 3083000   0.76250519   -8.4798617    519.89115  0.014052631  0.013617379           23 
 3084000   0.79106693   -8.4970181    519.80497  0.014045746  0.013612202           15 
 3085000   0.76963045   -8.5191434    519.94205  0.014044896   0.01360701           31 
 3086000    0.7697304   -8.4882344    520.36927  0.014051881  0.013601817           15 
 3087000   0.76641663    -8.505706    520.77298  0.014058228  0.013596641           16 
 3088000    0.7558485   -8.4754719    520.64168  0.014050132  0.013591475           12 
 3089000   0.76778688   -8.4796978    521.38097  0.014065527  0.013586313            6 
 3090000   0.77316851    -8.469967    521.41288  0.014061836  0.013581187            6 
 3091000   0.75777824   -8.4844703    521.27378  0.014053537   0.01357605           16 
 3092000   0.75460438   -8.5140105    519.42316  0.013999115  0.013570906            8 
 3093000   0.74583924   -8.4707522    521.11504  0.014040172  0.013565772            5 
 3094000   0.74383085   -8.4856297    521.55413  0.014047461  0.013560629            7 
 3095000   0.74601246   -8.5255731    520.28134  0.014008652  0.013555484           11 
 3096000   0.76998715   -8.4999287    521.15192   0.01402756  0.013550349           11 
 3097000    0.7544152    -8.475826    521.40167  0.014029751  0.013545227            7 
 3098000   0.77970845   -8.4682648    521.67941  0.014032693  0.013540115            8 
 3099000   0.75177909   -8.4798389    521.50257   0.01402341  0.013534997            5 
 3100000   0.76653904   -8.4755562    522.15537  0.014036435   0.01352988           16 
 3101000   0.75642688   -8.5182371    519.95416  0.013972755  0.013524768           16 
 3102000   0.74296811   -8.5079283    520.59122  0.013985365  0.013519644            5 
 3103000   0.75160113   -8.5040462    520.69214  0.013983568  0.013514526            9 
 3104000   0.75322368   -8.4970598    520.80973   0.01398222  0.013509413            7 
 3105000   0.75168163   -8.4910302     519.9942  0.013955829  0.013504288           14 
 3106000   0.75152868   -8.4843377    520.49359  0.013964735  0.013499149            9 
 3107000   0.74983762   -8.5020938    520.77766  0.013967859  0.013494031            5 
 3108000   0.75873251   -8.4683763    522.39723   0.01400679  0.013488911            6 
 3109000   0.73803208   -8.5182769     520.7084  0.013957017  0.013483787            6 
 3110000   0.76813964   -8.4893008    521.60711  0.013976611  0.013478662            9 
 3111000   0.74581224   -8.5068996    521.36992  0.013965764  0.013473538            4 
 3112000   0.76503397   -8.4958316    520.65763  0.013942203  0.013468406            5 
 3113000   0.75032286   -8.5187686    520.05094  0.013921484  0.013463274            6 
 3114000   0.75016775   -8.5119177    520.83201  0.013937915  0.013458143            4 
 3115000   0.73814367    -8.529717    520.10043  0.013913869  0.013453023            5 
 3116000   0.75104842    -8.497257    520.14625  0.013910629  0.013447907            9 
 3117000   0.74920391   -8.4935953    521.50163  0.013942403  0.013442816            8 
 3118000   0.75284796   -8.5018931    519.78806  0.013892133  0.013437723            4 
 3119000   0.73176452   -8.5239999    520.65171  0.013910754  0.013432632           11 
 3120000   0.75201718   -8.5034862    520.50082  0.013902266  0.013427521            6 
 3121000   0.76270564   -8.5019334    520.63597   0.01390142  0.013422426           11 
 3122000   0.75365731   -8.5130323    521.39171  0.013917139  0.013417334            8 
 3123000    0.7397127   -8.4872117    521.90847  0.013926472  0.013412244            5 
 3124000   0.76574933   -8.4835447    520.47504  0.013883777  0.013407175            5 
 3125000   0.75163468   -8.4898327    520.91621  0.013891099  0.013402096            7 
 3126000    0.7583231   -8.4875881    521.92136  0.013913451  0.013397025            7 
 3127000   0.76073407   -8.5166961    520.01515  0.013858201  0.013391944            3 
 3128000   0.74002816   -8.5249111    521.22557  0.013886018  0.013386859            9 
 3129000   0.74497443   -8.5165669    521.42685  0.013886941  0.013381787           12 
 3130000   0.75508735   -8.4987781    520.85345  0.013867238   0.01337673            3 
 3131000   0.75375468   -8.4851435    521.28991  0.013874425  0.013371665            6 
 3132000   0.75219836   -8.5057193    520.97751  0.013861684  0.013366625            4 
 3133000   0.73412235   -8.5200192    520.95658  0.013856702  0.013361557            4 
 3134000   0.75377879   -8.5262779    519.94473  0.013825376  0.013356498            4 
 3135000   0.75384171   -8.5244861    518.97251  0.013795122  0.013351439            6 
 3136000   0.74643633   -8.5098158    520.96087  0.013843561  0.013346375            5 
 3137000   0.75207197   -8.5276561     520.1831  0.013818486  0.013341311            3 
 3138000   0.76611046   -8.5246357    520.30854  0.013817414  0.013336258            3 
 3139000   0.74006836   -8.5051723    521.42077  0.013842539  0.013331197            5 
 3140000   0.75252107   -8.5212459    521.07017  0.013828826  0.013326138            4 
 3141000   0.75998679   -8.5143216    521.54208  0.013836944  0.013321099            4 
 3142000   0.75380761   -8.5103156    520.19367  0.013796777  0.013316049            7 
 3143000   0.75494049   -8.4863115     521.6375  0.013830669  0.013311014            8 
 3144000   0.75098478   -8.5113788    522.06872  0.013837699  0.013305983            4 
 3145000   0.76577381   -8.4947269    521.52034  0.013818769  0.013300934            5 
 3146000   0.76215965   -8.5014462     521.5279  0.013814577  0.013295893            6 
 3147000   0.75822468   -8.5163047     522.0326  0.013823552  0.013290871            2 
 3148000   0.74633415   -8.4943102    521.47766   0.01380447  0.013285832           18 
 3149000   0.75644633   -8.5075299    521.11261  0.013790426  0.013280815           10 
 3150000   0.73613622   -8.4998499    521.82942  0.013805011  0.013275792            5 
 3151000   0.75571401    -8.509907    521.88692  0.013802151   0.01327076            5 
 3152000    0.7535539   -8.5100926    520.80558  0.013769183  0.013265721            9 
 3153000   0.77096616   -8.5331017    520.54915  0.013758039  0.013260669            5 
 3154000   0.75664743   -8.5301679    520.46053  0.013751335  0.013255619            3 
 3155000   0.73713878   -8.5370785    520.12768  0.013738185   0.01325057            4 
 3156000   0.76067094   -8.4993373    521.64283  0.013773839  0.013245542           15 
 3157000   0.73690368    -8.526423    520.74255  0.013745712  0.013240507            6 
 3158000   0.73599135   -8.5056105    520.91341  0.013745868  0.013235455           12 
 3159000   0.75134564   -8.5577722    520.56887  0.013732428  0.013230413            3 
 3160000   0.75423689   -8.5326171    521.52099  0.013753191  0.013225368            5 
 3161000   0.74456052   -8.5515289    519.69413  0.013700678  0.013220339            3 
 3162000    0.7474665   -8.5055609    520.44196  0.013716054  0.013215295           10 
 3163000   0.73785453   -8.5377433    520.69334  0.013718341  0.013210256            8 
 3164000   0.74544339   -8.5236806    521.53349  0.013736133  0.013205224            9 
 3165000   0.75045152   -8.5165761    520.71086  0.013710133  0.013200199           11 
 3166000    0.7496258    -8.520561    521.06441  0.013715109  0.013195151           10 
 3167000   0.73414734   -8.5197964    520.54747  0.013697176  0.013190124           11 
 3168000   0.75498559   -8.5171439    521.50114  0.013717938    0.0131851           12 
 3169000    0.7466506   -8.5143117     521.2509  0.013707029  0.013180071           17 
 3170000   0.74349147    -8.527091     520.7015  0.013688262  0.013175049           13 
 3171000   0.72339586    -8.509113    520.67589  0.013683273  0.013170016           16 
 3172000   0.73356254    -8.526597    520.87377  0.013684157  0.013164997           13 
 3173000    0.7466927    -8.524129    519.11929  0.013633766  0.013159978           15 
 3174000   0.75274425    -8.527128    521.07048  0.013680699  0.013154957           11 
 3175000   0.74917218   -8.4949213    520.49211   0.01366121  0.013149938           13 
 3176000   0.75904561    -8.518605    520.31615  0.013652292  0.013144926           14 
 3177000   0.73705574   -8.5312915    521.60579  0.013681822  0.013139921           22 
 3178000   0.73699283   -8.5093322    520.04637  0.013636626  0.013134912           28 
 3179000   0.74313327   -8.5185992    520.30037  0.013638995  0.013129893           23 
 3180000   0.74274411   -8.5138672    521.47242   0.01366542  0.013124889           12 
 3181000   0.74629734   -8.5182819    521.54249  0.013662959   0.01311988           23 
 3182000   0.74252733   -8.5044988    521.46163  0.013656548  0.013114871           34 
 3183000   0.74952673   -8.5171947    521.01223  0.013640492  0.013109866           24 
 3184000   0.75607115   -8.5268534    520.95749  0.013634775  0.013104855           14 
 3185000   0.73578118   -8.5332152    519.79916  0.013600187  0.013099839           33 
 3186000   0.73760592   -8.5163344    520.98377  0.013626903   0.01309483           12 
 3187000   0.71038592   -8.5138901    520.74062   0.01361627  0.013089827           28 
 3188000   0.73214002   -8.4975853    520.52586  0.013606385  0.013084827           21 
 3189000   0.73321467   -8.5334916    520.55096  0.013602774  0.013079832           21 
 3190000   0.72760576   -8.5125835    520.46452  0.013596252  0.013074851           32 
 3191000   0.75246649   -8.5435039     520.0546  0.013581286  0.013069863           40 
 3192000   0.75721524    -8.510044    520.71026  0.013594148  0.013064872           30 
 3193000   0.75253546   -8.5300623    521.32727  0.013605994  0.013059885           22 
 3194000   0.74360069   -8.5337175    521.42825  0.013604369  0.013054899           22 
 3195000    0.7301549   -8.5307844    520.50801  0.013576109  0.013049917           22 
 3196000   0.73533246   -8.5395813    521.09863  0.013587261  0.013044921           46 
 3197000   0.73589536   -8.5382227    520.38004   0.01356428  0.013039937           25 
 3198000    0.7270236    -8.560288    520.61771  0.013566232  0.013034958           40 
 3199000   0.74257738   -8.5364625    520.97142  0.013571205  0.013029973           47 
 3200000   0.71876684   -8.5571737    519.49662  0.013528558  0.013024988           43 
 3201000   0.73703036   -8.5262532    521.64718  0.013580318  0.013020008           56 
 3202000   0.73765726   -8.5314946     520.3044   0.01354113  0.013015038           50 
 3203000   0.74782276   -8.5241571    521.87618  0.013577796  0.013010075           27 
 3204000   0.73970179    -8.547837    519.77815  0.013518991  0.013005115           36 
 3205000   0.74555909   -8.5423416    519.79324  0.013515165  0.013000159           45 
 3206000   0.73303527   -8.5560251    519.75867  0.013510051  0.012995197           18 
 3207000    0.7217347   -8.5471831    520.00255  0.013512175  0.012990214           11 
 3208000   0.73676827   -8.5441326     521.0086  0.013534097  0.012985246           19 
 3209000   0.74648232   -8.5300109    520.38516   0.01351369  0.012980295           27 
 3210000   0.74144673    -8.558311    519.88596   0.01349652  0.012975356           21 
 3211000   0.73210048     -8.54451    520.84245   0.01351714  0.012970423           29 
 3212000   0.72789163    -8.514961    521.18996  0.013521948    0.0129655           16 
 3213000   0.73595219   -8.5240413    521.05059  0.013514125  0.012960586           14 
 3214000   0.74476469   -8.5201104    521.14885  0.013512468  0.012955668           29 
 3215000   0.75009425   -8.5250546    521.25443  0.013511001  0.012950744           26 
 3216000   0.74779325   -8.5400025    520.63948  0.013490865  0.012945817           19 
 3217000    0.7221791   -8.5216834    522.18306  0.013526657  0.012940897           25 
 3218000   0.75401695   -8.5720873    521.08224  0.013493947  0.012935964           19 
 3219000    0.7333915   -8.5239454    520.72335  0.013480464   0.01293104           26 
 3220000   0.72082981   -8.5368886    521.47686  0.013495778  0.012926121           18 
 3221000   0.73699268   -8.5468049    521.76057  0.013498928  0.012921188            7 
 3222000   0.72890387     -8.53785    520.38477  0.013459155  0.012916263            7 
 3223000   0.71635726   -8.5270093    520.51991  0.013458473  0.012911348            8 
 3224000   0.73034324   -8.5238144     520.7634  0.013460592  0.012906429           10 
 3225000   0.75841621    -8.523777    521.04111  0.013463595   0.01290151            3 
 3226000   0.72972731   -8.5279172    520.89301  0.013455596    0.0128966           19 
 3227000   0.73192996   -8.5568261    520.69381  0.013446282  0.012891675           14 
 3228000   0.73649564   -8.5323122    521.33037  0.013458549   0.01288676            6 
 3229000   0.73208596   -8.5493958    519.88583  0.013417101  0.012881836           16 
 3230000   0.73285304   -8.5516278    519.17488  0.013394605  0.012876911           10 
 3231000   0.74270594   -8.5367003    521.63653   0.01345395  0.012872001            8 
 3232000   0.72518329   -8.5567645    521.08364  0.013435531  0.012867087            4 
 3233000   0.73132174   -8.5602178    520.55913  0.013417856  0.012862168           13 
 3234000    0.7325767   -8.5561158    520.94227  0.013423579  0.012857268           13 
 3235000   0.72493662   -8.5395939    520.99834  0.013420874  0.012852363           17 
 3236000   0.73726084   -8.5474836     521.0011  0.013416798  0.012847472           11 
 3237000    0.7350687   -8.5372401    521.07806  0.013414634   0.01284257           20 
 3238000   0.73593975   -8.5640984     520.8111  0.013403621  0.012837678           15 
 3239000   0.74373534   -8.5663417    520.66337  0.013395682  0.012832783           24 
 3240000   0.73831802   -8.5831677    521.13607  0.013403705  0.012827871           21 
 3241000   0.70610776   -8.5717775    520.37011  0.013379875  0.012822967            8 
 3242000    0.7320696   -8.5661152    520.13705  0.013369757  0.012818047           24 
 3243000   0.72360598   -8.5577741    520.58875  0.013377242  0.012813135           43 
 3244000   0.73193521   -8.5643438    520.82295  0.013379134  0.012808241           30 
 3245000   0.72660609   -8.5847853    520.28094  0.013361092  0.012803344           21 
 3246000    0.7313373   -8.5482992    521.07988  0.013377487  0.012798447           17 
 3247000   0.73425534   -8.5593375    520.63826  0.013362033  0.012793546           23 
 3248000   0.70879496   -8.5812536    520.56844  0.013356128   0.01278865           22 
 3249000   0.72463218     -8.57256    519.88663  0.013334529  0.012783752           33 
 3250000   0.73569353   -8.5641157    520.77436  0.013353189  0.012778858           31 
 3251000   0.71948499   -8.5678572    520.35967  0.013338452  0.012773976           25 
 3252000   0.73870253   -8.5598185    520.96058  0.013349748  0.012769091           25 
 3253000   0.73859103   -8.5650737    520.66699  0.013338124  0.012764202           32 
 3254000   0.74937487   -8.5770945    521.13194  0.013345932  0.012759305           27 
 3255000   0.73661041   -8.5607827    521.41966  0.013349198  0.012754421           26 
 3256000   0.74052914    -8.567024    520.83975  0.013330256   0.01274953           10 
 3257000   0.72563533   -8.5619829    519.28927  0.013286492   0.01274464           29 
 3258000   0.71139364   -8.5901933    519.74878  0.013294168  0.012739755           30 
 3259000   0.72182914   -8.5618443    520.48236  0.013308846  0.012734884           15 
 3260000   0.72176574   -8.5916399    519.95038  0.013291165  0.012729992           21 
 3261000   0.74382547   -8.5612524    521.50464  0.013326808  0.012725118           24 
 3262000   0.73257873   -8.5757684    520.26275  0.013290996  0.012720255           27 
 3263000   0.72831059    -8.544148    520.80301  0.013300721  0.012715404           35 
 3264000   0.71792949   -8.5423854    521.88009  0.013324144  0.012710558           16 
 3265000    0.7359398   -8.5554331    521.55722  0.013311823  0.012705705           31 
 3266000    0.7297213   -8.5466328    521.24062  0.013299669  0.012700857           25 
 3267000   0.74254279   -8.5453791      520.819  0.013284843  0.012696013           25 
 3268000   0.73047768    -8.553713     521.1375    0.0132889   0.01269117           39 
 3269000   0.72929414   -8.5333918    521.60697  0.013296803  0.012686314           27 
 3270000   0.72611076   -8.5535958    521.48388  0.013289599  0.012681479           27 
 3271000   0.72855547    -8.578464    521.23802  0.013279273  0.012676639           22 
 3272000    0.7276153   -8.5619235     520.9064  0.013266768  0.012671808           29 
 3273000   0.71632192   -8.5252979    522.50368  0.013303383   0.01266698           15 
 3274000   0.72149312   -8.5587095    520.76513  0.013255068  0.012662152           34 
 3275000   0.72010135   -8.5743354    519.94206  0.013230078  0.012657314           21 
 3276000   0.72659831   -8.5708511    522.28035   0.01328552  0.012652471           23 
 3277000   0.73684516    -8.596697     521.0316   0.01324971  0.012647632           21 
 3278000   0.71748834   -8.5650104    521.51121  0.013257861  0.012642782           27 
 3279000   0.73015757   -8.5681548    521.47514  0.013252901  0.012637937           22 
 3280000   0.72906618   -8.6038481    520.45372  0.013222909  0.012633092           29 
 3281000   0.72321073   -8.5810024    521.29889  0.013240346  0.012628247           25 
 3282000   0.74073776   -8.5894332    520.63173  0.013219372  0.012623398           13 
 3283000   0.73395499   -8.5870739    521.58024  0.013239421  0.012618565            9 
 3284000   0.71668117   -8.5938521    520.95234  0.013219457  0.012613745           22 
 3285000   0.72556099   -8.5460939    521.25642  0.013223146   0.01260891           26 
 3286000   0.73244872   -8.5778976    518.97933  0.013161375  0.012604073           32 
 3287000   0.73523795   -8.5967457    519.75487  0.013177032  0.012599232           19 
 3288000   0.73750741   -8.5687407     521.2282  0.013210366  0.012594405           21 
 3289000   0.72325383   -8.5861403    520.12282  0.013178342  0.012589587           14 
 3290000   0.72803484   -8.5910365    521.61005  0.013212007  0.012584754           19 
 3291000   0.72463268   -8.5732099    520.42763  0.013178052  0.012579912           18 
 3292000   0.72392493    -8.580722    520.24769  0.013169494  0.012575089           48 
 3293000   0.73062896   -8.5725242    519.55674  0.013148009  0.012570263           47 
 3294000   0.69799826   -8.5851064    520.85193  0.013176784  0.012565447           28 
 3295000   0.72200562   -8.5540902    521.51747  0.013189617  0.012560634           50 
 3296000   0.72007172   -8.5719784    521.42415  0.013183256  0.012555816           22 
 3297000    0.7142578   -8.5883917    519.85479  0.013139591  0.012551011           33 
 3298000   0.71601713   -8.5914912    520.14521  0.013142945  0.012546204           23 
 3299000   0.73813838   -8.5848105    520.28983  0.013142615  0.012541397           41 
 3300000   0.72131898   -8.5913028    519.62654  0.013121882  0.012536594           38 
 3301000   0.72267338   -8.5749167    520.53294  0.013140789  0.012531797           61 
 3302000   0.71707668   -8.6091379    520.03069  0.013124134  0.012526996           41 
 3303000   0.71931846   -8.5838339     520.5365  0.013132922  0.012522193           29 
 3304000   0.72571763    -8.601548    520.23693  0.013121392  0.012517384           66 
 3305000   0.71947561   -8.5792967    520.54062  0.013125079  0.012512575           45 
 3306000   0.72034769   -8.6253045    519.65824  0.013098867  0.012507763           57 
 3307000   0.71428591   -8.5851949     519.3209  0.013086405  0.012502964           57 
 3308000   0.73672589   -8.6132363    520.89296  0.013122051  0.012498161           55 
 3309000   0.71930794   -8.5843623    520.82007   0.01311625  0.012493366           47 
 3310000   0.71805262   -8.5977774    520.11698  0.013094587  0.012488563           42 
 3311000   0.70739863   -8.6328663    520.35729   0.01309668  0.012483767           46 
 3312000   0.71695925   -8.6067221    520.18902  0.013088492   0.01247897           62 
 3313000   0.73171538   -8.6135881    519.24227  0.013060727  0.012474176           68 
 3314000   0.71700076   -8.6126894    520.35514   0.01308477  0.012469363           56 
 3315000    0.7007876   -8.6216489    519.53446  0.013060193  0.012464567           44 
 3316000   0.72676989    -8.596889    520.71552  0.013085935  0.012459781           58 
 3317000   0.72750407   -8.5996714    519.43791  0.013049892  0.012454992           81 
 3318000   0.72586237   -8.5975128    519.33938  0.013043485  0.012450212           97 
 3319000   0.69931342   -8.5989892    520.63704  0.013072136  0.012445421          107 
 3320000   0.72365178   -8.6089592    519.74986   0.01304593  0.012440632          100 
 3321000   0.72958812   -8.6179801      519.617  0.013038668  0.012435843           94 
 3322000   0.72831228   -8.6252242    518.65675  0.013010655  0.012431054           70 
 3323000   0.73332506   -8.6066815    519.82524  0.013036043   0.01242626           78 
 3324000   0.71820388   -8.6188257    520.02015  0.013037007  0.012421479           85 
 3325000   0.71338218   -8.6116236    521.15186   0.01306145    0.0124167          102 
 3326000    0.7278513   -8.6154576    520.62237  0.013044257  0.012411932           95 
 3327000   0.72047843   -8.6108624    519.42882   0.01301044  0.012407157           80 
 3328000   0.71523112   -8.6196099    520.08578  0.013022981   0.01240238           80 
 3329000   0.73014821   -8.6316569    520.90804  0.013039653  0.012397604           86 
 3330000   0.71772651   -8.6366633    519.50517   0.01300063  0.012392838           80 
 3331000    0.7286777   -8.6007095    520.35455  0.013017976  0.012388076           84 
 3332000   0.72039994   -8.6211786    519.30939   0.01298793  0.012383315           90 
 3333000   0.72386729   -8.5857891    520.30699  0.013008976  0.012378548           66 
 3334000   0.73049242    -8.612264    520.35337  0.013006233  0.012373795           85 
 3335000   0.71603016   -8.6161966    519.96487  0.012992625  0.012369035           61 
 3336000   0.71801776   -8.6357354    521.08965  0.013016828  0.012364281           82 
 3337000   0.71024321   -8.6074638    519.99069  0.012985483  0.012359514           79 
 3338000   0.71334446    -8.616578    520.74487  0.013000421  0.012354744           68 
 3339000   0.70750874   -8.6155806    520.21619  0.012983333   0.01234998           80 
 3340000   0.72379007   -8.6175625    520.47612  0.012985931  0.012345229           71 
 3341000   0.72189808   -8.6192632    519.95782  0.012969117  0.012340468           88 
 3342000   0.72586878   -8.6420731    519.69753  0.012958745  0.012335707           78 
 3343000   0.71205956   -8.5969024    519.73427  0.012955785  0.012330943          104 
 3344000   0.72015827   -8.5933104    520.62563  0.012974124  0.012326186          113 
 3345000   0.71489754   -8.5973799    520.43398   0.01296547  0.012321429           90 
 3346000   0.70765638   -8.6119131    519.37577   0.01293524  0.012316674          123 
 3347000    0.7288594   -8.6397957    519.56091  0.012935985  0.012311913          138 
 3348000   0.72385137   -8.6079675    520.01428  0.012943406  0.012307161          105 
 3349000   0.70463404    -8.602243    519.70485  0.012931842  0.012302414           97 
 3350000   0.72391361   -8.6081698    519.44635  0.012921551  0.012297669           93 
 3351000   0.70486083   -8.6343324    519.83687  0.012927406  0.012292911          104 
 3352000   0.72440993   -8.6201616    519.51318  0.012915503   0.01228816           99 
 3353000   0.71564652   -8.6128776     519.3884   0.01290855  0.012283421          113 
 3354000   0.72088221    -8.626613    520.19279  0.012924687  0.012278675          128 
 3355000   0.71021545   -8.6047088    520.23597  0.012921907   0.01227392           90 
 3356000   0.72725191   -8.6465456    519.62287  0.012902832   0.01226918           55 
 3357000    0.7235072   -8.6244012    519.52124  0.012896466  0.012264437          107 
 3358000   0.70850385   -8.6092448    519.52007  0.012892597  0.012259695           92 
 3359000   0.71080829   -8.6186065    520.08253  0.012902712  0.012254949          105 
 3360000   0.70821841   -8.6586415     519.5115   0.01288471    0.0122502           65 
 3361000   0.71360251   -8.6331844    519.53278  0.012881404  0.012245454          107 
 3362000   0.71556206   -8.6565387    518.66242  0.012855999  0.012240713           66 
 3363000   0.70083966   -8.6267372    518.97161  0.012859838  0.012235972          112 
 3364000   0.72628752   -8.6256557    519.46106   0.01286814  0.012231233          119 
 3365000   0.71698845   -8.6534727    519.52608  0.012865926  0.012226501           95 
 3366000   0.71283072    -8.642026    519.88222  0.012870921  0.012221767           78 
 3367000   0.71184947   -8.6032919    520.40133  0.012879946  0.012217034           74 
 3368000   0.71349529   -8.6236352    519.81188  0.012861537  0.012212299           79 
 3369000   0.70504076   -8.6509364     518.1262  0.012816024  0.012207565          126 
 3370000   0.71078914    -8.652601    519.66252  0.012850211   0.01220282           81 
 3371000   0.71766707   -8.6264547    518.82877  0.012825788  0.012198079           99 
 3372000   0.70201276   -8.6230983    519.57929  0.012840532  0.012193353          112 
 3373000   0.71522534   -8.6346899    518.39367  0.012807433  0.012188625           79 
 3374000   0.70354147   -8.6435962    518.57893  0.012808213  0.012183904          119 
 3375000   0.71427073   -8.6139234    518.72242  0.012807961  0.012179188          116 
 3376000   0.70919493   -8.6389794    519.00666  0.012811183  0.012174466           86 
 3377000   0.70905343   -8.6535354     519.4264  0.012817747  0.012169745           79 
 3378000   0.71133711   -8.6310133    519.37533  0.012812693  0.012165023           67 
 3379000   0.71996752   -8.6409089    519.51173  0.012812265  0.012160291          138 
 3380000   0.71042163   -8.6458437     518.9193  0.012793868  0.012155573          119 
 3381000   0.71403312   -8.6669079    518.76483  0.012786277   0.01215085           82 
 3382000   0.71311942   -8.6217645    520.04481  0.012814035  0.012146131          108 
 3383000   0.69623123   -8.6191767    519.03433  0.012785356  0.012141417          122 
 3384000    0.7203496   -8.6277214    520.57673  0.012819561  0.012136707           77 
 3385000   0.71794419   -8.6496818     518.3266  0.012760379  0.012131992           64 
 3386000   0.68955621    -8.654835    519.98139  0.012797337  0.012127277          115 
 3387000   0.71938333   -8.6399693    519.35889  0.012778243  0.012122572          106 
 3388000   0.72020709   -8.6643364    519.73834  0.012783804  0.012117863          136 
 3389000   0.71112425   -8.6368551    518.80203  0.012757009   0.01211316           86 
 3390000    0.7196633    -8.623074     518.9471  0.012756812  0.012108459           87 
 3391000   0.68089071   -8.6544038    518.54888  0.012743264  0.012103743          133 
 3392000   0.71006915   -8.6803239    518.49721  0.012738237  0.012099037           86 
 3393000   0.70830263   -8.6294074     519.3006  0.012754215  0.012094325          102 
 3394000   0.70266724   -8.6420491    519.33504  0.012751302  0.012089629           87 
 3395000   0.70726673   -8.6747462    519.06823  0.012740997  0.012084931           87 
 3396000   0.71047342   -8.6478018    519.29188  0.012742734  0.012080231           86 
 3397000   0.70880411   -8.6350603    517.86081  0.012703876  0.012075542           72 
 3398000   0.69718754   -8.6632514    518.75754  0.012722129  0.012070856          118 
 3399000   0.69628913   -8.6678288    518.67007  0.012716242  0.012066173          128 
 3400000   0.70772386   -8.6495238    519.20534  0.012725621  0.012061492          151 
 3401000    0.7078357   -8.6555707    520.21003  0.012746497  0.012056813           81 
 3402000   0.70242042   -8.6188741    520.48504  0.012749487  0.012052144           79 
 3403000   0.70787209   -8.6388721     519.8957  0.012731308  0.012047475           84 
 3404000   0.68795878   -8.6621906    518.84091  0.012701746  0.012042811           82 
 3405000   0.71265283   -8.6325506    518.27761  0.012684229  0.012038146           79 
 3406000   0.72575525   -8.6439429    518.70984  0.012691081  0.012033479           64 
 3407000   0.71244405   -8.6470064    518.93058  0.012692755  0.012028814          118 
 3408000   0.70529655   -8.6269507    519.10393  0.012693269  0.012024146          109 
 3409000   0.69631922    -8.643115    518.82908  0.012682827  0.012019472           86 
 3410000    0.7035206    -8.632979    518.09105  0.012661072  0.012014805          103 
 3411000   0.71088263   -8.6351162    518.56331  0.012668897  0.012010136          107 
 3412000   0.68890749   -8.6547421    518.48433  0.012663255  0.012005466           72 
 3413000   0.70224775   -8.6334962    519.17538  0.012676418  0.012000792          107 
 3414000   0.70487644   -8.6506044      518.768  0.012662761  0.011996124          102 
 3415000   0.71018897   -8.6388485     519.4884  0.012676632  0.011991453          140 
 3416000    0.7150115   -8.6688941    517.39964  0.012621966  0.011986792           90 
 3417000   0.71596831   -8.6938068    518.95379  0.012656175  0.011982127          123 
 3418000   0.71127011   -8.6622651    517.65106   0.01262071  0.011977465          126 
 3419000   0.70006915   -8.6402863    518.20848  0.012630605  0.011972808          145 
 3420000   0.70483476   -8.6608729    517.87477  0.012618781  0.011968142           97 
 3421000   0.70630286   -8.6472923    519.23295  0.012648177  0.011963478           88 
 3422000   0.72518619   -8.6495215    518.34479  0.012622852  0.011958828          110 
 3423000   0.69825126   -8.6720638    518.30064  0.012618089  0.011954181          113 
 3424000    0.7044153   -8.6390862    520.37834  0.012664971  0.011949527           76 
 3425000   0.70319757   -8.6585763    518.93542  0.012626166  0.011944882          114 
 3426000   0.71541435   -8.6274967    518.85163  0.012620442  0.011940243          100 
 3427000   0.70212939   -8.6538197    518.21366  0.012601247  0.011935601           95 
 3428000   0.71163376   -8.6595704    518.00164  0.012592416  0.011930956          113 
 3429000   0.69722816   -8.6108471    520.65965   0.01265334  0.011926316          136 
 3430000   0.69843398   -8.6687268    519.00974  0.012609566  0.011921669          128 
 3431000   0.69758099   -8.6649124     518.0494  0.012582566  0.011917029          100 
 3432000   0.72413152   -8.6462187     519.2196  0.012607313  0.011912398          103 
 3433000   0.70499422   -8.6401909    518.76543  0.012592617   0.01190778           72 
 3434000   0.71139245   -8.6612624    518.49353  0.012582351   0.01190315           86 
 3435000   0.69154925   -8.6686659    518.39455  0.012576287  0.011898509           98 
 3436000   0.69001192   -8.6712647    517.91362  0.012560963  0.011893875          143 
 3437000    0.6844153   -8.6179806    519.52417  0.012596358  0.011889238          103 
 3438000   0.69733538   -8.6569523    518.15602  0.012559531  0.011884613           64 
 3439000   0.71026671   -8.6567132    518.43442  0.012562625   0.01187999           67 
 3440000   0.70133426   -8.6439583    518.35779  0.012557117   0.01187536           87 
 3441000   0.70039102   -8.6547769    519.19705  0.012573793  0.011870738          100 
 3442000   0.70148632   -8.6342817     518.5751  0.012555082  0.011866121           76 
 3443000   0.71210338   -8.6634065    518.42482  0.012547798  0.011861509           73 
 3444000   0.70462836   -8.6467304     519.2157  0.012563291  0.011856895           86 
 3445000   0.70392765    -8.661501    517.80134  0.012525432  0.011852274           96 
 3446000   0.69499381   -8.6696161    518.31886  0.012534312  0.011847656           83 
 3447000   0.72099743   -8.6855577    518.75837  0.012541301  0.011843042           71 
 3448000    0.7081708    -8.646038    519.40089  0.012553192  0.011838445          102 
 3449000   0.69984979   -8.6529602    518.87837  0.012536928  0.011833846           80 
 3450000   0.70832651   -8.6474715    518.42369  0.012522311  0.011829256           89 
 3451000   0.69724474   -8.6749929    518.32426  0.012516282  0.011824659          115 
 3452000   0.69501328    -8.665445    518.38466  0.012514114  0.011820062          149 
 3453000   0.70643535   -8.6459704    518.47878  0.012512761   0.01181548          111 
 3454000   0.70986312   -8.6691501    519.12538  0.012524739  0.011810894          122 
 3455000   0.71038049   -8.6554531    518.41385  0.012503952  0.011806308          102 
 3456000   0.70088137   -8.6755229    519.36458  0.012523259  0.011801715           93 
 3457000   0.68654673   -8.6564231    518.54208  0.012499809  0.011797131          133 
 3458000   0.70382938   -8.6560607     518.2589   0.01248937  0.011792548          108 
 3459000   0.69520895    -8.641168    518.02762  0.012480187   0.01178798          127 
 3460000   0.71054326   -8.6653222    518.30479  0.012483256    0.0117834          151 
 3461000   0.70195147    -8.681994    516.96023  0.012447275  0.011778821          128 
 3462000   0.68835445   -8.6751219    518.83214  0.012488738   0.01177424          170 
 3463000    0.6858099   -8.6537309    518.48067  0.012476674  0.011769664          134 
 3464000   0.69108389   -8.6533945    518.30143   0.01246876  0.011765093          129 
 3465000   0.71475583   -8.6886843     518.9477  0.012480705  0.011760535          137 
 3466000   0.68233911   -8.6607754    518.44282  0.012464965  0.011755966          156 
 3467000   0.69659471   -8.6594007    518.01302  0.012451039  0.011751392          135 
 3468000   0.69550295   -8.6583888    519.02934   0.01247187  0.011746819          149 
 3469000   0.68832058    -8.654749    518.55543   0.01245689  0.011742257          135 
 3470000   0.69147485    -8.678182     519.2322  0.012469553  0.011737697          131 
 3471000   0.68785672   -8.6539848    517.45859  0.012423379  0.011733132          119 
 3472000   0.69989876   -8.6588275    519.62375  0.012471768  0.011728569          101 
 3473000   0.68753905    -8.660974    518.55083  0.012442433  0.011724016           96 
 3474000   0.69691161   -8.6818686     518.4734  0.012436994   0.01171945          138 
 3475000    0.7112818   -8.6988751     518.8489   0.01244242  0.011714889          102 
 3476000   0.69418784   -8.6610653    518.37286  0.012427427  0.011710325          118 
 3477000   0.68805468   -8.6876872    517.96135  0.012413991   0.01170577          118 
 3478000   0.69604708   -8.6772804    518.63145  0.012426477  0.011701212          122 
 3479000   0.68773369   -8.6828503    518.64303  0.012423183  0.011696657          157 
 3480000   0.69510072   -8.6823902    519.56344  0.012441653  0.011692104          135 
 3481000   0.69875521   -8.7050503    517.49207  0.012388492  0.011687544          132 
 3482000   0.69002773   -8.6975894    517.80268  0.012392367  0.011682997          112 
 3483000   0.69856936   -8.6618062    518.25638  0.012399665  0.011678451          118 
 3484000   0.69247653   -8.6640095    518.46259  0.012401038    0.0116739          128 
 3485000   0.69485374   -8.6499832    518.51787  0.012398801  0.011669346          127 
 3486000   0.68618353   -8.7042957    517.90452  0.012380582  0.011664798          122 
 3487000   0.69820973   -8.6872222    516.78875  0.012350367  0.011660251          125 
 3488000   0.69700935   -8.7111727    518.20202  0.012380591  0.011655707          119 
 3489000   0.69358014   -8.6800808    518.28096  0.012378928  0.011651156           99 
 3490000   0.71031651   -8.6815986    518.39087  0.012378005  0.011646615          112 
 3491000    0.6948425    -8.682888    518.22489  0.012370498   0.01164207          124 
 3492000   0.69480831   -8.6862336    518.86297  0.012382182  0.011637534          138 
 3493000   0.68155057   -8.6782179    518.42932  0.012368292  0.011633005          117 
 3494000   0.69132585   -8.7208382    517.22893  0.012336122   0.01162846          146 
 3495000   0.68712323   -8.6971617    519.33652  0.012382845  0.011623932          119 
 3496000   0.70393213    -8.676215    517.48814  0.012335244  0.011619409          157 
 3497000   0.69466244   -8.6702255    517.78189  0.012338716   0.01161488          138 
 3498000   0.69055879   -8.6832507    518.24607  0.012346247  0.011610358          150 
 3499000   0.68405129    -8.663428    517.19658  0.012317724  0.011605828          157 
 3500000   0.69430157   -8.6763322    517.43946  0.012319987  0.011601299          113 
 3501000   0.69197647    -8.688191    518.14658  0.012333299  0.011596774          148 
 3502000   0.70188152   -8.6843689    517.91994  0.012324385   0.01159225          147 
 3503000   0.69114413   -8.6997022    517.53458  0.012311699  0.011587732          130 
 3504000   0.68472063   -8.6818171    518.44554   0.01232985  0.011583211          134 
 3505000   0.70340925   -8.6872729    518.21917   0.01232095  0.011578687          133 
 3506000   0.69549138   -8.7144646     517.1933  0.012293052  0.011574166          150 
 3507000   0.68749881   -8.6918248    518.21088  0.012313727  0.011569643          140 
 3508000   0.69184153   -8.7094659    517.97652  0.012304649  0.011565114          138 
 3509000   0.70167667   -8.7037167    517.65485  0.012293504  0.011560595          169 
 3510000   0.69064507   -8.6953139    517.73542  0.012291914  0.011556076          158 
 3511000   0.67916865   -8.6888477    517.26209  0.012277179  0.011551568          154 
 3512000   0.67638534   -8.6957478    517.64589   0.01228279   0.01154706          150 
 3513000   0.68944112   -8.6998502     519.4246  0.012321487   0.01154256          150 
 3514000   0.69532828   -8.7246828    517.68236  0.012276664  0.011538053          133 
 3515000   0.67702903    -8.706784    517.84032  0.012276916  0.011533553          125 
 3516000    0.6997067   -8.6896942    517.91376  0.012275165  0.011529057          118 
 3517000   0.69906555   -8.7073491    518.79504  0.012292556   0.01152456          148 
 3518000   0.69317433   -8.7099712    517.47852  0.012257877  0.011520068          139 
 3519000    0.6971498   -8.6906664    518.28761  0.012273553  0.011515579          124 
 3520000   0.68553376   -8.7061327    518.08558  0.012265284  0.011511087          132 
 3521000   0.68299691   -8.6863625    518.08457  0.012261776  0.011506598          119 
 3522000   0.69746186   -8.6985064    518.21597  0.012261404  0.011502105          139 
 3523000   0.69133944   -8.7057935    516.93634  0.012227655  0.011497606          122 
 3524000   0.68988952   -8.7222431    517.32874  0.012233464  0.011493116          132 
 3525000   0.68049205   -8.6969308    518.94232   0.01226814  0.011488627          122 
 3526000   0.67850606   -8.7090009    518.48047  0.012253745  0.011484138          127 
 3527000   0.68075302   -8.7005902    518.08793  0.012240996  0.011479655          106 
 3528000   0.68135636   -8.7263494    518.03116  0.012236186  0.011475172          117 
 3529000   0.68494163   -8.7194272      517.869  0.012228889  0.011470692          132 
 3530000   0.67040556   -8.7130249    516.75046  0.012199019  0.011466215          108 
 3531000   0.68941567   -8.7217442    517.81021  0.012220575  0.011461734          128 
 3532000   0.67744882   -8.6792648    517.78279  0.012216468  0.011457256          137 
 3533000   0.67572748   -8.7092001    517.99612  0.012218042  0.011452787          151 
 3534000   0.68629106   -8.7096362    517.82326  0.012210509  0.011448315          136 
 3535000   0.68612133   -8.6938685    518.74051  0.012228678  0.011443849          126 
 3536000   0.67628751   -8.7054483    517.21362  0.012189235  0.011439391          132 
 3537000   0.69249953   -8.7138101    517.13174   0.01218386  0.011434927          150 
 3538000   0.68062011   -8.7348043    517.45531  0.012188037  0.011430467          148 
 3539000    0.6845634   -8.7326905    517.45055  0.012184481  0.011426008          137 
 3540000   0.71451167   -8.7002323    518.49073  0.012205526  0.011421549          121 
 3541000   0.67336436   -8.6981643    517.56269  0.012180238  0.011417097          123 
 3542000   0.67565311   -8.7047675     517.4767  0.012174777   0.01141264          130 
 3543000   0.69363545    -8.684386    516.91697  0.012158175  0.011408183          133 
 3544000   0.70091244   -8.7113139    517.61907  0.012171253  0.011403737          143 
 3545000   0.68101229   -8.7041457    517.42087  0.012163161  0.011399285          130 
 3546000   0.68648979   -8.7103664     517.2924  0.012156712   0.01139484          154 
 3547000   0.68416607   -8.7290342    518.25729  0.012175954  0.011390394          133 
 3548000   0.66737238   -8.7093493    516.77877  0.012137795   0.01138595          149 
 3549000   0.67996531   -8.7186138    517.40325  0.012149038  0.011381507          146 
 3550000   0.67543459   -8.6986885    516.74248  0.012130105  0.011377063          145 
 3551000    0.6861977    -8.696809    517.38547  0.012141779  0.011372627          153 
 3552000   0.70766073   -8.7025568    517.67871   0.01214524  0.011368195          175 
 3553000   0.68510777    -8.684712    518.16359  0.012153194  0.011363765          149 
 3554000   0.65716516   -8.6773544    518.44947  0.012156478  0.011359344          169 
 3555000   0.69864085   -8.7083227    518.15077  0.012146057  0.011354928          162 
 3556000   0.69111725   -8.7165491    517.29278  0.012122534  0.011350503          162 
 3557000   0.69567139    -8.703045    516.83827  0.012108478  0.011346072          176 
 3558000   0.68340545   -8.7331299    517.21481  0.012113894  0.011341648          171 
 3559000   0.69637695   -8.7173217    517.38162  0.012114396   0.01133722          177 
 3560000   0.67593142   -8.7110571    518.14441  0.012128849  0.011332792          158 
 3561000   0.66168858   -8.7132475    517.05498  0.012099948  0.011328368          152 
 3562000   0.67521953   -8.7171166    517.67333  0.012111018  0.011323945          139 
 3563000   0.68008005    -8.739236    517.73892  0.012109153  0.011319528          136 
 3564000   0.67224002   -8.7343775    517.40534  0.012097955  0.011315108          156 
 3565000   0.66409794   -8.7266856    517.76208    0.0121029  0.011310684          162 
 3566000   0.69183078   -8.7019814    517.61738  0.012096125  0.011306269          152 
 3567000   0.66889964   -8.7242411    517.38215  0.012087238  0.011301852          169 
 3568000   0.68366919   -8.7330603    516.64218  0.012066568  0.011297438          146 
 3569000   0.69465524   -8.7207198     515.6053  0.012038977  0.011293034          161 
 3570000   0.68532907   -8.7161862    516.99632  0.012068075  0.011288615          135 
 3571000   0.67756939   -8.7068107    517.29618  0.012071693  0.011284198          159 
 3572000   0.68067203    -8.716013    517.45615  0.012072045  0.011279786          167 
 3573000   0.70037749   -8.7344442    517.62964  0.012072713  0.011275383          146 
 3574000   0.69022368    -8.742322    517.07384  0.012056376  0.011270983          164 
 3575000    0.6757862   -8.7211261    516.17843  0.012032131   0.01126658          166 
 3576000   0.67167719   -8.7277482    516.81475  0.012043595   0.01126218          166 
 3577000    0.6878411   -8.7270268    517.07674  0.012046332  0.011257782          161 
 3578000   0.67559152   -8.7693139    516.95335  0.012040091  0.011253385          176 
 3579000   0.67947632    -8.721674     517.5206  0.012049935  0.011248989          169 
 3580000   0.68192996   -8.7090196    517.58817  0.012048142  0.011244595          190 
 3581000   0.67203296   -8.7309679     517.4101  0.012040633  0.011240198          162 
 3582000   0.67770547   -8.7061999     518.1091  0.012053534  0.011235811          177 
 3583000   0.67604304   -8.7188764    517.29865   0.01203132  0.011231423          175 
 3584000   0.69139873   -8.7464546    515.78637  0.011992801  0.011227028          167 
 3585000   0.67874964   -8.7314741     518.0795  0.012042759  0.011222642          180 
 3586000   0.69534002     -8.74177    516.68684  0.012007038  0.011218255          198 
 3587000    0.6863909   -8.7046523    517.86527  0.012031068  0.011213871          161 
 3588000   0.65043665   -8.7324016    516.79087  0.012002761  0.011209486          189 
 3589000   0.66987533   -8.7581646    517.21104  0.012009172  0.011205091          179 
 3590000   0.67223096   -8.7462026    517.44423   0.01201124  0.011200702          213 
 3591000   0.68914672   -8.7387267    516.89488  0.011995147  0.011196307          190 
 3592000   0.66963896   -8.7076891    516.94764  0.011993032  0.011191924          173 
 3593000   0.67124795   -8.7364986    516.87358  0.011987976  0.011187541          188 
 3594000    0.6777903   -8.7602206    516.37454  0.011973069  0.011183159          183 
 3595000   0.67545913   -8.7397602    516.97068  0.011983558  0.011178779          184 
 3596000   0.68077061   -8.7132186    517.44569  0.011991233  0.011174406          186 
 3597000    0.6605427   -8.7640523    516.76161  0.011972051  0.011170029          187 
 3598000   0.67179537   -8.7606708    517.36785  0.011982765  0.011165659          166 
 3599000   0.67802852   -8.7316208    518.00002  0.011994073  0.011161297          170 
 3600000   0.67363996   -8.7433014    516.73062  0.011961357  0.011156933          190 
 3601000    0.6735051   -8.7383417    517.00132    0.0119643  0.011152567          150 
 3602000   0.66635704   -8.7586204    516.14256   0.01194111  0.011148204          164 
 3603000   0.69012415   -8.7371267    517.27322  0.011963947  0.011143848          176 
 3604000   0.68971183   -8.7447835    516.91374  0.011952316  0.011139492          161 
 3605000   0.65447213   -8.7287955    517.61012  0.011965098  0.011135139          164 
 3606000   0.65644184    -8.749063    517.40889  0.011957129  0.011130792          181 
 3607000   0.66767862   -8.7398624    517.24868  0.011950113  0.011126444          171 
 3608000   0.66708215   -8.7300029    517.86767  0.011961097  0.011122093          161 
 3609000   0.66427445   -8.7268816    517.02382  0.011938298  0.011117755          177 
 3610000    0.6803327    -8.718548    517.64994  0.011949445  0.011113418          175 
 3611000   0.66906259   -8.7241555    517.28855  0.011937795  0.011109074          172 
 3612000   0.68122192   -8.7623016      516.868  0.011924788  0.011104727          193 
 3613000   0.67697147     -8.74531    517.25494  0.011930412  0.011100378          194 
 3614000   0.66888061   -8.7307818    517.24259  0.011926826  0.011096035          183 
 3615000   0.66985636    -8.724374    516.89167  0.011915437  0.011091704          176 
 3616000   0.69419933   -8.7440924    515.88371  0.011888913  0.011087375          181 
 3617000   0.68351063   -8.7532576    516.86711  0.011908283  0.011083043          205 
 3618000   0.67766481   -8.7511123    515.42852  0.011871856  0.011078716          193 
 3619000   0.67670942   -8.7485202    517.29041  0.011911449  0.011074387          194 
 3620000   0.67625555   -8.7468275    516.76415  0.011896044  0.011070061          185 
 3621000   0.67607153    -8.748083     516.1894  0.011879531  0.011065723          197 
 3622000   0.66922934   -8.7405853    517.11509  0.011897549  0.011061392          199 
 3623000   0.67732194   -8.7569256    516.59346  0.011882267  0.011057059          183 
 3624000   0.67179172   -8.7434445     517.2259  0.011893531  0.011052725          179 
 3625000   0.66641501   -8.7460542      516.835  0.011881264  0.011048396          195 
 3626000   0.67329342   -8.7521765    516.99862  0.011881748  0.011044074          209 
 3627000   0.66041754   -8.7445887    517.01248  0.011878791  0.011039746          197 
 3628000   0.67049303   -8.7495439    516.09365  0.011854411  0.011035419          178 
 3629000   0.67043057    -8.751982    516.52551  0.011861062  0.011031101          187 
 3630000   0.66679346   -8.7749372    516.86376  0.011865559  0.011026786          208 
 3631000   0.66409147   -8.7307843    515.60867  0.011833486  0.011022475          206 
 3632000   0.67735974   -8.7318886    516.46129  0.011849791  0.011018162          197 
 3633000    0.6750223   -8.7519027    515.81611   0.01183173  0.011013851          194 
 3634000   0.66601942   -8.7422987    516.26013  0.011838656  0.011009534          191 
 3635000   0.66174908    -8.755813    515.59563  0.011820166  0.011005227          176 
 3636000    0.6675808   -8.7567693    516.49775  0.011837591  0.011000914          197 
 3637000   0.69132919   -8.7516443    516.73946  0.011839874  0.010996608          215 
 3638000   0.66022014   -8.7635232    516.36894  0.011828132  0.010992306          218 
 3639000   0.66200777   -8.7452442    516.62612  0.011830771     0.010988          212 
 3640000   0.67763046   -8.7497522    516.56534   0.01182613   0.01098369          201 
 3641000   0.66771942   -8.7549996    516.08691  0.011811931  0.010979386          209 
 3642000   0.67525039   -8.7685251    517.10718  0.011832033  0.010975082          195 
 3643000   0.67286444   -8.7613365    516.20868  0.011808232  0.010970786          229 
 3644000   0.67186502   -8.7511378    516.77006   0.01181783  0.010966485          222 
 3645000   0.65218792     -8.74643    515.97053  0.011796308   0.01096218          228 
 3646000   0.66994891   -8.7468325    515.41955   0.01178048   0.01095788          215 
 3647000   0.66274226   -8.7468506    515.71682  0.011784042  0.010953583          206 
 3648000   0.66890417   -8.7420975    515.99916  0.011787262  0.010949291          210 
 3649000   0.67126061    -8.766936    516.74098  0.011800972  0.010945002          216 
 3650000   0.65755851   -8.7574013    516.35145  0.011788846  0.010940718          190 
 3651000   0.66926943   -8.7434932    515.45402  0.011765133  0.010936434          201 
 3652000   0.66473751   -8.7611519    515.03369   0.01175232  0.010932144          237 
 3653000   0.67486496   -8.7843049    515.56821  0.011761297  0.010927857          239 
 3654000    0.6651839   -8.7685442     515.9421  0.011766605  0.010923575          228 
 3655000   0.66796768   -8.7811472    515.25052  0.011747618  0.010919291          223 
 3656000   0.67319298   -8.7652124     516.7432  0.011778428  0.010915011          202 
 3657000   0.67309567   -8.7667296    515.60066  0.011749172  0.010910736          210 
 3658000   0.66764529   -8.7805948    515.64425  0.011746953  0.010906456          227 
 3659000   0.67992865   -8.7630069    516.28788  0.011758401  0.010902178          208 
 3660000   0.67333081   -8.7818545    516.50253  0.011760076  0.010897905          213 
 3661000   0.66144919   -8.7318209    516.20235  0.011750031   0.01089363          196 
 3662000    0.6747931   -8.7738298    514.56082  0.011709467  0.010889361          205 
 3663000   0.67505237   -8.7740742    516.17967  0.011743099   0.01088509          214 
 3664000   0.67614907   -8.7662693    515.10914  0.011715546  0.010880823          205 
 3665000   0.65245261   -8.7719287    516.09212    0.0117347  0.010876557          217 
 3666000   0.68203121   -8.8021366    516.11718  0.011732069  0.010872298          216 
 3667000   0.64808041   -8.7771664    515.04772  0.011704566  0.010868037          232 
 3668000   0.66604336   -8.7766925    516.69727  0.011738851  0.010863777          234 
 3669000   0.66582691   -8.7888295    516.34011  0.011727539  0.010859512          204 
 3670000     0.672665    -8.781727    515.84996  0.011713214  0.010855258          217 
 3671000   0.67120533   -8.7915392    515.59211   0.01170417  0.010851004          243 
 3672000   0.66618273    -8.766967    516.04536  0.011711269  0.010846748          213 
 3673000    0.6576096   -8.7731053    516.54452  0.011719406  0.010842497          214 
 3674000   0.67180478   -8.7743076    515.86892  0.011700892  0.010838252          217 
 3675000   0.67492406   -8.7585511    515.65399  0.011692834  0.010834015          233 
 3676000   0.68492184   -8.7836113    516.58178  0.011710686  0.010829772          226 
 3677000    0.6582798   -8.7775526    515.78079  0.011689348  0.010825541          247 
 3678000   0.64866898   -8.7803703    516.23127  0.011696376  0.010821307          225 
 3679000   0.65350309   -8.7687215    515.87026   0.01168502  0.010817061          233 
 3680000   0.66848131   -8.7756798    515.41523  0.011671541  0.010812824          205 
 3681000   0.66479353   -8.7789656    515.55387  0.011671508  0.010808583          224 
 3682000   0.66123809   -8.7815659    516.59745  0.011691958  0.010804347          234 
 3683000   0.65637374   -8.7796398    516.08414  0.011677169  0.010800109          218 
 3684000   0.65703437   -8.7780314    515.37583  0.011657977  0.010795882          234 
 3685000   0.65732894   -8.7786293    515.91118  0.011666919  0.010791652          239 
 3686000   0.66668725   -8.7708481    516.36521  0.011674019  0.010787424          240 
 3687000   0.66604963   -8.7628499    515.99672  0.011662524  0.010783206          230 
 3688000   0.65272378   -8.7645422    515.90109  0.011657201  0.010778981          234 
 3689000   0.66669401   -8.7836602    515.38737  0.011642436  0.010774766          218 
 3690000   0.65966829   -8.7796413    515.09805  0.011632747  0.010770554          261 
 3691000   0.66162008   -8.7809458    515.26748  0.011633421  0.010766343          237 
 3692000   0.66526094   -8.7705545    515.93896  0.011645426  0.010762133          224 
 3693000    0.6848393    -8.780518     514.8278  0.011617199  0.010757927          235 
 3694000   0.66650979   -8.7792678    515.54015  0.011630124  0.010753723          230 
 3695000   0.66813365   -8.7715475    515.82932  0.011633498  0.010749519          237 
 3696000   0.66954651   -8.7534621    515.53812  0.011623785  0.010745315          229 
 3697000   0.66401763   -8.7785959    516.12706  0.011633916  0.010741112          217 
 3698000   0.65326245   -8.7630502    516.03289  0.011628648  0.010736911          235 
 3699000   0.65154401   -8.7754065    515.78891  0.011620008  0.010732712          208 
 3700000   0.65961747   -8.7860779    516.50279  0.011632946  0.010728519          232 
 3701000   0.65208227   -8.7921287     515.8044  0.011614077  0.010724322          234 
 3702000   0.65613794   -8.7556671    515.46579  0.011603318  0.010720137          216 
 3703000   0.65359796   -8.7679089    515.64592  0.011604238  0.010715955          227 
 3704000   0.64806069   -8.7887036    516.41099  0.011618318  0.010711773          236 
 3705000   0.66662941    -8.796672    516.39138  0.011614741  0.010707595          231 
 3706000   0.66189288   -8.7858812    515.47677  0.011591041  0.010703411          223 
 3707000   0.65465193   -8.7495791    515.66009  0.011592035  0.010699237          236 
 3708000   0.65652494   -8.7832499    516.08618  0.011598485  0.010695058          227 
 3709000    0.6590942   -8.7835602    515.89087   0.01159097  0.010690886          227 
 3710000   0.65462604   -8.7652601    517.00841  0.011612947  0.010686715          244 
 3711000   0.65648106   -8.7956513    516.06527  0.011588639  0.010682549          245 
 3712000   0.66167585   -8.7714486    515.90854  0.011581998  0.010678383          239 
 3713000   0.65820512   -8.7444317    515.37659   0.01156694  0.010674221          225 
 3714000   0.67229785   -8.7828208    515.74648  0.011572125   0.01067006          238 
 3715000   0.66381162    -8.771234    516.43501  0.011584455  0.010665898          243 
 3716000   0.66586106   -8.7721746    515.14821   0.01155248  0.010661736          262 
 3717000   0.64642026   -8.7983948    515.79871  0.011563956  0.010657573          238 
 3718000   0.67701873   -8.7983439    515.60918  0.011556598  0.010653415          244 
 3719000   0.65251269   -8.7834734    515.19253  0.011544155  0.010649256          231 
 3720000   0.64268248   -8.8013019    516.01924  0.011559571    0.0106451          239 
 3721000   0.66567769   -8.7871315    516.06508  0.011557491   0.01064094          250 
 3722000    0.6636173   -8.7768012    516.50248  0.011564179  0.010636787          250 
 3723000   0.66358724   -8.8122588    514.71204  0.011520996  0.010632635          243 
 3724000   0.65341422   -8.8045112    515.40015  0.011533301  0.010628481          234 
 3725000   0.66044241   -8.7855517    515.81183  0.011539414  0.010624328          237 
 3726000   0.64986913   -8.7959519    516.62887  0.011554591  0.010620187          234 
 3727000   0.64591654   -8.7821304    515.72599  0.011531303  0.010616042          277 
 3728000   0.66335773   -8.8020757    515.68201  0.011527227  0.010611898          259 
 3729000    0.6500803   -8.7927448    515.94088   0.01152992  0.010607754          254 
 3730000   0.65153683   -8.7926325     515.9386  0.011526778  0.010603611          268 
 3731000   0.65217375   -8.7778692    515.68194  0.011517956  0.010599467          299 
 3732000   0.64858432   -8.7915956    516.59404  0.011535237  0.010595333          278 
 3733000   0.65137098   -8.8022294    516.11792  0.011521518  0.010591194          276 
 3734000   0.66604705   -8.7718082    517.01838  0.011538528  0.010587068          277 
 3735000   0.63801767   -8.8055834    515.15702  0.011493909  0.010582942          267 
 3736000   0.65487947   -8.7760218     515.3138   0.01149433  0.010578818          283 
 3737000   0.65586214   -8.7818445    516.29934  0.011513231  0.010574698          287 
 3738000   0.66070706   -8.8026181    516.07923  0.011505244  0.010570576          291 
 3739000   0.66273257   -8.7912448    515.19754  0.011482516  0.010566454          304 
 3740000    0.6573405    -8.794985    514.23894  0.011458087   0.01056234          294 
 3741000   0.65085424   -8.8049869    515.58885  0.011485094  0.010558229          275 
 3742000   0.65546771   -8.8034328    515.51876  0.011480464  0.010554113          276 
 3743000   0.64922695   -8.7993877    515.56361  0.011478395  0.010549999          294 
 3744000   0.64240043   -8.8062272      515.789  0.011480346  0.010545882          292 
 3745000   0.63915055   -8.8089257    515.46588  0.011470091  0.010541766          298 
 3746000   0.65744042   -8.8016937     515.8189  0.011474882  0.010537648          295 
 3747000   0.64411748   -8.8090667    516.53282  0.011487697   0.01053354          325 
 3748000    0.6430684   -8.8023945    515.85233  0.011469502  0.010529431          287 
 3749000   0.66006301   -8.7996695    515.93985  0.011468388  0.010525329          299 
 3750000   0.65524647   -8.8085878     515.1788  0.011448418  0.010521223          281 
 3751000   0.66666479   -8.7866026    515.32614  0.011448639  0.010517119          285 
 3752000   0.65682334   -8.8088348    516.09049  0.011462564  0.010513016          280 
 3753000   0.65205321   -8.8243904    514.61639  0.011426778  0.010508915          296 
 3754000   0.64779069   -8.8111431     514.6062  0.011423508  0.010504819          292 
 3755000   0.65658861   -8.8055365    514.81578  0.011425117  0.010500722          278 
 3756000     0.666453   -8.8020924    514.22402  0.011408946  0.010496627          296 
 3757000   0.65109795   -8.8097256    514.78807   0.01141842  0.010492536          303 
 3758000   0.64652903   -8.7868526    515.66566  0.011434843  0.010488448          323 
 3759000    0.6499093   -8.8346451    514.77452  0.011412045  0.010484357          328 
 3760000    0.6446182   -8.7951062    516.23972  0.011441483  0.010480268          294 
 3761000     0.650727   -8.8163713    515.02949  0.011411626  0.010476184          323 
 3762000    0.6459653   -8.8149105    515.69823  0.011423406  0.010472097          313 
 3763000   0.63947184   -8.7966105    515.04558  0.011405917  0.010468016          299 
 3764000   0.65949453   -8.8122502    515.94419  0.011422781  0.010463933          313 
 3765000   0.65530794   -8.8334919    515.18131  0.011402862  0.010459847          319 
 3766000   0.65342287   -8.7992359     515.9024   0.01141579  0.010455778          335 
 3767000   0.64611247   -8.8029815    515.27417  0.011398862  0.010451708          322 
 3768000    0.6336949   -8.8008364    515.52258  0.011401331   0.01044764          308 
 3769000   0.65040015   -8.8219233    515.36142  0.011394743  0.010443573          301 
 3770000   0.63864574   -8.8077163    514.86189  0.011380678    0.0104395          312 
 3771000   0.65249347   -8.8157527    515.04834  0.011381781  0.010435436          316 
 3772000   0.65195195   -8.8236837    514.94601  0.011376502  0.010431373          304 
 3773000   0.65760046   -8.8152025    515.82661  0.011392937   0.01042731          313 
 3774000   0.63713893   -8.8062394    515.09471  0.011373757   0.01042325          311 
 3775000   0.64249965   -8.8038319     516.5136  0.011402066  0.010419189          323 
 3776000    0.6460101   -8.8241823    514.69291  0.011358865  0.010415124          310 
 3777000   0.66606012   -8.8053352    515.18919  0.011366808  0.010411064          309 
 3778000   0.63800803   -8.8220121    514.80957  0.011355425  0.010407009          302 
 3779000   0.64031164   -8.8165975    515.13846  0.011359673  0.010402944          317 
 3780000   0.64964073   -8.8296732    515.52043  0.011365089  0.010398881          321 
 3781000   0.65712854   -8.8305045    514.35021  0.011336291  0.010394818          327 
 3782000   0.64466504   -8.8234161    514.83751  0.011344031  0.010390762          306 
 3783000   0.65914738   -8.8177294    515.21308  0.011349306  0.010386712          319 
 3784000    0.6587416   -8.8150238    514.94246  0.011340347   0.01038266          317 
 3785000   0.63752482   -8.8174946    514.99133  0.011338426  0.010378613          323 
 3786000   0.64868039   -8.8099956    515.14164   0.01133874  0.010374565          323 
 3787000   0.65271059   -8.8571496    514.86386  0.011329633  0.010370521          319 
 3788000   0.64821224   -8.8171766    515.55769  0.011341906   0.01036648          295 
 3789000   0.64382806   -8.8319759    515.46716  0.011336922  0.010362444          289 
 3790000   0.64640538   -8.8094743    515.03038  0.011324327  0.010358402          301 
 3791000   0.65143717   -8.8151639    515.25066  0.011326182  0.010354366          285 
 3792000   0.65015061   -8.8199991    515.40587  0.011326606  0.010350331          306 
 3793000   0.63799802   -8.8262203     513.8437  0.011289298  0.010346297          326 
 3794000   0.65921366   -8.8215828    515.48153  0.011322297  0.010342268          316 
 3795000   0.65101185   -8.8432824    514.81512   0.01130468   0.01033824          321 
 3796000   0.65966862    -8.820627    515.65369  0.011320111  0.010334213          305 
 3797000   0.63402539   -8.7943447    516.04754  0.011325773   0.01033019          294 
 3798000   0.65372264   -8.8390912    515.07237  0.011301395  0.010326161          327 
 3799000    0.6521018   -8.8262661    514.90907  0.011294838   0.01032214          340 
 3800000   0.64868075   -8.8281592    513.39102  0.011258575  0.010318114          304 
 3801000   0.66036143   -8.8093834    514.13809  0.011271992  0.010314097          302 
 3802000   0.64186547   -8.8120584    514.62325  0.011279661  0.010310077          296 
 3803000   0.64469999   -8.8062201    514.52058  0.011274445  0.010306061          310 
 3804000   0.64666146   -8.8280273    514.83379  0.011278343  0.010302045          320 
 3805000   0.62850649    -8.839165    513.52347  0.011246681  0.010298028          316 
 3806000   0.62827809   -8.8094196    514.00502   0.01125427  0.010294015          309 
 3807000   0.63808308   -8.8450288    514.79852  0.011268683  0.010290009          337 
 3808000   0.63906275   -8.8100229    514.22052  0.011253075  0.010285999          327 
 3809000   0.64508555   -8.8049557    514.52583    0.0112568  0.010281991          346 
 3810000   0.65303701    -8.841002    515.26604  0.011270036  0.010277985          341 
 3811000   0.63383508   -8.8395547    514.45614  0.011249369  0.010273982          327 
 3812000   0.63625236   -8.8030563    514.10957  0.011238842  0.010269979          346 
 3813000   0.65559075   -8.8427297    515.51514  0.011266613  0.010265982          350 
 3814000   0.64201459   -8.8510397    513.67803  0.011223519  0.010261986          341 
 3815000   0.63531541   -8.8561718    514.32236  0.011234652  0.010257988          341 
 3816000   0.62824319   -8.8277718    514.74022  0.011240833  0.010253991          328 
 3817000   0.64600598   -8.8555909    514.13287  0.011224628  0.010249995          336 
 3818000   0.65489602   -8.8456898    513.94513  0.011217591     0.010246          341 
 3819000   0.63925921   -8.8405526    515.27333  0.011243636  0.010242015          333 
 3820000   0.64617493   -8.8189804    514.53481  0.011224581  0.010238034          348 
 3821000   0.64792501   -8.8280002    515.33825  0.011239166  0.010234057          359 
 3822000   0.63876678   -8.8059785    515.19772  0.011233162  0.010230078          348 
 3823000   0.64181918   -8.8365067    514.06027  0.011205429    0.0102261          344 
 3824000   0.63247355   -8.8285069    514.46251  0.011211265  0.010222124          359 
 3825000   0.64143331   -8.8209445    514.77198  0.011215076  0.010218152          360 
 3826000      0.63364    -8.833782    514.65104   0.01120951  0.010214176          361 
 3827000   0.63773625   -8.8205704    514.72622  0.011208218  0.010210208          356 
 3828000   0.63045102   -8.8214648    514.70824  0.011204899  0.010206253          330 
 3829000   0.64300385   -8.8522068    513.97475  0.011186009  0.010202289          336 
 3830000   0.64959218    -8.822811    515.78198   0.01122241  0.010198324          383 
 3831000   0.64912377   -8.8233783    514.82019   0.01119856  0.010194371          345 
 3832000   0.64961913   -8.8252588    515.95901  0.011220403  0.010190417          360 
 3833000   0.63556688   -8.8345932    514.34103  0.011182299  0.010186458          358 
 3834000    0.6430722   -8.8362992    515.05992  0.011195008  0.010182499          336 
 3835000   0.64319687   -8.8547366     514.0302  0.011169713  0.010178545          327 
 3836000   0.63753918   -8.8515081    514.41835  0.011175234  0.010174591          338 
 3837000   0.63888824   -8.8175417    514.79165  0.011180429  0.010170637          382 
 3838000   0.62322853   -8.8387916    514.79908  0.011177677   0.01016668          341 
 3839000   0.62680929   -8.8568845    515.12026  0.011181737  0.010162728          362 
 3840000    0.6323061   -8.8387098    515.31913  0.011183141  0.010158779          346 
 3841000   0.63035519   -8.8485372    514.72078  0.011167248  0.010154833          375 
 3842000    0.6488423    -8.827941    516.18108  0.011196015  0.010150897          357 
 3843000   0.64277419   -8.8152445     515.3173  0.011174371  0.010146963          346 
 3844000   0.64178351   -8.8211763    514.25597  0.011148456  0.010143026          349 
 3845000   0.63868126    -8.848881    513.87217  0.011137238  0.010139092          367 
 3846000   0.64445614   -8.8288524    514.28632  0.011143316  0.010135155          384 
 3847000   0.63722895   -8.8497467    514.10337  0.011136456  0.010131217          368 
 3848000   0.65046515    -8.822969    514.57852  0.011143852  0.010127281          364 
 3849000   0.63192888   -8.8278352    514.91988  0.011148348  0.010123354          339 
 3850000   0.62995044   -8.8301599    514.18873  0.011129626  0.010119429          371 
 3851000   0.64055954   -8.8565017    514.26932   0.01112848  0.010115498          372 
 3852000   0.63079846    -8.826908    515.01106  0.011141638  0.010111578          363 
 3853000   0.63288586   -8.8408394    514.84516  0.011135158  0.010107658          361 
 3854000   0.62598844   -8.8402245    513.91657   0.01111219  0.010103745          358 
 3855000   0.64887383   -8.8366105    514.52251  0.011122406  0.010099838          357 
 3856000   0.63270159   -8.8365003    515.48231  0.011140264  0.010095928          365 
 3857000     0.638336   -8.8345578    514.75945  0.011121758  0.010092025          367 
 3858000    0.6326005   -8.8486269    514.14864  0.011105682   0.01008812          345 
 3859000   0.64660023   -8.8336752    514.70029  0.011114716  0.010084216          367 
 3860000   0.63215395    -8.833895    513.87754  0.011094075   0.01008031          372 
 3861000   0.62008091   -8.8304381    514.05946  0.011095128  0.010076409          363 
 3862000   0.63801622   -8.8567564     514.8809   0.01110998  0.010072518          372 
 3863000   0.63597942   -8.8294488    515.38603     0.011118  0.010068622          362 
 3864000    0.6342444   -8.8583443    513.99421  0.011085106  0.010064727          387 
 3865000   0.63049439   -8.8329252    515.00416  0.011104014  0.010060837          355 
 3866000   0.63322675   -8.8434692    514.75291  0.011095726  0.010056941          375 
 3867000   0.63984544   -8.8392969    514.13966  0.011079641   0.01005305          381 
 3868000    0.6355595   -8.8370634    514.63911  0.011087537  0.010049155          377 
 3869000   0.62032043   -8.8518522    514.15995  0.011074351  0.010045264          363 
 3870000   0.64281263   -8.8563995    514.58243  0.011080586  0.010041376          380 
 3871000   0.64473932   -8.8366748    514.61186  0.011078357  0.010037493          390 
 3872000   0.63190088   -8.8346824    514.83541  0.011080308  0.010033611          388 
 3873000    0.6479973   -8.8535299    514.62767  0.011072977   0.01002973          415 
 3874000   0.62250444   -8.8504873    513.92076  0.011054912   0.01002585          371 
 3875000   0.63390601   -8.8362127    515.28181  0.011081329  0.010021976          424 
 3876000   0.65250345   -8.8360934    515.65653  0.011086527    0.0100181          402 
 3877000   0.63177565   -8.8526164    514.77615  0.011064744  0.010014224          416 
 3878000   0.63974675   -8.8148846    514.42002  0.011054238  0.010010352          400 
 3879000   0.61987902   -8.8487604    514.55998  0.011054395  0.010006481          388 
 3880000   0.63356414   -8.8308507    514.67397  0.011053994  0.010002613          388 
 3881000   0.62845227   -8.8221006    515.07061  0.011059663 0.0099987475          374 
 3882000   0.62644289   -8.8575756    514.64961  0.011047776 0.0099948864          347 
 3883000   0.63747973   -8.8591929    514.59839  0.011043832 0.0099910275          373 
 3884000   0.64061669   -8.8459924    514.77099  0.011044692 0.0099871649          383 
 3885000   0.63617542   -8.8631644    514.70638  0.011040463 0.0099833047          382 
 3886000   0.63665305    -8.851214    515.10442  0.011046158 0.0099794453          383 
 3887000    0.6287264   -8.8443426    515.10947  0.011043424 0.0099755812          413 
 3888000   0.62967427   -8.8703936    514.14266  0.011019862 0.0099717202          413 
 3889000   0.62042954   -8.8448299     514.2936  0.011020262 0.0099678667          422 
 3890000   0.62162702   -8.8537332    513.98761  0.011010874 0.0099640059          435 
 3891000   0.63276495   -8.8611989    514.61112  0.011021398 0.0099601577          439 
 3892000    0.6382639    -8.868312    515.38802  0.011035201 0.0099563056          470 
 3893000   0.63516555   -8.8485273    514.72523  0.011018179 0.0099524555          451 
 3894000   0.60924365   -8.8746895    513.40505  0.010987097 0.0099486047          465 
 3895000   0.61450911   -8.8695528    514.27763  0.011002945 0.0099447542          445 
 3896000   0.62987498   -8.8581606    515.15976  0.011018989 0.0099409069          473 
 3897000   0.62165718   -8.8401787    514.60028  0.011004197 0.0099370593          472 
 3898000   0.62271471   -8.8625576    513.92743   0.01098699 0.0099332125          480 
 3899000   0.62149311    -8.847101    513.47924  0.010974593 0.0099293621          463 
 3900000   0.62648556   -8.8634365    513.97226  0.010982313 0.0099255175          496 
 3901000   0.61959116   -8.8577537    513.80413  0.010975906  0.009921673          471 
 3902000     0.625531   -8.8460115     514.0459  0.010978257 0.0099178319          489 
 3903000   0.62091392   -8.8930608    514.48901  0.010984905 0.0099139903          504 
 3904000   0.62414175    -8.870146    514.31397  0.010978355 0.0099101489          485 
 3905000   0.59100162   -8.8724516    514.72124  0.010984235 0.0099063178          506 
 3906000   0.60980901   -8.8807159     514.1487  0.010969208 0.0099024786          474 
 3907000   0.64013409   -8.8729895    513.20475  0.010946266 0.0098986447          470 
 3908000   0.61537236   -8.8737739     513.4661  0.010949038  0.009894816          456 
 3909000   0.61719813   -8.8658113    514.86591  0.010976079 0.0098909881          462 
 3910000   0.62832329   -8.8812021    514.49376   0.01096534 0.0098871674          482 
 3911000   0.62842795   -8.8876551    514.05328  0.010953151 0.0098833407          495 
 3912000   0.62124405   -8.8668717     514.0826  0.010950976 0.0098795177          508 
 3913000   0.62499909   -8.8804417    513.73887  0.010940857  0.009875696          499 
 3914000   0.62884885   -8.8878714    514.87388  0.010962227 0.0098718746          487 
 3915000   0.62508202   -8.8870018    513.40303  0.010928119  0.009868054          512 
 3916000   0.62844193   -8.8774832    513.48059  0.010926979 0.0098642269          501 
 3917000   0.61437043   -8.8728363    514.43989  0.010944598 0.0098604059          511 
 3918000   0.61632508   -8.8926144    512.83086  0.010907582 0.0098565855          515 
 3919000   0.62283427    -8.885611    514.39214  0.010937997 0.0098527709          502 
 3920000   0.61608405   -8.8819519    513.84522   0.01092358 0.0098489534          520 
 3921000   0.62002929    -8.898641    513.96106  0.010923256  0.009845143          527 
 3922000   0.63358156   -8.8960641    514.47764  0.010931447 0.0098413302          561 
 3923000   0.62836364   -8.8861514    513.93647  0.010917165 0.0098375201          517 
 3924000   0.63366551   -8.8825864    512.76437  0.010889491 0.0098337067          551 
 3925000   0.62815458   -8.9005291      513.067  0.010893142 0.0098298961          518 
 3926000   0.62172629   -8.8757637    513.23218  0.010893874 0.0098260879          504 
 3927000   0.62389514    -8.887877    513.51724  0.010897149 0.0098222855          509 
 3928000    0.6224999   -8.8845119    513.35859  0.010891009 0.0098184914          508 
 3929000   0.61372867   -8.8793203    514.17775  0.010905611 0.0098146947          521 
 3930000   0.62008696    -8.877512    513.06385  0.010879217 0.0098108966          510 
 3931000   0.63275692   -8.8786581    513.95274  0.010895293 0.0098070988          529 
 3932000   0.63184284   -8.8670548    513.01584  0.010872665 0.0098032988          502 
 3933000   0.61175534   -8.8997387    512.85522  0.010866498 0.0097995028          525 
 3934000   0.61686017   -8.8943305    513.07122  0.010868311 0.0097957098          531 
 3935000   0.63722546   -8.8809974    513.85978  0.010882249 0.0097919207          488 
 3936000   0.62166695    -8.894849    513.44835  0.010870773 0.0097881304          522 
 3937000   0.63696657   -8.9049987    512.34918  0.010844746 0.0097843398          530 
 3938000   0.62371523   -8.9036671    512.84674  0.010852521 0.0097805474          497 
 3939000   0.61690519   -8.9176809    513.27963  0.010858924 0.0097767595          520 
 3940000   0.62847863   -8.9026153    514.22692  0.010876204 0.0097729757          533 
 3941000   0.62224726   -8.9021264    513.17718  0.010851247 0.0097691944          503 
 3942000   0.61334587   -8.9011081    512.55379  0.010835316 0.0097654133          515 
 3943000   0.61699264   -8.8892221     513.6336  0.010855389 0.0097616419          506 
 3944000   0.60847185   -8.8993519    513.84586  0.010857122  0.009757863          496 
 3945000   0.62985235   -8.8819524    513.54707  0.010848058 0.0097540887          517 
 3946000   0.62503589   -8.9054595    513.36675  0.010841501 0.0097503187          517 
 3947000   0.62501163   -8.9200994    513.25482  0.010836391 0.0097465471          532 
 3948000   0.62592787   -8.8762445    513.85424  0.010846299 0.0097427779          500 
 3949000   0.61838562   -8.9034507    512.84018  0.010822153 0.0097390154          534 
 3950000    0.6210672   -8.8878882    514.28337   0.01084986 0.0097352526          520 
 3951000   0.62445227   -8.9034689    513.03645  0.010820814   0.00973149          547 
 3952000   0.60689223   -8.8996657    512.66711  0.010810288  0.009727726          550 
 3953000   0.61330481   -8.8900693    513.66936  0.010828682 0.0097239675          540 
 3954000   0.61682376   -8.8983588    514.19412  0.010837003 0.0097202139          529 
 3955000   0.62752549   -8.8913767    513.04178  0.010809983  0.009716461          561 
 3956000   0.61426884   -8.9084321    512.61751  0.010798313 0.0097127076          506 
 3957000   0.62216291    -8.912703    513.12133  0.010806194 0.0097089595          534 
 3958000   0.62635409   -8.9105412    513.28381  0.010806885 0.0097052085          517 
 3959000   0.61510825     -8.89277    513.71852  0.010813306 0.0097014608          508 
 3960000   0.61438078    -8.872298     513.9359  0.010815149  0.009697716          517 
 3961000   0.61763308    -8.911105    512.54439  0.010783144 0.0096939692          544 
 3962000   0.61335427   -8.9107518    512.82168  0.010786254 0.0096902259          505 
 3963000    0.6305559    -8.882566    513.48557  0.010797493 0.0096864819          499 
 3964000   0.62483257   -8.9257818    513.46051  0.010794242 0.0096827379          505 
 3965000   0.63428575   -8.8784642    512.43416  0.010769949 0.0096790013          531 
 3966000   0.61705047   -8.8851379    513.87395  0.010797486 0.0096752546          533 
 3967000   0.61961711   -8.8979125    512.92426  0.010774814 0.0096715149          550 
 3968000   0.63282406   -8.9197703    513.33347  0.010780693 0.0096677767          530 
 3969000   0.63300809   -8.9052372     513.7344  0.010786395  0.009664038          546 
 3970000   0.61734309   -8.8911624    513.57019  0.010780231 0.0096603083          542 
 3971000   0.61309403   -8.9143917    513.43628  0.010774706 0.0096565735          527 
 3972000   0.61030132   -8.9174385    513.90577  0.010781843 0.0096528455          540 
 3973000     0.616109   -8.9258933    512.68536  0.010753531 0.0096491147          518 
 3974000   0.61227915   -8.9011118    513.78495  0.010773883 0.0096453862          551 
 3975000    0.6178885   -8.9017219    513.39759  0.010763052 0.0096416614          564 
 3976000   0.61628518   -8.9111285    512.86314  0.010749144 0.0096379322          543 
 3977000   0.60799202   -8.9150795    512.89752  0.010747161 0.0096342093          523 
 3978000   0.61706096   -8.9164489    512.69736  0.010740266 0.0096304829          558 
 3979000   0.60987867   -8.8997838    512.62094  0.010735967 0.0096267588          560 
 3980000   0.61067356   -8.9131362    514.59341  0.010774569 0.0096230402          541 
 3981000   0.62664409    -8.910581    513.27528   0.01074427   0.00961932          557 
 3982000   0.62087522   -8.9158158    512.32249  0.010721633 0.0096156031          550 
 3983000   0.60987622   -8.9176349    512.82201  0.010729392 0.0096118926          536 
 3984000   0.61681565   -8.9178231     512.8558  0.010727405 0.0096081791          533 
 3985000   0.61794872   -8.9159172    512.20928  0.010711194  0.009604468          565 
 3986000   0.61579183   -8.9278575    513.54469  0.010736425 0.0096007574          553 
 3987000    0.6283191    -8.909148    512.92857  0.010720855 0.0095970539          546 
 3988000   0.62384392   -8.9240633     512.2217  0.010703396 0.0095933464          538 
 3989000   0.61523349   -8.9200128    512.30292  0.010702409  0.009589646          521 
 3990000    0.6026513   -8.8995101    512.82685  0.010710669 0.0095859417          522 
 3991000    0.6252409   -8.9025903    513.63602  0.010724881 0.0095822449          538 
 3992000   0.61006079   -8.9044596    512.81077  0.010704968 0.0095785475          530 
 3993000   0.61183351   -8.9021333    514.33642  0.010734127 0.0095748483          574 
 3994000   0.60197294   -8.9033975    513.76179   0.01071945 0.0095711554          557 
 3995000   0.61848002   -8.9146263    512.87439  0.010698256 0.0095674604          526 
 3996000   0.59887433   -8.9261463    512.48439  0.010687446  0.009563768          509 
 3997000    0.6195633   -8.9221755    511.84676  0.010671478 0.0095600729          525 
 3998000     0.609437   -8.9240213    512.69988  0.010686591 0.0095563824          534 
 3999000   0.61444647   -8.9122843    512.73353   0.01068462 0.0095526956          562 
 4000000   0.63280069   -8.9205134    512.94668  0.010686389 0.0095490093          531 
 4001000   0.61485779   -8.9287876    513.13174  0.010687573 0.0095453273          566 
 4002000   0.61192228   -8.9318907     512.8694  0.010679439  0.009541644          537 
 4003000   0.61275928   -8.9217238     512.8749  0.010676886 0.0095379568          552 
 4004000   0.61437506   -8.9107948    512.87592  0.010674241 0.0095342754          537 
 4005000   0.60652833   -8.9174769    513.19734  0.010678263 0.0095305967          541 
 4006000   0.60795203   -8.9258098    513.04018  0.010672329 0.0095269221          546 
 4007000   0.61224036   -8.9388548    512.78076   0.01066427 0.0095232458          552 
 4008000   0.60011007   -8.9115015    512.10749  0.010647611 0.0095195747          560 
 4009000   0.60463842   -8.9132192    513.14776  0.010666579 0.0095159053          537 
 4010000   0.60445604   -8.9249962     512.9826  0.010660486 0.0095122359          533 
 4011000    0.6017869   -8.9222569    513.30796  0.010664588 0.0095085689          560 
 4012000   0.61196135   -8.9213309    513.04912  0.010656554 0.0095049104          531 
 4013000   0.61170891   -8.9128681    512.95912  0.010652029 0.0095012472          532 
 4014000   0.61588685   -8.9106502    513.22245  0.010654842 0.0094975871          551 
 4015000   0.62768267   -8.9228922    513.70098  0.010662121 0.0094939278          527 
 4016000   0.61298814   -8.9115324    512.50317  0.010634611 0.0094902718          519 
 4017000   0.61583946   -8.9349586    513.02318  0.010642751  0.009486616          559 
 4018000   0.60836464   -8.9317151    511.10904  0.010600403 0.0094829596          539 
 4019000   0.60455498   -8.9055677    513.51688  0.010647692 0.0094793067          538 
 4020000   0.60318738   -8.9468532    512.90907  0.010632443 0.0094756542          548 
 4021000   0.61775502   -8.9415039     512.6867  0.010625191 0.0094720072          534 
 4022000   0.60635015   -8.9274299    512.71881  0.010623214 0.0094683567          561 
 4023000   0.60522064   -8.9117813     512.8546  0.010623386 0.0094647115          539 
 4024000   0.60545354   -8.9292018    512.71484  0.010617852 0.0094610689          564 
 4025000   0.60997552   -8.9265818    513.18116  0.010624869 0.0094574227          570 
 4026000   0.62427764   -8.9347372    512.78487  0.010614027 0.0094537829          548 
 4027000   0.60246529   -8.9442097    513.09552   0.01061782 0.0094501427          534 
 4028000   0.60129647   -8.9168146    512.40594  0.010600917 0.0094465064          552 
 4029000   0.59457924   -8.9380307    511.48319  0.010579201 0.0094428638          532 
 4030000   0.61094704    -8.919408    513.63255  0.010621021 0.0094392291          543 
 4031000   0.59693139   -8.9262435    513.10801  0.010607542 0.0094356024          555 
 4032000    0.6084815    -8.917386    513.59751  0.010615028 0.0094319744          559 
 4033000   0.61103014   -8.9201825    513.11195  0.010602363 0.0094283483          524 
 4034000   0.63046253   -8.9369023    512.78289  0.010592937 0.0094247212          542 
 4035000   0.60890756   -8.9101124    513.29471  0.010600882  0.009421097          536 
 4036000   0.60730553   -8.9102599    512.42535  0.010580305 0.0094174739          509 
 4037000    0.5973516   -8.9083795    512.63001  0.010581909 0.0094138463          543 
 4038000   0.60748821   -8.9352059    513.14219  0.010589859 0.0094102196          545 
 4039000    0.5955523   -8.9298684    511.67389  0.010556943 0.0094065954          545 
 4040000   0.61032959   -8.9274683    513.05955  0.010582911 0.0094029771          533 
 4041000   0.61227747   -8.9227212    512.59925    0.0105708 0.0093993587          532 
 4042000   0.60506932   -8.9494446    512.85026   0.01057336 0.0093957438          549 
 4043000   0.61268508   -8.9424642     512.2651  0.010558684 0.0093921286          530 
 4044000   0.59832397   -8.9152877    512.47175  0.010560331 0.0093885202          538 
 4045000    0.5984535   -8.9262989    513.22093  0.010573155 0.0093849106          536 
 4046000   0.60260635   -8.9232051    512.17484  0.010548996 0.0093813039          563 
 4047000   0.59838244   -8.9098984    513.39594  0.010571533 0.0093777027          561 
 4048000   0.58324447   -8.9303912    513.37535  0.010568498 0.0093741027          536 
 4049000   0.61403838   -8.9334046    513.19376   0.01056215 0.0093705056          528 
 4050000   0.60449026   -8.9269194    512.30123  0.010541178  0.009366909          540 
 4051000   0.60726825   -8.9225889    512.72386  0.010547269 0.0093633122          535 
 4052000   0.61028748   -8.9267042    511.88396  0.010527393 0.0093597152          527 
 4053000   0.59027385   -8.9353747    512.89094    0.0105455 0.0093561276          529 
 4054000   0.60142263   -8.9356587    513.30165  0.010551341 0.0093525359          546 
 4055000   0.61086044   -8.9310702    513.62157  0.010555314 0.0093489424          543 
 4056000   0.60586786   -8.9258157    512.48623  0.010529385 0.0093453542          549 
 4057000   0.60785006   -8.9234964    513.01202   0.01053759 0.0093417684          538 
 4058000   0.61174228   -8.9299313    513.32105  0.010541339 0.0093381848          527 
 4059000   0.60680995   -8.9462219    512.29073  0.010517589 0.0093346054          527 
 4060000     0.608728   -8.9251711    512.48931  0.010519075 0.0093310223          521 
 4061000   0.59518683    -8.912971    512.94963   0.01052593 0.0093274404          561 
 4062000    0.6048522   -8.9223856    512.64658  0.010517122 0.0093238666          542 
 4063000   0.59873286   -8.8997261    512.65779  0.010514763 0.0093202933          526 
 4064000   0.59799043   -8.9289444     513.0182  0.010519566 0.0093167199          510 
 4065000   0.60027176   -8.9251451    512.48402  0.010506027 0.0093131491          518 
 4066000    0.5861395   -8.9303956    512.28763  0.010499419 0.0093095791          511 
 4067000   0.61585026   -8.9245528    513.44145  0.010520479 0.0093060171          516 
 4068000   0.61584129   -8.9190793    512.99443  0.010508736 0.0093024535          528 
 4069000   0.59941875   -8.9535015    513.91919  0.010525092 0.0092988946          507 
 4070000   0.60215322    -8.929308    512.19534   0.01048721  0.009295338          511 
 4071000   0.60841914   -8.9430903    513.30841  0.010507419 0.0092917781          529 
 4072000   0.60655966   -8.9483951    512.15303  0.010481193 0.0092882219          546 
 4073000   0.59964704   -8.9457881    511.82472  0.010471903 0.0092846679          529 
 4074000   0.60428358   -8.9399686    513.36185  0.010500774 0.0092811146          557 
 4075000   0.60724258   -8.9351913    512.12632  0.010472931 0.0092775614          569 
 4076000   0.60547007   -8.9480114    511.63844  0.010460387 0.0092740082          561 
 4077000   0.59838619   -8.9381521    513.80951  0.010502198 0.0092704564          537 
 4078000   0.60683715   -8.9313191    511.69768  0.010456467 0.0092669055          521 
 4079000   0.58838956   -8.9294578    511.43323  0.010448501 0.0092633567          522 
 4080000   0.60194675   -8.9428304    512.48118  0.010467344 0.0092598082          533 
 4081000    0.6076492   -8.9390796    512.56903  0.010466573 0.0092562638          534 
 4082000   0.59182296    -8.936606    512.14508  0.010455354 0.0092527242          519 
 4083000   0.59149328   -8.9474192    513.28512  0.010476062 0.0092491856          548 
 4084000   0.59121081   -8.9324782    512.70143  0.010461586 0.0092456491          541 
 4085000   0.59202203   -8.9333237    512.19792  0.010448754 0.0092421131          534 
 4086000   0.60685275   -8.9181534    513.27292  0.010468121 0.0092385781          559 
 4087000   0.58878579   -8.9318607    511.81376  0.010435808 0.0092350454          547 
 4088000   0.59618558   -8.9384967     512.4337  0.010445892 0.0092315129          561 
 4089000   0.59294748   -8.9350914    511.52138  0.010424745 0.0092279803          527 
 4090000   0.58432103    -8.940811    512.21036  0.010436234 0.0092244502          579 
 4091000   0.58915746     -8.92067    512.40595  0.010437667  0.009220923          574 
 4092000   0.59579136   -8.9237986    513.55178  0.010458451 0.0092173972          573 
 4093000   0.57893488   -8.9252446    512.86258  0.010441864 0.0092138713          578 
 4094000   0.58221128   -8.9427101     512.9688  0.010441475 0.0092103463          564 
 4095000   0.59484332   -8.9272174    513.22451  0.010444129 0.0092068255          567 
 4096000   0.59065046   -8.9425426    513.17004  0.010440471 0.0092033093          563 
 4097000   0.60083496   -8.9515573    511.32248  0.010400343 0.0091997897          566 
 4098000    0.6103948   -8.9352711    512.64474  0.010424694 0.0091962734          553 
 4099000   0.59089583   -8.9372434    512.59421  0.010421123  0.009192757          582 
 4100000   0.58833733   -8.9410759     512.8274  0.010423321 0.0091892382          558 
 4101000   0.59072378   -8.9379575    512.76851  0.010419583 0.0091857247          583 
 4102000   0.60001295   -8.9404163    511.79605  0.010397287 0.0091822105          574 
 4103000   0.59162538   -8.9588523    512.40878  0.010407198 0.0091787007          591 
 4104000   0.60650437   -8.9476245    512.55502  0.010407631 0.0091751906          558 
 4105000   0.59975804   -8.9701405    512.13789  0.010396628 0.0091716832          567 
 4106000   0.58753286   -8.9568496    512.57486  0.010402964 0.0091681749          547 
 4107000   0.58848258   -8.9546887    512.31905  0.010395241 0.0091646687          537 
 4108000   0.60547938   -8.9595758    512.07728  0.010387806 0.0091611694          554 
 4109000   0.59416708   -8.9450529    512.76041  0.010399132 0.0091576622          583 
 4110000   0.59939459   -8.9590213    512.36646  0.010388614 0.0091541607          548 
 4111000   0.59659233   -8.9513105    512.36803  0.010386119 0.0091506626          572 
 4112000   0.60245202   -8.9500622    512.18872  0.010379959 0.0091471639          572 
 4113000   0.57744427   -8.9451084    512.31966  0.010380089 0.0091436678          553 
 4114000    0.5925574   -8.9548823    511.64669  0.010363934 0.0091401728          552 
 4115000   0.59011425   -8.9510446    511.84772  0.010365486 0.0091366849          569 
 4116000   0.59813292   -8.9517116    512.52205  0.010376621 0.0091331967          598 
 4117000   0.59715831   -8.9488797    511.44943  0.010352389 0.0091297053          537 
 4118000   0.60277408   -8.9432738    512.00091  0.010361035 0.0091262181          562 
 4119000   0.59427956   -8.9575181    511.05547  0.010339392 0.0091227271          562 
 4120000   0.59853098   -8.9670955    512.63234  0.010368777 0.0091192381          537 
 4121000    0.5954877    -8.937503    511.59009  0.010345185 0.0091157568          572 
 4122000   0.59156153   -8.9602973     512.0713  0.010352404 0.0091122754          570 
 4123000   0.58276241   -8.9784588    512.29842  0.010354483 0.0091087925          577 
 4124000   0.57796136   -8.9500464    513.22744  0.010370745  0.009105312          559 
 4125000   0.59662758    -8.950913    511.53545  0.010334049 0.0091018317          562 
 4126000   0.60579601   -8.9470811    511.72144  0.010335301 0.0090983559          565 
 4127000    0.5807727   -8.9607393    512.69095  0.010352374 0.0090948814          568 
 4128000   0.59218197   -8.9392517    511.83281  0.010332542 0.0090914103          567 
 4129000   0.58984943    -8.958553    512.39256  0.010341337 0.0090879395          567 
 4130000   0.60540049   -8.9797657    512.03622  0.010331643 0.0090844713          586 
 4131000   0.58418043   -8.9636055    512.89556  0.010346477  0.009081001          577 
 4132000   0.59464003    -8.962472    511.69357  0.010319732 0.0090775324          566 
 4133000   0.59659907   -8.9525257    512.13652  0.010326166 0.0090740691          570 
 4134000   0.59827107   -8.9770153    512.22631  0.010325478 0.0090706015          572 
 4135000   0.58093859   -8.9824762    510.78189  0.010293871 0.0090671354          554 
 4136000   0.59003008   -8.9661367    511.22719  0.010300354 0.0090636652          571 
 4137000    0.5958197   -8.9856731    512.19049  0.010317269 0.0090602022          569 
 4138000   0.59461335   -8.9913144    511.44552  0.010299773 0.0090567402          579 
 4139000   0.59987084   -8.9715269     512.1082  0.010310626 0.0090532782          573 
 4140000   0.59279894   -8.9753461    512.04996  0.010306964 0.0090498156          586 
 4141000    0.5795008   -8.9633676    512.02708  0.010304014 0.0090463574          564 
 4142000   0.58914431   -8.9727128    511.60977  0.010293131 0.0090428984          567 
 4143000   0.58247317   -8.9782845    511.11181   0.01028063  0.009039443          559 
 4144000   0.57824905    -8.953156    511.93243  0.010294651 0.0090359879          539 
 4145000   0.59451464   -8.9596034    512.07613  0.010295057  0.009032538          566 
 4146000    0.5810574    -8.969298    511.70935  0.010285202  0.009029089          580 
 4147000   0.57529101   -8.9537411    511.69009  0.010282334 0.0090256382          581 
 4148000   0.59650729   -8.9747425    511.37423   0.01027351 0.0090221912          579 
 4149000   0.59222887   -8.9882982    511.19507  0.010267435 0.0090187447          558 
 4150000   0.58971063   -8.9742325    511.81202   0.01027735 0.0090152958          550 
 4151000   0.58172072   -8.9812976    511.48022  0.010268213 0.0090118495          582 
 4152000   0.59702304   -8.9351259    511.91055  0.010274377 0.0090084052          537 
 4153000   0.61012023   -8.9654383    512.10701  0.010275845 0.0090049691          580 
 4154000    0.5869096   -8.9838238     510.3471  0.010238066 0.0090015335          568 
 4155000   0.59305317   -8.9799861     512.0774  0.010270305 0.0089980951          550 
 4156000   0.59336234   -8.9827645    511.11521   0.01024854 0.0089946569          560 
 4157000   0.57008879   -8.9617176    511.88839  0.010261575 0.0089912254          541 
 4158000   0.58226588   -8.9977064    510.87234  0.010238743 0.0089877877          560 
 4159000   0.59019406   -8.9751309    512.34299  0.010265749 0.0089843552          570 
 4160000   0.58863597    -8.995898    511.79695  0.010252343 0.0089809236          568 
 4161000   0.58032526   -8.9734726    511.96714  0.010253287 0.0089774902          550 
 4162000   0.60236847   -8.9711169    511.90488  0.010249577 0.0089740625          539 
 4163000   0.58082105   -8.9603251    511.45005   0.01023801 0.0089706377          552 
 4164000   0.58133928    -8.998395    511.82846  0.010243125 0.0089672142          531 
 4165000   0.58245887   -8.9968061    510.58269   0.01021574 0.0089637893          562 
 4166000   0.57715218   -8.9874922    510.72174  0.010216069 0.0089603703          580 
 4167000   0.59912447   -8.9899202    511.49705  0.010229123 0.0089569477          569 
 4168000   0.58487479   -8.9886028    511.96928   0.01023611 0.0089535302          562 
 4169000   0.57360317   -8.9946731    510.75823  0.010209447 0.0089501112          560 
 4170000   0.58187734   -8.9544632    512.10641  0.010233941 0.0089466947          568 
 4171000   0.58193394   -9.0019401     512.2849  0.010235054 0.0089432784          557 
 4172000   0.57847371   -8.9854852    511.24401  0.010211809 0.0089398603          552 
 4173000   0.58640388   -8.9906093    510.98883  0.010204266  0.008936445          571 
 4174000    0.5846499   -8.9898772    512.06114   0.01022323 0.0089330346          569 
 4175000   0.57624828   -8.9798192    511.16489  0.010202892 0.0089296268          557 
 4176000   0.58461574   -8.9816686    511.48342  0.010206805 0.0089262201          583 
 4177000   0.58730274   -8.9698854    510.86797  0.010192083 0.0089228136          559 
 4178000    0.5781227   -8.9914635    510.95681  0.010191415 0.0089194111          583 
 4179000   0.58259485   -9.0007012     511.0256  0.010190349 0.0089160083          524 
 4180000   0.58661686   -8.9932218    511.30736  0.010193528 0.0089126065          544 
 4181000    0.5880844   -8.9927395    511.82475  0.010201402 0.0089092063          561 
 4182000   0.56791649   -8.9851608    511.61096  0.010194703 0.0089058078          576 
 4183000   0.57857624   -8.9934561    511.13988  0.010182881 0.0089024101          566 
 4184000   0.59243951   -8.9744289    510.97318  0.010177127 0.0088990149          557 
 4185000   0.58504826   -8.9969164    512.01467  0.010195433 0.0088956242          563 
 4186000   0.58570919   -8.9789763    511.84659  0.010189652  0.008892238          550 
 4187000    0.5848252   -8.9985814    511.92686  0.010188816 0.0088888505          546 
 4188000    0.5770592    -8.987151    511.78401  0.010183541 0.0088854601          565 
 4189000   0.59095428   -8.9868901     511.0367  0.010166243 0.0088820734          543 
 4190000   0.58992362   -8.9712708    511.63896  0.010175795 0.0088786905          565 
 4191000   0.58098698   -9.0078995    510.95964  0.010159859 0.0088753068          541 
 4192000   0.58666755     -9.00243    511.12181  0.010160659 0.0088719236          544 
 4193000   0.57814135   -8.9939693    511.17445  0.010159282 0.0088685449          541 
 4194000   0.58644707   -8.9908376    510.45574  0.010142579 0.0088651696          587 
 4195000   0.57905932   -8.9865396    511.36894  0.010158302  0.008861794          570 
 4196000   0.58210923    -8.981116    511.22587   0.01015304 0.0088584233          578 
 4197000   0.57708149   -8.9745438    511.90467  0.010164099 0.0088550537          586 
 4198000   0.58051607   -8.9901481    510.98088   0.01014334 0.0088516879          573 
 4199000   0.58394157   -8.9946075    511.65212  0.010154245 0.0088483252          576 
 4200000   0.58449496   -8.9940281    510.69598  0.010132857 0.0088449577          574 
 4201000   0.57949178   -9.0043766    511.39792  0.010144369  0.008841594          570 
 4202000   0.58481977   -8.9957414    510.41718  0.010122505 0.0088382265          573 
 4203000   0.57608004   -8.9850227    510.67946  0.010125297 0.0088348708          563 
 4204000   0.58315343   -8.9974638    511.22555  0.010133713 0.0088315106          569 
 4205000   0.58118784   -8.9850279    511.09012  0.010128619 0.0088281553          568 
 4206000   0.57355525   -8.9801075    511.26654  0.010129706 0.0088248042          599 
 4207000   0.57038017    -8.982027    510.88953  0.010119831  0.008821452          579 
 4208000   0.57878158   -8.9987937    511.81866  0.010135826 0.0088181051          559 
 4209000   0.56356597   -8.9838294    510.61494  0.010109585 0.0088147555          586 
 4210000   0.58802968   -8.9962222    510.41415   0.01010321 0.0088114089          563 
 4211000     0.583415   -8.9977041    511.29565  0.010118255 0.0088080609          559 
 4212000   0.58020805   -8.9787704    510.48754  0.010099864 0.0088047127          543 
 4213000     0.563335   -9.0035733    510.80778  0.010103801 0.0088013664          572 
 4214000   0.57854339   -8.9997475    511.76865  0.010120405 0.0087980235          558 
 4215000   0.57218127   -9.0083451    511.15114  0.010105796 0.0087946822          568 
 4216000   0.56660134   -8.9973953    511.07396  0.010101873 0.0087913425          570 
 4217000   0.58657574   -8.9821916    511.51129   0.01010812 0.0087880067          571 
 4218000   0.57993747   -8.9779602    511.64002  0.010108267 0.0087846724          581 
 4219000   0.57267377   -8.9829549     511.7283  0.010107614 0.0087813435          612 
 4220000   0.58782577   -8.9794993    511.19821  0.010094751 0.0087780089          578 
 4221000   0.56177198   -9.0209456    511.27019  0.010093781 0.0087746782          570 
 4222000   0.56470724   -8.9990095    510.24433  0.010071142 0.0087713484          591 
 4223000   0.57976625   -8.9810947    511.08658  0.010085377 0.0087680186          587 
 4224000   0.56934623   -9.0124649    511.21993   0.01008562  0.008764691          557 
 4225000   0.57405011   -9.0120734    511.08019  0.010080477  0.008761363          566 
 4226000    0.5691356   -9.0153883    510.39725  0.010064625 0.0087580385          562 
 4227000   0.57950154   -9.0136957    510.10231  0.010056429 0.0087547148          569 
 4228000   0.57615071   -8.9937298    510.89049  0.010069585 0.0087513952          585 
 4229000   0.57433554   -9.0019043    510.78505  0.010065127 0.0087480734          567 
 4230000   0.57930606   -8.9944316    510.71351  0.010061338 0.0087447523          575 
 4231000   0.58208099    -9.009991    509.92536  0.010043437 0.0087414316          584 
 4232000   0.57428458   -8.9962178    510.74698  0.010057242 0.0087381162          546 
 4233000   0.58367927   -9.0112511    511.04732  0.010060779 0.0087348033          615 
 4234000   0.56654623   -9.0104564    510.89452  0.010055395 0.0087314885          574 
 4235000   0.57107917   -9.0016306     510.7617  0.010050407 0.0087281756          574 
 4236000   0.58199427   -8.9911932    511.11558  0.010054996 0.0087248662          570 
 4237000   0.57977887   -8.9940297    510.68655  0.010044185  0.008721559          557 
 4238000   0.58058584   -9.0156385    510.48624  0.010037876 0.0087182539          573 
 4239000   0.57572197    -9.006231    510.39604  0.010033735 0.0087149488          555 
 4240000    0.5702109   -8.9718557    511.34046   0.01004993 0.0087116488          563 
 4241000   0.59268364   -8.9923665    510.22841   0.01002571 0.0087083486          542 
 4242000   0.58171207   -9.0126278    510.01639  0.010019181 0.0087050481          562 
 4243000   0.57780746   -9.0010484    511.20443  0.010040153 0.0087017478          565 
 4244000    0.5611671   -9.0096232     511.3027  0.010039717 0.0086984532          575 
 4245000   0.57583798   -9.0084851    510.48344  0.010021269 0.0086951602          553 
 4246000   0.57997729   -8.9982461     510.2571  0.010014467 0.0086918657          541 
 4247000   0.57116896   -9.0317607    510.17827  0.010010562 0.0086885707          550 
 4248000   0.56310834   -9.0130732    510.94411  0.010023229 0.0086852811          571 
 4249000   0.57570749   -8.9966913    510.49987  0.010012157 0.0086819891          580 
 4250000    0.5683589   -9.0081602    510.75686   0.01001484  0.008678702          556 
 4251000   0.57478959   -9.0185045     511.1922  0.010021018 0.0086754172          580 
 4252000   0.57985349   -9.0055781    511.49635  0.010024623 0.0086721337          556 
 4253000   0.56611596   -8.9969618    510.52724  0.010003277 0.0086688501          554 
 4254000    0.5772888   -9.0129975    510.71598  0.010004623 0.0086655668          579 
 4255000   0.56169726   -8.9980511    510.97979  0.010007438  0.008662291          576 
 4256000   0.55686313   -9.0122274    510.36852  0.009993118 0.0086590097          571 
 4257000   0.56181249   -9.0348863    510.47479 0.0099928508   0.00865573          566 
 4258000   0.56313208   -9.0129108    510.72565 0.0099954135 0.0086524533          585 
 4259000   0.54611951   -8.9957726    510.97647 0.0099979743   0.00864918          558 
 4260000   0.56581438   -8.9952771    511.21975  0.010000386 0.0086459064          583 
 4261000   0.56403061   -9.0076298    509.81422 0.0099705511 0.0086426341          556 
 4262000   0.56165283   -9.0164479    510.31598 0.0099780225 0.0086393625          567 
 4263000    0.5673955   -9.0192998    511.35688 0.0099960295 0.0086360948          569 
 4264000   0.56940647   -9.0097007    510.39049 0.0099747985 0.0086328296          554 
 4265000   0.58110673   -9.0187163    510.64772 0.0099774858  0.008629567          569 
 4266000   0.56968953   -9.0097063    510.55832 0.0099734006 0.0086263027          570 
 4267000   0.58204375   -8.9964388    511.60774 0.0099915582 0.0086230416          564 
 4268000   0.56375641   -9.0018332    510.48605 0.0099673159 0.0086197809          536 
 4269000   0.56043061   -9.0037695    511.18115 0.0099785499 0.0086165273          590 
 4270000    0.5774592   -9.0497134     510.0964 0.0099550429 0.0086132725          568 
 4271000   0.55020325   -9.0055107    509.75312 0.0099460141 0.0086100155          590 
 4272000   0.56443707   -9.0046849    510.32308 0.0099548042 0.0086067611          583 
 4273000   0.57079501    -9.012786    510.37962  0.009953577 0.0086035133          562 
 4274000   0.57967396   -9.0061277    509.91541 0.0099421972 0.0086002614          580 
 4275000   0.57453143   -8.9939187    511.13871 0.0099637175 0.0085970146          579 
 4276000   0.57034867   -9.0122414    509.54466 0.0099303215  0.008593765          559 
 4277000   0.55402006    -9.009391    510.42308  0.009945115 0.0085905194          559 
 4278000   0.55266618   -8.9951666    509.97716 0.0099341039 0.0085872766          563 
 4279000   0.57943102   -9.0124347    510.66535 0.0099451847 0.0085840292          549 
 4280000   0.57054428   -9.0126479    510.50334 0.0099397067 0.0085807864          560 
 4281000   0.56118491   -9.0152733    510.74214 0.0099420335  0.008577551          560 
 4282000   0.56567398   -9.0193677    510.88299 0.0099424527 0.0085743123          572 
 4283000    0.5790435   -9.0312918    510.43131  0.009931343 0.0085710737          577 
 4284000    0.5516443   -9.0272993    510.08778 0.0099223424  0.008567835          570 
 4285000   0.56832726   -8.9848118    511.09711  0.009939656 0.0085646022          542 
 4286000   0.56147788   -9.0193136    510.80918 0.0099317386 0.0085613723          559 
 4287000   0.55437607   -9.0068046    510.65566 0.0099264377 0.0085581437          570 
 4288000    0.5681702   -9.0114889    511.46271  0.009939807 0.0085549143          584 
 4289000    0.5742447   -9.0113666    510.55616 0.0099198757 0.0085516866          586 
 4290000   0.56610052   -9.0122941    511.01277  0.009926433 0.0085484572          556 
 4291000   0.55387103    -9.007781    511.10852 0.0099259792 0.0085452318          566 
 4292000   0.55553324   -9.0191776    509.98786 0.0099019078 0.0085420057          595 
 4293000   0.56789869   -9.0280376    510.94911 0.0099182606 0.0085387795          565 
 4294000   0.57551067   -9.0184778    509.68474 0.0098914132 0.0085355605          557 
 4295000   0.56433721   -9.0196751     510.3256 0.0099015445 0.0085323396          564 
 4296000   0.56176237   -9.0124426    510.46538 0.0099019509 0.0085291212          566 
 4297000   0.55189625   -9.0230036    510.22823 0.0098950475 0.0085259048          574 
 4298000   0.56493253   -9.0073957    511.01301 0.0099079613 0.0085226929          529 
 4299000   0.56662394   -9.0129896    511.17293 0.0099087565 0.0085194773          561 
 4300000     0.570068   -9.0083032    510.76887 0.0098986215 0.0085162672          562 
 4301000   0.56017977    -9.015777    510.49776 0.0098910673 0.0085130568          551 
 4302000   0.57321565   -9.0199561    510.34719 0.0098858513 0.0085098493          557 
 4303000   0.57833517   -9.0072582     510.1761 0.0098802406  0.008506643          566 
 4304000   0.56162071   -9.0444878    509.90229 0.0098726435 0.0085034364          566 
 4305000   0.56286633   -9.0244833    510.09068 0.0098739969 0.0085002314          559 
 4306000   0.55911556   -9.0200867    510.65574 0.0098826393 0.0084970259          580 
 4307000   0.55702695   -9.0337039    509.95334 0.0098667545 0.0084938207          571 
 4308000   0.55798204    -9.016168    509.79448 0.0098613912 0.0084906166          558 
 4309000   0.56354266   -8.9950489    510.18983 0.0098667485 0.0084874189          576 
 4310000   0.56596428   -9.0327209    509.78501 0.0098566321 0.0084842257          576 
 4311000   0.56535861   -9.0230137    511.08533 0.0098794813 0.0084810315          563 
 4312000   0.57168386   -9.0248469    510.14481 0.0098590138  0.008477841          577 
 4313000   0.55302295   -9.0395179    510.14773 0.0098567843 0.0084746492          572 
 4314000    0.5575462   -9.0412314    510.75908 0.0098663089 0.0084714608          584 
 4315000   0.57149425   -9.0379361    510.54399 0.0098598685 0.0084682725          583 
 4316000   0.56614065   -9.0124176    510.91423 0.0098647325 0.0084650888          563 
 4317000   0.57008124   -9.0523428    510.87906 0.0098617686 0.0084619042          566 
 4318000   0.55604613   -9.0185773    510.16609 0.0098457251 0.0084587211          555 
 4319000   0.55754146   -9.0166779    510.05089 0.0098412227  0.008455541          542 
 4320000   0.56643569   -9.0362546    510.75422 0.0098525119  0.008452363          551 
 4321000   0.56257365   -9.0192093      509.916 0.0098340662 0.0084491823          570 
 4322000   0.55492216   -9.0417857    509.65524  0.009826763 0.0084460072          545 
 4323000   0.55615276   -9.0454534    509.80001 0.0098272806   0.00844283          546 
 4324000    0.5833829    -9.031139    510.30409 0.0098347227 0.0084396544          555 
 4325000   0.56327216   -9.0243663    510.21437 0.0098307201 0.0084364784          573 
 4326000   0.57254769   -9.0401578     510.0341 0.0098249751 0.0084333061          588 
 4327000   0.56200067   -9.0296227     509.5404 0.0098131963 0.0084301351          541 
 4328000   0.56801758   -9.0355982    509.64265 0.0098128976 0.0084269641          570 
 4329000   0.55491921   -9.0212131    510.24259 0.0098221797 0.0084237962          581 
 4330000   0.56720862   -9.0307758    510.33266 0.0098216448 0.0084206294          565 
 4331000   0.55126226   -9.0378156    509.31547 0.0097998051 0.0084174633          579 
 4332000   0.55879997   -9.0284049    510.18793 0.0098143261 0.0084142997          570 
 4333000   0.57598403   -9.0403808    510.27927 0.0098138177 0.0084111399          557 
 4334000   0.54682749   -9.0292459    510.18388 0.0098097192 0.0084079819          546 
 4335000   0.56432333   -9.0160956    510.81668  0.009819621 0.0084048259          571 
 4336000    0.5632807   -9.0338548    509.80231 0.0097978611 0.0084016686          573 
 4337000   0.55521956   -9.0311866    509.85353 0.0097965862 0.0083985152          577 
 4338000   0.57225636   -9.0193185    509.95651 0.0097963062 0.0083953597          557 
 4339000    0.5585011    -9.026058    510.51218 0.0098047203 0.0083922099          547 
 4340000   0.55771586   -9.0393317    509.79715 0.0097887319  0.008389059          580 
 4341000   0.55776754   -9.0459489    510.27827 0.0097957127 0.0083859093          560 
 4342000   0.55134561   -9.0296433     510.7268 0.0098020651 0.0083827632          562 
 4343000   0.55243094   -9.0386245    510.68366 0.0097989804 0.0083796171          560 
 4344000   0.56131644   -9.0253515    510.90104 0.0098008947 0.0083764778          574 
 4345000   0.56585634   -9.0299525    510.69867 0.0097947579 0.0083733389          575 
 4346000   0.54898314     -9.04131    510.14101  0.009781811 0.0083702001          566 
 4347000   0.55139911   -9.0403455    510.40595 0.0097846398 0.0083670633          581 
 4348000   0.54968934   -9.0245505    509.52627 0.0097655295 0.0083639274          539 
 4349000   0.55726881   -9.0325085    510.06501 0.0097736071 0.0083607912          578 
 4350000    0.5608452   -9.0495004    509.99287 0.0097699783 0.0083576577          581 
 4351000   0.56147046   -9.0230913    510.82342 0.0097836402 0.0083545234          578 
 4352000   0.55826972   -9.0382897    510.97328 0.0097842617 0.0083513918          601 
 4353000   0.56172891   -9.0510422    510.27139 0.0097685771 0.0083482624          570 
 4354000   0.55142636   -9.0341297     510.2474 0.0097658743 0.0083451318          573 
 4355000   0.55146682   -9.0292349    509.38225 0.0097470772 0.0083420047          579 
 4356000   0.55550359   -9.0323643    509.59397 0.0097488898 0.0083388789          561 
 4357000   0.55412929   -9.0167389    510.02714 0.0097549373 0.0083357542          556 
 4358000   0.56203236   -9.0290534    510.48074 0.0097613727 0.0083326299          565 
 4359000   0.56014404   -9.0480936    510.08685 0.0097516029 0.0083295081          575 
 4360000   0.54134477   -9.0269295    509.53593 0.0097388366 0.0083263879          555 
 4361000   0.56560783   -9.0248377    510.87775  0.009762244 0.0083232704          581 
 4362000   0.54382816   -9.0281395    509.55236 0.0097346851 0.0083201538          567 
 4363000   0.55212931   -9.0314137    510.01196 0.0097412324 0.0083170394          545 
 4364000   0.55134356    -9.048249    510.78577 0.0097537765 0.0083139226          560 
 4365000   0.54327029   -9.0432542    509.93252 0.0097352524 0.0083108074          590 
 4366000   0.53292051   -9.0287244    510.94564 0.0097523599 0.0083076932          581 
 4367000   0.57101356   -9.0721555    509.25136 0.0097177956  0.008304582          567 
 4368000   0.54674255    -9.035827    509.94693  0.009728841 0.0083014729          555 
 4369000   0.54638722   -9.0359489    509.96922 0.0097270394 0.0082983698          564 
 4370000   0.53935956   -9.0522678    508.97422 0.0097058395 0.0082952627          539 
 4371000   0.54970815   -9.0364671    510.45339 0.0097318193 0.0082921586          541 
 4372000    0.5543625   -9.0356371    510.59059 0.0097322085 0.0082890549          557 
 4373000   0.55939051   -9.0535761    510.27879 0.0097240413 0.0082859525          573 
 4374000   0.55637044   -9.0442953    509.06011 0.0096985999 0.0082828499          576 
 4375000   0.54993684   -9.0370457    510.38945 0.0097217039 0.0082797506          560 
 4376000   0.54806936   -9.0245692    510.41767 0.0097200197  0.008276655          591 
 4377000   0.55522474   -9.0437788    509.90504 0.0097080389 0.0082735569          590 
 4378000   0.57019303   -9.0489864    509.65773 0.0097011142 0.0082704652          548 
 4379000   0.54415859   -9.0290187     509.1476 0.0096891909 0.0082673753          583 
 4380000   0.55840951   -9.0435484    509.85571  0.009700451 0.0082642845          568 
 4381000   0.53726357   -9.0359074    509.31443 0.0096879409 0.0082611941          557 
 4382000    0.5434152   -9.0417878    510.73986 0.0097128378 0.0082581063          539 
 4383000    0.5540927   -9.0476377    509.41074 0.0096853514 0.0082550143          553 
 4384000   0.55167155   -9.0420065    509.36825 0.0096823345 0.0082519263          572 
 4385000   0.56541738   -9.0439194    509.81297  0.009688578 0.0082488425          559 
 4386000   0.55236312   -9.0540108    510.24507 0.0096945788 0.0082457594          550 
 4387000   0.55346663   -9.0496838    509.74828 0.0096829321 0.0082426753          559 
 4388000   0.55213985   -9.0449469    508.98869    0.0096663 0.0082395951          574 
 4389000   0.54480987   -9.0414839    509.61132 0.0096759194 0.0082365168          562 
 4390000   0.53486012   -9.0327109    509.76671 0.0096766649 0.0082334426          567 
 4391000   0.54667888   -9.0297156    510.80247 0.0096941182 0.0082303723          557 
 4392000   0.56124255    -9.053583    510.41729 0.0096846025 0.0082273009          563 
 4393000   0.54406748   -9.0454753      509.723 0.0096692276 0.0082242318          541 
 4394000   0.55832633   -9.0558812    510.84551 0.0096883156 0.0082211646          573 
 4395000   0.54489038   -9.0425339    509.97675 0.0096696388 0.0082180956          550 
 4396000   0.54425949   -9.0467365    510.34274 0.0096743771 0.0082150296          568 
 4397000   0.54120683   -9.0594663    509.86917 0.0096632016 0.0082119651          536 
 4398000    0.5317263   -9.0413913    509.04955 0.0096454743  0.008208899          567 
 4399000   0.54199242   -9.0492637    509.40408 0.0096499978 0.0082058351          568 
 4400000     0.535136   -9.0387357    509.95734  0.009658283 0.0082027744          562 
 4401000   0.53998666   -9.0343606    510.05705 0.0096579764 0.0081997155          550 
 4402000   0.55207284   -9.0351938    509.50123 0.0096452603 0.0081966559          548 
 4403000   0.54496092   -9.0463552    509.92276 0.0096510477 0.0081936037          554 
 4404000   0.56474451   -9.0531227    509.58104 0.0096423903 0.0081905458          559 
 4405000   0.54524284    -9.051637    510.64176  0.009660268  0.008187492          598 
 4406000    0.5394916   -9.0620959    510.22679 0.0096502268 0.0081844396          558 
 4407000   0.54872534   -9.0527142    509.78513 0.0096396856 0.0081813893          551 
 4408000   0.55079889    -9.063679    509.06423   0.00962387 0.0081783431          549 
 4409000   0.53697186    -9.061847    509.63888 0.0096325486 0.0081752963          555 
 4410000   0.54238156   -9.0660977    509.36122 0.0096251175  0.008172249          557 
 4411000   0.54076478   -9.0505909    509.17772 0.0096194688 0.0081692027          569 
 4412000   0.53865107   -9.0465167    509.61629 0.0096255722 0.0081661579          567 
 4413000   0.55583447   -9.0424582    510.27824  0.009635891 0.0081631121          532 
 4414000    0.5423033   -9.0583397    509.65396 0.0096219219 0.0081600688          573 
 4415000    0.5416602   -9.0605724    510.69781 0.0096394452 0.0081570271          555 
 4416000   0.54053603   -9.0630876    510.03261 0.0096247096 0.0081539896          562 
 4417000   0.53786571   -9.0497629    509.24751 0.0096077184 0.0081509519          575 
 4418000   0.54563433   -9.0612971     509.4778 0.0096098875 0.0081479155          573 
 4419000   0.56089205   -9.0428216    509.09594 0.0096005119 0.0081448803          559 
 4420000    0.5415218   -9.0601035     509.3299 0.0096027507 0.0081418475          554 
 4421000   0.54108424   -9.0650994    509.44092 0.0096026713 0.0081388187          572 
 4422000   0.55045233   -9.0402165    508.92444 0.0095907666 0.0081357862          570 
 4423000   0.54077506   -9.0405699    509.60633 0.0096014457 0.0081327568          550 
 4424000   0.55695513   -9.0600905    508.01784 0.0095693536 0.0081297287          563 
 4425000   0.54632788   -9.0730663    509.53622 0.0095957856 0.0081267043          557 
 4426000   0.53757331    -9.063379    508.94773 0.0095825375  0.008123681          560 
 4427000   0.54293917   -9.0578199    510.55983 0.0096107189 0.0081206583          576 
 4428000   0.54079214   -9.0754642    509.26566 0.0095841927 0.0081176361          585 
 4429000   0.53344984   -9.0719992    509.78449 0.0095917907 0.0081146143          556 
 4430000   0.54432581   -9.0718368    509.45024 0.0095833379 0.0081115971          561 
 4431000   0.55039499   -9.0607892    509.63594 0.0095846675 0.0081085778          564 
 4432000   0.55849569   -9.0709269    509.72052 0.0095840952 0.0081055622          548 
 4433000   0.55642641    -9.032868    509.83816 0.0095841446 0.0081025448          546 
 4434000   0.55160407   -9.0531571    509.97578 0.0095845695 0.0080995293          541 
 4435000    0.5504723     -9.05852    508.75945 0.0095595538 0.0080965146          581 
 4436000   0.54862714   -9.0578882    509.72773 0.0095755885 0.0080935028          562 
 4437000   0.53433275    -9.050771     509.6938 0.0095727931 0.0080904966          555 
 4438000   0.53048862   -9.0709585    509.45678 0.0095661855 0.0080874909          575 
 4439000   0.53982937   -9.0695281    509.36137 0.0095622394 0.0080844861          571 
 4440000   0.53833417   -9.0609125    508.57898 0.0095454012 0.0080814803          574 
 4441000   0.54503375    -9.059467    509.06138 0.0095523039 0.0080784763          551 
 4442000   0.54619628    -9.052867    508.69913 0.0095433576 0.0080754717          585 
 4443000   0.53496651   -9.0787847    508.32332 0.0095341609 0.0080724695          569 
 4444000   0.54535376   -9.0617278    509.84879  0.009560621 0.0080694691          552 
 4445000   0.54162149   -9.0632229    509.04024 0.0095433116 0.0080664695          569 
 4446000   0.54776412   -9.0646202    509.33394   0.00954667 0.0080634764          565 
 4447000   0.54404086   -9.0586483    509.97715 0.0095565766 0.0080604832          547 
 4448000    0.5425409   -9.0510646    510.05998 0.0095559798 0.0080574913          559 
 4449000   0.54817979    -9.063067    508.69912  0.009528342  0.008054498          572 
 4450000   0.54547692   -9.0924334    509.43346 0.0095399525 0.0080515057          566 
 4451000   0.54977468   -9.0654503    509.57296 0.0095404208 0.0080485194          572 
 4452000   0.54248429   -9.0578295    508.97633 0.0095271102 0.0080455316          569 
 4453000   0.53153386   -9.0498101    509.56329  0.009535955 0.0080425438          553 
 4454000   0.53688416   -9.0649717    509.05395 0.0095242843 0.0080395584          570 
 4455000   0.54158723   -9.0535281    509.31096  0.009526954  0.008036573          576 
 4456000    0.5547995   -9.0614772     509.2848 0.0095243267 0.0080335922          564 
 4457000   0.53211713   -9.0645639    509.57412 0.0095275992 0.0080306146          571 
 4458000   0.53812393   -9.0521712    509.00957 0.0095149089 0.0080276336          566 
 4459000   0.53988365   -9.0706602    508.80772 0.0095090027 0.0080246528          581 
 4460000   0.54033838   -9.0743658    509.16642  0.009513573 0.0080216751          574 
 4461000   0.53434975   -9.0681474    509.00998 0.0095085179 0.0080186988          575 
 4462000   0.53257439   -9.0540256    509.17057 0.0095093862 0.0080157248          557 
 4463000   0.54159858   -9.0496266    509.44429 0.0095123663 0.0080127517          575 
 4464000   0.54774017   -9.0680252    507.64086 0.0094765692 0.0080097795          565 
 4465000   0.54310202   -9.0715459    509.60742 0.0095111501 0.0080068114          589 
 4466000   0.53870579    -9.060138    509.05163 0.0094986497 0.0080038432          595 
 4467000   0.53061527   -9.0607994    509.59949 0.0095067438 0.0080008792          571 
 4468000   0.52580429   -9.0379809    509.26157 0.0094983135 0.0079979167          569 
 4469000   0.53684484   -9.0699259     508.6085 0.0094840103 0.0079949533          603 
 4470000   0.53817385    -9.071165    508.78815 0.0094852377 0.0079919922          587 
 4471000   0.53957826   -9.0689983     510.0399  0.009506447 0.0079890315          557 
 4472000   0.53531117   -9.0516691    509.04137 0.0094857143 0.0079860743          541 
 4473000   0.53773652   -9.0790763    510.17778 0.0095047652 0.0079831173          589 
 4474000   0.53787874   -9.0619879    509.33563 0.0094869547  0.007980162          575 
 4475000   0.54262434    -9.077298    509.28684 0.0094839263 0.0079772046          585 
 4476000   0.54017396     -9.06791    508.83014 0.0094733046 0.0079742485          554 
 4477000   0.52826754   -9.0801609    509.00454 0.0094744349 0.0079712925          557 
 4478000   0.54893748   -9.0604584    508.69555 0.0094665689 0.0079683385          582 
 4479000   0.54009183   -9.0613432    508.71495 0.0094648163 0.0079653923          573 
 4480000   0.53492349   -9.0889271    509.19977 0.0094717219 0.0079624417          574 
 4481000   0.53965286   -9.0717821    508.80173 0.0094622057 0.0079594936          571 
 4482000   0.53617105   -9.0843891    509.68672 0.0094765492 0.0079565463          574 
 4483000   0.53715407   -9.0440698     510.0151 0.0094805395 0.0079536027          561 
 4484000   0.52657916   -9.0550701    509.35181 0.0094660982 0.0079506605          571 
 4485000   0.53660498   -9.0824931    508.88723 0.0094553555 0.0079477228          558 
 4486000   0.53862219   -9.0563363    508.85974  0.009452737 0.0079447851          572 
 4487000   0.51339234   -9.0725901    508.99064 0.0094530615 0.0079418499          572 
 4488000   0.52497379    -9.057818    508.83239 0.0094480168 0.0079389121          567 
 4489000   0.53450252    -9.075802    509.41229 0.0094566772 0.0079359783          566 
 4490000     0.529999   -9.0789994    508.56157 0.0094387819 0.0079330436          586 
 4491000   0.54207724   -9.0719361    508.77316 0.0094406064 0.0079301084          560 
 4492000   0.52378398    -9.063795    508.61756 0.0094356181 0.0079271801          568 
 4493000   0.54414786   -9.0605514    508.38798   0.00942926  0.007924252          565 
 4494000   0.53066755    -9.058948    509.95347 0.0094561911 0.0079213212          567 
 4495000   0.52759708   -9.0716459    508.84385  0.009433516 0.0079183958          578 
 4496000   0.54435506   -9.0570471    509.32301  0.009440299 0.0079154717          581 
 4497000   0.53303534   -9.0716801    508.48197 0.0094226145 0.0079125478          543 
 4498000   0.53616627   -9.0646843    508.91597 0.0094285603 0.0079096261          609 
 4499000   0.52911584   -9.0759867    509.09973 0.0094298682 0.0079067033          575 
 4500000   0.53186851   -9.0918663    509.97896 0.0094440549 0.0079037841          600 
 4501000   0.53127024   -9.0832221    508.81322 0.0094203737 0.0079008655          573 
 4502000   0.52146439   -9.0789643    509.96205 0.0094395464 0.0078979466          570 
 4503000   0.53065875   -9.0608329    509.51165 0.0094291149 0.0078950337          573 
 4504000   0.53176469   -9.0720769    509.42381 0.0094253962 0.0078921208          565 
 4505000   0.54376615   -9.0694397    509.16919  0.009418594 0.0078892079          571 
 4506000   0.53544582    -9.098382    508.62205  0.009406385 0.0078862956          573 
 4507000   0.52601942   -9.0672965    508.63187 0.0094044795 0.0078833858          597 
 4508000   0.52999382   -9.0786221    509.44539 0.0094174318 0.0078804753          581 
 4509000   0.52951775   -9.0773034    508.80293 0.0094034695 0.0078775678          570 
 4510000   0.53697479   -9.0880929    509.00708 0.0094051567 0.0078746612          569 
 4511000   0.52147783   -9.0576755    509.76389 0.0094170526 0.0078717576          602 
 4512000   0.52106552   -9.0750648    509.45428 0.0094092471 0.0078688537          558 
 4513000   0.52780389   -9.0647716    509.54726 0.0094088791 0.0078659504          566 
 4514000   0.52305201   -9.0786261    509.38509 0.0094038009 0.0078630477          558 
 4515000   0.51869977    -9.075572    509.34766 0.0094010273 0.0078601479          565 
 4516000   0.53496511    -9.081858    508.98761 0.0093923016 0.0078572516          570 
 4517000   0.52667705   -9.0780063     509.3088 0.0093961479 0.0078543564          575 
 4518000   0.53834457   -9.0824471     508.7558 0.0093838683   0.00785146          574 
 4519000    0.5237313   -9.0906925     508.5472 0.0093779449 0.0078485657          576 
 4520000    0.5327665   -9.0895459    508.77133 0.0093800024 0.0078456733          574 
 4521000   0.51805374   -9.0845111    509.15234 0.0093849506 0.0078427812          563 
 4522000   0.53484896   -9.0776954    508.82863 0.0093769098 0.0078398886          603 
 4523000   0.52981778   -9.0906913    508.91448 0.0093764183     0.007837          560 
 4524000   0.51561563   -9.0848745     508.9817  0.009375584 0.0078341157          592 
 4525000    0.5313214   -9.0916133    508.72731  0.009368827 0.0078312278          574 
 4526000   0.52440266   -9.0918682    508.91167 0.0093701516 0.0078283431          568 
 4527000   0.52159722   -9.0755967    509.63445 0.0093813868 0.0078254593          570 
 4528000   0.52632498   -9.0729783    508.05341 0.0093502173 0.0078225806          567 
 4529000   0.52378891   -9.0772507    508.84868 0.0093627858 0.0078196971          589 
 4530000   0.52434691   -9.1028887     509.3406 0.0093697683 0.0078168198          585 
 4531000   0.52079176   -9.1035626    508.70141 0.0093559445 0.0078139431          599 
 4532000   0.53443509   -9.1057744    509.47751 0.0093681508  0.007811069          602 
 4533000   0.51828278   -9.0688736     508.0882 0.0093405434 0.0078081942          557 
 4534000   0.52366845   -9.0920693    509.50629 0.0093645472 0.0078053194          580 
 4535000   0.53130615   -9.0939887     509.3928 0.0093603968 0.0078024466          575 
 4536000   0.52117465   -9.0747537    508.98216 0.0093507892 0.0077995763          573 
 4537000    0.5243957   -9.0831163    508.76909 0.0093448147 0.0077967075          606 
 4538000   0.52196588   -9.0822692    508.74402  0.009342295 0.0077938414          576 
 4539000    0.5312836   -9.0948252    508.90162 0.0093431303 0.0077909754          585 
 4540000   0.51974715   -9.0809908    508.70042 0.0093373793 0.0077881111          556 
 4541000   0.51924845   -9.1053849    508.92737 0.0093394878 0.0077852465          552 
 4542000   0.53581801    -9.075875    509.07597 0.0093401579 0.0077823822          584 
 4543000    0.5155815   -9.0907861    509.14501 0.0093393684 0.0077795215          578 
 4544000   0.52089492   -9.0821603    509.34427 0.0093409674 0.0077766596          573 
 4545000   0.52087652    -9.096066    508.51965 0.0093237927 0.0077738012          570 
 4546000   0.52278855   -9.1091136    508.40796 0.0093196942 0.0077709446          559 
 4547000   0.52715407   -9.0776951    509.70842 0.0093414783 0.0077680868          564 
 4548000     0.518922   -9.0893394    509.61931 0.0093377916 0.0077652323          572 
 4549000   0.52310973   -9.0871621    507.95278 0.0093052096 0.0077623797          574 
 4550000   0.52391207   -9.0770372    509.16603 0.0093253852 0.0077595291          580 
 4551000   0.53535654   -9.1011574    508.60865 0.0093131299 0.0077566787          561 
 4552000   0.53533149   -9.0754398    508.58666 0.0093106813 0.0077538315          573 
 4553000   0.52538063   -9.1021572    508.99387 0.0093160896 0.0077509839          586 
 4554000   0.52726575   -9.0857463    508.71445 0.0093089308 0.0077481368          574 
 4555000   0.52053954   -9.0931197    508.71388 0.0093068766 0.0077452902          583 
 4556000    0.5261825   -9.0901635    508.45803 0.0093001542 0.0077424473          589 
 4557000   0.52253517   -9.0813143    508.71463 0.0093028058 0.0077396058          586 
 4558000   0.51463883   -9.0938379     508.7325 0.0093010915 0.0077367678          578 
 4559000   0.52435565   -9.0910625    507.78264  0.009281689 0.0077339281          576 
 4560000   0.52583592   -9.0978556     508.7993 0.0092982328 0.0077310909          593 
 4561000   0.52039535   -9.0918775    507.67914 0.0092757279  0.007728256          593 
 4562000   0.52152324   -9.0946174    508.91596 0.0092962875 0.0077254227          576 
 4563000   0.51136482   -9.1101278    509.25784 0.0093004938 0.0077225906          594 
 4564000   0.51562483    -9.085063    509.61235 0.0093049291  0.007719759          576 
 4565000   0.51900828   -9.0901835    508.04788 0.0092743315 0.0077169288          585 
 4566000   0.52270297   -9.0993491    508.20712 0.0092752066 0.0077140993          577 
 4567000   0.51780429   -9.0967847    509.88128 0.0093037238 0.0077112726          576 
 4568000   0.51232713   -9.0916158    508.82951 0.0092824999 0.0077084484          582 
 4569000   0.51591919    -9.098822     508.5828 0.0092759686 0.0077056231          562 
 4570000   0.51919158   -9.1089298    509.67078 0.0092937779  0.007702798          598 
 4571000    0.5199112   -9.1078084    508.14476  0.009263924 0.0076999776          578 
 4572000   0.51964532   -9.0934093    509.19503 0.0092810409 0.0076971573          585 
 4573000    0.5039333   -9.0908337    508.69515 0.0092699021 0.0076943401          588 
 4574000   0.51568881   -9.0833487    508.52118 0.0092647059 0.0076915228          597 
 4575000   0.51795888   -9.1062931    507.74321 0.0092485102 0.0076887055          572 
 4576000   0.51477323   -9.0902717     507.8562 0.0092485468   0.00768589          572 
 4577000   0.51191007   -9.0844698    509.01634 0.0092676487 0.0076830774          594 
 4578000   0.52043934   -9.0674568    509.66262 0.0092773886 0.0076802668          600 
 4579000   0.52019372   -9.0885609    509.35684 0.0092697976 0.0076774594          582 
 4580000   0.51699181   -9.1044241    508.56172 0.0092533065 0.0076746536          623 
 4581000   0.52945111     -9.09783    508.09027 0.0092427102 0.0076718461          584 
 4582000   0.49830277   -9.0893589    508.22718 0.0092431831 0.0076690387          587 
 4583000   0.51081447   -9.0962836     507.9957 0.0092369573 0.0076662309          609 
 4584000   0.52517501    -9.116626    509.49738 0.0092622414 0.0076634262          586 
 4585000   0.52076602   -9.0940015     508.5072 0.0092422247 0.0076606221          604 
 4586000   0.51456399   -9.1060646    508.40103 0.0092382801 0.0076578204          595 
 4587000   0.51768302   -9.1097887    508.49312 0.0092379391 0.0076550183          611 
 4588000   0.51750357   -9.0923914    508.39134 0.0092340769 0.0076522161          589 
 4589000   0.51288078   -9.0960816     508.7836  0.009239188 0.0076494154          569 
 4590000   0.51813596   -9.0844465    507.97725 0.0092225353 0.0076466219          586 
 4591000   0.52005675   -9.1067495    507.79069 0.0092171403 0.0076438222          586 
 4592000   0.51406177   -9.0952103    508.11079 0.0092209421 0.0076410278          561 
 4593000   0.50291312   -9.0882487    508.44717 0.0092250375 0.0076382313          581 
 4594000    0.5228962   -9.0945441    508.46545 0.0092233611 0.0076354385          592 
 4595000   0.52953412    -9.103134     508.4105 0.0092203574 0.0076326457          606 
 4596000   0.51361309   -9.1005179    508.59076 0.0092216195 0.0076298567          580 
 4597000   0.51752642   -9.1113441    508.74997 0.0092224996 0.0076270688          578 
 4598000    0.5168168    -9.096706    508.66922 0.0092190303 0.0076242829          592 
 4599000   0.52047598   -9.1081748    508.76687 0.0092187952 0.0076214944          588 
 4600000   0.51193776   -9.1053606    508.43528  0.009210784 0.0076187104          613 
 4601000   0.51746565   -9.0968003    507.76885 0.0091967117 0.0076159271          602 
 4602000   0.52370058   -9.0913005    508.58708 0.0092095298 0.0076131433          586 
 4603000   0.50754532   -9.0961137     508.4835  0.009205654  0.007610365          606 
 4604000   0.51127452   -9.0905197    508.40884 0.0092023031 0.0076075859          599 
 4605000   0.51067649   -9.1041505    508.82783 0.0092078868 0.0076048125          585 
 4606000   0.50402566   -9.1106877    508.52837 0.0092004698 0.0076020387          582 
 4607000   0.51261687   -9.1179332    508.25522 0.0091935319 0.0075992633          593 
 4608000   0.50738908   -9.1127992    508.14287 0.0091895051 0.0075964908          597 
 4609000   0.52058564   -9.1077546     507.7098 0.0091796811 0.0075937188          592 
 4610000   0.50970078   -9.1103301    508.38029   0.00918981  0.007590948          594 
 4611000   0.51108198   -9.1103973    509.05646 0.0092000372 0.0075881764          606 
 4612000   0.52412513   -9.0986489    508.51042 0.0091881762 0.0075854077          599 
 4613000   0.51331247   -9.1041594    508.87543 0.0091927783 0.0075826419          581 
 4614000   0.52313251   -9.1001016    507.84588 0.0091721911 0.0075798797          592 
 4615000    0.4983852   -9.0870097    508.55807 0.0091830637 0.0075771163          609 
 4616000   0.51239155   -9.1047343    509.13844 0.0091915518  0.007574352          588 
 4617000    0.5136202   -9.1156703    507.94511 0.0091680223  0.007571593          582 
 4618000   0.50549062    -9.087872    509.30875 0.0091906444 0.0075688312          582 
 4619000   0.51251234   -9.0932929    507.82621 0.0091619076 0.0075660726          599 
 4620000   0.50613405   -9.1047829    508.41034 0.0091704607 0.0075633144          601 
 4621000   0.50794979   -9.1095648    508.62739 0.0091723904 0.0075605591          576 
 4622000   0.51642813   -9.1012473    507.70083 0.0091537002 0.0075578019          592 
 4623000   0.50116985   -9.0966743    507.92967 0.0091558453 0.0075550472          603 
 4624000   0.51400754   -9.1195506    508.53267 0.0091647323 0.0075522939          607 
 4625000   0.51056792   -9.1164489    507.74645 0.0091485847 0.0075495427          602 
 4626000   0.50308694   -9.1061843    508.56119 0.0091612839 0.0075467912          602 
 4627000   0.51107301   -9.1162385    507.93038 0.0091479428 0.0075440395          605 
 4628000   0.51288686   -9.1151015    508.31605 0.0091529107 0.0075412896          590 
 4629000   0.50665212   -9.1094554    508.30119 0.0091506658 0.0075385405          616 
 4630000   0.49933517   -9.1064647    507.71048 0.0091380575 0.0075357938          601 
 4631000   0.51520825   -9.0894451     508.2307 0.0091454456 0.0075330487          598 
 4632000   0.49794631   -9.1065563    508.36749  0.009145932 0.0075303059          609 
 4633000   0.51392967   -9.1193833    508.03178 0.0091379196 0.0075275617          579 
 4634000   0.51091617   -9.0995408     508.4211 0.0091429488 0.0075248186          593 
 4635000   0.51391801   -9.1262493    508.35313 0.0091397542 0.0075220794          586 
 4636000   0.50270331   -9.1271365    508.11474 0.0091334977 0.0075193404          601 
 4637000   0.50252504   -9.1166717    507.84102 0.0091266089 0.0075166037          598 
 4638000   0.50364169   -9.1120052    508.22534 0.0091315463 0.0075138678          595 
 4639000   0.51134791   -9.0994972     508.8683 0.0091411277 0.0075111325          593 
 4640000   0.50428337   -9.1188613    508.83654 0.0091385874 0.0075083977          590 
 4641000   0.49821174    -9.111347    508.04348 0.0091223781 0.0075056648          594 
 4642000   0.50565338   -9.1139077    507.29119 0.0091069077 0.0075029337          591 
 4643000   0.51803018    -9.110601    508.24904  0.009122138 0.0075002059          631 
 4644000   0.51151743   -9.1032458    508.72143 0.0091286505 0.0074974772          601 
 4645000   0.51272134   -9.1270084    508.30082 0.0091191392 0.0074947518          601 
 4646000   0.51095799   -9.1162538    508.80274 0.0091261791 0.0074920257          604 
 4647000   0.52441789   -9.1072178    508.12655 0.0091120893  0.007489301          591 
 4648000   0.50968213   -9.0868447    508.01126 0.0091080619  0.007486579          598 
 4649000    0.4980444   -9.1067181    508.26003  0.009110562  0.007483858          598 
 4650000   0.49614869   -9.1224946    508.00196 0.0091039778  0.007481136          626 
 4651000    0.5185077   -9.1137862    507.70985 0.0090967865 0.0074784167          622 
 4652000   0.50243214   -9.1088409    508.67281 0.0091120811    0.0074757          593 
 4653000   0.50533236   -9.1152279     508.1542 0.0091008345 0.0074729844          596 
 4654000   0.50579897   -9.1003099    507.87455 0.0090938717 0.0074702686          591 
 4655000   0.49992104    -9.100934    507.93661 0.0090930292 0.0074675554          614 
 4656000   0.50732661   -9.1239116     507.8302 0.0090891717 0.0074648437          583 
 4657000   0.50629542   -9.1102927    507.74704 0.0090857319 0.0074621338          591 
 4658000   0.49598251   -9.1077617    508.40634 0.0090955763 0.0074594242          607 
 4659000   0.50851987   -9.1007891     507.8577 0.0090838108 0.0074567152          585 
 4660000   0.50708869   -9.1142119    507.65737 0.0090782792  0.007454007          606 
 4661000   0.49239106   -9.1086631    508.59994 0.0090931835 0.0074513022          607 
 4662000   0.51835844   -9.1166721    508.40965 0.0090878317 0.0074485977          597 
 4663000   0.50250707   -9.1201206    507.68474 0.0090729277 0.0074458939          604 
 4664000    0.5151726   -9.1257818    508.69726 0.0090890733 0.0074431932          595 
 4665000   0.48629511   -9.1265662    507.45694 0.0090649686 0.0074404912          599 
 4666000   0.50209626   -9.1144999    507.63329 0.0090661753 0.0074377903          584 
 4667000   0.50699064   -9.1203203     508.3895 0.0090777355 0.0074350893          610 
 4668000   0.50170189   -9.1106635    507.87457 0.0090665982 0.0074323907          605 
 4669000   0.50376246   -9.1156799    507.65188 0.0090606817 0.0074296957          586 
 4670000   0.51149567   -9.1256389    507.96572  0.009064342 0.0074270001          598 
 4671000   0.50274418   -9.1204231    507.50612 0.0090542018 0.0074243052          601 
 4672000   0.50207609   -9.1290583    507.83365  0.009058106 0.0074216115          601 
 4673000   0.50637531   -9.1091401    508.50457 0.0090681321 0.0074189209          605 
 4674000   0.50981087   -9.1310755    508.01825 0.0090575212 0.0074162305          589 
 4675000   0.49982494   -9.1367548    507.09783  0.009039177 0.0074135412          605 
 4676000   0.51014478   -9.1360958     508.1405 0.0090558258 0.0074108526          594 
 4677000    0.4864657   -9.1096004    508.42243  0.009058913 0.0074081686          613 
 4678000   0.50073476   -9.1367643    508.26575 0.0090541854 0.0074054838          587 
 4679000   0.50023068   -9.1249508    507.96486 0.0090468915 0.0074027987          600 
 4680000   0.50334651   -9.1149547    507.92521 0.0090442523 0.0074001165          597 
 4681000   0.51143218   -9.1293156     507.9693 0.0090431051 0.0073974354          613 
 4682000    0.5093856   -9.1243891    507.78502 0.0090378936 0.0073947564          591 
 4683000    0.5049633   -9.1034471    507.72769 0.0090349435 0.0073920788          593 
 4684000   0.50407751   -9.1231698    507.73831 0.0090332037 0.0073894017          574 
 4685000   0.50054415   -9.1298151     507.8053 0.0090324671 0.0073867252          602 
 4686000   0.50392637   -9.1280642    507.90706 0.0090323491 0.0073840512          607 
 4687000    0.5001654   -9.1288902    508.32104 0.0090377825 0.0073813771          595 
 4688000   0.50183354   -9.1049919    508.04447 0.0090309384 0.0073787066          586 
 4689000   0.50537576   -9.1202395    509.21988 0.0090499019 0.0073760353          614 
 4690000   0.50622783   -9.1142949     507.1555 0.0090112917 0.0073733635          582 
 4691000   0.50771722   -9.1421686    507.57977 0.0090169078 0.0073706972          602 
 4692000   0.50365659   -9.1131696    508.27015 0.0090272477 0.0073680295          606 
 4693000   0.49697809   -9.1277838    508.91509 0.0090367762 0.0073653642          594 
 4694000   0.50258696   -9.1226772    508.07127 0.0090198705 0.0073626982          593 
 4695000   0.50934674   -9.1240275    507.17226 0.0090019926 0.0073600335          599 
 4696000   0.50388711   -9.1341507    507.12585  0.008999252 0.0073573688          582 
 4697000   0.50925647   -9.1192053    506.81933 0.0089918978 0.0073547069          603 
 4698000   0.50420979   -9.1210157    508.13358 0.0090132961 0.0073520441          591 
 4699000   0.49778468   -9.1223415    507.88594 0.0090069862 0.0073493837          586 
 4700000   0.51421213   -9.1450961    508.59297 0.0090176058 0.0073467277          591 
 4701000   0.50793382    -9.145495    507.91264 0.0090036277 0.0073440709          590 
 4702000   0.48233806     -9.11545    507.02561  0.008985992 0.0073414148          590 
 4703000   0.49539665   -9.1352873    507.69031 0.0089958591 0.0073387614          600 
 4704000   0.49071085   -9.1284205    508.15305 0.0090021444 0.0073361092          588 
 4705000   0.49679743   -9.1240224     507.3335 0.0089857155 0.0073334573          601 
 4706000   0.48012635   -9.1314259    507.43226 0.0089855549  0.007330807          596 
 4707000   0.49853511   -9.1403661    507.23797 0.0089802063 0.0073281586          593 
 4708000   0.48576742    -9.126449    507.96387 0.0089911476 0.0073255113          576 
 4709000   0.49754787   -9.1283931    508.04744 0.0089907171 0.0073228673          607 
 4710000   0.50169346   -9.1449599    508.02417 0.0089883965 0.0073202219          577 
 4711000   0.49254805   -9.1546385    507.10195 0.0089701753 0.0073175758          601 
 4712000   0.50030758   -9.1327524    507.17567 0.0089695754 0.0073149318          603 
 4713000   0.50391944   -9.1239054    507.91117 0.0089806771 0.0073122909          599 
 4714000   0.49635516   -9.1262412    508.05852 0.0089813767 0.0073096494          577 
 4715000   0.50504546   -9.1432249    507.36932 0.0089672909 0.0073070097          587 
 4716000      0.49353   -9.1136537    507.48266 0.0089673922 0.0073043715          587 
 4717000   0.50322807   -9.1257192    508.34121 0.0089806588  0.007301734          585 
 4718000   0.48573972   -9.1142519    507.61443 0.0089659182 0.0072990993          578 
 4719000   0.52126036   -9.1244042    507.95741  0.008970075 0.0072964639          601 
 4720000   0.49419445   -9.1176261    507.25081 0.0089556993 0.0072938301          590 
 4721000    0.4887614    -9.139699    507.82656 0.0089639652 0.0072911955          603 
 4722000   0.49559702   -9.1364524    507.61839 0.0089583932 0.0072885633          595 
 4723000   0.49650249   -9.1328163    507.67169 0.0089574368 0.0072859339          581 
 4724000   0.49897896   -9.1401943    507.19344 0.0089471042 0.0072833054          580 
 4725000   0.49909805   -9.1305217    507.39659 0.0089487934 0.0072806788          590 
 4726000   0.49086086   -9.1286214    507.65103 0.0089513865  0.007278051          606 
 4727000   0.48804339   -9.1393315    508.30641 0.0089610466 0.0072754275          599 
 4728000   0.49538498   -9.1506521    507.23894 0.0089403367 0.0072728051          582 
 4729000   0.50202287   -9.1529508    507.06452 0.0089353725 0.0072701822          578 
 4730000   0.50204062   -9.1398594    507.19402 0.0089357649 0.0072675629          582 
 4731000   0.49417333   -9.1337278    507.83578 0.0089451805 0.0072649427          598 
 4732000   0.49777601    -9.138634    507.70285 0.0089409491 0.0072623253          601 
 4733000   0.50111454   -9.1390549    507.84698 0.0089415976 0.0072597069          578 
 4734000   0.49705223     -9.13509    507.77097 0.0089383709 0.0072570876          596 
 4735000   0.49124526   -9.1418338    506.76149 0.0089187168 0.0072544699          601 
 4736000   0.49117051   -9.1428569    507.34838 0.0089271605 0.0072518559          585 
 4737000   0.48993405   -9.1266032    506.72421 0.0089142954 0.0072492425          594 
 4738000   0.48959025   -9.1400125    507.00209 0.0089173014 0.0072466296          583 
 4739000   0.50000931   -9.1388885    508.35589 0.0089392257 0.0072440217          564 
 4740000   0.50383694   -9.1484297    507.37165 0.0089200361 0.0072414135          600 
 4741000   0.49500276   -9.1420184    508.20457 0.0089327949 0.0072388051          579 
 4742000    0.4978016   -9.1546366    507.62891 0.0089207949 0.0072361969          591 
 4743000    0.4846667    -9.132618     507.9726 0.0089249526 0.0072335915          590 
 4744000   0.48709298   -9.1335858    507.45362 0.0089139549 0.0072309838          596 
 4745000   0.49199369   -9.1403008    507.49977 0.0089128867 0.0072283794          604 
 4746000   0.49312639   -9.1391132    507.19583  0.008905672 0.0072257778          595 
 4747000   0.50322833   -9.1489943    507.32282 0.0089060253 0.0072231746          605 
 4748000   0.49844375   -9.1499941    506.73476 0.0088938283 0.0072205724          594 
 4749000   0.49366738   -9.1447856    507.50534 0.0089054773 0.0072179748          595 
 4750000   0.49581552   -9.1462292    507.18383  0.008897962 0.0072153778          595 
 4751000   0.49343471   -9.1291686    507.82487  0.008907333 0.0072127814          593 
 4752000   0.49667105   -9.1238343    507.27675 0.0088958465 0.0072101859          592 
 4753000    0.4785084   -9.1235672    506.98316 0.0088888275 0.0072075912          588 
 4754000   0.48753624   -9.1519375    507.44162 0.0088949941 0.0072049973          584 
 4755000   0.49131511   -9.1414445    507.35134 0.0088915412 0.0072024047          588 
 4756000   0.49627061   -9.1305256    507.80403 0.0088976036  0.007199814          582 
 4757000    0.4967196   -9.1496133    506.93305 0.0088804753 0.0071972238          590 
 4758000    0.5005265   -9.1490423    507.17537  0.008882853 0.0071946379          601 
 4759000   0.48521303   -9.1266453    507.96738  0.008894855 0.0071920518          593 
 4760000   0.47639991   -9.1306465    508.03308 0.0088941366 0.0071894656          580 
 4761000   0.48873708   -9.1479512    507.63699 0.0088853355 0.0071868795          592 
 4762000   0.47645449   -9.1518819     507.8954 0.0088879917 0.0071842965          575 
 4763000   0.48127893    -9.136598    507.50503 0.0088792957 0.0071817165          611 
 4764000    0.4895717   -9.1412261    506.62001 0.0088619509 0.0071791356          603 
 4765000   0.48331267   -9.1583796    507.45417 0.0088746794 0.0071765538          579 
 4766000   0.47993668   -9.1556166    507.24148 0.0088690985 0.0071739751          590 
 4767000   0.46779595   -9.1628314    507.42637   0.00887047 0.0071713983          579 
 4768000   0.48392822   -9.1684141    506.93253 0.0088599785 0.0071688204          583 
 4769000   0.49358888   -9.1411312    507.20693 0.0088629156 0.0071662455          575 
 4770000    0.4897286   -9.1475425    507.11353 0.0088594258 0.0071636722          571 
 4771000   0.48441044   -9.1499338    506.97106 0.0088550804  0.007161098          607 
 4772000   0.48305496   -9.1358416    506.47691 0.0088445954 0.0071585276          590 
 4773000    0.4882267   -9.1293011    507.48552 0.0088603519 0.0071559572          605 
 4774000   0.49236355   -9.1505975    507.34642 0.0088560679 0.0071533893          581 
 4775000   0.49526197   -9.1425913    507.19251 0.0088515272 0.0071508239          576 
 4776000   0.49113043   -9.1467667    507.78261 0.0088599702 0.0071482573          580 
 4777000   0.48951319   -9.1413935    507.14331 0.0088469631 0.0071456933          591 
 4778000   0.48389499   -9.1512919    506.87926 0.0088405061 0.0071431282          588 
 4779000   0.48860837   -9.1438779    506.76681 0.0088366955 0.0071405651          575 
 4780000   0.49150141   -9.1434698    507.49365 0.0088475183 0.0071380034          603 
 4781000   0.49301577   -9.1479304    506.83512 0.0088341895 0.0071354442          581 
 4782000   0.48042545   -9.1463187    506.82482 0.0088321626 0.0071328848          609 
 4783000   0.48069381   -9.1537338    507.50603 0.0088421846 0.0071303268          591 
 4784000   0.48213658   -9.1338106    507.14623 0.0088340689 0.0071277733          577 
 4785000   0.48477507   -9.1378954    505.99191 0.0088121196 0.0071252199          573 
 4786000   0.48304513   -9.1615168    506.88933 0.0088259042  0.007122667          585 
 4787000   0.47438179   -9.1418991    507.45489 0.0088339059 0.0071201157          586 
 4788000   0.48574963   -9.1591068    507.05347 0.0088250743 0.0071175657          591 
 4789000   0.49648162   -9.1400861    507.57924 0.0088323804 0.0071150152          580 
 4790000   0.49190125   -9.1425596    506.99873 0.0088204371 0.0071124676          586 
 4791000   0.47905015   -9.1610262    507.43053 0.0088261068 0.0071099187          596 
 4792000   0.48598617   -9.1406407    506.75703 0.0088125527 0.0071073739          580 
 4793000   0.50439811   -9.1406557    507.11347 0.0088169112 0.0071048305          593 
 4794000   0.48825157    -9.153016    506.75791 0.0088088915 0.0071022892          575 
 4795000   0.47347548    -9.160299    506.16845 0.0087968101 0.0070997455          584 
 4796000   0.48948816   -9.1558785    507.29058 0.0088144736 0.0070972036          594 
 4797000   0.49631611   -9.1496771    507.52842 0.0088167677  0.007094663          577 
 4798000   0.49536692   -9.1582399    506.71994 0.0088008883 0.0070921233          569 
 4799000   0.48210133   -9.1511077     507.0905 0.0088054891 0.0070895838          582 
 4800000   0.48770267   -9.1660812    506.45381 0.0087926008 0.0070870444          598 
 4801000   0.47960303   -9.1450345    507.51047 0.0088091104 0.0070845068          566 
 4802000   0.48150556   -9.1656048    507.00592 0.0087985201 0.0070819712          604 
 4803000   0.49101189   -9.1606405    506.95631 0.0087958275 0.0070794361          596 
 4804000   0.48166067   -9.1613245     506.9758 0.0087943347 0.0070769026          583 
 4805000   0.49555731   -9.1619981    506.87444 0.0087907464 0.0070743708          587 
 4806000   0.47093165   -9.1548502    506.60288 0.0087842087 0.0070718397          572 
 4807000   0.49055881   -9.1443507    506.95928 0.0087885598 0.0070693105          605 
 4808000    0.4896483   -9.1669828    505.96925 0.0087695725 0.0070667817          591 
 4809000   0.48408491   -9.1718682    506.98308 0.0087853171 0.0070642548          584 
 4810000   0.49153103   -9.1630466    507.09691 0.0087854628 0.0070617293          595 
 4811000    0.4776087    -9.145363    506.75437 0.0087777034 0.0070592053          570 
 4812000   0.48476082   -9.1535881    506.55749 0.0087724696 0.0070566837          576 
 4813000   0.48359804   -9.1602123    507.02412 0.0087787264 0.0070541632          585 
 4814000   0.48962221   -9.1575569    506.58908  0.008769372 0.0070516429          578 
 4815000   0.48673968    -9.149457    506.88266 0.0087726316 0.0070491218          567 
 4816000   0.49354157   -9.1528045    506.85198 0.0087702792 0.0070466024          589 
 4817000   0.48021347   -9.1639685    505.77604  0.008749845 0.0070440836          589 
 4818000   0.49169617   -9.1609933    507.50682 0.0087779649  0.007041568          599 
 4819000   0.47969252   -9.1597757    507.90686 0.0087830612 0.0070390528          579 
 4820000   0.48830878    -9.140592     507.2776 0.0087703596 0.0070365389          585 
 4821000   0.47230318   -9.1464598    506.41716 0.0087536672  0.007034027          579 
 4822000     0.477574   -9.1619253    507.35587 0.0087680747 0.0070315146          583 
 4823000   0.47385161   -9.1607306    506.55012 0.0087523347 0.0070290041          597 
 4824000   0.48344948   -9.1511181    506.38656 0.0087476949 0.0070264941          586 
 4825000   0.48274894   -9.1612044    506.76899 0.0087524869 0.0070239866          599 
 4826000   0.47981529   -9.1557515    506.41809 0.0087446141 0.0070214817          594 
 4827000   0.48176271   -9.1599818    507.42446 0.0087601765 0.0070189776          586 
 4828000   0.47434972   -9.1461366    506.61782  0.008744439 0.0070164704          589 
 4829000   0.46800074   -9.1641912    506.85803 0.0087467734 0.0070139658          596 
 4830000   0.46662534   -9.1804387    507.07899 0.0087487749 0.0070114638          594 
 4831000   0.47848034   -9.1554583    507.10811 0.0087474663 0.0070089603          593 
 4832000   0.47152513   -9.1608953    507.57197 0.0087536556 0.0070064593          576 
 4833000   0.47670394   -9.1671719    506.83581 0.0087391512 0.0070039603          595 
 4834000   0.47527148   -9.1809513    506.82458 0.0087371497 0.0070014603          580 
 4835000   0.48072624   -9.1771609    506.60498 0.0087315577 0.0069989643          576 
 4836000   0.47297141   -9.1555639    506.35123 0.0087253796 0.0069964684          586 
 4837000    0.4817458   -9.1650458    505.98993 0.0087173512 0.0069939755          575 
 4838000   0.47158449   -9.1548058    505.82485 0.0087127058 0.0069914802          581 
 4839000   0.48050058   -9.1696308     506.9101 0.0087295946 0.0069889871          579 
 4840000   0.47794886   -9.1607138    506.86096 0.0087269449 0.0069864976          588 
 4841000   0.47982599   -9.1465159    506.53785 0.0087195802   0.00698401          586 
 4842000    0.4725792   -9.1659157    506.67654 0.0087201663 0.0069815219          573 
 4843000   0.48374702   -9.1692873    507.02746 0.0087244039 0.0069790349          592 
 4844000   0.48953797   -9.1540698    506.17968 0.0087080182 0.0069765496          605 
 4845000   0.47203657   -9.1537956    506.90533  0.008718702 0.0069740659          597 
 4846000   0.47502637   -9.1622737    506.86566 0.0087162206 0.0069715811          607 
 4847000   0.47474234   -9.1676656    506.82212 0.0087136737 0.0069691005          581 
 4848000   0.47607814   -9.1555128    507.06631 0.0087160738 0.0069666196          593 
 4849000    0.4729336   -9.1797221    506.54389 0.0087052981 0.0069641379          608 
 4850000   0.46914416    -9.162693    507.42006 0.0087185578 0.0069616603          611 
 4851000   0.48332747   -9.1706795     506.5633 0.0087020425 0.0069591826          614 
 4852000   0.47634083   -9.1642586    506.48647 0.0086989294 0.0069567054          605 
 4853000   0.46381967   -9.1618471    506.17404 0.0086917721 0.0069542291          592 
 4854000   0.47606957   -9.1419584    506.88503 0.0087021877 0.0069517536          607 
 4855000    0.4806441   -9.1710911    506.42748 0.0086925417 0.0069492805          610 
 4856000   0.47698552   -9.1709754    507.29692 0.0087056721 0.0069468092          585 
 4857000   0.46274161   -9.1778502    506.41537 0.0086887546 0.0069443378          604 
 4858000    0.4700507   -9.1755418    506.42993 0.0086872158 0.0069418685          579 
 4859000   0.47272507   -9.1612964    506.45089 0.0086857874 0.0069394001          589 
 4860000   0.47088207   -9.1656713     506.9671 0.0086928515 0.0069369348          594 
 4861000    0.4753872   -9.1691519    506.99793 0.0086915918 0.0069344706          592 
 4862000   0.47675257   -9.1795993    506.77859 0.0086860446 0.0069320066          599 
 4863000   0.46967109   -9.1629224    506.42071 0.0086781258 0.0069295447          586 
 4864000   0.47324749   -9.1793659    507.30834 0.0086915491 0.0069270826          622 
 4865000   0.48271936   -9.1647852    506.96225 0.0086838343 0.0069246207          605 
 4866000   0.47296176   -9.1716179    507.07814 0.0086840345 0.0069221607          590 
 4867000    0.4694976   -9.1857791    506.66855 0.0086752371  0.006919704          588 
 4868000   0.47201974   -9.1745433    507.01092 0.0086793159  0.006917245          610 
 4869000   0.47795087   -9.1724459    506.38701  0.008666855 0.0069147891          611 
 4870000   0.47343733   -9.1650987    506.45445 0.0086662295 0.0069123327          588 
 4871000   0.47458444   -9.1776503    505.62649 0.0086502856 0.0069098782          591 
 4872000   0.46958098   -9.1642942     507.0563 0.0086729662 0.0069074265          580 
 4873000   0.47462903   -9.1553391    506.54529 0.0086624476 0.0069049757          576 
 4874000     0.468682   -9.1833547    506.31582  0.008656747 0.0069025238          594 
 4875000   0.47020336   -9.1612487    506.44221 0.0086571318  0.006900075          600 
 4876000   0.47095077   -9.1694248    506.49063 0.0086561838 0.0068976271          573 
 4877000   0.46767942   -9.1762175    507.12067 0.0086651745 0.0068951799          579 
 4878000   0.46887077   -9.1567611    506.41725 0.0086513812 0.0068927317          597 
 4879000   0.45943436    -9.170422    505.82437 0.0086394816 0.0068902858          604 
 4880000   0.46604994   -9.1655315    506.61333 0.0086511839 0.0068878426          584 
 4881000   0.47899615   -9.1754694    506.84652 0.0086533928 0.0068853995          578 
 4882000   0.47156927   -9.1680391    506.01062 0.0086373518 0.0068829573          580 
 4883000   0.48343835   -9.1666044    507.28383 0.0086573116 0.0068805191          595 
 4884000   0.47387201   -9.1769622    505.68017 0.0086281765 0.0068780796          601 
 4885000   0.48453537   -9.1855374    507.01413 0.0086491663 0.0068756425          584 
 4886000   0.47752582   -9.1832186    506.64683 0.0086411317 0.0068732049          585 
 4887000   0.48298893   -9.1852876    506.21758 0.0086320438 0.0068707711          574 
 4888000   0.46607232   -9.1674651     506.7578 0.0086394878 0.0068683372          590 
 4889000   0.47949739   -9.1635908    506.05297 0.0086257069 0.0068659037          582 
 4890000   0.46969995   -9.1838637    506.24006 0.0086271312 0.0068634718          579 
 4891000   0.46464116   -9.1728764    506.82397 0.0086353161 0.0068610403          591 
 4892000   0.46292985   -9.1595305    506.82032 0.0086334888 0.0068586105          590 
 4893000   0.47937756   -9.1618663    506.05634 0.0086187128 0.0068561811          587 
 4894000   0.47872355   -9.1658347    505.82929 0.0086130856 0.0068537528          596 
 4895000   0.46598611   -9.1669723    507.16798 0.0086341161 0.0068513259          591 
 4896000   0.46164797    -9.166163     506.5625 0.0086220469 0.0068489001          578 
 4897000   0.46590405   -9.1672771    505.99671  0.008610658 0.0068464756          616 
 4898000   0.47369983   -9.1711585    506.27052 0.0086135587 0.0068440516          591 
 4899000   0.46293336   -9.1758237    506.01065 0.0086073799 0.0068416304          599 
 4900000   0.46442902   -9.1809588    506.85684 0.0086200143 0.0068392117          604 
 4901000   0.47663815   -9.1804473    506.02417 0.0086040972 0.0068367906          587 
 4902000   0.45905257   -9.1953133    506.72192 0.0086142037 0.0068343722          604 
 4903000   0.46961971   -9.1954108    505.98859 0.0085999829 0.0068319523          603 
 4904000   0.47221092   -9.1730635    506.39682 0.0086051661 0.0068295355          579 
 4905000   0.47118774   -9.1932323    506.46938 0.0086046446 0.0068271193          588 
 4906000   0.46645806   -9.1878447    506.87649 0.0086098058 0.0068247059          614 
 4907000   0.45977888   -9.1809866     506.3109  0.008598446 0.0068222931          610 
 4908000   0.47618925   -9.1799807     505.7281 0.0085867988 0.0068198813          618 
 4909000   0.46520476   -9.1825911    506.69905  0.008601532 0.0068174699          599 
 4910000    0.4615122   -9.1799296    506.77862 0.0086011307 0.0068150584          617 
 4911000   0.46137893   -9.1644541    506.10715 0.0085879854  0.006812647          589 
 4912000   0.45654804   -9.1847476    506.67267 0.0085958311 0.0068102371          610 
 4913000   0.46353077   -9.1730416    506.48932 0.0085909716 0.0068078306          587 
 4914000   0.47503758   -9.1813075    505.98118 0.0085806062 0.0068054233          616 
 4915000   0.45309809    -9.180589    507.08784 0.0085976237   0.00680302          611 
 4916000   0.46432184   -9.1794426    506.23153  0.008581359 0.0068006162          581 
 4917000    0.4666483    -9.175254    506.41364 0.0085827001 0.0067982145          610 
 4918000   0.46958871   -9.1658116        506.4 0.0085807239 0.0067958138          604 
 4919000   0.46519208   -9.1966287    506.13364  0.008574467 0.0067934138          584 
 4920000   0.46746949   -9.1915539    506.14623 0.0085729375  0.006791016          604 
 4921000   0.46119398    -9.184563    505.96716 0.0085681629 0.0067886178          597 
 4922000   0.47045543   -9.1736546    506.76464 0.0085799241 0.0067862212          594 
 4923000   0.45762425   -9.1862694    506.23363 0.0085691927 0.0067838259          607 
 4924000   0.46652558   -9.1786742    506.29836 0.0085685479  0.006781432          598 
 4925000   0.47052788   -9.1844747    505.65669 0.0085559507 0.0067790368          595 
 4926000   0.46282247   -9.1723023    506.65087 0.0085710324 0.0067766462          610 
 4927000   0.45254879   -9.1853702    506.05184  0.008559161 0.0067742533          595 
 4928000   0.47266411   -9.1696918    505.72464 0.0085518913 0.0067718612          598 
 4929000   0.46128113   -9.1890406    506.29371 0.0085597774 0.0067694734          600 
 4930000   0.44850673   -9.1766632    507.13062 0.0085721877 0.0067670861          615 
 4931000   0.45630956   -9.1889455    505.75311 0.0085471694 0.0067646993          609 
 4932000   0.46385247   -9.1763556    506.13376  0.008551868   0.00676231          595 
 4933000   0.46373807   -9.1755563    506.16996 0.0085507461  0.006759924          594 
 4934000   0.46836779   -9.1782237    505.82807 0.0085432385 0.0067575389          599 
 4935000   0.45848422   -9.1852425    506.24388 0.0085485288 0.0067551547          593 
 4936000   0.46094433   -9.1859334    506.00613 0.0085427831 0.0067527715          601 
 4937000   0.46484719   -9.1952168     506.4097 0.0085478648 0.0067503888          609 
 4938000   0.46498181   -9.1839059    505.99723 0.0085391729 0.0067480085          597 
 4939000   0.46406539   -9.1839155    505.82767 0.0085345831 0.0067456307          583 
 4940000   0.45740286   -9.1866056    506.85779 0.0085502326 0.0067432543          606 
 4941000   0.47098719   -9.1695556    506.09595 0.0085356533 0.0067408795          601 
 4942000   0.45681519   -9.1933958    505.84948   0.00852977 0.0067385043          587 
 4943000   0.47538472   -9.1970065     505.9442 0.0085296413 0.0067361299          594 
 4944000   0.46326394   -9.1840534    506.48129 0.0085369689 0.0067337583          590 
 4945000   0.45889468   -9.1929516    506.22914 0.0085309933 0.0067313862          606 
 4946000   0.46531003   -9.1858008    505.76731 0.0085214872 0.0067290158          602 
 4947000   0.45851618   -9.1808911    506.45974 0.0085314288  0.006726646          623 
 4948000   0.46147398   -9.1822935    505.29334 0.0085100604 0.0067242781          601 
 4949000   0.45339333   -9.1771243    505.90826 0.0085186951 0.0067219112          580 
 4950000    0.4737488   -9.1887121    506.54831 0.0085277493 0.0067195472          606 
 4951000   0.46669672   -9.1844748    506.02239 0.0085171749 0.0067171836          622 
 4952000   0.45575354    -9.204157      506.634 0.0085257471 0.0067148193          592 
 4953000   0.45287093   -9.2080375    505.73647 0.0085089251 0.0067124555          610 
 4954000   0.46151153   -9.1963737    505.31991 0.0085002003 0.0067100934          607 
 4955000   0.45702189   -9.1771621    506.42572 0.0085170824 0.0067077346          595 
 4956000   0.45846925   -9.1966771    506.50702 0.0085167309 0.0067053751          607 
 4957000   0.45434625   -9.2008241     505.4905 0.0084979239 0.0067030166          598 
 4958000   0.46347998   -9.1960614    505.53843 0.0084970154 0.0067006591          613 
 4959000   0.45939356   -9.1750835    505.19266 0.0084894916 0.0066983033          609 
 4960000    0.4637617   -9.2035946    506.53299 0.0085102989  0.006695948          587 
 4961000   0.46699398   -9.1820197    507.50261 0.0085248709 0.0066935946          577 
 4962000   0.45700425   -9.1925278    505.94928 0.0084970656 0.0066912412          607 
 4963000   0.45134062   -9.1853673    506.01454 0.0084964495 0.0066888889          590 
 4964000   0.45593734   -9.1862006    506.36073 0.0085005494 0.0066865379          606 
 4965000   0.45288112   -9.1970254    505.29457 0.0084809428 0.0066841879          608 
 4966000   0.45430694   -9.1968479    505.96072 0.0084904134 0.0066818378          590 
 4967000   0.46271322   -9.2013434    506.35819 0.0084953727 0.0066794884          584 
 4968000   0.45685095    -9.206448    506.10879 0.0084894791 0.0066771414          606 
 4969000     0.463778   -9.1809093    505.87936 0.0084839229  0.006674795          616 
 4970000   0.45458461   -9.1905294     506.1714 0.0084871128 0.0066724509          606 
 4971000   0.45770761   -9.1863489     506.1532 0.0084851002 0.0066701097          609 
 4972000   0.45780837   -9.1902693    506.01638 0.0084811004 0.0066677679          612 
 4973000   0.43911385   -9.1950427     505.6327 0.0084729657 0.0066654266          616 
 4974000   0.45973181   -9.1875966    506.12841 0.0084795673  0.006663086          608 
 4975000   0.46067205   -9.1996704    506.28267 0.0084804468  0.006660749          591 
 4976000   0.46877472   -9.1919112    506.01694 0.0084742923 0.0066584108          630 
 4977000   0.45588231   -9.1878508    506.08462 0.0084737229 0.0066560739          590 
 4978000   0.45971631   -9.1938038    506.16833 0.0084734218 0.0066537384          602 
 4979000    0.4588047   -9.2080151    506.21871 0.0084725633 0.0066514029          602 
 4980000   0.45390831   -9.1907217    506.65133 0.0084781013 0.0066490687          594 
 4981000   0.47284803   -9.1940777     505.4706 0.0084566452 0.0066467341          611 
 4982000   0.45059497   -9.1912302    505.77687 0.0084600708 0.0066444038          610 
 4983000   0.45219399   -9.1985262    505.67498 0.0084566691 0.0066420728          588 
 4984000   0.45171791   -9.2108597     505.7687 0.0084565392 0.0066397423          620 
 4985000   0.45684092   -9.2113968    505.67814  0.008453329 0.0066374125          605 
 4986000   0.46530451   -9.1890783    505.31291 0.0084455293 0.0066350843          589 
 4987000   0.45436946   -9.1960505    505.67807 0.0084499377 0.0066327568          615 
 4988000   0.46147198   -9.2200457    506.08068 0.0084549699 0.0066304298          609 
 4989000   0.45393476   -9.1964484    505.34052  0.008440912 0.0066281068          591 
 4990000   0.46231415   -9.1874834    505.82456 0.0084473039 0.0066257843          605 
 4991000   0.44883803     -9.17332    506.44447 0.0084559618 0.0066234633          596 
 4992000     0.454518   -9.2123484     506.0747 0.0084480953 0.0066211444          603 
 4993000   0.45051007   -9.1936207    505.27311 0.0084330248  0.006618825          607 
 4994000   0.45449025   -9.1978458    506.19711 0.0084467547 0.0066165049          613 
 4995000   0.45883775   -9.2009441    505.09523 0.0084266805  0.006614187          605 
 4996000   0.44367473   -9.2162931    505.64943 0.0084342379 0.0066118705          617 
 4997000   0.45878751   -9.1985205     506.3203  0.008443738  0.006609556          599 
 4998000    0.4565356   -9.2030214    505.35127 0.0084258915 0.0066072402          591 
 4999000   0.44942235   -9.2074983    505.78861 0.0084314965 0.0066049253          602 
 5000000   0.45358745   -9.2084394    505.91215 0.0084318692 0.0066026126          611 
 5001000   0.45762484   -9.1933751    504.78131 0.0084113395 0.0066003004          611 
 5002000   0.44885543   -9.2031922    505.54825 0.0084224352  0.006597989          598 
 5003000   0.44289186   -9.2112076    506.36934 0.0084344283 0.0065956793          607 
 5004000   0.45602102   -9.2097055     505.4921 0.0084181338 0.0065933729          609 
 5005000   0.45289501   -9.1885233    505.23522 0.0084121748 0.0065910661          585 
 5006000   0.45755325   -9.2011509    505.67099 0.0084177485 0.0065887608          611 
 5007000   0.45044153   -9.1952685    505.52825 0.0084136917 0.0065864563          599 
 5008000   0.45748672   -9.2149128    505.69751 0.0084148281 0.0065841527          591 
 5009000    0.4478373   -9.2136738    506.00074 0.0084181929 0.0065818501          611 
 5010000   0.44610037   -9.2139082    505.79285 0.0084130548 0.0065795483          592 
 5011000   0.44367404    -9.196137    505.93742   0.00841378 0.0065772455          576 
 5012000   0.45380414   -9.2032879    505.33388 0.0084020663 0.0065749452          605 
Loop time of 12670.9 on 48 procs for 5000000 steps with 4000 atoms

Performance: 68187.567 tau/day, 394.604 timesteps/s
99.4% CPU use with 48 MPI tasks x no OpenMP threads

MPI task timing breakdown:
Section |  min time  |  avg time  |  max time  |%varavg| %total
---------------------------------------------------------------
Pair    | 885.16     | 949.71     | 1008       |  94.4 |  7.50
Neigh   | 83.951     | 87.797     | 90.906     |  20.7 |  0.69
Comm    | 804.37     | 871.09     | 946.77     | 107.4 |  6.87
Output  | 52.235     | 52.241     | 52.348     |   0.2 |  0.41
Modify  | 10573      | 10597      | 10620      |  11.6 | 83.63
Other   |            | 113.5      |            |       |  0.90

Nlocal:        83.3333 ave          92 max          78 min
Histogram: 5 2 15 7 6 5 3 3 1 1
Nghost:        2286.90 ave        2315 max        2268 min
Histogram: 5 5 6 8 10 7 2 2 2 1
Neighs:        15505.1 ave       17949 max       14278 min
Histogram: 4 11 8 9 6 5 1 2 1 1
FullNghs:      31010.1 ave       35440 max       28764 min
Histogram: 4 6 15 10 5 3 2 2 0 1

Total # of neighbors = 1488487
Ave neighs/atom = 372.12175
Neighbor list builds = 266389
Dangerous builds = 0

#clear
#
#next RN
#
#jump SELF
Total wall time: 3:31:14
