
units lj                  # Use reduced LJ style units
atom_style atomic         # Uncharged point particles
atom_modify map hash      # Needed for indexing of clusters etc
                          # Used to be able to find where atoms are in relation to each other.

lattice fcc 1.0 spacing 1 1 1
Lattice spacing in x,y,z = 1.5874011 1.5874011 1.5874011
region box block 0 10 0 10 0 10 units lattice
create_box 2 box
Created orthogonal box = (0.0000000 0.0000000 0.0000000) to (15.874011 15.874011 15.874011)
  3 by 4 by 4 MPI processor grid
create_atoms 1 box
Created 4000 atoms
  using lattice units in orthogonal box = (0.0000000 0.0000000 0.0000000) to (15.874011 15.874011 15.874011)
  create_atoms CPU = 0.015 seconds
set type 1 type/fraction 2 0.34 78393
Setting atom values ...
  1376 settings made for type/fraction
mass 1 1.0
mass 2 1.0
pair_style lj/cut  3.5
pair_modify tail  yes
pair_coeff 1  1  1.0  1.0   # Intearaction between 1 and 1 set with epsilon = 1 and sigma = 1
pair_coeff 1  2  1.5  0.8
pair_coeff 2  2  0.5  0.88

write_data data.0
System init for write_data ...
Neighbor list info ...
  update every 1 steps, delay 10 steps, check yes
  max neighbors/atom: 2000, page size: 100000
  master list distance cutoff = 3.8
  ghost atom cutoff = 3.8
  binsize = 1.9, bins = 9 9 9
  1 neighbor lists, perpetual/occasional/extra = 1 0 0
  (1) pair lj/cut, perpetual
      attributes: half, newton on
      pair build: half/bin/atomonly/newton
      stencil: half/bin/3d
      bin: standard
WARNING: Not all mixed pair coeffs generated from mixing. Use write_data with 'pair ij' option to store all pair coeffs. (../write_data.cpp:312)


#############################
#   M E L T   S Y S T E M   #
#############################

velocity all create 2.4 3143649 mom yes dist gaussian # Assign velocities
                                                    # Temperature 2.4, random number seed, zero linear momentum
                                                                                # Gaussian distribution

timestep 0.002   # simulation timestep
thermo 1000       # output thermodynamic data every 1000 steps bf 100

# Define a fix  in this case with index 1 applied to all
# particles in the simulation. This fix is for simulations
# in the anisotropic NPT ensemble. Note that we use the MTK
# correction.
fix 1 all npt temp 2.4 2.4 0.1 iso 5.68 5.68 0.5 mtk yes tchain 5 pchain 5 # Use NPT ensemble
                                                                         # Set temperature and pressure and damping
                                                                         # Numbers of thermostats in chain and in barostat
run 10000          # run for 10000 steps
Per MPI rank memory allocation (min/avg/max) = 3.642 | 3.644 | 3.648 Mbytes
Step Temp E_pair E_mol TotEng Press Volume 
       0          2.4   -6.2108987            0   -2.6117987   -4.0679274         4000 
    1000     2.437541   -5.0269977            0   -1.3716003    5.6434182    4045.9817 
    2000    2.3743167   -5.1000175            0   -1.5394327    5.7358029    4000.3313 
    3000    2.4117449   -5.0078282            0   -1.3911153     5.798293    4046.2945 
    4000    2.3971429   -5.0044574            0    -1.409642    5.8621826    4037.4338 
    5000    2.4033241   -5.0070239            0    -1.402939    5.6626843    4052.6698 
    6000     2.415157    -4.986369            0   -1.3645392    5.6907943    4058.2378 
    7000    2.3748412   -5.0568343            0   -1.4954631    5.7500312    4015.4727 
    8000    2.3854323   -5.0362341            0   -1.4589802      5.72428    4030.9727 
    9000    2.3930971   -4.9546212            0    -1.365873     5.794402    4059.0877 
   10000     2.425443   -5.0339726            0   -1.3967177     5.592857    4048.0224 
Loop time of 2.48494 on 48 procs for 10000 steps with 4000 atoms

Performance: 695387.951 tau/day, 4024.236 timesteps/s
99.6% CPU use with 48 MPI tasks x no OpenMP threads

MPI task timing breakdown:
Section |  min time  |  avg time  |  max time  |%varavg| %total
---------------------------------------------------------------
Pair    | 1.0714     | 1.1485     | 1.2363     |   3.7 | 46.22
Neigh   | 0.20216    | 0.21381    | 0.22919    |   1.1 |  8.60
Comm    | 0.73818    | 0.85678    | 0.93113    |   4.6 | 34.48
Output  | 0.00024783 | 0.00025431 | 0.0003222  |   0.0 |  0.01
Modify  | 0.21532    | 0.25004    | 0.2859     |   4.3 | 10.06
Other   |            | 0.01559    |            |       |  0.63

Nlocal:        83.3333 ave          91 max          75 min
Histogram: 1 7 2 7 4 8 5 5 7 2
Nghost:        1630.42 ave        1656 max        1595 min
Histogram: 1 0 2 6 4 10 14 8 1 2
Neighs:        9436.54 ave       10595 max        8503 min
Histogram: 4 4 6 6 8 6 7 4 1 2

Total # of neighbors = 452954
Ave neighs/atom = 113.23850
Neighbor list builds = 899
Dangerous builds = 173

# Equilibrate just above the melting temperature to avoid step fn in T

fix 1 all npt temp 1.25 1.25 0.1 iso 5.68 5.68 0.5 mtk yes tchain 5 pchain 5
run 2000
Per MPI rank memory allocation (min/avg/max) = 3.643 | 3.645 | 3.649 Mbytes
Step Temp E_pair E_mol TotEng Press Volume 
   10000     2.425443   -5.0339726            0   -1.3967177     5.592857    4048.0224 
   11000    1.2363536   -6.9323067            0   -5.0782399    5.4612806    3248.9103 
   12000    1.2467843    -6.993187            0   -5.1234782    5.4410137    3237.0251 
Loop time of 0.588368 on 48 procs for 2000 steps with 4000 atoms

Performance: 587387.921 tau/day, 3399.236 timesteps/s
99.6% CPU use with 48 MPI tasks x no OpenMP threads

MPI task timing breakdown:
Section |  min time  |  avg time  |  max time  |%varavg| %total
---------------------------------------------------------------
Pair    | 0.25132    | 0.28339    | 0.3083     |   2.4 | 48.17
Neigh   | 0.037824   | 0.041025   | 0.043585   |   0.7 |  6.97
Comm    | 0.18626    | 0.21402    | 0.25001    |   3.1 | 36.38
Output  | 5.4558e-05 | 5.585e-05  | 7.0993e-05 |   0.0 |  0.01
Modify  | 0.042272   | 0.045095   | 0.048422   |   0.7 |  7.66
Other   |            | 0.004777   |            |       |  0.81

Nlocal:        83.3333 ave          92 max          74 min
Histogram: 1 3 5 5 3 14 7 5 2 3
Nghost:        1889.48 ave        1920 max        1864 min
Histogram: 2 5 4 6 10 11 4 2 3 1
Neighs:        11809.5 ave       13502 max       10106 min
Histogram: 1 4 5 4 8 10 10 1 3 2

Total # of neighbors = 566858
Ave neighs/atom = 141.71450
Neighbor list builds = 143
Dangerous builds = 11

#############################
# L I N E A R  Q U E N C H  #
#############################

# Define solid atoms. This closely follows ten Wolde  Ruiz-Montero and Frenkel  Faraday Discuss  1996  104  93-110
# Compute components of the per-atom q6 vector
compute q6 all orientorder/atom degrees 1 6 components 6 nnn NULL cutoff 1.3 # compute the Q6 parameter.
                                                                             # Use all neighbours within 1.3 unit cell.

# get number of connections
compute coord_number all coord/atom orientorder q6 0.5

# An atom is solid if it has 8 or more connections (of a possible 14)
variable is_solid atom c_coord_number>=8
group solid dynamic all var is_solid    # Must be dynamic to update
dynamic group solid defined

# do clustering
compute cluster solid cluster/atom 1.3 # Create a cluster where all atoms within are solid and max 1.3 units from another member

# define chunks one chunk per cluster
compute clus_chunks solid chunk/atom c_cluster nchunk every compress yes  # Says which atoms are in which chunk

# count the size of each chunk
compute size_chunks solid property/chunk clus_chunks count


# Find the maximum entry in the vector of chunk sizes
variable max_n equal max(c_size_chunks)


# Thermo style which includes this variable
# thermo_style custom step temp pe vol v_max_n

thermo ${N}  # Print the thermo information every 100 steps
thermo 1000  

# Reset the npt fix at a lower temperature (below freezing)
fix 1  all npt temp  ${temp} ${temp}  0.1  iso  5.68  5.68  0.5  mtk yes tchain  5  pchain  5
fix 1  all npt temp  0.45 ${temp}  0.1  iso  5.68  5.68  0.5  mtk yes tchain  5  pchain  5
fix 1  all npt temp  0.45 0.45  0.1  iso  5.68  5.68  0.5  mtk yes tchain  5  pchain  5

dump dmp2 all dcd ${N} traj.dcd
dump dmp2 all dcd 1000 traj.dcd


compute msd all msd com yes
variable twopoint equal c_msd[4]/6/(step*dt+1.0e-6)
fix 9 all vector 10 c_msd[4]
variable fit equal slope(f_9)/6/(10*dt)
thermo_style custom step temp pe c_msd[4] v_twopoint v_fit v_max_n

fix 1 all npt temp 1.25 ${temp} 0.1 iso 5.68 5.68 0.5 mtk yes tchain 5 pchain 5
fix 1 all npt temp 1.25 0.45 0.1 iso 5.68 5.68 0.5 mtk yes tchain 5 pchain 5
run 2000000 # 5000000  # Run for this many steps
Neighbor list info ...
  update every 1 steps, delay 10 steps, check yes
  max neighbors/atom: 2000, page size: 100000
  master list distance cutoff = 3.8
  ghost atom cutoff = 3.8
  binsize = 1.9, bins = 8 8 8
  4 neighbor lists, perpetual/occasional/extra = 1 3 0
  (1) pair lj/cut, perpetual
      attributes: half, newton on
      pair build: half/bin/atomonly/newton
      stencil: half/bin/3d
      bin: standard
  (2) compute orientorder/atom, occasional
      attributes: full, newton on
      pair build: full/bin/atomonly
      stencil: full/bin/3d
      bin: standard
  (3) compute coord/atom, occasional
      attributes: full, newton on
      pair build: full/bin/atomonly
      stencil: full/bin/3d
      bin: standard
  (4) compute cluster/atom, occasional
      attributes: full, newton on
      pair build: full/bin/atomonly
      stencil: full/bin/3d
      bin: standard
Per MPI rank memory allocation (min/avg/max) = 9.815 | 9.820 | 9.825 Mbytes
Step Temp PotEng c_msd[4] v_twopoint v_fit v_max_n 
   12000    1.2467843    -6.993187 1.5288124e-30 1.0616753e-32 8.3333333e+20            1 
   13000    1.2499277   -6.9564581   0.49479789 0.0031717812  0.040602593            1 
   14000    1.2508901    -6.968279   0.95586441 0.0056896689  0.038811298            1 
   15000    1.2367984   -6.9414062    1.4511854 0.0080621409  0.039618861            1 
   16000    1.2487322   -6.9403698    1.8977149 0.0098839313  0.039228334            2 
   17000    1.2630884   -7.0371968      2.33434  0.011442843  0.039013037            2 
   18000    1.2555619   -6.9405244    2.7941514  0.012935886  0.038617856            1 
   19000    1.2561988   -6.9902835    3.2112808  0.014084565  0.038202131            2 
   20000    1.2344565    -6.985058    3.6323622  0.015134842  0.037804894            1 
   21000    1.2598561   -7.0053924     4.043437  0.016045384  0.037324449            2 
   22000    1.2505542   -6.9770206     4.530394  0.017160583  0.037233396            1 
   23000     1.255056   -7.0215406    4.9527704   0.01794482   0.03717325            3 
   24000    1.2336458   -7.0232905    5.4655594  0.018977637  0.037223717            1 
   25000    1.2252646   -6.9944799    5.9154603  0.019718201  0.037278495            1 
   26000    1.2467917   -7.0350674    6.3411988  0.020324355   0.03735272            2 
   27000    1.2783985   -6.9935383    6.8244343  0.021063068  0.037396076            1 
   28000    1.2199327   -6.9842176    7.3042867  0.021738948  0.037461125       -1e+20 
   29000    1.2394724   -7.0249006    7.8649148  0.022600329  0.037604207            1 
   30000    1.2646809   -6.9878976    8.4067304  0.023352029  0.037867797            1 
   31000    1.2563605   -6.9670377    8.8329076  0.023744375  0.038117278            1 
   32000    1.2487831   -6.9989696    9.2169067  0.024002361  0.038239612            1 
   33000    1.2567361   -6.9718374    9.7222312  0.024551089  0.038303099            2 
   34000     1.251516   -6.9917291    10.288385   0.02521663  0.038429122            3 
   35000    1.2476157   -7.0159591    10.682447  0.025434397  0.038537053       -1e+20 
   36000    1.2302703   -6.9761763    11.074044  0.025634361  0.038556101            1 
   37000    1.2435629   -7.0097411    11.528062  0.025964104  0.038543093            1 
   38000    1.2374073   -6.9843257    12.004656     0.026326   0.03852985            1 
   39000    1.2441565   -6.9960107     12.45578  0.026614913  0.038523604            2 
   40000    1.2309467   -6.9806907    12.837751  0.026745315  0.038479522            1 
   41000     1.214178   -7.0287844    13.224652  0.026879373  0.038429011            3 
   42000    1.2166757   -7.0022028    13.648189   0.02707974   0.03835417            3 
   43000    1.2184108   -7.0457998     14.03471   0.02719905  0.038254219            1 
   44000    1.2124928   -7.0332058    14.470888  0.027406984  0.038154554            2 
   45000    1.2588929   -6.9924804    14.958989  0.027701832  0.038070167            1 
   46000    1.2418243   -7.0498489    15.297609   0.02771306   0.03797626            2 
   47000    1.2288114   -6.9807247    15.703227  0.027842601  0.037858209            1 
   48000     1.228139   -7.0223715    16.055805   0.02787466  0.037754386            1 
   49000    1.2414907   -7.0002452    16.585414  0.028206486  0.037665837            1 
   50000    1.2256829   -6.9964714    16.994358   0.02832393  0.037587962            2 
   51000    1.2329926   -7.0267146    17.378137  0.028395648  0.037486545            2 
   52000    1.2497351   -7.0072176    18.009629  0.028861585  0.037438412            1 
   53000    1.2239804   -7.0151573    18.435582  0.028986764  0.037402796            3 
   54000    1.2270055   -7.0494425    18.869525  0.029119637  0.037377213            3 
   55000    1.2253805   -7.0163894    19.260945  0.029183249  0.037350324            2 
   56000     1.223862    -7.014538    19.601068  0.029168256   0.03730195            2 
   57000    1.2422852   -7.0246166    20.078209  0.029354106  0.037248634            1 
   58000    1.2448331   -7.0501467    20.475251  0.029418465  0.037198867            1 
   59000    1.2256776   -7.0093547    20.970308  0.029619079  0.037164663            2 
   60000    1.2205623   -7.0228172    21.357832  0.029663656  0.037120292            1 
   61000     1.218485   -7.0312073    21.846679   0.02984519  0.037083576       -1e+20 
   62000    1.2367522   -7.0048448    22.276335  0.029941311  0.037056665            1 
   63000    1.2188285   -7.0302421     22.58921  0.029879908  0.037017229            2 
   64000    1.2385207   -7.0039955    22.997306  0.029944409  0.036966323            2 
   65000    1.2518021   -7.0134947    23.271091  0.029834731  0.036904309            2 
   66000    1.2279572   -7.0158042    23.807958  0.030060553  0.036841132            1 
   67000    1.2223304   -7.0398469    24.086699  0.029958581  0.036783713            2 
   68000    1.2348316   -7.0120347    24.432408  0.029941677   0.03670642            1 
   69000    1.2232121   -7.0472767    24.783075   0.02993125  0.036620999            3 
   70000    1.2326022   -7.0701983    25.040812   0.02981049  0.036536806            4 
   71000    1.2120306   -7.0364599      25.6925  0.030155517  0.036463844            2 
   72000    1.1983296   -7.0398206    26.113734  0.030224229  0.036400755            1 
   73000    1.2274999   -7.0449289    26.347277    0.0300768  0.036333136            2 
   74000    1.2258677   -7.0301939    26.842392  0.030227919  0.036262035            1 
   75000    1.2140155   -7.0195599    27.381654  0.030424059  0.036205333            1 
   76000    1.2522271   -7.0640889    27.628674  0.030294599  0.036149869            2 
   77000    1.2306323   -7.0709093    28.220669  0.030541849  0.036106104            2 
   78000    1.2081076   -7.0573068    28.661067  0.030620798  0.036066417            1 
   79000    1.2237339   -6.9724858    29.114615  0.030711619  0.036028003            2 
   80000    1.2216984   -7.0525241    29.302493   0.03052343  0.035981029            1 
   81000    1.2066125   -7.0698817     29.60787  0.030460771  0.035929267            2 
   82000    1.2134803   -7.0123259    30.050398  0.030539022  0.035871753            3 
   83000    1.2449507   -7.0890737    30.475607  0.030597998  0.035820234            1 
   84000    1.2271293   -7.0336251     30.86713  0.030622153  0.035769782            1 
   85000    1.2258369   -7.0410703    31.422542  0.030806413   0.03572649            1 
   86000    1.1916154   -7.0191071    31.898347  0.030909251  0.035690215            1 
   87000    1.2214976    -7.049296    32.195554  0.030838653  0.035650578            1 
   88000    1.2256967   -7.0266608    32.564915  0.030837988  0.035608194            1 
   89000     1.210596   -7.0309918    32.989123  0.030888692  0.035562994            1 
   90000    1.2347477   -7.0266216     33.46737  0.030988305  0.035524058            1 
   91000    1.2215293   -7.0577666    33.897602   0.03104176  0.035484874            2 
   92000    1.2266525    -7.048356    34.165857  0.030947334  0.035447614            1 
   93000    1.1988964   -7.0230723    34.631995  0.031032254  0.035415145            1 
   94000    1.2137816   -7.0703201    34.871676  0.030914606  0.035375719            2 
   95000    1.2466576    -7.054567    35.315663  0.030978652  0.035335593            2 
   96000      1.20111   -7.0526569    35.695622  0.030985783  0.035292783            3 
   97000    1.2068776   -7.0579212    36.082245  0.030998492  0.035256293            2 
   98000    1.2408849   -7.0605753    36.340714  0.030901968  0.035214935            6 
   99000    1.2416536    -7.061242    36.617248  0.030822599  0.035169883            5 
  100000    1.2146686   -7.0337655    37.016647  0.030847205  0.035118517            2 
  101000     1.206015   -7.0312875    37.361609   0.03082641  0.035066589            1 
  102000    1.2095462   -7.0347561    37.690424   0.03079283  0.035018241            2 
  103000    1.2282386   -7.0676387    37.985637  0.030732716  0.034972014            1 
  104000    1.2102602   -7.0390993    38.542873  0.030883712   0.03492474            1 
  105000    1.2184763   -7.0536041    38.943023  0.030907161  0.034878664            1 
  106000    1.2201899   -7.0610018     39.47868  0.031036698  0.034834393            2 
  107000    1.1892377   -7.1153515    39.835199  0.031024298  0.034799578            1 
  108000    1.2177523    -7.048703    40.150369  0.030980223  0.034759986            1 
  109000    1.1849021   -7.0609418    40.679104  0.031100233  0.034722845            2 
  110000    1.2122303   -7.0783492    41.179368  0.031196491  0.034689621            2 
  111000    1.2126905   -7.0404864    41.594382  0.031227013  0.034658904            1 
  112000    1.1776107   -7.0346391    42.007676  0.031255711  0.034632431            1 
  113000    1.2450002   -7.0404459    42.232006  0.031144547  0.034603905            2 
  114000    1.2017262   -7.0871331    42.657048  0.031182052  0.034576433            2 
  115000    1.2034475   -6.9948551    43.250999  0.031341304   0.03455375            2 
  116000    1.2036904   -7.0733711    43.488018  0.031241392  0.034534112            1 
  117000    1.2054714   -7.0651163    43.826516  0.031215467  0.034508598            1 
  118000    1.2297363   -7.0608275    44.463349   0.03140067  0.034491527            1 
  119000    1.2277651   -7.0974543    44.816009  0.031383759  0.034474049            1 
  120000    1.2236037   -7.0650504    45.258322   0.03142939   0.03445743            3 
  121000    1.1902174   -7.0804093    45.523891  0.031352542  0.034438419            1 
  122000    1.2159352   -7.0120166    46.195019  0.031553975  0.034419503            1 
  123000    1.1852168   -7.1061417    46.335486  0.031392606  0.034403494            1 
  124000    1.2247838   -7.0818186    46.496913  0.031247925  0.034380466            1 
  125000    1.2135825   -7.1013386    46.846877  0.031231251  0.034355006            3 
  126000    1.1945905   -7.0246858    47.421167  0.031363206  0.034327801            2 
  127000    1.2212403    -7.085789    47.412764  0.031110737  0.034298677            1 
  128000    1.1830621   -7.0291559    48.146727  0.031345525  0.034266687            1 
  129000    1.1952801   -7.0798601    48.223021  0.031151822  0.034237091            4 
  130000    1.2092165   -7.0966215    48.739851  0.031243494  0.034209969            1 
  131000    1.1906118   -7.0769863    48.925412  0.031123035  0.034175311            1 
  132000    1.1992388   -7.0404507     49.44212  0.031213459  0.034143385            1 
  133000    1.2230927   -7.0617082    49.911345  0.031272772  0.034116202            1 
  134000    1.2570153   -7.0840713    50.241958  0.031244999  0.034088395            5 
  135000    1.1968707   -7.0675388    50.806294   0.03136191  0.034063686            1 
  136000     1.208988   -7.0725284    51.162167  0.031349367  0.034041569            1 
  137000    1.2032812   -7.0757608    51.698883  0.031447009  0.034024177            1 
  138000    1.2051887   -7.1322572    51.922624  0.031354241  0.034008615            2 
  139000    1.2059404    -7.077149    52.631343  0.031553563   0.03399669            1 
  140000    1.2108899   -7.0821045     53.12081   0.03161953  0.033986537            1 
  141000    1.2020966   -7.0989293    53.415841  0.031569646  0.033977028            1 
  142000    1.2292464   -7.0970462    53.911027  0.031637927  0.033966412            4 
  143000    1.1901502   -7.0778677    54.249687  0.031614036  0.033955409            2 
  144000    1.1880794   -7.0528018    54.837015  0.031734383  0.033949608            1 
  145000    1.2033691   -7.1106796    55.104823  0.031669439  0.033945768            2 
  146000    1.2030955   -7.0996162    55.365732  0.031601445   0.03393407            1 
  147000     1.191611   -7.0842987    55.803197  0.031634465  0.033924192            1 
  148000    1.2136767   -7.1228212    56.392608  0.031752594  0.033916724            1 
  149000    1.2160652   -7.0941251    56.554604  0.031630092  0.033912207            1 
  150000    1.1947174   -7.1016225    56.732132  0.031517851  0.033901126            3 
  151000    1.1862946   -7.0934269    57.049303  0.031484163  0.033885355            1 
  152000    1.2078166   -7.1129578    57.488667  0.031517909  0.033869328            2 
  153000    1.1818459   -7.1354745    57.903843  0.031538041   0.03385421            2 
  154000    1.1870201    -7.101283    58.486351  0.031648458  0.033840713            1 
  155000    1.1963468   -7.0729835    58.851257  0.031640461  0.033829297            1 
  156000    1.1951362   -7.0698339    59.462773  0.031764302   0.03382094            2 
  157000    1.1971202   -7.1285573    59.810972    0.0317468  0.033813945            1 
  158000    1.2053521   -7.0640601    60.259441  0.031782405  0.033808859            1 
  159000    1.1888595    -7.100123    60.669049  0.031797196  0.033804265            2 
  160000    1.2212954   -7.1041483    61.037386  0.031790305  0.033799624            1 
  161000    1.2159092   -7.0819082     61.43406  0.031798168  0.033793065            1 
  162000     1.180098   -7.1157978    61.428041  0.031598787  0.033782479            1 
  163000    1.2028646   -7.1144592     61.95165  0.031672623  0.033770898            2 
  164000    1.1691806   -7.1853475    62.270413   0.03164147  0.033760041            2 
  165000    1.1959098   -7.0851009    62.764375  0.031699179  0.033748461            2 
  166000    1.1813586   -7.0964673    63.061259  0.031657259  0.033735786            1 
  167000    1.1657274   -7.1121099    63.160796  0.031517363  0.033721693            2 
  168000    1.1987623    -7.108284    63.949619  0.031721041  0.033708515            2 
  169000    1.1740209   -7.1223644    64.262245  0.031687497    0.0336958            1 
  170000    1.1973168   -7.1247317    64.512895  0.031623968  0.033679633            1 
  171000    1.1952058   -7.0607861    64.926288  0.031640491  0.033666724            2 
  172000    1.2141583   -7.0697366      65.5384  0.031753101  0.033654006            1 
  173000    1.1817539   -7.1453218    65.628806  0.031613105  0.033643725            3 
  174000    1.2004015   -7.0872392    66.155483  0.031683661  0.033630894            1 
  175000    1.1535996   -7.1214101    66.305847  0.031574213  0.033617357            1 
  176000    1.2126202   -7.1327168    66.851053  0.031652961   0.03360353            1 
  177000    1.1951161   -7.1238239    67.127878  0.031604462  0.033589859            1 
  178000    1.1994369   -7.1557974    67.437918  0.031572059  0.033575197            1 
  179000    1.1836809   -7.1058875    67.902869  0.031612136  0.033561473            1 
  180000    1.1820826   -7.1004065    68.018554  0.031490071   0.03354689            1 
  181000    1.2043306   -7.1305687    68.373632  0.031479573  0.033527806            2 
  182000    1.1857121   -7.1166117    68.595874  0.031408367  0.033504535            1 
  183000    1.1817192   -7.1512301    68.842286  0.031348946  0.033482651            2 
  184000    1.1779686   -7.1068309    69.408906  0.031435193  0.033462024            1 
  185000    1.1905255   -7.1401062    69.804729  0.031443572  0.033442714            2 
  186000     1.176721   -7.1364218    70.431621  0.031555386  0.033427588            3 
  187000    1.1865353   -7.1020391    70.920085  0.031604316  0.033414741            1 
  188000     1.170019   -7.1326136    70.968825  0.031457812  0.033397773            1 
  189000    1.1864987   -7.1750782    71.567656  0.031555404  0.033381085            3 
  190000    1.1826887   -7.1612772    71.649378  0.031425166  0.033366883            3 
  191000    1.1478504   -7.1334088     72.44456  0.031607574  0.033350693            1 
  192000    1.1710162   -7.1654625    72.531724  0.031480783  0.033336094            1 
  193000    1.1984986   -7.1309562    72.557561  0.031328826  0.033319279            5 
  194000    1.1668856   -7.1380123    73.170071  0.031430443  0.033301095            1 
  195000    1.1872571   -7.1186866    73.628872   0.03146533   0.03328577            1 
  196000    1.1863973   -7.1038567     74.13264   0.03151898  0.033270278            1 
  197000    1.1692287   -7.1231023    74.542107  0.031532194  0.033255005            2 
  198000    1.1818421   -7.1188773    74.620113  0.031405771  0.033236642            3 
  199000    1.1533386   -7.1471246    75.141428   0.03146626  0.033220791            1 
  200000    1.1645747   -7.1627636    75.484832  0.031452013   0.03320484            1 
  201000    1.1906863    -7.167411    75.778611  0.031417334  0.033188343            1 
  202000    1.1722343   -7.0953032    76.449493  0.031538569  0.033171946            1 
  203000    1.1735155   -7.1581401    76.458999  0.031387109  0.033156357            2 
  204000    1.1896084   -7.1170395    77.410522  0.031621945  0.033142875            1 
  205000    1.1580408   -7.1604877    77.437757  0.031478763  0.033131444            1 
  206000     1.182685    -7.175453    77.890325  0.031509031  0.033118767            2 
  207000    1.1734057   -7.1499605    78.713715  0.031688291  0.033108148            1 
  208000    1.1423552   -7.1705689    78.813496   0.03157592  0.033099878            2 
  209000    1.1923555   -7.1482147    79.151903   0.03155977  0.033089729            2 
  210000     1.151274   -7.2004153    79.398073  0.031507172  0.033079977            1 
  211000    1.1652013   -7.1925912    80.009193  0.031599207  0.033069557            2 
  212000    1.1810521   -7.1054454    80.661658  0.031706626  0.033060481            3 
  213000      1.15761   -7.1443748    81.068656  0.031717002  0.033053502            1 
  214000    1.1843443   -7.1638078    81.518087  0.031743803  0.033046194            3 
  215000    1.1555812   -7.1909732    81.679493  0.031658718  0.033037906            1 
  216000    1.1792384   -7.1693249    82.003031  0.031636972  0.033028629            1 
  217000    1.1524375   -7.1504449    81.958302  0.031474002  0.033018802            2 
  218000    1.1770035   -7.1093339    82.739976  0.031628431  0.033009797            2 
  219000    1.1886409   -7.1378978    82.969299  0.031571271  0.033001036            2 
  220000    1.1683902   -7.1436743    83.691599  0.031701363  0.032993398            1 
  221000    1.1711055   -7.0958051    84.019055  0.031681393  0.032986068            2 
  222000    1.1525057   -7.1762197    84.276123  0.031635181  0.032978724            2 
  223000    1.1776557    -7.188088    84.668933   0.03164011  0.032970659            1 
  224000    1.1723457   -7.1600156    85.275834  0.031724641  0.032962894            2 
  225000    1.1889051   -7.1612651    85.496695  0.031665443  0.032954441            3 
  226000    1.1573799   -7.1618377    85.696851  0.031599134  0.032945736            2 
  227000     1.175201   -7.1564434    86.279369  0.031673777  0.032936585            1 
  228000    1.1805467   -7.1614702    86.447075  0.031596153  0.032928628            1 
  229000    1.1904837    -7.152587    86.239325  0.031382578  0.032917448            1 
  230000    1.1789193   -7.1957137    86.746786  0.031429995  0.032904775            3 
  231000    1.1759012   -7.1875088    87.360487  0.031515327  0.032893652            2 
  232000    1.1780159   -7.1854549    87.327274  0.031367555  0.032880089            2 
  233000    1.1633231   -7.1664147    87.934772  0.031450205  0.032868309            2 
  234000    1.1667115   -7.1701909    88.273466  0.031436419   0.03285638            4 
  235000     1.169568   -7.1898317    88.241232  0.031291217  0.032842113            1 
  236000    1.1600331   -7.2059067    88.810359   0.03135959  0.032827697            2 
  237000    1.1664424   -7.1307553     89.37746  0.031426674  0.032813757            1 
  238000     1.191922   -7.1568345    89.410609  0.031306236  0.032799368       -1e+20 
  239000     1.155124    -7.169612    90.022142  0.031388473  0.032784026            1 
  240000    1.1696902   -7.1435654    90.384943  0.031383661   0.03276884            2 
  241000    1.1505555   -7.2104169    90.364459  0.031246355  0.032754761            3 
  242000    1.1630114   -7.2033668    90.585975  0.031193517  0.032737731            2 
  243000    1.1755734   -7.1882848    91.135335  0.031253544  0.032721169            2 
  244000    1.1721371    -7.193004    91.114594  0.031118372  0.032703786            1 
  245000     1.145284   -7.1612365    91.499582  0.031122307  0.032685746            2 
  246000    1.1436571   -7.1540767     91.91556  0.031136707  0.032667441            1 
  247000    1.1750288   -7.1886014    92.349617  0.031157091  0.032648733            1 
  248000    1.1652003   -7.2037098    92.382222  0.031042413  0.032629548            2 
  249000    1.1749391    -7.170333    92.985431  0.031119622  0.032609662            2 
  250000    1.1271541   -7.2120616    93.124065  0.031041355  0.032590771            2 
  251000    1.1570034   -7.1808491    93.610658  0.031079236  0.032571918            3 
  252000    1.1697413   -7.1873311     94.17643  0.031142999  0.032554436            1 
  253000    1.1578307   -7.1640954    94.882913  0.031252606  0.032539416            1 
  254000    1.1499557   -7.1882534    94.871973  0.031125975  0.032523742            2 
  255000    1.1672531   -7.1647299    95.329022  0.031153275  0.032508398            1 
  256000    1.1597311   -7.2028404    95.554866  0.031105099   0.03249216            1 
  257000    1.1722712   -7.1681983    95.903877  0.031097236  0.032475679            2 
  258000     1.161554   -7.2100372    95.998525  0.031007275  0.032459486            1 
  259000    1.2013977    -7.185368    96.182707  0.030946817  0.032442406            1 
  260000    1.1393535   -7.1888651    96.781363  0.031019668   0.03242562            5 
  261000    1.1480065   -7.1950165    97.592362  0.031159758   0.03240986            1 
  262000    1.1273181   -7.2000357    97.528049  0.031020372   0.03239395       -1e+20 
  263000    1.1490028   -7.2290696    97.844008  0.031002537  0.032378112            1 
  264000     1.149903   -7.2135091    98.464243  0.031080885  0.032362421            2 
  265000    1.1313104    -7.234934     98.74784   0.03105278  0.032348338            2 
  266000     1.156866   -7.2103016    99.257988  0.031095861  0.032334878            2 
  267000    1.1429794   -7.2045745    99.466194   0.03104438  0.032319618            1 
  268000    1.1410445   -7.2010493    99.991787  0.031091973  0.032305038            1 
  269000    1.1621469   -7.2182879    99.898102  0.030947367  0.032290213            1 
  270000    1.1254462   -7.2049379    100.74346   0.03109366  0.032276656            2 
  271000    1.1682473   -7.1873121     100.8344  0.031006888  0.032262509            2 
  272000    1.1464986     -7.16746    101.20087  0.031005168  0.032247478            1 
  273000    1.1646893    -7.236998    101.08915  0.030857495  0.032230937            1 
  274000    1.1281502   -7.2217255    101.45358   0.03085571  0.032213303            1 
  275000    1.1514046   -7.1903458    102.03251  0.030918944  0.032197147            2 
  276000    1.1627782   -7.2223687    102.22884  0.030866194  0.032182004            4 
  277000    1.1461602   -7.1889652    102.71316  0.030900469  0.032166467            1 
  278000    1.1482009   -7.2173608    102.80176  0.030815876  0.032150208            2 
  279000    1.1472934   -7.1796395    103.52082  0.030920197  0.032132984            1 
  280000     1.137779   -7.2146364    103.74267  0.030875794  0.032117155            1 
  281000    1.1604183   -7.2365634    104.10997  0.030874842  0.032102522            2 
  282000    1.1606784   -7.2116561    104.23353  0.030801871  0.032087936            1 
  283000    1.1612353   -7.1940114    104.71019  0.030833389  0.032071515            1 
  284000    1.1395376   -7.1933387    104.95941  0.030797948  0.032054521            2 
  285000    1.1308427   -7.2186701    105.29017  0.030786598   0.03203828            1 
  286000    1.1736087   -7.2365432    105.31108  0.030685045  0.032021577            1 
  287000    1.1351976   -7.1937541    106.14966   0.03082162  0.032005701            1 
  288000    1.1504616   -7.2074114    106.24197  0.030741312  0.031990309            1 
  289000    1.1224296    -7.243735    106.55495  0.030725187  0.031975003            2 
  290000     1.174139   -7.1625925    107.12081  0.030781842  0.031960309            2 
  291000    1.1367594   -7.2480014    107.12168  0.030676312   0.03194448            1 
  292000    1.1336574   -7.2512742    107.99615  0.030820818  0.031928844            2 
  293000    1.1499943   -7.1906328    108.25924  0.030790454  0.031913993            1 
  294000    1.1168203   -7.2530335    108.71658  0.030815356  0.031898644            1 
  295000    1.1198697   -7.2642917    108.63824  0.030688769   0.03188178            2 
  296000    1.1421007   -7.2050148    108.80197  0.030631185  0.031864981            1 
  297000    1.1365613   -7.2046109    108.79545  0.030526221  0.031848686            3 
  298000    1.1395083   -7.2817334    108.89755  0.030452335  0.031831218            2 
  299000    1.1165535   -7.2029063    109.40245  0.030491207  0.031811143            2 
  300000    1.1320183   -7.2484449    109.65857  0.030460715  0.031791576            2 
  301000    1.1410298   -7.1909552    110.74634  0.030660671  0.031773056            3 
  302000    1.1461061    -7.256462    110.39716  0.030462794  0.031754016            1 
  303000    1.1137581   -7.2220433    110.52652  0.030397833  0.031734811            1 
  304000    1.1453965   -7.2556798    110.60196  0.030318519  0.031715506            2 
  305000    1.1361258    -7.224816    111.35791  0.030425658  0.031695613            1 
  306000    1.1486226   -7.2800689    111.31092  0.030313432   0.03167495            2 
  307000    1.1243479   -7.2813044    111.61646  0.030297628  0.031653928            1 
  308000    1.1097107   -7.2200244    112.14736  0.030342899  0.031633128            3 
  309000    1.1410693   -7.2386698      112.347  0.030298544  0.031612613            3 
  310000    1.1043113   -7.2733914    112.51246  0.030245284  0.031591194            1 
  311000    1.1273905   -7.2163098    112.73881  0.030208683  0.031569263            2 
  312000    1.1078853   -7.2422528     113.0189  0.030186671  0.031547982            2 
  313000    1.1307298   -7.2332308     113.5269  0.030225479  0.031526774            2 
  314000    1.1227942   -7.2300461    113.11603  0.030020179  0.031504255            2 
  315000    1.1202936   -7.2600626    113.48388  0.030022191  0.031481187            1 
  316000    1.1038771   -7.1894733    114.35829  0.030157777  0.031457685            1 
  317000    1.1327587   -7.2077886    114.41915   0.03007864  0.031434798            1 
  318000    1.1102088   -7.2703714    114.06711  0.029891801  0.031411116            1 
  319000    1.1021517   -7.2235972    114.81439  0.029993309  0.031386965            2 
  320000    1.1442622   -7.2273891    115.17436  0.029993324  0.031362914            2 
  321000    1.1374822   -7.2494276    115.15921  0.029895953  0.031339427            2 
  322000    1.1120927    -7.262378    115.41431  0.029869128  0.031315132            1 
  323000     1.113975   -7.2766463    115.90285  0.029902696  0.031291826            2 
  324000    1.1031048    -7.213779    116.39381  0.029936678  0.031269095            2 
  325000    1.1059489   -7.2584066    116.35148  0.029833713  0.031245301            2 
  326000    1.1239005    -7.260154    116.53511  0.029789139  0.031221439            1 
  327000    1.1087999   -7.2351355    117.11423  0.029845624  0.031198186            2 
  328000    1.1369587   -7.2703864    117.29681   0.02980102  0.031173662            1 
  329000    1.0988237   -7.3002292    117.31891  0.029716035  0.031148979            1 
  330000    1.0864465    -7.244022    117.15313  0.029584123  0.031123385            1 
  331000    1.1181853   -7.2482204    118.29457  0.029782118  0.031097778            1 
  332000    1.1242184   -7.2659338    117.87612  0.029587381  0.031072515            3 
  333000    1.1170458   -7.3207087    117.94348  0.029515386  0.031045856            1 
  334000    1.1259232   -7.2905261    118.66076  0.029605979  0.031020291            1 
  335000    1.1070388   -7.2794954    118.40812  0.029454756  0.030994915            1 
  336000    1.1199395   -7.2827131    118.74833   0.02945147  0.030969886            2 
  337000    1.1199318   -7.2592749    119.84176   0.02963446  0.030945289            1 
  338000    1.1246834   -7.2655093    119.61865  0.029491778  0.030920309            1 
  339000    1.1021494   -7.2455241     120.2027  0.029548353  0.030896179            4 
  340000    1.1274644    -7.269642    120.53662  0.029543288  0.030871564            3 
  341000    1.1245709   -7.2713048    120.47004  0.029440382  0.030847414            1 
  342000    1.1053747   -7.2866678    121.08068  0.029503089  0.030823844            3 
  343000    1.0887986   -7.2578962    121.80994  0.029594251  0.030800103            1 
  344000    1.0877079   -7.2630056    121.51649  0.029437135  0.030776302            1 
  345000    1.0950712   -7.2680828    122.19629  0.029516013  0.030752393            1 
  346000    1.1021499   -7.2364824    122.47847  0.029498669  0.030729004            1 
  347000     1.125672   -7.2742544    122.60507  0.029444062  0.030705341            1 
  348000    1.1013222   -7.2915796    122.91071  0.029432642  0.030681656            5 
  349000     1.110544   -7.2723186    123.39508  0.029463964  0.030658761            1 
  350000    1.1047026   -7.2696684    123.57576  0.029422799  0.030636003            1 
  351000     1.118768   -7.2601788    124.08383  0.029459598  0.030613707            2 
  352000    1.0841842   -7.2521301     124.2742  0.029420976  0.030591859            3 
  353000    1.1104087   -7.2863514    124.45926  0.029381317  0.030569149            1 
  354000    1.0966209   -7.2498772    124.88627  0.029398839  0.030546445            1 
  355000    1.1023334   -7.2396695    125.40433  0.029437635  0.030523531            2 
  356000    1.1032311    -7.305901    125.30852  0.029332519  0.030501117            3 
  357000    1.1137546   -7.2894304    125.64865   0.02932975  0.030478917            6 
  358000    1.1034041   -7.2621906    125.90741  0.029308057  0.030456841            1 
  359000    1.1379481   -7.2808977     126.2588  0.029307986  0.030434962            4 
  360000    1.0778944   -7.2861938    126.69492  0.029327529  0.030413281            2 
  361000    1.1082229    -7.276524    126.51126  0.029203891  0.030391115            1 
  362000    1.1147526   -7.3193123    126.40465  0.029098676  0.030366781            2 
  363000    1.1330524   -7.2981188    126.79519   0.02910817  0.030342986            1 
  364000    1.1127632   -7.2530524    127.64975  0.029223844  0.030319469            2 
  365000    1.1187249      -7.2919    127.12567  0.029024126  0.030295886            2 
  366000    1.1228255   -7.3239294    127.39397  0.029005913  0.030271718            1 
  367000    1.1244296   -7.2833761    128.09021   0.02908497  0.030248088            1 
  368000    1.1242812   -7.3097333    128.29091  0.029051385  0.030224879            3 
  369000    1.1095219   -7.3203697    128.47757  0.029014808  0.030201448            1 
  370000    1.0938512   -7.2841236    128.78018  0.029004545  0.030178491            3 
  371000    1.0937268   -7.2871336    129.14828  0.029009047  0.030156405            2 
  372000    1.1296384   -7.2764476    129.74459  0.029064649  0.030134911            1 
  373000    1.1268451   -7.3182657    130.13877  0.029074792  0.030112953            1 
  374000    1.1032489   -7.3010809    129.96767  0.028958929  0.030090592            3 
  375000    1.0863804   -7.2833311    130.51283   0.02900285  0.030068461            3 
  376000    1.0926919   -7.3195347    130.30281  0.028879168  0.030046518            1 
  377000    1.1192557   -7.3014039    130.88049  0.028930257  0.030023234            2 
  378000    1.1185769   -7.3557002    130.48802    0.0287672  0.029998876            1 
  379000    1.0963809   -7.2799814    131.29753  0.028869289   0.02997452            1 
  380000    1.1101649    -7.291334    130.92191  0.028710945  0.029950341            2 
  381000     1.081388   -7.3171249    131.82357  0.028832802  0.029926164            2 
  382000    1.0901177   -7.2655424    132.25316  0.028851038  0.029902574            2 
  383000     1.118051   -7.3171807    132.00242  0.028721152  0.029879253            2 
  384000    1.1060326   -7.3334976    132.27131  0.028704712  0.029855928            1 
  385000     1.086625   -7.3018116    133.07635  0.028804404  0.029832366            4 
  386000    1.0988146   -7.3084921    132.93234  0.028698691   0.02980896            5 
  387000    1.0843904   -7.3106936    133.41735  0.028728972  0.029785634            2 
  388000    1.1010654   -7.3320142    133.19702  0.028607608  0.029763067            1 
  389000    1.1283343   -7.3411823    133.76197  0.028655092  0.029740032            3 
  390000    1.0899369   -7.3253046    134.10806  0.028655568  0.029716958            1 
  391000    1.0980657   -7.3026213    134.38829  0.028642007   0.02969444            2 
  392000    1.0995205   -7.2901197    134.53829  0.028600826   0.02967239            2 
  393000    1.0897936   -7.3000792    135.36779  0.028703942  0.029649934            1 
  394000    1.0814275   -7.3187193    135.35242  0.028627838  0.029627929            3 
  395000    1.0876741   -7.2694474    136.06722  0.028706164  0.029605965            1 
  396000    1.1236035   -7.2836133    135.89901  0.028598277  0.029584112            2 
  397000    1.1102998   -7.3066712    136.38257  0.028627743  0.029562015            2 
  398000    1.0952265   -7.2928629    136.53655  0.028588054  0.029540306            3 
  399000    1.0797972   -7.3038899    137.05036  0.028623717  0.029518298            2 
  400000    1.0878908   -7.2856768    137.13471  0.028569731  0.029496978            3 
  401000    1.0607589    -7.295421    137.10552  0.028492419  0.029475367            4 
  402000    1.0990393   -7.3028736     137.2719  0.028456033  0.029453869            1 
  403000    1.0952044   -7.3272975     138.0438  0.028545037  0.029432879            2 
  404000    1.1028066   -7.3268122    138.20385  0.028507394  0.029411868            2 
  405000    1.0974472   -7.3308566     138.7747  0.028554464  0.029391256            1 
  406000     1.089918   -7.3230673     138.6739  0.028463445  0.029370181            1 
  407000    1.0633526   -7.3309669    139.22503  0.028506354  0.029349187            3 
  408000    1.0825208   -7.3435867    139.15655  0.028422497  0.029328786            2 
  409000     1.118641   -7.3463659    139.80332  0.028484784  0.029308118            1 
  410000    1.0762428   -7.3185481    139.90645   0.02843627  0.029287588            1 
  411000    1.0737868   -7.3491943    139.95468  0.028376861  0.029267035            1 
  412000    1.0858307    -7.352624    140.11644  0.028340704  0.029245721            1 
  413000    1.0966575   -7.3507899    140.56883  0.028363364  0.029224238            2 
  414000    1.0802813   -7.2853217     141.0555  0.028392814  0.029203111            1 
  415000    1.0818948   -7.3147129    140.87084  0.028287318  0.029182591            2 
  416000     1.096424   -7.3433153    140.80645  0.028206421  0.029160851            2 
  417000    1.0856265   -7.4088496    141.08101  0.028193647  0.029139494            3 
  418000     1.073549   -7.3416082    141.48909  0.028207554   0.02911755            2 
  419000    1.1082495   -7.3263112    142.09986  0.028261706   0.02909595            2 
  420000    1.0937993   -7.3550538    142.26231  0.028226649   0.02907475            1 
  421000    1.0965268   -7.3171533    142.74641  0.028255426  0.029054014            1 
  422000    1.0676258    -7.321954     142.7181  0.028182879  0.029033062            5 
  423000    1.0960671    -7.334445    143.10274  0.028192029  0.029012516            3 
  424000    1.0984325   -7.3692839     143.4836  0.028200394   0.02899227            2 
  425000    1.0861632    -7.306813    143.64891  0.028166453  0.028972192            2 
  426000     1.080923   -7.3731963    143.37979   0.02804769  0.028951138            2 
  427000    1.0945808   -7.3311546     144.0596  0.028114676  0.028930204            1 
  428000    1.0790751   -7.3365731    144.33002  0.028101639  0.028909713            2 
  429000     1.085705   -7.3550924    144.19742  0.028010377  0.028888866            1 
  430000    1.0793105   -7.3451403    145.12162  0.028124345  0.028868054            2 
  431000    1.0623409   -7.3315218    145.36252  0.028105669  0.028847611            1 
  432000    1.0587962   -7.3633292     144.9825  0.027967303  0.028827167            1 
  433000    1.0865333   -7.3569683    145.28844  0.027961593  0.028806584            2 
  434000    1.0988895   -7.4028423    145.39963  0.027918517   0.02878616            3 
  435000    1.0628435   -7.3516711    146.23812  0.028014965  0.028765831            1 
  436000    1.0449281   -7.3924595    146.36081  0.027974161  0.028745798            2 
  437000    1.0728953   -7.3710553    146.67442   0.02796995  0.028725329            1 
  438000    1.0966997   -7.3568751     146.6893  0.027908923  0.028705228            3 
  439000    1.0569707   -7.3430576    147.08714  0.027920869  0.028684957            2 
  440000    1.1074131   -7.3386153    147.74978  0.027982912  0.028664896            2 
  441000    1.0796002    -7.339935    147.55842  0.027883299  0.028644808            1 
  442000    1.0692046   -7.3691452    147.72106  0.027850879  0.028624593            1 
  443000    1.0752162     -7.32743    148.39675  0.027915114   0.02860405            1 
  444000    1.0871419   -7.3760266    148.83575  0.027934637  0.028584437            2 
  445000    1.0639431   -7.3443545    149.19695  0.027939504  0.028564666            1 
  446000    1.0820186   -7.3189586     149.1756   0.02787287  0.028545233            1 
  447000    1.0778167   -7.3562327    149.62743  0.027894748  0.028525938            1 
  448000    1.0752961   -7.3547497    150.17162  0.027933709  0.028506867            1 
  449000    1.0865752   -7.4101379    149.37724  0.027724061  0.028488086            1 
  450000    1.0810501   -7.3463583     150.3228  0.027837556  0.028468921            1 
  451000    1.0668427   -7.3854732    150.56672  0.027820901   0.02844991            1 
  452000    1.0853444   -7.3946844    150.51904   0.02775056  0.028430845            1 
  453000    1.0706018   -7.3804222    150.75892  0.027733428  0.028411845            1 
  454000    1.0685334   -7.3797956    151.27194  0.027766509  0.028392552            2 
  455000    1.0632269   -7.3972939    150.99975  0.027655632  0.028372763            4 
  456000    1.0863685   -7.3962603    151.85324  0.027750958  0.028353578            1 
  457000    1.0620252    -7.340881    151.82949  0.027685903  0.028335305            2 
  458000    1.0732008   -7.3558037    152.53012  0.027752933  0.028316874            3 
  459000    1.0656912   -7.3826171    152.82265  0.027745578  0.028298811            1 
  460000    1.0707107   -7.3807065    153.23851    0.0277606  0.028280829            1 
  461000    1.0862692   -7.4240617    152.44783  0.027557453  0.028261878            1 
  462000      1.08401   -7.3805451    153.17334  0.027628669  0.028243297            2 
  463000    1.0911635   -7.3609702    153.88271  0.027696672  0.028224711            2 
  464000    1.0824343   -7.4263799    153.60986  0.027587978  0.028206309            1 
  465000    1.0755295   -7.3617818    153.83385  0.027568791  0.028187049            2 
  466000    1.0782319   -7.4166085    153.74851  0.027494369  0.028167714            1 
  467000     1.073609   -7.3690752    154.60233  0.027587853  0.028148576            2 
  468000    1.0909643   -7.4493403    154.28046  0.027471591  0.028129431            1 
  469000    1.0917141   -7.4135771    154.24928  0.027407477  0.028109992            2 
  470000    1.0570568   -7.4000898    154.55388  0.027403171  0.028090145            2 
  471000     1.063933   -7.4006904    154.67507  0.027366431  0.028070399            4 
  472000    1.0826759   -7.3845567    155.58513  0.027469125   0.02805136            1 
  473000    1.0430885    -7.424219    155.26599  0.027354825  0.028032567            1 
  474000    1.0853321   -7.4148509    156.05545   0.02743591  0.028013969            1 
  475000    1.0494986   -7.3827429    156.34538  0.027429015  0.027996088            2 
  476000    1.0536209    -7.365619    157.16786  0.027515382  0.027978639            4 
  477000    1.0710141   -7.4055546    156.90836  0.027412362  0.027961596            4 
  478000    1.0279609   -7.4349418    157.42537  0.027445149  0.027943993            2 
  479000    1.0686949   -7.3949083    157.80024  0.027453069  0.027925886            3 
  480000    1.0661399   -7.4208795    157.91358  0.027415552  0.027908335            1 
  481000     1.057672   -7.3666369     159.0318  0.027552288  0.027891271            2 
  482000    1.0671334   -7.3841168    158.67561  0.027433542  0.027874005            1 
  483000    1.0691796   -7.3826698    158.37001  0.027324018  0.027856389            3 
  484000    1.0492594   -7.3994833     158.7748  0.027337259   0.02783865            1 
  485000    1.0725446   -7.3978562    159.23294  0.027359612  0.027821435            1 
  486000     1.071231   -7.4079587    159.82128  0.027404198  0.027804229            5 
  487000    1.0570067   -7.3992969    159.78495   0.02734171  0.027787114            1 
  488000    1.0166812   -7.3809432    160.40528  0.027391613   0.02777039            1 
  489000    1.0560001   -7.3589596    160.64637  0.027376683  0.027753436            1 
  490000    1.0893635   -7.4237711    160.40804  0.027280278  0.027736535            2 
  491000    1.0586451   -7.3936367    160.27132  0.027201514  0.027719195            3 
  492000    1.0479936   -7.3986825    161.11812  0.027289654  0.027701569            7 
  493000    1.0540779   -7.3987487    160.67936  0.027160135  0.027684211            4 
  494000    1.0360915   -7.3840161     161.8671  0.027305517  0.027667056            1 
  495000    1.0461833   -7.4103767    161.69928    0.0272221  0.027650094            1 
  496000    1.0618994   -7.4113875     161.7975   0.02718372  0.027632519            2 
  497000    1.0249293   -7.4308017    161.79029  0.027127815    0.0276147            3 
  498000    1.0449435   -7.4162633    162.11493  0.027127665  0.027597419            2 
  499000    1.0354389   -7.4048941    162.71189  0.027172995  0.027580291            2 
  500000    1.0647437   -7.4116517    162.84734  0.027141223   0.02756299            1 
  501000     1.030404   -7.3871025    162.95924  0.027105662  0.027546015            1 
  502000    1.0469043   -7.3839309    163.54777  0.027149364  0.027528632            1 
  503000    1.0598594   -7.4071646    163.28623   0.02705206  0.027511398            3 
  504000    1.0498976   -7.4020506    163.78555  0.027080944  0.027494152            2 
  505000    1.0672218   -7.4320085    164.24476  0.027103095  0.027477131            2 
  506000    1.0548149   -7.4158256    164.32985  0.027063546  0.027459921            2 
  507000    1.0503642   -7.4395081    164.66528  0.027065299  0.027442384            1 
  508000    1.0580092   -7.4061368    164.56395  0.026995399  0.027425077            2 
  509000    1.0419665   -7.4207508    164.81374  0.026983257  0.027407571            4 
  510000    1.0300667   -7.4240387    165.12082  0.026980526  0.027390219            4 
  511000    1.0234652   -7.4097382    165.12252  0.026928004  0.027373216            1 
  512000    1.0407614   -7.3772902    165.46055  0.026930429  0.027355953            1 
  513000    1.0440629   -7.4840867    165.11327  0.026821518  0.027338453            2 
  514000    1.0420605    -7.412066    165.65034  0.026856411  0.027320925            2 
  515000    1.0568653   -7.4551409    165.65484   0.02680499  0.027303319            3 
  516000    1.0382383   -7.4195945    166.01882  0.026811824  0.027285519            2 
  517000    1.0457612   -7.4080526    166.22652  0.026793443  0.027267674            1 
  518000    1.0320676   -7.4373209    166.08947   0.02671967  0.027249849            2 
  519000    1.0506466   -7.4576832    166.72054  0.026769515  0.027232117            1 
  520000    1.0504428   -7.4582531     167.2288  0.026799487  0.027214196            1 
  521000    1.0335628   -7.3883489    168.28181  0.026916476  0.027197251            5 
  522000    1.0391537   -7.4638991    167.98435  0.026817424  0.027180547            1 
  523000    1.0180517   -7.4216489    168.29498  0.026815643  0.027163629            3 
  524000     1.058266   -7.4189782    167.77049  0.026681058  0.027146355            3 
  525000    1.0360621    -7.423524    168.53885  0.026752199  0.027129367            2 
  526000    1.0529739   -7.4705583    168.65991  0.026720518  0.027112505            2 
  527000    1.0588623   -7.4380448    168.79132  0.026690594  0.027095459            1 
  528000    1.0519012   -7.4004926    169.86968  0.026810239  0.027078723            2 
  529000    1.0417042   -7.3827934    170.47148   0.02685436  0.027062486            2 
  530000    1.0259877   -7.4319684    169.50511  0.026651746  0.027046061            1 
  531000    1.0231941   -7.4162255    169.86539  0.026658097  0.027029272            1 
  532000    1.0415189   -7.4411336    170.25809    0.0266695  0.027012711            2 
  533000    1.0391019   -7.4252097    170.81577  0.026706656  0.026996184            1 
  534000    1.0434829   -7.4011828    171.02845  0.026689833   0.02697976            2 
  535000    1.0377667   -7.4642857    170.78572  0.026602137  0.026963152            1 
  536000    1.0114613   -7.4604421    170.80549   0.02655558  0.026946644            1 
  537000    1.0477011   -7.4470259    171.68492  0.026642601   0.02692993            1 
  538000    1.0300785   -7.4636265    171.42869   0.02655339  0.026913644            3 
  539000    1.0421464   -7.4253619    172.41101     0.026656  0.026897563            4 
  540000     1.023215   -7.4359905    171.91141  0.026529539  0.026882232            2 
  541000    1.0462776   -7.4724701    171.98269  0.026491481  0.026865628            2 
  542000    1.0405041   -7.5083715    172.13532   0.02646607  0.026848986            4 
  543000    1.0194353   -7.4381406    172.95461  0.026543065   0.02683229            3 
  544000    1.0461634    -7.434472    173.18115  0.026528974  0.026816114            3 
  545000    1.0290103   -7.4843328    172.83245   0.02642698  0.026799877            2 
  546000    1.0374063   -7.4513749    173.48977  0.026478903  0.026783517            1 
  547000    1.0485753   -7.4600716    173.55149  0.026439897  0.026766588            1 
  548000    1.0429448   -7.4859512     173.4333  0.026373677  0.026749699            2 
  549000    1.0517404   -7.4599542    173.73378  0.026371248  0.026732737            2 
  550000    1.0474943   -7.4557761    174.12696  0.026382873  0.026715905            3 
  551000    1.0450438   -7.5084574    173.62389  0.026258907  0.026698885            2 
  552000    1.0289651   -7.4339396    173.96685  0.026263111  0.026681721            2 
  553000    1.0155386   -7.4944421    173.97726  0.026217188  0.026664022            1 
  554000    1.0207254   -7.4130437    174.63116  0.026268226  0.026646533            2 
  555000    1.0259557   -7.4876102    174.61249  0.026218091  0.026629101            1 
  556000    1.0286771   -7.4599405    175.62594  0.026322833  0.026612075            1 
  557000    1.0306384   -7.4669566    175.03579  0.026187282  0.026595008            2 
  558000     1.033229   -7.4707479    174.84805  0.026112313   0.02657758            3 
  559000    1.0397543   -7.4934912    175.92942  0.026226807  0.026560166            1 
  560000    1.0394721   -7.4791602    175.42056   0.02610425  0.026542608            1 
  561000    1.0424074    -7.471686     176.4044  0.026203862  0.026524983            1 
  562000    1.0396902   -7.4803722     175.6201   0.02604094  0.026507621            1 
  563000    1.0354507   -7.4987052    176.52258  0.026128268  0.026490036            1 
  564000    1.0205155   -7.4962571    176.55996  0.026087464  0.026472611            2 
  565000    1.0320449    -7.496268    176.93335  0.026096364  0.026455082            2 
  566000    1.0047963   -7.4712098    177.05286  0.026067853  0.026437706            1 
  567000    1.0342612   -7.4688486    176.86384  0.025994098    0.0264205            2 
  568000    1.0273154   -7.4841597     177.1177  0.025985579  0.026403277            1 
  569000    1.0154706   -7.4526205    178.09432  0.026082941  0.026385689            1 
  570000    1.0114653   -7.4874343    177.83233  0.025998879  0.026368368            1 
  571000    1.0416475   -7.4984923    177.63067  0.025923916  0.026351012            1 
  572000    1.0244711   -7.4800494    178.59201  0.026018649  0.026333791            1 
  573000    1.0107452   -7.4995232    178.48656  0.025957906  0.026316831            1 
  574000    1.0291931   -7.4934253    179.08865  0.026000095  0.026299746            1 
  575000    1.0215072   -7.4928603    178.79312  0.025912046  0.026283008            1 
  576000    1.0254509   -7.4279109     179.5438  0.025975666  0.026265938            2 
  577000    1.0249301   -7.4979024    178.98771  0.025850334  0.026248732            1 
  578000    1.0267514   -7.5156687    179.21081  0.025837776  0.026231192            1 
  579000    1.0244035   -7.5039368    179.57675  0.025845819  0.026213487            1 
  580000    1.0148394   -7.4968042    179.80212  0.025833638  0.026196181            1 
  581000    1.0122549    -7.505616    179.85972  0.025797436  0.026179039            1 
  582000    1.0008015   -7.5185622    180.24283  0.025807965  0.026161613            2 
  583000     1.020772   -7.5091107    180.68439  0.025826814  0.026144405            1 
  584000    1.0175799   -7.4618761    180.93592  0.025818481  0.026127439            3 
  585000    1.0126367   -7.4856746    181.29923  0.025826101  0.026110562            1 
  586000     1.011069   -7.5427297    181.12143  0.025756745  0.026093667            1 
  587000    1.0452456   -7.5040174    181.33444  0.025743106  0.026076898            3 
  588000    1.0301875   -7.5001015    181.50184   0.02572305  0.026060181            1 
  589000     1.025663   -7.4916875    181.63557  0.025698298  0.026043669            1 
  590000    1.0130481    -7.485604    181.87881  0.025689098  0.026026241            1 
  591000    1.0255678   -7.5112036    181.94332  0.025654727  0.026009085            2 
  592000    1.0131594   -7.5296345    182.21885  0.025650176  0.025991607            1 
  593000    1.0538913   -7.4808232    182.04403  0.025582354  0.025974092            4 
  594000    1.0225493   -7.5382079    182.32072  0.025578104  0.025956617            2 
  595000    1.0112128   -7.4844117    182.28879  0.025530643  0.025939116            4 
  596000    1.0015359   -7.5015039    182.51953  0.025520068  0.025921214            1 
  597000   0.99764912   -7.4959197    182.35269  0.025454033   0.02590326            2 
  598000    1.0004288   -7.5070354    182.52065  0.025434873  0.025885285            4 
  599000    1.0351418   -7.5162507     183.5152  0.025530773   0.02586757            1 
  600000    1.0116844   -7.5214164    183.38042  0.025469503  0.025849389            2 
  601000    1.0289171   -7.5018936    182.92879  0.025364502  0.025831413            1 
  602000     1.019227   -7.5610737    182.74629  0.025297105  0.025813044            2 
  603000    1.0047062   -7.5082082    183.69218  0.025385873  0.025794502            1 
  604000    1.0298382   -7.5195629      183.465  0.025312501  0.025775768            2 
  605000    1.0373025   -7.5462286    183.34431  0.025254037  0.025757026            2 
  606000    1.0283024   -7.5063687    184.34145  0.025349484  0.025738547            1 
  607000    1.0246469   -7.5021293    184.69278  0.025355956  0.025720204            1 
  608000   0.99914889   -7.5057795    184.65781  0.025309459  0.025702471            3 
  609000    1.0110245   -7.4968482    184.20825  0.025206384   0.02568423            1 
  610000    1.0387353   -7.5000504    185.11328  0.025288699  0.025666045            1 
  611000    1.0289086   -7.5476678    185.26055  0.025267396  0.025647674            2 
  612000    1.0202702   -7.4962491    185.72626  0.025289523  0.025629374            1 
  613000   0.99279168   -7.5178533    185.83292  0.025262768  0.025611399            2 
  614000    1.0030195    -7.522284    186.13922  0.025263195  0.025593363            1 
  615000    1.0162037   -7.5206665    185.71027  0.025163993  0.025575113            2 
  616000    1.0051915   -7.5487966     185.4876  0.025093019  0.025556568            4 
  617000    1.0196807   -7.5276418    186.19209    0.0251475  0.025538039            1 
  618000    1.0113916   -7.5312731    186.26282  0.025116346  0.025519664            1 
  619000   0.98312744   -7.5268773    186.29455  0.025080042  0.025501298            2 
  620000    1.0032576   -7.5302865    186.31841  0.025042797  0.025482799            2 
  621000    1.0249175   -7.5226378    187.16618  0.025116234  0.025464889            2 
  622000    1.0321188   -7.5523939    187.06464  0.025062251  0.025446798            2 
  623000     1.006285   -7.4962808    187.55146   0.02508714  0.025429111            1 
  624000    1.0118268   -7.4865466    187.94914  0.025100046  0.025411525            1 
  625000   0.99718542   -7.5392095    188.02388  0.025069851  0.025394335            4 
  626000   0.99320769   -7.5242984    188.70512  0.025120489  0.025377177            1 
  627000   0.98346086   -7.5714999    188.26291  0.025021652  0.025359942            2 
  628000    1.0131025   -7.5185602    188.85479  0.025060349  0.025342956            1 
  629000    1.0139274   -7.5609021    188.55023  0.024980158   0.02532569            5 
  630000   0.98532931   -7.5314296    189.09827  0.025012999  0.025308421            3 
  631000      1.02694   -7.5276232    189.33835  0.025005065  0.025291434            1 
  632000    1.0091839     -7.51273     189.9035  0.025040018  0.025274455            1 
  633000    1.0028969   -7.5210478     189.7095  0.024974921  0.025257679            2 
  634000    1.0143892   -7.5297494    189.84419  0.024953232  0.025240635            2 
  635000    1.0156174   -7.5230309    190.29564  0.024973181    0.0252235            2 
  636000   0.97814708   -7.5244437    190.01911  0.024897682  0.025206451            1 
  637000   0.99434317   -7.5381442    189.72017  0.024819488  0.025189165            3 
  638000    1.0089046   -7.5720922    190.73557  0.024913215   0.02517207            2 
  639000    1.0176135   -7.5510874    190.73149  0.024873694  0.025154956            3 
  640000    1.0011115   -7.5371391    191.21247  0.024897457  0.025137697            3 
  641000   0.99132883     -7.55336    191.51455  0.024897887  0.025120692            1 
  642000   0.99911784   -7.5666231    191.48302  0.024855014  0.025103429            2 
  643000     1.007963   -7.5730727     191.5483  0.024824818  0.025086577            1 
  644000    1.0261335    -7.530401    192.62725  0.024925887  0.025070232            3 
  645000    1.0228752   -7.5477907     192.5566  0.024878113  0.025054004            1 
  646000   0.99860994   -7.5397268    192.86926  0.024879936  0.025038003            1 
  647000    1.0135237   -7.5657867    193.00858  0.024859426  0.025021836            3 
  648000    1.0003819   -7.5899947    192.94043  0.024812298  0.025005848            1 
  649000    1.0042281   -7.5450492    193.23667  0.024812104  0.024989616            3 
  650000   0.99063106    -7.570269    193.63731  0.024825296  0.024973512            2 
  651000    1.0079941     -7.55903    193.51796  0.024771884  0.024957266            1 
  652000   0.98659496   -7.5396456    193.66359  0.024752504  0.024941199            1 
  653000   0.99938738    -7.581065    193.83306  0.024736225  0.024924886            2 
  654000    1.0093521    -7.585492    193.88296   0.02470476  0.024908573            2 
  655000   0.97896409    -7.572933    194.95908  0.024803954  0.024892542            4 
  656000    1.0066046   -7.5465969     194.6831  0.024731085  0.024876595            2 
  657000   0.98111528    -7.520711    195.57948  0.024807139  0.024860814            1 
  658000   0.99848438   -7.5487909    195.33511  0.024738489  0.024845284            3 
  659000   0.97121319   -7.5719295    195.78629  0.024758003  0.024829804            1 
  660000    1.0129933   -7.5490251    195.85906  0.024729679   0.02481428            2 
  661000    1.0201489   -7.5990147    196.06387  0.024718087  0.024798676            1 
  662000    1.0053057   -7.5588167    195.45453  0.024604044  0.024782909            2 
  663000    0.9822134    -7.540427     195.6647  0.024593351  0.024767074            1 
  664000   0.99652716   -7.5629259    195.89422  0.024585118   0.02475147            1 
  665000    1.0069175   -7.5762169    196.76888  0.024657754  0.024735864            4 
  666000   0.99858064   -7.5825259    197.06728  0.024658068   0.02472036            2 
  667000   0.97048407   -7.5455068    197.03685  0.024617298  0.024704651            1 
  668000   0.99778512   -7.5542979     196.6626  0.024533757  0.024689153            1 
  669000     1.014219   -7.5635502    197.72339  0.024629221  0.024673888            2 
  670000    1.0006292   -7.5665827    197.23028  0.024531129  0.024658237            2 
  671000   0.99913574   -7.5781776     197.5375  0.024532725  0.024642576            3 
  672000   0.99360209   -7.6065396    197.56707  0.024499885  0.024626998            2 
  673000    1.0056038   -7.5146264    198.93575  0.024632955  0.024611789            1 
  674000   0.98134084   -7.5660746    198.83943  0.024584499  0.024596751            5 
  675000   0.98881405   -7.6056825     198.2861  0.024479766  0.024581368            4 
  676000   0.98612967   -7.5806579    198.07002  0.024416916  0.024565664            2 
  677000   0.96783351   -7.6039297    198.64702  0.024451874  0.024550165            1 
  678000   0.96858269   -7.5825535    198.81167  0.024436046  0.024534591            1 
  679000   0.97852041   -7.6151463    198.63623  0.024378526  0.024518901            2 
  680000   0.97365389   -7.5844242    199.14697  0.024405266  0.024503139            2 
  681000   0.96402924   -7.5944756    199.35641  0.024395057  0.024487667            1 
  682000   0.99536162   -7.6197486    199.00968  0.024316921  0.024472071            1 
  683000   0.97853405   -7.5965583    199.85927  0.024384977  0.024456533            2 
  684000   0.97034339   -7.5608239    200.47966   0.02442491  0.024441389            3 
  685000   0.96179477   -7.6338838    199.65739   0.02428922   0.02442569            2 
  686000   0.99555392   -7.5406369    200.93016  0.024408426  0.024410225            2 
  687000     1.004341   -7.5605736    200.79108  0.024356026  0.024395133            2 
  688000   0.98173226   -7.6244946    200.93716  0.024338319  0.024379851            1 
  689000   0.95447882   -7.5963058    200.94748  0.024304243  0.024364713            2 
  690000   0.98077505   -7.6392177    201.23991  0.024304337  0.024349609            1 
  691000   0.98938601   -7.5844167     201.3814  0.024286227  0.024334356            1 
  692000   0.97427161   -7.5693315    201.77894  0.024299005  0.024319618            2 
  693000   0.98048272   -7.5854876    201.25775  0.024201268  0.024304858            2 
  694000   0.98723313   -7.5889422    202.37503  0.024300556  0.024290075            5 
  695000   0.96934752   -7.5854239    202.14533  0.024238049  0.024275439            2 
  696000   0.98468072   -7.6182146    202.27422  0.024218657  0.024260648            6 
  697000   0.97446406   -7.5902093    202.97028  0.024267131  0.024245766            2 
  698000   0.98181118   -7.5843589     202.6954  0.024199546  0.024231056            4 
  699000   0.97049654   -7.6235811    202.91348  0.024190926   0.02421636            2 
  700000   0.97723877   -7.6091546    203.47471   0.02422318  0.024201554            3 
  701000    0.9748017   -7.6276372    203.47467   0.02418862  0.024186842            2 
  702000   0.95968548   -7.5826193    204.24237  0.024245296  0.024172072            2 
  703000   0.95848444   -7.5900725    203.62689  0.024137849  0.024157385            1 
  704000   0.96573151   -7.6358998    203.29507  0.024064284   0.02414275            2 
  705000   0.97430572   -7.6011274     204.4952  0.024172009  0.024128115            1 
  706000   0.97738438   -7.5530665    204.53192  0.024142106  0.024113891            2 
  707000    0.9647891   -7.6249605    204.48125  0.024101986  0.024099635            2 
  708000   0.97410358    -7.600764    204.43708  0.024062745  0.024085096            1 
  709000   0.98789125   -7.6670189    204.43804  0.024028918  0.024070537            5 
  710000   0.97322071   -7.6417275    204.76031    0.0240329  0.024055584            2 
  711000   0.96780713   -7.6091169    205.25811  0.024057444   0.02404092            1 
  712000   0.97750274    -7.637903    205.36914  0.024036651  0.024026202            2 
  713000     0.970496   -7.6216045    205.07009  0.023967986  0.024011213            1 
  714000   0.96318463   -7.6091265    205.43366  0.023976851   0.02399621            3 
  715000   0.95875878   -7.6251316    205.22473  0.023918966  0.023981616            1 
  716000   0.95993211   -7.6893757    205.11765  0.023873097  0.023966533            3 
  717000   0.97331677   -7.6350654    206.44979  0.023994629  0.023951467            2 
  718000   0.97744867   -7.6202107    206.40358  0.023955847  0.023936686            4 
  719000   0.95841463   -7.6253991    206.36599  0.023918173  0.023921919            2 
  720000   0.96543607   -7.5663541    206.70674  0.023924391  0.023907495            2 
  721000   0.95085632   -7.6223445     207.2314  0.023951849  0.023892989            2 
  722000    0.9432517   -7.6022383    207.25448  0.023921338  0.023878786            1 
  723000   0.96311941   -7.6276851    207.68552  0.023937935  0.023864728            2 
  724000   0.98258016   -7.6530741     207.3767  0.023869326  0.023850585            1 
  725000   0.93372826   -7.6648443    207.06863  0.023800992  0.023836046            5 
  726000   0.95265976   -7.6289126    208.24227  0.023902923  0.023821516            3 
  727000   0.97320243   -7.6550938    207.81094  0.023820603  0.023807051            3 
  728000   0.97135563   -7.6283588    208.43235  0.023859015  0.023792636            4 
  729000     0.966135   -7.6367262    208.63946  0.023849961    0.0237782            2 
  730000   0.95490082   -7.6231399    208.00296   0.02374463  0.023763737            3 
  731000   0.98068844   -7.6205548    208.66838  0.023788005  0.023749273            2 
  732000   0.97640724   -7.6150855    208.89807  0.023781656  0.023734861            2 
  733000   0.97384474   -7.6350025    208.99666   0.02376042  0.023720485            1 
  734000   0.95707207   -7.6525693    208.84363  0.023710675   0.02370583            2 
  735000   0.97885855   -7.6603215    209.17659  0.023716167  0.023691087            2 
  736000   0.96386279   -7.6431055    209.27152  0.023694692  0.023676092            1 
  737000   0.95605311   -7.6449332    208.89911  0.023620434  0.023661415            3 
  738000   0.95133346   -7.6820996    209.17718  0.023619826   0.02364638            1 
  739000    0.9601849   -7.6228511    210.12729  0.023695003  0.023631646            4 
  740000   0.95194145   -7.6436595    209.38195  0.023579049  0.023617042            2 
  741000   0.94321009   -7.6129195     210.3993   0.02366164  0.023602301            1 
  742000   0.95450436    -7.654342     210.2236  0.023610018  0.023587598            2 
  743000   0.96301134   -7.6273744    209.86536  0.023538062  0.023573088            3 
  744000   0.94578897   -7.6409818    210.65526  0.023594899  0.023558277            1 
  745000   0.95670283   -7.6519226    210.68997   0.02356711  0.023543614            3 
  746000   0.96698617   -7.6284224    211.27411  0.023600772  0.023528933            2 
  747000   0.94717902   -7.6342372    210.77985   0.02351404  0.023513942            1 
  748000   0.97854798   -7.6653014    210.97309  0.023504132  0.023498994            1 
  749000   0.96186063   -7.6279593    211.18519   0.02349635  0.023484032            2 
  750000   0.96542822    -7.636463    210.96534  0.023440593  0.023469085            1 
  751000   0.95178838    -7.661467    211.80079  0.023502085  0.023454112            1 
  752000    0.9566852   -7.6072306    211.57854  0.023446203  0.023439222            2 
  753000   0.94772217   -7.6301522    211.39823  0.023395111  0.023424599            1 
  754000   0.95151078   -7.6407084    211.65206  0.023392138  0.023409675            2 
  755000   0.94238854   -7.6445062    211.94757  0.023393772  0.023394778            2 
  756000   0.96051393    -7.653307    211.52727  0.023316498  0.023379868            3 
  757000   0.95401377   -7.6814604    211.99726  0.023337435  0.023364834            2 
  758000   0.95629767   -7.6788827    212.93589  0.023409839  0.023349812            1 
  759000   0.95015606   -7.6596802    212.87025  0.023371788  0.023334771            1 
  760000   0.93639245   -7.6426659    213.09025  0.023365159  0.023319806            1 
  761000   0.95155375   -7.6912762    212.52049  0.023272064  0.023304848            1 
  762000   0.93938621   -7.6626104    213.01267  0.023295349  0.023289927            1 
  763000   0.94632873   -7.6338003    213.75988  0.023346426  0.023275117            5 
  764000    0.9554029   -7.6619913       213.21   0.02325589  0.023260146            1 
  765000     0.951059   -7.6619344    213.35383  0.023241158   0.02324546            1 
  766000   0.92097744   -7.6639784    213.22013  0.023196271  0.023230439            1 
  767000   0.95517397   -7.6920249    213.47314  0.023193518  0.023215425            2 
  768000   0.94312941   -7.6773296    213.59755  0.023176818  0.023200547            1 
  769000   0.94579107   -7.6837297    214.16898  0.023208602  0.023185463            5 
  770000   0.94352815   -7.6677345    213.93669  0.023153321   0.02317047            1 
  771000   0.95585418   -7.6892783    213.87179  0.023116277  0.023155271            2 
  772000    0.9462103   -7.7175647    213.84323   0.02308325  0.023140045            5 
  773000    0.9448615   -7.6734731    213.60038  0.023027208  0.023124743            3 
  774000   0.94141304   -7.6859419    214.28897  0.023071595  0.023109137            2 
  775000   0.93040253   -7.6996615    214.37315  0.023050877  0.023093848            3 
  776000   0.94097181   -7.6918945    214.72415  0.023058865  0.023078711            2 
  777000    0.9216045   -7.7145792      214.406  0.022995066  0.023063335            1 
  778000   0.95537863   -7.6932536    214.48441  0.022973908  0.023047747            2 
  779000   0.93749868   -7.7038969    214.18281  0.022912154  0.023032257            2 
  780000   0.95924751   -7.7122079     214.6665  0.022934455  0.023016782            2 
  781000   0.93214347    -7.710213    214.44626   0.02288159  0.023001209            3 
  782000    0.9496994   -7.6896062    215.49258   0.02296383  0.022985917            2 
  783000   0.95489528   -7.6955322    215.29592  0.022913572  0.022970541            2 
  784000   0.94253658   -7.7015403     215.3903  0.022894377   0.02295528            2 
  785000   0.93636909   -7.7098704    215.33812  0.022859673  0.022939891            2 
  786000   0.94128971   -7.6793691    215.94936  0.022895395  0.022924601            1 
  787000   0.94822002   -7.6640682    216.35463  0.022909215  0.022909294            3 
  788000   0.94973372    -7.688414    215.94318   0.02283663  0.022893792            2 
  789000   0.93814942   -7.6923873     215.9859  0.022812199  0.022878495            2 
  790000   0.94860569    -7.676205    215.85807  0.022769839  0.022863373            1 
  791000   0.94076974   -7.6922501    216.21104  0.022778238  0.022848077            2 
  792000   0.92804358   -7.6991111    216.56267  0.022786476  0.022832811            1 
  793000   0.92907707    -7.701714    216.54174  0.022755542   0.02281755            1 
  794000   0.93511386   -7.7285336    216.52384  0.022725004  0.022802118            2 
  795000   0.93042913   -7.6850274    217.33732  0.022781689  0.022786734            2 
  796000   0.94729149   -7.6902821    216.52227  0.022667742  0.022771402            2 
  797000   0.92395424   -7.6746147    217.00193  0.022689453  0.022755855            1 
  798000   0.92900248   -7.7101123     216.4501  0.022603394  0.022740315            4 
  799000   0.93361045   -7.6780702    217.50547  0.022685176  0.022724665            2 
  800000   0.91306724   -7.7273815    216.76959  0.022580166  0.022709142            1 
  801000   0.91717241   -7.7166999    217.35583  0.022612966  0.022693535            1 
  802000   0.93123594   -7.7086654    218.05765  0.022657695  0.022677946            3 
  803000   0.92804552   -7.6640566    218.48825  0.022674165  0.022662535            4 
  804000   0.92934177   -7.7197317    217.62449  0.022556435  0.022647273            2 
  805000   0.91157363   -7.7050586     217.7976  0.022546335  0.022631843            2 
  806000   0.92252257   -7.7079777    218.29357  0.022569641  0.022616472            2 
  807000   0.92436092   -7.7127318    218.82207  0.022596248  0.022601124            2 
  808000   0.93355336   -7.7067399    218.58441  0.022543771  0.022585729            1 
  809000   0.92521637   -7.7213213    218.12141  0.022468213  0.022570282            4 
  810000   0.92904185   -7.7336869    219.15652  0.022546967   0.02255475            3 
  811000   0.92025464   -7.7404259    218.48488  0.022450152  0.022539311            2 
  812000   0.92727173   -7.7299071    219.36819  0.022513156  0.022524029            2 
  813000   0.93686047   -7.6804967    219.07567  0.022455481  0.022508837            4 
  814000   0.92779499   -7.7165688    219.48393  0.022469689  0.022493779            1 
  815000   0.90644788   -7.7392503    218.90413  0.022382836  0.022478392            2 
  816000   0.93598711   -7.7278329    219.29679  0.022395506  0.022463062            2 
  817000   0.93612697   -7.7252268    219.18454  0.022356644  0.022447622            4 
  818000   0.92613167   -7.7175191    219.67143  0.022378915  0.022432128            3 
  819000   0.92907821   -7.7057732    219.59845  0.022344164  0.022416593            8 
  820000    0.9330645   -7.7380846    219.43479  0.022300284  0.022401163            4 
  821000   0.91029605   -7.6887652    219.97528  0.022327982  0.022385811            2 
  822000   0.91821401   -7.7036275    220.22605  0.022326242  0.022370502            2 
  823000   0.92363823   -7.7164081    220.55155  0.022332072  0.022355113            2 
  824000   0.91640714   -7.7243976    220.19347  0.022268757  0.022339593            1 
  825000   0.92876922   -7.6978272    220.07267  0.022229563    0.0223242            3 
  826000   0.91350791   -7.7195617    220.81564  0.022277607  0.022308647            2 
  827000   0.91607054   -7.7086386    220.60565  0.022229509  0.022293066            4 
  828000    0.9261828    -7.753747    220.19066  0.022160896  0.022277539            3 
  829000   0.93354664   -7.7474814    221.08318  0.022223882  0.022262045            2 
  830000   0.91699317   -7.7188832    221.49684  0.022238639   0.02224647            4 
  831000   0.92456293   -7.6732343    221.36172  0.022198327  0.022230994            3 
  832000    0.9204824   -7.7246702    221.32552  0.022168021  0.022215575            2 
  833000   0.91512972    -7.724038     221.7604  0.022184914  0.022200256            1 
  834000   0.93669636   -7.6616189    222.07131  0.022189379  0.022185025            2 
  835000   0.91973101    -7.727096    221.89868  0.022145577  0.022169767            4 
  836000   0.91070619   -7.7241313     221.7386   0.02210313  0.022154413            1 
  837000   0.91745749   -7.7302453    222.35314  0.022137907  0.022139218            2 
  838000   0.91412137   -7.7671193    221.59226  0.022035825  0.022123809            1 
  839000   0.90873617   -7.7531892    222.12155  0.022062133  0.022108262            3 
  840000   0.92814051   -7.7275076    221.56394   0.02198055  0.022092916            3 
  841000   0.93488684   -7.7414215    222.50335  0.022047498  0.022077536            3 
  842000   0.92793809   -7.7729172    221.79566  0.021951273  0.022062051            2 
  843000   0.91224074   -7.7394691    222.83922  0.022028393  0.022046722            2 
  844000   0.91378119   -7.7341402    223.43146  0.022060768  0.022031409            1 
  845000   0.91525441   -7.7703537    222.77936  0.021970351  0.022016006            2 
  846000   0.92228594   -7.7510876    222.82382  0.021948761  0.022000615            3 
  847000   0.90658168   -7.7436319    223.12703  0.021952679  0.021985123            1 
  848000   0.93570054   -7.7843971    222.80523  0.021895168  0.021969549            1 
  849000   0.93007529   -7.7824692     223.2061  0.021908726  0.021954072            2 
  850000   0.93100447   -7.7572902    222.46553  0.021810346  0.021938733            1 
  851000   0.91080097   -7.7312285    224.19496   0.02195407  0.021923373            2 
  852000    0.9159075   -7.7421002    224.01268  0.021910474  0.021908004            1 
  853000   0.93285805   -7.7805072    224.02009  0.021885511  0.021892754            1 
  854000   0.92517271   -7.7586371    224.24019  0.021881361   0.02187746            1 
  855000   0.92646695   -7.7860767    224.26003  0.021857702  0.021862089            5 
  856000   0.88675829    -7.786296    224.29673  0.021835741  0.021846722            1 
  857000   0.91266212   -7.7379624    224.75064  0.021854399  0.021831568            1 
  858000   0.92364657   -7.7615293    224.44176  0.021798927  0.021816372            2 
  859000    0.9025714   -7.7923999    224.58311  0.021787264  0.021801026            2 
  860000   0.91918104   -7.7802133    224.39255  0.021743464  0.021785512            3 
  861000   0.91680373   -7.7641713    224.84524  0.021762025  0.021770079            2 
  862000   0.90592778   -7.7453381    224.47797  0.021701273  0.021754749            1 
  863000   0.91476425    -7.747164    225.23992  0.021749703  0.021739633            2 
  864000   0.92783618   -7.7598867    224.74564  0.021676856  0.021724572            1 
  865000   0.94133056   -7.7706004    225.44729  0.021719392  0.021709317            1 
  866000   0.88173171   -7.7742652    225.80931  0.021729148  0.021694292            2 
  867000   0.89992485   -7.7828626    225.21022  0.021646504  0.021679221            2 
  868000   0.90418644   -7.7632227    225.31423  0.021631551  0.021663891            3 
  869000   0.90647254   -7.7916083    225.56678  0.021630877  0.021648562            2 
  870000   0.91715424   -7.7848938    226.12317  0.021659307  0.021633369            2 
  871000   0.92006745   -7.7647629    226.43644  0.021664413  0.021618373            2 
  872000   0.92001339   -7.7575737    226.90501  0.021684347  0.021603608            4 
  873000   0.90947439    -7.758057    227.16261  0.021684098  0.021588901            4 
  874000   0.90097812   -7.7588211    226.94995  0.021639012  0.021574012            3 
  875000   0.90937368    -7.807361    226.39696  0.021561615  0.021559098            2 
  876000   0.90864038    -7.771897    227.10184  0.021604057  0.021544535            2 
  877000   0.88313498   -7.7645327    227.61289  0.021627983  0.021530001            2 
  878000   0.90813363   -7.7187356     228.0272  0.021642673   0.02151556            1 
  879000   0.89940873   -7.7713722    227.38994  0.021557636  0.021500968            2 
  880000   0.89756862   -7.7622496    227.94604  0.021585799  0.021486438            2 
  881000   0.90560866   -7.7807625    227.91262  0.021558137  0.021471927            3 
  882000    0.8980313   -7.7727343    227.68167  0.021511873  0.021457393            1 
  883000   0.88906478    -7.790455    227.69658  0.021488918  0.021442671            1 
  884000   0.88250518    -7.806783    228.41894  0.021532706  0.021427996            3 
  885000   0.87798673   -7.8084128    228.29207  0.021496428  0.021413368            3 
  886000   0.89038875   -7.8268875    228.17599  0.021461248   0.02139863            2 
  887000   0.89276254   -7.7944086    228.47041  0.021464714  0.021383794            2 
  888000   0.89395695    -7.803191    228.18414  0.021413677  0.021369048            2 
  889000   0.90136807   -7.8236659    228.81379  0.021448612  0.021354269            1 
  890000     0.905694   -7.7721515    228.44899  0.021390354  0.021339642            2 
  891000   0.87827339   -7.7871341    228.89046  0.021407637  0.021325077            4 
  892000    0.8941106    -7.774645    229.43649   0.02143465  0.021310548            2 
  893000   0.89405175   -7.7727436    229.58361  0.021424375  0.021296216            2 
  894000   0.89113029   -7.7825005    229.39757   0.02138307  0.021281694            2 
  895000   0.91071561   -7.7939107    229.34569  0.021354348  0.021267111            5 
  896000   0.89103574   -7.7877644    229.54055  0.021348638  0.021252424            2 
  897000   0.87846188   -7.8228808    229.33684  0.021305912  0.021237753            4 
  898000   0.90835171   -7.8057831    229.17602  0.021267262  0.021223069            2 
  899000    0.9168029   -7.8001856    230.04126   0.02132381  0.021208476            1 
  900000   0.88801993   -7.7691307    229.92415  0.021289273  0.021193873            3 
  901000   0.89662967   -7.8012251    229.59376  0.021235087  0.021179312            6 
  902000   0.88191083   -7.8170238    229.99751  0.021248846  0.021164733            1 
  903000   0.90508239   -7.7998627    229.80125  0.021207203  0.021150165            1 
  904000   0.87387951   -7.8484984    229.24772  0.021132717  0.021135471            4 
  905000   0.90695347   -7.7987669    230.33803  0.021209764  0.021120735            1 
  906000   0.91932452   -7.7886886    230.21617  0.021175144  0.021106018            1 
  907000   0.88712562   -7.8278976    230.23204  0.021153256   0.02109129            2 
  908000   0.87508351   -7.8412992    229.96577  0.021105522  0.021076397            2 
  909000    0.9029839   -7.8099807     230.0983  0.021094453  0.021061543            2 
  910000   0.90927664   -7.8133082    230.03428   0.02106541  0.021046699            2 
  911000   0.88898397   -7.8213298    230.16678  0.021054407  0.021031689            3 
  912000    0.8891084   -7.8272316    230.15501  0.021030246  0.021016783            2 
  913000   0.88512069   -7.7976622    230.50964   0.02103958  0.021001993            3 
  914000   0.87781199   -7.8061293    230.49879  0.021015571  0.020987114            2 
  915000   0.89651948   -7.8370936    230.97648  0.021036109   0.02097229            2 
  916000   0.89045182   -7.8220793    230.60559  0.020979402  0.020957459            1 
  917000   0.88503687   -7.8377322     230.4582  0.020943129  0.020942599            3 
  918000    0.8744867    -7.810126    231.24918  0.020992119  0.020927817            4 
  919000   0.90015604   -7.8258602    230.90879  0.020938411  0.020912729            2 
  920000   0.86540719   -7.7963269    230.78944   0.02090484  0.020897653            3 
  921000   0.88353069   -7.8069402    230.74128  0.020877785  0.020882676            3 
  922000   0.89401891   -7.8372676    230.76131  0.020856952  0.020867662            1 
  923000   0.89364726    -7.840746    231.03691  0.020859237  0.020852492            3 
  924000   0.89086166   -7.8205949    231.39499  0.020868956  0.020837525            3 
  925000   0.87451765   -7.8244572    231.66756  0.020870951  0.020822611            1 
  926000   0.89249023   -7.8305154    231.71007  0.020852238  0.020807718            3 
  927000   0.89342823   -7.8388644    231.86643    0.0208438  0.020792805            1 
  928000   0.88126089   -7.8246471    232.20097   0.02085138  0.020777972            3 
  929000   0.90121177   -7.8416765    232.21454  0.020830152  0.020763132            2 
  930000   0.86912999   -7.8075121     232.4215    0.0208263  0.020748488            2 
  931000   0.87345651   -7.8324616    232.55549  0.020815922  0.020733728            1 
  932000    0.8938721   -7.8621409    232.11252   0.02075398  0.020718797            4 
  933000   0.87318203   -7.8199147    233.18434  0.020827468  0.020704013            1 
  934000   0.85626445   -7.8335148     233.1686  0.020803765  0.020689438            1 
  935000   0.88688686   -7.8232801    233.84516  0.020841815  0.020675002            1 
  936000   0.88330455   -7.8315222    233.57169    0.0207952  0.020660698            2 
  937000   0.88884406   -7.8153983    234.01344  0.020812295  0.020646191            2 
  938000    0.8694981   -7.8472929    233.50999   0.02074538  0.020631827            3 
  939000   0.91348376   -7.8380815    233.41254  0.020714638  0.020617279            2 
  940000   0.89379239   -7.8304242    234.33818  0.020774661  0.020602817            2 
  941000   0.87958935   -7.8688524    233.74561  0.020700108  0.020588386            2 
  942000    0.8845076   -7.8297713    233.99729  0.020700397  0.020573979            2 
  943000   0.86046512   -7.8574254    233.55274  0.020639161  0.020559693            1 
  944000   0.87957285   -7.8690662    233.78003  0.020637361  0.020545341            2 
  945000   0.87065607   -7.8853538    233.89193  0.020625391   0.02053096            2 
  946000   0.87281083   -7.8386078    234.46668  0.020654218  0.020516768            2 
  947000   0.86994575   -7.8731217    234.49824  0.020635185  0.020502412            2 
  948000   0.87218216   -7.8683567    234.31126  0.020596981   0.02048807            2 
  949000   0.89023885   -7.8476248    235.20776  0.020654001  0.020473919            3 
  950000   0.85623842   -7.8321955    235.11885   0.02062446  0.020459801            1 
  951000   0.88033823   -7.8517521    235.12376  0.020603203  0.020445779            3 
  952000    0.8796624   -7.8765521    234.75021  0.020548863  0.020431699            2 
  953000   0.87664604   -7.8551944      235.391  0.020583334  0.020417615            1 
  954000   0.87899874   -7.8398729    235.30341  0.020554106  0.020403501            1 
  955000   0.86832373   -7.8482081    235.12876  0.020517344  0.020389197            2 
  956000   0.87229485   -7.8591935    234.74603   0.02046252  0.020374832            4 
  957000   0.88784819   -7.8415429    235.79084  0.020532118  0.020360473            3 
  958000   0.88934801    -7.822701    235.64416  0.020497926  0.020346217            3 
  959000   0.86357021   -7.8985272    235.04687   0.02042465  0.020332082            1 
  960000   0.87821059   -7.8633378      235.157  0.020412934  0.020317811            1 
  961000   0.88654556    -7.848846    235.90308  0.020456389  0.020303687            3 
  962000   0.87944769   -7.8498256    236.23155  0.020463578  0.020289616            1 
  963000   0.85412078   -7.8427462    236.13944  0.020434358  0.020275507            1 
  964000   0.86119564   -7.8718418    236.19968  0.020418368  0.020261423            1 
  965000   0.85462898   -7.8911678    236.34183  0.020409484   0.02024725            2 
  966000   0.89393583    -7.886713    236.63364   0.02041353    0.0202331            3 
  967000   0.86093572   -7.8657538    236.00609  0.020338339  0.020218955            2 
  968000   0.87519944   -7.8875008    236.22048  0.020335785  0.020204688            1 
  969000   0.85752664   -7.8752691    236.58604  0.020346236  0.020190399            1 
  970000   0.85636519   -7.8727713     236.5287  0.020320335  0.020176119            4 
  971000    0.8769052   -7.8706137    236.33353  0.020282658  0.020161815            2 
  972000   0.86031613   -7.8715441    236.33455  0.020261878  0.020147594            3 
  973000   0.87830712   -7.8743987    236.65017  0.020268086  0.020133339            2 
  974000   0.86282197   -7.8978389    236.20396    0.0202091  0.020118983            1 
  975000   0.85249069   -7.9199706    236.44824  0.020209251  0.020104544            2 
  976000   0.85921041   -7.9013927    236.51722  0.020194435   0.02009004            1 
  977000   0.86200898   -7.8757625     236.1977  0.020146512  0.020075497            1 
  978000   0.84198876   -7.8902443    236.21677  0.020127537  0.020060941            2 
  979000   0.85402117   -7.8747706    236.27915  0.020112287  0.020046359            3 
  980000   0.85891971   -7.8562253    237.02598   0.02015527  0.020031707            2 
  981000   0.87280371   -7.8747396    236.19216  0.020063894  0.020017033            2 
  982000   0.85600465   -7.8863246    236.16964  0.020041551  0.020002307            5 
  983000   0.86619594   -7.9191945    236.25226  0.020028167  0.019987554            3 
  984000    0.8628669   -7.8603092    237.34936  0.020100725  0.019972858            2 
  985000   0.86788952   -7.8406444    237.00465  0.020051154  0.019958202            1 
  986000   0.87372101    -7.892483    237.19322  0.020046756  0.019943602            2 
  987000     0.850567   -7.8675277    237.00208  0.020010307  0.019928965            3 
  988000    0.8579204   -7.8984801    236.96989  0.019987339  0.019914359            3 
  989000   0.85919686   -7.8806695    237.17163  0.019984128  0.019899827            2 
  990000   0.86863388   -7.8738795    237.66336  0.020005333  0.019885282            3 
  991000   0.86289799   -7.9189975    237.14911  0.019941903  0.019870707            3 
  992000   0.84949679   -7.9208867    237.19455  0.019925617  0.019855943            1 
  993000   0.86053025   -7.9206515    237.55183  0.019935535  0.019841239            3 
  994000   0.85267304   -7.8878649    237.60761  0.019920155  0.019826558            2 
  995000   0.86221299   -7.8802829    238.12062  0.019943101  0.019811821            3 
  996000   0.86846127   -7.8868822    237.54189  0.019874656  0.019797185            2 
  997000   0.86493035   -7.9227756     237.0412  0.019812872  0.019782412            2 
  998000    0.8681563   -7.8962358    237.56054  0.019836385  0.019767675            1 
  999000   0.85899629   -7.8877755    237.88183  0.019843329  0.019753032            3 
 1000000    0.8649138   -7.9027134    237.98145  0.019831788  0.019738328            1 
 1001000     0.855546   -7.8971419    238.67192  0.019869457  0.019723731            2 
 1002000   0.86224432    -7.926479    237.69049  0.019768005  0.019709109            3 
 1003000   0.86305346     -7.93136    237.70966  0.019749888  0.019694356            1 
 1004000   0.86349635   -7.9183141    237.97457  0.019752205  0.019679662            2 
 1005000   0.86822521   -7.8816949    238.48149  0.019774585  0.019665012            2 
 1006000   0.84983563   -7.9024643    238.17344   0.01972941  0.019650426            1 
 1007000   0.87600611   -7.8683199    238.29086  0.019719535   0.01963582            3 
 1008000   0.85397984   -7.9175434    238.94241  0.019753837  0.019621124            1 
 1009000   0.83896387   -7.9075784    237.86518  0.019645291  0.019606425            3 
 1010000   0.85307494   -7.8703766    238.82602  0.019705117  0.019591792            1 
 1011000   0.83478944   -7.8904556    239.25767  0.019721206  0.019577222            2 
 1012000   0.84732266   -7.8570138    238.18959  0.019613767  0.019562498            3 
 1013000   0.86651463   -7.9211521    238.35653  0.019608138   0.01954781            1 
 1014000   0.85012453   -7.9334269     238.6163  0.019610149  0.019533136            3 
 1015000   0.83470002   -7.9200881    238.61658  0.019590852  0.019518399            3 
 1016000   0.84397402   -7.9178904    239.16947  0.019616919  0.019503682            2 
 1017000   0.85198483   -7.9469833    238.91383  0.019576682  0.019489081            2 
 1018000   0.85131502   -7.9417221    239.05008  0.019568605  0.019474531            4 
 1019000   0.85774984   -7.9416739     238.2046  0.019480258  0.019459969            2 
 1020000   0.84813117   -7.9119234     239.6501  0.019579256  0.019445464            1 
 1021000   0.85078084   -7.9336407    239.50187  0.019547981  0.019430973            1 
 1022000   0.83698692   -7.9137444    239.83425  0.019555956  0.019416562            2 
 1023000   0.84954874   -7.9572048    238.82195  0.019454378  0.019402072            3 
 1024000   0.84124401   -7.9106703    239.22396  0.019468096  0.019387462            3 
 1025000   0.83154044   -7.9111704    239.41456  0.019464598  0.019372851            4 
 1026000   0.84899074   -7.9395211    239.27921  0.019434633  0.019358264            2 
 1027000     0.839027   -7.9456207    239.08888  0.019400266  0.019343685            2 
 1028000   0.85179135   -7.9405025    239.67369  0.019428801  0.019329068            1 
 1029000   0.84583995   -7.9188361    239.54062  0.019399143  0.019314465            1 
 1030000   0.83876733   -7.9303192    239.07377  0.019342538   0.01929985            1 
 1031000   0.83679639   -7.9297316    239.88547  0.019389385  0.019285346            2 
 1032000   0.84401113   -7.9643961    239.91011  0.019372586  0.019270851            2 
 1033000   0.81776995   -7.9415542    240.09085  0.019368414  0.019256413            3 
 1034000   0.84510586   -7.9180801    240.34572  0.019370223  0.019241921            1 
 1035000   0.83324571   -7.9341843    239.98564  0.019322515  0.019227443            1 
 1036000   0.81662446   -7.9092107    240.76923  0.019366894  0.019213019            1 
 1037000   0.84526499   -7.9394269    240.30752  0.019311115  0.019198596            1 
 1038000   0.82617544    -7.899749    240.84121  0.019335358  0.019184122            2 
 1039000   0.84125733   -7.9749735    240.35624  0.019277851  0.019169557            2 
 1040000   0.83203451   -7.9681328    239.57107  0.019196399  0.019154968            3 
 1041000   0.81447063   -7.9532371    240.17003  0.019225907  0.019140351            2 
 1042000   0.83411948   -7.9520764    240.71751   0.01925124  0.019125773            2 
 1043000   0.83600651   -7.9846108    239.91949  0.019169023   0.01911122            2 
 1044000   0.85131235   -7.9674853    240.80289  0.019221176  0.019096627            1 
 1045000   0.85240186   -7.9499842    240.52295  0.019180459  0.019082116            2 
 1046000   0.83639491   -7.9228633     240.7565  0.019180728  0.019067681            2 
 1047000   0.83779543    -7.934609    240.50999  0.019142788  0.019053279            1 
 1048000   0.83609681   -7.9665483    241.10033  0.019171464  0.019038793            2 
 1049000   0.84269858   -7.9397451    240.65662  0.019117939  0.019024393            2 
 1050000   0.83662785   -7.9664053    240.42746  0.019081544  0.019009929            2 
 1051000    0.8323773   -7.9463969    241.17152  0.019122385  0.018995428            1 
 1052000   0.83557441   -7.9669621    241.27685  0.019112552  0.018981005            1 
 1053000   0.82619837   -7.9486117    241.27657  0.019094379  0.018966659            4 
 1054000   0.84116886   -7.9880768    241.44197   0.01908934  0.018952294            4 
 1055000   0.81414853   -7.9769589    241.29844  0.019059908  0.018937762            3 
 1056000   0.83499531    -7.963541    241.33606  0.019044828   0.01892333            3 
 1057000   0.85287488   -7.9575859     241.5492  0.019043614  0.018908921            1 
 1058000   0.83482512    -7.969002    241.61301   0.01903064  0.018894511            2 
 1059000   0.82652336   -7.9757596    241.13406  0.018974981  0.018880004            3 
 1060000   0.83608005    -7.988389    240.65438   0.01891937  0.018865388            5 
 1061000   0.80998127   -7.9629266    241.30461  0.018952608  0.018850736            1 
 1062000   0.83743967   -7.9725514    241.49596  0.018949777  0.018836175            3 
 1063000   0.82499779   -7.9506783    241.17521  0.018906805  0.018821704            4 
 1064000    0.8300589   -7.9655738     241.5633  0.018919431  0.018807161            2 
 1065000    0.8456816   -7.9726852    241.41374  0.018889964  0.018792606            4 
 1066000   0.81448906   -7.9803188    241.64606  0.018890405   0.01877803            1 
 1067000    0.8420357   -7.9933679     241.7521  0.018880982  0.018763506            2 
 1068000   0.82319775   -7.9589899     241.5033   0.01884389  0.018748965            1 
 1069000   0.82196141   -7.9972735     241.5296  0.018828313  0.018734487            2 
 1070000   0.84700184   -7.9916945    241.60017  0.018816212  0.018720022            1 
 1071000   0.83288857   -7.9558782    242.40867  0.018861552  0.018705543            2 
 1072000   0.82177093   -7.9191865    242.46186  0.018848092  0.018691108            1 
 1073000   0.83592465   -7.9550106    242.26152  0.018814967  0.018676656            2 
 1074000   0.83096522   -8.0239496    241.15359  0.018711483  0.018662119            3 
 1075000   0.83713059   -7.9855064     241.9749  0.018757744  0.018647466            4 
 1076000   0.82901927   -7.9740176     242.1826  0.018756397  0.018632925            3 
 1077000   0.81994456   -7.9603308    242.10139  0.018732698  0.018618378            1 
 1078000   0.80928352   -8.0053377    241.79975  0.018692003  0.018603812            1 
 1079000   0.81184937   -8.0169421    241.84294  0.018678015  0.018589241            2 
 1080000   0.81645976   -8.0017188    242.72132  0.018728497  0.018574674            1 
 1081000   0.80423862   -7.9943321    242.15572   0.01866757   0.01856017            3 
 1082000   0.82941465   -8.0114035    242.22895  0.018655957  0.018545751            2 
 1083000   0.82234653    -7.991225    242.15687  0.018633185   0.01853136            3 
 1084000   0.82269582   -7.9990842    242.22492  0.018621227  0.018516933            2 
 1085000   0.82118077   -8.0171363     242.4559  0.018621805  0.018502467            5 
 1086000   0.81255926   -8.0073287    242.87421  0.018636756  0.018487975            1 
 1087000   0.80818166   -8.0080662    242.71922   0.01860773  0.018473536            3 
 1088000   0.81802384   -7.9863051    242.93823  0.018607401  0.018459168            4 
 1089000   0.82848642   -7.9948702     241.9848  0.018517355  0.018444755            5 
 1090000   0.82470713   -8.0233542    242.23491  0.018519489  0.018430219            1 
 1091000   0.81319378   -8.0116184     242.9043  0.018553643  0.018415818            2 
 1092000    0.8344126   -8.0134133    242.69264    0.0185205  0.018401372            1 
 1093000    0.8072033   -7.9806209    243.02548  0.018528932  0.018387069            2 
 1094000    0.8084782   -8.0165496    242.49445  0.018471545  0.018372684            2 
 1095000   0.82710286   -8.0456858    242.70544  0.018470733  0.018358268            2 
 1096000   0.81440747   -7.9934072    243.71628  0.018530739  0.018343904            2 
 1097000    0.8170522   -8.0239623     243.1041  0.018467343  0.018329501            2 
 1098000   0.81396762   -8.0273134    241.88035  0.018357646  0.018315036            1 
 1099000   0.80414681   -8.0194201    243.09306  0.018432898  0.018300503            2 
 1100000   0.80384368   -8.0270788    243.04497  0.018412498  0.018286069            3 
 1101000   0.82249066   -8.0076065    243.60549  0.018438199  0.018271745            5 
 1102000   0.84314298   -7.9971731    243.80741  0.018436737  0.018257404            1 
 1103000   0.81194585   -8.0103419    243.21294  0.018375109  0.018243132            2 
 1104000   0.82636964   -8.0094102    243.75213  0.018399164  0.018228813            3 
 1105000   0.79163257   -8.0128675    243.46004  0.018360486  0.018214437            2 
 1106000   0.80109415   -8.0119906    243.68938  0.018361165  0.018200076            2 
 1107000   0.82959394   -7.9987759    243.26527  0.018312652  0.018185698            2 
 1108000   0.82794804   -7.9934978     242.8396  0.018264109  0.018171403            2 
 1109000   0.81803992   -8.0230099    243.59736  0.018304581  0.018157046            1 
 1110000   0.81263622   -8.0210965    243.54588  0.018284225  0.018142731            2 
 1111000   0.80964411   -8.0281226    243.27077  0.018247132  0.018128434            1 
 1112000   0.80747318   -7.9878702    243.97705  0.018283652  0.018114159            1 
 1113000   0.81620529   -8.0267917    243.86576  0.018258892  0.018099816            1 
 1114000   0.80780518   -8.0222192    243.66622  0.018227575  0.018085416            2 
 1115000   0.79872579   -8.0152428    243.49756  0.018198622  0.018071044            3 
 1116000   0.81519032   -8.0108894    243.44658  0.018178508  0.018056606            1 
 1117000   0.79903534   -8.0514676    244.14633  0.018214438  0.018042111            1 
 1118000   0.80273849   -8.0485452    243.77959   0.01817081  0.018027678            2 
 1119000   0.81989559   -8.0360939    243.97312  0.018168984  0.018013287            2 
 1120000   0.78976126   -8.0391974    243.62157  0.018126605  0.017998851            4 
 1121000   0.79879553     -8.03735    243.51357  0.018102407  0.017984466            5 
 1122000   0.81876444    -8.067054    243.30052  0.018070449  0.017970025            2 
 1123000   0.80377957   -8.0500964    243.68024  0.018082535  0.017955577            6 
 1124000   0.81925345   -8.0988138    243.13392  0.018025943  0.017941115            4 
 1125000   0.78620189   -8.0616223    243.51066  0.018037827  0.017926579            2 
 1126000   0.81064562   -8.0634704    243.86503  0.018048033  0.017912102            2 
 1127000   0.80806651   -8.0259885    243.93016  0.018036835  0.017897665            2 
 1128000   0.81687456   -8.0167207    244.44287  0.018058722  0.017883317            3 
 1129000   0.80501442   -8.0615518    244.46252  0.018044178  0.017869044            2 
 1130000   0.81831966   -8.0233536    243.94097  0.017989747  0.017854742            1 
 1131000   0.79776141   -8.0246744    244.20817  0.017993528  0.017840496            4 
 1132000   0.80792899   -8.0028338    244.00499  0.017962676  0.017826158            2 
 1133000   0.79736815   -8.0428198    243.82871  0.017933856  0.017811881            2 
 1134000   0.80228297   -8.0376798    244.13161  0.017940301  0.017797592            3 
 1135000   0.80478759   -8.0382427    244.57056  0.017956723  0.017783296            3 
 1136000     0.808265   -8.0601541    244.06196  0.017903607  0.017768932            2 
 1137000   0.80545655   -8.0582943    243.84411  0.017871893  0.017754566            3 
 1138000   0.80683406   -8.0708332    244.68914  0.017918068  0.017740242            2 
 1139000   0.80541544   -8.0775143    244.34413  0.017877094  0.017725915            2 
 1140000   0.79880738   -8.0767806    244.48102   0.01787142  0.017711649            2 
 1141000   0.81052448   -8.0425911    244.65354  0.017868357  0.017697454            2 
 1142000   0.79906067   -8.0721823    244.49081  0.017840835  0.017683249            2 
 1143000   0.80159805   -8.0518081    244.77569  0.017845997  0.017668997            2 
 1144000   0.81198822   -8.0560745    244.56202  0.017814833  0.017654769            2 
 1145000   0.80229086   -8.0586364    245.00061  0.017831194  0.017640565            3 
 1146000   0.79615619   -8.0684176    244.93358  0.017810761  0.017626352            4 
 1147000   0.79724311   -8.0860201    245.02952  0.017802203  0.017612201            3 
 1148000   0.79019212   -8.1045931    244.61581  0.017756665  0.017598003            1 
 1149000   0.80607924   -8.0544379    245.11697  0.017777558  0.017583901            1 
 1150000   0.79173266   -8.0601888    244.81238  0.017740027  0.017569927            4 
 1151000   0.78931799   -8.0513498    245.42722   0.01776913  0.017555972            2 
 1152000   0.78579898    -8.053923    245.76045  0.017777811  0.017542094            3 
 1153000   0.78689994    -8.066479    245.19915  0.017721823  0.017528193            2 
 1154000   0.79111897   -8.0618403    245.73065  0.017744848   0.01751432            4 
 1155000   0.78959872    -8.050446    245.96966  0.017746729  0.017500493            2 
 1156000    0.7889437   -8.0415996    245.41561  0.017691437  0.017486597            2 
 1157000   0.78136016   -8.0645557    245.60554  0.017689826  0.017472644            2 
 1158000   0.78685802   -8.0842286    245.50378  0.017667227  0.017458693            5 
 1159000   0.80372641   -8.0703675     245.4043  0.017644831  0.017444781            3 
 1160000   0.77905171   -8.0737116    245.64478  0.017646895  0.017430913            3 
 1161000   0.78602156   -8.0622086    246.70314  0.017707661  0.017417053            6 
 1162000   0.79607885   -8.0912647    246.40634  0.017671137  0.017403213            1 
 1163000   0.80763918   -8.0535595    246.33621  0.017650918  0.017389427            3 
 1164000   0.77743991   -8.0986627    245.72942  0.017592312  0.017375669            2 
 1165000   0.79046701   -8.0918885    246.14533  0.017606962  0.017361865            1 
 1166000   0.80598327   -8.0822155      246.271  0.017600843  0.017348127            2 
 1167000   0.79341594   -8.1207575    245.76253  0.017549452  0.017334308            2 
 1168000   0.80822277   -8.1051407    245.87512   0.01754246  0.017320455            3 
 1169000   0.77210412   -8.0984741    246.23547  0.017553142   0.01730666            5 
 1170000   0.78553418   -8.1112946    245.97169  0.017519351  0.017292952            3 
 1171000   0.79634546   -8.0996402    245.83058  0.017494348  0.017279244            2 
 1172000    0.7689146   -8.1137184    246.36888  0.017517696  0.017265483            3 
 1173000   0.79164368   -8.0867394    245.96943  0.017474384  0.017251713            1 
 1174000   0.78666006   -8.0821167    246.71593  0.017512488  0.017237996            2 
 1175000   0.77612327   -8.1054834    246.41462  0.017476214  0.017224269            1 
 1176000   0.79243587   -8.0795644    246.20432  0.017446451  0.017210547            2 
 1177000   0.79233896   -8.1152372    246.33176  0.017440652  0.017196754            1 
 1178000   0.77626121   -8.1006453    246.39601  0.017430391  0.017183019            1 
 1179000   0.77074339   -8.0985897    246.53124  0.017425165  0.017169315            1 
 1180000      0.78701   -8.1156591    246.41053  0.017401873  0.017155646            5 
 1181000    0.7605467   -8.1278908    246.48443  0.017392353  0.017141973            2 
 1182000   0.78520742   -8.1385987    246.55968  0.017382944  0.017128262            1 
 1183000   0.78804721   -8.1031967    246.38989   0.01735629  0.017114558            8 
 1184000   0.77863583   -8.0894445    247.15086   0.01739519  0.017100918            1 
 1185000   0.77238126   -8.1030648    246.65017    0.0173453  0.017087363            3 
 1186000   0.79040587   -8.1122464    247.27081  0.017374284  0.017073757            3 
 1187000   0.77634016    -8.105518    246.87618  0.017331942  0.017060139            1 
 1188000   0.76913087   -8.1258177    247.34738  0.017350405   0.01704654            1 
 1189000   0.78310563   -8.0851658    247.39909  0.017339437  0.017033021            1 
 1190000   0.78176568   -8.1182184    247.32598  0.017319747  0.017019553            2 
 1191000   0.78843523   -8.1149068    247.47691  0.017315765   0.01700619            2 
 1192000   0.77133525   -8.0715822    247.70022   0.01731685  0.016992785            1 
 1193000   0.78148123   -8.0718611    248.05965  0.017327441  0.016979414            3 
 1194000   0.79642956   -8.0926093    247.42103  0.017268358  0.016966028            4 
 1195000   0.77371655   -8.1028761    248.23999  0.017311017  0.016952597            2 
 1196000   0.79332053   -8.1207639     247.5032  0.017245206  0.016939124            4 
 1197000   0.77857798   -8.0950057    247.72308  0.017246107  0.016925712            1 
 1198000   0.77199414   -8.0897258    248.03457  0.017253379  0.016912279            2 
 1199000   0.78256661   -8.0704107    247.81941  0.017224034  0.016898795            2 
 1200000   0.75989375   -8.0942952    247.13677  0.017162276  0.016885376            2 
 1201000   0.76962932   -8.1312574    247.59362  0.017179685  0.016871889            1 
 1202000   0.77459136   -8.1297049     247.4424  0.017154909  0.016858445            2 
 1203000   0.77555798   -8.1148407     247.9877  0.017178422  0.016844934            1 
 1204000   0.78892374   -8.1325896    247.19657  0.017109397  0.016831399            2 
 1205000   0.78085404   -8.1124494    247.41622  0.017110389  0.016817886            3 
 1206000   0.76624341   -8.1000443    247.65311   0.01711257  0.016804454            3 
 1207000   0.79217183   -8.1316345    247.29148  0.017073424  0.016790951            4 
 1208000   0.77423656   -8.1491237    247.48209   0.01707244  0.016777503            2 
 1209000   0.76711896   -8.1404551     247.9211  0.017088578  0.016763979            2 
 1210000   0.76982596    -8.151816    246.70264   0.01699054  0.016750433            2 
 1211000   0.77876337    -8.126714     246.9872  0.016996091   0.01673686            2 
 1212000   0.75794321   -8.1436403    247.51606  0.017018431   0.01672326            2 
 1213000   0.77136018   -8.1567227    247.32415  0.016991217  0.016709643            1 
 1214000   0.75066079   -8.1716281    246.94178  0.016950973  0.016696001            4 
 1215000   0.78205403   -8.1302221    247.96786  0.017007398   0.01668249            3 
 1216000   0.75401894    -8.115172    247.48355  0.016960221  0.016669004            2 
 1217000   0.76654007   -8.1469367    247.14631  0.016923193  0.016655485            3 
 1218000   0.77159056    -8.143649    247.59263  0.016939835   0.01664193            3 
 1219000   0.76001231   -8.1552458    247.84557   0.01694323  0.016628398            1 
 1220000   0.75559651   -8.1546388    247.69418  0.016919001  0.016614859            4 
 1221000   0.77872921   -8.1394344    247.20303  0.016871624  0.016601299            2 
 1222000   0.77513286   -8.1656541    247.44554  0.016874355  0.016587827            2 
 1223000   0.75650137   -8.1287901    248.38419  0.016924516  0.016574429            1 
 1224000   0.75642091   -8.1413132    248.15545  0.016895115  0.016561088            2 
 1225000   0.76363103   -8.1400539    248.05865  0.016874738  0.016547727            1 
 1226000   0.75110181   -8.1212494    248.51867  0.016892242  0.016534379            3 
 1227000   0.76293658   -8.1215474    248.45929  0.016874442  0.016521108            2 
 1228000   0.75175025   -8.1486725    247.83489  0.016818329  0.016507835            2 
 1229000   0.76097175   -8.1472574     248.0182  0.016817073  0.016494518            1 
 1230000   0.77004532   -8.1357739    247.96857  0.016800038  0.016481241            2 
 1231000   0.75103929   -8.1526801    248.03895  0.016791156  0.016467917            1 
 1232000   0.76213496   -8.1644098    247.96273  0.016772371  0.016454559            2 
 1233000   0.75985077   -8.1562096    247.87117   0.01675258  0.016441213            2 
 1234000   0.75660706   -8.1702361    248.15579  0.016758225  0.016427909            2 
 1235000   0.75222848   -8.1546024    248.18684  0.016746751  0.016414706            3 
 1236000   0.76371385    -8.159081    248.59233   0.01676054  0.016401517            1 
 1237000   0.76244865   -8.1646702    248.80051  0.016761015  0.016388332            1 
 1238000   0.75361274   -8.1739249    248.10177  0.016700442  0.016375149            2 
 1239000   0.76329203   -8.1275585    248.68792  0.016726387  0.016362017            2 
 1240000   0.76109597   -8.1667493    248.44517  0.016696584  0.016348875            3 
 1241000    0.7599827   -8.1760045    248.16885  0.016664575  0.016335689            4 
 1242000    0.7570945   -8.1416242    248.84152  0.016696291  0.016322514            3 
 1243000   0.76395202   -8.1637743     248.6711  0.016671434  0.016309342            3 
 1244000    0.7504429   -8.1606184    248.31996   0.01663451  0.016296189            3 
 1245000   0.74244795   -8.1857366    248.44147  0.016629282  0.016283029            1 
 1246000   0.75864216   -8.1617827     248.7783  0.016638463   0.01626988            2 
 1247000   0.75050398   -8.1807315    248.93817  0.016635804  0.016256785            1 
 1248000   0.74787674   -8.1566756    248.40518  0.016586885  0.016243643            1 
 1249000   0.76826702   -8.1651631    248.50279  0.016580117  0.016230569            3 
 1250000   0.75200083   -8.1883603    248.48855  0.016565903  0.016217453            2 
 1251000     0.759952    -8.188281    248.04296  0.016522979  0.016204327            1 
 1252000   0.74775003   -8.1610738    248.94797  0.016570019  0.016191243            3 
 1253000   0.76896915   -8.1908794    248.08056  0.016499106  0.016178226            1 
 1254000   0.75956944   -8.1700588    248.81663  0.016534864  0.016165121            2 
 1255000   0.75158941   -8.1381728    249.39913  0.016560367  0.016152046            2 
 1256000   0.73881646   -8.1480042    249.45678  0.016551007  0.016139039            2 
 1257000   0.75414139   -8.1471031    249.05919  0.016511482  0.016126069            2 
 1258000   0.74548873   -8.1873059    249.45306  0.016524447  0.016113168            1 
 1259000   0.74446579   -8.1984607    248.87914  0.016473335  0.016100228            3 
 1260000   0.75357591   -8.1726283    249.90911   0.01652838  0.016087355            1 
 1261000   0.76103206   -8.1612984    249.82636  0.016509804   0.01607449            2 
 1262000   0.75314303   -8.1710603    249.19063  0.016454743    0.0160616            1 
 1263000    0.7476867   -8.1731857    248.98179  0.016427936   0.01604877            3 
 1264000   0.73813176   -8.1647283    249.00305   0.01641634  0.016035933            5 
 1265000   0.74856982   -8.1706176    249.60551   0.01644305  0.016023076            2 
 1266000   0.74281212   -8.1750075    249.09525  0.016396475  0.016010205            2 
 1267000   0.73874367   -8.1723236    249.32157   0.01639842  0.015997282            3 
 1268000   0.73459191   -8.1590932    249.00028  0.016364371   0.01598438            3 
 1269000    0.7660487   -8.1842611    249.43795  0.016380217  0.015971516            2 
 1270000   0.74222403   -8.1998127    249.31194  0.016359051  0.015958635            1 
 1271000   0.76317454   -8.1945498    249.57455  0.016363398  0.015945727            2 
 1272000   0.73918792   -8.1402359    249.89276  0.016371381  0.015932821            3 
 1273000   0.74002396   -8.1720358    248.93112  0.016295569   0.01591998            2 
 1274000   0.75304197   -8.1970208    249.51423   0.01632092  0.015907152            2 
 1275000   0.72726154   -8.1891362    249.89183    0.0163328  0.015894325            2 
 1276000   0.73918385   -8.1598841      249.766  0.016311782  0.015881469            3 
 1277000   0.73749529   -8.1924589    249.76067  0.016298661  0.015868634            1 
 1278000    0.7329278   -8.1929002    249.16368   0.01624698   0.01585577            2 
 1279000   0.73544763   -8.1908404    249.11986  0.016231421  0.015842892            2 
 1280000   0.74217096   -8.2148983    249.99529  0.016275735      0.01583            2 
 1281000   0.72590648   -8.2133259     249.4584  0.016228103  0.015817108            2 
 1282000   0.75912845   -8.2104546    249.38389  0.016210601  0.015804225            3 
 1283000   0.72535676   -8.2402108    249.06393  0.016177184  0.015791326            3 
 1284000   0.73785554    -8.236891    249.37004  0.016184452  0.015778494            4 
 1285000   0.72315503    -8.210026    250.18164   0.01622449   0.01576568            5 
 1286000   0.73507412    -8.223663    249.15973  0.016145654   0.01575284            4 
 1287000   0.75043975     -8.22164    249.26738  0.016140079  0.015739994            2 
 1288000   0.73799278   -8.2021177    249.43801  0.016138587  0.015727114            4 
 1289000   0.74193756   -8.2064988     249.4662   0.01612789  0.015714249            2 
 1290000   0.74951126   -8.2434695    249.47635  0.016116043  0.015701396            2 
 1291000   0.73867699   -8.2113358    249.98605  0.016136461  0.015688614            1 
 1292000   0.73929621   -8.1874282    250.22979  0.016139692  0.015675907            7 
 1293000   0.72053189   -8.1875047    249.78002  0.016098222  0.015663144            1 
 1294000   0.72626932    -8.243371    249.25559  0.016052009  0.015650349            4 
 1295000   0.74875253   -8.2130077    249.87101  0.016079216  0.015637579            1 
 1296000   0.71402097   -8.2148682    250.03067  0.016077075  0.015624767            5 
 1297000   0.73046889   -8.2247395    249.25641  0.016014933  0.015611915            4 
 1298000   0.73931745   -8.2242989    249.06504  0.015990308  0.015599119            1 
 1299000   0.71839675    -8.194198    249.65435  0.016015804  0.015586334            6 
 1300000   0.72832196   -8.1788159    249.79816  0.016012702  0.015573586            2 
 1301000   0.72124483   -8.2297777    250.12554  0.016021364  0.015560846            2 
 1302000   0.72795276   -8.2494446    249.76413  0.015985927  0.015548095            1 
 1303000    0.7274291   -8.2361546    249.33966  0.015946512   0.01553533           13 
 1304000   0.72574999   -8.2319427     249.7059  0.015957688  0.015522608            2 
 1305000   0.73777788   -8.2330288    249.49152   0.01593177   0.01550987            5 
 1306000   0.73724145   -8.2107417    250.03542  0.015954277  0.015497187            2 
 1307000   0.72596471   -8.2187448    250.18826  0.015951815  0.015484558            3 
 1308000   0.73168963   -8.2405609    250.42039  0.015954408  0.015471927            2 
 1309000   0.72972308   -8.2417677    249.64056  0.015892575  0.015459272            3 
 1310000   0.72556178   -8.2425403    250.31324  0.015923234  0.015446629            1 
 1311000   0.73810993   -8.1988247    250.32354  0.015911743  0.015434052            6 
 1312000   0.73043456    -8.244018    250.03706  0.015881419  0.015421495            3 
 1313000   0.72745068   -8.2241885    250.85269   0.01592109  0.015408945            3 
 1314000   0.74214609   -8.2208311    250.51256  0.015887403  0.015396419            2 
 1315000   0.71729062   -8.2163759    250.51693  0.015875598  0.015383869            2 
 1316000   0.72701304   -8.2497455    250.01031  0.015831453  0.015371336            2 
 1317000   0.72691109   -8.2405509    250.29283  0.015837309  0.015358757            1 
 1318000   0.73330402   -8.2465232    249.97423  0.015805149  0.015346212            3 
 1319000   0.72748276   -8.2569936     250.9633  0.015855655  0.015333681            2 
 1320000   0.72324081   -8.2679161    250.11904  0.015790343  0.015321174            2 
 1321000   0.71361623   -8.2429806    250.08546  0.015776272  0.015308694            2 
 1322000   0.72312632   -8.2715458    250.28133  0.015776685  0.015296219            2 
 1323000   0.73913296     -8.27565    249.96274  0.015744693  0.015283694            2 
 1324000   0.73121836   -8.2383332    250.11657  0.015742483  0.015271222            5 
 1325000   0.74230339   -8.2795022    250.52091  0.015756032  0.015258757            1 
 1326000   0.72964145   -8.2649033    250.06842  0.015715713  0.015246286            4 
 1327000   0.72074658    -8.253151     250.5341  0.015733113  0.015233821            6 
 1328000   0.72613035   -8.2490403    250.57182  0.015723634  0.015221363            2 
 1329000   0.73476475   -8.2792726    250.59069  0.015712985  0.015208912            2 
 1330000   0.72175811   -8.2408057    250.66415  0.015705774  0.015196509            2 
 1331000   0.73027991   -8.2822308    250.50731  0.015684154  0.015184117            1 
 1332000   0.70669196   -8.2498673    250.38305  0.015664605   0.01517176            2 
 1333000   0.71839147   -8.2504506    250.15734  0.015638743   0.01515941            5 
 1334000    0.7177154   -8.2335735    250.35172  0.015639163  0.015147058            2 
 1335000   0.71929652   -8.2617466    250.58519  0.015642022  0.015134775            2 
 1336000    0.7417331   -8.2296665    250.89027  0.015649343  0.015122499            2 
 1337000   0.72674575   -8.2607823    250.79027  0.015631405  0.015110229            3 
 1338000   0.72767402   -8.2715538    250.42462   0.01559695  0.015097966            2 
 1339000   0.71662716   -8.2686089    250.11379  0.015565956  0.015085639            2 
 1340000   0.70272711   -8.2683551    250.80716   0.01559746  0.015073332            1 
 1341000   0.71409534   -8.2617844    250.75366  0.015582504  0.015060993            2 
 1342000   0.71614168   -8.2785101    250.76375  0.015571519  0.015048692            2 
 1343000   0.72453874   -8.2956397    250.43741  0.015539676  0.015036393            3 
 1344000   0.72463823   -8.2560218    251.15106  0.015572363  0.015024162            4 
 1345000   0.72675068   -8.2944377    251.03956  0.015553876  0.015011936            2 
 1346000   0.72280279   -8.2500035    250.66082  0.015518872  0.014999717            4 
 1347000   0.73489562   -8.2880524    250.53435  0.015499527  0.014987467            1 
 1348000   0.71287272   -8.2575028    250.74132  0.015500823  0.014975187            2 
 1349000    0.7190959   -8.3097968    250.14404  0.015452436  0.014962881            3 
 1350000   0.71536815   -8.2570427    251.06773  0.015498008  0.014950555            4 
 1351000   0.70423809   -8.3029673    250.46723  0.015449496  0.014938236            2 
 1352000   0.71316012   -8.2878191    250.35024  0.015430858   0.01492591            2 
 1353000    0.7064939   -8.2906754     250.8073  0.015447604  0.014913602            3 
 1354000   0.71351707    -8.294239    250.79234  0.015435274  0.014901296            2 
 1355000   0.71115824   -8.2947701    250.84041  0.015426839  0.014888997            2 
 1356000   0.70225086    -8.278834    250.95473  0.015422489  0.014876708            1 
 1357000   0.70614502   -8.2803548    250.59778  0.015389203  0.014864419            1 
 1358000   0.69858688    -8.298556    250.63294  0.015380028  0.014852155            1 
 1359000   0.70820414   -8.2794714    250.68022   0.01537161  0.014839937            3 
 1360000   0.70041231   -8.2675253    250.62575   0.01535697  0.014827736            5 
 1361000    0.7152607   -8.2751083    250.46279  0.015335709  0.014815517            2 
 1362000   0.73259285   -8.2775042    250.74309  0.015341599  0.014803285            1 
 1363000   0.70679704   -8.2766746    250.59399  0.015321227  0.014791031            2 
 1364000   0.70366553   -8.3003676    250.68039  0.015315273  0.014778808            2 
 1365000   0.69978708   -8.2972864    250.28731  0.015280055  0.014766572            2 
 1366000   0.70793986   -8.2886007     250.3526  0.015272853  0.014754353            3 
 1367000    0.7346893    -8.286213    250.62463  0.015278263   0.01474218            2 
 1368000   0.72144433   -8.2809609    250.46548    0.0152574  0.014729988            3 
 1369000   0.72430835   -8.3053051    250.09522  0.015223717  0.014717803            1 
 1370000     0.708732   -8.3062401    250.70677  0.015249804  0.014705611            3 
 1371000   0.68335783   -8.2922915    250.64878  0.015235156  0.014693426            5 
 1372000   0.69059455   -8.3095382    250.57212  0.015219395  0.014681231            5 
 1373000   0.70202348   -8.2972406    250.62689  0.015211634  0.014669063            4 
 1374000   0.70685177   -8.2863681    250.85748  0.015214549  0.014656924           15 
 1375000   0.70781519   -8.3091866     250.7634  0.015197782   0.01464474            7 
 1376000   0.71634074   -8.2906994    250.22669  0.015154233  0.014632576            2 
 1377000   0.69739468   -8.2869916     250.3554  0.015151017  0.014620386            3 
 1378000     0.709393   -8.3133427    250.49087  0.015148214  0.014608177            1 
 1379000   0.71045437   -8.3178277    250.44368  0.015134377  0.014595973            2 
 1380000   0.68789688   -8.3104638    250.43657  0.015122981  0.014583826            2 
 1381000   0.71613906   -8.3181559    250.82032  0.015135187  0.014571664            3 
 1382000   0.70011414   -8.3241651    250.06558  0.015078726  0.014559533            3 
 1383000   0.70727737   -8.3387784    249.75624  0.015049183  0.014547371            2 
 1384000   0.71638669   -8.2886991    250.45351  0.015080293  0.014535252            2 
 1385000   0.69657915   -8.2975465    250.51244  0.015072951  0.014523164            2 
 1386000   0.69850434   -8.3066223    250.22618  0.015044864  0.014511089            4 
 1387000   0.68745264   -8.3389627    250.52084  0.015051721  0.014499015            2 
 1388000   0.68697327   -8.3330712    250.74983  0.015054625  0.014486945            2 
 1389000   0.69907174   -8.2915107    251.10165  0.015064894  0.014474895            1 
 1390000   0.70875004   -8.3016791    250.79907  0.015035915  0.014462872            2 
 1391000   0.70577866   -8.2905788    250.59364  0.015012799  0.014450831            2 
 1392000   0.69816689   -8.3016951    250.72394  0.015009814  0.014438792            3 
 1393000   0.69890236   -8.3355487    250.45721  0.014983083  0.014426736            1 
 1394000   0.70269482   -8.3666853    250.86721  0.014996844  0.014414709            2 
 1395000   0.69616633   -8.3161829    250.46776  0.014962232  0.014402658            1 
 1396000   0.69832477   -8.3522636    250.48044  0.014952271   0.01439059            2 
 1397000   0.69298365   -8.3491239    250.97429  0.014971026  0.014378527            1 
 1398000   0.69118594   -8.3467843     250.6933  0.014943568  0.014366494            1 
 1399000   0.69331872   -8.3147094    250.65541   0.01493063  0.014354487            2 
 1400000   0.69995447   -8.3411377    250.14125   0.01488936  0.014342463            2 
 1401000   0.69831321   -8.3591687    250.14957  0.014879228  0.014330434            2 
 1402000   0.69477879   -8.3369112    250.60632  0.014895763  0.014318394            1 
 1403000   0.70433106   -8.3559264    249.77535   0.01483579  0.014306342            2 
 1404000   0.69353592    -8.381597    249.76791  0.014824781  0.014294297            2 
 1405000   0.69124875   -8.3387626    250.23015  0.014841646  0.014282295            2 
 1406000    0.6900141   -8.3385642    250.06045  0.014821032  0.014270288            2 
 1407000   0.67958032   -8.3664939    250.13402  0.014814855   0.01425829            1 
 1408000   0.70557943    -8.363035    249.97018  0.014794636  0.014246255            2 
 1409000   0.70089101   -8.3639279    250.59177    0.0148209  0.014234254            7 
 1410000   0.70178504   -8.3541879    250.23179  0.014789113  0.014222245            2 
 1411000   0.68072735   -8.3535139    250.60483  0.014800663  0.014210267            4 
 1412000   0.68884253    -8.375696    250.39018  0.014777513  0.014198341            4 
 1413000    0.6846969   -8.3598779     250.3852  0.014766761  0.014186404            1 
 1414000   0.68913305   -8.3433738    250.49554  0.014762821  0.014174487            2 
 1415000   0.69373375   -8.3941278    250.13572  0.014731197  0.014162545            4 
 1416000   0.67562771   -8.3794088    250.37344  0.014734784  0.014150605            1 
 1417000   0.69952115   -8.3588025    250.50447  0.014732091  0.014138672            1 
 1418000    0.6850899   -8.3490275    250.04022  0.014694418  0.014126745            3 
 1419000   0.68620693   -8.3696696    250.02158  0.014682968  0.014114839            1 
 1420000   0.69362073   -8.3700118    250.18734  0.014682356  0.014102935            2 
 1421000   0.68926972   -8.3714789    250.39772  0.014684361  0.014091037            3 
 1422000   0.68960836   -8.3537845    250.67939  0.014690541  0.014079135            4 
 1423000   0.67466758   -8.3574931    250.36857  0.014662015  0.014067246            2 
 1424000   0.68938525   -8.3790611    250.39325  0.014653163  0.014055332            2 
 1425000   0.68733959   -8.3532964    250.63498  0.014657016  0.014043475            2 
 1426000   0.68356573   -8.3836516    250.04089   0.01461202  0.014031592            3 
 1427000   0.69337177   -8.3676963    250.06672  0.014603289  0.014019746            2 
 1428000   0.67242428   -8.3825555    249.65347  0.014568947  0.014007909            2 
 1429000   0.68648888   -8.3571562    250.64395  0.014616512  0.013996046            2 
 1430000   0.67647876   -8.3689676    250.11932  0.014575718  0.013984223            3 
 1431000    0.6724755   -8.3709267    249.81599  0.014547868  0.013972344            2 
 1432000   0.69173306   -8.3708101    249.95326  0.014545697  0.013960525            1 
 1433000    0.6845964    -8.368166    250.28299  0.014554721  0.013948723            1 
 1434000   0.68470665   -8.3819398    250.69066  0.014568263   0.01393692            2 
 1435000   0.68764196   -8.3922823    250.39596  0.014540996  0.013925122            2 
 1436000   0.68119086   -8.3704971    250.40943  0.014531652  0.013913354            3 
 1437000   0.67794743   -8.3743615    250.75152  0.014541378  0.013901573            1 
 1438000   0.67728873   -8.3917605    250.71405  0.014529094  0.013889828            2 
 1439000   0.66332873   -8.3488174    250.70714  0.014518598  0.013878141            1 
 1440000   0.68422967   -8.3977366    250.50705  0.014496936  0.013866485            4 
 1441000   0.68614574   -8.3597176    250.25713  0.014472422  0.013854797            2 
 1442000   0.68282172    -8.376602    250.53913  0.014478683  0.013843135            2 
 1443000   0.67906019   -8.3945239    250.66699  0.014476033  0.013831458            1 
 1444000   0.67957942   -8.3966684       250.61   0.01446272  0.013819779            2 
 1445000   0.68919813   -8.3990318    250.67411  0.014456408  0.013808098            2 
 1446000   0.67663184   -8.3883048    250.18088  0.014417985  0.013796417            1 
 1447000   0.65998714   -8.3797062    250.43137  0.014422447  0.013784722            5 
 1448000   0.66375473   -8.3935605    250.48724  0.014415702  0.013773074            4 
 1449000    0.6710163   -8.3864156     250.1444  0.014386036  0.013761406            4 
 1450000   0.67663015   -8.4052993    250.17732  0.014378007  0.013749739            4 
 1451000   0.67994215   -8.3888941    250.07538  0.014362243   0.01373811            3 
 1452000   0.67179753   -8.4144289    250.17558  0.014358103  0.013726467            2 
 1453000   0.66251839   -8.3919501    250.38523  0.014360245  0.013714834            2 
 1454000   0.66933503   -8.3956417     250.5567  0.014360196  0.013703232            2 
 1455000   0.66464866   -8.3870265    250.34736  0.014338337  0.013691603            3 
 1456000   0.64974491   -8.3719693    250.23856  0.014322262  0.013680024            2 
 1457000   0.67507545    -8.369516    250.14562  0.014307116  0.013668431            4 
 1458000   0.67879185   -8.4019925    250.23729  0.014302543   0.01365688            5 
 1459000   0.68324066   -8.3929075    250.24197  0.014293007  0.013645362            3 
 1460000   0.67379115   -8.3812602    250.37771  0.014290965   0.01363383            1 
 1461000   0.66086307   -8.3990597    250.32788  0.014278341  0.013622306            2 
 1462000   0.66762483    -8.407442     250.7106   0.01429039  0.013610777            2 
 1463000   0.68559184    -8.398011    250.48127  0.014267559  0.013599275            2 
 1464000   0.66937068   -8.4235297    250.56899  0.014262807  0.013587744            2 
 1465000   0.66548932   -8.4029097    250.56691  0.014252953  0.013576243            1 
 1466000   0.67566926   -8.4228713    250.31164   0.01422872  0.013564753            2 
 1467000    0.6629207   -8.3947377    250.55278  0.014232719  0.013553264            3 
 1468000   0.65651574   -8.4210762    250.41231  0.014215049  0.013541786            3 
 1469000   0.66350726    -8.412027    250.83368  0.014229276  0.013530286            3 
 1470000   0.64956603   -8.4310785    249.82967  0.014162679  0.013518775            2 
 1471000    0.6727186   -8.4295078    251.02237  0.014220619  0.013507269            3 
 1472000   0.64891174   -8.4205795    250.07142  0.014157123  0.013495776            1 
 1473000   0.66082329   -8.4345671    249.95582  0.014140972  0.013484283            2 
 1474000   0.66070229   -8.4413257    250.30786  0.014151281  0.013472797            3 
 1475000   0.66765607   -8.4289034    250.46168  0.014150377  0.013461321            3 
 1476000   0.65974179   -8.4263933    250.04496  0.014117263  0.013449867            2 
 1477000   0.66042401   -8.4143807    250.05472  0.014108256  0.013438415            3 
 1478000   0.65062367   -8.4176697     250.5508   0.01412668  0.013426969            3 
 1479000   0.65035178   -8.4241101    250.10601  0.014092067  0.013415545            2 
 1480000   0.65488109   -8.4249804    250.30627  0.014093822    0.0134041            1 
 1481000   0.66170947   -8.4207654    250.35251  0.014086907  0.013392695            6 
 1482000   0.65176533   -8.4391746    250.47833  0.014084476  0.013381291            2 
 1483000   0.65367076   -8.4241169    250.35308  0.014067941  0.013369906            4 
 1484000   0.65380041   -8.4423782    250.26335  0.014053423  0.013358544            2 
 1485000   0.64149687    -8.441856    250.23948   0.01404262   0.01334717            2 
 1486000   0.65181113   -8.4395956    250.31256  0.014037268  0.013335813            2 
 1487000   0.65314111   -8.4449149      249.952  0.014007622  0.013324471            2 
 1488000   0.65603988   -8.4308698    250.26173  0.014015554   0.01331315            2 
 1489000   0.66275364   -8.4255116    250.26353  0.014006242  0.013301832            4 
 1490000   0.66543271   -8.4310366    249.78328  0.013969982  0.013290492            2 
 1491000    0.6593034   -8.4548959    250.29895  0.013989434  0.013279178            6 
 1492000   0.64847649   -8.4212887    249.93779  0.013959885  0.013267833            4 
 1493000   0.66790342   -8.4436479     250.0837  0.013958679  0.013256515            3 
 1494000   0.66601887   -8.4237305    250.01905   0.01394573   0.01324519            9 
 1495000   0.65407253   -8.4487608    249.91338  0.013930511  0.013233894            2 
 1496000   0.66917004   -8.4152868    250.20093  0.013937218  0.013222615            4 
 1497000   0.65759146   -8.4318855    250.48959  0.013943977  0.013211345            6 
 1498000   0.64887105   -8.4362808    250.25926  0.013921855  0.013200105            4 
 1499000   0.64280538   -8.4317877    250.23674  0.013911315  0.013188876            2 
 1500000   0.66903987   -8.4422544    249.91604  0.013884224  0.013177661            2 
 1501000   0.66519221   -8.4232812    249.69495    0.0138627  0.013166451            2 
 1502000   0.64785186   -8.4251119    250.08048   0.01387486  0.013155215            4 
 1503000   0.66087437   -8.4354718    250.17569  0.013870908  0.013144004            3 
 1504000   0.65370914   -8.4402161    249.80206  0.013840983  0.013132796            3 
 1505000   0.63674748   -8.4430281    249.91176  0.013837861  0.013121597            1 
 1506000   0.66610079    -8.464936    249.70145  0.013817035  0.013110389            2 
 1507000   0.66635992    -8.431053    250.26286  0.013838911  0.013099202            3 
 1508000   0.64924834   -8.4251955    250.02959  0.013816843  0.013088046            4 
 1509000   0.64445005   -8.4126594    250.15852  0.013814807  0.013076881            2 
 1510000   0.66400207    -8.437707    250.49387  0.013824165   0.01306574            1 
 1511000   0.64923853   -8.4531717    250.74175  0.013828687  0.013054624            2 
 1512000   0.66424201   -8.4399847    250.03389  0.013780528  0.013043525            1 
 1513000   0.64358242   -8.4307947    250.12778  0.013776591  0.013032395            2 
 1514000   0.64548386   -8.4513803    250.17337  0.013770001  0.013021271            2 
 1515000   0.65403605   -8.4483595    250.00703  0.013751762   0.01301013            1 
 1516000   0.64378695    -8.441043    249.65618  0.013723405  0.012999002            2 
 1517000   0.65230752   -8.4665758    249.69995  0.013716763  0.012987876            1 
 1518000   0.65153097   -8.4563738    249.71929  0.013708788  0.012976727            3 
 1519000   0.65981153   -8.4507231    249.87126  0.013708101  0.012965609            2 
 1520000    0.6472159   -8.4564581    250.43602  0.013730045  0.012954519            3 
 1521000    0.6555877   -8.4280775    250.10213  0.013702724  0.012943431            3 
 1522000   0.65571057   -8.4483502    250.61328  0.013721708  0.012932377            1 
 1523000   0.65036302   -8.4492468    249.63197  0.013659005   0.01292132            2 
 1524000    0.6469864   -8.4526775    250.26354  0.013684577  0.012910304            3 
 1525000   0.65542784   -8.4687727    249.85734  0.013653407  0.012899243            2 
 1526000   0.62805226   -8.4675496    249.73055  0.013637536  0.012888211            2 
 1527000   0.63601986   -8.4868326    249.47446  0.013614629  0.012877169            3 
 1528000   0.64628861   -8.4787619    249.90158  0.013629013  0.012866137            3 
 1529000   0.62532143   -8.4885707     249.7531  0.013612007  0.012855095            1 
 1530000   0.62638978   -8.4414953    250.29154  0.013632437  0.012844101            1 
 1531000   0.62523505   -8.4609827    250.09734  0.013612962  0.012833079            1 
 1532000   0.64606022   -8.4667132    249.76505  0.013586001  0.012822063            2 
 1533000   0.63531742   -8.4716533    249.49881  0.013562667  0.012811055            2 
 1534000   0.63850184   -8.4640574    250.00219   0.01358117  0.012800034            1 
 1535000   0.63405753   -8.4732652    249.54811  0.013547671  0.012789019            2 
 1536000   0.62954503   -8.4655171     249.6035  0.013541857  0.012778022            5 
 1537000   0.63963441   -8.4598991    249.55556  0.013530447  0.012767039            3 
 1538000   0.64525048    -8.476845    249.95551   0.01354332  0.012756063            2 
 1539000   0.64154376   -8.4800497    249.67884  0.013519539    0.0127451            3 
 1540000   0.64859671   -8.4804206    250.29132  0.013543903  0.012734125            2 
 1541000   0.64122155   -8.5028659    249.75212  0.013505955   0.01272317            2 
 1542000   0.65242203   -8.4813245    249.66962  0.013492738  0.012712216            3 
 1543000   0.62682186   -8.4521202    250.20278  0.013512788  0.012701293            3 
 1544000   0.63766476   -8.4765247    249.43645  0.013462675  0.012690367            2 
 1545000   0.63694184   -8.4745906    249.27835  0.013445434  0.012679469            6 
 1546000   0.64312575   -8.4746941    249.85652  0.013467902  0.012668571            2 
 1547000   0.62849424   -8.5020008    249.58329  0.013444478  0.012657677            3 
 1548000   0.63771413   -8.4954925     249.2636  0.013418583  0.012646783            4 
 1549000   0.63784232    -8.487104    249.16844  0.013404801  0.012635899            3 
 1550000   0.64194449   -8.4834127    249.60627  0.013419692  0.012625039            2 
 1551000   0.63360173   -8.4801258    249.57063  0.013409125  0.012614181            1 
 1552000   0.63348481    -8.490011    249.42176  0.013392492  0.012603342            2 
 1553000   0.62793103   -8.4833393    249.93309  0.013411305  0.012592505            3 
 1554000   0.63811184   -8.4792831    249.36251  0.013372078  0.012581669            3 
 1555000   0.61062559   -8.4834224    249.73146  0.013383251   0.01257087            3 
 1556000   0.63063036   -8.4855331     249.5342  0.013364085   0.01256008            2 
 1557000   0.63761256   -8.4863592    249.52512  0.013355016  0.012549285            2 
 1558000    0.6289584   -8.5148242    249.32039  0.013335494  0.012538515            4 
 1559000   0.62799917   -8.5079009    249.40748  0.013331595  0.012527724            4 
 1560000   0.64132881   -8.4714229    249.47937  0.013326889  0.012516968            3 
 1561000   0.63180926   -8.4675818    249.20197  0.013303543  0.012506222            1 
 1562000   0.62557316   -8.4726232    250.25526  0.013351219  0.012495506            3 
 1563000   0.62730701   -8.4894063    249.70918  0.013313562  0.012484825            4 
 1564000   0.62983054   -8.4933935    249.53096  0.013295554   0.01247411            2 
 1565000   0.63411877   -8.4948182    249.66239  0.013294057  0.012463411            3 
 1566000   0.63597141   -8.4931488    249.63251  0.013283977  0.012452741            4 
 1567000   0.63049073   -8.4887652    249.86848  0.013288049  0.012442078            2 
 1568000   0.62991556   -8.5046978    249.60033  0.013265324  0.012431445            6 
 1569000   0.61233997   -8.4726313    249.95475  0.013275693  0.012420825            3 
 1570000   0.62327707   -8.4893275    249.76093  0.013256949  0.012410207            4 
 1571000    0.6247935   -8.5002984    249.79109  0.013250111  0.012399587            7 
 1572000   0.63156742   -8.4905593    249.69029  0.013236338  0.012388976            2 
 1573000   0.62392252   -8.4720527    249.73948   0.01323053  0.012378395            3 
 1574000   0.61958892   -8.4986533    249.51769  0.013210382  0.012367812            7 
 1575000   0.61828898   -8.4994036    249.35953  0.013193626  0.012357224            4 
 1576000   0.62711687   -8.4959347    249.75158  0.013205985  0.012346648            4 
 1577000   0.61804376   -8.4982817    249.36413  0.013177136  0.012336076            2 
 1578000   0.63208041   -8.4985093    249.25396  0.013162968  0.012325512            2 
 1579000    0.6192361   -8.5111278    249.73091  0.013179803   0.01231495            3 
 1580000   0.63917227   -8.5230169    249.63802  0.013166562  0.012304397            1 
 1581000   0.62158171   -8.4940938    249.54368  0.013153262  0.012293849            2 
 1582000    0.6168936   -8.5073095    249.53381  0.013144428  0.012283311            5 
 1583000   0.61885162   -8.5132377    249.36049     0.013127  0.012272766            7 
 1584000   0.62802587   -8.4930322    249.06322  0.013103073  0.012262229            6 
 1585000   0.62896067   -8.5167531    249.39165  0.013112074   0.01225171            2 
 1586000   0.62446291   -8.5225945    249.12398  0.013089743  0.012241177            7 
 1587000   0.62155851   -8.5120279    249.38135  0.013095009  0.012230634            1 
 1588000   0.61374444   -8.5237982    249.36269  0.013085783  0.012220114            2 
 1589000   0.60717113   -8.5223786    249.35357   0.01307707  0.012209614            4 
 1590000   0.63616366   -8.5327901    249.38066  0.013070265  0.012199115            3 
 1591000   0.60196705   -8.5260751     249.3791  0.013061968  0.012188641            4 
 1592000   0.61730177   -8.5228841    249.85085  0.013078458  0.012178189            3 
 1593000   0.61283371   -8.5162143    249.19225  0.013035794  0.012167747            2 
 1594000    0.6217873   -8.5293811    249.46944  0.013042108  0.012157313            3 
 1595000   0.62306959   -8.5077537    249.15575  0.013017542  0.012146865            2 
 1596000   0.62081987   -8.5166902    248.95219  0.012998757  0.012136424            4 
 1597000   0.61538491   -8.5207935    249.16266    0.0130016  0.012125988            4 
 1598000    0.6130617   -8.5332774    249.14276  0.012992426  0.012115555            2 
 1599000   0.61043687   -8.5420331     248.9366  0.012973556  0.012105142            2 
 1600000   0.61310581   -8.5268954    249.35901  0.012987449  0.012094724            2 
 1601000   0.60443683    -8.532374    248.82308  0.012951441  0.012084315            5 
 1602000    0.6134194   -8.5274304    249.12588  0.012959107  0.012073918            3 
 1603000   0.60897382   -8.5266625    249.15901  0.012952745  0.012063517            1 
 1604000   0.61139318   -8.5176781    249.23839  0.012948794  0.012053136            2 
 1605000   0.60300228   -8.5525069    249.32187  0.012945061  0.012042754            2 
 1606000   0.61177052   -8.5308233    249.08796  0.012924863  0.012032375            3 
 1607000   0.60026792   -8.5449986    249.37075  0.012931485  0.012022004            1 
 1608000   0.61963781    -8.553899    248.81245  0.012894509  0.012011636            2 
 1609000   0.61467957   -8.5497716    248.90358  0.012891215  0.012001254            4 
 1610000   0.61304625   -8.5529118    249.30208  0.012903835    0.0119909            2 
 1611000   0.61294512   -8.5288246    248.55563  0.012857212   0.01198054            2 
 1612000   0.60098906   -8.5240418    249.13459  0.012879166  0.011970213            3 
 1613000   0.60240896   -8.5553382    248.96905  0.012862629  0.011959905            2 
 1614000   0.60816255    -8.540165     248.7541  0.012843562   0.01194959            4 
 1615000   0.61186695   -8.5543412    249.14974  0.012856024  0.011939282            1 
 1616000   0.61377524   -8.5478881    248.32274  0.012805422  0.011928976            3 
 1617000   0.61319179   -8.5303342     249.4488  0.012855535  0.011918691            2 
 1618000   0.61510907   -8.5453058    248.80987  0.012814682  0.011908412            2 
 1619000   0.62248879   -8.5435753    248.86528  0.012809619   0.01189813            2 
 1620000   0.60740858   -8.5163568    248.76191  0.012796394  0.011887877            4 
 1621000   0.60826307   -8.5235139    249.36294  0.012819398  0.011877638            1 
 1622000   0.60576382   -8.5448952    249.16027  0.012801082  0.011867404            4 
 1623000   0.60085953   -8.5502531    248.51978  0.012760309  0.011857165            3 
 1624000   0.61199455     -8.52993    248.88834  0.012771364  0.011846947            3 
 1625000   0.60651596   -8.5499873    249.15151     0.012777  0.011836727            2 
 1626000   0.60374822   -8.5631097    248.86394  0.012754404  0.011826496            2 
 1627000   0.60773417   -8.5562241    248.72648  0.012739524  0.011816285            1 
 1628000   0.60629562   -8.5305241    248.89177   0.01274016  0.011806088            2 
 1629000   0.59471504   -8.5640925    248.61042  0.012717947  0.011795901            3 
 1630000   0.60583099   -8.5549593    249.09282  0.012734807  0.011785725            2 
 1631000   0.59139307   -8.5807711    248.28682  0.012685818  0.011775549            2 
 1632000   0.59273916   -8.5485355    249.01887  0.012715424  0.011765389            2 
 1633000   0.60845214   -8.5681578    248.73574  0.012693189  0.011755223            1 
 1634000   0.59492719   -8.5483078    248.46564  0.012671646  0.011745095            1 
 1635000   0.61037919   -8.5554557    248.48485  0.012664875  0.011734936            2 
 1636000   0.61125287   -8.5730699    248.73934  0.012670097  0.011724807            2 
 1637000   0.59717785   -8.5692546    249.07737  0.012679565  0.011714678            1 
 1638000   0.60278471    -8.557229    248.55768  0.012645385  0.011704564            1 
 1639000   0.59797731    -8.555656     248.7022  0.012645017   0.01169446            3 
 1640000   0.60109451   -8.5671429    248.52642  0.012628375  0.011684364            2 
 1641000   0.59812346   -8.5437432    248.63408  0.012626147  0.011674268            1 
 1642000   0.59644555   -8.5626113    248.38992  0.012606066  0.011664191            2 
 1643000   0.59225567   -8.5541926    248.42186  0.012600013   0.01165411            2 
 1644000   0.59126832   -8.5599689    248.47521  0.012595053  0.011644044            2 
 1645000   0.60704004   -8.5774215    248.23705  0.012575332   0.01163398            2 
 1646000   0.61128438   -8.5746138    248.65598  0.012588901  0.011623948            2 
 1647000   0.60515931   -8.5880351    248.52625  0.012574694  0.011613908            1 
 1648000   0.60528803   -8.5574831    248.59915   0.01257075  0.011603888            3 
 1649000   0.59710565   -8.5685367    248.21954  0.012543943  0.011593863            2 
 1650000    0.6119015   -8.5783938    248.34647  0.012542751  0.011583834            2 
 1651000   0.58849838   -8.5800761    248.42294  0.012539014  0.011573833            2 
 1652000   0.59569237   -8.5852444    248.52245  0.012536443  0.011563835            2 
 1653000   0.59624639   -8.5911546    248.13771  0.012509463  0.011553845            2 
 1654000   0.57745018   -8.5828824    248.10905  0.012500456  0.011543855            2 
 1655000   0.58308588   -8.5762957    248.43053   0.01250909  0.011533888            6 
 1656000   0.58289986    -8.593271    248.18714  0.012489289  0.011523944            2 
 1657000   0.58861628   -8.5731222    248.66438  0.012505753  0.011514017            1 
 1658000    0.5873415   -8.5713206    249.08306  0.012519253  0.011504103            1 
 1659000   0.59633767   -8.5731708    248.73621  0.012494284  0.011494201            2 
 1660000   0.58917785   -8.5947992     248.4492  0.012472349  0.011484305            7 
 1661000   0.59094036   -8.5883454    248.24009  0.012454349  0.011474418            1 
 1662000   0.58056072   -8.5911054     248.2919  0.012449454   0.01146454            2 
 1663000   0.57764988    -8.595185    248.16388  0.012435552  0.011454659            1 
 1664000    0.5972377   -8.5799481    248.60046  0.012449943  0.011444792            2 
 1665000   0.58510603   -8.6004629    248.27963  0.012426408  0.011434926            2 
 1666000   0.59217418   -8.5786261    248.60317  0.012435133  0.011425072            3 
 1667000   0.59014727   -8.5907685    248.67519  0.012431273  0.011415231            3 
 1668000   0.58468353   -8.5985396    247.97321   0.01238875  0.011405389            1 
 1669000   0.60446915   -8.5864909    248.55514  0.012410383  0.011395571            3 
 1670000   0.59162232   -8.5921396     248.5097  0.012400684  0.011385768            3 
 1671000   0.58885731   -8.5958628    248.36666  0.012386129  0.011375955            2 
 1672000   0.59953702    -8.596314    248.32777  0.012376783  0.011366167            2 
 1673000   0.58879326   -8.5856578    248.79189  0.012392503  0.011356395            5 
 1674000   0.59081862   -8.5888412    248.50673  0.012370904  0.011346636            5 
 1675000   0.57274024   -8.5990136    248.28342  0.012352409  0.011336875            3 
 1676000   0.58622133   -8.5931768    248.24553  0.012343155  0.011327123            4 
 1677000   0.58774657    -8.595066     248.2886  0.012337935  0.011317388            2 
 1678000   0.58774649   -8.5905461    248.53794  0.012342965  0.011307653            2 
 1679000   0.57565273   -8.6069898    248.50643   0.01233405  0.011297932            1 
 1680000   0.58361852   -8.6065503    248.54568  0.012328655  0.011288223            3 
 1681000   0.57118404   -8.5908962     248.0242  0.012295469  0.011278516            2 
 1682000   0.57759068   -8.6014003    248.19299  0.012296521  0.011268821            3 
 1683000   0.58001459   -8.5950308    248.05546  0.012282406  0.011259138            4 
 1684000   0.58876589   -8.5940273    248.47569  0.012295907   0.01124946            3 
 1685000     0.576323   -8.5933095    248.32057  0.012280938  0.011239785            4 
 1686000   0.57886946   -8.6103329    248.36152  0.012275678  0.011230124            1 
 1687000   0.58193279   -8.6073385    248.30275  0.012265498   0.01122049            1 
 1688000   0.57969078   -8.5988067    248.12439  0.012249427   0.01121086            2 
 1689000   0.58125078   -8.5934375    248.35804  0.012253703  0.011201233            4 
 1690000   0.57429714   -8.6140376    248.76968  0.012266749  0.011191605            4 
 1691000   0.57830365   -8.6152967    248.10235  0.012226609   0.01118199            4 
 1692000   0.57283045   -8.5939756    247.95182  0.012211969  0.011172393            7 
 1693000   0.58069821   -8.6052891    248.47143  0.012230332  0.011162807            2 
 1694000   0.56540821   -8.5879859      248.188   0.01220917  0.011153228            1 
 1695000   0.57417424   -8.6078616    248.24905  0.012204968  0.011143654            3 
 1696000   0.57380087   -8.6112837    248.36493  0.012203465    0.0111341            2 
 1697000   0.57522056   -8.6048774    248.57234   0.01220646  0.011124553            3 
 1698000   0.58950009   -8.5907559    248.18259  0.012180143  0.011115014            3 
 1699000   0.58247989   -8.6000087    248.74683  0.012200649  0.011105498            2 
 1700000   0.57972893   -8.5905034    248.39274  0.012176115  0.011095967            6 
 1701000   0.57002702   -8.6008436    248.53928  0.012176135  0.011086441            4 
 1702000   0.58245798   -8.6021077    247.97719   0.01214146  0.011076927            3 
 1703000   0.57439834   -8.6251323    248.46111  0.012158011  0.011067427            2 
 1704000   0.57550855    -8.597931    248.42595  0.012149156  0.011057939            4 
 1705000   0.56471322   -8.6239063    248.55179  0.012148181  0.011048459            4 
 1706000   0.57828517   -8.6323733    248.26048  0.012126831  0.011038986            3 
 1707000     0.576885   -8.6264601    248.17043  0.012115331  0.011029518            5 
 1708000   0.55833917   -8.6207934    248.30598  0.012114851  0.011020063            3 
 1709000   0.57903871   -8.6236237    247.69115  0.012077782  0.011010622            3 
 1710000   0.57492568   -8.6295802    248.05792  0.012088593  0.011001186            2 
 1711000   0.56456348   -8.6478584    247.79311   0.01206863  0.010991748            3 
 1712000   0.55762588   -8.6315247     248.2906  0.012085797   0.01098233            4 
 1713000   0.57129813    -8.623935    247.95628  0.012062477  0.010972915            1 
 1714000   0.56793596   -8.6042556    248.17218  0.012065936   0.01096351            4 
 1715000   0.57613683   -8.6536084    247.82047  0.012041811  0.010954106            2 
 1716000   0.56535615   -8.6212606    247.92674  0.012039955  0.010944725            2 
 1717000   0.56976952   -8.6488999    248.19355  0.012045891  0.010935337            2 
 1718000   0.56921162   -8.6330503    247.38882  0.011999846  0.010925957            3 
 1719000   0.57154337   -8.6317777    248.43436  0.012043551  0.010916595            2 
 1720000   0.55413446     -8.64034    247.80348  0.012005983  0.010907246            3 
 1721000   0.57608537   -8.6359112    248.12886  0.012014762  0.010897896            1 
 1722000   0.56533421   -8.6270266    248.08764   0.01200579  0.010888563            3 
 1723000   0.56178199   -8.6449765    247.88072  0.011988814  0.010879237            6 
 1724000   0.56218805   -8.6424324    247.72077  0.011974129  0.010869922            4 
 1725000    0.5603651   -8.6359173    248.10621  0.011985807  0.010860617            3 
 1726000   0.55328168   -8.6554018    247.90332  0.011969067  0.010851319            1 
 1727000   0.56134205   -8.6458643    248.28839  0.011980718  0.010842023            3 
 1728000   0.55251244   -8.6203897    248.02874  0.011961263  0.010832753            1 
 1729000   0.56443064   -8.6349396    247.75251  0.011941031  0.010823493            2 
 1730000   0.57106369   -8.6433974    247.95537    0.0119439  0.010814249            2 
 1731000   0.56599319   -8.6324993    248.09009  0.011943486  0.010804997            1 
 1732000   0.56908214   -8.6499383    247.88621  0.011926781  0.010795765            7 
 1733000   0.56903951    -8.656426    247.77722  0.011914658  0.010786536            2 
 1734000   0.55603099   -8.6305418    247.90864  0.011914102  0.010777309            5 
 1735000   0.57562239   -8.6307403    248.19372  0.011920928  0.010768099            2 
 1736000   0.56782525    -8.628499    247.98323  0.011903957  0.010758897            5 
 1737000    0.5653911   -8.6564981    248.20365  0.011907678  0.010749708            1 
 1738000   0.55590528   -8.6470324    247.83458  0.011883131  0.010740531            1 
 1739000   0.55893428   -8.6392961    247.67536  0.011868668  0.010731364            2 
 1740000   0.55207087   -8.6434678    247.53239     0.011855  0.010722202            2 
 1741000    0.5577164   -8.6573921     247.8115   0.01186155  0.010713046            3 
 1742000   0.55183745   -8.6442115    247.38289  0.011834237  0.010703894            5 
 1743000   0.56261295    -8.654753    248.24525  0.011868677  0.010694759            1 
 1744000   0.56895721   -8.6444885     248.0445  0.011852279  0.010685635            2 
 1745000   0.55665786   -8.6556896    247.49035  0.011819023  0.010676525            1 
 1746000   0.56253462   -8.6407908    248.19632  0.011845949   0.01066742            2 
 1747000   0.56037694   -8.6424394    248.08017  0.011833627  0.010658322            2 
 1748000   0.55610669   -8.6462783    248.33695  0.011839099  0.010649228            3 
 1749000   0.55998195   -8.6416737    247.77043  0.011805338  0.010640153            2 
 1750000   0.55002909   -8.6553314    247.90524  0.011805011  0.010631092            4 
 1751000   0.56480122    -8.651363     247.7393  0.011790372  0.010622034            2 
 1752000   0.54486352   -8.6577997    247.70928  0.011782214   0.01061299            2 
 1753000   0.55725508   -8.6586322    247.77098  0.011778426  0.010603959            4 
 1754000   0.55658031   -8.6560436    247.94377   0.01177992  0.010594927            4 
 1755000   0.55883695    -8.661209    247.75959  0.011764463  0.010585903            2 
 1756000    0.5579456      -8.6613    247.80071  0.011759715  0.010576885            3 
 1757000   0.55979507   -8.6594017     247.9313  0.011759216  0.010567883            1 
 1758000   0.54884822   -8.6508906    247.82324  0.011747404   0.01055887            1 
 1759000   0.54991611   -8.6504888    247.50445  0.011725623  0.010549865            2 
 1760000   0.53948034   -8.6679575    247.92831   0.01173903  0.010540882            5 
 1761000   0.56100338     -8.67279    247.48317  0.011711299  0.010531906            2 
 1762000   0.53880964   -8.6803211    247.89503  0.011724131   0.01052294            3 
 1763000   0.53868671   -8.6802548    248.33633   0.01173834  0.010513994            1 
 1764000   0.55122999   -8.6870267    247.43687  0.011689195  0.010505049            2 
 1765000   0.54759365   -8.6679615    247.66035  0.011693123  0.010496103            4 
 1766000    0.5499101   -8.6606504    247.86759  0.011696281   0.01048718            1 
 1767000   0.54627622   -8.6569658     247.7554  0.011684371  0.010478251            5 
 1768000   0.55187426    -8.663104    247.58114  0.011669548  0.010469331            2 
 1769000   0.54974394   -8.6569792    247.96633  0.011681097  0.010460423            4 
 1770000   0.54340812   -8.6475781    247.56547  0.011655625  0.010451521            3 
 1771000     0.545761   -8.6516151     247.7681  0.011658578  0.010442638            2 
 1772000   0.54803163   -8.6523087    247.97878  0.011661907  0.010433754            3 
 1773000   0.53841468   -8.6745832    247.39207  0.011627753  0.010424877            2 
 1774000   0.54648746    -8.671473     247.3633  0.011619847  0.010416001            3 
 1775000   0.53806573   -8.6556639    247.55098  0.011622112  0.010407133            4 
 1776000   0.54223276     -8.67548    247.64665  0.011620057  0.010398261            2 
 1777000   0.53999977   -8.6613605    247.03604  0.011584883    0.0103894            2 
 1778000   0.54834201   -8.6737257    247.58533  0.011604112  0.010380554            6 
 1779000   0.53985128   -8.6752527    247.11158  0.011575397  0.010371717            2 
 1780000   0.52939898   -8.6747275     247.4332  0.011583951  0.010362896            1 
 1781000   0.53994836   -8.6823133    247.49399  0.011580292  0.010354079            4 
 1782000   0.53459312   -8.6782438    247.61919  0.011579648  0.010345273            2 
 1783000   0.53528241   -8.6636871    247.65087  0.011574634  0.010336486            3 
 1784000   0.54680471    -8.672899    247.74956  0.011572756  0.010327704            2 
 1785000   0.53225049    -8.676706    247.76322   0.01156691  0.010318936            3 
 1786000   0.54396849   -8.6702894    247.12062  0.011530451  0.010310165            3 
 1787000   0.53679751   -8.6778134    247.47634  0.011540586  0.010301395            2 
 1788000    0.5473529   -8.6726031    246.97264  0.011510656  0.010292642            2 
 1789000   0.53623293   -8.6594218    247.39799  0.011524035  0.010283897            5 
 1790000   0.54859445   -8.6634308    247.49674  0.011522195   0.01027517            2 
 1791000   0.52999423   -8.6724846    247.44966  0.011513571  0.010266451            2 
 1792000   0.53691425   -8.6814874    247.47073  0.011508125  0.010257731            2 
 1793000   0.53907122   -8.6542292    247.41447  0.011499092  0.010249019            2 
 1794000   0.53333185   -8.6757043    247.17467  0.011481543  0.010240314            5 
 1795000   0.53449731   -8.6905508    247.76155  0.011502393  0.010231615            1 
 1796000    0.5259209   -8.6821645    247.26085  0.011472756  0.010222933            3 
 1797000   0.54942031   -8.6867444    247.47741  0.011476415  0.010214249            3 
 1798000   0.54712118   -8.6948835    247.38231  0.011465625  0.010205572            2 
 1799000    0.5378428   -8.6671768    247.21586  0.011451541  0.010196911            2 
 1800000   0.53096314    -8.699151    247.13936  0.011441637  0.010188251            2 
 1801000   0.53212952   -8.6789942    247.42802  0.011448641  0.010179599            2 
 1802000   0.53936049   -8.6808103    247.58724   0.01144965  0.010170965            3 
 1803000    0.5364293   -8.6786971    247.35333  0.011432489  0.010162338            4 
 1804000   0.52975325   -8.6980574    247.10444  0.011414655  0.010153718            2 
 1805000   0.53464256   -8.6737389    247.43025  0.011423373  0.010145119            4 
 1806000   0.53530729    -8.683678    247.01525  0.011397898  0.010136513            5 
 1807000   0.52398669   -8.6676932    247.21804  0.011400943  0.010127929            3 
 1808000   0.52501245    -8.684612    247.48467  0.011406926  0.010119354            3 
 1809000   0.52578506   -8.6906187    247.28959  0.011391634  0.010110791            3 
 1810000   0.52633288   -8.6962683     247.4207  0.011391377  0.010102224            3 
 1811000    0.5408386   -8.6763578    247.63263  0.011394839  0.010093679            2 
 1812000   0.53112528   -8.6922865    247.59423  0.011386784  0.010085146            2 
 1813000   0.52989887   -8.6946979    246.90247  0.011348707  0.010076614            2 
 1814000   0.52498309   -8.7119467    247.18138  0.011355264   0.01006809            2 
 1815000   0.52638449   -8.6959487    247.58237  0.011367418  0.010059568            2 
 1816000   0.52207397   -8.6918605    247.01451  0.011335101  0.010051046            2 
 1817000   0.51909483   -8.6863948    247.18243  0.011336563  0.010042532            2 
 1818000   0.52220942   -8.7011764    247.21983  0.011332042  0.010034033            2 
 1819000   0.54097567   -8.7005669    246.89092  0.011310744  0.010025536            2 
 1820000   0.52348956   -8.7130807    247.26751  0.011321772   0.01001705            4 
 1821000   0.51880113   -8.6858891    246.92904  0.011300066  0.010008572            3 
 1822000   0.53304109   -8.6832584    247.79251  0.011333357  0.010000106            3 
 1823000   0.52191209   -8.7058272     247.0125  0.011291484 0.0099916468            2 
 1824000   0.52056601   -8.6974838    247.16121  0.011292087  0.009983204            2 
 1825000    0.5327951   -8.6970207    246.73466  0.011266423  0.009974761            2 
 1826000   0.52607445   -8.6985234    247.14724  0.011279082 0.0099663289            3 
 1827000    0.5264168   -8.6982301    247.35936  0.011282584 0.0099579019            1 
 1828000   0.52357801   -8.6984696    247.08436  0.011263875 0.0099494813            2 
 1829000   0.52576409   -8.7086014    247.14486  0.011260473 0.0099410752            3 
 1830000    0.5103425   -8.7066646    247.14333   0.01125425 0.0099326743            2 
 1831000   0.53166432   -8.7007932    247.33599  0.011256872   0.00992428            5 
 1832000   0.52033319    -8.711837    246.98185  0.011234618 0.0099158907            3 
 1833000   0.51710849   -8.7120985    246.92497  0.011225903 0.0099075152            2 
 1834000    0.5336458   -8.7086608    246.76731  0.011212619 0.0098991407            2 
 1835000   0.51766988   -8.7067602    246.93657  0.011214195 0.0098907784            3 
 1836000   0.52179035   -8.7257441    246.80872  0.011202284 0.0098824274            2 
 1837000   0.51463297   -8.7247631    246.72609  0.011192437 0.0098740782            3 
 1838000   0.51510774   -8.7144711    247.21797  0.011208649 0.0098657423            2 
 1839000   0.53470119   -8.7200959     247.0429  0.011194621 0.0098574142            2 
 1840000   0.52085476   -8.7268423    246.93237  0.011183531   0.00984908            3 
 1841000   0.51784746   -8.7109693    246.84523  0.011173512 0.0098407652            3 
 1842000   0.52476076    -8.721341    246.78733  0.011164827 0.0098324517            2 
 1843000   0.51926629   -8.7203862    247.28441  0.011181245 0.0098241419            3 
 1844000   0.51464862   -8.7094108    246.88452   0.01115711  0.009815849            2 
 1845000   0.50102019   -8.7265874    246.80727  0.011147573  0.009807567            1 
 1846000   0.52103374   -8.6992424    246.76381  0.011139572 0.0097992833            3 
 1847000    0.5200786   -8.7173644    247.01965  0.011145084 0.0097910226            3 
 1848000   0.52296132   -8.7254367    246.03341   0.01109458 0.0097827608            2 
 1849000   0.50372987   -8.7233102     246.8694  0.011126257 0.0097745164            1 
 1850000   0.51163485   -8.7269349    247.10845  0.011131011 0.0097662731            3 
 1851000   0.51378575     -8.72122    246.76121  0.011109365 0.0097580461            4 
 1852000   0.51768819   -8.7069341    246.66869  0.011099203 0.0097498287            3 
 1853000   0.51091428   -8.7183867    246.65186  0.011092457 0.0097416132            3 
 1854000   0.50064125   -8.7147985    247.05689  0.011104679 0.0097334078            4 
 1855000     0.503624   -8.7126598     247.1344  0.011102174 0.0097252086            2 
 1856000   0.50169632   -8.7288002    246.96956  0.011088791 0.0097170176            1 
 1857000   0.50641253   -8.7363863    246.82899  0.011076512 0.0097088317            4 
 1858000   0.51683088   -8.7265605    246.85569  0.011071748 0.0097006575            2 
 1859000   0.52272045   -8.7210647    246.78157   0.01106247 0.0096924891            1 
 1860000     0.515721   -8.7013633    246.87677  0.011060787 0.0096843327            2 
 1861000   0.50786069   -8.7228406    246.82748  0.011052636 0.0096761898            1 
 1862000   0.50653893   -8.7412246    247.12308   0.01105993 0.0096680609            3 
 1863000   0.51285673   -8.7237004    246.55941   0.01102878 0.0096599249            2 
 1864000    0.5243282   -8.7519583    246.58769  0.011024128 0.0096518081            2 
 1865000     0.509209   -8.7156721    246.67195  0.011021982 0.0096437017            5 
 1866000    0.5072714   -8.7243972    247.07091  0.011033892  0.009635596            2 
 1867000   0.50362802   -8.7475457    246.79111  0.011015493 0.0096274985            4 
 1868000   0.50748981   -8.7310629    246.64511  0.011003083 0.0096194186            3 
 1869000   0.49633428   -8.7161099    246.68519  0.010998983 0.0096113403            2 
 1870000   0.51012318   -8.7323432    247.11997  0.011012476 0.0096032733            3 
 1871000   0.50334867   -8.7259238    247.17603  0.011009088 0.0095952109            2 
 1872000   0.50004005   -8.7269236    246.77287  0.010985259  0.009587154            2 
 1873000   0.49981324   -8.7205844    246.44251  0.010964696 0.0095791065            2 
 1874000   0.51003536   -8.7274699    246.66331  0.010968664 0.0095710712            2 
 1875000   0.49550827   -8.7255948    247.00158  0.010977848 0.0095630328            2 
 1876000   0.50867066   -8.7302824     246.5928  0.010953838 0.0095549997            3 
 1877000    0.4965851   -8.7313231    246.26962  0.010933654  0.009546979            2 
 1878000    0.5020425   -8.7381878    246.76598  0.010949857 0.0095389618            4 
 1879000   0.51360224   -8.7425292    246.50531  0.010932469 0.0095309587            4 
 1880000   0.49870817   -8.7355653    246.76054  0.010937967 0.0095229617            2 
 1881000    0.5106141   -8.7255589    246.74652  0.010931531 0.0095149768            2 
 1882000   0.50457705   -8.7458269    246.81121  0.010928587 0.0095070008            2 
 1883000   0.51145717   -8.7391359    246.55014  0.010911229  0.009499032            2 
 1884000   0.50228743   -8.7487706    246.50299  0.010903352 0.0094910653            6 
 1885000    0.4981064   -8.7227911    246.73909  0.010908006 0.0094831254            2 
 1886000   0.48975362   -8.7528129    246.96334   0.01091213 0.0094751855            2 
 1887000    0.5059096   -8.7423589    246.98541  0.010907323 0.0094672553            1 
 1888000   0.49384963   -8.7389983    246.35877  0.010873886 0.0094593258            5 
 1889000   0.49568501   -8.7352156     246.6718  0.010881939 0.0094514157            2 
 1890000   0.50233315     -8.74321    246.39375  0.010863922 0.0094435151            5 
 1891000   0.49456793    -8.743701    246.58888  0.010866776 0.0094356088            2 
 1892000    0.5054311   -8.7530865    246.53819    0.0108588 0.0094277134            2 
 1893000   0.49806281   -8.7477958    246.77722  0.010863586 0.0094198219            3 
 1894000   0.50644051   -8.7417304    246.52007  0.010846536 0.0094119461            6 
 1895000    0.4959079   -8.7477095    246.80786  0.010853468 0.0094040755            3 
 1896000   0.49012652   -8.7422847    246.83771  0.010849055  0.009396222            4 
 1897000   0.50516809   -8.7366912    246.49066  0.010828091 0.0093883665            4 
 1898000    0.5010204    -8.746615    246.25855  0.010812195  0.009380515            3 
 1899000   0.48959918   -8.7291237    245.97845  0.010794209 0.0093726754            6 
 1900000   0.49542931   -8.7392866    246.54911  0.010813557 0.0093648434            3 
 1901000   0.49210849   -8.7379484    246.62092  0.010811017 0.0093570143            4 
 1902000   0.50695715   -8.7670009    246.37369  0.010794501 0.0093491954            3 
 1903000   0.49346328   -8.7529479    246.74563  0.010805116 0.0093413894            3 
 1904000   0.49371531   -8.7527135    246.65916  0.010795656  0.009333608            4 
 1905000   0.48714691   -8.7436905    246.79004  0.010795715 0.0093258233            4 
 1906000   0.49817348   -8.7517219     246.3229  0.010769627 0.0093180473            3 
 1907000   0.48912323    -8.752946    246.42796   0.01076857  0.009310273            2 
 1908000    0.5024826   -8.7465838    246.50406   0.01076625    0.0093025            3 
 1909000   0.49277353   -8.7447656    246.50023  0.010760443 0.0092947363            3 
 1910000   0.49405018   -8.7706588    246.36935  0.010749099 0.0092869854            4 
 1911000   0.49424632   -8.7596646    246.07238  0.010730524 0.0092792415            8 
 1912000   0.48753821   -8.7531764    246.44463  0.010741136 0.0092715081            4 
 1913000    0.4775873   -8.7645196    246.30009  0.010729225 0.0092637826            2 
 1914000   0.47688142   -8.7585355    246.01175  0.010711065 0.0092560602            3 
 1915000   0.48508009   -8.7489249    246.40967  0.010722788 0.0092483516            4 
 1916000   0.48874662   -8.7597585    246.17681  0.010707064 0.0092406404            6 
 1917000   0.48743553   -8.7654366    246.37976  0.010710301 0.0092329526            6 
 1918000   0.48856296   -8.7613422    246.12072  0.010693462 0.0092252646            4 
 1919000   0.47913633   -8.7655963     246.4294  0.010701294 0.0092175893            5 
 1920000   0.48662906   -8.7495994    246.45262  0.010696728 0.0092099188            3 
 1921000   0.48377348   -8.7659152    246.17604  0.010679162 0.0092022534            3 
 1922000   0.48880446   -8.7792322    246.50533  0.010687883 0.0091945924            2 
 1923000   0.48143427   -8.7507494    246.43328  0.010679202 0.0091869452            5 
 1924000   0.48233916   -8.7538566    246.45079   0.01067441 0.0091793025            5 
 1925000   0.49341661   -8.7669358    246.20364  0.010658166 0.0091716743            6 
 1926000   0.48835614   -8.7596536    246.24486  0.010654416 0.0091640489            3 
 1927000   0.48178513   -8.7630643    246.25125  0.010649163 0.0091564375            3 
 1928000   0.48561986   -8.7732577    245.93527  0.010629982 0.0091488356            3 
 1929000   0.47922083    -8.771719    246.46693  0.010647439 0.0091412318            3 
 1930000   0.48826377   -8.7514899    246.64465  0.010649596 0.0091336463            3 
 1931000   0.46851313   -8.7644736    246.38991  0.010633088 0.0091260697            3 
 1932000   0.47893438    -8.772076    246.20722  0.010619704 0.0091184972            2 
 1933000   0.48395847   -8.7755999    246.42081  0.010623418 0.0091109351            3 
 1934000   0.48947216   -8.7716253    246.06543  0.010602613 0.0091033795            3 
 1935000   0.48514908   -8.7632024    246.32556  0.010608336 0.0090958343            2 
 1936000   0.48261324   -8.7703271    246.01111  0.010589321 0.0090883002            2 
 1937000   0.48456994   -8.7757376     246.4018  0.010600663 0.0090807611            4 
 1938000   0.47730394   -8.7645064    246.51818  0.010600197 0.0090732333            4 
 1939000   0.48439464   -8.7630849    246.28864  0.010584865 0.0090657154            2 
 1940000   0.47301501   -8.7827067    245.99529  0.010566808 0.0090581976            4 
 1941000    0.4807571   -8.7834347    246.22622  0.010571279 0.0090506942            1 
 1942000   0.47734599   -8.7618846    246.40341  0.010573438 0.0090431964            3 
 1943000   0.47585317     -8.77805    246.34667  0.010565563 0.0090357012            5 
 1944000   0.47937383   -8.7840676    245.69636  0.010532252 0.0090282102            3 
 1945000   0.47487264   -8.7831996    246.41271  0.010557528 0.0090207322            2 
 1946000   0.47312014   -8.7956102    246.04146  0.010536205 0.0090132575            3 
 1947000   0.47769161   -8.7886907    246.12294  0.010534281 0.0090057927            1 
 1948000   0.48107041   -8.7785134    246.56986  0.010547992 0.0089983384            2 
 1949000   0.47055654   -8.7907259    246.34936  0.010533152 0.0089908966            2 
 1950000   0.48445838   -8.7751879    246.44104  0.010531668  0.008983455            3 
 1951000   0.48461169    -8.787385    246.12491  0.010512768 0.0089760209            2 
 1952000   0.48414675   -8.7733554    246.08057  0.010505489 0.0089685991            2 
 1953000   0.47916631   -8.7743794    245.78413  0.010487461 0.0089611832            4 
 1954000   0.47425204   -8.7703088    246.25176  0.010502037 0.0089537795            2 
 1955000   0.49065221   -8.7958507     245.9925  0.010485614 0.0089463821            5 
 1956000   0.47369113   -8.7730243    246.01859  0.010481365 0.0089389938            4 
 1957000    0.4847532     -8.77981    246.05754  0.010477667 0.0089316053            1 
 1958000   0.47484758   -8.7920994    245.97481  0.010468795 0.0089242313            5 
 1959000   0.46636262   -8.7770865    245.40303  0.010439128 0.0089168629            5 
 1960000   0.47865521   -8.7778016    245.95396  0.010457226 0.0089095088            3 
 1961000   0.47483243   -8.7899738    245.80057  0.010445375 0.0089021619            3 
 1962000   0.47081669   -8.8011375      245.991   0.01044814 0.0088948227            6 
 1963000   0.48387762   -8.7836653    245.91662  0.010439659 0.0088874937            2 
 1964000    0.4665932   -8.7909097     246.2025  0.010446474 0.0088801747            6 
 1965000   0.47087596   -8.7889614    246.44194  0.010451312  0.008872855            1 
 1966000   0.47120203    -8.792417    245.98707  0.010426715 0.0088655459            2 
 1967000   0.47216123   -8.7754623    245.73421  0.010410702 0.0088582402            3 
 1968000   0.47254506   -8.7824831    245.81087  0.010408658  0.008850951            2 
 1969000   0.47422844   -8.7914169    246.02384  0.010412385 0.0088436597            2 
 1970000   0.46916376   -8.7974692    246.23795  0.010416157 0.0088363818            3 
 1971000   0.46472083   -8.7727744    245.60935  0.010384295 0.0088291128            1 
 1972000   0.46994281   -8.7859082    246.11233  0.010400284 0.0088218496            1 
 1973000   0.46814524   -8.7914518    246.15235  0.010396704 0.0088145892            2 
 1974000   0.46734323     -8.78794    246.13762  0.010390815 0.0088073421            2 
 1975000   0.45870275   -8.8040449    245.90453  0.010375718 0.0088000984            3 
 1976000   0.46216758    -8.785445    245.70929  0.010362234 0.0087928592            2 
 1977000   0.45750079   -8.7964495     246.1966  0.010377534 0.0087856311            1 
 1978000   0.46666956   -8.7883922    245.81581  0.010356244 0.0087784033            4 
 1979000    0.4603881   -8.8091038    245.89899  0.010354514 0.0087711812            3 
 1980000    0.4601498   -8.7896358    246.05668  0.010355921 0.0087639744            2 
 1981000   0.45712803   -8.7984093     245.8787  0.010343206 0.0087567735            4 
 1982000   0.46348077    -8.801523    245.88415  0.010338217 0.0087495851            2 
 1983000   0.46356809   -8.7953555    245.93889  0.010335304 0.0087424021            3 
 1984000     0.455769   -8.7898344    246.10786  0.010337192  0.008735229            2 
 1985000   0.45721373   -8.8172364    246.37849  0.010343345 0.0087280543            2 
 1986000   0.48294045   -8.8113644    246.21834  0.010331418  0.008720897            3 
 1987000   0.46209369   -8.8077797    245.87954  0.010312009 0.0087137405            2 
 1988000   0.46499315    -8.799945    245.88146  0.010306902 0.0087065916            4 
 1989000   0.46661995   -8.7905222     245.7231  0.010295085 0.0086994522            4 
 1990000   0.45235963   -8.8016035    245.90387  0.010297482 0.0086923114            2 
 1991000    0.4549255   -8.7871423    245.86827   0.01029082 0.0086851794            3 
 1992000   0.46272148   -8.8111277    245.77277  0.010281659 0.0086780514            3 
 1993000   0.47172337   -8.8024724    245.82913  0.010278857 0.0086709401            3 
 1994000   0.45815738   -8.7993087    245.93307  0.010278046 0.0086638372            2 
 1995000   0.44940482   -8.8047924    245.49739  0.010254695  0.008656734            2 
 1996000   0.45380332   -8.8069168     246.0774  0.010273773 0.0086496405            3 
 1997000   0.45833375   -8.8337773    245.95712  0.010263609 0.0086425546            2 
 1998000   0.47034131   -8.8024013    245.52605  0.010240493  0.008635477            4 
 1999000   0.46174936    -8.798506    246.05149  0.010257274 0.0086284045            2 
 2000000   0.45717862   -8.7865865    245.67343  0.010236393 0.0086213431            6 
 2001000   0.46160556   -8.8089779    245.60625   0.01022848 0.0086142844            4 
 2002000   0.44604885   -8.8209685    245.50234  0.010219045 0.0086072326            2 
 2003000   0.45421893   -8.8195449     245.9251  0.010231532 0.0086001966            3 
 2004000   0.44547416   -8.8083394    245.41306  0.010205134 0.0085931628            2 
 2005000   0.44579337   -8.8182995    245.79274  0.010215825 0.0085861365            2 
 2006000   0.44796198   -8.8061783    245.60201  0.010202809 0.0085791127            2 
 2007000   0.44892205   -8.8195943    245.61598  0.010198305 0.0085721052            2 
 2008000   0.45729331   -8.8139257    245.90989  0.010205424 0.0085650975            3 
 2009000   0.45857175   -8.8090599      245.649  0.010189522    0.0085581            2 
 2010000   0.43695528   -8.8263948    245.73517  0.010188025 0.0085511136            2 
 2011000   0.44136857   -8.8173645    245.29523  0.010164729 0.0085441313            2 
 2012000    0.4542653   -8.8103326    246.30134  0.010201348 0.0085371602            4 
Loop time of 4859.91 on 48 procs for 2000000 steps with 4000 atoms

Performance: 71112.387 tau/day, 411.530 timesteps/s
99.4% CPU use with 48 MPI tasks x no OpenMP threads

MPI task timing breakdown:
Section |  min time  |  avg time  |  max time  |%varavg| %total
---------------------------------------------------------------
Pair    | 315.18     | 332.1      | 354.17     |  48.3 |  6.83
Neigh   | 31.646     | 33.249     | 35.096     |  14.7 |  0.68
Comm    | 302.1      | 325.48     | 341.76     |  53.0 |  6.70
Output  | 4.5268     | 4.5288     | 4.567      |   0.3 |  0.09
Modify  | 4112.6     | 4120.9     | 4131.9     |   6.3 | 84.79
Other   |            | 43.66      |            |       |  0.90

Nlocal:        83.3333 ave          90 max          77 min
Histogram: 5 4 4 8 5 2 10 4 3 3
Nghost:        2108.83 ave        2132 max        2091 min
Histogram: 8 3 5 6 5 8 4 5 2 2
Neighs:        13826.4 ave       15264 max       12317 min
Histogram: 3 2 1 10 7 8 9 4 1 3
FullNghs:      27652.2 ave       29676 max       25414 min
Histogram: 3 5 3 5 9 2 5 5 6 5

Total # of neighbors = 1327307
Ave neighs/atom = 331.82675
Neighbor list builds = 106931
Dangerous builds = 0

#clear
#
#next RN
#
#jump SELF
Total wall time: 1:21:03
