
units lj                  # Use reduced LJ style units
atom_style atomic         # Uncharged point particles
atom_modify map hash      # Needed for indexing of clusters etc
                          # Used to be able to find where atoms are in relation to each other.

lattice fcc 1.0 spacing 1 1 1
Lattice spacing in x,y,z = 1.5874011 1.5874011 1.5874011
region box block 0 10 0 10 0 10 units lattice
create_box 2 box
Created orthogonal box = (0.0000000 0.0000000 0.0000000) to (15.874011 15.874011 15.874011)
  3 by 4 by 4 MPI processor grid
create_atoms 1 box
Created 4000 atoms
  using lattice units in orthogonal box = (0.0000000 0.0000000 0.0000000) to (15.874011 15.874011 15.874011)
  create_atoms CPU = 0.003 seconds
set type 1 type/fraction 2 0.1 78393
Setting atom values ...
  435 settings made for type/fraction
mass 1 1.0
mass 2 1.0
pair_style lj/cut  3.5
pair_modify tail  yes
pair_coeff 1  1  1.0  1.0   # Intearaction between 1 and 1 set with epsilon = 1 and sigma = 1
pair_coeff 1  2  1.5  0.8
pair_coeff 2  2  0.5  0.88

write_data data.0
System init for write_data ...
Neighbor list info ...
  update every 1 steps, delay 10 steps, check yes
  max neighbors/atom: 2000, page size: 100000
  master list distance cutoff = 3.8
  ghost atom cutoff = 3.8
  binsize = 1.9, bins = 9 9 9
  1 neighbor lists, perpetual/occasional/extra = 1 0 0
  (1) pair lj/cut, perpetual
      attributes: half, newton on
      pair build: half/bin/atomonly/newton
      stencil: half/bin/3d
      bin: standard
WARNING: Not all mixed pair coeffs generated from mixing. Use write_data with 'pair ij' option to store all pair coeffs. (../write_data.cpp:312)


#############################
#   M E L T   S Y S T E M   #
#############################

velocity all create 2.4 5833274 mom yes dist gaussian # Assign velocities
                                                    # Temperature 2.4, random number seed, zero linear momentum
                                                                                # Gaussian distribution

timestep 0.002   # simulation timestep
thermo 1000       # output thermodynamic data every 1000 steps bf 100

# Define a fix  in this case with index 1 applied to all
# particles in the simulation. This fix is for simulations
# in the anisotropic NPT ensemble. Note that we use the MTK
# correction.
fix 1 all npt temp 2.4 2.4 0.1 iso 5.68 5.68 0.5 mtk yes tchain 5 pchain 5 # Use NPT ensemble
                                                                         # Set temperature and pressure and damping
                                                                         # Numbers of thermostats in chain and in barostat
run 10000          # run for 10000 steps
Per MPI rank memory allocation (min/avg/max) = 3.642 | 3.644 | 3.648 Mbytes
Step Temp E_pair E_mol TotEng Press Volume 
       0          2.4   -7.6732445            0   -4.0741445   -3.0506691         4000 
    1000    2.4077406   -4.5728109            0  -0.96210291    5.7587485    4850.2556 
    2000    2.4244008   -4.6713099            0   -1.0356178    5.5165179    4816.9639 
    3000    2.4396337   -4.6040775            0   -0.9455418    5.7299254    4843.4435 
    4000     2.398304   -4.6108352            0   -1.0142786    5.6977735    4826.3389 
    5000    2.3483507   -4.5986125            0   -1.0769671    5.6271073     4836.652 
    6000    2.4088551   -4.5715343            0  -0.95915501    5.8459419    4825.8524 
    7000    2.4250711   -4.5996922            0  -0.96299493    5.8732968    4819.3386 
    8000    2.4070081   -4.6287922            0   -1.0191826    5.6677279    4818.4966 
    9000    2.3780863   -4.6548412            0   -1.0886035    5.4826807     4838.451 
   10000    2.3708289     -4.57954            0   -1.0241857    5.8721321    4819.0376 
Loop time of 2.20473 on 48 procs for 10000 steps with 4000 atoms

Performance: 783767.915 tau/day, 4535.694 timesteps/s
99.6% CPU use with 48 MPI tasks x no OpenMP threads

MPI task timing breakdown:
Section |  min time  |  avg time  |  max time  |%varavg| %total
---------------------------------------------------------------
Pair    | 0.90495    | 0.9706     | 1.1521     |   4.4 | 44.02
Neigh   | 0.19104    | 0.20017    | 0.23211    |   1.7 |  9.08
Comm    | 0.5824     | 0.77898    | 0.8718     |   6.5 | 35.33
Output  | 0.00024533 | 0.00024961 | 0.00031403 |   0.0 |  0.01
Modify  | 0.20517    | 0.24028    | 0.30489    |   5.5 | 10.90
Other   |            | 0.01446    |            |       |  0.66

Nlocal:        83.3333 ave          95 max          75 min
Histogram: 2 6 1 6 14 11 7 0 0 1
Nghost:        1447.12 ave        1463 max        1431 min
Histogram: 4 5 3 5 5 7 8 3 5 3
Neighs:        7906.31 ave        9509 max        6953 min
Histogram: 5 2 7 12 14 5 2 0 0 1

Total # of neighbors = 379503
Ave neighs/atom = 94.875750
Neighbor list builds = 908
Dangerous builds = 230

# Equilibrate just above the melting temperature to avoid step fn in T

fix 1 all npt temp 1.25 1.25 0.1 iso 5.68 5.68 0.5 mtk yes tchain 5 pchain 5
run 2000
Per MPI rank memory allocation (min/avg/max) = 3.642 | 3.644 | 3.648 Mbytes
Step Temp E_pair E_mol TotEng Press Volume 
   10000    2.3708289     -4.57954            0   -1.0241857    5.8721321    4819.0376 
   11000    1.2442646   -6.2179882            0   -4.3520579    5.5938435    3981.4526 
   12000    1.2528777   -6.1937075            0   -4.3148607    6.0917315    3955.6856 
Loop time of 0.482273 on 48 procs for 2000 steps with 4000 atoms

Performance: 716607.251 tau/day, 4147.033 timesteps/s
99.6% CPU use with 48 MPI tasks x no OpenMP threads

MPI task timing breakdown:
Section |  min time  |  avg time  |  max time  |%varavg| %total
---------------------------------------------------------------
Pair    | 0.20491    | 0.22806    | 0.25767    |   1.8 | 47.29
Neigh   | 0.030439   | 0.033542   | 0.037684   |   0.6 |  6.96
Comm    | 0.13867    | 0.16645    | 0.18775    |   2.7 | 34.51
Output  | 5.2018e-05 | 5.309e-05  | 6.6904e-05 |   0.0 |  0.01
Modify  | 0.040155   | 0.049639   | 0.058451   |   2.8 | 10.29
Other   |            | 0.004527   |            |       |  0.94

Nlocal:        83.3333 ave          93 max          76 min
Histogram: 2 12 0 5 9 11 2 4 1 2
Nghost:        1649.98 ave        1671 max        1626 min
Histogram: 3 3 2 5 8 7 6 2 9 3
Neighs:        9644.44 ave       10749 max        8501 min
Histogram: 3 2 6 5 3 11 10 4 1 3

Total # of neighbors = 462933
Ave neighs/atom = 115.73325
Neighbor list builds = 142
Dangerous builds = 9

#############################
# L I N E A R  Q U E N C H  #
#############################

# Define solid atoms. This closely follows ten Wolde  Ruiz-Montero and Frenkel  Faraday Discuss  1996  104  93-110
# Compute components of the per-atom q6 vector
compute q6 all orientorder/atom degrees 1 6 components 6 nnn NULL cutoff 1.3 # compute the Q6 parameter.
                                                                             # Use all neighbours within 1.3 unit cell.

# get number of connections
compute coord_number all coord/atom orientorder q6 0.5

# An atom is solid if it has 8 or more connections (of a possible 14)
variable is_solid atom c_coord_number>=8
group solid dynamic all var is_solid    # Must be dynamic to update
dynamic group solid defined

# do clustering
compute cluster solid cluster/atom 1.3 # Create a cluster where all atoms within are solid and max 1.3 units from another member

# define chunks one chunk per cluster
compute clus_chunks solid chunk/atom c_cluster nchunk every compress yes  # Says which atoms are in which chunk

# count the size of each chunk
compute size_chunks solid property/chunk clus_chunks count


# Find the maximum entry in the vector of chunk sizes
variable max_n equal max(c_size_chunks)


# Thermo style which includes this variable
# thermo_style custom step temp pe vol v_max_n

thermo ${N}  # Print the thermo information every 100 steps
thermo 1000  

# Reset the npt fix at a lower temperature (below freezing)
fix 1  all npt temp  ${temp} ${temp}  0.1  iso  5.68  5.68  0.5  mtk yes tchain  5  pchain  5
fix 1  all npt temp  0.45 ${temp}  0.1  iso  5.68  5.68  0.5  mtk yes tchain  5  pchain  5
fix 1  all npt temp  0.45 0.45  0.1  iso  5.68  5.68  0.5  mtk yes tchain  5  pchain  5

dump dmp2 all dcd ${N} traj.dcd
dump dmp2 all dcd 1000 traj.dcd


compute msd all msd com yes
variable twopoint equal c_msd[4]/6/(step*dt+1.0e-6)
fix 9 all vector 10 c_msd[4]
variable fit equal slope(f_9)/6/(10*dt)
thermo_style custom step temp pe c_msd[4] v_twopoint v_fit v_max_n

fix 1 all npt temp 1.25 ${temp} 0.1 iso 5.68 5.68 0.5 mtk yes tchain 5 pchain 5
fix 1 all npt temp 1.25 0.45 0.1 iso 5.68 5.68 0.5 mtk yes tchain 5 pchain 5
run 2000000 # 5000000  # Run for this many steps
Neighbor list info ...
  update every 1 steps, delay 10 steps, check yes
  max neighbors/atom: 2000, page size: 100000
  master list distance cutoff = 3.8
  ghost atom cutoff = 3.8
  binsize = 1.9, bins = 9 9 9
  4 neighbor lists, perpetual/occasional/extra = 1 3 0
  (1) pair lj/cut, perpetual
      attributes: half, newton on
      pair build: half/bin/atomonly/newton
      stencil: half/bin/3d
      bin: standard
  (2) compute orientorder/atom, occasional
      attributes: full, newton on
      pair build: full/bin/atomonly
      stencil: full/bin/3d
      bin: standard
  (3) compute coord/atom, occasional
      attributes: full, newton on
      pair build: full/bin/atomonly
      stencil: full/bin/3d
      bin: standard
  (4) compute cluster/atom, occasional
      attributes: full, newton on
      pair build: full/bin/atomonly
      stencil: full/bin/3d
      bin: standard
Per MPI rank memory allocation (min/avg/max) = 9.751 | 9.757 | 9.762 Mbytes
Step Temp PotEng c_msd[4] v_twopoint v_fit v_max_n 
   12000    1.2528777   -6.1937075 1.4631398e-30 1.0160692e-32 8.3333333e+20            1 
   13000    1.2390692    -6.275901   0.55759293 0.0035743135  0.045401907            2 
   14000    1.2459577   -6.2351567    1.0884012 0.0064785781  0.045035074            2 
   15000    1.2418476    -6.201374    1.6608061 0.0092267005  0.045379661            3 
   16000    1.2736179   -6.2180587    2.2277769  0.011603004  0.045870778            1 
   17000    1.2064694   -6.2704015    2.8405955  0.013924488  0.046749728            2 
   18000    1.2419569   -6.2305843    3.3292542  0.015413213  0.046971066            3 
   19000    1.2337605   -6.2233701    3.8469802   0.01687272  0.046614597            1 
   20000    1.2496634   -6.1660581    4.4059822  0.018358259  0.046255781            5 
   21000    1.2807844   -6.2177377    4.9032005  0.019457145  0.045706992            1 
   22000    1.2107426   -6.2184738     5.395121  0.020436064  0.045262579            1 
   23000    1.2343529   -6.2060286    5.8968043  0.021365232   0.04482224            2 
   24000    1.2677561   -6.2144811     6.509272  0.022601639  0.044655016            3 
   25000    1.2603035   -6.2100746     7.104549  0.023681829  0.044824995            4 
   26000    1.2196809   -6.1915953    7.5447139  0.024181775  0.044863159            3 
   27000    1.2334056   -6.2335446    8.1615479  0.025189962  0.044857714            2 
   28000    1.2433624   -6.2183116    8.7166178  0.025942314  0.044902174            1 
   29000    1.2265655   -6.2463539    9.1807629  0.026381502  0.044865506            3 
   30000    1.2322905   -6.2059044      9.72789  0.027021916  0.044807542            2 
   31000    1.2416643   -6.2209226    10.295368  0.027675719  0.044790544            3 
   32000    1.2448308     -6.21346    10.831959  0.028208226  0.044817752            3 
   33000    1.2344774   -6.2373748    11.360471  0.028688059  0.044857078            1 
   34000    1.2363372   -6.2213031    11.993541  0.029395933   0.04492114            2 
   35000    1.2378822   -6.2363369    12.474808  0.029701924  0.044966183            8 
   36000    1.2479363    -6.229902    13.079639  0.030276942   0.04500221            1 
   37000     1.274368   -6.1932402    13.640395  0.030721611  0.045066615            2 
   38000    1.2333164   -6.2135094    14.233586  0.031214003  0.045134777            2 
   39000    1.2435692   -6.2167016    14.757932  0.031534041  0.045202184            2 
   40000    1.2266859   -6.2636004    15.390139  0.032062789  0.045274384            4 
   41000    1.2392244   -6.2140499    16.040493  0.032602627  0.045408666            1 
   42000    1.2699298   -6.2477022    16.526421  0.032790517  0.045506445            2 
   43000    1.2107437   -6.3031657    17.003329  0.032952188  0.045580488            3 
   44000    1.2325093    -6.277681    17.668074   0.03346226  0.045651851            2 
   45000    1.2275407    -6.228483    18.074895  0.033472028   0.04568424            1 
   46000    1.2305563   -6.2389023    18.751207  0.033969577   0.04571172            2 
   47000    1.2592261   -6.2247728    19.327093  0.034267894  0.045739491            2 
   48000    1.2331665   -6.2549664     19.91015  0.034566233  0.045799312            2 
   49000    1.2463575   -6.2461227    20.435125  0.034753614  0.045868012            2 
   50000    1.2358266   -6.2384812     20.79121  0.034652016  0.045860964            1 
   51000    1.2215363   -6.2501855    21.243456  0.034711529   0.04581873            3 
   52000    1.2570997   -6.2458478    21.837338  0.034995734  0.045756635            4 
   53000    1.2099888   -6.2453549    22.393471   0.03520986  0.045720596            1 
   54000    1.2212362   -6.2936136    23.053248  0.035575999  0.045721396            3 
   55000    1.2078431   -6.2525523     23.65436  0.035839939  0.045745241            2 
   56000    1.2489138     -6.25525    24.172674  0.035971241   0.04575078            4 
   57000    1.2394578   -6.1814336    24.657713  0.036049288  0.045754299            2 
   58000    1.2408485   -6.2395209    25.060759  0.036006838  0.045731943            2 
   59000     1.234457   -6.2440885    25.635575  0.036208439  0.045704762            4 
   60000    1.2320996    -6.276494    26.285163   0.03650717  0.045698911            2 
   61000    1.2296795   -6.2716216    26.834519  0.036659179  0.045685806            4 
   62000    1.2355182   -6.2282159    27.243694  0.036617868  0.045656765            2 
   63000    1.2515082   -6.2801945    27.616411  0.036529643  0.045619684            2 
   64000    1.2498378   -6.2765436    28.168751  0.036678061  0.045585965            3 
   65000    1.2514676   -6.2854409    28.742296  0.036849097  0.045559718            3 
   66000    1.2257261   -6.2183996    29.226574   0.03690224  0.045513109            2 
   67000    1.2315575   -6.2459391    29.733902  0.036982465  0.045459508            1 
   68000    1.2161702   -6.2465611    30.122286  0.036914566  0.045415996            2 
   69000    1.2234331   -6.2294695    30.799439   0.03719739  0.045353351            2 
   70000    1.2232325   -6.2434026    31.341046  0.037310769  0.045323412            2 
   71000    1.1980797    -6.221051    31.863789  0.037398813  0.045289259            2 
   72000    1.2405914   -6.2751952    32.275272  0.037355639  0.045241723            3 
   73000    1.2209496   -6.2984992    32.762718  0.037400363  0.045189745            2 
   74000    1.1919485   -6.2806832    33.268084  0.037464059  0.045147251            2 
   75000     1.236447   -6.2321653    33.798322  0.037553691  0.045097853            1 
   76000    1.2281793   -6.2143793    34.400825  0.037720202  0.045062568            1 
   77000    1.2395384   -6.2608233    34.959348  0.037834792  0.045027469            2 
   78000    1.2135351    -6.262472    35.539096  0.037969119   0.04499707            3 
   79000    1.2286926   -6.2603873    36.257658  0.038246474  0.044982638            2 
   80000    1.2483842   -6.2404156    36.903052  0.038440679  0.044981171            1 
   81000      1.22702   -6.2759052    37.159072  0.038229498  0.044982926            2 
   82000    1.2352149   -6.2179425     37.97418  0.038591646  0.044982312            4 
   83000    1.2282822   -6.2748653     38.51617  0.038670853  0.044980766            3 
   84000    1.2417955   -6.2702698    38.860829  0.038552409  0.044972566            2 
   85000    1.2172897   -6.2484212    39.432541  0.038659354  0.044959366            2 
   86000    1.2447858   -6.2780865    39.896902  0.038659789    0.0449519            3 
   87000    1.2169137   -6.2962198    40.248505  0.038552207  0.044932071            4 
   88000     1.230779   -6.3135237    40.685903  0.038528317  0.044900192            3 
   89000    1.2366722   -6.2821356    41.310118  0.038679886  0.044869223            3 
   90000    1.2195999   -6.2701386    41.990576  0.038880163  0.044849064            1 
   91000    1.2290948   -6.2488186    42.297362  0.038733848  0.044832098            2 
   92000    1.2164259   -6.2501319    42.665101  0.038645924  0.044802301            1 
   93000    1.2133955   -6.2646645    42.964854  0.038498973  0.044757767            2 
   94000    1.2002964   -6.2733972    43.580401  0.038635107  0.044711173            8 
   95000     1.228314   -6.2065922    44.036934  0.038628889  0.044657223            1 
   96000    1.2269113   -6.2836267    44.153892  0.038328031  0.044592648            2 
   97000    1.2273737   -6.2826096    44.903168  0.038576604  0.044535981            2 
   98000    1.2326904      -6.2701    45.459843  0.038656329  0.044481593            3 
   99000    1.2302098   -6.2588145    45.804401  0.038555893  0.044421613            2 
  100000    1.2170491    -6.326583    46.403406  0.038669505  0.044374302            2 
  101000    1.2121843   -6.2878313    46.778764   0.03859634  0.044323046            3 
  102000     1.212549   -6.2985811    47.395022  0.038721423  0.044277549            2 
  103000    1.2064257   -6.2725571    47.863605  0.038724599  0.044231535            4 
  104000    1.1976179   -6.3318674    48.282917  0.038688234  0.044186875            4 
  105000     1.206058    -6.283108    49.110684  0.038976733  0.044147575            2 
  106000    1.2052605   -6.3077836    49.408863  0.038843446  0.044107135            3 
  107000    1.2153939   -6.2864656    50.122178  0.039035964   0.04407535            4 
  108000    1.2406495   -6.2912154    50.551855  0.039006061  0.044044404            2 
  109000    1.2149676   -6.2927277    51.124005   0.03908563  0.044011871            2 
  110000    1.2375895     -6.28862    51.665741  0.039140712  0.043977067            3 
  111000    1.2102785   -6.2921283     52.13951  0.039143776  0.043946597            3 
  112000    1.2094952   -6.2868388    52.862188  0.039331985  0.043920599            3 
  113000    1.2010489   -6.2888287    53.225033  0.039251499  0.043896297            2 
  114000    1.2110144   -6.2983367    53.646639  0.039215379  0.043868257            2 
  115000    1.2255404   -6.3219448    54.022227  0.039146541  0.043833052            2 
  116000    1.1919807   -6.3009007    54.356359  0.039049108  0.043794693            2 
  117000    1.2308464   -6.2793359    54.766528  0.039007499  0.043750811            5 
  118000    1.2197601   -6.3088572    55.139976  0.038940661  0.043702114            3 
  119000    1.2057335   -6.2615666    55.675424  0.038988392  0.043654914            4 
  120000    1.2228138   -6.2667492    56.015051  0.038899341  0.043605732            3 
  121000     1.214313   -6.3259366    56.370229  0.038822471  0.043554449            3 
  122000    1.2018188   -6.2609823    56.977488  0.038919049  0.043500287            2 
  123000    1.2081107   -6.3041891    57.086177  0.038676271  0.043444027            3 
  124000    1.2342327   -6.3400122    57.416959  0.038586666  0.043381306            2 
  125000    1.2320383   -6.2986211    57.923959  0.038615973  0.043322037            2 
  126000    1.2149189   -6.3015193     58.53606  0.038714325  0.043265802            2 
  127000    1.1794207   -6.2863938    59.128802  0.038798426  0.043213113            3 
  128000     1.220624   -6.3239875    59.783173  0.038921337  0.043164272            2 
  129000    1.2131979   -6.2465089    60.455992  0.039054259  0.043124551            4 
  130000    1.1950457   -6.2685427     61.00181  0.039103724  0.043084886            3 
  131000    1.2136245   -6.3093318    61.140951  0.038893734  0.043045621            3 
  132000    1.2009539   -6.2812853    62.068072  0.039184389  0.043010156            4 
  133000    1.2116303   -6.3084215    62.301463  0.039036004  0.042972657            6 
  134000    1.1847088   -6.2946775    63.042633  0.039205617  0.042945316            3 
  135000    1.1956415   -6.3109568    63.765749  0.039361574  0.042925074            3 
  136000    1.1977247   -6.3332191    64.137923  0.039300198  0.042908844            1 
  137000    1.1911278   -6.2982411    64.847052  0.039444679  0.042887616            2 
  138000    1.1727538   -6.3173404    65.197959  0.039370748  0.042866176            5 
  139000    1.1866731   -6.3028912    65.698001  0.039387291  0.042846033            3 
  140000    1.1966604   -6.2572838    66.078727  0.039332575  0.042822534            3 
  141000     1.190171   -6.2850554    66.917766  0.039549507  0.042805722            1 
  142000    1.1984785   -6.3071756    67.294353  0.039491991   0.04278926            2 
  143000    1.2048584   -6.3127987    67.536632  0.039357012  0.042771662            2 
  144000    1.2127783   -6.3044459    68.104699  0.039412442  0.042758685            3 
  145000    1.1994437   -6.2939728    69.152848  0.039743016  0.042751893            6 
  146000    1.2120222   -6.3290181    69.395795  0.039609472  0.042745642            2 
  147000    1.1797621   -6.3219761    69.960299  0.039660033  0.042736283            3 
  148000    1.1945233   -6.3145022    70.619963  0.039763493  0.042729412            3 
  149000    1.1870513   -6.3144647    71.131961  0.039782976  0.042727206            3 
  150000    1.1981706   -6.3217063    71.630235  0.039794575  0.042725342            4 
  151000     1.184483   -6.3413893    72.147509  0.039816506  0.042721772            5 
  152000    1.2045157   -6.3255291    72.822285  0.039924498  0.042721128            3 
  153000    1.2165852    -6.318337    73.284117  0.039915096  0.042720986            3 
  154000    1.1891181   -6.3085996    74.043588  0.040066876   0.04272312            1 
  155000    1.2159579   -6.2873168    74.501912  0.040054791  0.042726088            2 
  156000    1.1890296   -6.3252121    75.018275  0.040073865  0.042727856            6 
  157000    1.2055006   -6.3065119    75.263554  0.039948808  0.042727317            2 
  158000    1.2170358   -6.2890769    75.997097  0.040082857  0.042725919            2 
  159000    1.1968765   -6.3470325    76.292232  0.039985447  0.042725219            2 
  160000    1.1725535   -6.3123431    76.798203  0.039999064  0.042722954            2 
  161000    1.1824243   -6.3677348    77.244553  0.039981653  0.042723971            1 
  162000    1.1945281   -6.3962525    77.699576  0.039968918  0.042720706            3 
  163000    1.1632499   -6.3168385    78.400545  0.040082078  0.042715847            3 
  164000    1.2074823   -6.2781736     79.49927   0.04039597  0.042717929            1 
  165000    1.1853202   -6.3460882    79.501988  0.040152519  0.042721348            3 
  166000    1.1467185   -6.3270182    80.043167  0.040182312  0.042724139            4 
  167000    1.1828181   -6.3121713     80.60395  0.040221532  0.042725952            2 
  168000    1.1852076   -6.3552316    80.457302  0.039909376  0.042720584            3 
  169000    1.1945145   -6.3571511    80.812947  0.039848593  0.042708968            4 
  170000    1.1868944   -6.3053861    81.494613   0.03994834   0.04269747            2 
  171000    1.1650431   -6.3042957    82.094755   0.04000719   0.04268833            3 
  172000    1.2126079   -6.3243712    82.020095  0.039738418  0.042675761            4 
  173000      1.17974   -6.3170404     82.70042  0.039836426  0.042659456            3 
  174000    1.1972079   -6.3005994    83.211372  0.039852189  0.042644361            3 
  175000    1.2001002   -6.3258326    83.738501  0.039875477  0.042629372            6 
  176000       1.1623   -6.3238341    84.156522  0.039846838  0.042616961            3 
  177000     1.174751   -6.3233578    84.361872  0.039718395  0.042601806            2 
  178000    1.1971335   -6.2972884    85.196296  0.039885906  0.042587196            3 
  179000     1.189025   -6.3644443    85.036274  0.039588582  0.042572719            3 
  180000    1.1916301   -6.3141365    85.663542  0.039659047  0.042551695            2 
  181000    1.1885561   -6.3654102    86.489422  0.039820176  0.042534494            4 
  182000    1.1875261   -6.3448744    87.021633   0.03984507  0.042518622            4 
  183000    1.1683831   -6.3137951    87.891391  0.040023402  0.042505218            3 
  184000    1.1931318   -6.3456548    87.898063  0.039808905  0.042492742            2 
  185000    1.1990878   -6.3644221    88.579814  0.039900817  0.042479418            3 
  186000    1.1540694   -6.3398401    89.336847  0.040025469  0.042468261            2 
  187000    1.1789556   -6.3426689    89.474925  0.039872961  0.042458811            2 
  188000    1.1760402   -6.3068139    90.706985  0.040206997  0.042452103            4 
  189000    1.1853168   -6.3278481    91.389596  0.040295236  0.042448681            2 
  190000    1.1818353   -6.3596573    91.383535  0.040080498  0.042443911            8 
  191000    1.1674937   -6.3566124    91.700271  0.040008844  0.042433582            2 
  192000    1.1697641   -6.3596014    92.181079  0.040009149   0.04242456            3 
  193000    1.1902446   -6.3786911    92.799718  0.040068963  0.042414804            3 
  194000    1.1591209    -6.392226    93.202625  0.040035492  0.042404558            3 
  195000    1.2046694   -6.3201896    93.646619  0.040019922  0.042397746            2 
  196000    1.1702594    -6.358552    94.453808  0.040158932  0.042392624            2 
  197000    1.1723771   -6.3303322    94.957949  0.040168337  0.042386959            3 
  198000    1.1881766   -6.3330079    95.473856  0.040182599   0.04238017            1 
  199000    1.1629606   -6.3455876     95.95483   0.04018209  0.042373032            2 
  200000    1.1542303   -6.3623547    95.980443  0.039991851  0.042361036            3 
  201000    1.2002578   -6.3419689    96.710831  0.040095701  0.042350148            5 
  202000    1.1510541   -6.3363044    97.472063  0.040211247  0.042343197            2 
  203000    1.1876531   -6.3549133    97.998207  0.040229149  0.042337694            4 
  204000    1.1908457   -6.3139371    98.340231  0.040171663  0.042331167            2 
  205000    1.1721585   -6.3748294    98.806829  0.040165378  0.042325703            3 
  206000    1.1702595   -6.3578539    99.635393   0.04030558   0.04232125            2 
  207000    1.1960718   -6.3368705    99.643283  0.040114043  0.042314645            2 
  208000    1.1725897   -6.3550195    100.02577  0.040074427  0.042307691            3 
  209000    1.1761019   -6.3282198     100.6573  0.040134488  0.042302341            3 
  210000    1.1955908   -6.4058162    101.71948  0.040364872  0.042296622            3 
  211000    1.1835674   -6.3541298    102.29411  0.040400519  0.042291882            2 
  212000    1.1705279   -6.3697458    102.85688  0.040431163  0.042289991            2 
  213000    1.1728555    -6.286516    103.41516  0.040459765  0.042288589            1 
  214000    1.1591109   -6.3567008    103.60856  0.040346012  0.042285859            2 
  215000    1.1655121    -6.344072    104.31053  0.040430439  0.042282835            1 
  216000    1.1761735   -6.3548466    104.41718  0.040284406  0.042277223            2 
  217000     1.150358   -6.3792897    104.91758   0.04029093  0.042271459            2 
  218000     1.185715   -6.3771554    105.51118   0.04033302  0.042264077            3 
  219000    1.1373313   -6.3540563    105.75363  0.040241108  0.042256783            1 
  220000    1.1617669   -6.3749625    106.07347  0.040179344  0.042251827            5 
  221000    1.1770453   -6.3643881    106.28931  0.040078924  0.042243754            7 
  222000     1.162652   -6.3839469     106.8646   0.04011434  0.042234446            3 
  223000    1.1632976   -6.3354159      107.492  0.040168911  0.042226652            4 
  224000    1.1617492    -6.373253    108.14975   0.04023428  0.042217887            4 
  225000    1.1508014   -6.3684191    108.04011  0.040014856  0.042207715            3 
  226000    1.1265799   -6.3784465    108.57884  0.040036444  0.042195581            3 
  227000    1.2067049   -6.3621882    109.25412  0.040107974  0.042183365            3 
  228000    1.1498279   -6.3784847    109.14744  0.039893068  0.042171248            4 
  229000    1.1686086   -6.3917253    109.61982  0.039890765  0.042154984            3 
  230000    1.1420462   -6.3861135    110.34197  0.039978976  0.042138729            2 
  231000     1.168443   -6.3399223     111.2731   0.04014181  0.042125159            4 
  232000    1.1723737    -6.375868    111.15244  0.039925446  0.042112897            3 
  233000    1.1516354   -6.3651026    111.97928  0.040049812   0.04210078            1 
  234000    1.1442825   -6.3630229    112.64829  0.040116911  0.042088008            5 
  235000    1.1686201   -6.3575599    112.92597  0.040044671  0.042074539            4 
  236000    1.1492727   -6.3841512    113.18757  0.039967362  0.042062665            2 
  237000    1.2013693   -6.3846388      113.446  0.039889592   0.04204972            3 
  238000    1.1422103    -6.357119    114.06715   0.03993948  0.042036966            2 
  239000    1.1512551   -6.3739194    114.76712  0.040016429  0.042023695            4 
  240000    1.1667908   -6.3489979    115.21428  0.040004959  0.042011453            4 
  241000    1.1589971    -6.402445     115.7788  0.040034163   0.04199958            3 
  242000    1.1472846   -6.3233315    116.38562  0.040077691   0.04198595            5 
  243000    1.1554188   -6.3993018    116.31089  0.039887137  0.041971836            3 
  244000    1.1429019    -6.399402    116.71816  0.039862761  0.041956218            4 
  245000    1.1627775   -6.4084824     116.7467   0.03970976  0.041939033            3 
  246000    1.1351739   -6.4164848     117.1174  0.039673915   0.04192019            2 
  247000    1.1671491    -6.360316    118.31311  0.039916705  0.041903484            2 
  248000    1.1397707   -6.3843696    118.83348  0.039930603  0.041888226            2 
  249000    1.1699734   -6.3803107    119.62927  0.040036569  0.041875224            2 
  250000    1.1371893   -6.3939852    119.76059  0.039920197  0.041862562            4 
  251000    1.1559491    -6.382233    120.21476  0.039911938  0.041849216            2 
  252000    1.1616282   -6.3906922    120.13811   0.03972821  0.041833793            3 
  253000    1.1381634   -6.4260639    120.68288   0.03975062  0.041816593            5 
  254000    1.1472508   -6.3708384    121.19733  0.039762903  0.041799224            4 
  255000    1.1680949   -6.4144204    121.34746  0.039656034  0.041778931            2 
  256000    1.1528284   -6.3452914    121.82824   0.03965763  0.041758086            2 
  257000     1.138625   -6.4480848    121.52853  0.039406137  0.041736149            2 
  258000    1.1400229   -6.4125708    122.50581   0.03956906  0.041714465            2 
  259000    1.1269518   -6.3662124    123.27005  0.039662178  0.041694154            3 
  260000    1.1559518   -6.3717417    123.83419  0.039690444  0.041674273            1 
  261000    1.1480642   -6.4301344    124.00004   0.03959133  0.041655163            7 
  262000    1.1360046   -6.3871468    123.95587  0.039426167   0.04163451            2 
  263000    1.1492735   -6.4332757    124.11061   0.03932529  0.041613005            3 
  264000    1.1714297   -6.3930467    124.58698  0.039326699   0.04158986            3 
  265000    1.1375048   -6.4030368    125.12904  0.039348755  0.041566878            3 
  266000    1.1532386   -6.3665433    125.52866  0.039326021  0.041543834            2 
  267000    1.1505239   -6.4027949    126.16234  0.039376509   0.04152215            3 
  268000    1.1238284   -6.4023604    126.71393  0.039401098  0.041500183            2 
  269000    1.1278782   -6.4268903    127.20891  0.039407963  0.041477671            5 
  270000    1.1401318   -6.4196626    127.77048  0.039435333  0.041456579            3 
  271000     1.133623   -6.3876195    128.25725    0.0394395  0.041436508            5 
  272000    1.1479744   -6.4022069    128.54403  0.039382361  0.041416441            6 
  273000    1.1316565   -6.4306096      129.248   0.03945299  0.041395713            2 
  274000    1.1505271   -6.3377184    129.96142   0.03952598  0.041375309            1 
  275000     1.144601   -6.3603478    129.86763  0.039353828  0.041354364            2 
  276000    1.1176054   -6.3964925    130.34451  0.039355227   0.04133271            2 
  277000    1.1462955   -6.4334802    130.65461  0.039306441   0.04130987            2 
  278000     1.131896   -6.3972297    130.66701  0.039168767  0.041287139            3 
  279000    1.1180107   -6.3946839    131.71736  0.039342103  0.041264616            5 
  280000    1.1375219   -6.4433086    131.97709  0.039278895  0.041242528            3 
  281000    1.1581398   -6.4017525    132.74457  0.039366717  0.041222352            3 
  282000    1.1485692   -6.4123006    132.50762  0.039157097   0.04120015            2 
  283000    1.1609391   -6.4201862    133.07516  0.039185855  0.041177783            2 
  284000    1.1488281   -6.3942159    133.87526  0.039282647  0.041156259            4 
  285000    1.1432521   -6.4047741    133.90597  0.039153792  0.041134717            3 
  286000    1.1383615   -6.4076852    134.37078  0.039152325  0.041113431            2 
  287000     1.133352   -6.4329495    134.96553  0.039188596  0.041092267            2 
  288000    1.1545259   -6.4327954    135.76335  0.039283377  0.041072924            4 
  289000    1.1436502   -6.4206127    135.64912  0.039114511  0.041053585            2 
  290000    1.1465836   -6.4260001    136.83394  0.039320098  0.041034961            4 
  291000    1.1063006   -6.4090781     137.1299  0.039269729  0.041016518            2 
  292000     1.151873   -6.4054137    137.51218  0.039244344  0.040998308            3 
  293000    1.1418463    -6.407727    138.54273  0.039403505  0.040981008            4 
  294000    1.1555742   -6.4277149    138.06153  0.039133087  0.040962191            3 
  295000    1.1397846   -6.4086941    138.81706  0.039213859  0.040941739            7 
  296000    1.1277803   -6.4238854    139.10257  0.039161758  0.040923365            2 
  297000    1.1509228   -6.3902699    139.39548  0.039112088  0.040904886            3 
  298000    1.1223079   -6.3974113    140.48146  0.039284525  0.040887948            3 
  299000    1.1633738   -6.4136867    141.24758   0.03936666  0.040871351            4 
  300000    1.1423913   -6.3930039    141.23388  0.039231634  0.040854888            2 
  301000    1.1186715   -6.4337151    141.25978  0.039108465  0.040837364            2 
  302000    1.1072283   -6.4115309    142.22836  0.039246236  0.040820128            3 
  303000    1.1166259   -6.4539269    142.31154  0.039139588  0.040801532            2 
  304000    1.1383105   -6.4504953    142.35498  0.039022748   0.04078343            5 
  305000    1.1305208   -6.4160338    142.81218  0.039019722  0.040764735            3 
  306000    1.1067299   -6.4640284     143.1099  0.038973284  0.040746705            4 
  307000    1.1121013   -6.4954066    143.27654  0.038891569  0.040726589            4 
  308000    1.1282486   -6.4783252    143.75438  0.038894584  0.040705196            2 
  309000    1.1259179   -6.4248513    144.30106  0.038916143  0.040683286            9 
  310000    1.1401584   -6.4700978    144.48595   0.03884031  0.040659225            3 
  311000    1.1429231   -6.4702562    144.47852  0.038713431  0.040635052            3 
  312000    1.1516725   -6.4335332    144.63905  0.038632226  0.040610879            3 
  313000    1.1354663   -6.4026507    145.36563  0.038702245  0.040586958            2 
  314000    1.1263759     -6.42366     146.1698  0.038792408  0.040562283            3 
  315000    1.1170983    -6.464491    146.11643  0.038655139  0.040538545            2 
  316000    1.1095822   -6.4400589    146.61846  0.038665205  0.040513825            2 
  317000    1.1117275    -6.466123    147.09331  0.038668062  0.040490742            4 
  318000    1.1209723   -6.4708891    147.11214    0.0385514  0.040466502            3 
  319000    1.1330882    -6.435283    147.90615  0.038637969  0.040442287            6 
  320000    1.1106297   -6.4491179    148.37235  0.038638633   0.04041869            3 
  321000    1.1185667   -6.4791949     148.6399  0.038587721  0.040395446            2 
  322000    1.1321688   -6.4629636    148.58373  0.038453346   0.04037025            4 
  323000    1.1231257   -6.4179626     149.5804  0.038591435  0.040345415            2 
  324000    1.1147935   -6.3876072    149.92626   0.03856128  0.040320607            2 
  325000    1.1250673    -6.451224    149.60183  0.038359442  0.040296113            2 
  326000    1.1529937   -6.4409172    150.52354  0.038477388  0.040272176            4 
  327000    1.1157882   -6.4749229     151.0801  0.038501554  0.040247655            2 
  328000    1.1229613   -6.4417448    151.43879  0.038475302  0.040224353            4 
  329000    1.1053909     -6.47126    151.28576  0.038319595  0.040200547            3 
  330000    1.1430222   -6.4614904    151.83426  0.038341986  0.040175235            4 
  331000    1.1204857   -6.4372228    152.72024  0.038449203  0.040150195            2 
  332000    1.1203604   -6.4649659    152.31488  0.038231648   0.04012535            3 
  333000     1.120605   -6.4434568    153.15634  0.038327413  0.040099593            2 
  334000     1.115274   -6.3842371    153.72271   0.03835397    0.0400751            3 
  335000    1.1412352    -6.386411    154.00865   0.03831061  0.040050504            3 
  336000     1.105988   -6.4494052    153.68748  0.038116934  0.040025381            5 
  337000    1.1127142   -6.4303193    154.99053  0.038326047  0.040001304            3 
  338000    1.1103328   -6.4551143    155.16806  0.038256426  0.039976786            5 
  339000    1.1127646   -6.4712893    155.49388  0.038223667  0.039951976            3 
  340000    1.1197886   -6.4680318    155.20843  0.038041281  0.039925807            2 
  341000    1.1371676   -6.4735683    155.47808   0.03799562  0.039900028            3 
  342000    1.1404359   -6.4772727    156.33107  0.038092366  0.039875179            4 
  343000    1.0972605   -6.4641186    156.48422  0.038018517  0.039848673            2 
  344000    1.0979735     -6.42719    157.43299  0.038137837  0.039822965            1 
  345000    1.0937379    -6.437853    157.50367  0.038044365  0.039797175            9 
  346000    1.1002685   -6.4266299    157.58338  0.037953608  0.039771056            3 
  347000    1.1209358   -6.4772579    157.25289  0.037764864  0.039743273            3 
  348000    1.1115964   -6.4545893    157.96794  0.037827571  0.039716583            3 
  349000    1.1166457   -6.4431787    158.76228  0.037908855  0.039689485            2 
  350000    1.1183306   -6.4512912    159.45509  0.037965498   0.03966321            6 
  351000    1.1079453   -6.4509322     159.2313  0.037804201  0.039636928            3 
  352000    1.1006264   -6.4644925    159.82889   0.03783828  0.039609798            5 
  353000    1.1258896   -6.4736129    160.49798  0.037889042  0.039583439            5 
  354000    1.1308272   -6.4465633    160.78265  0.037849022   0.03955905            3 
  355000    1.1236903    -6.465347     161.5412  0.037920469  0.039534539            2 
  356000    1.1061284   -6.4801671    161.76855  0.037867171  0.039509471            4 
  357000     1.131592   -6.4897305    162.42418   0.03791414  0.039486568            3 
  358000    1.0968929   -6.4847827    162.74737  0.037883466  0.039462357            2 
  359000     1.105339   -6.4267263    163.30174  0.037906624   0.03943845            5 
  360000    1.1020974   -6.4793484    163.68324  0.037889639  0.039414979            4 
  361000    1.1130347    -6.500913    163.65491  0.037778142  0.039391946            2 
  362000    1.0876213   -6.4821839    164.00755  0.037754961  0.039368331            3 
  363000     1.109467   -6.4260949     164.6694  0.037802894  0.039344045            3 
  364000    1.1234077   -6.4669074     164.5276  0.037666576  0.039319873            4 
  365000    1.1043673   -6.4968954    165.74957  0.037842368  0.039297004            4 
  366000    1.1037316   -6.4639568    165.89368  0.037771786  0.039274434            3 
  367000    1.1209098   -6.5075659    166.11681  0.037719531  0.039250991            4 
  368000    1.1173339   -6.4759285    167.23815  0.037870957  0.039228294            2 
  369000    1.0999845   -6.4667494    167.62557   0.03785582  0.039206065            2 
  370000    1.1093367   -6.4740086    167.82272  0.037797909  0.039184157            3 
  371000    1.0875483   -6.4669739    168.27721  0.037798116  0.039162387            2 
  372000    1.1166705   -6.4947539    168.21307  0.037682139   0.03913992            5 
  373000    1.0884192   -6.4710196    168.75636  0.037702493   0.03911725            3 
  374000    1.1046432   -6.4344659    169.11118  0.037680745  0.039094509            2 
  375000    1.0907046     -6.46169    169.42469  0.037649931  0.039072611            3 
  376000    1.0800722   -6.4919886    169.15724  0.037490522  0.039049196            4 
  377000    1.1493824   -6.5048816    170.19584  0.037620655  0.039026204            4 
  378000    1.1138657   -6.4828237    170.18216  0.037518114  0.039003272            5 
  379000    1.1208235   -6.4735745     170.5758  0.037505672   0.03898005            4 
  380000    1.0837067   -6.4583084    171.80686  0.037676942  0.038956723            3 
  381000    1.1072829     -6.49137    171.26307  0.037459115  0.038932503            5 
  382000    1.0991294   -6.5028355    170.86623  0.037274483  0.038907488           13 
  383000    1.1413677   -6.5012943    171.84347   0.03738979  0.038881971            4 
  384000    1.0793653   -6.4765948    172.70527  0.037479441  0.038857028            4 
  385000    1.0944059   -6.4819786    172.39886   0.03731577  0.038832284            3 
  386000    1.0826044   -6.5009608      172.648  0.037272884  0.038806771            3 
  387000    1.1196802   -6.4607244    173.42189  0.037343215  0.038781901            3 
  388000    1.1232346   -6.4872934    172.84542  0.037123158  0.038756939            4 
  389000    1.0868849   -6.5129165    174.01197  0.037277628   0.03873265            3 
  390000    1.1270257   -6.4976359    174.54229   0.03729536  0.038709414            2 
  391000     1.091174   -6.4731998     175.2411  0.037348914   0.03868685            3 
  392000    1.1055392     -6.48415    175.40556  0.037288596  0.038665008            2 
  393000    1.1089442   -6.4911932    176.06331  0.037333188  0.038642289            2 
  394000    1.1039106   -6.5075693    176.52179  0.037335404   0.03862066            2 
  395000    1.1147738   -6.5048462    176.78671  0.037296773   0.03859908            2 
  396000    1.1066922   -6.5041796     176.7109  0.037186637  0.038576475            5 
  397000    1.0850826   -6.5160417    177.63649  0.037287256  0.038554563            4 
  398000    1.0758228   -6.4817304     177.9963  0.037268907  0.038533172            2 
  399000     1.095752   -6.5309694    178.43797  0.037267747  0.038511173            1 
  400000    1.0988246   -6.5043866    178.71501  0.037232294  0.038489379            4 
  401000    1.1123437   -6.5233974    178.59294  0.037114078  0.038466436            4 
  402000    1.0952124   -6.4771892    179.93337  0.037299621  0.038444432            2 
  403000    1.0961591   -6.5008718    179.94169  0.037208786  0.038422664            3 
  404000    1.0971772   -6.4914083      180.732  0.037279703  0.038401855            3 
  405000      1.07852   -6.5167932    180.15963  0.037069883  0.038381593            4 
  406000    1.0992065   -6.5209682    180.98636  0.037148268  0.038360393            5 
  407000    1.1095757    -6.474541    181.90192  0.037244455  0.038339877            3 
  408000    1.0661739   -6.4951131    181.25575  0.037021191  0.038319041            4 
  409000    1.1069485   -6.4697842    182.80773  0.037246889   0.03829893            3 
  410000    1.0745879   -6.5101397     183.1316   0.03722187  0.038278757            3 
  411000    1.0944364   -6.4960556    183.26812  0.037158986  0.038258269            3 
  412000    1.1007607   -6.5542477     183.2476  0.037064643  0.038237161            6 
  413000    1.1061223   -6.5437645     182.9999   0.03692492  0.038215639            4 
  414000    1.0904009   -6.5357917    183.59851  0.036956222  0.038193277            3 
  415000    1.0859756   -6.5527628    184.26409  0.037000822  0.038172285            6 
  416000    1.1006107   -6.5014781    184.63863  0.036986906  0.038151395            4 
  417000      1.06528   -6.5512974    185.73353  0.037117013  0.038131217            2 
  418000    1.0999605   -6.4988413    185.95144  0.037071658  0.038111045            2 
  419000     1.073761   -6.4955399    186.09793  0.037012318  0.038091445            5 
  420000    1.0838875   -6.5019379    186.84452  0.037072325   0.03807222            3 
  421000    1.0781548   -6.5174381     186.8483  0.036985015  0.038052082            2 
  422000    1.1004998   -6.5149337    186.97508  0.036922408  0.038032101            2 
  423000    1.0849145    -6.511474    187.15815  0.036871187  0.038011946            4 
  424000    1.0715847   -6.4913387    188.02313  0.036954232  0.037991482            4 
  425000     1.088275   -6.5567365    187.36295  0.036737833  0.037971419            2 
  426000    1.0541495   -6.5115975    188.82936   0.03693845   0.03795142            6 
  427000     1.069609   -6.5193709    188.63984  0.036814958  0.037932123            3 
  428000    1.0815024   -6.5049635     189.5806  0.036912111  0.037911504            3 
  429000    1.0776007   -6.4869186    189.12598  0.036737758  0.037890664            3 
  430000    1.0593376   -6.5315072    189.46669  0.036718352  0.037870699            2 
  431000    1.0749671   -6.5011297    190.73137  0.036877682  0.037851084            5 
  432000    1.0950321   -6.4950379     190.8358  0.036812461  0.037831775            4 
  433000    1.0587399   -6.5321375     191.0686  0.036772247  0.037812127            2 
  434000    1.0920662   -6.5224653    192.00306  0.036866947  0.037792979            4 
  435000    1.1067192   -6.5169062    192.04914  0.036791023  0.037773764            4 
  436000    1.0774976   -6.5495546    192.65285  0.036822028  0.037755129            4 
  437000    1.0649049   -6.5546725    193.21647  0.036845247  0.037736397            2 
  438000    1.0825372   -6.5181044    193.22073  0.036761935  0.037717685            3 
  439000    1.0637152   -6.5291685    193.54705  0.036740138  0.037698961            8 
  440000     1.087295   -6.5267164    193.66689  0.036679335  0.037680512            3 
  441000    1.0837621   -6.5565846    193.94957  0.036649578  0.037661048            2 
  442000    1.0749772   -6.5326715    194.51964   0.03667414   0.03764048            7 
  443000    1.0834505   -6.5716009    194.08793  0.036510145  0.037619636            2 
  444000     1.070452    -6.534085    195.18491  0.036633804  0.037599047            3 
  445000    1.0719433    -6.536244    195.00968  0.036518667  0.037578934            4 
  446000    1.0742428   -6.5292816    194.99104  0.036433303  0.037557568            4 
  447000    1.0903082   -6.5713873    195.07933  0.036368257  0.037535985            4 
  448000    1.0899278   -6.5304994    195.85059  0.036430541  0.037514306            4 
  449000    1.0659746   -6.5551912    195.87644  0.036354202  0.037492573            2 
  450000    1.0645375   -6.5637464    196.69244  0.036424526  0.037471647            4 
  451000    1.0844305   -6.5499588    196.90083  0.036382266  0.037449999            4 
  452000    1.0541658   -6.5211183    196.82859  0.036288457  0.037428353            8 
  453000    1.0824646   -6.5411905    197.54444  0.036340036  0.037406723            4 
  454000    1.0568783   -6.5515723    196.84825  0.036132204  0.037385675            4 
  455000    1.0681303   -6.5248809      198.041  0.036271245  0.037364257            3 
  456000    1.0771238   -6.5518113    198.39397  0.036256207  0.037342825            2 
  457000     1.069064   -6.5413759    199.28143    0.0363387  0.037321843            5 
  458000    1.0874118   -6.5398219    199.08916  0.036224374  0.037300816            3 
  459000    1.0605304   -6.5541577    199.24203  0.036173208  0.037280401            6 
  460000    1.0706466   -6.5300876     199.8438  0.036203587  0.037260191            6 
  461000    1.0911803   -6.5277673    200.23024  0.036194909  0.037238871           12 
  462000     1.051924   -6.5824768    200.31658  0.036132139   0.03721732            2 
  463000      1.06745   -6.5498558    201.62294  0.036289226  0.037196102            2 
  464000    1.0743141   -6.5475811    202.05206  0.036288085  0.037175832            3 
  465000    1.0672145    -6.516498    202.18528  0.036233921  0.037155937            2 
  466000    1.0512091   -6.5273924    202.51258  0.036214695  0.037136499            4 
  467000    1.0744205   -6.5079671    202.49463  0.036133946  0.037116538            3 
  468000    1.0621487   -6.5506188    202.77178  0.036106086  0.037095745            3 
  469000    1.0770484   -6.5625861    203.08709  0.036085127  0.037074813            3 
  470000    1.0601999   -6.5401796    203.17158   0.03602333  0.037054352            5 
  471000    1.0796067   -6.5293853    203.81379  0.036060472  0.037033804           10 
  472000    1.0450332   -6.5799373    203.33709  0.035899909  0.037012407            2 
  473000    1.0692692   -6.5471588    204.49628  0.036028239  0.036991713            2 
  474000     1.054995   -6.5369812      204.082  0.035879394  0.036971026            4 
  475000    1.0755747   -6.5072395     205.3521  0.036026685  0.036950585            2 
  476000    1.0606703   -6.5584715    205.31401   0.03594433  0.036930244            6 
  477000    1.0612576    -6.564864    205.75711  0.035946386  0.036908984           12 
  478000    1.0485239   -6.5662261    205.53665   0.03583275  0.036887438            5 
  479000    1.0751332   -6.5768719    205.33457  0.035722785   0.03686566            4 
  480000    1.0532388   -6.5591611    207.27444  0.035985145  0.036844293            8 
  481000    1.0791655   -6.5594504    207.07582  0.035875923  0.036822308            5 
  482000    1.0624469   -6.5864173    206.46236  0.035695429  0.036800366            4 
  483000    1.0554439   -6.5616337    207.03057   0.03571956  0.036778863            6 
  484000    1.0452667    -6.605469    207.92234    0.0357993  0.036758109            2 
  485000    1.0500274   -6.5713411    208.34268  0.035797712   0.03673709            4 
  486000    1.0441262   -6.5491175    209.19545  0.035870275  0.036716985            4 
  487000    1.0657297   -6.5639681    209.57973  0.035862376  0.036697522            2 
  488000    1.0664842   -6.5790455    209.10714  0.035708186  0.036678213            5 
  489000    1.0661359   -6.5915691    209.20413  0.035651692  0.036658223            8 
  490000    1.0504409   -6.5686419    210.71154  0.035835297  0.036638174            3 
  491000    1.0775452   -6.5906077      210.793  0.035776138  0.036618508            3 
  492000    1.0686244   -6.5585121    210.65776  0.035680514  0.036598613            4 
  493000    1.0411368   -6.5698378    211.23496  0.035705706  0.036578828            2 
  494000    1.0749026   -6.5906781    211.43288  0.035666816  0.036558959            3 
  495000     1.060273   -6.5695183    211.76284  0.035650309  0.036538617            3 
  496000    1.0615095   -6.5591634    212.13354  0.035640715   0.03651843            2 
  497000    1.0521164   -6.5686275    211.49042   0.03546117  0.036498309            8 
  498000    1.0340937    -6.555167    213.25703  0.035685581  0.036478226            2 
  499000    1.0313751     -6.53659    213.26027  0.035614608  0.036457508            4 
  500000    1.0458738   -6.5650568    212.88708  0.035481181  0.036436312            5 
  501000    1.0502387   -6.6024666    212.16689  0.035290566  0.036414694            3 
  502000    1.0587406   -6.5476309    213.35749  0.035417909  0.036392849            8 
  503000    1.0489908   -6.5338149      213.304  0.035338635  0.036371762            2 
  504000    1.0735584   -6.5767981    213.93064   0.03537213  0.036350002            2 
  505000    1.0494598    -6.537627    214.64476  0.035419928  0.036328939            4 
  506000     1.028486   -6.6029087     214.3929  0.035308449  0.036307779            6 
  507000    1.0247746   -6.6144697    215.12827  0.035359676  0.036286534            6 
  508000    1.0739571   -6.5341839    215.45557  0.035343762  0.036265344            3 
  509000     1.051932   -6.5951927    214.79875  0.035166789  0.036243305            2 
  510000     1.033796   -6.5758234     215.9563  0.035286977  0.036221246            5 
  511000    1.0439387   -6.5684688    215.50897  0.035144972  0.036199632            4 
  512000     1.058387   -6.5803566    216.56697  0.035248531  0.036177946            2 
  513000    1.0361494   -6.5972262    216.66959   0.03519649   0.03615616            2 
  514000     1.032784   -6.6001341    216.37595  0.035080407  0.036133976            3 
  515000    1.0477236   -6.5417251    217.93638  0.035264786  0.036112271            2 
  516000    1.0507826   -6.6090957    217.12604  0.035065574   0.03609058            3 
  517000     1.073132   -6.5520679    218.11322   0.03515687  0.036068496            4 
  518000    1.0627741   -6.5998718    217.98141  0.035067794  0.036046774            8 
  519000    1.0351285   -6.6064911    218.18598  0.035033073  0.036024943            3 
  520000    1.0372085   -6.6013157    218.41217   0.03500195  0.036003035            4 
  521000    1.0296424   -6.5449579    218.95416  0.035021459  0.035981015            4 
  522000    1.0532552   -6.6061154    218.75391    0.0349224   0.03595841            3 
  523000    1.0332815   -6.5802106    219.68875  0.035004581  0.035936028            2 
  524000    1.0385987   -6.5977906    219.47829  0.034904309  0.035913931            2 
  525000    1.0357196   -6.5959816    219.25267   0.03480201  0.035891604            4 
  526000    1.0385537   -6.6177721     220.1265  0.034874288  0.035868432            4 
  527000    1.0624899   -6.5973403    219.63019  0.034729631  0.035845635            2 
  528000    1.0521287   -6.5704479    220.78343   0.03484587  0.035823059           14 
  529000    1.0180478   -6.6043236    221.33244  0.034866484   0.03580066            5 
  530000    1.0347531   -6.6240062    220.82595  0.034721061  0.035778323            4 
  531000    1.0377216   -6.5889623    221.58015  0.034774035  0.035755947            3 
  532000    1.0668458   -6.6042426    221.26161  0.034658773  0.035733253            3 
  533000    1.0598395   -6.6128473    222.13845   0.03473084  0.035710356            5 
  534000    1.0139962   -6.6097797    222.03472  0.034649612  0.035687265            6 
  535000     1.063099   -6.5928998    222.93603  0.034725239  0.035664715            3 
  536000    1.0324584   -6.5764705    223.25635  0.034710253  0.035642621            6 
  537000    1.0436419   -6.6451861    223.56525  0.034693552  0.035620425            4 
  538000    1.0242507   -6.6312283    223.62047  0.034637619  0.035597986            3 
  539000    1.0446554   -6.6155105    223.84223  0.034607643  0.035575494            3 
  540000    1.0454464   -6.6657214    224.18215  0.034596011  0.035553237            3 
  541000    1.0489472   -6.5848474    225.32464  0.034708047    0.0355315            4 
  542000    1.0353944   -6.5884246    225.25017  0.034632561    0.0355102            2 
  543000    1.0294303   -6.5943733    226.02523  0.034687728  0.035488777            4 
  544000    1.0308539   -6.6289487    226.08515  0.034633142  0.035467716            6 
  545000    1.0316932   -6.6112714    225.85566  0.034534505  0.035446485            4 
  546000    1.0623561   -6.6177099     226.7844  0.034613003  0.035425262            2 
  547000    1.0154897   -6.6212858     226.5335  0.034511502  0.035403685            3 
  548000    1.0335428   -6.5987641    227.11365  0.034536748  0.035382404            3 
  549000    1.0309984   -6.6262456    227.13084  0.034476448  0.035360457            4 
  550000    1.0340715   -6.5971414    227.89792  0.034529988  0.035338535            5 
  551000    1.0188253   -6.6238889     228.2641  0.034522702  0.035317339            4 
  552000    1.0462708   -6.5957771    228.38704   0.03447872  0.035296148            4 
  553000    1.0100945    -6.596827    228.84884  0.034485962  0.035275136            2 
  554000    1.0122385   -6.5840397    228.67834  0.034398065   0.03525408            7 
  555000    0.9983069   -6.6431124    228.81572  0.034356715  0.035232594            9 
  556000    1.0363116   -6.6136417    229.52184  0.034400755  0.035210998            4 
  557000    1.0465327   -6.5841499    229.75533  0.034373927  0.035189433            2 
  558000    1.0259448   -6.5630504     230.3705  0.034404197  0.035167661            3 
  559000    1.0140081   -6.6157547    230.32973  0.034336572  0.035145957            5 
  560000    1.0283661   -6.6438262     229.3765  0.034133408  0.035124053            4 
  561000    1.0436736   -6.5940318    230.68893  0.034267518  0.035101941            6 
  562000    1.0217915   -6.6380553    230.05626  0.034112732  0.035079065            4 
  563000    1.0162418   -6.6008742    230.32566  0.034092016   0.03505668            4 
  564000    1.0354422   -6.6225992    230.70216  0.034087199  0.035034122            4 
  565000    1.0405334   -6.6317311     230.6359  0.034017094  0.035010915            2 
  566000    1.0397746   -6.5986411    231.83836  0.034134034   0.03498796            2 
  567000     1.012553   -6.6086475     231.0369   0.03395604  0.034965251            5 
  568000    1.0205838   -6.6399795    231.60693   0.03397989  0.034942087            3 
  569000    1.0493653    -6.632237    231.81719  0.033950966   0.03491891            3 
  570000    1.0316393   -6.6224736     232.1695  0.033942909  0.034895725            7 
  571000    1.0318391   -6.6289441    232.65459   0.03395426  0.034872741            3 
  572000    1.0237535   -6.6430596    232.99613  0.033944658  0.034850103            4 
  573000    1.0494836   -6.6198354    233.46631  0.033953797  0.034827413            3 
  574000    1.0441575   -6.6373472    233.76094  0.033937419  0.034804302            4 
  575000    1.0375721   -6.6314297    233.12067  0.033785605  0.034780837            2 
  576000    1.0160044   -6.6454175    233.54733  0.033788677  0.034757834            3 
  577000    1.0131938   -6.6173972    233.77407  0.033762865  0.034734621            3 
  578000    1.0123419   -6.6772596    234.06433  0.033746299  0.034711403            7 
  579000    1.0448046   -6.6431099    233.43561  0.033597526  0.034687749            5 
  580000    1.0221889   -6.6583986    233.82314  0.033595279  0.034664244            3 
  581000    1.0167213   -6.6451475    234.81187   0.03367927  0.034640955            5 
  582000    1.0178056     -6.60937    235.55676  0.033728058  0.034617852            3 
  583000    1.0244968   -6.6468304    235.60505  0.033677109  0.034594514            2 
  584000     1.008033   -6.6406669    235.07434  0.033543712  0.034571495            4 
  585000    1.0023203   -6.6250776     236.8963  0.033745912  0.034548329            4 
  586000    1.0322348   -6.6045388    236.24505  0.033595712  0.034525049            3 
  587000    1.0052656   -6.6603215    235.83927  0.033480873  0.034501779            6 
  588000    1.0280966   -6.6310678    236.41391  0.033505372  0.034478275            6 
  589000    1.0179691   -6.6304665    237.07295   0.03354173  0.034454737            4 
  590000     1.029033   -6.6291866    236.97373  0.033470865  0.034431573            2 
  591000    1.0155725   -6.6316716     237.1917  0.033444967  0.034408434            4 
  592000    1.0440369   -6.6413866    238.58517  0.033584624  0.034385317            4 
  593000     1.023815   -6.6231783    237.82879  0.033421696  0.034362147            4 
  594000    1.0111603   -6.6465607    238.27601  0.033428172  0.034338893            2 
  595000    1.0214208    -6.645444    239.27297   0.03351162  0.034316087            7 
  596000    1.0087038   -6.6907652    238.59482  0.033360574  0.034293764            4 
  597000    1.0253348   -6.6367134    239.40519   0.03341781  0.034271054            3 
  598000    1.0061655   -6.6722113    240.05547  0.033452546   0.03424881            4 
  599000     0.994409   -6.6423635     240.8582  0.033508376  0.034226331            4 
  600000    1.0136044   -6.6810626    239.75066  0.033298703  0.034203802            3 
  601000    1.0118123   -6.6593604    240.16309  0.033300484  0.034181055            4 
  602000    1.0382575   -6.6736616    240.66264   0.03331432   0.03415888            4 
  603000    1.0159762    -6.666045    240.89328  0.033290945  0.034137271            3 
  604000    1.0102065   -6.6123903    242.15329   0.03340967  0.034115777            2 
  605000    1.0259822   -6.6789351     242.0139  0.033335248  0.034094443            7 
  606000    1.0152243   -6.6562205    242.81092  0.033389841  0.034073086            3 
  607000    1.0024836   -6.6338726    242.71006  0.033320985  0.034052139            5 
  608000   0.98778142   -6.6326957    242.97668  0.033302725  0.034030947            4 
  609000    1.0077208   -6.6327414    243.91036  0.033375802  0.034009863            6 
  610000    1.0438526   -6.6718286    243.09349  0.033209493  0.033988778            2 
  611000   0.99867446   -6.6419266    243.03972  0.033147807  0.033967095            3 
  612000    1.0132633   -6.6576725    243.83018  0.033201277  0.033945209            3 
  613000     1.010031   -6.6436367    243.70034  0.033129464  0.033923205            3 
  614000    1.0175494   -6.6433112    244.12259  0.033132816  0.033901113            6 
  615000   0.98845261   -6.6472782    243.08837  0.032938803  0.033878832            8 
  616000    1.0035061   -6.6529285    243.72758  0.032971805  0.033856627            4 
  617000   0.97793148   -6.6533828    244.45401  0.033016479  0.033834386            4 
  618000    1.0009575   -6.6558938    245.43101  0.033094796  0.033811675            5 
  619000    1.0070051   -6.6589729    244.41184  0.032904125  0.033789519            6 
  620000    1.0241919   -6.6844977    244.95696  0.032924323  0.033767236            3 
  621000    1.0421331   -6.6761773    245.78031  0.032981792  0.033744867            3 
  622000    1.0139751   -6.6569015    245.95019  0.032951526  0.033722156            4 
  623000    1.0012964    -6.668197    245.99339  0.032904412   0.03369953            5 
  624000   0.99390776    -6.669942    245.95255  0.032846227  0.033677107            5 
  625000   0.98100055   -6.6402834    246.86769  0.032915692  0.033654638            4 
  626000    1.0145249   -6.6939259    245.77513  0.032717669  0.033631857            6 
  627000     1.017695   -6.6842203     247.1002    0.0328416     0.033609            3 
  628000   0.98599354   -6.6656644    247.22005  0.032805208  0.033586097            5 
  629000    1.0044369   -6.6803597     246.8243  0.032700622  0.033563188            4 
  630000   0.99853159   -6.6819321    247.64899  0.032757803  0.033540169            2 
  631000   0.99310414   -6.6612656    247.35786   0.03266744  0.033517192            5 
  632000    1.0059006   -6.6644064    247.52728   0.03263809  0.033494085            3 
  633000    1.0120848   -6.6554963    248.11077  0.032663345  0.033471133            6 
  634000    1.0011451   -6.6808298     247.8255   0.03257433  0.033448091            3 
  635000    1.0059648   -6.6796364    249.00566  0.032677908  0.033425366            6 
  636000    1.0032388   -6.6943565    248.24952  0.032527452  0.033402308            4 
  637000   0.99981524   -6.6975602    248.69887  0.032535174  0.033379112            4 
  638000   0.99928174   -6.6739628    249.11117  0.032538032  0.033356161            3 
  639000   0.99045783   -6.6489824    250.40363  0.032655664   0.03333396            2 
  640000    1.0074603   -6.6677587    250.79591  0.032655717  0.033311689            4 
  641000    1.0258053   -6.6510386    250.14918  0.032520694  0.033289421            4 
  642000    1.0070314   -6.6996946    250.87053  0.032563671  0.033267128            8 
  643000    1.0106942   -6.6566087    250.80778  0.032504896  0.033244448            3 
  644000    1.0011581   -6.7226028    250.03829  0.032354851  0.033222155            7 
  645000   0.99039995   -6.6806061    251.08662  0.032440132   0.03319923            4 
  646000   0.98109582   -6.6895067    251.17013  0.032400688  0.033176569            4 
  647000    0.9946341    -6.701134    250.98767  0.032327108  0.033153862            5 
  648000    1.0007206   -6.6853153    251.19457  0.032303829  0.033131274            4 
  649000    1.0018155    -6.676268    251.75928  0.032326564  0.033108643            8 
  650000    0.9888558   -6.7044972    252.16568  0.032328933  0.033086106            4 
  651000     1.008622   -6.7099611    251.48248  0.032191817   0.03306358            5 
  652000    0.9940977   -6.6916474    251.98853  0.032207123  0.033040904            3 
  653000    1.0049053   -6.6790054    251.98127  0.032156874  0.033017958            4 
  654000    1.0005102   -6.7193243    252.39983  0.032161039  0.032995215            6 
  655000   0.99708324   -6.7197296    253.25755  0.032221063  0.032972951            3 
  656000   0.98372802   -6.6985797     253.2756  0.032174238  0.032950659            3 
  657000   0.99425422    -6.737733    253.02602  0.032093609  0.032928121            5 
  658000   0.97895742     -6.70452    253.35665  0.032086709  0.032905368            4 
  659000    1.0079312   -6.6854492    254.02563  0.032122614  0.032882639            6 
  660000   0.99288832   -6.6931973    254.20182  0.032096189  0.032859982            5 
  661000   0.99246962   -6.6933274    255.87294  0.032258313  0.032837933            2 
  662000   0.98926753   -6.6640959     255.5881  0.032173729  0.032815943            2 
  663000    0.9992549   -6.6721033    255.47162  0.032110561  0.032794132            3 
  664000   0.98691861   -6.6916954    255.96976  0.032124719   0.03277228            2 
  665000    1.0137919   -6.7255766    256.06206  0.032087978  0.032750648            2 
  666000    0.9897937   -6.6716376    256.95448  0.032151461  0.032729193            3 
  667000   0.97729295   -6.7083507    257.19132  0.032132848  0.032707736            7 
  668000   0.98547871   -6.7104299    256.40134  0.031986195  0.032686036            3 
  669000   0.97605962    -6.671284    257.12494  0.032028517  0.032664251            6 
  670000   0.97409491   -6.7270316     256.9174  0.031954901  0.032642578            7 
  671000   0.99179124   -6.7055811    256.26976  0.031826845  0.032620462            4 
  672000   0.99228141   -6.7198155    257.40197  0.031919888  0.032598362            3 
  673000   0.98093517   -6.6713382    257.46547  0.031880321  0.032576454            4 
  674000   0.98441532   -6.6619766    258.43585  0.031952998  0.032554767            3 
  675000   0.98737263   -6.6660518    258.32718  0.031892244  0.032533071            8 
  676000   0.96443353   -6.6935455     258.0416  0.031809862  0.032511413            3 
  677000    1.0053433   -6.6885849    259.26993  0.031914073  0.032489547            5 
  678000   0.97632035   -6.7047896    258.67352  0.031793697  0.032467806            2 
  679000    1.0024657   -6.7055555    258.91733  0.031776795  0.032445948            3 
  680000   0.99479772   -6.7330367    259.19927  0.031764617    0.0324239            4 
  681000   0.99426695   -6.7485959    259.62155  0.031769646  0.032402158            5 
  682000   0.97449271   -6.7491239    259.90271  0.031757418  0.032380707            3 
  683000    1.0025526    -6.708004    259.79487  0.031697764   0.03235944            6 
  684000   0.97700031   -6.7034937    260.22424  0.031703733   0.03233836            4 
  685000   0.97770436   -6.7055017    260.59629  0.031702711   0.03231692            4 
  686000   0.97504209   -6.7201543    261.96977  0.031823344  0.032295364            6 
  687000   0.97980898   -6.7273856    261.25116  0.031689854    0.0322743            4 
  688000   0.96857377   -6.7091174    261.72763  0.031701505  0.032253312            5 
  689000   0.97206751    -6.678074    261.89659   0.03167593  0.032232342           11 
  690000   0.98825111    -6.704338    261.77548  0.031615396   0.03221103            3 
  691000    1.0037792   -6.7047373    262.24937  0.031626794  0.032189471           14 
  692000     0.965732   -6.7000168    262.53454  0.031615431  0.032167974            7 
  693000   0.99598567   -6.7082485    262.21844  0.031531799   0.03214632            7 
  694000    1.0017199   -6.7194388     262.7452  0.031549616  0.032124545            6 
  695000   0.94902851   -6.7406913    262.15168  0.031433055  0.032102782            5 
  696000    0.9846191   -6.7710438    262.02209  0.031372377  0.032080616            6 
  697000   0.99425511   -6.7378265    263.42908  0.031495585  0.032058466            4 
  698000   0.98274668    -6.712929    262.57237  0.031348182  0.032036317            6 
  699000    0.9740982   -6.7194894    262.77289   0.03132724  0.032014156            4 
  700000   0.97488999   -6.6830557    263.59636  0.031380519  0.031992332            3 
  701000   0.95402578   -6.7210145      263.519  0.031326557   0.03197071            4 
  702000   0.97297685    -6.699728    263.88463  0.031325336  0.031948963            3 
  703000   0.98398824    -6.749216    263.66378  0.031254597  0.031927292            7 
  704000   0.97841022   -6.7154733    264.60549  0.031321673  0.031905399            7 
  705000   0.96281258   -6.7254615    264.41547  0.031254784  0.031883391            6 
  706000   0.97343883   -6.7509644    263.67365  0.031122952  0.031861135            4 
  707000   0.97129387   -6.7362595    264.25022  0.031146891  0.031838639            5 
  708000    0.9833979   -6.7261865    265.25645  0.031221333  0.031816304            2 
  709000   0.99082483   -6.7252939    264.99792  0.031146911  0.031793811            3 
  710000   0.96250147    -6.731237    265.50396  0.031162437  0.031771713            4 
  711000   0.97631882   -6.7533616    265.26022   0.03109004  0.031749948            8 
  712000   0.97377143   -6.7413622    265.35501  0.031057469  0.031727764            3 
  713000   0.96659865   -6.7364856    265.74702  0.031059726  0.031705338           11 
  714000   0.97826288   -6.7250609    265.99062  0.031044657  0.031683012            8 
  715000    0.9745785   -6.7595238    266.11593  0.031015843  0.031660842            6 
  716000   0.97483342   -6.6963019    266.30159  0.030994133  0.031638348            4 
  717000   0.96867388   -6.7576875    266.06618  0.030923545  0.031615477            3 
  718000   0.98000745   -6.7432789    265.54654  0.030820164  0.031592419            6 
  719000   0.97481297   -6.7489232    266.29583  0.030864143  0.031569364            3 
  720000   0.97286403   -6.7286172    266.33848  0.030826213  0.031546537            2 
  721000   0.94936354   -6.7491802    266.47812  0.030799597  0.031523788            5 
  722000    0.9530684   -6.7718624     266.7837  0.030792209  0.031500502            3 
  723000   0.96213403   -6.7411483    266.75616  0.030746445  0.031477325            6 
  724000    0.9514727   -6.7399797    266.70291  0.030697849  0.031454044            5 
  725000   0.96324043   -6.7740834    266.00403  0.030575175  0.031430364            2 
  726000   0.96649591   -6.7625974    266.34499  0.030572198  0.031406492            3 
  727000   0.96530959   -6.7560723     266.5814  0.030557244  0.031382614            9 
  728000   0.95295275   -6.7514407    267.26851  0.030593923  0.031358626            3 
  729000    0.9449433   -6.7369782    266.81156   0.03049972  0.031334648            5 
  730000   0.93213684   -6.7562374     267.2735  0.030510673  0.031310424            5 
  731000   0.96642978   -6.7580947    266.79088  0.030413917  0.031286391            6 
  732000   0.96394592   -6.7550303    267.00952  0.030397258  0.031262163            5 
  733000   0.97829599   -6.7666884    267.52159  0.030414006  0.031238127            3 
  734000   0.96164647   -6.7749469    266.93748  0.030306253  0.031213969            6 
  735000   0.96218217   -6.7544941    268.16997  0.030404758  0.031190239            5 
  736000   0.96614435   -6.7353865    266.92121  0.030222058  0.031166055            4 
  737000    0.9820111    -6.699369    268.11581  0.030316125  0.031142336            5 
  738000   0.94473041   -6.7597946    269.23053  0.030400918  0.031118552            2 
  739000   0.91600953    -6.761278    268.33056  0.030258295  0.031094838            4 
  740000    0.9514307   -6.8121166    268.64809  0.030253164  0.031070814            4 
  741000   0.95772087   -6.7854242    268.31103  0.030174429  0.031046847            6 
  742000   0.98949761   -6.7408195    269.71821  0.030291802  0.031023422            2 
  743000   0.94850727   -6.7293157    269.47067  0.030223269  0.030999812            3 
  744000   0.96685143   -6.7317291    269.33668  0.030167638  0.030976187            5 
  745000   0.96530765   -6.7646538    269.84337  0.030183822  0.030952506            5 
  746000   0.94111673   -6.7916609    269.15581  0.030066556  0.030928536            8 
  747000   0.96312346   -6.7599901    269.80023  0.030098196  0.030904838            5 
  748000   0.95642432    -6.770629    270.04374  0.030085086  0.030881195            2 
  749000   0.94978674    -6.769976    270.58401   0.03010503  0.030857616            3 
  750000   0.96352828   -6.7655506    271.29941  0.030144379  0.030833782            4 
  751000   0.96046741   -6.7658771    270.29888  0.029993218  0.030810036            3 
  752000   0.94441333   -6.7619325       271.21  0.030054299  0.030786443            7 
  753000   0.93538565    -6.760825    271.63209  0.030061099  0.030762928            4 
  754000   0.95963299   -6.7360834    271.50604  0.030007299  0.030739303            6 
  755000   0.94136128     -6.75773    271.93945  0.030015392  0.030715639            2 
  756000   0.94669754   -6.7438357    271.95455  0.029977353  0.030692016            5 
  757000   0.95857449   -6.7757644    271.14191  0.029848294  0.030668379            8 
  758000   0.94567394   -6.7713534    272.12212   0.02991668   0.03064496            5 
  759000   0.94581719   -6.8029007    272.94102  0.029967173  0.030621378            4 
  760000   0.96661221   -6.7781002    273.01099  0.029935416  0.030598107            3 
  761000   0.97842508   -6.7476721    272.95432  0.029889873  0.030574724            4 
  762000   0.95421737   -6.7865885      272.798  0.029833552  0.030551466            3 
  763000   0.94838616   -6.7624788    272.87652  0.029803028  0.030528295            4 
  764000   0.94552966   -6.7995123    273.55689   0.02983823  0.030505139            5 
  765000   0.96317286   -6.7698055    273.31898  0.029773309  0.030482145            3 
  766000   0.94259661   -6.7787906    273.89768  0.029797397  0.030459306            7 
  767000   0.94200839   -6.7855946    274.26512   0.02979847  0.030436358            5 
  768000    0.9524655   -6.7953225    274.38905  0.029773117   0.03041343            5 
  769000   0.95690742   -6.7866451    273.97086  0.029689083  0.030390496            4 
  770000   0.94807581   -6.8024407     274.9513  0.029756634  0.030367697            4 
  771000   0.94720355   -6.7619046    275.13969  0.029738402  0.030344856            5 
  772000   0.95574541   -6.8117249    274.70774  0.029653253  0.030321835            4 
  773000   0.93079034   -6.8018698    275.55116  0.029705817  0.030298913            4 
  774000   0.95118346   -6.7948831    274.27167   0.02952968  0.030276179            3 
  775000   0.95529442   -6.7965005    275.60649  0.029635107  0.030253405            3 
  776000   0.93128705   -6.7914089    276.61757  0.029705495  0.030230698            3 
  777000   0.92551617   -6.7850322     275.5165  0.029549174  0.030208061           12 
  778000   0.94617967   -6.8274083    276.55645  0.029622584  0.030185353            4 
  779000   0.93318852   -6.7839922    276.61177  0.029590476  0.030162384            8 
  780000   0.94705877   -6.8081203    275.67306   0.02945225  0.030139515            7 
  781000   0.95918651   -6.7844027    277.10989   0.02956785   0.03011675            5 
  782000   0.93683103   -6.7584971    277.08407  0.029527288  0.030094315            8 
  783000   0.94372443   -6.7994297    277.39338  0.029522497  0.030071921            3 
  784000   0.95664646   -6.7948569    277.81905  0.029530086  0.030049514            6 
  785000   0.96088534   -6.7954757     277.9499  0.029506359  0.030027215            4 
  786000   0.93521262    -6.805221    277.20191  0.029389516  0.030004615            3 
  787000   0.94909976   -6.7894438    277.03891  0.029334912  0.029982141            3 
  788000   0.93082256   -6.8136078    277.65044  0.029362356  0.029959509            7 
  789000   0.94063573   -6.7902278    277.83205  0.029344323  0.029936955           13 
  790000   0.94614263   -6.8334601    277.93246   0.02931777  0.029914476            3 
  791000   0.95979604    -6.818569    278.42563  0.029332662  0.029891741           11 
  792000   0.93676718   -6.8173265    278.39344  0.029292239    0.0298692            4 
  793000   0.92973921   -6.7812524    278.96496   0.02931536  0.029847023           10 
  794000   0.94223006   -6.7878176    279.32502  0.029316228  0.029824873            4 
  795000   0.92567666   -6.8204533    279.55272   0.02930322  0.029802836            3 
  796000   0.95044531   -6.8065017    279.94204  0.029307165  0.029780752            6 
  797000   0.92553694   -6.7841939    279.68018  0.029243013  0.029758661            5 
  798000      0.95628   -6.8235527    280.07164  0.029247247  0.029736492            4 
  799000   0.94373093   -6.7878081    279.33597  0.029133914  0.029714324            5 
  800000   0.94228175   -6.8269574    279.03002  0.029065627  0.029692093            2 
  801000    0.9260424   -6.8115386    280.52827  0.029185213   0.02966961           10 
  802000   0.95014181   -6.7640067    280.62838  0.029159225   0.02964735            4 
  803000   0.94708521   -6.8131454    280.07742  0.029065735  0.029625098            7 
  804000   0.94171989   -6.7868716    280.66339  0.029090318  0.029603114            6 
  805000   0.93927731   -6.8131452    280.81104  0.029069466  0.029580972            4 
  806000   0.95027122   -6.8089922     280.9323  0.029045936  0.029558654            3 
  807000   0.91717419   -6.7720102    280.95542  0.029012332   0.02953647            8 
  808000   0.91686526   -6.7846288    281.10875   0.02899224   0.02951432           10 
  809000   0.93108159   -6.8167066    281.72964  0.029020359  0.029492231            3 
  810000   0.92305502   -6.8070023    281.56534  0.028967627   0.02947019            5 
  811000   0.91019572   -6.8120085    281.76298  0.028952217  0.029448157            6 
  812000   0.93077868   -6.8098333    281.83501  0.028923954  0.029426183            5 
  813000    0.9263153    -6.803141    282.75055  0.028982221  0.029404332            4 
  814000   0.92604332   -6.8154904    281.99973  0.028869751  0.029382474            6 
  815000   0.93682991    -6.820006    283.05844  0.028942581  0.029360619            3 
  816000   0.92923342   -6.7973434    282.80671  0.028881404   0.02933886            3 
  817000    0.9032738   -6.8450566    283.22928  0.028889155  0.029317203            9 
  818000   0.89262256   -6.8412939     283.8191  0.028913926  0.029295391            6 
  819000   0.91888629   -6.8467914    283.20773  0.028816416  0.029273553            4 
  820000   0.92919027   -6.8358101    282.82978  0.028742864  0.029251762            4 
  821000   0.92241081   -6.8092432     284.0116  0.028827812  0.029229786            3 
  822000   0.94241584   -6.8229527    284.37214  0.028829292  0.029208081            2 
  823000   0.94472178   -6.8353319    284.55278  0.028812554  0.029186743            4 
  824000   0.93781122   -6.8155692     284.8141  0.028804015  0.029165352            2 
  825000   0.92222702   -6.7960264     284.8577  0.028773505  0.029143939            4 
  826000   0.91267528   -6.8296235    284.33212  0.028685646  0.029122631            4 
  827000   0.90338702   -6.8182225    285.25217  0.028743669    0.0291012            2 
  828000   0.90914424   -6.8365268    284.30804  0.028613933  0.029079797            3 
  829000   0.91852348   -6.8309216    284.43199  0.028591877  0.029058235           10 
  830000   0.92311221   -6.8615832    285.17156  0.028631683  0.029036796            3 
  831000   0.90372778   -6.8316085    285.64203  0.028644408  0.029015398            4 
  832000   0.91007226   -6.8669786    284.79007  0.028524646  0.028993825            8 
  833000   0.92130175   -6.8472536    286.12592  0.028624042  0.028972342            4 
  834000   0.94246264   -6.8135371    287.38663   0.02871569  0.028951231            3 
  835000   0.90344813   -6.8722357    286.35876  0.028578718  0.028930274            5 
  836000   0.92543628   -6.8564293    286.97409   0.02860587   0.02890955            7 
  837000   0.93510705   -6.8377711    287.73892  0.028647841  0.028888877            4 
  838000    0.9200091   -6.8570363     287.6088  0.028600716  0.028868251            5 
  839000   0.91591913   -6.8461784    287.38053  0.028543954  0.028847675            9 
  840000   0.92385135   -6.8626196    287.99144  0.028570579  0.028827192            9 
  841000   0.90417834   -6.8223661    288.52777  0.028589751  0.028806725           14 
  842000   0.91090626   -6.8081839     287.9084  0.028494497   0.02878621            4 
  843000   0.91250716   -6.8560479    288.66929  0.028535912  0.028765518            5 
  844000   0.92253056   -6.8102216    288.01213  0.028437216  0.028744875            4 
  845000   0.88842202   -6.8258728    288.52506  0.028454148  0.028724234            6 
  846000   0.89350902   -6.8472516    288.22302  0.028390763  0.028703411            4 
  847000   0.91796656    -6.852275    288.69445  0.028403626  0.028682562            3 
  848000   0.91491921   -6.8565362      289.036  0.028403695  0.028661741            4 
  849000   0.91500609   -6.8264881    288.61381    0.0283288  0.028641016            7 
  850000   0.92991505   -6.8261583    289.20755  0.028353681  0.028620212           11 
  851000   0.92311929   -6.8190626    289.38357  0.028337599  0.028599462            5 
  852000   0.90411869   -6.8434252    288.68958  0.028236461  0.028578492            3 
  853000   0.91625864   -6.8421529    289.19086  0.028252331  0.028557583            7 
  854000   0.92408748   -6.8470784     289.3217  0.028232016  0.028536547            3 
  855000   0.90073867   -6.8879175    288.25581  0.028095108  0.028515416            8 
  856000   0.89745618   -6.8315875    289.30137  0.028164074   0.02849445            5 
  857000   0.91412898   -6.8628132    290.01892  0.028200984   0.02847356            3 
  858000   0.93116987   -6.8772522    289.24478  0.028092927  0.028452802            9 
  859000   0.93310372   -6.8663109    289.40099  0.028075378  0.028431908            4 
  860000   0.92925713   -6.8874754    289.56248  0.028058379   0.02841091           19 
  861000   0.87735738    -6.856624    290.25643  0.028092957  0.028389988            4 
  862000   0.89449936   -6.8907014    290.39933  0.028074181  0.028368966            2 
  863000    0.9209702   -6.8488563    291.00654  0.028100284  0.028348103            4 
  864000   0.91345539   -6.8444298    290.78571  0.028046461  0.028327462           18 
  865000   0.91871582   -6.8769874    291.47144    0.0280801  0.028306797            3 
  866000   0.92618387   -6.8548593    291.51022  0.028051407  0.028286084            6 
  867000   0.92301401   -6.8441009    292.16489  0.028081977  0.028265504           10 
  868000   0.89299216   -6.8546953    292.16324  0.028049466  0.028245257            6 
  869000   0.91330952   -6.8466592    291.58669  0.027961899  0.028224894            5 
  870000   0.89032487   -6.8694676    291.96588   0.02796608  0.028204276            5 
  871000   0.94522769   -6.8820659    291.96488  0.027933877  0.028183866            3 
  872000   0.89551303   -6.8693742    292.25817  0.027929871  0.028163277           10 
  873000   0.91602577   -6.8632001    292.00789  0.027873987  0.028142631           12 
  874000   0.89696344   -6.8527979    292.46842  0.027886005   0.02812202            8 
  875000    0.8925202   -6.8606364    292.76707  0.027882578  0.028101338            5 
  876000   0.87191906   -6.8653341    292.70068  0.027844433  0.028080773           10 
  877000   0.90746681   -6.8627042    292.31002  0.027775562  0.028060017            8 
  878000   0.89843116   -6.8935368    292.43528  0.027755816  0.028039277            6 
  879000   0.89537765    -6.861542    292.68249  0.027747676  0.028018295           10 
  880000   0.91793414   -6.9049627    292.48542  0.027697483  0.027997348            8 
  881000   0.88908213   -6.8768113    292.57134  0.027674171   0.02797637            4 
  882000   0.92525979   -6.8645217    292.69217  0.027654211  0.027955476           24 
  883000   0.91498312   -6.8639995    292.30642  0.027586488  0.027934471            5 
  884000   0.92248557   -6.8687965    293.30501  0.027649417  0.027913696            5 
  885000   0.89055497   -6.8890722    291.97691  0.027493118  0.027892771            5 
  886000   0.89479835   -6.8719061    293.27043   0.02758375   0.02787191           10 
  887000   0.89112487   -6.8974685    293.02071  0.027529191  0.027850877            4 
  888000     0.912998   -6.9031544    293.95474  0.027585843  0.027829879            5 
  889000   0.91183766   -6.8742853    293.08663  0.027473437   0.02780916            5 
  890000   0.88370993   -6.8802431    293.62971  0.027493418  0.027788344            7 
  891000   0.90219084   -6.8908419    293.78246  0.027476848  0.027767377            7 
  892000   0.90385673   -6.8886563    293.81401  0.027448992  0.027746428            8 
  893000   0.90577567      -6.9014    293.27527   0.02736798  0.027725585            6 
  894000   0.90976824   -6.8936796    294.45798  0.027447612  0.027704955            4 
  895000   0.90521678    -6.875376    294.52261  0.027422961  0.027684429            5 
  896000   0.91408131   -6.8503602    295.13267  0.027449095  0.027664036            7 
  897000   0.92472086    -6.905072    295.01037  0.027407133  0.027643586            7 
  898000   0.91952533   -6.8999846     295.2196  0.027396028  0.027623166            6 
  899000   0.92048222   -6.8744535    295.83415   0.02742252  0.027602835            6 
  900000   0.88126149    -6.864271    296.24861  0.027430427  0.027582645            3 
  901000    0.8880929   -6.8833021    295.91049   0.02736871  0.027562493           10 
  902000   0.91271033   -6.9304238    296.15358  0.027360826  0.027542261            8 
  903000    0.8946943   -6.8735573    296.33388  0.027347165  0.027522032            6 
  904000   0.92029373   -6.8963245    295.71882  0.027260216   0.02750161            3 
  905000   0.90839778   -6.8923855    296.11403  0.027266485   0.02748122            4 
  906000   0.90886126   -6.9184739    296.23782  0.027247776  0.027460705            4 
  907000   0.90606913   -6.8766488    296.09061  0.027204209  0.027440255            4 
  908000   0.87479375   -6.8905081    296.90644  0.027249123  0.027419927            8 
  909000   0.88046758   -6.8855457    296.37839  0.027170736  0.027399436            7 
  910000   0.90139984   -6.8796115    296.69488  0.027169861  0.027379106            5 
  911000   0.88189257   -6.9083196    297.94403  0.027254302  0.027358829            6 
  912000   0.89046355   -6.9053469    297.47531  0.027181589  0.027338325            6 
  913000   0.88284883   -6.9152984    297.26034  0.027132196  0.027317899            5 
  914000   0.87892244   -6.9359755    296.51111  0.027034201   0.02729742            3 
  915000    0.9048258   -6.9391204    296.94015   0.02704373  0.027276952            5 
  916000   0.89646168   -6.9191066    297.43919  0.027059606  0.027256365           12 
  917000   0.89455018    -6.911046    297.29184  0.027016706  0.027236141            4 
  918000   0.88603298   -6.8650754    298.62431  0.027108234  0.027215937            6 
  919000   0.89048598   -6.9044794    298.11817  0.027032841  0.027195858           12 
  920000   0.88165118   -6.9130882    298.26708  0.027016946  0.027175843           15 
  921000   0.89560543   -6.9076823    298.83502  0.027038999  0.027156045            6 
  922000   0.88983923    -6.914379     299.2557  0.027047695  0.027136331            4 
  923000   0.89397543   -6.9357696    298.90474  0.026986704  0.027116534            9 
  924000   0.87479593   -6.9121771    299.29748  0.026992918  0.027096782            6 
  925000   0.88622283   -6.8760617    299.77269  0.027006548  0.027077122            9 
  926000   0.88947785   -6.9014246    299.40898  0.026944653  0.027057434            6 
  927000   0.88681755   -6.9139862    299.53302  0.026926737   0.02703779            4 
  928000   0.87319623   -6.8955057    300.50311  0.026984834  0.027018063            6 
  929000    0.8845052    -6.894713    299.02978  0.026823626  0.026998521            5 
  930000   0.88550708   -6.9039116    299.98137  0.026880051   0.02697897            5 
  931000   0.86425524   -6.9485849    300.23137  0.026873556  0.026959375            5 
  932000   0.87767987   -6.9237804    301.22616   0.02693367  0.026939886            7 
  933000   0.85628242   -6.9523974    300.35174  0.026826701  0.026920413           14 
  934000   0.86343673   -6.9240045    300.84462  0.026841954  0.026900991           12 
  935000   0.87192662   -6.9381601    301.66176  0.026886075  0.026881771            6 
  936000   0.87247409   -6.9421172     301.6931  0.026860141  0.026862557            4 
  937000   0.88950238   -6.8942833    301.94749  0.026854099  0.026843337            5 
  938000    0.8822112   -6.8925471    301.76955  0.026809661  0.026824088            7 
  939000   0.87469529   -6.9052134      301.637  0.026769347  0.026804829            6 
  940000   0.88348954   -6.9187575    300.71576  0.026659199  0.026785562            7 
  941000    0.8949281   -6.9280741     301.6397   0.02671269  0.026766277            3 
  942000   0.87248126   -6.9161785    302.57758  0.026767302  0.026747099            7 
  943000   0.87582394     -6.94283    302.93876  0.026770834  0.026728071            9 
  944000   0.88730133   -6.9499721    302.74022  0.026724949  0.026708975            8 
  945000   0.87176596    -6.936736    302.27769  0.026655881  0.026689913            5 
  946000   0.87820682   -6.9281486    303.52189  0.026737305  0.026670812            4 
  947000   0.87146426   -6.9216733    302.35326  0.026606235  0.026651853            6 
  948000   0.87294624   -6.9149804     304.2705  0.026746704  0.026632981            9 
  949000   0.86648674   -6.9109327    303.61426  0.026660894  0.026614196            5 
  950000   0.86778882   -6.9077523    303.91348  0.026659077  0.026595341            3 
  951000   0.87890752   -6.9116991    303.56563  0.026600564  0.026576535            5 
  952000   0.85664332   -6.9186252    304.29304  0.026636295  0.026557834            8 
  953000   0.88496442   -6.9230232    304.64903  0.026639475  0.026539154            5 
  954000   0.85384974   -6.9271004    303.99885  0.026554756  0.026520421            8 
  955000   0.85853269    -6.973952    304.35201  0.026557767  0.026501589           10 
  956000   0.85801422   -6.9096994    304.75915  0.026565476  0.026482859            4 
  957000   0.88705753   -6.9556762    304.06256  0.026477061  0.026464221            5 
  958000   0.86406357   -6.9284058    304.92463  0.026524411  0.026445463            7 
  959000   0.83959856   -6.9538426    304.85302   0.02649053  0.026426634            5 
  960000   0.87872214   -6.9102053    306.05351  0.026567145  0.026408032            7 
  961000   0.86690298   -6.9260031    304.94141  0.026443064  0.026389453            5 
  962000   0.85534116    -6.910624    306.01269  0.026508375   0.02637081           10 
  963000   0.85717769   -6.9353418    305.36464   0.02642477  0.026352114           11 
  964000   0.86347453   -6.9509177    305.32791  0.026394183  0.026333435            6 
  965000    0.8535788    -6.989571    305.30067  0.026364479  0.026314879            5 
  966000   0.88941538    -6.960359    306.02073  0.026399304  0.026296344           18 
  967000   0.88137006   -6.9553643    306.43427  0.026407641  0.026278143            8 
  968000   0.87554442      -6.9637    306.71129  0.026404209  0.026259946            5 
  969000   0.85763013   -6.9336582    306.27749  0.026339654   0.02624177            3 
  970000   0.85922521    -6.949145    308.00268  0.026460711  0.026223661            7 
  971000   0.85226134   -6.9511127     307.5908  0.026398112  0.026205492            9 
  972000   0.85208704   -6.9398837     306.9423  0.026315355  0.026187076           15 
  973000   0.84857308   -6.9682415    306.68961  0.026266668  0.026168747            7 
  974000   0.87849539   -6.9462008    307.39521  0.026300069  0.026150275            7 
  975000   0.88110799   -6.9319369    306.85964  0.026227319  0.026131959            3 
  976000   0.87181888   -6.9348383     306.6153  0.026179585  0.026113604            5 
  977000   0.85654763   -6.9314991    306.66813  0.026157295  0.026095044            7 
  978000    0.8672103   -6.9287154    307.19508   0.02617545  0.026076452            3 
  979000   0.86964317   -6.9587455    306.81254  0.026116151  0.026057878            2 
  980000    0.8679615   -6.9478486    306.80028  0.026088459  0.026039213            7 
  981000   0.87293024   -6.9511702    307.20205  0.026095995   0.02602065           17 
  982000    0.8567072   -6.9364138    307.26469  0.026074736  0.026002077            6 
  983000   0.87586089   -6.9554716    307.81911  0.026095211  0.025983303            5 
  984000   0.84928776   -6.9522247    307.49625  0.026041349  0.025964547            4 
  985000   0.84055565   -6.9825707    307.80568  0.026041089   0.02594575            7 
  986000   0.85667933   -6.9730333    307.68643    0.0260046  0.025927052            5 
  987000   0.87402456   -6.9830936    307.24771  0.025941211   0.02590836            5 
  988000   0.85576144   -6.9414539    307.44624  0.025931701  0.025889597            5 
  989000   0.83949757   -6.9587256    308.21409   0.02597018  0.025870922            4 
  990000   0.86491984   -6.9606623    307.95783  0.025922377   0.02585235            4 
  991000     0.863113   -6.9447174    308.14141  0.025911656   0.02583379            8 
  992000   0.85078993    -6.954494    308.44497  0.025911036  0.025815236            7 
  993000    0.8459037    -6.962507    308.48812  0.025888563  0.025796775            7 
  994000   0.84306981   -6.9681127    308.03979  0.025824932  0.025778182            9 
  995000   0.85192006   -6.9286496    308.95369  0.025875518  0.025759544            7 
  996000   0.85459596   -6.9410437    309.27783  0.025876659  0.025740915            4 
  997000   0.86662228   -6.9452779    308.61214  0.025795064  0.025722301            7 
  998000   0.83557746    -7.003831    307.67476  0.025690945  0.025703566           10 
  999000   0.86686151   -6.9774282    308.56473  0.025739467  0.025684866            7 
 1000000   0.87132244    -6.954003    309.06898  0.025755748  0.025666203           11 
 1001000    0.8554187    -6.953514    308.65285  0.025695376  0.025647475            8 
 1002000   0.84944884   -6.9646112    309.61924  0.025750103   0.02562882            5 
 1003000   0.83239825   -6.9909279    308.77526  0.025654309  0.025610256            4 
 1004000   0.86507618   -6.9469186    309.09725  0.025655482  0.025591681            6 
 1005000   0.84692582   -6.9788203    309.44663  0.025658924   0.02557314            6 
 1006000   0.86844161   -7.0128535    309.24616  0.025616813  0.025554564           11 
 1007000   0.85018088   -6.9713184    310.07868  0.025660268  0.025536011            8 
 1008000   0.85081014   -6.9823848    309.26472   0.02556752  0.025517504            5 
 1009000    0.8626951   -6.9580433    309.61768  0.025571332  0.025498868            8 
 1010000   0.86359235   -6.9544844    310.72148  0.025637086  0.025480406            3 
 1011000   0.86403127   -6.9705434    310.48203  0.025591991  0.025461967            4 
 1012000   0.84530291   -6.9550046    310.57777  0.025574586  0.025443478            7 
 1013000   0.84790002   -6.9678927     309.8196  0.025486969  0.025424864            5 
 1014000   0.83494415   -6.9641877     309.8384   0.02546338  0.025406123            8 
 1015000   0.85069903   -6.9770243    310.17307   0.02546577  0.025387382           10 
 1016000   0.85015219   -6.9928721    310.18311  0.025441528  0.025368629            4 
 1017000   0.84428575   -6.9580039    309.85672  0.025389767  0.025349887           13 
 1018000    0.8510958   -7.0016806    310.49478  0.025417058  0.025331291            5 
 1019000   0.84607259   -6.9734131    310.43846  0.025387509  0.025312759            4 
 1020000   0.84340097    -6.947116    310.74071  0.025387313  0.025294217            7 
 1021000   0.86227804   -6.9943613    310.77162  0.025364971  0.025275701           10 
 1022000   0.82671953   -7.0068471    311.26278  0.025380201   0.02525718            7 
 1023000   0.84351132   -6.9639942    311.68344  0.025389658  0.025238584            2 
 1024000   0.84176433   -6.9959101    311.27968  0.025332005  0.025220104            5 
 1025000   0.82490139   -6.9895928    311.44349  0.025320609  0.025201594            6 
 1026000   0.82900336   -7.0010996    311.90617   0.02533351  0.025183136            9 
 1027000   0.83869839   -6.9962731     311.6689  0.025289589  0.025164723           13 
 1028000   0.85290767   -6.9922916    311.42716  0.025245393  0.025146396            8 
 1029000   0.83351965   -6.9818784    312.06898  0.025272836  0.025128045            7 
 1030000    0.8532643   -6.9760034    311.87565  0.025232658  0.025109662            7 
 1031000    0.8281779   -7.0115031    311.67934  0.025192316  0.025091265            6 
 1032000   0.83469172   -7.0237294    311.31268  0.025138298  0.025072795            8 
 1033000   0.85182758   -7.0211864    311.96305  0.025166429  0.025054309            5 
 1034000   0.84911389   -6.9703275    312.02662  0.025147213  0.025035828            7 
 1035000   0.84016564   -6.9910138    312.26577  0.025142171  0.025017472           11 
 1036000   0.80580897   -6.9952413    312.04814  0.025100397  0.024999132           10 
 1037000   0.83932266   -6.9955149    313.50792    0.0251935  0.024981035            6 
 1038000   0.84191748   -7.0076441    313.85078  0.025196755  0.024962921            5 
 1039000   0.84977469   -6.9894743    312.74341  0.025083687  0.024944771            5 
 1040000   0.83450955    -6.984539    313.49248   0.02511959   0.02492662            7 
 1041000   0.84551367   -7.0188006     313.6014  0.025104179  0.024908484            7 
 1042000   0.84377296   -7.0013612    313.75559  0.025092418  0.024890427            9 
 1043000   0.83332164   -7.0037464    314.21162  0.025104796  0.024872379            9 
 1044000   0.83194464   -6.9989963    313.63719  0.025034897  0.024854333            8 
 1045000   0.85758523   -6.9963985    313.03303  0.024962761  0.024836315            7 
 1046000   0.82901893   -6.9885445    314.33424  0.025042562  0.024818281            7 
 1047000   0.81883501   -6.9947901    313.42961  0.024946642  0.024800227            2 
 1048000   0.83121718   -7.0085276    313.37863  0.024918784   0.02478212            7 
 1049000   0.83708579   -7.0223763    313.93545  0.024939264  0.024763956            5 
 1050000   0.82690819   -7.0015355    313.60595  0.024889361   0.02474575            6 
 1051000    0.8347748   -7.0222901    313.43967  0.024852495  0.024727495           10 
 1052000   0.83142665   -6.9644523    314.18225  0.024887694  0.024709297            7 
 1053000   0.84770299   -7.0412721    314.09677  0.024857294  0.024691165            7 
 1054000   0.83700444   -7.0154253    313.82583  0.024812289  0.024672933            9 
 1055000    0.8375153    -7.026749    314.23109  0.024820781  0.024654685            6 
 1056000    0.8368565   -7.0051368    313.59647  0.024747197  0.024636454            6 
 1057000   0.83716795   -7.0154089    314.65721  0.024807412  0.024618138            8 
 1058000   0.82973012   -7.0329739    314.64138  0.024782717  0.024599864            9 
 1059000   0.83826357   -7.0202142    314.19812  0.024724435  0.024581738           18 
 1060000   0.83642592   -7.0254238    315.17971  0.024778279  0.024563734           10 
 1061000   0.82627232   -7.0291757     315.0873  0.024747667  0.024545659            6 
 1062000   0.81869294    -7.037856    314.65522   0.02469046  0.024527566            5 
 1063000   0.81064589   -7.0448428    316.01222  0.024773614  0.024509479           11 
 1064000   0.84060205   -7.0152818    315.80729   0.02473428  0.024491507            9 
 1065000    0.8317228   -7.0308738    315.61023  0.024695636  0.024473462           11 
 1066000   0.80866474   -7.0232946    315.16053  0.024637314  0.024455684            5 
 1067000    0.8328039   -7.0460533    315.49731  0.024640527  0.024437807            8 
 1068000   0.84509454   -7.0330006    316.03543  0.024659444  0.024419961            8 
 1069000   0.82500263   -7.0337356    316.48626   0.02467152  0.024402162            7 
 1070000   0.82623415   -7.0331517    315.87045  0.024600502  0.024384383           15 
 1071000   0.81792621   -7.0525723    315.94269  0.024583153  0.024366636            5 
 1072000   0.81625566   -7.0199969    316.23178  0.024582694  0.024348936            4 
 1073000   0.82625613   -7.0188847    316.63222  0.024590884  0.024331339            7 
 1074000   0.82519593   -7.0021541    316.45614  0.024554325  0.024313783            7 
 1075000   0.81211257   -7.0260768    316.77369    0.0245561  0.024296255            6 
 1076000   0.84903876    -7.027998    317.19334  0.024565779  0.024278733            6 
 1077000   0.81245866   -7.0134933    317.28221  0.024549846  0.024261303           10 
 1078000   0.82803784   -7.0245654    317.38695  0.024535169  0.024243906           13 
 1079000   0.81932086    -7.023292    317.14447  0.024493703  0.024226607            8 
 1080000   0.81743912   -7.0462619    317.80699  0.024522144  0.024209253           18 
 1081000    0.8045451    -7.026972    318.12823  0.024524224  0.024191884            5 
 1082000   0.81089568   -7.0322947    318.07225  0.024497247  0.024174628            9 
 1083000    0.8326735   -7.0271445     318.4038  0.024500138  0.024157429            7 
 1084000   0.82278902   -7.0448592    317.67928  0.024421839   0.02414011            8 
 1085000   0.82438463   -7.0504913     318.5735   0.02446801  0.024122713            5 
 1086000   0.79212992   -7.0467159    317.82408  0.024387974  0.024105279            9 
 1087000   0.82583446   -7.0559462    317.71568  0.024357228  0.024087873           11 
 1088000   0.80205638   -7.0617451    317.84256  0.024344558  0.024070398            8 
 1089000   0.81074619   -7.0755465    317.95968  0.024331166  0.024052805            6 
 1090000   0.83730388   -7.0578839    318.20965  0.024327955  0.024035275            7 
 1091000   0.80017434   -7.0593432    318.37754   0.02431848  0.024017784            6 
 1092000   0.82918436   -7.0778934    318.55694  0.024309901  0.024000398           10 
 1093000   0.82121731    -7.049694    318.45464  0.024279859  0.023982988           21 
 1094000   0.81855976   -7.0254872    318.66263  0.024273509  0.023965544           11 
 1095000   0.85590507   -7.0355989    318.73017  0.024256482  0.023948191            6 
 1096000   0.83792153   -7.0564951    318.26113  0.024198687  0.023930691            4 
 1097000   0.81222833   -7.0784336    318.61361  0.024203404  0.023913222           36 
 1098000   0.81078326   -7.0754686    317.92508  0.024129104  0.023895733           19 
 1099000   0.81159114   -7.0840499    319.19333  0.024203316  0.023878273           18 
 1100000   0.81216185   -7.0311455    319.54783  0.024208169  0.023860945            6 
 1101000   0.82245597   -7.0635636    318.93935  0.024140126  0.023843699           17 
 1102000   0.81738785   -7.0215507    320.00968  0.024199159  0.023826495            8 
 1103000    0.7982339   -7.0452547     320.4599  0.024211234  0.023809391            4 
 1104000   0.80804402   -7.0404173     319.8058   0.02413993  0.023792443            4 
 1105000   0.81579123   -7.0473185    321.30264  0.024230969  0.023775549            7 
 1106000   0.81845205   -7.0520184    319.31043  0.024058953  0.023758505            6 
 1107000   0.80040475   -7.0710482     320.1171  0.024097945  0.023741469            8 
 1108000   0.81968502   -7.0596049    320.02984  0.024069633  0.023724497           14 
 1109000   0.81273917    -7.054037    320.62871   0.02409293  0.023707512            8 
 1110000   0.81259717   -7.0329727    321.02405  0.024100905  0.023690615            6 
 1111000   0.80748217   -7.0753554     320.4465  0.024035891  0.023673694           10 
 1112000   0.82944909   -7.0625537    320.31541  0.024004452  0.023656738           16 
 1113000   0.80824699   -7.0803648    321.47632  0.024069805  0.023639937            7 
 1114000   0.80333723   -7.0739449    320.36204  0.023964845  0.023623135           32 
 1115000   0.80858515   -7.0526074    320.92116  0.023985139  0.023606351            8 
 1116000   0.80346836    -7.053728    321.57124  0.024012189  0.023589583            4 
 1117000   0.81247743   -7.0500151    322.19804  0.024037454  0.023572804            4 
 1118000   0.80130766    -7.070176    322.40039  0.024031037  0.023555957            6 
 1119000   0.80211629     -7.06141    321.49795  0.023942355  0.023539084            8 
 1120000   0.80333377   -7.0897285    321.90018  0.023950907  0.023522277            8 
 1121000   0.82139865   -7.0678098    322.19989  0.023951821  0.023505588            9 
 1122000   0.82848773   -7.0814118    321.91301  0.023909166  0.023488946            5 
 1123000   0.79780996   -7.0843398    321.93635  0.023889607  0.023472296            6 
 1124000   0.81497898   -7.0877316    322.18302  0.023886642   0.02345565            4 
 1125000   0.81552649   -7.0473515    322.58791  0.023895401   0.02343907            6 
 1126000   0.79730876   -7.0986271    322.09446   0.02383766  0.023422458            9 
 1127000   0.79661935    -7.065891    321.62168   0.02378155  0.023405772            4 
 1128000   0.79212759   -7.0751178    322.73329  0.023842589  0.023389135            6 
 1129000   0.81714001   -7.0824088    322.53953  0.023807169  0.023372438            9 
 1130000   0.81145483    -7.116127    321.85722  0.023735783  0.023355647            6 
 1131000   0.82064167   -7.0973273    322.22267  0.023741724  0.023338853            8 
 1132000   0.80891646   -7.0995978    321.98122  0.023702975  0.023322121            9 
 1133000   0.81401467   -7.0716763    322.69918  0.023734861  0.023305429           11 
 1134000   0.81610588   -7.0803815    322.93132  0.023730991  0.023288725           10 
 1135000   0.80618077   -7.1014962    323.24926  0.023733426  0.023272034            9 
 1136000   0.80345441   -7.1167716     321.5759  0.023589782  0.023255213            8 
 1137000   0.78934671   -7.0698165    322.75854  0.023655712   0.02323843            5 
 1138000   0.80039982   -7.0984882    323.22702  0.023669231  0.023221732            6 
 1139000   0.79963641   -7.0825169    323.19298   0.02364596  0.023205179           10 
 1140000   0.79518907   -7.0967228    322.55192  0.023578357  0.023188514           12 
 1141000   0.79424931   -7.0661787    323.58936  0.023633462  0.023171924            8 
 1142000   0.78834986   -7.1016648    322.88682  0.023561502  0.023155301            6 
 1143000   0.80310026   -7.0709838    323.35769  0.023575218  0.023138787            6 
 1144000   0.79921283   -7.0906312    323.45245  0.023561513  0.023122273           10 
 1145000   0.78442081   -7.0891063    323.39224  0.023536553  0.023105688           15 
 1146000   0.79712522   -7.1006096    324.13451  0.023569991  0.023089191            9 
 1147000   0.80891863   -7.0831264    324.21901   0.02355558  0.023072793            9 
 1148000   0.79817109   -7.0699571    324.10061  0.023526467  0.023056347            7 
 1149000   0.79532367   -7.0750496    323.77728  0.023482542  0.023040118            7 
 1150000   0.78738606    -7.078399    325.18242  0.023563943   0.02302387            6 
 1151000   0.78348739   -7.1091622    324.02574  0.023459726  0.023007648            7 
 1152000   0.79362111   -7.1013799    324.49365   0.02347321  0.022991378           13 
 1153000   0.80364857   -7.0866811     324.7422  0.023470816  0.022975102           12 
 1154000   0.79095072   -7.1187261    324.83429  0.023457127  0.022958855           15 
 1155000   0.80703719   -7.0988231    324.83427  0.023436816  0.022942559           15 
 1156000   0.80284081   -7.1064992    325.64379  0.023474899  0.022926208            8 
 1157000   0.81550641   -7.0980498    326.29279  0.023501353  0.022909977            5 
 1158000   0.79176272   -7.1143316    325.26933  0.023407407  0.022893847           11 
 1159000   0.78760004   -7.0932169    325.80879  0.023425998  0.022877642           14 
 1160000    0.7971744   -7.1124746    325.06134  0.023352108  0.022861423            7 
 1161000   0.78724369    -7.092289    326.16218  0.023411009  0.022845169            7 
 1162000   0.79183393   -7.0740062    325.96323  0.023376594  0.022829032            5 
 1163000    0.7958581   -7.1251375    325.79764  0.023344629  0.022813031           12 
 1164000   0.80860614   -7.1074091     325.3036  0.023289204  0.022797005           12 
 1165000   0.78127343   -7.1007081    326.24982  0.023336897  0.022780965            9 
 1166000   0.77567574   -7.0805703    326.33645  0.023323074  0.022764878           16 
 1167000     0.794079   -7.1068733    326.19644   0.02329309   0.02274885            7 
 1168000   0.78582704    -7.131679    325.87659  0.023250328  0.022732742            5 
 1169000   0.78609965   -7.1261135    326.36374  0.023265165  0.022716643           16 
 1170000   0.80188031   -7.0894402    325.88463  0.023211156   0.02270052            8 
 1171000   0.77904229   -7.0915748    325.70385  0.023178469  0.022684408           11 
 1172000    0.7918457   -7.1128274    326.33238  0.023203383  0.022668262           11 
 1173000   0.79103638   -7.0950221    325.99995  0.023159985   0.02265218            8 
 1174000   0.78423396   -7.1074623    326.60425  0.023183153  0.022636043           12 
 1175000   0.75813808   -7.0986081    325.48415  0.023083982  0.022619844           10 
 1176000    0.7897242   -7.1296872    325.89879  0.023093735  0.022603686           20 
 1177000   0.77263663    -7.120941    326.30253    0.0231027  0.022587547            6 
 1178000    0.7907134   -7.1176411    326.56892  0.023101933  0.022571428            6 
 1179000   0.80222228   -7.1108052    327.01337  0.023113752  0.022555413           11 
 1180000   0.78231141   -7.1120718    326.88222  0.023084902  0.022539478            9 
 1181000   0.79296704   -7.0981013    327.28023   0.02309344  0.022523583            8 
 1182000   0.79436979   -7.1115293    327.01978   0.02305554  0.022507717            7 
 1183000   0.76270848   -7.1049127    327.55024  0.023073418  0.022491864            6 
 1184000   0.77915443   -7.1271661    328.31751  0.023107933  0.022476007            7 
 1185000   0.79201363   -7.1379506    327.40193  0.023024046  0.022460164            5 
 1186000   0.77544487   -7.1361597    327.63211  0.023020806  0.022444383            7 
 1187000   0.77810136   -7.1312893     327.0803  0.022962672   0.02242856           10 
 1188000   0.77294964    -7.167839    327.97041  0.023005781  0.022412748            8 
 1189000   0.76928397   -7.1228799    328.35558  0.023013427  0.022396965           15 
 1190000   0.78629189   -7.1152226    327.78063  0.022953825  0.022381212           14 
 1191000   0.77583017   -7.1167091    328.12583  0.022958706  0.022365487           20 
 1192000   0.77205227   -7.1174479    327.54839  0.022899076  0.022349728           11 
 1193000   0.76361775   -7.1155558    329.11914  0.022989602  0.022333991           15 
 1194000   0.77678207   -7.1474321      328.008  0.022892798   0.02231838           12 
 1195000   0.78156975    -7.148841    327.47253  0.022836299  0.022302517            9 
 1196000   0.77663949   -7.1232506    327.47513  0.022817386  0.022286689           15 
 1197000   0.78002626      -7.1228    329.10124  0.022911531  0.022270891            9 
 1198000   0.77873216    -7.132133    328.60568  0.022857936  0.022255143            8 
 1199000   0.77329127   -7.1503013     328.2808  0.022816291  0.022239362            5 
 1200000   0.79357694   -7.1325678    327.24075  0.022725052  0.022223591            9 
 1201000   0.78266669   -7.1179256     328.6986  0.022807286  0.022207791            7 
 1202000   0.79835537    -7.162982    328.64039  0.022784275  0.022192003            4 
 1203000   0.76502527   -7.1448154      328.466  0.022753256  0.022176205            5 
 1204000   0.78341295   -7.1764591     328.6973  0.022750367  0.022160403            6 
 1205000   0.78224976   -7.1607105    328.87675  0.022743897  0.022144632            4 
 1206000   0.76463461   -7.1659532    327.67073  0.022641703  0.022128814           10 
 1207000   0.76151686   -7.1561292    327.79866  0.022631777  0.022113046           12 
 1208000   0.76439569    -7.147436    329.11809  0.022704063   0.02209726            7 
 1209000    0.7831787   -7.1304995    328.76645  0.022661046  0.022081516           15 
 1210000   0.76974354   -7.1223807    328.59104  0.022630237  0.022065745            9 
 1211000   0.75989082   -7.1512486     328.4096  0.022599064  0.022049992            5 
 1212000   0.76848041   -7.1743483    328.77602  0.022605612  0.022034255            6 
 1213000   0.77988031   -7.1151453    328.71314  0.022582656  0.022018536            5 
 1214000   0.75841847   -7.1202496    329.48462  0.022617011  0.022002792            6 
 1215000   0.75870415   -7.1403564    328.91293  0.022559186  0.021987112            8 
 1216000   0.77039758   -7.1353124     330.6017  0.022656366  0.021971548            5 
 1217000   0.76909238     -7.13552    329.77544  0.022581172  0.021955977            6 
 1218000   0.77573129   -7.1081594    330.22065  0.022593093  0.021940491           15 
 1219000   0.75550179   -7.1283704    329.82502  0.022547513  0.021924921           10 
 1220000    0.7589499    -7.165231    329.14158  0.022482348  0.021909305            6 
 1221000   0.76323738   -7.1634901    330.30282   0.02254319  0.021893661            6 
 1222000   0.77591682    -7.136141    330.59702  0.022544805  0.021878093           10 
 1223000   0.75177524   -7.1597489    329.43152  0.022446955  0.021862495            9 
 1224000   0.76444988   -7.1688678    329.59879  0.022440005  0.021846836           12 
 1225000   0.75673657   -7.1659222    329.94939  0.022445537  0.021831154            8 
 1226000   0.78298416   -7.1321894    329.94168  0.022426705  0.021815534            6 
 1227000     0.746766    -7.155038    329.66213  0.022389441  0.021799998            8 
 1228000   0.75810842   -7.1910628    329.31868  0.022347902  0.021784435           10 
 1229000   0.77747268   -7.1398036    330.00766  0.022376435  0.021768857            6 
 1230000   0.75527806   -7.1591629    329.65877  0.022334605  0.021753253            7 
 1231000   0.77804249   -7.1458137    330.79756  0.022393553  0.021737666            6 
 1232000   0.76073024   -7.1586703    330.11764  0.022329386  0.021722142            7 
 1233000    0.7491471   -7.1470192    330.18157  0.022315597  0.021706648           13 
 1234000   0.77581911   -7.1826119    330.22104  0.022300178  0.021691225           11 
 1235000   0.73328766   -7.1399921    330.36781  0.022292025  0.021675777           16 
 1236000   0.76006426   -7.1545979    330.29862  0.022269325  0.021660458            5 
 1237000   0.77108848   -7.1628946    330.76539  0.022282767  0.021645169            7 
 1238000    0.7459237   -7.1385685    331.30288  0.022300948  0.021629856           13 
 1239000   0.76783409   -7.1839229    331.33588  0.022285168  0.021614588            7 
 1240000   0.75300509   -7.1642863    331.07628   0.02224975  0.021599298            6 
 1241000   0.75900013   -7.1517442     331.4005  0.022253593  0.021583951           13 
 1242000   0.75086515   -7.1547054    331.47724  0.022240824  0.021568723            7 
 1243000   0.76909499   -7.1630515    331.27526   0.02220939  0.021553417            5 
 1244000   0.77854247   -7.1620869    330.64595   0.02214938  0.021538005           11 
 1245000   0.75162318   -7.1769117    331.65612  0.022199205  0.021522628            6 
 1246000   0.75348514   -7.2012956    330.85548  0.022127841  0.021507236            8 
 1247000   0.75078502   -7.1830726    330.72677  0.022101495  0.021491745            8 
 1248000   0.75089911   -7.1778587     331.7317  0.022150888  0.021476335           11 
 1249000   0.73873821   -7.1782291    331.31805  0.022105554  0.021460977           10 
 1250000   0.75417764   -7.1806992    331.18437  0.022078958  0.021445709            7 
 1251000   0.74403437   -7.1728238    331.89194  0.022108443  0.021430345            7 
 1252000   0.75374055   -7.1652716    331.19418  0.022044341  0.021415012            8 
 1253000   0.75145816   -7.1906099    331.24235  0.022029952  0.021399664           11 
 1254000   0.76548868   -7.1725273    331.92333  0.022057637  0.021384404           18 
 1255000   0.76555385   -7.1747123     332.1072  0.022052271  0.021369118           22 
 1256000   0.76258992   -7.1684016     331.6909  0.022007093  0.021353807           10 
 1257000   0.74410493   -7.1874004    331.57381  0.021981822  0.021338501            9 
 1258000   0.75324031   -7.2122915     331.7346     0.021975  0.021323128           11 
 1259000   0.74872098   -7.1893649    331.11453  0.021916503  0.021307787           28 
 1260000   0.74857607   -7.2002804     331.5266  0.021926362  0.021292357           12 
 1261000   0.72726292   -7.1972343    331.74135  0.021923166  0.021276978           13 
 1262000   0.74845323   -7.2125104    331.06823  0.021861347  0.021261632           11 
 1263000   0.73619011   -7.1761574    331.36753  0.021863785  0.021246254            7 
 1264000   0.75327815   -7.2054505    331.94659  0.021884664  0.021230887           15 
 1265000   0.74909638    -7.172102    332.93704  0.021932612  0.021215624           11 
 1266000   0.75563857   -7.2022693    331.97401  0.021851896  0.021200448           14 
 1267000   0.75220294   -7.1950923    332.11274  0.021843774  0.021185335            6 
 1268000    0.7302866   -7.1788423    332.79885  0.021871638  0.021170182            6 
 1269000   0.76368924   -7.2024236     332.2116  0.021815839   0.02115511            9 
 1270000   0.75633211   -7.1920036    332.17925  0.021796539  0.021139925            7 
 1271000   0.73250811   -7.2078048    332.31659  0.021788394  0.021124874            5 
 1272000   0.75355389   -7.1956521    332.41326  0.021777598  0.021109662            5 
 1273000    0.7509212   -7.1880615    332.57843  0.021771303  0.021094529            4 
 1274000   0.75580917   -7.2118238    332.34337  0.021738839  0.021079331           17 
 1275000   0.74677435   -7.2035444    332.36383  0.021723126   0.02106411           16 
 1276000    0.7396941   -7.2115958    332.81063  0.021735281  0.021048848           15 
 1277000   0.75716399    -7.186898    333.70778  0.021776806  0.021033583            7 
 1278000   0.73798863   -7.2207457    332.67113  0.021692171  0.021018433            6 
 1279000   0.74082896    -7.200952    332.58745  0.021669758  0.021003212            8 
 1280000   0.74279602   -7.2211857    332.73571  0.021662481  0.020987986           13 
 1281000   0.73005819   -7.2297642    332.55639  0.021633905   0.02097276           11 
 1282000   0.73510524    -7.242989    332.81176   0.02163363  0.020957511            7 
 1283000   0.75687199    -7.195852    333.05288  0.021632429  0.020942332           10 
 1284000   0.74100425   -7.2287296    332.62996  0.021588134  0.020927206           10 
 1285000   0.73187724   -7.1911822    333.27651  0.021613263  0.020912006           16 
 1286000   0.70997948   -7.2061609     332.5327  0.021548257  0.020896839           15 
 1287000    0.7440914   -7.1943539    331.86321  0.021488164  0.020881699           11 
 1288000   0.73613913   -7.1974665    332.83173  0.021534144  0.020866535           11 
 1289000    0.7279391   -7.2270113    333.18834  0.021540493  0.020851365           22 
 1290000   0.72510791   -7.1982836    333.03326  0.021513777  0.020836073            7 
 1291000    0.7285231   -7.1932811    333.07403  0.021499744  0.020820822           12 
 1292000   0.72778202   -7.2171855    332.53598  0.021448399  0.020805588           18 
 1293000   0.73626788   -7.2341428    332.94418  0.021458119  0.020790374           14 
 1294000   0.74532562   -7.2002987    333.82552  0.021498294   0.02077527           15 
 1295000    0.7344555   -7.2236561    333.30382  0.021448122   0.02076016           28 
 1296000   0.73573853   -7.2211206    333.26168  0.021428863  0.020745108           11 
 1297000   0.73791861   -7.2264402    333.73807   0.02144295  0.020730006            9 
 1298000   0.74453243   -7.2236791    333.42719  0.021406471  0.020714991            4 
 1299000   0.74226285   -7.1737136    334.14755  0.021436204  0.020699997            8 
 1300000   0.70705373   -7.2237143    333.83965  0.021399978  0.020685039           10 
 1301000   0.73021461   -7.2245771    333.15843  0.021339894  0.020670041            9 
 1302000   0.75304915   -7.2357706    333.27073  0.021330692  0.020655049            8 
 1303000   0.73877871   -7.2077525    333.40291  0.021322775  0.020640055            9 
 1304000   0.72915758    -7.228049     334.4904   0.02137592  0.020625044           10 
 1305000   0.74091275   -7.2320014    333.33886  0.021286006  0.020609958           10 
 1306000   0.73482683   -7.2311733    333.82583   0.02130078  0.020594896           10 
 1307000   0.72874995   -7.2433626    333.55582  0.021267267   0.02057978           13 
 1308000   0.71473298   -7.2274824    332.95836  0.021212943  0.020564614            5 
 1309000   0.73132765   -7.2596677    333.01505  0.021200347  0.020549482           19 
 1310000   0.72361194   -7.2443709    333.83814  0.021236523  0.020534339           10 
 1311000   0.72994376   -7.2612552    333.44521  0.021195348  0.020519186            9 
 1312000   0.71831753   -7.2535024    332.81283  0.021139026  0.020504027           15 
 1313000   0.70827673   -7.2436159    333.61039  0.021173546  0.020488861            6 
 1314000   0.73082403   -7.2496239    333.38446  0.021143104  0.020473759            8 
 1315000   0.72585873   -7.2811945    333.27467  0.021120068  0.020458621           11 
 1316000   0.72529188   -7.2603102     332.8783   0.02107892  0.020443443            9 
 1317000   0.71592977   -7.2548217    333.66061  0.021112415  0.020428247           15 
 1318000   0.74113743   -7.2566435    332.83494  0.021044192  0.020413098           16 
 1319000   0.72555747   -7.2412583    333.79472  0.021088875  0.020398047            7 
 1320000   0.71845871   -7.2710599    333.78259  0.021072133  0.020383012           22 
 1321000    0.7244346   -7.2460386     334.2123  0.021083289  0.020368017           13 
 1322000   0.72141154   -7.2353484    333.44769  0.021019143   0.02035304            9 
 1323000   0.72841727   -7.2399428    333.47912  0.021005235  0.020338073            9 
 1324000    0.7391805   -7.2643483    333.89251  0.021015389  0.020323154            7 
 1325000   0.72260686   -7.2316741    334.04597   0.02100918  0.020308179            9 
 1326000   0.72981597    -7.228076    334.16603  0.021000882  0.020293241           22 
 1327000   0.72794207   -7.2663588    333.87796  0.020966966  0.020278291            6 
 1328000   0.71151272   -7.2608336     334.6717  0.021000985  0.020263369           13 
 1329000   0.72539992   -7.2589504     334.5366  0.020976712  0.020248496            3 
 1330000      0.72707   -7.2366152    333.95925  0.020924765  0.020233552            6 
 1331000   0.72485308   -7.2014994    334.06295  0.020915536  0.020218679            9 
 1332000   0.69982103   -7.2164927    334.55165  0.020930408  0.020203801           13 
 1333000   0.73103603   -7.2367184     333.6591  0.020858909  0.020188974           12 
 1334000   0.72433678   -7.2532445    333.74728  0.020848781  0.020174103           13 
 1335000   0.72930294   -7.2716386    334.38847  0.020873188  0.020159249           22 
 1336000   0.71654933   -7.2434157     333.3934  0.020795496  0.020144402           36 
 1337000   0.72761174   -7.2578634    333.99132   0.02081721  0.020129483           47 
 1338000   0.70739533   -7.2224496    334.38639  0.020826257  0.020114647           11 
 1339000   0.73827874   -7.2370796    335.06368  0.020852856  0.020099813           18 
 1340000   0.72038344   -7.2613938    335.02931  0.020835156  0.020084989            9 
 1341000   0.71175636   -7.2660388    335.05419  0.020821165  0.020070128           15 
 1342000    0.7295405   -7.2481631    334.49912  0.020771182  0.020055315           19 
 1343000   0.72070778   -7.2649765    334.15491  0.020734358  0.020040508            8 
 1344000   0.70265609   -7.2563529    334.70878  0.020753273  0.020025689           43 
 1345000   0.70878088   -7.2668781    335.02019  0.020757137  0.020010886           16 
 1346000   0.71695632   -7.2529659    333.81715  0.020667233  0.019996094           16 
 1347000   0.72514598   -7.2704289    334.49828  0.020694029  0.019981321           12 
 1348000   0.71344291   -7.2554138    335.08469  0.020714929  0.019966524            8 
 1349000   0.71479283   -7.3010219    333.78967  0.020619575  0.019951693           16 
 1350000   0.71165847   -7.2820305    334.29599  0.020635555  0.019936886           11 
 1351000   0.72465048   -7.2496897    334.05058  0.020605143  0.019922079            9 
 1352000    0.7104982   -7.2752067    334.95949  0.020645925  0.019907275           28 
 1353000   0.71161176   -7.2740132     335.5624    0.0206678  0.019892498            8 
 1354000   0.70259028   -7.2830417    334.77224  0.020603904  0.019877848           21 
 1355000     0.713568   -7.2547725    335.04659  0.020605571  0.019863192            8 
 1356000    0.7039804   -7.2858345    335.22988   0.02060164  0.019848579            7 
 1357000   0.71020045   -7.2889995    335.62325  0.020610615  0.019833943           13 
 1358000   0.70006402   -7.2668541    335.30652  0.020576001  0.019819337            6 
 1359000   0.71338954    -7.277961    334.62227  0.020518903  0.019804676            6 
 1360000   0.70588401   -7.2708794    335.32912  0.020547127  0.019790031           17 
 1361000   0.71364825   -7.2828897    334.71048  0.020494151  0.019775391           14 
 1362000   0.71358636    -7.308205    334.90152  0.020490793   0.01976076           12 
 1363000   0.70655273    -7.297263    334.94251  0.020478265  0.019746123           13 
 1364000   0.69871837   -7.2834412    335.20722  0.020479425  0.019731462           12 
 1365000   0.69022857   -7.2876025    334.32014  0.020410265  0.019716806           19 
 1366000   0.71988952   -7.2990741    335.16551  0.020446895  0.019702133           22 
 1367000   0.69888893   -7.2898596    335.94406  0.020479399  0.019687484           12 
 1368000   0.71853303   -7.2893541    334.74738  0.020391532  0.019672782           14 
 1369000    0.7185141   -7.2873205    334.90771  0.020386396  0.019658098           19 
 1370000   0.69386669   -7.2967548    335.44537  0.020404219  0.019643434           17 
 1371000   0.71150928   -7.2894433    335.06512  0.020366224  0.019628832           13 
 1372000   0.70506517   -7.2954542    335.28595  0.020364793  0.019614225           10 
 1373000   0.70304487   -7.2894662    335.52265  0.020364327  0.019599578           14 
 1374000   0.70061468   -7.2821531    334.89653  0.020311532  0.019584921           18 
 1375000   0.69801841   -7.2836124    334.92979  0.020298775  0.019570327           10 
 1376000   0.71487441    -7.290609     335.5979  0.020324485  0.019555736           10 
 1377000   0.70472949   -7.3096588    335.01302  0.020274329  0.019541083           23 
 1378000   0.70476592   -7.2935614    335.32577   0.02027853  0.019526493           10 
 1379000   0.70964338   -7.2776684    335.63964  0.020282792  0.019511916            6 
 1380000   0.71221276    -7.309461    335.87189  0.020282119  0.019497353            8 
 1381000   0.70352085    -7.294321    334.37478  0.020177092  0.019482775           16 
 1382000   0.70161013   -7.3101869    334.97312  0.020198572  0.019468168           13 
 1383000   0.69771874   -7.3025077    335.34024  0.020206088  0.019453597           14 
 1384000   0.67927765   -7.3127608    334.72065  0.020154182  0.019438983           10 
 1385000   0.70698804   -7.3017204    335.47353  0.020184929  0.019424333           13 
 1386000   0.69575909   -7.3141807    335.73433  0.020186047  0.019409722            9 
 1387000   0.70322595   -7.3152439    335.20266   0.02013955  0.019395158           19 
 1388000   0.68852833   -7.2974406    335.48019  0.020141702  0.019380654           11 
 1389000   0.70307995   -7.3123541    335.85277  0.020149554  0.019366131            8 
 1390000   0.68793532   -7.2882395    335.83338  0.020133896  0.019351616           15 
 1391000   0.70312932   -7.3175078    335.39691  0.020093273  0.019337171           20 
 1392000   0.70316004   -7.2958583    336.04067  0.020117377  0.019322733            7 
 1393000   0.71212939   -7.3176704    335.48309   0.02006958  0.019308286           15 
 1394000   0.69851351   -7.3071288    336.60025  0.020121966  0.019293852           10 
 1395000   0.68866191   -7.3238476    336.09883  0.020077588  0.019279452           17 
 1396000    0.6960273    -7.290904    336.42698  0.020082795  0.019265066           26 
 1397000   0.69523999   -7.2877201    336.77142  0.020088966  0.019250715            7 
 1398000   0.70431343     -7.27143     336.2985  0.020046406  0.019236396           13 
 1399000   0.71347937    -7.306932    335.79314  0.020001974  0.019222029           17 
 1400000   0.68432033   -7.2774274    336.26709  0.020015898  0.019207676           15 
 1401000    0.6827928   -7.3046357    335.74827  0.019970751  0.019193381           26 
 1402000   0.69272481   -7.3324369     336.3971  0.019995073  0.019179035           10 
 1403000   0.69137652   -7.2910563    336.22687   0.01997071  0.019164708           13 
 1404000   0.69413717   -7.2928442     336.1466  0.019951721  0.019150414           22 
 1405000    0.6923841   -7.2880135    336.71143  0.019971022  0.019136195           11 
 1406000   0.69276297   -7.3069493    336.95855  0.019971464   0.01912196            9 
 1407000   0.69682802   -7.3061311    336.36182  0.019921927   0.01910774           18 
 1408000   0.68692142    -7.341455    337.01975  0.019946718  0.019093502           17 
 1409000   0.69390986   -7.3196348    336.82435  0.019921005  0.019079267           11 
 1410000    0.6866982   -7.2977356    336.37957  0.019880589  0.019065059            7 
 1411000   0.69266581   -7.3299115    335.93695  0.019840358   0.01905077           20 
 1412000   0.70302294   -7.3396703    335.83727  0.019820424  0.019036472            9 
 1413000   0.68040667   -7.3381913    336.33617  0.019835821  0.019022182            9 
 1414000   0.71003338   -7.3341361     336.2034  0.019813967  0.019007929            9 
 1415000   0.69565439   -7.3379716     336.3881  0.019810842  0.018993652           15 
 1416000   0.69617771   -7.3451128    336.08451  0.019778985  0.018979387           21 
 1417000   0.67825754   -7.3501025     336.2371     0.019774  0.018965121           16 
 1418000   0.68941817   -7.3296127    336.70931  0.019787806  0.018950867           17 
 1419000   0.68257127   -7.3346693    336.12714  0.019739672  0.018936616           14 
 1420000   0.69745876    -7.341424    336.71381    0.0197602  0.018922399           22 
 1421000     0.691881   -7.3320801     336.4517  0.019730923  0.018908159           19 
 1422000   0.68781971   -7.3331712    336.31121  0.019708815  0.018894002           14 
 1423000   0.67977574   -7.3297974    336.78857  0.019722919  0.018879852           18 
 1424000   0.70666575   -7.3303295    336.88818  0.019714898  0.018865665           43 
 1425000   0.68768652   -7.3225959    336.99372  0.019707235   0.01885148           37 
 1426000   0.67113977   -7.3508768    336.72968  0.019677985  0.018837342           52 
 1427000   0.67641749   -7.3561098    336.34072  0.019641481  0.018823206           33 
 1428000   0.68618797   -7.3380467    336.95146  0.019663367  0.018809013           25 
 1429000   0.68150377   -7.3136689    336.72978  0.019636679  0.018794884           25 
 1430000   0.67777366    -7.313871    336.74601  0.019623893   0.01878083           15 
 1431000   0.66279163    -7.330005    337.00634   0.01962534  0.018766696           22 
 1432000   0.69393323   -7.3441464    336.32324  0.019571883  0.018752586           18 
 1433000    0.6785114   -7.3224484    337.07577  0.019601987  0.018738482           23 
 1434000    0.6959634   -7.3383024    337.16337  0.019593408  0.018724383           10 
 1435000   0.67089101   -7.3555853    337.26642  0.019585739  0.018710358           35 
 1436000   0.69530313     -7.33456    337.42202  0.019581129  0.018696355           38 
 1437000   0.67119884   -7.3272203    337.11196  0.019549522  0.018682342           12 
 1438000   0.67518673    -7.348108    337.04793  0.019532217  0.018668319           36 
 1439000   0.68314791   -7.3216705    337.34073  0.019535599  0.018654317           28 
 1440000   0.69695719   -7.3324788    337.11891  0.019509196  0.018640319           22 
 1441000   0.67799447   -7.3388165    336.72201  0.019472705  0.018626279           20 
 1442000    0.6699252   -7.3791909      337.365  0.019496359  0.018612236           25 
 1443000   0.66359498   -7.3606786    337.00539  0.019462081  0.018598235           38 
 1444000   0.67858278   -7.3318597    337.66942  0.019486924  0.018584254           12 
 1445000   0.67567827   -7.3667479    336.31445  0.019395297  0.018570305           19 
 1446000   0.68162072   -7.3432881    336.70533   0.01940441  0.018556381           14 
 1447000   0.67133154   -7.3497677    336.67704  0.019389371   0.01854245           15 
 1448000   0.69195651   -7.3441078    337.08128  0.019399245  0.018528503           12 
 1449000   0.68017663   -7.3402611    337.34795  0.019401193  0.018514588            8 
 1450000   0.66187587   -7.3419936     337.0334  0.019369736  0.018500694           22 
 1451000      0.67834   -7.3494727    336.97249  0.019352888  0.018486762           29 
 1452000   0.67830534   -7.3549614    336.99101  0.019340623  0.018472856           12 
 1453000   0.69119726   -7.3520665    337.30268  0.019345187  0.018458923           12 
 1454000   0.67469464   -7.3676582    336.99459  0.019314225  0.018444963           29 
 1455000   0.67311135   -7.3580132    337.20945  0.019313256  0.018431055           22 
 1456000   0.67204149   -7.3482389    337.32898  0.019306833  0.018417167           50 
 1457000   0.67961612   -7.3463819    336.53728    0.0192483  0.018403284           20 
 1458000   0.67572177   -7.3595919    337.59335  0.019295459  0.018389426           22 
 1459000    0.6815385   -7.3335802    337.44994  0.019274043  0.018375564           30 
 1460000   0.67879535   -7.3524629    337.00614   0.01923551  0.018361689           19 
 1461000   0.69016903   -7.3544401    337.26902  0.019237339  0.018347838           12 
 1462000   0.67023312   -7.3399083    336.89411   0.01920281  0.018333983           27 
 1463000   0.68965203   -7.3456553    336.77183   0.01918272  0.018320114           26 
 1464000   0.68077428   -7.3609761    337.17059  0.019192315  0.018306303           24 
 1465000    0.6683474    -7.363949    337.63079  0.019205392  0.018292519           19 
 1466000   0.65677921   -7.3579189    337.25819  0.019171111  0.018278713           26 
 1467000   0.65488787   -7.3543784    336.80525  0.019132314  0.018264877           15 
 1468000   0.67445004    -7.368498    336.76544  0.019117021  0.018251027           15 
 1469000   0.66111261   -7.4052069    336.98037    0.0191162  0.018237127           19 
 1470000   0.65528682   -7.3656033    336.55184  0.019078902  0.018223225           16 
 1471000   0.65938434   -7.3562826    337.72669  0.019132489  0.018209333           19 
 1472000   0.65609707   -7.3707382    337.23632   0.01909173  0.018195489           21 
 1473000    0.6599845   -7.3756277    337.07598  0.019069698  0.018181614           26 
 1474000   0.66182603   -7.3678249    337.68214   0.01909103  0.018167763           18 
 1475000   0.66419728   -7.3698249    337.18897  0.019050224  0.018153897           25 
 1476000   0.66123917   -7.3517241    337.59125   0.01906003  0.018140038           19 
 1477000   0.66073402   -7.3930695    336.58292  0.018990235  0.018126195           21 
 1478000   0.66526987    -7.369007    337.38202  0.019022442  0.018112355           12 
 1479000   0.65874171   -7.4018451    337.38324  0.019009648  0.018098504            8 
 1480000   0.67052946   -7.3881179     338.1379  0.019039296  0.018084672           21 
 1481000   0.65472816   -7.3869862    336.71484  0.018946367  0.018070852           23 
 1482000   0.65618369   -7.3685253    336.76813  0.018936579  0.018056983           10 
 1483000   0.65785865   -7.3560435    337.31398  0.018954483  0.018043145           18 
 1484000   0.65217676   -7.3712737    337.39765  0.018946409  0.018029333           20 
 1485000   0.65731731    -7.396236    336.61504  0.018889733  0.018015487            8 
 1486000   0.65258556   -7.3711335    337.59538  0.018931997  0.018001659           25 
 1487000    0.6606715   -7.3689111    336.88548  0.018879482  0.017987867           15 
 1488000   0.65832414   -7.3687495     337.0043  0.018873449  0.017974113           11 
 1489000   0.65146026   -7.3674754    337.42993  0.018884594  0.017960395            8 
 1490000   0.67117648   -7.3935661    336.44402   0.01881678  0.017946638           15 
 1491000   0.65427962   -7.3936672    336.82318  0.018825351  0.017932897            8 
 1492000   0.68511087   -7.3728475    337.52402  0.018851878  0.017919151           12 
 1493000   0.64440257   -7.3901725    336.42285  0.018777788  0.017905381           14 
 1494000   0.65946559   -7.3721494    336.70737  0.018781089  0.017891649           20 
 1495000   0.64704341   -7.3713606    336.82593  0.018775136  0.017877897           21 
 1496000   0.66074426   -7.3805154    336.95263  0.018769643  0.017864094           22 
 1497000   0.64354379   -7.3658358    336.87195  0.018752614  0.017850348           22 
 1498000   0.64890769   -7.3878001    336.11536  0.018698006  0.017836623           25 
 1499000   0.65451989   -7.3899317    336.66071   0.01871585  0.017822865           10 
 1500000   0.65620753   -7.3896803    336.80926  0.018711625  0.017809116           16 
 1501000   0.64881631   -7.3954863    336.55033  0.018684784  0.017795383           24 
 1502000   0.65805632   -7.3841804    336.84457  0.018688669  0.017781674           24 
 1503000   0.67601709   -7.3902676    337.16766  0.018694148   0.01776797           15 
 1504000   0.65534928   -7.3790455    336.89443   0.01866658  0.017754291           10 
 1505000    0.6477866   -7.4192141     336.0736  0.018608726   0.01774057           16 
 1506000   0.64960956    -7.410487    336.11634  0.018598735  0.017726838           18 
 1507000   0.66218454   -7.4063196     335.5293  0.018553932  0.017713112           23 
 1508000   0.66433119   -7.3911565    336.72658  0.018607791  0.017699413           25 
 1509000   0.66220045    -7.412668    336.62451  0.018589823  0.017685754           14 
 1510000   0.63967643   -7.3890783    336.85174  0.018590052  0.017672074           14 
 1511000   0.63647738   -7.4204445    336.32898  0.018548918  0.017658412           22 
 1512000   0.65107576   -7.4119372    336.90757  0.018568539  0.017644788           21 
 1513000   0.65560343   -7.4013811    337.30209  0.018577996  0.017631166           11 
 1514000   0.65572463   -7.4034873    337.15669  0.018557722  0.017617555           18 
 1515000   0.65104002   -7.3692164    337.72533  0.018576751  0.017603984           14 
 1516000   0.64203436   -7.4162806     337.8368  0.018570624  0.017590435           32 
 1517000   0.64075823    -7.419629    336.85887  0.018504662  0.017576855           38 
 1518000   0.64936263   -7.3997895    336.45457  0.018470277  0.017563287           24 
 1519000   0.64143293   -7.4099586     336.9648  0.018486109   0.01754971           55 
 1520000   0.65030643   -7.4220638    336.94162  0.018472676  0.017536122           27 
 1521000   0.66385219    -7.395135    336.95872  0.018461468  0.017522541           20 
 1522000   0.64862808   -7.3987672    336.37444  0.018417348  0.017509007           16 
 1523000   0.64287017   -7.4526915    336.98535  0.018438682   0.01749545           43 
 1524000   0.64327271   -7.4354824    336.79228  0.018416026  0.017481903           54 
 1525000   0.64604269   -7.4219808    337.17282  0.018424744  0.017468375           33 
 1526000   0.63497312   -7.4253138    337.12332  0.018409967  0.017454862           28 
 1527000   0.63615287   -7.4108423    336.78418  0.018379403  0.017441326           41 
 1528000   0.62565186   -7.4275101    337.50216  0.018406532  0.017427819           29 
 1529000   0.64871052   -7.4260676    336.16148  0.018321423  0.017414283           18 
 1530000   0.64951603   -7.4112983    336.80372  0.018344429  0.017400782           29 
 1531000   0.63694097   -7.4372069    337.20874  0.018354493  0.017387319           20 
 1532000   0.63936668   -7.4451345    336.74125  0.018317083  0.017373814           37 
 1533000   0.62813344   -7.4278485    337.29838   0.01833542  0.017360306           10 
 1534000   0.63782818   -7.4194458    337.30135  0.018323628  0.017346809           24 
 1535000   0.64047442   -7.4287826    337.06308  0.018298756   0.01733332           21 
 1536000   0.64902712   -7.4339675    336.92511  0.018279357   0.01731986           28 
 1537000   0.63146824   -7.4336062    336.37869  0.018237838  0.017306413           22 
 1538000   0.63828475   -7.4307012    337.08162  0.018264067  0.017293007           22 
 1539000   0.63037479   -7.4193582    337.03327  0.018249582  0.017279605           23 
 1540000   0.63870061   -7.4243787    336.71156  0.018220323  0.017266206           25 
 1541000   0.63348449   -7.4296282    337.21474  0.018235709  0.017252808           21 
 1542000   0.64186968   -7.4402298    336.92283  0.018208108  0.017239472           19 
 1543000   0.63038007   -7.4394907    336.66096  0.018182165  0.017226134            9 
 1544000   0.64874757   -7.4386607    336.78791   0.01817724  0.017212802           17 
 1545000   0.65071056   -7.4313748     337.0949  0.018182033    0.0171995           18 
 1546000   0.62035958   -7.4183072    337.07343  0.018169115  0.017186164           13 
 1547000   0.62661091   -7.4342456    336.89568  0.018147796  0.017172853           13 
 1548000   0.63875953   -7.4544506    336.72711  0.018126998  0.017159563           17 
 1549000   0.63743993   -7.4373033    337.04726  0.018132519  0.017146237           29 
 1550000   0.62569631   -7.4363573    337.21136  0.018129643  0.017132911           12 
 1551000   0.63835972   -7.4304405    337.08146  0.018110975  0.017119592           45 
 1552000   0.63382978   -7.4383701    336.64754  0.018076006  0.017106289           43 
 1553000   0.63457028   -7.4292063    336.96139  0.018081208  0.017092986           39 
 1554000   0.63958539   -7.4203498    336.87641  0.018065015  0.017079678           22 
 1555000   0.63479171   -7.4292561    337.12159  0.018066538  0.017066414           42 
 1556000   0.62551684   -7.4262297    337.08013  0.018052706   0.01705316           64 
 1557000   0.63444217   -7.3903107    336.82097  0.018027241  0.017039931           25 
 1558000   0.62879724   -7.4036093    337.01107  0.018025838  0.017026718           14 
 1559000   0.62411378   -7.4294396    336.97588  0.018012395  0.017013501           18 
 1560000   0.63044313    -7.417506    337.32991   0.01801976  0.017000293           42 
 1561000   0.63527015   -7.4275079    336.90049  0.017985292  0.016987088           10 
 1562000   0.64311248   -7.4099005     337.0793  0.017983317  0.016973887           10 
 1563000   0.63230763   -7.4289072    336.29372  0.017929927  0.016960716           36 
 1564000   0.63226149   -7.4262945    337.40845  0.017977859  0.016947552           28 
 1565000   0.62331118     -7.42786     337.6673  0.017980155   0.01693439           22 
 1566000   0.61826479    -7.431377    337.07782  0.017937304  0.016921279           21 
 1567000    0.6240407   -7.4297864    336.56391  0.017898528   0.01690815           21 
 1568000   0.63161618   -7.4222366    337.45478  0.017934459  0.016895037           12 
 1569000   0.63633006   -7.4369803    337.09825  0.017904092   0.01688195           36 
 1570000   0.62851966   -7.4311796    336.84726  0.017879366  0.016868886           29 
 1571000   0.61705319   -7.4436639    336.86614  0.017868987  0.016855815           24 
 1572000   0.61626909   -7.4411031    337.19626   0.01787512  0.016842713           27 
 1573000   0.63671179   -7.4355104    336.76753  0.017841043  0.016829634           23 
 1574000   0.62806618   -7.4425624    336.63789  0.017822845  0.016816579           32 
 1575000   0.63600906   -7.4351758     336.9306  0.017827016  0.016803547           25 
 1576000   0.63422809   -7.4484909    337.30329  0.017835411  0.016790526           46 
 1577000   0.62242594   -7.4655157    336.93557   0.01780467  0.016777501           26 
 1578000   0.63902685   -7.4452131    336.83832  0.017788251  0.016764482           16 
 1579000   0.62288789   -7.4736706    336.07421  0.017736659  0.016751484           22 
 1580000   0.60505844   -7.4478254    337.02314  0.017775482   0.01673852           51 
 1581000   0.60694058   -7.4441574    337.48026  0.017788333  0.016725567           54 
 1582000    0.6274723   -7.4700162    336.72955  0.017737545  0.016712582           39 
 1583000   0.62600197   -7.4816558    336.79664  0.017729871  0.016699555           25 
 1584000   0.61839934   -7.4563891    336.88913  0.017723544  0.016686544           18 
 1585000   0.62594094   -7.4326436    336.91075  0.017713499  0.016673556           29 
 1586000   0.61552281   -7.4646758    337.04025  0.017709135  0.016660552           23 
 1587000   0.61229108   -7.4703625    336.65483  0.017677737  0.016647534           40 
 1588000   0.62190655   -7.4729333    336.72552  0.017670315  0.016634524           34 
 1589000   0.62382226   -7.4717135    336.89205  0.017667928  0.016621548           36 
 1590000   0.61946465   -7.4764869    336.18466  0.017619741  0.016608521           27 
 1591000   0.61971974   -7.4888945    336.47349  0.017623795  0.016595502           43 
 1592000   0.63230614   -7.4764175    336.49628  0.017613917  0.016582517           24 
 1593000   0.62342701   -7.4806764    336.24998  0.017589976  0.016569532           25 
 1594000   0.63357249   -7.4790513    336.47473   0.01759069  0.016556532           19 
 1595000   0.61391902   -7.4583661    336.22716  0.017566727  0.016543562           24 
 1596000   0.61316747   -7.5062247    337.03577  0.017597941  0.016530613           28 
 1597000   0.62404407   -7.4799387      336.824  0.017575871  0.016517691           66 
 1598000   0.62297357    -7.481639    336.41259  0.017543418  0.016504774           33 
 1599000   0.60413562   -7.4736728    337.31663  0.017579562  0.016491844           27 
 1600000   0.62758979   -7.4912201    335.78984  0.017489054  0.016478924           84 
 1601000   0.62140388   -7.4903945    336.56571  0.017518515  0.016465993           54 
 1602000   0.59876622   -7.4991233     336.1869  0.017487874  0.016453077           62 
 1603000   0.60599578   -7.4743172    335.87726  0.017460868  0.016440123           63 
 1604000     0.606046   -7.4995982    335.70086  0.017440818  0.016427185           87 
 1605000   0.62181385   -7.4934505    336.38785   0.01746562  0.016414249           30 
 1606000   0.61839831   -7.4750576    337.16568  0.017495106  0.016401347           60 
 1607000   0.61767759   -7.4880117    336.88073  0.017469443  0.016388472           59 
 1608000   0.61613696   -7.5096742     337.3017  0.017480395   0.01637561           71 
 1609000   0.60568224   -7.4870718    336.41705  0.017423713  0.016362746           38 
 1610000   0.60470705   -7.5000101    336.87367  0.017436525  0.016349901           45 
 1611000   0.61106172   -7.5000502     336.7586   0.01741975  0.016337059           58 
 1612000   0.59719608   -7.4867908    336.00321  0.017369893  0.016324204           44 
 1613000   0.61750397   -7.5221215    335.82811  0.017350078  0.016311354           42 
 1614000   0.61424758   -7.5109363    336.66666  0.017382624  0.016298513           77 
 1615000   0.61706573    -7.476727    336.65858  0.017371444  0.016285717           64 
 1616000   0.60316384   -7.4979233    337.10268  0.017383595   0.01627291           42 
 1617000   0.60418697    -7.507512    336.29395  0.017331166  0.016260105           39 
 1618000   0.60966079   -7.5031876    337.02914   0.01735832  0.016247305           43 
 1619000   0.59678948   -7.5097578    336.26157   0.01730809  0.016234512           54 
 1620000   0.59447617   -7.4787181    336.03407  0.017285703  0.016221727           47 
 1621000   0.59918902   -7.5187316    336.04578  0.017275641  0.016208945           57 
 1622000   0.59074074   -7.5155024    336.09425  0.017267481  0.016196148           45 
 1623000   0.60419579   -7.4939916    336.60619  0.017283127  0.016183368           39 
 1624000   0.61310914   -7.4852118    336.34129  0.017258892  0.016170644           54 
 1625000   0.61743836   -7.4952135    335.99762  0.017230647  0.016157918           35 
 1626000   0.59918474   -7.5235081    336.23877  0.017232409  0.016145181           28 
 1627000    0.6093413   -7.5034297    336.56482  0.017238518  0.016132464           42 
 1628000   0.59691056    -7.514302    336.40545  0.017219771   0.01611975           39 
 1629000   0.59373882   -7.5003313    336.59626  0.017218962  0.016107068           77 
 1630000   0.60139598   -7.5177497    336.39727  0.017198225  0.016094403           47 
 1631000   0.60614111   -7.5043265     336.4827  0.017192045  0.016081722           23 
 1632000   0.61702703   -7.5201834      337.002  0.017208027  0.016069103           30 
 1633000   0.60824167   -7.4998043    336.60193  0.017177073  0.016056487           29 
 1634000   0.60479606   -7.5208315    336.76456  0.017174855   0.01604389           31 
 1635000   0.60125326   -7.5306396    336.62692  0.017157335  0.016031291           42 
 1636000   0.60103749    -7.513247    335.96206  0.017112982  0.016018697           26 
 1637000   0.59285046   -7.5011255    336.48813  0.017129308  0.016006104           33 
 1638000   0.59850866   -7.5143913    336.45736  0.017117285  0.015993504           28 
 1639000    0.6074292   -7.5394088    336.34557  0.017101158  0.015980932           34 
 1640000    0.6030145   -7.5112169    336.24432  0.017085585  0.015968388           39 
 1641000   0.59151786   -7.4873257    337.09587  0.017118417  0.015955852           56 
 1642000   0.59903727   -7.5159852     336.2976  0.017067479  0.015943327           39 
 1643000   0.59350912   -7.5340156    336.11709  0.017047935  0.015930785           41 
 1644000   0.60744478   -7.5243738     336.9007  0.017077286   0.01591827           36 
 1645000   0.60144279   -7.5032766    336.48868  0.017046032  0.015905757           33 
 1646000   0.60513662   -7.5095219    336.50895  0.017036703  0.015893248           28 
 1647000   0.61061956   -7.5135539    337.07519  0.017055009  0.015880743           45 
 1648000   0.59979558   -7.5017072     335.8542  0.016982919  0.015868236           32 
 1649000   0.59861743   -7.5234595     336.3983  0.017000116  0.015855701           34 
 1650000   0.58548665   -7.5424828     336.5608   0.01699802  0.015843182           33 
 1651000   0.59750509   -7.5280803     335.8493  0.016951812   0.01583068           24 
 1652000   0.60318308   -7.5231165    336.13245  0.016955834  0.015818183           51 
 1653000   0.58456422   -7.5106912    336.32815  0.016955442  0.015805706           45 
 1654000   0.60450147   -7.5177492    336.53261  0.016955492  0.015793249           69 
 1655000   0.58225984   -7.5215886    335.22351  0.016879331  0.015780782           39 
 1656000   0.59098338   -7.5108605    336.57306   0.01693705  0.015768329           26 
 1657000   0.59274646    -7.511065    336.21895   0.01690902  0.015755889           29 
 1658000    0.6179295   -7.5324812     335.9288  0.016884238  0.015743456           38 
 1659000   0.57308565   -7.5372914    336.34237  0.016894835   0.01573103           41 
 1660000   0.58659868   -7.5492922    336.51278  0.016893212  0.015718628           26 
 1661000   0.59813561   -7.5208892    336.29292  0.016872011  0.015706236           59 
 1662000    0.5753956   -7.5204155    335.95552  0.016844942  0.015693851           36 
 1663000   0.59172661   -7.5394658    336.05522  0.016839808  0.015681471           43 
 1664000   0.59471568   -7.5453706    335.89665  0.016821747  0.015669093           49 
 1665000   0.57764454   -7.5224766    336.10703  0.016822173  0.015656718           33 
 1666000   0.58479681   -7.5331118    336.25518  0.016819487   0.01564435           48 
 1667000    0.5901884   -7.5394192    336.60036  0.016826653  0.015631986           57 
 1668000   0.58463529   -7.5548797     335.8749  0.016780321  0.015619625           45 
 1669000   0.59052724   -7.5377306     335.9544  0.016774236  0.015607294           68 
 1670000   0.57897783   -7.5371701    335.61644  0.016747327  0.015594971           32 
 1671000   0.59038273   -7.5294596    336.03515  0.016758186  0.015582637           45 
 1672000   0.59308441    -7.556946    336.04651  0.016748729  0.015570322           83 
 1673000     0.589808   -7.5461888    336.05005  0.016738895  0.015558014           62 
 1674000   0.59224321   -7.5599286    335.62622  0.016707797  0.015545701           59 
 1675000   0.58557468     -7.56022    335.88024   0.01671046  0.015533401           68 
 1676000   0.58350323   -7.5606436    336.36325  0.016724505   0.01552111           70 
 1677000   0.59006538   -7.5513955    335.23701  0.016658567  0.015508829           51 
 1678000   0.59424318    -7.549924    335.50635  0.016662016  0.015496524           66 
 1679000   0.59740997   -7.5496427    336.04546   0.01667885  0.015484243           60 
 1680000   0.58577613   -7.5521226    335.91389  0.016662395  0.015471974           56 
 1681000   0.56788722   -7.5508768    335.65815  0.016639805  0.015459723           49 
 1682000   0.58306245   -7.5649845    335.63607  0.016628818  0.015447458           58 
 1683000   0.57404881   -7.5562888    335.89223  0.016631622  0.015435223           77 
 1684000   0.57841918   -7.5556676    335.38043  0.016596419  0.015422969          108 
 1685000   0.57932896   -7.5574523      335.756  0.016605143  0.015410737           90 
 1686000   0.56575683   -7.5738805    335.57277  0.016586238  0.015398516           97 
 1687000    0.5781993   -7.5418502    335.67771   0.01658159  0.015386314           60 
 1688000   0.58163377   -7.5612577    335.90117  0.016582799  0.015374116           73 
 1689000   0.58371943   -7.5657747    335.59766  0.016558006  0.015361921           92 
 1690000   0.57023562   -7.5583101    335.68983  0.016552753  0.015349732           62 
 1691000   0.56857489   -7.5475871    335.15273  0.016516496  0.015337564           73 
 1692000   0.58588083   -7.5526306    335.12197  0.016505219  0.015325403           73 
 1693000   0.58186948   -7.5568927    335.85769  0.016531684  0.015313255           74 
 1694000   0.58446066   -7.5666333    335.77842  0.016518025  0.015301113           80 
 1695000   0.57537591   -7.5498137     335.2725  0.016483407  0.015288955           99 
 1696000   0.57755593    -7.560321    335.11203  0.016465803  0.015276823           77 
 1697000   0.58062011   -7.5687517    335.52798  0.016476526  0.015264697           76 
 1698000    0.5817712   -7.5545072    335.17802  0.016449648  0.015252561           75 
 1699000     0.582219    -7.593437    335.50619  0.016456062  0.015240453           47 
 1700000   0.57498208   -7.5856367    335.41196  0.016441763  0.015228344           69 
 1701000   0.58483029   -7.5870596    335.08843  0.016416247  0.015216222           62 
 1702000   0.58070468   -7.5835815    335.48005  0.016425776  0.015204124           87 
 1703000   0.56594654   -7.5766763    335.65024  0.016424459  0.015192038           78 
 1704000    0.5775314   -7.5656978    335.78196  0.016421262  0.015179971           56 
 1705000   0.58523428    -7.552496    335.64896   0.01640513  0.015167916           67 
 1706000   0.56702821   -7.5791195    335.11324  0.016369346  0.015155862           73 
 1707000   0.56864708   -7.5917701    335.56432  0.016381777  0.015143816           76 
 1708000   0.56387094   -7.5786361    335.68706  0.016378174  0.015131772           57 
 1709000   0.57860244   -7.5661438    335.76844  0.016372559   0.01511974           88 
 1710000   0.58014339   -7.5699699    335.29312  0.016339821  0.015107737           94 
 1711000   0.56675574   -7.5862981    335.43909   0.01633738   0.01509573           84 
 1712000    0.5640989    -7.570384    335.85666  0.016348163  0.015083744           87 
 1713000   0.57236686   -7.5591216    335.71283  0.016331622  0.015071785          119 
 1714000   0.56868586   -7.5891383    335.78939  0.016325816  0.015059831           93 
 1715000   0.57394774   -7.6031413     335.7316  0.016313489  0.015047881           95 
 1716000   0.56737489   -7.5909793    335.23198   0.01627972  0.015035922           84 
 1717000   0.57037508   -7.5901853     335.1512  0.016266317  0.015023964           79 
 1718000   0.57187779   -7.5863878    335.32766  0.016265408  0.015012028          151 
 1719000   0.56955954   -7.6037846    334.97847  0.016239018  0.015000092           72 
 1720000   0.57028233   -7.5888395    335.00786  0.016231001  0.014988189           53 
 1721000   0.57678249   -7.5883518    335.25815  0.016233689  0.014976292           90 
 1722000   0.56711564   -7.5898474    335.58674  0.016240164  0.014964401          101 
 1723000   0.56401242   -7.6062846    335.04807  0.016204685  0.014952519           77 
 1724000    0.5682041     -7.58913    335.21695  0.016203449  0.014940666           76 
 1725000   0.56620196   -7.6010701    334.74518  0.016171265  0.014928812           82 
 1726000   0.57014765    -7.597325    335.77511  0.016211622  0.014916978           88 
 1727000   0.56153973   -7.6128449    335.58443  0.016193034  0.014905167           65 
 1728000   0.56025679   -7.6012105      335.012  0.016156057  0.014893339           65 
 1729000    0.5663836   -7.5833211    335.73931  0.016181767  0.014881523           71 
 1730000   0.55582194   -7.5989115    335.37515  0.016154872  0.014869726           71 
 1731000   0.56287737   -7.5998418    335.75342   0.01616375   0.01485794           88 
 1732000   0.56954718   -7.5986575    335.40156  0.016137488  0.014846164           72 
 1733000   0.56748069   -7.5979328    335.24916  0.016120848  0.014834417          147 
 1734000   0.56780115   -7.5803928    335.41558  0.016119549  0.014822669           69 
 1735000   0.55885886   -7.5876481    335.47308   0.01611302  0.014810938           84 
 1736000   0.55326634   -7.5797811    334.83371  0.016073047  0.014799198          104 
 1737000   0.56948394   -7.6108782    334.59234  0.016052214  0.014787472          136 
 1738000   0.55533556   -7.5959658    335.19432  0.016071841  0.014775741           67 
 1739000   0.56438863   -7.5890978    335.29273  0.016067315  0.014764035           67 
 1740000   0.54753892   -7.6164315    335.33556  0.016060132  0.014752327           55 
 1741000   0.55419227   -7.5993464    335.49598  0.016058586   0.01474062           72 
 1742000    0.5635166   -7.5987576    335.14188  0.016032428  0.014728918           72 
 1743000   0.55317315   -7.6077916    335.32453  0.016031963  0.014717233          135 
 1744000   0.55350756   -7.6026309    335.79961  0.016045471  0.014705533          143 
 1745000   0.54195922   -7.6126015     335.7194  0.016032445  0.014693865           78 
 1746000   0.55470157   -7.5966393    334.59653   0.01596967  0.014682204           85 
 1747000    0.5662592   -7.6225318    334.83004  0.015971668  0.014670557          107 
 1748000   0.55095669   -7.5880849     334.9769  0.015969532  0.014658909           98 
 1749000    0.5666727    -7.621099    334.70435  0.015947415  0.014647276           84 
 1750000   0.54544951   -7.6056129    334.91192  0.015948187  0.014635647           88 
 1751000   0.56638663   -7.6049456    335.35703  0.015960262   0.01462403           72 
 1752000   0.54959872   -7.6146886      334.865  0.015927749  0.014612421          140 
 1753000   0.56480097   -7.6091722    334.91622  0.015921098  0.014600821           67 
 1754000   0.55665889   -7.6154254    334.56416  0.015895295  0.014589241          148 
 1755000   0.55635906   -7.6193974    335.08053  0.015910756  0.014577668          101 
 1756000   0.54338397   -7.6271997    334.74655  0.015885846  0.014566091           77 
 1757000   0.54729211   -7.6238236    335.15785  0.015896313  0.014554551           89 
 1758000   0.54249429    -7.626065    335.10164  0.015884606  0.014543009           91 
 1759000   0.55433066    -7.618264    335.39674  0.015889556  0.014531479          136 
 1760000   0.55214916    -7.596017     335.1482  0.015868759  0.014519953          101 
 1761000   0.54400211   -7.6175933    335.10597   0.01585775  0.014508439          122 
 1762000    0.5492269   -7.6217426    335.24678   0.01585541   0.01449694           74 
 1763000   0.55941998   -7.6172479    335.02058  0.015835724  0.014485438           89 
 1764000   0.56282536   -7.6345885    335.13506  0.015832155  0.014473958           76 
 1765000   0.53900071   -7.6287519    335.49016  0.015839951  0.014462489           73 
 1766000   0.55135914   -7.6418843    335.10567  0.015812838  0.014450999          117 
 1767000   0.55367954   -7.6129126    334.27637  0.015764779  0.014439527          119 
 1768000   0.55631105   -7.6310543    334.65269  0.015773599   0.01442806           64 
 1769000   0.55285102   -7.6361673     334.6436  0.015764255  0.014416614           89 
 1770000   0.54642418   -7.6204535    334.73674  0.015759733  0.014405174          122 
 1771000   0.55147934   -7.6211668    335.00068  0.015763254  0.014393746          147 
 1772000   0.53542125   -7.6293032    334.83461  0.015746549  0.014382334          129 
 1773000   0.54512081   -7.6243077    334.95764   0.01574345  0.014370924          147 
 1774000   0.54347565   -7.6358526    335.14519  0.015743385  0.014359531          233 
 1775000   0.55160374   -7.6191984    335.16118  0.015735267  0.014348154           96 
 1776000   0.53765276   -7.6470461    334.88261  0.015713336  0.014336779           91 
 1777000   0.53706332   -7.6252671    334.82256  0.015701677  0.014325405          152 
 1778000   0.53687079   -7.6299664    334.52113  0.015678718  0.014314054           98 
 1779000   0.55150576   -7.6304269    334.36964  0.015662808  0.014302706          151 
 1780000   0.55843896   -7.6489603     334.4327  0.015656962  0.014291364          149 
 1781000   0.53813285   -7.6157426    334.69677  0.015660526  0.014280031          100 
 1782000   0.54556613   -7.6340741    334.89791  0.015661144  0.014268725           96 
 1783000   0.54368515   -7.6398367    334.80915  0.015648212  0.014257421          150 
 1784000   0.53646719   -7.6413421    335.38693   0.01566643  0.014246144          105 
 1785000   0.53982861   -7.6200889    334.47239  0.015614957  0.014234874          148 
 1786000   0.53326637    -7.632828    334.43174  0.015604318  0.014223599          240 
 1787000   0.54515308    -7.641662    334.96892  0.015620636   0.01421233          395 
 1788000   0.54466716   -7.6378076    334.76659  0.015602469   0.01420107           97 
 1789000   0.53859037   -7.6445882     335.1368  0.015610993  0.014189807          238 
 1790000     0.544969   -7.6501383    334.78106   0.01558571  0.014178559          114 
 1791000   0.53209576   -7.6538675    334.85252  0.015580333  0.014167326          187 
 1792000   0.53111027   -7.6324932    335.02872  0.015579833  0.014156102          173 
 1793000   0.53447641   -7.6632396    334.77261   0.01555924   0.01414489          104 
 1794000    0.5358627   -7.6305877    334.56881  0.015541101  0.014133689          134 
 1795000   0.54547483   -7.6588019    334.57367  0.015532668  0.014122487          113 
 1796000   0.52947286   -7.6673461    334.30526  0.015511566  0.014111283          108 
 1797000   0.54044422   -7.6588428    334.22683  0.015499296  0.014100087          198 
 1798000   0.53263588   -7.6441063    334.43121  0.015500149    0.0140889          117 
 1799000   0.53508762   -7.6648726    334.87198   0.01551195   0.01407773          168 
 1800000   0.52590749   -7.6566177    333.80517  0.015453943  0.014066551           94 
 1801000   0.53691745   -7.6384285    334.83064  0.015492812  0.014055394           97 
 1802000   0.53818866   -7.6574613    334.48699  0.015468322  0.014044235          173 
 1803000   0.54225787   -7.6711671    334.81039   0.01547469  0.014033105           87 
 1804000   0.53074768   -7.6568551    334.97995  0.015473944  0.014021995           87 
 1805000   0.53428884   -7.6592014    333.62956  0.015403027  0.014010879          118 
 1806000   0.53017948   -7.6586363    334.57673  0.015438203  0.013999778          103 
 1807000   0.54417232   -7.6463829    334.90505    0.0154448  0.013988687          125 
 1808000   0.53704391    -7.665278    334.28031  0.015407463  0.013977603          122 
 1809000   0.52122525   -7.6653854    333.94698   0.01538359  0.013966532           86 
 1810000   0.52476067   -7.6576552    334.90474  0.015419187  0.013955461           88 
 1811000   0.53640575   -7.6464659     334.3784  0.015386453  0.013944415          178 
 1812000   0.52596716   -7.6682233    334.89238  0.015401599   0.01393339          114 
 1813000    0.5326307   -7.6666328    334.35691  0.015368492  0.013922356          194 
 1814000   0.52182242     -7.66119    334.27797  0.015356393  0.013911339          106 
 1815000   0.52749292   -7.6611092    334.47893   0.01535716  0.013900331          102 
 1816000   0.53095573   -7.6698755    334.30086  0.015340531  0.013889328          155 
 1817000   0.52824702   -7.6511425    334.29171  0.015331669  0.013878334          349 
 1818000   0.52820421   -7.6486577    334.50378  0.015332957  0.013867352          119 
 1819000   0.53449539   -7.6667269    334.10061  0.015306057   0.01385638          205 
 1820000   0.53184782   -7.6433252    334.39993  0.015311352  0.013845422          158 
 1821000    0.5340051   -7.6548651    333.81351  0.015276108  0.013834474          131 
 1822000    0.5130919   -7.6804667    334.48013  0.015298213  0.013823524          213 
 1823000   0.52918102   -7.6720013    333.80214  0.015258829   0.01381258          122 
 1824000   0.52448148   -7.6563494    334.49518  0.015282126  0.013801647           95 
 1825000   0.52365252   -7.6651332    334.23251  0.015261759  0.013790715          203 
 1826000   0.51962229   -7.6704948    334.72288   0.01527578  0.013779813          108 
 1827000    0.5256411   -7.6610581    334.44238  0.015254624  0.013768915          126 
 1828000   0.51808067   -7.6526756    333.80048  0.015217017  0.013758023          255 
 1829000   0.51430481    -7.687865    334.55436  0.015243045  0.013747133          293 
 1830000   0.51438895   -7.6842576    334.06506  0.015212434  0.013736243          219 
 1831000    0.5164585   -7.6684267    333.95661   0.01519919  0.013725367          129 
 1832000   0.51955239   -7.6515117    333.97313  0.015191645  0.013714516          196 
 1833000    0.5208043   -7.6827167    334.42096  0.015203717  0.013703661          116 
 1834000   0.51949149    -7.673068    334.56861  0.015202136  0.013692815          298 
 1835000   0.53318927   -7.6766489    333.87102  0.015162172  0.013681976          125 
 1836000   0.51813478   -7.6833844    333.87254  0.015153982  0.013671159          191 
 1837000   0.52780993   -7.6782646    334.20468    0.0151608  0.013660344          124 
 1838000    0.5169616   -7.6892158    334.25936  0.015155031  0.013649536          118 
 1839000   0.51992608   -7.6802743    333.95734  0.015133104  0.013638732          195 
 1840000    0.5258585   -7.6877409    334.47358   0.01514826  0.013627962          139 
 1841000    0.5205384   -7.6749834     334.1886  0.015127132  0.013617185          295 
 1842000   0.51667633   -7.6684774    333.68166  0.015095985  0.013606418          308 
 1843000   0.51011598   -7.6713738    333.78719  0.015092566   0.01359567          142 
 1844000   0.51723904   -7.6829134    334.24638  0.015105133  0.013584919          117 
 1845000   0.51234671   -7.6960495    333.90644  0.015081592  0.013574173          121 
 1846000   0.50737881   -7.6658139    333.81442  0.015069268  0.013563448          201 
 1847000   0.51359064   -7.6797089    334.06802  0.015072551  0.013552729          155 
 1848000   0.51820675   -7.6893055    333.87388   0.01505564  0.013542014          149 
 1849000   0.50581177   -7.6733621    333.49947  0.015030623   0.01353132          214 
 1850000   0.51454014   -7.6981468     334.0266  0.015046243  0.013520615          224 
 1851000   0.52340331   -7.6817595    334.13797  0.015043128  0.013509929          288 
 1852000   0.52076433   -7.6834597      333.781  0.015018943  0.013499246          178 
 1853000   0.52077285   -7.6828928    334.83565  0.015058268  0.013488579          116 
 1854000   0.51630818   -7.6940146    334.14097  0.015018922  0.013477913          108 
 1855000    0.4996469   -7.6969742      334.273  0.015016757  0.013467245          163 
 1856000     0.510206    -7.688219    333.90153  0.014991987  0.013456584          155 
 1857000   0.52337186   -7.6920182    334.13332  0.014994315  0.013445937          115 
 1858000   0.51484485   -7.6752388    333.79129  0.014970905    0.0134353          108 
 1859000   0.50712891   -7.6846229    333.61676  0.014955028  0.013424683          178 
 1860000   0.50656096   -7.6875724    333.94996  0.014961916  0.013414064          104 
 1861000   0.50961378   -7.6900819    333.91956  0.014952515  0.013403456          144 
 1862000    0.5086585   -7.6849641    333.89514  0.014943391  0.013392867           80 
 1863000   0.51227713   -7.7009629     334.2889  0.014952984  0.013382286          105 
 1864000   0.51926717   -7.6867255    333.50357  0.014909852  0.013371721           95 
 1865000    0.5191394   -7.6967998    333.76505  0.014913541  0.013361163           86 
 1866000   0.52230922   -7.6839827    333.38783  0.014888703  0.013350619          203 
 1867000   0.50452652   -7.7138768    333.44382  0.014883227  0.013340079          181 
 1868000   0.49655921   -7.6919475    333.25187  0.014866697  0.013329552           78 
 1869000   0.50332081   -7.7051331    333.77258  0.014881959   0.01331903          151 
 1870000   0.49982422   -7.7116721     334.2129  0.014893623   0.01330852          247 
 1871000    0.5021356   -7.7087012    333.60979  0.014858801   0.01329802          219 
 1872000    0.5156255   -7.7174677    333.63922  0.014852173  0.013287529          140 
 1873000    0.4939998   -7.7088082    333.96611  0.014858788  0.013277051          155 
 1874000   0.50741683   -7.7101223    333.76482  0.014841908  0.013266573          223 
 1875000   0.49538269   -7.6945842     333.5051  0.014822449  0.013256108          106 
 1876000   0.50097779   -7.6929765    333.27582  0.014804363  0.013245653          107 
 1877000   0.50300358   -7.7059292    333.69934  0.014815279  0.013235215          101 
 1878000   0.50222483   -7.7005547    333.56382  0.014801376  0.013224787          157 
 1879000   0.49938593   -7.7202786     333.1621  0.014775683  0.013214348          177 
 1880000   0.49897812   -7.7152566    333.29372  0.014773658  0.013203937          225 
 1881000   0.50280988   -7.7134733     333.8823  0.014791879  0.013193538          194 
 1882000   0.50541771   -7.7065396    333.72333   0.01477698  0.013183146          107 
 1883000   0.50507863   -7.7021933    333.63546  0.014765244  0.013172758           78 
 1884000     0.512606   -7.7054546    334.09141  0.014777575  0.013162384          163 
 1885000   0.49500392   -7.7169412     333.3924  0.014738833  0.013152023           70 
 1886000   0.49152924   -7.7037477    333.40568  0.014731605  0.013141669          188 
 1887000   0.49520546   -7.6903613    333.46142   0.01472626  0.013131334          160 
 1888000   0.50283601   -7.6920315    334.31789  0.014756263  0.013121009          159 
 1889000   0.49306629   -7.6940278    333.74706  0.014723269  0.013110681           93 
 1890000   0.49718383   -7.6896955    333.82777  0.014719038  0.013100374           90 
 1891000   0.51051885   -7.7169112    333.55609  0.014699281   0.01309006          101 
 1892000   0.50080968   -7.7016629    333.52393  0.014690096  0.013079752           97 
 1893000   0.51517605   -7.7178116    334.10736  0.014708019  0.013069461          105 
 1894000   0.49425512   -7.7187174    333.35133  0.014666989  0.013059178          234 
 1895000   0.49721857   -7.7103595    333.63654  0.014671791  0.013048909          296 
 1896000   0.49231908   -7.6962475    333.22138  0.014645806  0.013038648          173 
 1897000   0.49126025   -7.7079597    333.03072   0.01462971  0.013028395          241 
 1898000    0.4920446   -7.7208938    333.88016  0.014659298  0.013018169          229 
 1899000   0.49590251   -7.7131392     333.7771  0.014647056  0.013007944          110 
 1900000   0.47644153   -7.7077856    333.38139  0.014621991  0.012997717          176 
 1901000   0.49645058    -7.708369    333.52076  0.014620408  0.012987513           99 
 1902000    0.4909306    -7.700337     333.0679   0.01459288  0.012977311          184 
 1903000   0.50165349   -7.7046008      333.017  0.014582983  0.012967115          141 
 1904000   0.49939113   -7.7129111    333.57008  0.014599531  0.012956929          123 
 1905000   0.49127861   -7.7178514    333.21143  0.014576178  0.012946757          106 
 1906000   0.50468951   -7.7085976    333.24988  0.014570212  0.012936594          161 
 1907000   0.49639872    -7.706117    333.73092  0.014583592   0.01292643           96 
 1908000   0.49090874   -7.7210441    333.62966  0.014571526  0.012916283          178 
 1909000   0.48674866   -7.7175923    333.24846  0.014547252  0.012906144           90 
 1910000    0.4849434   -7.7210724    333.47028  0.014549314  0.012896012          184 
 1911000   0.48333344    -7.702036    333.40837  0.014539001  0.012885907          177 
 1912000   0.48599626   -7.7136373    333.19764  0.014522213  0.012875804           91 
 1913000   0.49483713   -7.7127914    333.60336  0.014532295    0.0128657          143 
 1914000   0.49110038   -7.7246383    332.86287  0.014492462  0.012855614          216 
 1915000    0.4832768   -7.7287622    333.71656  0.014522044  0.012845517          266 
 1916000    0.4787331   -7.7400869    333.53635  0.014506626  0.012835435          275 
 1917000   0.48356504   -7.7188777    333.73373  0.014507639  0.012825372          274 
 1918000    0.4928327   -7.7140852    332.84682  0.014461541  0.012815311          101 
 1919000    0.4848301   -7.7145181    333.13136  0.014466361  0.012805267          255 
 1920000   0.47852124   -7.7248744     333.0455    0.0144551  0.012795225          151 
 1921000   0.47452465   -7.7223933    333.32264  0.014459597  0.012785203          338 
 1922000   0.49300413   -7.7044868    332.96581  0.014436603  0.012775197          114 
 1923000   0.48405043   -7.7292929    333.18716  0.014438688  0.012765184          352 
 1924000    0.4852393   -7.7418407    333.45856  0.014442938  0.012755182          365 
 1925000   0.48271655   -7.7459787     333.5431  0.014439095  0.012745191          230 
 1926000   0.50370823   -7.7258503     332.9372  0.014405383  0.012735205          145 
 1927000   0.47908608   -7.7492403    333.05637   0.01440306  0.012725225          163 
 1928000   0.47873542   -7.7379275    333.07446  0.014396372  0.012715254          102 
 1929000    0.4739693   -7.7406935    333.31347  0.014399234  0.012705306          165 
 1930000   0.49220786    -7.745388    333.48623  0.014399233  0.012695361          283 
 1931000   0.49057367    -7.737797     333.3467  0.014385754  0.012685436          198 
 1932000    0.4775802   -7.7242199    333.04221  0.014365174   0.01267552          301 
 1933000    0.4780428   -7.7293321    332.99369  0.014355651  0.012665607          188 
 1934000   0.47103675   -7.7468337    333.47846  0.014369117  0.012655699          163 
 1935000    0.4871895   -7.7212987    333.33537  0.014355528    0.0126458          184 
 1936000   0.48797069   -7.7472792     333.6378  0.014361131  0.012635914          204 
 1937000   0.49012642   -7.7372998    333.01887   0.01432709  0.012626029          111 
 1938000    0.4652442   -7.7283106    332.83064  0.014311603  0.012616158          176 
 1939000   0.48055975   -7.7445889    333.50921  0.014333385  0.012606287          196 
 1940000   0.46937722   -7.7509156    333.20498  0.014312929  0.012596441          226 
 1941000   0.47804342   -7.7439973    333.40679  0.014314219  0.012586607          289 
 1942000   0.48503734   -7.7466535     333.2601  0.014300554  0.012576777          277 
 1943000   0.48801851   -7.7433163    333.18737  0.014290074  0.012566958          211 
 1944000   0.47658823   -7.7463981    333.15164  0.014281192  0.012557134          285 
 1945000   0.48789535   -7.7366407    333.03354  0.014268789  0.012547338          104 
 1946000   0.47606075   -7.7449522    333.22558  0.014269681  0.012537544          159 
 1947000   0.46980041   -7.7354245    332.99897  0.014252652  0.012527754          214 
 1948000   0.47213786   -7.7420698    332.51231  0.014224517  0.012517969          196 
 1949000   0.47576341   -7.7533816    332.69889  0.014225196  0.012508197          339 
 1950000   0.47722339   -7.7293455    333.27274  0.014242425  0.012498431          336 
 1951000   0.47105467   -7.7348394    333.67185  0.014252172  0.012488687          226 
 1952000   0.47285423   -7.7527028    333.42869   0.01423449  0.012478948          307 
 1953000   0.46742848   -7.7406199    333.03988  0.014210611  0.012469212          191 
 1954000   0.49018469   -7.7451428    332.46357   0.01417876  0.012459489          116 
 1955000   0.48110984   -7.7530298    333.35301  0.014209421   0.01244977          115 
 1956000   0.47575895   -7.7574101    333.23859  0.014197282  0.012440058          170 
 1957000   0.46818604   -7.7361753    332.73483  0.014168576  0.012430363          167 
 1958000   0.47198077   -7.7472484    332.94607   0.01417033  0.012420681          151 
 1959000   0.46222712   -7.7450507    332.98826  0.014164891  0.012411008          104 
 1960000   0.46191449   -7.7347894    332.70559  0.014145646  0.012401332          150 
 1961000   0.47302494   -7.7588921    333.00951  0.014151347   0.01239166          110 
 1962000   0.48126175    -7.750702    333.14752  0.014149996     0.012382          163 
 1963000   0.47566737     -7.73602    333.14196  0.014142552  0.012372354          215 
 1964000   0.47146084    -7.747724    332.92339  0.014126077   0.01236271          155 
 1965000   0.46848469   -7.7607208    333.46629  0.014141912  0.012353076          113 
 1966000   0.47014135   -7.7442825    333.22004  0.014124281  0.012343464           96 
 1967000     0.464235   -7.7602124    333.27596  0.014119469  0.012333868          105 
 1968000   0.46595028   -7.7495519     332.6317  0.014085014  0.012324269          280 
 1969000   0.46714143   -7.7655644    332.91346  0.014089786  0.012314683          140 
 1970000   0.46615283    -7.750801    332.69997  0.014073603   0.01230511          105 
 1971000    0.4729329   -7.7377352     332.7754  0.014069651  0.012295537          105 
 1972000   0.46760414   -7.7534064    333.08174  0.014075462  0.012285971          100 
 1973000   0.46537036   -7.7483253    332.84697  0.014058412   0.01227642          250 
 1974000   0.46732241   -7.7622895    333.63036  0.014084362  0.012266883           88 
 1975000   0.45822445   -7.7620436     333.1292  0.014056085  0.012257348          265 
 1976000   0.46226357   -7.7620369    333.22314  0.014052933  0.012247816           97 
 1977000   0.46362094   -7.7605425     332.6114  0.014020039  0.012238301           96 
 1978000   0.46809455   -7.7688254    333.02565  0.014030403  0.012228794          212 
 1979000   0.45439233   -7.7584424    332.35237  0.013994962  0.012219295          176 
 1980000   0.46288582   -7.7537524    332.62531  0.013999382  0.012209802          154 
 1981000   0.45216425   -7.7626717    333.06964  0.014011006  0.012200322          147 
 1982000    0.4612626    -7.754345    332.78495  0.013991967   0.01219085          282 
 1983000   0.46697535    -7.778753    332.43976  0.013970405  0.012181386          222 
 1984000   0.46372263   -7.7639667    332.64226  0.013971869  0.012171921          165 
 1985000    0.4614153   -7.7701832    332.70623  0.013967516  0.012162465          269 
 1986000   0.45752159    -7.767789    332.91908  0.013969414   0.01215303          188 
 1987000   0.45652338   -7.7580643    332.42502  0.013941663  0.012143589          200 
 1988000   0.44454182   -7.7801637    332.89939  0.013954535  0.012134157          174 
 1989000   0.46538132   -7.7732846    332.31301  0.013922952  0.012124737          401 
 1990000   0.45409134   -7.7780385    332.58865  0.013927498  0.012115319          278 
 1991000    0.4626148   -7.7746904    332.10887  0.013900422  0.012105914          231 
 1992000   0.46082064   -7.7611966    332.18462  0.013896612  0.012096515          211 
 1993000   0.45562334   -7.7760806    332.22851  0.013891475   0.01208712          126 
 1994000   0.46223534     -7.78599    332.02849  0.013876149  0.012077747          291 
 1995000     0.456406   -7.7771186    332.47974  0.013888042  0.012068376          296 
 1996000   0.45390038    -7.778996    332.53604  0.013883435  0.012059011          206 
 1997000   0.45223141   -7.7759136    332.42925  0.013872027  0.012049655          214 
 1998000   0.44646436   -7.7710022    333.18076  0.013896428  0.012040301          223 
 1999000   0.45054959   -7.7710461    332.38796  0.013856427  0.012030964          247 
 2000000   0.45299589    -7.762481    332.54252  0.013855938  0.012021634          284 
 2001000   0.45030523   -7.7738966    332.78752  0.013859217  0.012012313          232 
 2002000   0.46299545   -7.7779695    332.36266  0.013834609     0.012003          230 
 2003000   0.45913409   -7.7892701    332.42852  0.013830443  0.011993701          157 
 2004000   0.45047024    -7.781824    332.50202  0.013826598  0.011984409          282 
 2005000   0.45519211   -7.7984602    332.72991  0.013829173  0.011975129          177 
 2006000   0.45755042    -7.783935    332.57002  0.013815637  0.011965862          244 
 2007000   0.44847263   -7.7652404     332.2072  0.013793689  0.011956597          285 
 2008000   0.45055662   -7.7842539    332.50077  0.013799003  0.011947338          393 
 2009000   0.45212799   -7.7683473    332.42279  0.013788899  0.011938082          370 
 2010000   0.44916896   -7.7791569    332.46538  0.013783805  0.011928841          164 
 2011000     0.457422   -7.7852379    332.63235   0.01378387  0.011919607          178 
 2012000   0.43936314   -7.7843986    332.77332  0.013782858  0.011910386          275 
Loop time of 4335.8 on 48 procs for 2000000 steps with 4000 atoms

Performance: 79708.542 tau/day, 461.276 timesteps/s
99.4% CPU use with 48 MPI tasks x no OpenMP threads

MPI task timing breakdown:
Section |  min time  |  avg time  |  max time  |%varavg| %total
---------------------------------------------------------------
Pair    | 270.02     | 284.99     | 297.02     |  30.5 |  6.57
Neigh   | 27.49      | 27.968     | 28.863     |   5.0 |  0.65
Comm    | 244.01     | 254.01     | 266.34     |  34.8 |  5.86
Output  | 4.1308     | 4.1327     | 4.1639     |   0.2 |  0.10
Modify  | 3701.6     | 3716.3     | 3730.3     |  11.5 | 85.71
Other   |            | 48.42      |            |       |  1.12

Nlocal:        83.3333 ave          90 max          79 min
Histogram: 10 5 8 6 1 4 4 5 2 3
Nghost:        1814.42 ave        1833 max        1798 min
Histogram: 1 1 12 5 9 4 8 3 4 1
Neighs:        11178.2 ave       13023 max        9945 min
Histogram: 2 7 8 9 8 4 5 4 0 1
FullNghs:      22356.4 ave       24694 max       20890 min
Histogram: 7 7 9 5 2 4 7 5 1 1

Total # of neighbors = 1073105
Ave neighs/atom = 268.27625
Neighbor list builds = 107770
Dangerous builds = 0

#clear
#
#next RN
#
#jump SELF
Total wall time: 1:12:18
