
units lj                  # Use reduced LJ style units
atom_style atomic         # Uncharged point particles
atom_modify map hash      # Needed for indexing of clusters etc
                          # Used to be able to find where atoms are in relation to each other.

lattice fcc 1.0 spacing 1 1 1
Lattice spacing in x,y,z = 1.5874011 1.5874011 1.5874011
region box block 0 10 0 10 0 10 units lattice
create_box 2 box
Created orthogonal box = (0.0000000 0.0000000 0.0000000) to (15.874011 15.874011 15.874011)
  3 by 4 by 4 MPI processor grid
create_atoms 1 box
Created 4000 atoms
  using lattice units in orthogonal box = (0.0000000 0.0000000 0.0000000) to (15.874011 15.874011 15.874011)
  create_atoms CPU = 0.002 seconds
set type 1 type/fraction 2 0.39 78393
Setting atom values ...
  1580 settings made for type/fraction
mass 1 1.0
mass 2 1.0
pair_style lj/cut  3.5
pair_modify tail  yes
pair_coeff 1  1  1.0  1.0   # Intearaction between 1 and 1 set with epsilon = 1 and sigma = 1
pair_coeff 1  2  1.5  0.8
pair_coeff 2  2  0.5  0.88

write_data data.0
System init for write_data ...
Neighbor list info ...
  update every 1 steps, delay 10 steps, check yes
  max neighbors/atom: 2000, page size: 100000
  master list distance cutoff = 3.8
  ghost atom cutoff = 3.8
  binsize = 1.9, bins = 9 9 9
  1 neighbor lists, perpetual/occasional/extra = 1 0 0
  (1) pair lj/cut, perpetual
      attributes: half, newton on
      pair build: half/bin/atomonly/newton
      stencil: half/bin/3d
      bin: standard
WARNING: Not all mixed pair coeffs generated from mixing. Use write_data with 'pair ij' option to store all pair coeffs. (../write_data.cpp:312)


#############################
#   M E L T   S Y S T E M   #
#############################

velocity all create 2.4 9580093 mom yes dist gaussian # Assign velocities
                                                    # Temperature 2.4, random number seed, zero linear momentum
                                                                                # Gaussian distribution

timestep 0.002   # simulation timestep
thermo 1000       # output thermodynamic data every 1000 steps bf 100

# Define a fix  in this case with index 1 applied to all
# particles in the simulation. This fix is for simulations
# in the anisotropic NPT ensemble. Note that we use the MTK
# correction.
fix 1 all npt temp 2.4 2.4 0.1 iso 5.68 5.68 0.5 mtk yes tchain 5 pchain 5 # Use NPT ensemble
                                                                         # Set temperature and pressure and damping
                                                                         # Numbers of thermostats in chain and in barostat
run 10000          # run for 10000 steps
Per MPI rank memory allocation (min/avg/max) = 3.642 | 3.644 | 3.648 Mbytes
Step Temp E_pair E_mol TotEng Press Volume 
       0          2.4   -5.9084669            0   -2.3093669   -4.1681406         4000 
    1000    2.3764219   -5.0393244            0   -1.4755828    5.6564112    3906.3267 
    2000     2.429783   -5.0316382            0   -1.3878749    5.4170985    3930.1081 
    3000    2.4193168   -4.9682115            0   -1.3401435    5.8145169     3932.345 
    4000    2.4148891   -5.0466632            0   -1.4252352      6.08211    3864.8771 
    5000     2.346559    -5.048072            0   -1.5291135    5.5036186    3914.2054 
    6000    2.3980221    -5.012442            0    -1.416308    5.4270909    3939.1539 
    7000    2.4048169   -5.0625402            0   -1.4562167    5.2905444    3932.1171 
    8000    2.4334282   -4.9971117            0   -1.3478819    6.1231259    3895.4743 
    9000    2.3865593   -5.0771572            0   -1.4982132    5.6496573    3901.3978 
   10000    2.3338553   -4.9706822            0   -1.4707744      5.96369    3903.4589 
Loop time of 2.59507 on 48 procs for 10000 steps with 4000 atoms

Performance: 665878.376 tau/day, 3853.463 timesteps/s
99.5% CPU use with 48 MPI tasks x no OpenMP threads

MPI task timing breakdown:
Section |  min time  |  avg time  |  max time  |%varavg| %total
---------------------------------------------------------------
Pair    | 1.1148     | 1.1732     | 1.2427     |   2.8 | 45.21
Neigh   | 0.20877    | 0.21612    | 0.22376    |   0.8 |  8.33
Comm    | 0.78815    | 0.88951    | 0.95347    |   3.9 | 34.28
Output  | 0.00024707 | 0.0002522  | 0.0003258  |   0.0 |  0.01
Modify  | 0.2626     | 0.30072    | 0.33487    |   3.4 | 11.59
Other   |            | 0.01523    |            |       |  0.59

Nlocal:        83.3333 ave          96 max          76 min
Histogram: 7 4 7 8 7 5 4 4 1 1
Nghost:        1669.50 ave        1688 max        1644 min
Histogram: 1 1 4 6 4 7 9 6 7 3
Neighs:        9777.12 ave       11540 max        8472 min
Histogram: 6 4 5 9 7 5 5 3 3 1

Total # of neighbors = 469302
Ave neighs/atom = 117.32550
Neighbor list builds = 906
Dangerous builds = 232

# Equilibrate just above the melting temperature to avoid step fn in T

fix 1 all npt temp 1.25 1.25 0.1 iso 5.68 5.68 0.5 mtk yes tchain 5 pchain 5
run 2000
Per MPI rank memory allocation (min/avg/max) = 3.643 | 3.645 | 3.649 Mbytes
Step Temp E_pair E_mol TotEng Press Volume 
   10000    2.3338553   -4.9706822            0   -1.4707744      5.96369    3903.4589 
   11000    1.2226141   -7.0064175            0   -5.1729548    5.6762597    3108.7532 
   12000     1.271218   -7.1444381            0   -5.2380878    5.4872467    3081.9177 
Loop time of 0.629872 on 48 procs for 2000 steps with 4000 atoms

Performance: 548683.014 tau/day, 3175.249 timesteps/s
99.7% CPU use with 48 MPI tasks x no OpenMP threads

MPI task timing breakdown:
Section |  min time  |  avg time  |  max time  |%varavg| %total
---------------------------------------------------------------
Pair    | 0.2649     | 0.2927     | 0.35181    |   3.4 | 46.47
Neigh   | 0.038171   | 0.041431   | 0.049904   |   1.1 |  6.58
Comm    | 0.183      | 0.24712    | 0.27712    |   4.1 | 39.23
Output  | 5.1948e-05 | 5.4069e-05 | 6.9461e-05 |   0.0 |  0.01
Modify  | 0.039737   | 0.043783   | 0.04698    |   0.8 |  6.95
Other   |            | 0.004783   |            |       |  0.76

Nlocal:        83.3333 ave          91 max          76 min
Histogram: 1 3 6 5 10 4 11 3 3 2
Nghost:        1961.94 ave        1984 max        1946 min
Histogram: 4 7 10 4 8 2 4 5 0 4
Neighs:        12395.9 ave       14093 max       10998 min
Histogram: 2 7 4 5 10 7 5 6 1 1

Total # of neighbors = 595005
Ave neighs/atom = 148.75125
Neighbor list builds = 142
Dangerous builds = 11

#############################
# L I N E A R  Q U E N C H  #
#############################

# Define solid atoms. This closely follows ten Wolde  Ruiz-Montero and Frenkel  Faraday Discuss  1996  104  93-110
# Compute components of the per-atom q6 vector
compute q6 all orientorder/atom degrees 1 6 components 6 nnn NULL cutoff 1.3 # compute the Q6 parameter.
                                                                             # Use all neighbours within 1.3 unit cell.

# get number of connections
compute coord_number all coord/atom orientorder q6 0.5

# An atom is solid if it has 8 or more connections (of a possible 14)
variable is_solid atom c_coord_number>=8
group solid dynamic all var is_solid    # Must be dynamic to update
dynamic group solid defined

# do clustering
compute cluster solid cluster/atom 1.3 # Create a cluster where all atoms within are solid and max 1.3 units from another member

# define chunks one chunk per cluster
compute clus_chunks solid chunk/atom c_cluster nchunk every compress yes  # Says which atoms are in which chunk

# count the size of each chunk
compute size_chunks solid property/chunk clus_chunks count


# Find the maximum entry in the vector of chunk sizes
variable max_n equal max(c_size_chunks)


# Thermo style which includes this variable
# thermo_style custom step temp pe vol v_max_n

thermo ${N}  # Print the thermo information every 100 steps
thermo 1000  

# Reset the npt fix at a lower temperature (below freezing)
fix 1  all npt temp  ${temp} ${temp}  0.1  iso  5.68  5.68  0.5  mtk yes tchain  5  pchain  5
fix 1  all npt temp  0.45 ${temp}  0.1  iso  5.68  5.68  0.5  mtk yes tchain  5  pchain  5
fix 1  all npt temp  0.45 0.45  0.1  iso  5.68  5.68  0.5  mtk yes tchain  5  pchain  5

dump dmp2 all dcd ${N} traj.dcd
dump dmp2 all dcd 1000 traj.dcd


compute msd all msd com yes
variable twopoint equal c_msd[4]/6/(step*dt+1.0e-6)
fix 9 all vector 10 c_msd[4]
variable fit equal slope(f_9)/6/(10*dt)
thermo_style custom step temp pe c_msd[4] v_twopoint v_fit v_max_n

fix 1 all npt temp 1.25 ${temp} 0.1 iso 5.68 5.68 0.5 mtk yes tchain 5 pchain 5
fix 1 all npt temp 1.25 0.45 0.1 iso 5.68 5.68 0.5 mtk yes tchain 5 pchain 5
run 2000000 # 5000000  # Run for this many steps
Neighbor list info ...
  update every 1 steps, delay 10 steps, check yes
  max neighbors/atom: 2000, page size: 100000
  master list distance cutoff = 3.8
  ghost atom cutoff = 3.8
  binsize = 1.9, bins = 8 8 8
  4 neighbor lists, perpetual/occasional/extra = 1 3 0
  (1) pair lj/cut, perpetual
      attributes: half, newton on
      pair build: half/bin/atomonly/newton
      stencil: half/bin/3d
      bin: standard
  (2) compute orientorder/atom, occasional
      attributes: full, newton on
      pair build: full/bin/atomonly
      stencil: full/bin/3d
      bin: standard
  (3) compute coord/atom, occasional
      attributes: full, newton on
      pair build: full/bin/atomonly
      stencil: full/bin/3d
      bin: standard
  (4) compute cluster/atom, occasional
      attributes: full, newton on
      pair build: full/bin/atomonly
      stencil: full/bin/3d
      bin: standard
Per MPI rank memory allocation (min/avg/max) = 9.826 | 9.830 | 9.833 Mbytes
Step Temp PotEng c_msd[4] v_twopoint v_fit v_max_n 
   12000     1.271218   -7.1444381 9.8587892e-31 6.8463811e-33 8.3333333e+20            1 
   13000    1.2380083   -7.0838301   0.45406604 0.0029106796  0.036777844            1 
   14000    1.2381947   -7.1237653   0.86644562 0.0051574142  0.034798934            1 
   15000    1.2552362   -7.1301414    1.2572328 0.0069846266  0.034118438            2 
   16000    1.2319896   -7.1126168    1.7290792 0.0090056207  0.034782374            1 
   17000    1.2421863   -7.0422637    2.2064715  0.010816036  0.035777606            1 
   18000     1.251245   -7.1242834    2.6666927  0.012345799  0.036533017            3 
   19000    1.2242486   -7.0981737    3.1893673  0.013988453  0.037185025            2 
   20000    1.2704998   -7.1035707    3.5640214  0.014850089  0.037494666            4 
   21000    1.2668866   -7.0965278    4.0452718  0.016052665  0.037610141            1 
   22000    1.2509822   -7.1074299    4.5185169  0.017115594  0.037727739            1 
   23000    1.2645047   -7.1211759    4.9109249  0.017793206  0.037779061            1 
   24000    1.2258961    -7.089791    5.4126484  0.018793918  0.037703758            1 
   25000    1.2608027   -7.0846836    5.8986973  0.019662324  0.037744479            1 
   26000    1.2549473    -7.095336    6.3915378  0.020485698  0.037983078            1 
   27000    1.2369768   -7.1318586    6.8881966  0.021259866  0.038179624            3 
   28000    1.2632325   -7.0699953      7.28494  0.021681369  0.038224416            2 
   29000     1.250657   -7.1320408    7.7239777  0.022195338  0.038220511            1 
   30000    1.2368877   -7.0782091    8.1094087  0.022526135  0.038134226            1 
   31000    1.2354657    -7.119878    8.6114845  0.023149152  0.038114901            1 
   32000    1.2147417   -7.0150017    9.1127976  0.023731243  0.038067177            1 
   33000     1.245019    -7.113933    9.4671452  0.023906932  0.038050679            2 
   34000    1.2462691   -7.1574207    9.9931082  0.024492912  0.038010643            4 
   35000     1.237227   -7.0770491    10.489814  0.024975748  0.038058469            1 
   36000    1.2403303   -7.1332928    10.908949  0.025252196  0.038029886            2 
   37000      1.24682   -7.0816838    11.449314  0.025786744   0.03808563            2 
   38000    1.2523405   -7.0939532    11.954627  0.026216287  0.038139685            1 
   39000    1.2344703   -7.1038279     12.37122  0.026434231  0.038197937            2 
   40000    1.2543056   -7.1169375     12.70498  0.026468708  0.038199109            1 
   41000    1.2532806   -7.1394377    13.026701  0.026477034   0.03811107            1 
   42000    1.2638148   -7.1136283    13.518544  0.026822507  0.038026302            1 
   43000    1.2510471    -7.097143    13.962482  0.027059073  0.037955543            1 
   44000    1.2334226   -7.0805792    14.421274  0.027313018  0.037895048            1 
   45000    1.2489287   -7.1424023     14.81358  0.027432556  0.037852267            3 
   46000    1.2409633   -7.0746326    15.190209  0.027518494  0.037775601            1 
   47000    1.2198695   -7.0710738    15.551909  0.027574306  0.037663559            3 
   48000    1.2599649   -7.1042238    16.048596  0.027862145  0.037574961            1 
   49000    1.2558163   -7.1117678    16.567592  0.028176177  0.037504935            1 
   50000    1.2154914   -7.0977112    17.144295  0.028573825  0.037481252            1 
   51000    1.2441686   -7.1395151    17.426719  0.028475031  0.037436966            1 
   52000    1.2173932   -7.0668979    17.813499  0.028547273  0.037376871            1 
   53000    1.2357269   -7.0976142    18.286377  0.028752165  0.037326848            3 
   54000    1.2287333   -7.1071331     18.53562  0.028604352  0.037273882            1 
   55000    1.2676888   -7.1273499    18.873518  0.028596239  0.037189809            2 
   56000    1.2243415   -7.1657376    19.169196   0.02852559  0.037076814            2 
   57000    1.2300054   -7.1641741    19.547054  0.028577564  0.036954432            2 
   58000    1.2401096   -7.1187396    19.884315  0.028569417  0.036831761            2 
   59000    1.2655233   -7.1339536    20.345292  0.028736289  0.036713562            1 
   60000    1.2377425   -7.1378228    20.646558  0.028675775  0.036592413            2 
   61000    1.2261305    -7.117225    21.142345  0.028882984  0.036490448            2 
   62000    1.2379925   -7.1361896    21.486531  0.028879746  0.036384674            3 
   63000    1.2307794   -7.1193042    21.936409  0.029016414  0.036274394            1 
   64000    1.1867009   -7.1839603    22.161318  0.028855882  0.036159686            1 
   65000    1.2507211   -7.0823494    22.793445  0.029222365   0.03606086            1 
   66000    1.1960177   -7.0939807    23.275008  0.029387636  0.035985242            1 
   67000    1.2149066   -7.1699507    23.670731  0.029441207  0.035926398            1 
   68000    1.2480625   -7.1275838    24.071899  0.029499877  0.035873536            1 
   69000    1.2044838   -7.1461904    24.546528  0.029645565  0.035821316            1 
   70000    1.2312964   -7.1628825    24.856546  0.029591126  0.035762984            2 
   71000    1.1803618   -7.1026836    25.285138  0.029677391  0.035701221            1 
   72000     1.215456   -7.1349575     25.79643  0.029856979  0.035651146            1 
   73000    1.2323078   -7.1600323    26.194513  0.029902412  0.035611435            2 
   74000    1.2337128   -7.1546768    26.440248  0.029775054  0.035570219            1 
   75000    1.2554538   -7.1325535    26.875684  0.029861871  0.035518794            1 
   76000     1.241125   -7.1680683    27.230562  0.029858072   0.03547066            3 
   77000    1.2261299   -7.1563587    27.682088   0.02995897  0.035422518            1 
   78000    1.2048548   -7.0876721     28.15285  0.030077831  0.035384257            1 
   79000    1.2274136   -7.1955073    28.463867  0.030025176  0.035348841            3 
   80000    1.2263163   -7.1070822    29.017043  0.030226086  0.035313893            1 
   81000    1.2471524   -7.1208192    29.311644  0.030156012  0.035269504            2 
   82000    1.2436115   -7.1495486    29.735201    0.0302187  0.035221364            1 
   83000     1.217609   -7.1719922    29.921715  0.030041882  0.035173374            3 
   84000    1.1933222    -7.146568    30.371912  0.030130865  0.035119768            1 
   85000    1.1927402   -7.1570502    30.601538  0.030001507  0.035063834       -1e+20 
   86000     1.225959   -7.1583909    31.195828  0.030228515  0.035014495            2 
   87000    1.1983208   -7.1554643    31.522615  0.030194075  0.034973491       -1e+20 
   88000    1.2103817   -7.1605255    32.029684   0.03033114  0.034933676            1 
   89000    1.1960952   -7.1393796    32.492378  0.030423575  0.034908098            2 
   90000    1.1648758   -7.1462274    33.006689  0.030561749   0.03487752            2 
   91000     1.236776   -7.1812885    33.160873    0.0303671   0.03484918            2 
   92000    1.2281833   -7.1544046    33.887402   0.03069511  0.034825395            2 
   93000    1.2258148    -7.137341    34.117305  0.030571062  0.034808699            2 
   94000     1.213923   -7.1444881    34.517807  0.030600893  0.034791673            3 
   95000    1.2018597   -7.1873152    34.763705  0.030494478  0.034761659            1 
   96000    1.2162032   -7.1597792    35.181912  0.030539854   0.03472114            1 
   97000     1.225453   -7.1166866    35.495188  0.030494148  0.034678351            2 
   98000    1.2080563    -7.132521     35.89477  0.030522763  0.034637888            1 
   99000    1.2265001   -7.1687352    36.443461  0.030676314  0.034602978            3 
  100000    1.2479537   -7.1767965    36.845426  0.030704522  0.034578544            2 
  101000     1.216223   -7.1601721      37.2761  0.030755858  0.034553613            1 
  102000    1.2299937   -7.1638104    37.766501  0.030854984  0.034531201            2 
  103000    1.2127855   -7.1832945    38.101914  0.030826791  0.034515001            1 
  104000    1.1999604   -7.1592295    38.667773  0.030983792   0.03449881            2 
  105000    1.2188983   -7.1947488    39.003072  0.030954819  0.034488323            4 
  106000    1.2075127   -7.1577689    39.631248  0.031156641  0.034487452            2 
  107000     1.227907   -7.1847181     40.06395  0.031202453  0.034491179            1 
  108000    1.2109098   -7.1984125    40.541287  0.031281857  0.034496411            1 
  109000    1.2239485   -7.2097593    40.791785   0.03118638  0.034497022            2 
  110000    1.2072542   -7.2003193    41.137134  0.031164496  0.034491044            1 
  111000    1.2174552    -7.192416    41.536019  0.031183198  0.034481919            1 
  112000    1.1932148   -7.2297744    42.027472  0.031270441  0.034478324            1 
  113000    1.2163309   -7.1642953    42.298597  0.031193655  0.034475178            1 
  114000    1.2042285   -7.1132858    42.980994  0.031418855  0.034471025            2 
  115000    1.2231238   -7.2012828    42.997865  0.031157873  0.034460342            2 
  116000    1.2217772   -7.1480325    43.514526  0.031260435  0.034447132            1 
  117000     1.197666   -7.1803261    43.777822  0.031180785  0.034436598            1 
  118000    1.2060409   -7.1748595    44.089001    0.0311363  0.034418563            3 
  119000    1.2065947   -7.2044536    44.516057   0.03117371  0.034398912            1 
  120000    1.2042168   -7.1257097    45.183508  0.031377436  0.034383552            4 
  121000    1.2017398   -7.1542563    45.685843  0.031464079  0.034372379            2 
  122000    1.2218921   -7.1618613    46.172604  0.031538663  0.034368511            2 
  123000    1.1921714   -7.1797427    46.642147   0.03160037  0.034367004            2 
  124000    1.2193084    -7.177953     46.73987  0.031411203  0.034363774            1 
  125000     1.197079   -7.1696775    47.278804  0.031519202  0.034353532            1 
  126000    1.2107955   -7.1528438    47.584351  0.031471131  0.034345464            1 
  127000    1.1962655   -7.1478055    47.819583  0.031377679  0.034334179            1 
  128000    1.1845707   -7.1602181    48.364369   0.03148722   0.03432347            2 
  129000    1.2148325   -7.2342863    48.421199  0.031279844  0.034310099            1 
  130000    1.1967439   -7.2010509    49.175728  0.031522902  0.034296476            1 
  131000    1.1988911   -7.1812368    49.385651  0.031415809  0.034284986            2 
  132000     1.191351   -7.2029379    50.106238  0.031632726  0.034275125            4 
  133000    1.2017259    -7.224404    50.362203  0.031555265    0.0342732            1 
  134000    1.2287234   -7.1738908    50.885053  0.031644933  0.034267821            1 
  135000    1.2313111   -7.2230592    51.017552  0.031492316  0.034262842            4 
  136000    1.1870181   -7.1708623    51.633502  0.031638175  0.034252875            1 
  137000    1.2439404   -7.1718111    51.766141   0.03148792  0.034240644            1 
  138000    1.2196495   -7.1737952    52.272158  0.031565313  0.034232459            2 
  139000    1.2086798   -7.1934012    52.747291  0.031623076  0.034223061            1 
  140000    1.2421355   -7.1627023    53.193589   0.03166285  0.034214911            1 
  141000    1.2161728   -7.1281286    53.422377  0.031573509   0.03420516            1 
  142000    1.1922284   -7.2103282    53.759351  0.031548915  0.034192887            1 
  143000      1.20401     -7.23712    54.051345  0.031498453  0.034180214            4 
  144000    1.2055991   -7.1968574    54.693561  0.031651366  0.034168057            1 
  145000    1.1883819    -7.222873    54.916989  0.031561488  0.034154459            2 
  146000    1.2267013   -7.1770811    55.461984  0.031656384  0.034139407            1 
  147000    1.1870447   -7.1684536    55.853107  0.031662759  0.034126814       -1e+20 
  148000    1.1819812   -7.2267362    55.802627  0.031420398  0.034110274            1 
  149000    1.1943074   -7.2112061    56.430038  0.031560424  0.034096106            4 
  150000    1.1976472   -7.2233559    56.780894  0.031544941  0.034079234            1 
  151000     1.184583   -7.1707312    57.219489  0.031578085  0.034064637            4 
  152000     1.188362   -7.2228132    57.515346  0.031532536  0.034049819            1 
  153000    1.1808637   -7.2151499    57.948018  0.031562101  0.034034557            1 
  154000    1.2078331   -7.2299317    58.617882  0.031719633   0.03402394            2 
  155000    1.1815555   -7.1998733    58.878088  0.031654886  0.034014911            2 
  156000    1.1880242   -7.2554553    59.149418  0.031596911     0.034006            1 
  157000    1.1827561   -7.2319014    59.335208  0.031494272  0.033991657            1 
  158000    1.1873092   -7.1912009    59.771066  0.031524824  0.033974493            1 
  159000    1.2104577   -7.2141218    59.953796  0.031422325  0.033956136            1 
  160000    1.1772695   -7.1954331    60.418108  0.031467765  0.033935297            1 
  161000    1.2031901   -7.1818716    60.615546  0.031374506  0.033912232            2 
  162000    1.1968154   -7.2075245    60.752732  0.031251405  0.033887188            1 
  163000    1.2041145   -7.1821818      61.1903  0.031283385  0.033858469            3 
  164000    1.2107584   -7.2462412    61.276163  0.031136262  0.033830023            4 
  165000    1.1555157   -7.2132566    62.112535  0.031369967  0.033800672            2 
  166000    1.2016191   -7.1696332    62.545963  0.031398576  0.033775144            1 
  167000     1.210785    -7.184094    62.999347    0.0314368  0.033752566            1 
  168000     1.191391   -7.2123668    63.155581  0.031327173  0.033728562            1 
  169000    1.1657218   -7.2792522     63.10021  0.031114502  0.033701675            2 
  170000     1.156991   -7.2376679    63.649505  0.031200737  0.033673515            2 
  171000     1.210847   -7.2266831    63.843946  0.031113034  0.033643763            1 
  172000    1.1706764   -7.2103518    64.109976  0.031061035  0.033613015            3 
  173000    1.1720056   -7.2074645    64.588313  0.031111904  0.033582514            1 
  174000    1.1868438   -7.2542193    64.880771  0.031073166  0.033553223            1 
  175000    1.1860632    -7.251371    65.126728  0.031012727  0.033523391            1 
  176000    1.2028464    -7.220749    65.570542  0.031046658  0.033493292            2 
  177000    1.1956348   -7.2723354    66.113147  0.031126717  0.033464401            1 
  178000    1.1886904    -7.228662    66.645974  0.031201299   0.03343967            2 
  179000    1.1811845   -7.2250545    66.693247  0.031048998  0.033415035            2 
  180000     1.186064   -7.2257391     67.12217  0.031075079  0.033390269            1 
  181000    1.1558412   -7.2850356    67.406361  0.031034236   0.03336461            2 
  182000    1.1710948   -7.2491996    67.746009  0.031019235  0.033337061            1 
  183000    1.1900176   -7.2499759    68.238813  0.031074141  0.033308983            1 
  184000    1.1844696   -7.2250174    68.376904  0.030967801  0.033280274            2 
  185000    1.1780204   -7.2300128    68.740321  0.030964109   0.03325073            4 
  186000    1.1601222   -7.2301317    69.161893  0.030986511  0.033221596            2 
  187000    1.1739224   -7.2547715    69.654308  0.031040244  0.033194079            1 
  188000    1.1868423   -7.2311746    70.150497  0.031095079  0.033168516            1 
  189000     1.186137   -7.2148041    70.480375  0.031076003  0.033141916            1 
  190000    1.1759223     -7.26187    70.565079  0.030949596  0.033116294            1 
  191000     1.169758   -7.2431549    70.997449  0.030976199  0.033087809            2 
  192000    1.1593715   -7.2748895      71.0892  0.030854687  0.033058547            2 
  193000    1.1839987   -7.2677105    71.796002  0.031000001  0.033032036            1 
  194000    1.1921656   -7.2565055    71.969224  0.030914615  0.033007006            1 
  195000    1.1845075   -7.2521111    72.294434  0.030895057  0.032982324            1 
  196000    1.1547099   -7.2301643    72.667095  0.030895874  0.032954719            5 
  197000    1.1832556   -7.2962337    72.846996  0.030815142  0.032928212            1 
  198000    1.1628223   -7.2506191    73.446695  0.030911908  0.032902256            2 
  199000    1.1825228   -7.2712003    73.682636  0.030855375  0.032878487            2 
  200000    1.1400079   -7.2715674    74.239067  0.030932944  0.032856521            1 
  201000    1.1684944   -7.2519517    74.866848  0.031039323   0.03283553            2 
  202000     1.181854    -7.226568    74.969302   0.03092793   0.03281373            3 
  203000    1.1995501    -7.267941    75.351064  0.030932292  0.032790295            4 
  204000     1.159324   -7.2448639    75.920215  0.031013159  0.032767693            1 
  205000    1.1886366    -7.298864    75.706452   0.03077498  0.032744268            1 
  206000     1.163178   -7.2738182    76.031687  0.030757155  0.032718866       -1e+20 
  207000    1.1606966   -7.2780906     76.13629   0.03065068  0.032691614            1 
  208000    1.1735841   -7.2708206    76.700728  0.030729458  0.032662791            1 
  209000    1.1912517   -7.2454197    76.640253  0.030558315  0.032634871            2 
  210000    1.1494848   -7.2896947    76.823596  0.030485554  0.032604939            3 
  211000    1.1839549   -7.2662108    77.493123  0.030605499   0.03257503            2 
  212000    1.1638844   -7.2859328    77.490895  0.030460258  0.032545304            1 
  213000    1.2055798   -7.2589267    78.051945  0.030536755  0.032516631            1 
  214000    1.1748754   -7.2587768    78.347388  0.030509107  0.032487658            1 
  215000    1.1749223   -7.3417589    78.398694  0.030387091  0.032455609            2 
  216000    1.1746956   -7.2415666    78.913469  0.030445011  0.032425045            2 
  217000    1.1564192   -7.2501119    79.258542  0.030437228  0.032396595            2 
  218000    1.1585596   -7.2708367    79.699736   0.03046626  0.032366431            1 
  219000    1.1630668   -7.2504734    80.018308  0.030448367   0.03233706            7 
  220000    1.1510811   -7.3009072    80.327199  0.030426969  0.032307657            3 
  221000    1.1641149   -7.3064508    80.571799  0.030381523  0.032279955            2 
  222000    1.1803674   -7.2331119    81.110247  0.030446789  0.032252588            3 
  223000    1.1747198   -7.2912418    81.299127  0.030380839  0.032225742            2 
  224000    1.1442399   -7.3431526    81.826325  0.030441341  0.032197918            3 
  225000    1.1415471   -7.2362959    82.211084   0.03044855  0.032171553            1 
  226000    1.1705449   -7.2549588    82.826966  0.030540916  0.032146362            4 
  227000    1.1706516   -7.2847531    82.835001  0.030409325  0.032121409            2 
  228000     1.176456   -7.2968521    83.081507  0.030366048  0.032094113            2 
  229000    1.1545529   -7.2834144    83.712164  0.030462942  0.032068589            2 
  230000    1.1423949   -7.3021377    83.908305   0.03040156  0.032045013            1 
  231000    1.1467666   -7.3278327    84.022253  0.030311058  0.032019674            5 
  232000    1.1836544   -7.2889085    84.506396  0.030354309  0.031995187            1 
  233000     1.164131   -7.2878901    84.816571  0.030334968  0.031970011            2 
  234000    1.1631906   -7.3066273    84.981086   0.03026392  0.031945763            2 
  235000    1.1714916   -7.2597947    85.828154  0.030435516  0.031922619            2 
  236000    1.1726126   -7.3060916    85.574019  0.030216814  0.031899125            3 
  237000    1.1605525   -7.2708854    86.000726  0.030239355  0.031874341            1 
  238000    1.1554452   -7.2626664    86.539871  0.030301075  0.031850151            1 
  239000    1.1563285   -7.2702679    86.765624  0.030253007  0.031826537            2 
  240000    1.1713723   -7.2953715     87.12462  0.030251604  0.031803864            1 
  241000    1.1571079   -7.3054169    87.418963  0.030227857  0.031779229            1 
  242000    1.1424117   -7.3348743     87.42155  0.030103839   0.03175418            2 
  243000     1.170047   -7.3386119    87.687204  0.030071057  0.031727995            3 
  244000    1.1457665   -7.3232036    88.291466  0.030154189   0.03170195            1 
  245000    1.1475118   -7.3566985    88.349118   0.03005072  0.031676256            1 
  246000    1.1304169   -7.3096686     88.82751   0.03009062   0.03165158            2 
  247000     1.142409   -7.3081331    89.643324  0.030244036  0.031626632            2 
  248000    1.1813805   -7.3476097    89.537363   0.03008648  0.031602027            1 
  249000    1.1411323   -7.2899431    89.741188  0.030033865  0.031578401            2 
  250000    1.1600355   -7.3327203    90.138505  0.030046168  0.031554602            5 
  251000    1.1668803   -7.3253338    90.648466  0.030095772   0.03153025            1 
  252000    1.1518012   -7.3134436    90.896224  0.030058275  0.031507073            2 
  253000    1.1553865   -7.3013117     91.09667  0.030005491  0.031482398            1 
  254000    1.1576592   -7.2913781    91.611309  0.030056204  0.031457628            2 
  255000    1.1605265   -7.2979567    91.892743  0.030030308  0.031434391            5 
  256000    1.1414477    -7.307072    92.055966  0.029966135  0.031411068            1 
  257000    1.1516468   -7.2978943     92.35433  0.029946281  0.031386218            1 
  258000    1.1097547   -7.3281665    92.622009   0.02991667  0.031361626            1 
  259000    1.1655275   -7.3415484     92.64779  0.029809456  0.031336597            2 
  260000     1.161738   -7.3069101    93.148762  0.029855372  0.031313242            1 
  261000    1.1361903   -7.3522376    93.565533  0.029874053  0.031289691            1 
  262000    1.1558679   -7.3159297    94.225077  0.029969808  0.031266496            2 
  263000    1.1673978   -7.3087628    94.677639  0.029999252  0.031244561            1 
  264000    1.1397726   -7.3219118    95.040777  0.030000245   0.03122377            7 
  265000    1.1579693   -7.3070555    95.190566   0.02993414  0.031201868            1 
  266000    1.1461548   -7.3441307    95.385455  0.029882661  0.031179727            2 
  267000    1.1541068   -7.2959225    95.978554  0.029955853  0.031157202            2 
  268000    1.1706406   -7.3121657    95.994031   0.02984889  0.031135279            2 
  269000    1.1367584    -7.410826    95.958126  0.029726805  0.031110647            2 
  270000    1.1303678   -7.3222879    96.845786  0.029890675  0.031087521            2 
  271000    1.1425667   -7.3181352    96.814425  0.029770733  0.031064805            1 
  272000    1.1517837   -7.3096008    97.475909  0.029863943  0.031042963            2 
  273000    1.1635972   -7.3311201    97.398223  0.029730837   0.03102195            2 
  274000      1.14699   -7.3224617    98.071751  0.029827175  0.030999708            2 
  275000    1.1201932    -7.351086    98.016704  0.029702031  0.030977911            1 
  276000    1.1324577   -7.3437969    98.366302   0.02969997  0.030957247            2 
  277000    1.1344464   -7.3431156    98.674889  0.029685586  0.030936171            3 
  278000    1.1530229    -7.309393    99.342327  0.029778875   0.03091635            1 
  279000     1.153407   -7.3499623    99.605666  0.029750796  0.030896592            1 
  280000    1.1526605   -7.3278096    100.29112  0.029848546  0.030876901            2 
  281000    1.1510661   -7.3287944    100.49423  0.029802559  0.030858155            1 
  282000    1.1195978   -7.3466733    100.81418  0.029791424  0.030840919            2 
  283000    1.1376438   -7.3361532    101.15647  0.029786948  0.030823089            2 
  284000    1.1393583   -7.3105388    101.16402  0.029684278  0.030805367            2 
  285000    1.1196146    -7.392138    101.87636   0.02978841  0.030786821            2 
  286000    1.1569329   -7.3421654    101.94893    0.0297054  0.030769077            1 
  287000    1.1396929   -7.3601718    102.27631  0.029696954  0.030751826            2 
  288000    1.1361312   -7.3456005    103.30527  0.029891571    0.0307358            1 
  289000     1.148171   -7.3202846     103.5293   0.02985274  0.030720346            2 
  290000    1.1342846   -7.3631997    103.79544  0.029826276  0.030705563            1 
  291000    1.1436739   -7.3726814    104.22014  0.029845402  0.030691726            1 
  292000    1.1588414   -7.3384119    104.92233  0.029943589  0.030679295            2 
  293000    1.1394613   -7.3676137    105.13108  0.029900762  0.030666749            1 
  294000    1.1343025   -7.3694549    105.36169  0.029864424  0.030653355            1 
  295000    1.1318891   -7.3722214    105.42292  0.029780487    0.0306392            1 
  296000    1.1438543   -7.3565896    106.08279   0.02986565  0.030625083            2 
  297000    1.1727304   -7.3511912    106.18689  0.029794302  0.030611628            3 
  298000    1.1337155   -7.3142537     106.5091  0.029784425  0.030597612            2 
  299000     1.114303   -7.3427142    106.80762   0.02976801  0.030584773            2 
  300000     1.103255   -7.3586691    107.47976  0.029855488    0.0305726            2 
  301000    1.1248412   -7.3652182    107.78423  0.029840596  0.030559712            2 
  302000    1.1295346   -7.4169181    108.08756  0.029825487  0.030546699            4 
  303000    1.1522002   -7.3771056    108.45744  0.029828778  0.030534294            1 
  304000    1.1526849    -7.405288    108.78593  0.029820704  0.030521922            1 
  305000    1.1248584   -7.3234203     109.5802  0.029939946  0.030510196            2 
  306000    1.1081639   -7.3313827    109.86613  0.029919971  0.030498858            7 
  307000    1.1485553   -7.3534614    109.76118  0.029794023   0.03048732            2 
  308000    1.1346002   -7.3829562    109.77226  0.029700286  0.030474996            1 
  309000     1.122885   -7.3275358    110.51693  0.029804997  0.030463559            3 
  310000    1.1132482   -7.3610447    110.57921  0.029725595  0.030451831            1 
  311000    1.1446809   -7.3657824    110.83247  0.029697875  0.030439397            2 
  312000    1.1348415   -7.3734348    111.41174  0.029757409  0.030426988            2 
  313000    1.1288945   -7.3889137    111.15341   0.02959356  0.030414447            1 
  314000     1.145173   -7.3687667    112.03932  0.029734428   0.03040025            2 
  315000    1.1349521    -7.350594    112.07667  0.029649914  0.030386235            2 
  316000    1.1240967   -7.3525562     112.3694  0.029633281   0.03037236            3 
  317000    1.0865091   -7.3324133    112.76013  0.029642517  0.030358743            1 
  318000    1.1335534   -7.3507947    112.79027    0.0295572  0.030344507            1 
  319000    1.1543745   -7.3864908    112.76075  0.029456832  0.030328577            1 
  320000    1.1359457   -7.3924294    112.95348  0.029414968  0.030311551            1 
  321000    1.1283129   -7.3808538     113.5517  0.029478635  0.030294178            2 
  322000    1.0952818   -7.3401726    113.66984   0.02941766  0.030276455            1 
  323000    1.1123666   -7.3630009    113.88467  0.029382011  0.030259448            2 
  324000     1.107769   -7.4413546    113.87339  0.029288424  0.030241715            5 
  325000    1.1227237   -7.3767279    114.49603  0.029357956  0.030224577            2 
  326000    1.1331719   -7.3595566    114.57119  0.029287114  0.030206905            1 
  327000    1.1101797   -7.3894941    114.78701  0.029252551   0.03018946            3 
  328000    1.1204247   -7.4154162    115.38755  0.029315943  0.030172676            3 
  329000    1.1267698   -7.3664494    115.77629  0.029325301  0.030156653            1 
  330000    1.1431884   -7.3876479    116.12312   0.02932402  0.030141168            1 
  331000    1.1359806   -7.3822351    116.28317  0.029275723  0.030125329            3 
  332000    1.1129822   -7.3947204    116.79048   0.02931488  0.030109316            2 
  333000    1.1386217    -7.358736    117.21963  0.029334242  0.030093175            2 
  334000    1.1241147   -7.3839582    117.08548  0.029212945  0.030076156            3 
  335000    1.1031594   -7.3613044    117.81173  0.029306402  0.030060082            1 
  336000    1.1167372   -7.4187895    117.29048  0.029089902  0.030043181            2 
  337000     1.100919    -7.376218    118.19563  0.029227405   0.03002566            1 
  338000    1.1306993   -7.3731376     118.2517  0.029154759  0.030008228            2 
  339000    1.1117646   -7.3595578    118.37919  0.029100096  0.029990089            1 
  340000    1.1267719   -7.4340396    117.89241  0.028895198  0.029970954            2 
  341000    1.1223368   -7.4191153    118.32484   0.02891614  0.029950653            2 
  342000    1.0901965   -7.3917179    119.02978  0.029003358   0.02993073            1 
  343000    1.1242687    -7.400115    119.28623  0.028981105  0.029911054            2 
  344000    1.1340412   -7.4403596     119.4945  0.028947311  0.029891004            1 
  345000    1.0930702   -7.3853904     120.4061    0.0290836  0.029871785            1 
  346000    1.1064491   -7.3547932    120.38164  0.028993651  0.029853227            1 
  347000    1.1057391   -7.3733886    120.67614  0.028980822  0.029834272            1 
  348000    1.0882663    -7.370662    120.88792  0.028948257  0.029815014            3 
  349000    1.1120483   -7.3681356    121.17484  0.028933821  0.029796259            3 
  350000    1.1287109   -7.3989557    121.08513  0.028829792  0.029777104            1 
  351000    1.1157368   -7.3872146    120.89621  0.028702804  0.029756622            3 
  352000    1.0915729   -7.4374973    121.47685  0.028758724  0.029736722            1 
  353000    1.1106437   -7.4017959    122.02549  0.028806773  0.029716144            4 
  354000    1.1134328   -7.4111052    121.70122  0.028649062  0.029695217            2 
  355000    1.1186544   -7.4030382    121.98618  0.028635254  0.029673816            2 
  356000     1.129635   -7.4581776    122.40238  0.028652242  0.029651716            1 
  357000    1.0999047   -7.4234607    122.17333  0.028518518  0.029630127            1 
  358000    1.1130222   -7.4197007    123.38156  0.028720101   0.02960881            1 
  359000    1.0994699   -7.3868485    123.88379  0.028756684  0.029588111            1 
  360000    1.0838619   -7.4171805    123.29464  0.028540425  0.029567784            3 
  361000    1.1045528   -7.4216001     123.9181  0.028605286  0.029547227            2 
  362000    1.1075205   -7.4068067    124.26004  0.028604982  0.029527228            1 
  363000    1.0982137   -7.4056842    124.31681  0.028539212   0.02950685            1 
  364000     1.120436   -7.4347699    124.76142  0.028562596  0.029486641            1 
  365000    1.1265183   -7.3964186    125.30668   0.02860883  0.029466056            1 
  366000     1.108792   -7.3925337    125.10728  0.028485264  0.029445738            2 
  367000    1.0969077   -7.4527432    125.76802   0.02855768  0.029425447            2 
  368000    1.0953406   -7.4589973    125.50897  0.028421415    0.0294053            1 
  369000    1.0999557   -7.4209898    126.29637  0.028522214  0.029385368            1 
  370000    1.1318355   -7.4293389    126.86518  0.028573239  0.029366323            2 
  371000    1.1258005    -7.396109     127.3323  0.028601145  0.029348104            2 
  372000     1.114849   -7.4488483    126.74922  0.028393642  0.029328693            3 
  373000    1.1209575   -7.4277778    127.42335  0.028468129  0.029309865            2 
  374000    1.0830425   -7.3902917    127.81692  0.028479707  0.029290908            1 
  375000    1.1086939   -7.4257569    127.80919  0.028402042  0.029271161            1 
  376000     1.112872   -7.4087025     127.7287  0.028308667  0.029251135            1 
  377000    1.1038958   -7.4403748    127.80066  0.028249483  0.029230833            1 
  378000    1.0754492   -7.4262884    128.19308   0.02826126  0.029210742            1 
  379000    1.1017246   -7.4142147    129.43405  0.028459554  0.029190966            2 
  380000    1.0870985   -7.4069508    129.21105  0.028335756  0.029171713            1 
  381000    1.1177411   -7.4272291     129.6267  0.028352297  0.029152174            2 
  382000    1.1010056   -7.3874753    130.22808  0.028409267  0.029133099            1 
  383000    1.1007784   -7.4028005    130.56664  0.028408755  0.029114763            2 
  384000     1.081663   -7.4428051      130.306  0.028278212  0.029096286            2 
  385000    1.0718352   -7.4536137    130.82499  0.028317096  0.029077248            3 
  386000    1.1113895   -7.4180976    130.61968  0.028199414  0.029057894            2 
  387000    1.0734144   -7.4504329    131.12914  0.028236249  0.029037567            4 
  388000    1.0871088   -7.4368567    131.08678  0.028154377  0.029017812            3 
  389000    1.1097499   -7.4546981    131.50355  0.028171282  0.028997031            1 
  390000    1.0897014   -7.4620491    131.46992  0.028091864  0.028976658            4 
  391000    1.1066626   -7.4287934    131.77982  0.028086066   0.02895604            1 
  392000    1.1123539   -7.4257111    131.97111  0.028055082  0.028935252            2 
  393000    1.1053103   -7.4641415     131.8418  0.027956277  0.028913814            2 
  394000    1.0812771    -7.460536    132.34202  0.027991121  0.028891895            2 
  395000    1.1251546   -7.4579323    132.49837  0.027953243  0.028870514            1 
  396000    1.1100786   -7.4509937    132.85009  0.027956668   0.02884875            2 
  397000    1.0726182   -7.4404338     133.1953  0.027958711   0.02882655            1 
  398000    1.0850459   -7.4472955    133.55864   0.02796454  0.028804653            2 
  399000     1.108977   -7.4676489    133.73917  0.027932158  0.028783062            1 
  400000    1.1067995   -7.4017639    133.94372  0.027904941  0.028762234            1 
  401000    1.0640859   -7.4442083    134.70947  0.027994487  0.028742055            1 
  402000    1.0859793   -7.4638898    134.23126  0.027825716  0.028720786            1 
  403000     1.072337   -7.5000719      135.152  0.027947063  0.028700071            1 
  404000    1.0965075   -7.4098981    135.65746  0.027982149  0.028680686            1 
  405000    1.0701075   -7.4668591     135.9308    0.0279693  0.028662036            3 
  406000     1.091192   -7.4401814    136.26898  0.027969823  0.028643562            2 
  407000    1.0837689   -7.4256081     137.1368  0.028078787  0.028626084            2 
  408000    1.0806994   -7.4523144    136.67011  0.027914647  0.028607925            2 
  409000    1.0961863   -7.4550418     137.0638  0.027926609  0.028589762            1 
  410000    1.1131182   -7.5002347     136.7839  0.027801605  0.028570646            3 
  411000     1.095061   -7.4719431    137.55214  0.027889729  0.028551373            2 
  412000    1.0966568   -7.4195202    137.89999  0.027892394  0.028533317            2 
  413000    1.1035243   -7.4596524    138.66808  0.027979839  0.028515765            1 
  414000    1.1094945   -7.4689029    138.45004  0.027868366  0.028498619            2 
  415000    1.0828043   -7.4916539    138.35718  0.027782566  0.028480871            2 
  416000    1.0864266    -7.497857     138.9002  0.027824559  0.028462402            2 
  417000    1.0833823   -7.4566321    139.12871  0.027803498  0.028444097            3 
  418000    1.0872099    -7.446458    139.27178  0.027765506  0.028425641            2 
  419000    1.0767297   -7.4739621    139.31577  0.027707989  0.028406958            1 
  420000    1.1001286   -7.4474018    139.28984  0.027636874  0.028387668            3 
  421000    1.0930312   -7.4584766    139.51224  0.027615249  0.028368175            1 
  422000    1.0870843   -7.4819014    139.94322  0.027634916  0.028348432            2 
  423000    1.0638554   -7.4619414     140.0004  0.027580851  0.028328891            1 
  424000     1.089338   -7.4807683    140.38955  0.027592286  0.028308865            3 
  425000    1.0607729   -7.4237491    140.45761  0.027540707  0.028289059            1 
  426000    1.0779349   -7.4462407    140.66103  0.027515851  0.028268921            1 
  427000    1.0766177   -7.4832952     140.2027  0.027361962  0.028247733            2 
  428000    1.0679854   -7.4843063    140.16898  0.027291468   0.02822608            2 
  429000    1.0920695   -7.4651242    140.91763  0.027373277  0.028204247            1 
  430000    1.0815762   -7.4684033    140.98196  0.027322084  0.028182981            3 
  431000     1.057535   -7.4990512    140.75609  0.027215022  0.028160632            2 
  432000    1.0707004   -7.4814382    141.31327  0.027259504  0.028138262            2 
  433000    1.0844074   -7.4278273     141.7831  0.027286971  0.028115937            1 
  434000    1.0904678   -7.5271105    141.40059  0.027150651  0.028093387            3 
  435000     1.106615   -7.4638293    141.66249  0.027138408  0.028070013            2 
  436000     1.070959   -7.4986101    142.11609  0.027162861  0.028046668            1 
  437000    1.0903338   -7.4822632    141.74798  0.027030507   0.02802294            2 
  438000    1.0730384   -7.4556887    142.11482  0.027038588  0.027999322            6 
  439000    1.0766217   -7.4906237    142.08456  0.026971254  0.027976071            2 
  440000    1.0865907   -7.5000092    142.30744  0.026952167  0.027952546            3 
  441000    1.1070092   -7.4801836    142.68568  0.026962525  0.027928509            1 
  442000    1.0621913   -7.5064919    143.10563    0.0269807  0.027904338            3 
  443000    1.0842974   -7.5333252    142.97452  0.026895132  0.027880558            2 
  444000    1.0948398    -7.514383     143.5847  0.026949081  0.027856938            2 
  445000    1.0634534   -7.4478393    144.09345  0.026983791  0.027833583            1 
  446000     1.082575   -7.4561502    143.86141  0.026879934  0.027810597            2 
  447000    1.0764947   -7.4880387    144.37105  0.026914812  0.027787436            2 
  448000    1.0701458   -7.5007235    144.64111  0.026904968  0.027764242            1 
  449000     1.062993   -7.5300887    144.86916  0.026887373  0.027741113            6 
  450000    1.0813287   -7.4940751     144.9758   0.02684737  0.027717893            1 
  451000    1.0690579   -7.4757131    144.92585  0.026778612  0.027694953            1 
  452000    1.0653689   -7.4815087    145.27259  0.026783294  0.027671725            1 
  453000    1.0614946   -7.5061164    145.42698  0.026752571  0.027648508            4 
  454000    1.0833116   -7.4693837    145.93501  0.026786897  0.027626031            1 
  455000    1.0613098   -7.5317804    146.14227  0.026765983  0.027603257            3 
  456000    1.0812952   -7.4926281    146.55875  0.026783397  0.027581085            2 
  457000    1.0417779   -7.4999778    146.53514  0.026720486  0.027558952            2 
  458000    1.0825817   -7.4661094     147.3119  0.026803476   0.02753721            6 
  459000    1.0735848   -7.4996127    147.34262  0.026750658  0.027515004            5 
  460000    1.0609099   -7.5027168    147.37605   0.02669856  0.027492965            1 
  461000    1.0769021   -7.5191008    147.28896  0.026624903  0.027471197            2 
  462000    1.0521464   -7.5523798    147.60624  0.026624502   0.02744902            2 
  463000    1.0781557   -7.5257649    148.27073  0.026686597  0.027426924            1 
  464000    1.0766153   -7.4648458    149.02214  0.026764034  0.027405061            1 
  465000    1.0545951   -7.5198393    148.54855  0.026621603  0.027383911            2 
  466000    1.0623741   -7.5221724    148.96117  0.026638263  0.027362906            1 
  467000    1.0729197   -7.5015459    149.29085  0.026640051  0.027341948            3 
  468000    1.0598666   -7.4984147    149.24354  0.026574705  0.027320593            2 
  469000    1.0877027   -7.4513805    150.22335  0.026692138  0.027299386            1 
  470000    1.0529851   -7.4793429    150.48201  0.026681208  0.027278736            1 
  471000    1.0974503    -7.481548    150.42084  0.026613737  0.027257939            1 
  472000    1.0295637   -7.4931884    150.98093  0.026656238  0.027237346            1 
  473000    1.0679494    -7.530544    150.39379   0.02649644  0.027216644            2 
  474000    1.0630683   -7.5254789    150.97125  0.026542063  0.027195804            2 
  475000    1.0582159   -7.5452263    151.20706  0.026527555  0.027174801            2 
  476000    1.1106287   -7.5418893    150.49402  0.026346991  0.027153205            4 
  477000    1.0445183     -7.52105     151.1075  0.026398934  0.027131988            3 
  478000    1.0800236    -7.541667    151.29296  0.026376039  0.027110464            3 
  479000    1.0577659   -7.5448953    151.37736  0.026335658  0.027089598            1 
  480000    1.0599242   -7.5518304    152.09606  0.026405566  0.027068333            1 
  481000    1.0393834   -7.5568156     152.2704  0.026380874  0.027046941            1 
  482000    1.0878429   -7.5380842    151.98906    0.0262775   0.02702509            1 
  483000    1.0498346   -7.5230546    152.42746  0.026298733  0.027003966            2 
  484000     1.071978   -7.5351812    153.04109  0.026350049  0.026982764            3 
  485000    1.0647146   -7.4993772    153.23838  0.026329619  0.026961885            1 
  486000    1.0640305   -7.5806448    152.79647  0.026199669  0.026940508            3 
  487000    1.0512056   -7.5965555     153.0069  0.026181879   0.02691902            4 
  488000    1.0442534   -7.5338688    153.52356  0.026216454   0.02689773            2 
  489000    1.0532678   -7.5666454    153.77775  0.026206161  0.026876533            2 
  490000    1.0566818   -7.5524726    154.02403  0.026194563  0.026856225            2 
  491000    1.0768302   -7.5179088    154.78786  0.026270851  0.026835817            1 
  492000    1.0509887   -7.5228555    154.61963  0.026188961  0.026815262            2 
  493000    1.0497269   -7.5009805    154.74574  0.026157157  0.026794594            2 
  494000    1.0548011   -7.5377677    155.13231  0.026169418  0.026774082            4 
  495000    1.0444659   -7.5381126    155.58973  0.026193557  0.026753408            5 
  496000    1.0643324   -7.5383378    155.62318  0.026146367  0.026732534            3 
  497000    1.0473447   -7.5872532    155.36287  0.026050112  0.026711797            3 
  498000    1.0744019   -7.5336185    155.94813  0.026095738  0.026690826            2 
  499000    1.0435859   -7.5190576    156.43173  0.026124204  0.026670096            1 
  500000    1.0490254   -7.5603587    156.22564  0.026037606  0.026649361            2 
  501000     1.048163   -7.5713239    156.36694  0.026009138  0.026628502            2 
  502000    1.0358652   -7.5310672    157.08478   0.02607649  0.026608046            2 
  503000    1.0504622   -7.5302288    156.70265  0.025961341  0.026587514            2 
  504000    1.0533299   -7.5444318    157.06553  0.025969829  0.026567038            2 
  505000    1.0598639   -7.5596433    157.19617  0.025939963  0.026546249            3 
  506000     1.061646   -7.5422438    157.42518  0.025926413   0.02652588            5 
  507000     1.059263   -7.5417525    157.69117  0.025918996  0.026506068            5 
  508000    1.0357942   -7.5512308    158.34109  0.025974588  0.026485776            1 
  509000    1.0527229   -7.5306555    158.22003  0.025903738  0.026465585       -1e+20 
  510000    1.0528478   -7.5537699    158.01026   0.02581867  0.026445246            1 
  511000    1.0832924   -7.5773991    158.09057  0.025781241  0.026424645            1 
  512000    1.0687442   -7.5735337    158.59226  0.025812542  0.026404063            2 
  513000     1.054269   -7.5428639    158.80448  0.025796699  0.026383725            2 
  514000    1.0482396   -7.5618687    159.47107  0.025854584  0.026363433            1 
  515000     1.049962   -7.5809234    159.71062  0.025843142   0.02634361            1 
  516000    1.0306014   -7.5690112    160.17744  0.025868449   0.02632354            5 
  517000     1.040729   -7.5800581    160.09716  0.025805474  0.026303706            1 
  518000    1.0413607   -7.5720794    160.23131  0.025777239  0.026283661            3 
  519000    1.0652624   -7.5827395    160.31959  0.025741746  0.026263596            3 
  520000    1.0130021   -7.5486581    160.50676  0.025722237  0.026243116            3 
  521000    1.0475949   -7.5783057    160.46206  0.025665717  0.026222725            1 
  522000    1.0593611   -7.6069337    160.67252  0.025650147  0.026202253            2 
  523000     1.031431   -7.5899992    161.28002    0.0256979   0.02618188            2 
  524000    1.0187855   -7.5933761    160.99613   0.02560371  0.026162121            2 
  525000    1.0443512   -7.5479069    161.86845  0.025693405  0.026142089            2 
  526000    1.0577674   -7.5605773    161.85481  0.025642397  0.026122581            1 
  527000    1.0200508   -7.5462838    162.35401  0.025672677  0.026102972            1 
  528000    1.0267425   -7.5907506    161.83622  0.025542333  0.026083301            4 
  529000    1.0561271   -7.5878156    162.20038  0.025551415  0.026063141            2 
  530000    1.0499336   -7.5798012    161.93615  0.025461659  0.026042674            1 
  531000    1.0415497   -7.5689239    162.31939  0.025473854  0.026021891            2 
  532000    1.0395046   -7.6129755    162.32627  0.025427048  0.026001357            2 
  533000    1.0481525   -7.5464002    163.27341  0.025527425  0.025980817            2 
  534000    1.0422356   -7.5568228     163.1566  0.025461391  0.025960676            1 
  535000    1.0470273   -7.6134684    163.37204  0.025447359  0.025940765            2 
  536000    1.0590491   -7.5359461    164.08261  0.025510356  0.025920898            1 
  537000    1.0472443   -7.5930405    163.83184  0.025423936  0.025900954            7 
  538000    1.0643906   -7.5877502    163.59573  0.025340107  0.025880876            2 
  539000    1.0404494   -7.5878493    164.27368   0.02539791  0.025860735            2 
  540000    1.0504576   -7.5496371     163.8438  0.025284536  0.025840342            2 
  541000    1.0254659   -7.6422639    163.71781  0.025218394   0.02582001            1 
  542000    1.0397258   -7.5877521      164.382  0.025273986  0.025799731            2 
  543000     1.059013   -7.5919533    164.61485  0.025263175  0.025779567            2 
  544000    1.0477976   -7.5568438    164.91854  0.025263257  0.025759274            2 
  545000    1.0444698   -7.6071911    165.62172  0.025324422  0.025738781            2 
  546000     1.030444   -7.5810298    165.51701  0.025262058   0.02571855            2 
  547000     1.040128   -7.5936671    165.41697  0.025200635  0.025698273            4 
  548000    1.0420413   -7.6036882    165.28047  0.025133892  0.025677939            1 
  549000    1.0461043   -7.6232745    165.33495  0.025096379   0.02565737            1 
  550000    1.0251613   -7.6303686     165.4638  0.025070272  0.025637192            1 
  551000     1.032731   -7.5844612    166.36202   0.02516062  0.025616733            1 
  552000    1.0431639   -7.5946236    166.56568  0.025145784  0.025596891            2 
  553000    1.0404838    -7.581162    166.62347  0.025109021   0.02557729            2 
  554000    1.0245513   -7.5604597    166.82184  0.025093537  0.025557529            3 
  555000    1.0426815   -7.5968118     166.9993  0.025074971    0.0255377            2 
  556000    1.0492295   -7.6004592    167.34516  0.025081708   0.02551817            2 
  557000    1.0415778   -7.5816257    168.07746  0.025146238   0.02549856            1 
  558000    1.0353775   -7.5938138      167.697  0.025044354  0.025478978            2 
  559000    1.0323457   -7.6509302    167.42044  0.024958325   0.02545939            1 
  560000    1.0071398   -7.6063275    167.96542  0.024994854  0.025439616            2 
  561000    1.0500013   -7.6266258    167.97437  0.024951629  0.025419436            2 
  562000    1.0770571   -7.5776555    168.57286  0.024995975  0.025399688            2 
  563000    1.0299851   -7.6206597    168.92895  0.025004284  0.025380014            1 
  564000    1.0344278   -7.5933033    169.10146   0.02498544   0.02536027            2 
  565000     1.030444   -7.5916405    168.99019  0.024924807  0.025340746            2 
  566000    1.0308889   -7.6172722    169.19391  0.024910764  0.025321168            2 
  567000    1.0172992   -7.6173859    168.74254  0.024800491  0.025301968            1 
  568000    1.0271636    -7.604158    169.63562  0.024887855    0.0252823            3 
  569000    1.0363086   -7.6188269    170.14985  0.024919428  0.025262927            6 
  570000    1.0233283   -7.6207666     170.1649  0.024877909   0.02524381            2 
  571000    1.0203115   -7.6142219    170.25114  0.024846927  0.025224619            1 
  572000    1.0547929   -7.6335173    170.12552  0.024785186   0.02520531            2 
  573000    1.0177955   -7.6240597    170.39788  0.024781542  0.025186092            1 
  574000    1.0099329   -7.6588952    170.42057  0.024741662  0.025166785            1 
  575000    1.0378358   -7.6279589    170.91002  0.024769569   0.02514732            1 
  576000    1.0335886   -7.6642559    171.41624  0.024799803  0.025127908            1 
  577000    1.0199247    -7.625367    171.05172  0.024704177  0.025108286            1 
  578000    1.0280196   -7.6240819    171.65597  0.024748555  0.025088797            2 
  579000    1.0430579    -7.580268    171.49469  0.024682598   0.02506966            3 
  580000    1.0112166   -7.6109163    171.51902  0.024643537  0.025050804            2 
  581000      1.01886   -7.6447523    171.65817   0.02462108  0.025031538            1 
  582000    1.0242802   -7.6477782    172.11394  0.024644035  0.025012409            2 
  583000    1.0439227   -7.6659064    172.37225  0.024638686  0.024993252            2 
  584000    1.0144982   -7.6399934    172.74275  0.024649365  0.024973975            1 
  585000    1.0405816   -7.6364663    172.46022  0.024566983  0.024954747            2 
  586000    1.0366334   -7.6159407    173.42466   0.02466221  0.024935899            2 
  587000    1.0240857   -7.6438401    173.17397  0.024584607  0.024917416            1 
  588000    1.0246339   -7.6431344    173.36636  0.024570063  0.024898514            2 
  589000    1.0212116   -7.6108035    173.63454  0.024566291  0.024879639            3 
  590000    1.0190173   -7.6399724     173.6435  0.024525918  0.024860873            1 
  591000    1.0065329   -7.6172937    173.81386   0.02450844  0.024841897            1 
  592000    1.0085725   -7.6433406    173.95861  0.024487416  0.024822927            3 
  593000    1.0158821    -7.678638    173.67478  0.024406236  0.024804079            1 
  594000    1.0144756   -7.6464395     173.4459  0.024333039  0.024784855            4 
  595000    1.0152719   -7.6451999    173.83355  0.024346436  0.024765413            4 
  596000    1.0186572   -7.6296749    174.64849  0.024419531  0.024746236            1 
  597000    1.0171988   -7.6389144    174.58447  0.024369692  0.024727191            2 
  598000    1.0043175   -7.6278015    174.89833  0.024372677  0.024708351            3 
  599000   0.99728998   -7.6503725    174.71416  0.024306366  0.024689464            2 
  600000    1.0261833    -7.641849    175.15577  0.024327191  0.024670231            2 
  601000    1.0238275   -7.6773494    174.60269  0.024210023  0.024650885            1 
  602000    1.0237841    -7.661669     175.4155  0.024282323  0.024631541            2 
  603000    1.0203197   -7.6991701    174.80433  0.024157591  0.024611633            2 
  604000    1.0054161   -7.6795004    174.92652  0.024134453  0.024591833            4 
  605000    0.9996722   -7.6673246    175.52097  0.024176442  0.024572345            1 
  606000    1.0286179   -7.6540335     175.3033  0.024106615  0.024552635            1 
  607000    1.0402421   -7.6633122    175.67212  0.024117535  0.024532841            3 
  608000    1.0170839   -7.6582053    176.19628  0.024149709   0.02451325            1 
  609000    0.9922329   -7.6467214    176.45487   0.02414544  0.024493977            3 
  610000   0.99568643   -7.6374884    177.12404  0.024197273  0.024475093            2 
  611000    1.0062557   -7.6810508    176.59137  0.024085021   0.02445595            1 
  612000    1.0143693   -7.6617215     176.8916  0.024086547  0.024436507            2 
  613000    1.0307973   -7.6686048    177.36245  0.024111262   0.02441722            3 
  614000    1.0057657   -7.6557306    177.59069  0.024102971   0.02439786            3 
  615000    1.0105328    -7.695763    177.11745  0.023999655  0.024379054            3 
  616000    1.0159025   -7.6368585    177.58981  0.024024596  0.024359907            2 
  617000    1.0046628   -7.6569431     178.1187  0.024057091   0.02434112            5 
  618000    1.0050902   -7.6770592    177.72698  0.023965342    0.0243221            2 
  619000    1.0165031   -7.6627725    178.27635  0.024000586  0.024302777            1 
  620000   0.99229343   -7.6842763     177.3632   0.02383914  0.024283715            7 
  621000   0.99709104   -7.6713899    178.03793  0.023891294  0.024263993            1 
  622000     1.027771   -7.6749082    178.23916  0.023879844  0.024244385            3 
  623000    1.0078158   -7.6883417    178.42498   0.02386637  0.024224941            1 
  624000   0.99429849    -7.669574    178.64209  0.023857117  0.024205734            2 
  625000    1.0108331   -7.6639498    178.91099  0.023854799   0.02418645            3 
  626000     1.015505   -7.6670981    178.96242  0.023823538  0.024167144            1 
  627000    1.0048646   -7.7207498    179.00027  0.023790573    0.0241477            4 
  628000    1.0090655   -7.6709241    179.13077  0.023770007  0.024128065            1 
  629000    1.0097415   -7.6724745    179.54148  0.023786629  0.024108681            2 
  630000    1.0068283   -7.6523251    179.71681  0.023772065  0.024089213            3 
  631000   0.99724275   -7.6518838    180.08962  0.023783627  0.024069828            2 
  632000    1.0085035   -7.6803365    179.84372   0.02371357  0.024050134            1 
  633000    1.0027966   -7.7148253    179.53514  0.023635485  0.024030553            2 
  634000    1.0113753   -7.7023929     180.3379   0.02370372  0.024010661            3 
  635000    1.0053797   -7.6562687    180.27156  0.023657685  0.023991211            1 
  636000    1.0245785   -7.6740336    180.46052  0.023645247   0.02397163            1 
  637000    1.0077774   -7.7017323    180.05162  0.023554634  0.023951989            2 
  638000   0.98932846   -7.7082771     179.9742  0.023507602  0.023932272            3 
  639000    1.0122361   -7.6756943    180.50705  0.023540304  0.023912569            1 
  640000   0.99630482   -7.7126219    180.78937  0.023540283  0.023892799            1 
  641000     1.020621   -7.6542617    180.95159  0.023524648  0.023873069            1 
  642000   0.99863201   -7.6730277    180.77743  0.023465399  0.023853479            2 
  643000   0.97760127   -7.6576797    181.09692  0.023470311  0.023833834            1 
  644000    1.0005587   -7.6662293    181.35453  0.023467201    0.0238142            3 
  645000   0.99725929   -7.6768727    181.57745  0.023459618  0.023794321            2 
  646000   0.97966459   -7.7028185    181.15555  0.023368879  0.023774262            1 
  647000   0.97047281   -7.6761749    181.78707    0.0234141  0.023754662            2 
  648000    1.0077986   -7.7180537    181.51294  0.023342714  0.023734749            1 
  649000   0.97560045   -7.7285382    181.29408  0.023278644  0.023714583            3 
  650000   0.98424046   -7.7051237    181.57731  0.023279143  0.023694364            6 
  651000    1.0001932   -7.7160292    181.67928  0.023256436  0.023674182            1 
  652000    1.0023956   -7.6964962    181.89443  0.023248266  0.023654104            2 
  653000   0.97681755   -7.7364983    182.54644   0.02329587  0.023634018            1 
  654000    0.9646826   -7.7368197    182.34844  0.023235021  0.023614056            3 
  655000   0.99187121    -7.681182    182.72227  0.023247108  0.023594241            5 
  656000   0.97088611   -7.6845002    182.78785  0.023220001  0.023574391            3 
  657000     1.020909   -7.6931447    183.04945   0.02321784  0.023554579            2 
  658000    1.0046827   -7.6746575    183.00989  0.023177544  0.023534832            1 
  659000   0.98909537   -7.7127569    183.64095  0.023222174   0.02351537            1 
  660000   0.99604594   -7.6943376    183.81639  0.023209141  0.023496145            1 
  661000    1.0042085   -7.6974428    183.98798   0.02319566   0.02347666            1 
  662000    1.0094273   -7.6790962    183.67405  0.023121104  0.023457372            2 
  663000   0.98306226   -7.6731016    183.49584  0.023063831  0.023437718            8 
  664000   0.96968028   -7.7044969    183.52431   0.02303267  0.023417868            1 
  665000    0.9941867   -7.6809636      183.995  0.023057018  0.023398096            3 
  666000   0.99994119   -7.6867408    184.13428  0.023039825  0.023378468            4 
  667000   0.98245359    -7.735997    184.40964  0.023039685  0.023358876            1 
  668000   0.98864466   -7.7168756    184.23451  0.022983348  0.023339477            2 
  669000   0.97155763   -7.7075113    185.45372  0.023100862  0.023320024            4 
  670000   0.99973255   -7.7286959    185.17177  0.023031315  0.023300736            2 
  671000    1.0043104   -7.7168327    185.23106  0.023004354  0.023281634            2 
  672000   0.98941015   -7.7080659    185.67201  0.023024802  0.023262352            2 
  673000   0.99101632   -7.7441473    185.88723   0.02301724  0.023243444            2 
  674000   0.97674828    -7.713586    185.78531  0.022970488  0.023224882            1 
  675000   0.98796763   -7.6991878    186.78483  0.023059855  0.023206195            2 
  676000   0.99192941   -7.7233552    186.33366  0.022970125  0.023187717            2 
  677000   0.98688757   -7.7351783    186.72392  0.022984235  0.023169157            1 
  678000    1.0009186   -7.7272407     186.9531  0.022978504  0.023150798            2 
  679000   0.96819423   -7.7408631    186.89922  0.022938048  0.023132437            3 
  680000   0.97041301   -7.7349278    187.60993  0.022991413  0.023114184            1 
  681000   0.97251964   -7.7056326    187.38199  0.022929759  0.023096211            3 
  682000   0.99882627   -7.7373187    187.97712  0.022968857  0.023078429            1 
  683000    0.9740764   -7.7650383    187.58714  0.022887646  0.023060353            5 
  684000   0.96176025   -7.7573734    188.28439  0.022939131  0.023042292            1 
  685000    1.0084882   -7.7397277    188.38687  0.022918111  0.023024686            3 
  686000   0.98211068   -7.7734488    188.71129  0.022924112  0.023006862            2 
  687000   0.98391873   -7.7111253    188.83033  0.022905183  0.022989158            1 
  688000    0.9889906   -7.7372699    188.44319  0.022824999  0.022971578            2 
  689000   0.97307638   -7.7252606    189.13134  0.022875101  0.022953785            2 
  690000   0.98073247    -7.695682    189.23987  0.022855056  0.022936008            2 
  691000   0.98569377   -7.7232874    189.39896  0.022841167  0.022918188            1 
  692000   0.95315407   -7.7853963    188.93948  0.022752827  0.022900407            3 
  693000    1.0001692   -7.7354313    189.34126  0.022768309  0.022882526            2 
  694000   0.97232618   -7.7640734    189.83728  0.022795063  0.022864869            1 
  695000     0.968279   -7.7875276    189.17709  0.022683104  0.022847136            3 
  696000   0.96472171   -7.7585145    190.05578  0.022755721  0.022829145            2 
  697000   0.98244568   -7.7585228    190.15878  0.022735387  0.022811167            3 
  698000   0.99263848   -7.7208507    190.03329  0.022687833  0.022793414            2 
  699000   0.97182603   -7.7612119    189.61754  0.022605811  0.022775396            2 
  700000   0.98187342   -7.7195387    190.59181  0.022689501  0.022757608            1 
  701000   0.97577951   -7.7509959    189.88151  0.022572695  0.022739689            2 
  702000   0.97483742   -7.7373324    190.95218  0.022667638  0.022721796            3 
  703000   0.96391165   -7.7472443    190.77943  0.022614916  0.022704113            2 
  704000   0.96911406   -7.7344011     191.2643  0.022640186  0.022686455            2 
  705000    0.9640892   -7.7926385    190.95881  0.022571963  0.022668777            5 
  706000   0.98119008   -7.7411788    190.83522  0.022525404  0.022651113            2 
  707000    0.9800484   -7.7903299    191.20842  0.022537531  0.022633373            3 
  708000   0.97264455   -7.7613332    190.79081  0.022456545  0.022615508            2 
  709000   0.97854707   -7.7419529    192.01604  0.022568881  0.022597936            5 
  710000    0.9738922   -7.7596193    192.08649  0.022545363  0.022580579            2 
  711000   0.94589897   -7.7703517    191.86146  0.022487278  0.022562902            3 
  712000   0.99607678   -7.7519025    192.33383  0.022510982  0.022545415            1 
  713000   0.96780894   -7.7157233    193.05076  0.022563203  0.022528135            1 
  714000   0.96949985   -7.7576899    192.54128  0.022472138  0.022510847            3 
  715000   0.97625444      -7.7343    193.02683  0.022497299  0.022493806            1 
  716000   0.97420025   -7.7892226    192.36847  0.022389253  0.022476739            2 
  717000   0.96333903   -7.7581389    193.31952  0.022468564  0.022459533            3 
  718000   0.97181199   -7.6976785    193.49457  0.022457587  0.022442379            2 
  719000   0.98090082   -7.7731994    193.48212   0.02242491  0.022425344            2 
  720000   0.98558988   -7.7744209     193.3246  0.022375532  0.022408236            1 
  721000   0.95910832   -7.7352457    193.92785  0.022414222  0.022391428            1 
  722000   0.96184747   -7.7897982    193.66037  0.022352305  0.022374576            2 
  723000   0.96190603   -7.8123467    194.04394    0.0223656  0.022357791            3 
  724000   0.97164635   -7.8146808    194.01533  0.022331414  0.022341073            2 
  725000   0.94880046   -7.7970817    194.35632  0.022339807  0.022324277            1 
  726000   0.93133981   -7.7692756    194.31975  0.022304838  0.022307369            2 
  727000    0.9616818   -7.8148286    194.42816  0.022286584  0.022290492            3 
  728000   0.96645096   -7.7588168    194.44406  0.022257791  0.022273731            2 
  729000   0.95898766   -7.7563336    194.92577  0.022282324  0.022256931            2 
  730000   0.96527768   -7.7954738    194.78716  0.022235977  0.022240116            1 
  731000   0.98714494   -7.8057842    194.95355  0.022224527  0.022223078            3 
  732000    0.9647949   -7.7833979    195.50856   0.02225735  0.022206096            2 
  733000   0.92880188   -7.7915459    194.98412  0.022167363  0.022189243            1 
  734000   0.97147978   -7.7966697    195.09692  0.022149968  0.022172156            2 
  735000    0.9538499   -7.7762712    195.49109  0.022164522  0.022155059            2 
  736000   0.94203447   -7.7688662    195.48873   0.02213414   0.02213798            2 
  737000   0.96149833   -7.8086567    195.19813  0.022071249  0.022121096            5 
  738000   0.97261343   -7.8173106    195.41511  0.022065843     0.022104            1 
  739000   0.97155567   -7.7724877    195.64217  0.022061588     0.022087            2 
  740000   0.94744571   -7.7523859    195.94054  0.022065376   0.02207005            2 
  741000   0.95418239   -7.7899603    195.50136  0.021986208  0.022052882            2 
  742000   0.93612956    -7.777053    196.10752  0.022024655    0.0220358            2 
  743000   0.97520261   -7.7942944    196.47486  0.022036212    0.0220189            4 
  744000   0.96324566    -7.779178    196.07929  0.021962286  0.022001933            1 
  745000   0.95440882   -7.8190639    196.57558   0.02198832  0.021984947            3 
  746000   0.94220024   -7.7957051    196.21674   0.02191876  0.021968069            4 
  747000    0.9666064   -7.8139029    196.22049  0.021889836  0.021950923            1 
  748000   0.95769094   -7.7485708    197.12731  0.021961599  0.021933803            3 
  749000   0.95573766   -7.8163871    196.54344  0.021867316  0.021916892            2 
  750000   0.96467774   -7.8248685    196.66102  0.021851224  0.021899746            1 
  751000   0.96514148   -7.8170471    197.07902  0.021868511  0.021882518            1 
  752000   0.96770447   -7.7850392    197.30129  0.021864062  0.021865354            1 
  753000   0.95658325   -7.8231767    197.85793  0.021896628  0.021848261            4 
  754000   0.95293884   -7.8099368    197.65865  0.021845562  0.021831358            4 
  755000    0.9569382   -7.8039648    197.00985  0.021745016  0.021814375            3 
  756000   0.95096568   -7.7965349    197.79731  0.021803055  0.021797357            2 
  757000    0.9645347   -7.7878761     197.9469   0.02179072   0.02178021            3 
  758000   0.94941788   -7.7881603    198.12839  0.021781925   0.02176303            4 
  759000   0.96651012   -7.8340332     198.3154  0.021773759  0.021746132            1 
  760000    0.9391572   -7.7877825    198.36036  0.021750039   0.02172903            3 
  761000   0.95245101   -7.8298545    198.16354  0.021699906  0.021711843            1 
  762000   0.94879787   -7.8334199    198.56167  0.021714968  0.021694601            1 
  763000   0.96981689   -7.8084401    198.60867  0.021691641  0.021677508            2 
  764000   0.91809619   -7.8035194    198.75229  0.021678914  0.021660608            4 
  765000   0.97242925   -7.7849307    198.98795  0.021676247  0.021643559            3 
  766000    0.9516127   -7.8260636     198.7115  0.021617874  0.021626368            2 
  767000   0.94337395   -7.8170135    198.57879  0.021575271  0.021609149            3 
  768000    0.9350496   -7.8276532    198.83881  0.021575392  0.021592022            1 
  769000   0.93472432   -7.8628613    198.60823  0.021522349  0.021574803            3 
  770000    0.9580525   -7.7926972    199.46163  0.021586757   0.02155781            3 
  771000   0.96271935   -7.8874202    199.17859  0.021528166  0.021540889            3 
  772000   0.94105013   -7.8216713     199.8184  0.021569344  0.021524045            3 
  773000    0.9519814   -7.8208184     199.4121  0.021497639   0.02150748            1 
  774000   0.94190856   -7.8292853    200.49915  0.021586902  0.021490829            2 
  775000     0.933688   -7.8245933    200.04293  0.021509993  0.021474267            3 
  776000   0.95275268   -7.8227732    200.17333  0.021496277  0.021457627            1 
  777000   0.92682678   -7.8320348    200.56832  0.021510974  0.021441105            3 
  778000   0.92573467   -7.8753979    200.33602  0.021458443  0.021424561            2 
  779000   0.94269736   -7.8846748    199.49894   0.02134135  0.021407729            4 
  780000   0.96063484   -7.8194462    201.04849  0.021479539   0.02139108            3 
  781000   0.93804976    -7.814374    200.70714  0.021415615  0.021374418            2 
  782000   0.94844844   -7.8208835     200.7589  0.021393745  0.021357711            2 
  783000   0.94441267   -7.8205178     201.7974  0.021476947    0.0213413            1 
  784000   0.94533793   -7.8074165    200.60645  0.021322964  0.021324753            1 
  785000   0.91697574   -7.8699487     200.4583  0.021280075  0.021307924            2 
  786000   0.94540833   -7.8415103    201.38156  0.021350886  0.021291073            3 
  787000   0.93126823   -7.8424895     201.6476  0.021351928  0.021274587            1 
  788000   0.95304378   -7.8335792    201.82457  0.021343545   0.02125827            2 
  789000   0.94274244   -7.8517881    201.53432  0.021285838  0.021241932            2 
  790000   0.92000689   -7.8554186    201.76406  0.021283129  0.021225449            2 
  791000   0.93905152     -7.84292    201.79946  0.021259952  0.021208909            4 
  792000   0.94978676   -7.9052183      201.915  0.021245265   0.02119235            2 
  793000   0.93498387   -7.8015909    202.63559  0.021294198  0.021175824            2 
  794000   0.93533527   -7.8529836    202.47916  0.021250961  0.021159454            3 
  795000   0.93297667    -7.868569    202.08708  0.021183132  0.021143096            2 
  796000   0.95289068   -7.8340827    202.34216  0.021183225  0.021126692            3 
  797000   0.92040277   -7.8522317     202.8505  0.021209797  0.021110313            4 
  798000   0.93828407   -7.8225395    203.29758  0.021229906  0.021093902            4 
  799000    0.9208437   -7.8537619    203.03578   0.02117603  0.021077499            2 
  800000   0.92879785   -7.8542115    202.92722  0.021138252  0.021061096            1 
  801000   0.92984023   -7.8634701    202.96138  0.021115416  0.021044611            2 
  802000   0.93418697    -7.845379    203.91114  0.021187775  0.021028197            1 
  803000   0.91932043   -7.8786541    203.20752  0.021088369  0.021011815            9 
  804000   0.91388151   -7.8626154    203.12751  0.021053846  0.020995468            2 
  805000   0.93010824   -7.8390665    203.52686  0.021069033  0.020979133            8 
  806000    0.9143116   -7.8873769    203.57304  0.021047667  0.020962805            1 
  807000   0.94553788   -7.8553205    203.76342  0.021041246   0.02094658            1 
  808000   0.91793702   -7.8478424    204.24722  0.021065101  0.020930414            1 
  809000    0.9237658   -7.8911764    203.79202  0.020992173  0.020914262            2 
  810000   0.91299393   -7.8914967    203.94976  0.020982485  0.020898151            2 
  811000   0.93782056   -7.8851254     204.1337  0.020975514  0.020882323            3 
  812000   0.94797283   -7.8718184    204.86083  0.021024305  0.020866386            2 
  813000   0.93432664   -7.8681534     204.7368  0.020985732   0.02085043            1 
  814000    0.9369225   -7.8254215    204.95255  0.020982039   0.02083456            1 
  815000   0.93980289   -7.8737102    204.75426  0.020936018  0.020818728            3 
  816000   0.95580866   -7.8736124     205.4563  0.020982057  0.020802842            1 
  817000   0.91788051   -7.8578313    205.97839  0.021009627  0.020787101            4 
  818000   0.93511691   -7.8355716    205.53949  0.020939231  0.020771424            1 
  819000    0.9262221   -7.8068755    206.02869   0.02096344  0.020755894            2 
  820000   0.94169098   -7.8550146    205.82077  0.020916745  0.020740267            2 
  821000   0.91324382   -7.8834674    205.66856  0.020875818  0.020724349            2 
  822000   0.93241383   -7.8721896    205.85866  0.020869694  0.020708538            3 
  823000   0.91374159    -7.853995    206.78974  0.020938613  0.020692852            4 
  824000   0.93344523   -7.8833276    205.59942  0.020792822    0.0206771            4 
  825000   0.91772739   -7.8803989     206.0456  0.020812687  0.020661238            1 
  826000   0.90490489   -7.8638175    206.06554  0.020789501  0.020645431            2 
  827000   0.94306692   -7.9022945     206.0486  0.020762657  0.020629633            3 
  828000   0.92848826   -7.8878741    206.37458  0.020770389  0.020613807            2 
  829000   0.91681632   -7.9258057    206.01242  0.020708928  0.020597935            1 
  830000    0.9158384   -7.8802658    206.37141  0.020720021  0.020582053            3 
  831000   0.91731927   -7.8790382    207.18829  0.020777004  0.020566262            1 
  832000   0.90563561   -7.9017256    206.69935   0.02070306  0.020550352            3 
  833000   0.95835122   -7.9076714    206.52449  0.020660714  0.020534452            3 
  834000   0.90498819   -7.8855445    206.40869  0.020624369  0.020518529            3 
  835000   0.93251479   -7.9000782    206.61851   0.02062061  0.020502612            4 
  836000   0.92017771   -7.8972259    206.89716   0.02062372   0.02048674            2 
  837000   0.91899868   -7.8728235    207.10245  0.020619519  0.020470913            1 
  838000   0.90653208   -7.8851573    207.44808  0.020629284   0.02045517            2 
  839000   0.92282613   -7.8943273    207.28244  0.020588244  0.020439491            2 
  840000   0.90412197   -7.8979821    207.60616  0.020595849  0.020423844            1 
  841000   0.91689046   -7.8803876    207.84564   0.02059509  0.020408186            4 
  842000   0.90453464   -7.9313757    207.42766  0.020529261  0.020392404            3 
  843000   0.90546601   -7.8920587     207.9442  0.020555971  0.020376654            4 
  844000   0.89761018   -7.8997954    208.01339  0.020538447  0.020361044            3 
  845000   0.90051215   -7.8578838     208.9009  0.020601666  0.020345451            1 
  846000   0.90431043   -7.8903987    208.27923  0.020516079  0.020329912            3 
  847000   0.92015368   -7.9510941      208.066  0.020470878  0.020314272            3 
  848000   0.93194339   -7.9189593    207.86115  0.020426606  0.020298552            4 
  849000    0.9263571   -7.9057678    208.15711  0.020431597  0.020282865            1 
  850000   0.91000189   -7.9132523    208.74213  0.020464914  0.020267318            1 
  851000    0.9195277   -7.9099232    208.80586  0.020447107  0.020251734            1 
  852000   0.90688103   -7.8482224    209.46678  0.020487752  0.020236139            2 
  853000   0.93369428   -7.9199837    208.68302  0.020387164  0.020220811            4 
  854000   0.89786792   -7.9106028    209.08975  0.020402981  0.020205309            1 
  855000   0.91561404    -7.898876    209.17108  0.020387045  0.020189878            2 
  856000   0.89863154   -7.8823389    209.52116  0.020397309  0.020174428            2 
  857000   0.89952275    -7.904124    209.59011  0.020380213  0.020159063            2 
  858000    0.9210428   -7.9037018    209.62519  0.020359867  0.020143642            2 
  859000   0.90491538   -7.8944681    209.32937  0.020307467  0.020128183            1 
  860000   0.91331808   -7.8827424    210.32958  0.020380774  0.020112741            2 
  861000   0.89688635   -7.8807754    209.93863  0.020319264  0.020097359            3 
  862000   0.91600942   -7.8794664      210.289  0.020329563  0.020081848            2 
  863000   0.90309424   -7.9167545    209.78431  0.020257272  0.020066326            3 
  864000   0.92083245   -7.9250836    210.29909  0.020283477  0.020050827            4 
  865000   0.91324045    -7.899112    210.47334  0.020276815  0.020035413            1 
  866000   0.91078325    -7.900101    210.69794  0.020275013  0.020020018            3 
  867000   0.91101224   -7.8932527    210.26818  0.020210321  0.020004598            2 
  868000   0.91728266    -7.905223    210.22183  0.020182587  0.019989209            3 
  869000   0.90245117    -7.909981     210.7141  0.020206569  0.019973704            2 
  870000   0.90271821   -7.9314721     210.5366  0.020166341   0.01995826            3 
  871000   0.89739416   -7.9285345    210.39576  0.020129712  0.019942664            1 
  872000   0.91371709   -7.9444727    210.83019  0.020148145  0.019927163            4 
  873000   0.91024537   -7.9028753    211.12513   0.02015322  0.019911924            2 
  874000   0.91309572   -7.8854766    211.31552  0.020148315  0.019896733            1 
  875000   0.91890958   -7.9502846    210.75263  0.020071679  0.019881398            1 
  876000   0.88897326    -7.935115    210.94211  0.020066791  0.019866008            3 
  877000   0.91770257   -7.9339352     211.4994  0.020096864  0.019850629            3 
  878000   0.89409838    -7.945391     210.8971  0.020016809  0.019835067            2 
  879000    0.9126013   -7.9154921    211.46368  0.020047751  0.019819662            1 
  880000   0.88675906   -7.9455123     211.4784  0.020026364  0.019804226            2 
  881000   0.88445002   -7.9347748    211.27961  0.019984829  0.019788781            3 
  882000   0.89469715   -7.9861246    211.02163  0.019937796  0.019773175            2 
  883000   0.90704861   -7.9862035    210.89136  0.019902922  0.019757734            1 
  884000   0.90975628   -7.9184325    212.10718  0.019995021  0.019742412            2 
  885000   0.88366563   -7.9101295    212.06141  0.019968118  0.019727137            2 
  886000   0.89660946   -7.9620521      211.461  0.019889109  0.019711857            2 
  887000   0.91791212   -7.9214177     212.5127  0.019965492  0.019696553            3 
  888000   0.90183015   -7.9489824    212.33674  0.019926496  0.019681187            2 
  889000   0.91041908   -7.9806907    212.02256   0.01987463  0.019665824            3 
  890000   0.87709108    -7.916198    212.96073  0.019940144  0.019650539            6 
  891000   0.90226645   -7.9238606    212.56811  0.019881043  0.019635285            4 
  892000    0.8915583   -7.9468499    212.62189  0.019863779  0.019620077            2 
  893000   0.89371255   -7.9457228     212.6744  0.019846435  0.019604856            2 
  894000   0.89114483    -7.965633    212.24736  0.019784429  0.019589698            2 
  895000   0.88617312    -7.991906    212.92816  0.019825714  0.019574427            1 
  896000   0.87254019   -7.9446065    213.22609  0.019831296  0.019559159            5 
  897000   0.90253285    -7.955996    212.95233  0.019783754  0.019543956            3 
  898000   0.88506351   -7.9809865    213.06549  0.019772224  0.019528734            5 
  899000   0.86428748   -7.9769158     213.3108   0.01977297  0.019513559            2 
  900000   0.89638089   -7.9973903    212.80488  0.019704156  0.019498275            2 
  901000   0.88379611   -7.9596335    213.56833  0.019752898  0.019483196            3 
  902000   0.88939046   -7.9555475    213.46809  0.019721738  0.019468249            2 
  903000   0.87825857   -7.9465164    213.45827  0.019698991  0.019453179            2 
  904000   0.87765244   -7.9441625    213.52744  0.019683576  0.019438269            2 
  905000   0.90324977    -7.959756    213.45304  0.019654976  0.019423365            3 
  906000   0.90757686   -7.9513677    213.65321  0.019651693  0.019408288            3 
  907000   0.89720802    -7.966711    214.08579  0.019669771  0.019393267            1 
  908000    0.8909965   -7.9416954    214.12336  0.019651556  0.019378212            3 
  909000   0.89323144   -7.9627201    214.41368  0.019656553  0.019363107            2 
  910000   0.87261853   -7.9496707     215.1708  0.019704286   0.01934811            1 
  911000    0.8858683   -8.0113202    213.91351  0.019567646  0.019333087            2 
  912000   0.89598748   -7.9854473    214.63636   0.01961224   0.01931804            4 
  913000    0.8987961   -7.9993493    213.60385  0.019496518  0.019302997            2 
  914000   0.88378202   -7.9821003    214.19735  0.019529299  0.019288075            1 
  915000    0.8847192    -7.980944    214.88761  0.019570821  0.019273223            1 
  916000   0.87785479   -7.9552272    214.91308  0.019551772  0.019258305            2 
  917000   0.88606487   -7.9495497    215.21526  0.019557912  0.019243482            2 
  918000   0.87075654   -7.9834217    214.93225  0.019510916  0.019228609            1 
  919000    0.8693517    -7.960039     214.9549  0.019491739  0.019213659            3 
  920000   0.86737111   -7.9991786    215.61192  0.019530065  0.019198684            3 
  921000   0.88880904    -8.020056    214.72544   0.01942865  0.019183683            2 
  922000   0.89178165   -8.0055309    214.59883  0.019396134  0.019168663            2 
  923000   0.88552164   -7.9560345    215.26825  0.019435559  0.019153797            3 
  924000   0.88677103   -8.0004853    215.29013  0.019416498   0.01913895            5 
  925000   0.88876628   -7.9559679    216.07652  0.019466354  0.019124069            2 
  926000   0.86839224   -7.9783837    215.62872  0.019405033  0.019109282            2 
  927000   0.88544127   -7.9603254    216.06142  0.019422997  0.019094647            2 
  928000   0.88275352    -7.961174    216.54018  0.019445059  0.019080166            3 
  929000   0.89395051   -7.9754594     215.6561  0.019344824   0.01906573            1 
  930000   0.88653243   -7.9853947    216.46814  0.019396787  0.019051377            2 
  931000   0.89511845   -7.9633699    216.69163  0.019395957  0.019037067            3 
  932000   0.91184197   -7.9393365    216.99601  0.019402362  0.019022712            3 
  933000   0.86561121   -7.9674458     216.7615   0.01936062  0.019008381            2 
  934000   0.88986703   -7.9596923    217.20192  0.019379186  0.018993973            6 
  935000   0.88868498   -7.9817777    216.76424  0.019319451    0.0189796            4 
  936000   0.86487726   -7.9937897    216.68931  0.019292139  0.018965028            5 
  937000   0.88311133   -7.9898077    217.23553  0.019320129  0.018950511            2 
  938000    0.8897473   -7.9833899    216.93786  0.019273086  0.018936141            1 
  939000   0.88539415   -7.9972715    217.01386  0.019259306  0.018921638            2 
  940000   0.87588791   -7.9666874    217.20154  0.019255456  0.018907043            2 
  941000   0.87505326   -7.9958931    217.46027  0.019257906  0.018892589            2 
  942000   0.87339277   -7.9747846    217.60974  0.019250685  0.018878036            2 
  943000   0.88019334   -7.9811435    217.39278  0.019211098  0.018863585            1 
  944000   0.89448912   -7.9801182    217.18426   0.01917234  0.018849213            4 
  945000   0.86690027   -7.9740698    217.93374  0.019218143  0.018834817            4 
  946000   0.87788456   -7.9965934    217.85219  0.019190644    0.0188204            2 
  947000     0.880619   -7.9859412    217.26143  0.019118394  0.018806083            1 
  948000   0.88172952   -8.0316526       217.06  0.019080521  0.018791547            1 
  949000   0.88617596   -8.0304733    217.67447  0.019114372  0.018776888            1 
  950000   0.85919865   -7.9932039    217.76537  0.019102226  0.018762329            2 
  951000   0.88905897   -8.0260268     217.4911  0.019058105  0.018747808            4 
  952000   0.89577257   -8.0205265    218.17515  0.019097965  0.018733236            7 
  953000   0.87644523   -7.9890742    217.80372  0.019045446  0.018718829            4 
  954000   0.86750177   -8.0309371    217.95805  0.019038963  0.018704448            4 
  955000   0.87210203   -8.0463618    218.88274  0.019099715  0.018690063            6 
  956000   0.89062611    -7.981016    218.71658  0.019065253  0.018675678            1 
  957000   0.87754422   -8.0416301    218.36905  0.019015069  0.018661353            1 
  958000   0.86968093   -8.0574322    218.60236  0.019015515  0.018647097            5 
  959000   0.86287463   -8.0336342    219.33423  0.019059283  0.018632833            2 
  960000   0.85662869   -7.9644808    218.95632  0.019006625  0.018618671            2 
  961000   0.86991418   -7.9980044    219.56869  0.019039949  0.018604593            7 
  962000   0.87139105   -7.9853656    219.63561  0.019025954  0.018590581            2 
  963000   0.88537177   -8.0190812    218.84661   0.01893792  0.018576416            4 
  964000    0.8636243   -8.0083614    218.55373  0.018892958  0.018562126            6 
  965000   0.87211344   -8.0267246     218.9433  0.018907021  0.018547816            1 
  966000   0.88528011   -8.0326609    218.81263  0.018876176  0.018533456            2 
  967000   0.85875608   -8.0209387    219.16514  0.018887034  0.018519064            3 
  968000   0.85881784   -8.0177454    219.58368  0.018903553  0.018504646            1 
  969000   0.87316421   -8.0360399    219.50685  0.018877438   0.01849035            4 
  970000   0.88596719   -8.0607419    219.29348  0.018839646  0.018476017            2 
  971000   0.84967673   -8.0238036    219.41536  0.018830704   0.01846173            2 
  972000   0.83703268   -8.0136079    219.94007  0.018856316  0.018447584            2 
  973000    0.8710444   -8.0477981    219.71974  0.018818066  0.018433302            4 
  974000   0.87720093   -8.0622579    219.69701  0.018796801  0.018418902            3 
  975000   0.85338981   -8.0325038    219.32795  0.018745978  0.018404498            2 
  976000   0.84737204   -8.0577701    219.64969  0.018754243  0.018390116            2 
  977000   0.88174287   -8.0592754     219.5691  0.018728173  0.018375691            3 
  978000   0.85303601   -8.0580243    219.57457   0.01870949  0.018361324            4 
  979000   0.86481449   -8.0609741    219.89747  0.018717865  0.018346986            2 
  980000   0.86548068   -8.0627213    219.96264  0.018704306  0.018332612            2 
  981000    0.8571242   -8.0303553    220.54913  0.018735061  0.018318383            2 
  982000   0.87088963     -8.04719    220.00662  0.018669944  0.018304121            4 
  983000   0.85663795   -8.0384644    220.17174  0.018664949  0.018289886            2 
  984000   0.85674401   -8.0550887    220.13664  0.018643008  0.018275429            5 
  985000   0.86447786   -8.0389137    220.08043  0.018619326  0.018261014            4 
  986000   0.86615652   -8.0747594    219.64147  0.018563343  0.018246635            1 
  987000   0.86210948   -8.0717823     219.8169  0.018559346  0.018232185            2 
  988000   0.85723846   -8.0518511    220.09539  0.018564051  0.018217768            3 
  989000   0.85475345   -8.0353106    220.41949   0.01857259  0.018203274            1 
  990000   0.86126221   -8.0410905     220.2811   0.01854218  0.018188839            2 
  991000   0.85761774   -8.0500393     220.0346  0.018502742  0.018174406            3 
  992000   0.84337803   -8.0759344    220.07466  0.018487454  0.018160057            3 
  993000   0.84810962   -8.0805844     220.0887  0.018470015  0.018145577            3 
  994000   0.85552925   -8.0809342    220.30618  0.018469666    0.0181312            5 
  995000   0.83773501   -8.0599873    220.96532  0.018506308  0.018116927            1 
  996000   0.84948119   -8.0559667     220.4992  0.018448728  0.018102552            4 
  997000   0.84101576   -8.0708516    220.82055  0.018457084  0.018088258            4 
  998000   0.85265527   -8.0484472     221.5268  0.018497562   0.01807399            1 
  999000   0.85265759   -8.0550782      221.573  0.018482899   0.01805969            3 
 1000000   0.85946789   -8.0859217    220.86254  0.018405212  0.018045384            2 
 1001000   0.86477429   -8.0634265     221.1904   0.01841412  0.018030992            2 
 1002000   0.86507902   -8.0944625    220.17012  0.018310888   0.01801671            2 
 1003000   0.85644358   -8.0759676    220.70578  0.018337137   0.01800235            2 
 1004000    0.8546829   -8.0617636    220.67909  0.018316657  0.017988031            2 
 1005000   0.85976602     -8.05642    220.93304  0.018319489  0.017973609            3 
 1006000   0.85105442   -8.0781394    220.92345  0.018300484  0.017959224            3 
 1007000    0.8756008   -8.1115281    221.44431  0.018325415  0.017944776            2 
 1008000   0.86498951   -8.1157563    221.11712  0.018280185  0.017930321            3 
 1009000   0.84588972    -8.097347    221.74309  0.018313767  0.017915923            2 
 1010000   0.85344421    -8.087119    221.33576  0.018262026  0.017901635            7 
 1011000   0.85106988   -8.0997574    221.38014  0.018247621  0.017887221            2 
 1012000   0.82781145   -8.0716182    221.64358  0.018251283  0.017872815            5 
 1013000   0.83224281   -8.1070547    221.57708  0.018227795  0.017858514            4 
 1014000   0.84436841   -8.0528007    222.10652   0.01825333  0.017844309            3 
 1015000   0.86096016   -8.1152006     222.0673  0.018232127  0.017830141            3 
 1016000   0.84148808   -8.1067297     221.7144  0.018185237  0.017815986            3 
 1017000    0.8593554   -8.0797541    222.06857  0.018196376   0.01780181            3 
 1018000   0.86069296   -8.0858119    221.70221  0.018148511  0.017787628            4 
 1019000   0.83493451   -8.0766628    221.82349  0.018140619  0.017773442            3 
 1020000   0.84836642   -8.1009733    222.18957  0.018152743  0.017759305            5 
 1021000   0.84733254   -8.1085961      221.888  0.018110349   0.01774528            2 
 1022000   0.85714014   -8.0787692    222.42707  0.018136584  0.017731198            1 
 1023000   0.85649178   -8.0763068    222.81655  0.018150582  0.017717159            2 
 1024000   0.84032299   -8.0695041    223.00825  0.018148458   0.01770325            3 
 1025000   0.86067333   -8.0567168    222.97976  0.018128436  0.017689352            2 
 1026000   0.83946008   -8.0816162    223.15729  0.018125186  0.017675477            2 
 1027000   0.85516055   -8.1007911    222.69547  0.018070064  0.017661581            1 
 1028000   0.83542201   -8.0745831    223.01619  0.018078485  0.017647705            2 
 1029000   0.85641141   -8.0742608    222.64577  0.018030917  0.017633788            3 
 1030000   0.85262883   -8.0667671    222.98134  0.018040561  0.017619816            3 
 1031000   0.84125419   -8.0961657    223.04099  0.018027885  0.017605994            2 
 1032000   0.83360335   -8.1244787    222.52568  0.017968805   0.01759206            2 
 1033000     0.832409   -8.0913347    223.37321  0.018019781  0.017578113            3 
 1034000   0.84851713   -8.0837079    223.06234    0.0179773  0.017564286            4 
 1035000   0.84037831   -8.1364213    223.15446  0.017967348  0.017550392            7 
 1036000   0.83534257   -8.1090963    223.77064  0.017999569  0.017536555            4 
 1037000   0.84053647   -8.0635229    223.82119  0.017986273  0.017522788            3 
 1038000   0.82672117   -8.0897644    222.79291  0.017886393   0.01750891            3 
 1039000   0.84403788   -8.1056456    223.50981  0.017926677   0.01749505            2 
 1040000   0.83953501   -8.0854977    224.07104   0.01795441  0.017481265            2 
 1041000   0.85626498   -8.0886249    224.65098  0.017983588  0.017467611            1 
 1042000   0.84392404   -8.1193703    223.57704  0.017880441  0.017453899            3 
 1043000   0.84438195   -8.1369013    223.38783  0.017848181  0.017440203            2 
 1044000   0.84363064   -8.1126929    223.42069  0.017833708  0.017426292            1 
 1045000   0.83468927   -8.1206009    223.66143  0.017835839  0.017412412            1 
 1046000   0.83868812   -8.1271897     223.9884  0.017844838  0.017398551            3 
 1047000   0.84905022   -8.1138744    224.06867  0.017834183  0.017384743            2 
 1048000   0.85201167   -8.1278685    223.66188  0.017784819  0.017370948           11 
 1049000   0.83218785   -8.1286905    223.94261  0.017790166  0.017357103            1 
 1050000   0.81434521   -8.1257317      224.119  0.017787222  0.017343267            1 
 1051000   0.83081161   -8.1516996    223.44865  0.017717147  0.017329476            1 
 1052000   0.81575522   -8.1286248    224.49479  0.017783174  0.017315721            2 
 1053000   0.83997513   -8.1125506    224.28632  0.017749788  0.017302034            2 
 1054000   0.84365622   -8.1285716    224.34911  0.017737912  0.017288295            2 
 1055000   0.82060987   -8.1045054    224.27603  0.017715326  0.017274548            2 
 1056000   0.81910915   -8.1215529    224.37277  0.017706185  0.017260844            3 
 1057000   0.83803314    -8.109707    224.54375  0.017702913  0.017247117            2 
 1058000   0.83017785   -8.1565073     223.8779  0.017633735  0.017233354            3 
 1059000   0.83819934    -8.140115    224.54914  0.017669904  0.017219551            1 
 1060000   0.82165363   -8.1167593    223.91809  0.017603623  0.017205751            6 
 1061000   0.84481736   -8.1373629    224.56665  0.017637971  0.017191903            2 
 1062000   0.84310609   -8.1480701    224.46354  0.017613272   0.01717808            1 
 1063000   0.83357883    -8.132843    224.13087  0.017570623  0.017164185            2 
 1064000   0.82387163   -8.1553988    224.07014  0.017549353  0.017150259            1 
 1065000   0.80525941   -8.1526169    224.32144  0.017552538   0.01713638            3 
 1066000   0.81308037   -8.1367755    224.19563  0.017526237  0.017122612            2 
 1067000   0.84060487   -8.1519899    225.05022  0.017576556   0.01710888            2 
 1068000   0.81313442   -8.1097551    225.12539  0.017565963  0.017095207            1 
 1069000   0.83997546   -8.1579526    224.24618  0.017480993  0.017081486            3 
 1070000    0.8121392   -8.1263659    224.62003  0.017493772  0.017067735            4 
 1071000   0.84677556   -8.1287275    225.38209  0.017536733  0.017054013            1 
 1072000   0.82829126   -8.1248883    225.22503  0.017508164  0.017040288            2 
 1073000   0.84477124   -8.2018212     224.4003  0.017427796  0.017026543            4 
 1074000   0.83116975   -8.1299291    224.74046  0.017437963  0.017012811            2 
 1075000   0.84556839   -8.1341568      225.019  0.017443333   0.01699919            5 
 1076000   0.82290123   -8.1727765    225.18084  0.017439656  0.016985533            3 
 1077000   0.82432463   -8.1749404    225.43296  0.017442971  0.016971891            2 
 1078000   0.82218072   -8.1514528    225.63139   0.01744213  0.016958317            3 
 1079000   0.81378472   -8.1188777     225.3014  0.017400479  0.016944785            1 
 1080000   0.83430474   -8.1606625    225.54873  0.017403451  0.016931186            2 
 1081000   0.84020741   -8.1264625    225.66899  0.017396623  0.016917679            3 
 1082000   0.79737681   -8.1263109    225.59383  0.017374756  0.016904189            3 
 1083000   0.81662083    -8.141388    225.88003  0.017380735  0.016890711            3 
 1084000   0.83482021   -8.1476183    226.05964  0.017378509  0.016877232            5 
 1085000   0.82243811   -8.1979296    224.86432  0.017270685    0.0168636            1 
 1086000    0.8044061   -8.1447866    225.26259  0.017285343  0.016850022            3 
 1087000   0.81363145   -8.1231141    226.45394  0.017360774  0.016836553            2 
 1088000   0.81833661   -8.1391058     226.2904  0.017332291  0.016823118            3 
 1089000   0.81643935   -8.1663404    226.16547  0.017306816  0.016809695            2 
 1090000   0.83331661   -8.1489621    225.95349  0.017274732  0.016796141            2 
 1091000   0.82879281   -8.1825556    225.72242  0.017241248  0.016782611            3 
 1092000   0.80812259   -8.1562584    225.84662  0.017234937  0.016769076            3 
 1093000     0.817476   -8.1503725    225.71674  0.017209267  0.016755615            3 
 1094000   0.82373816   -8.1510834    226.07283   0.01722066  0.016742175            3 
 1095000   0.83539034   -8.1479006    226.09419  0.017206559  0.016728762            1 
 1096000    0.8305472   -8.1803199    226.06008  0.017188266  0.016715282            7 
 1097000   0.80996481   -8.1654216     226.2477  0.017186851  0.016701866            4 
 1098000   0.81211976   -8.1347563    226.94644  0.017224229  0.016688476            3 
 1099000   0.81053638   -8.1631386    226.39596  0.017166815  0.016675068            3 
 1100000   0.80712796   -8.1660016    226.26179  0.017141045   0.01666164            3 
 1101000   0.81142472   -8.1592011    226.72516  0.017160548  0.016648244            4 
 1102000   0.82175222   -8.1878351    226.16482  0.017102603  0.016634816            2 
 1103000   0.80721894   -8.1709025    226.44155  0.017108004  0.016621328            1 
 1104000   0.81618443   -8.1548981    226.37249  0.017087296  0.016607854            1 
 1105000    0.8210089   -8.1632863    226.92028  0.017113144   0.01659443            2 
 1106000     0.812167   -8.1912208    226.37644  0.017056694  0.016580975            6 
 1107000   0.79880349   -8.1795306    226.59663  0.017057861  0.016567498            2 
 1108000    0.8162552   -8.2013598    225.77476  0.016980653  0.016554002            2 
 1109000   0.82255032   -8.1810685    226.91796  0.017051245  0.016540477            3 
 1110000   0.81559325   -8.1653519     227.0403  0.017045068  0.016526994            1 
 1111000   0.80517173   -8.1888767    226.37041  0.016979479  0.016513529            1 
 1112000   0.82435569   -8.1888349    226.72249  0.016990594  0.016500022            2 
 1113000    0.7965873   -8.1879066    226.67704  0.016971926  0.016486557            3 
 1114000   0.82514296   -8.1697718     226.6133  0.016951923  0.016473111            4 
 1115000   0.81408189   -8.1879258    227.03884  0.016968523  0.016459679            1 
 1116000   0.79579834   -8.1851566     226.6076  0.016921117   0.01644631            2 
 1117000   0.79768424   -8.1693816    226.95169  0.016931639  0.016433018            4 
 1118000   0.82498618   -8.2059644    227.41566  0.016951078  0.016419812            3 
 1119000   0.80049993   -8.1616611    227.63808  0.016952493    0.0164066            2 
 1120000   0.79492112   -8.2049347     227.1247  0.016899159  0.016393345            2 
 1121000   0.80132044   -8.2073238    227.16914  0.016887388  0.016380157            3 
 1122000   0.81268123   -8.1772467    227.19495  0.016874254  0.016367038            1 
 1123000   0.79342285   -8.1768684    227.89247  0.016910988  0.016353956            2 
 1124000   0.78925153    -8.175636    228.01776  0.016905231  0.016340803            5 
 1125000   0.78485448   -8.2122687    227.68504  0.016865558  0.016327627            3 
 1126000   0.80575394   -8.2057862     227.6781  0.016850066  0.016314394            4 
 1127000   0.78830928   -8.1941237    227.58601  0.016828306  0.016301249            3 
 1128000   0.79723174   -8.2018173    227.62941  0.016816594   0.01628806            3 
 1129000   0.78744639   -8.1781451     227.7079  0.016807492  0.016274926            4 
 1130000   0.79831037   -8.1869305    227.76406  0.016796759    0.0162618            2 
 1131000    0.7914473   -8.2064876    227.44134   0.01675813  0.016248719            2 
 1132000   0.80027431   -8.2005387    227.56617  0.016752515  0.016235577            5 
 1133000   0.78579356   -8.1818929    227.88023  0.016760829  0.016222501            1 
 1134000   0.80079754   -8.2051546    228.22881  0.016771665  0.016209439            4 
 1135000   0.79265019   -8.2269142     227.4488  0.016699618  0.016196359            2 
 1136000    0.7798672   -8.1889444    228.48169  0.016760687  0.016183294            2 
 1137000   0.79204578   -8.2310306    227.70795  0.016689237  0.016170238            2 
 1138000   0.81325921   -8.1946006    227.89709  0.016688422    0.0161572            1 
 1139000   0.79827668    -8.156986    228.91068  0.016747928  0.016144254            3 
 1140000   0.80048883   -8.1850018    228.12356  0.016675699   0.01613141            2 
 1141000   0.78237456   -8.2129892    228.63981  0.016698788  0.016118519            2 
 1142000   0.79925102   -8.2459145    227.95648  0.016634302  0.016105542            3 
 1143000   0.79465495   -8.2220609    228.29059  0.016644108   0.01609257            1 
 1144000   0.80440917    -8.187915    229.13904  0.016691364  0.016079653            3 
 1145000    0.8051541    -8.250586    228.00274  0.016594086  0.016066755            1 
 1146000   0.80792618   -8.2315795    228.35446  0.016605182  0.016053824            2 
 1147000   0.78747805    -8.229542    228.42003  0.016595469  0.016040832            2 
 1148000   0.80157999   -8.2201862    227.98059  0.016549114  0.016027829            3 
 1149000   0.79099716   -8.2147691    228.86134  0.016598589  0.016014835            8 
 1150000   0.78095968    -8.219104     228.7452  0.016575739  0.016001916            1 
 1151000   0.78715878   -8.2323221    228.91186  0.016573404  0.015989009            1 
 1152000    0.7858938   -8.2275159    228.66077  0.016540854  0.015976128            6 
 1153000   0.78833757   -8.2530848    228.43334  0.016510071  0.015963208            1 
 1154000   0.79592893    -8.255232    228.39997  0.016493354  0.015950109            3 
 1155000   0.77519362    -8.259003    228.06541  0.016454936  0.015937037            5 
 1156000   0.76861642   -8.2862772    228.43539  0.016467372  0.015924076            2 
 1157000   0.78277008   -8.2507804    229.01995  0.016495242  0.015911125            2 
 1158000    0.7876475   -8.2407803    228.43775  0.016439101  0.015898152            1 
 1159000   0.77692942   -8.2391202    229.04182  0.016468351  0.015885171            3 
 1160000   0.78872455   -8.2597693     229.1114  0.016459152  0.015872282            2 
 1161000   0.78874236   -8.2811751    228.64003  0.016411142  0.015859312            1 
 1162000    0.7965325   -8.2407581    228.73907  0.016404121  0.015846352            2 
 1163000   0.80373481   -8.2452617    228.87694  0.016399895   0.01583346            2 
 1164000   0.79523079   -8.2336988    229.35142  0.016419775   0.01582064            6 
 1165000   0.78697925   -8.2199129    229.39811  0.016409021  0.015807862            2 
 1166000   0.78741646   -8.2429308    229.09693  0.016373422  0.015795147            3 
 1167000   0.78076595   -8.2382564    229.11503  0.016360684  0.015782363            7 
 1168000   0.77727776   -8.2449428    228.97325  0.016336562  0.015769588            5 
 1169000     0.796262   -8.2469509    229.60211  0.016367416   0.01575687            6 
 1170000   0.79037311   -8.2517547    229.58452  0.016352173  0.015744116            3 
 1171000   0.79809156    -8.247856    229.24697  0.016314188  0.015731364            3 
 1172000   0.77701595   -8.2353296    229.42539  0.016312955   0.01571865            4 
 1173000   0.78606771    -8.246755    229.51183  0.016305188  0.015705974            2 
 1174000   0.77904465   -8.2513229    230.02404  0.016327658  0.015693321            2 
 1175000   0.76948815   -8.2551216    229.65806  0.016287805  0.015680739            1 
 1176000   0.78373779   -8.2380959     229.8711  0.016289052  0.015668148            2 
 1177000     0.784198    -8.234853    229.85329  0.016273952  0.015655573            1 
 1178000   0.79500062   -8.2396421    230.03793  0.016273198  0.015642948            2 
 1179000   0.76364153   -8.2862398    229.33024  0.016209375  0.015630256            3 
 1180000   0.77639477   -8.2320527    229.90194  0.016236012  0.015617539            4 
 1181000   0.78353652   -8.2896146    229.42097  0.016188327  0.015604865            2 
 1182000   0.79457137   -8.2194383    230.38012  0.016242254  0.015592275            5 
 1183000   0.79128049   -8.2536417    229.83789  0.016190328   0.01557971            2 
 1184000   0.76366878   -8.2523505    229.96748  0.016185774  0.015567081            2 
 1185000   0.78674876   -8.2635751    229.97057  0.016172333  0.015554453            4 
 1186000   0.76530549   -8.2777392    229.57588  0.016130964  0.015541738            2 
 1187000    0.7891632   -8.2622994    229.68873  0.016125297  0.015529062            2 
 1188000    0.7775579   -8.2801513     229.6012  0.016105583  0.015516353            4 
 1189000   0.77276149     -8.25637    230.20372  0.016134267  0.015503714            3 
 1190000   0.77410726   -8.2743118    230.17329  0.016118578  0.015491129            2 
 1191000   0.78456752   -8.2750935     229.9019  0.016086055  0.015478541            3 
 1192000    0.7780912   -8.2851138    229.34661   0.01603374  0.015465899            3 
 1193000   0.79264522   -8.2742528    229.95494  0.016062792  0.015453275            3 
 1194000   0.78296299   -8.2503968    230.74336  0.016104366  0.015440665            2 
 1195000   0.77370179   -8.2622199    230.15547  0.016049893    0.0154281            4 
 1196000   0.78205066   -8.2838636    229.93779  0.016021307  0.015415562            1 
 1197000   0.78264925   -8.2603505    229.80768  0.015998864  0.015403001            2 
 1198000   0.78081535   -8.2772029    230.33913  0.016022477  0.015390449            2 
 1199000   0.78042746   -8.2976212    229.99681  0.015985322  0.015377855            2 
 1200000   0.75825941   -8.2987689    229.50089  0.015937562  0.015365251            3 
 1201000   0.76911334   -8.2776337    229.87562  0.015950293  0.015352582            2 
 1202000   0.78372497   -8.3166147     229.8102  0.015932487  0.015339937            2 
 1203000   0.76987665   -8.3324358    229.69716  0.015911413    0.0153273            1 
 1204000   0.77369365   -8.3182952    229.49727  0.015884363  0.015314654            4 
 1205000   0.77529124   -8.2927646    229.29386  0.015857113  0.015302066            2 
 1206000   0.77884854   -8.3117924    229.72988  0.015874094  0.015289436            2 
 1207000    0.7635605   -8.3000443    230.34641  0.015903508   0.01527676            2 
 1208000   0.78323674   -8.2831919    230.18938   0.01587951  0.015264096            2 
 1209000   0.77949537   -8.2783711    230.52312  0.015889379  0.015251504            2 
 1210000    0.7822401   -8.3052269    230.06511  0.015844705  0.015238935            1 
 1211000   0.78369767   -8.3120183    230.35071  0.015851274  0.015226354            2 
 1212000    0.7793199    -8.318426     230.2636  0.015832206  0.015213764            3 
 1213000   0.76250455   -8.2846584    230.34992  0.015825084  0.015201156            3 
 1214000   0.79181271   -8.3080604    229.78347  0.015773165  0.015188568            2 
 1215000   0.76661193   -8.3081743    229.70596  0.015754867  0.015175958            5 
 1216000   0.76320054   -8.3398443    229.43811  0.015723554   0.01516327            5 
 1217000   0.75389327   -8.3080344    230.06062  0.015753261  0.015150619            3 
 1218000   0.76649503   -8.3217447    230.27212  0.015754798  0.015138029            2 
 1219000   0.76641323   -8.3359444    229.95792  0.015720394  0.015125404            2 
 1220000   0.78050892   -8.3204127    230.04047  0.015713147  0.015112775            2 
 1221000   0.76718238   -8.2958852    230.39792  0.015724674  0.015100172            3 
 1222000   0.77595622   -8.3393891    229.94654  0.015681024  0.015087539            2 
 1223000   0.76198078   -8.3404982    229.55653  0.015641628  0.015074936            2 
 1224000   0.78806173   -8.2671195     230.4303  0.015688337  0.015062347            2 
 1225000   0.77588038   -8.3380995    229.54904  0.015615581  0.015049781            2 
 1226000   0.76737989   -8.3351772    229.59015  0.015605639  0.015037238            3 
 1227000   0.75142872   -8.3185124    230.44265  0.015650819  0.015024742            2 
 1228000   0.75546525   -8.3286454    230.67029  0.015653521   0.01501218            2 
 1229000   0.76000951   -8.3242934    229.61129  0.015568978  0.014999607            2 
 1230000   0.76469229   -8.3532824     229.7329   0.01556456  0.014986982            2 
 1231000   0.75348338   -8.3294848    230.43731  0.015599601  0.014974382            1 
 1232000   0.74825642   -8.3390024    230.26214  0.015575091  0.014961799            2 
 1233000   0.75229308    -8.345331    230.09006  0.015550828  0.014949178            2 
 1234000   0.75867177   -8.3273484    229.77498  0.015516949  0.014936561            2 
 1235000   0.75278152   -8.3340514    230.20193  0.015533194   0.01492386            1 
 1236000   0.75782289   -8.3320868    230.40082  0.015534036  0.014911264            3 
 1237000   0.77737063   -8.3526349    230.04183  0.015497294  0.014898671            5 
 1238000   0.77326151   -8.3563529     229.8339  0.015470779  0.014886098            7 
 1239000   0.75555576   -8.3597566    229.71001  0.015449961  0.014873502            2 
 1240000   0.76479312   -8.3572631     230.0526  0.015460524  0.014860895            2 
 1241000   0.76825227   -8.4013437    229.56434  0.015415279  0.014848291            4 
 1242000   0.75337386   -8.3438862      230.107  0.015439278  0.014835697            4 
 1243000    0.7541784   -8.3601627    229.67032  0.015397581  0.014823115            6 
 1244000   0.76389747   -8.3431988    229.60905  0.015381099  0.014810574            4 
 1245000   0.75570765   -8.3548242    230.18692  0.015407424   0.01479804            2 
 1246000   0.76748466   -8.3652552    230.07625  0.015387657  0.014785502            1 
 1247000    0.7515636   -8.3532617    230.13545  0.015379274  0.014772945            2 
 1248000   0.76863928   -8.3418407    230.17403  0.015369526  0.014760414            2 
 1249000   0.76444611    -8.356889    230.57669  0.015384087  0.014747884            4 
 1250000   0.75359391   -8.3604246    230.36503  0.015357669  0.014735358            3 
 1251000   0.76839042   -8.3644516    229.83577  0.015310136  0.014722812            1 
 1252000   0.75804873   -8.3708602    229.85977  0.015299506  0.014710278            4 
 1253000   0.74950888   -8.3622368    229.88269   0.01528882  0.014697766            3 
 1254000   0.76272337   -8.3692697    230.02737  0.015286242  0.014685244            4 
 1255000   0.76670698   -8.3374857    229.98896  0.015271511  0.014672715            7 
 1256000   0.75850533   -8.3798008    229.72316  0.015241717  0.014660164            3 
 1257000   0.74635863   -8.3855451    229.96451  0.015245592  0.014647591            2 
 1258000   0.75593461   -8.3599789    229.81801  0.015223768  0.014635043            3 
 1259000   0.74161842   -8.3436622    230.20162  0.015237068  0.014622571            1 
 1260000   0.74347066   -8.3374991    230.69963  0.015257912  0.014610144            2 
 1261000   0.74790441   -8.3777124    230.25907  0.015216698  0.014597715            3 
 1262000   0.71837922   -8.3737532    230.53525  0.015222877  0.014585271            3 
 1263000   0.75218645   -8.3672048    230.30479  0.015195618  0.014572855            6 
 1264000   0.75143047   -8.3402697    230.83084  0.015218278  0.014560498            3 
 1265000   0.74739368   -8.3344477    230.55637  0.015188167  0.014548162            2 
 1266000   0.74313759   -8.3608599      230.388  0.015165087   0.01453581            3 
 1267000   0.76301655   -8.3771987    230.03373  0.015129817  0.014523503            3 
 1268000    0.7756317   -8.3707594     230.5519  0.015151939  0.014511209            2 
 1269000   0.76099064   -8.3436523    230.56057  0.015140568  0.014498881            5 
 1270000   0.74397507     -8.37414    230.80919   0.01514496  0.014486549            2 
 1271000   0.73364289   -8.3459316    231.12819  0.015153959  0.014474253            2 
 1272000   0.73968373    -8.381505    230.50115  0.015100966  0.014461962            2 
 1273000   0.73561936    -8.374148    230.34088  0.015078612  0.014449668            1 
 1274000   0.75361774   -8.3454105    231.27717   0.01512802  0.014437447            2 
 1275000   0.74282631   -8.3871257    230.44686  0.015061886  0.014425253            2 
 1276000   0.75036712   -8.3886177    230.01172  0.015021664  0.014413018            2 
 1277000   0.75680392   -8.4016743    230.39507  0.015034917  0.014400776            4 
 1278000   0.73550948   -8.3503953    230.47371  0.015028281   0.01438851            4 
 1279000   0.74201798   -8.3717966    230.31303  0.015006061  0.014376277            4 
 1280000   0.75152959   -8.4027948    230.21532  0.014987977  0.014364029            3 
 1281000   0.77021957   -8.4025946    230.42323  0.014989802  0.014351765            2 
 1282000   0.73558866   -8.3855754    230.30779  0.014970605  0.014339479            2 
 1283000   0.73852046   -8.3569598    230.45078  0.014968224  0.014327239            2 
 1284000   0.74392878   -8.3808055    230.42931  0.014955173  0.014314966            3 
 1285000   0.73871743   -8.3989261    230.45791   0.01494539  0.014302734            1 
 1286000   0.74936473   -8.4255947    230.53065  0.014938482    0.0142905            1 
 1287000   0.74359502   -8.4032202    230.40231  0.014918565  0.014278276            2 
 1288000   0.73437521   -8.3693991    230.66823  0.014924187  0.014266092            1 
 1289000   0.74054903   -8.3625472    231.20149  0.014947084  0.014253916            3 
 1290000   0.73407924   -8.3651795    230.91831  0.014917203  0.014241778            3 
 1291000   0.72940824   -8.3851766    230.97347  0.014909209  0.014229662            4 
 1292000   0.74050038   -8.3859667    231.22537  0.014913917  0.014217567            3 
 1293000   0.73772978   -8.3708496    231.29581  0.014906923   0.01420544            3 
 1294000   0.72405755   -8.3828768     230.8911   0.01486934  0.014193322            2 
 1295000   0.75119995   -8.3796779    231.20573  0.014878104  0.014181227            2 
 1296000   0.73201505    -8.402203     231.0343  0.014855601   0.01416915            1 
 1297000   0.74734541   -8.4028356    230.54886  0.014812957  0.014157071            2 
 1298000   0.74145144   -8.3911957    231.42417   0.01485774  0.014144999            3 
 1299000   0.73139798   -8.3774681    230.79644  0.014806033  0.014132958            1 
 1300000   0.72305031   -8.3957249    230.64375  0.014784856  0.014120898            2 
 1301000   0.71868319    -8.409248    231.05477  0.014799818   0.01410889            3 
 1302000   0.72069322   -8.4256176    230.65355  0.014762772  0.014096846            1 
 1303000   0.73149818   -8.4008471     230.9848  0.014772627  0.014084791            4 
 1304000   0.73189749   -8.4278106    230.66416  0.014740808  0.014072716            2 
 1305000   0.73409572   -8.4152551    230.89689  0.014744373  0.014060673            1 
 1306000   0.72805864   -8.4415945    231.02962  0.014741553  0.014048682            5 
 1307000   0.73359932   -8.4013739     231.0335  0.014730522  0.014036628            5 
 1308000   0.74107283   -8.4227086    231.42619  0.014744278  0.014024656            2 
 1309000   0.72000562   -8.3994484    231.46554  0.014735519   0.01401273            4 
 1310000   0.72464322   -8.4107923    231.18121  0.014706184  0.014000768            2 
 1311000   0.73415062   -8.4184197     230.9334  0.014679214  0.013988828            1 
 1312000   0.73480215   -8.4372363    231.19737  0.014684792  0.013976941            2 
 1313000   0.71947463   -8.3986084    231.67709  0.014704055  0.013965056            4 
 1314000   0.74457109   -8.4506442    230.71028   0.01463155  0.013953173            2 
 1315000   0.72438306   -8.4308319    230.86377   0.01463015  0.013941274            4 
 1316000   0.75060049   -8.4353084    231.50644  0.014659729  0.013929385            3 
 1317000   0.73395965   -8.4580412    231.45003  0.014645028  0.013917523            3 
 1318000   0.74563968   -8.4397047    231.43739  0.014633118   0.01390566            4 
 1319000   0.73312102   -8.4345424    231.28792   0.01461258  0.013893853            3 
 1320000   0.74041759   -8.4176421    230.84356  0.014573457  0.013882005            3 
 1321000   0.72421628   -8.4357428    230.90711  0.014566434  0.013870141            2 
 1322000   0.72490313   -8.4355393    230.78258  0.014547566  0.013858303            2 
 1323000   0.73209961   -8.4498286    231.30046   0.01456919  0.013846468            5 
 1324000   0.74640781   -8.4559715    231.66246   0.01458097  0.013834659            4 
 1325000   0.72749652   -8.4050022    231.20697  0.014541319  0.013822848            2 
 1326000   0.73110521    -8.446051    231.25084   0.01453311  0.013811016            2 
 1327000    0.7243874   -8.4654308    231.22389  0.014520465  0.013799201            1 
 1328000   0.71904471   -8.4338857    231.33391  0.014516435  0.013787365            3 
 1329000   0.71852088   -8.4747568    230.99037  0.014483971  0.013775568            3 
 1330000   0.72264379   -8.4567679    230.77501  0.014459587  0.013763747            3 
 1331000   0.74505714   -8.4478339    231.53333  0.014496201  0.013751963            3 
 1332000   0.72537707   -8.4468551    231.33282  0.014472774  0.013740195            2 
 1333000    0.7146527   -8.4219193    231.29538  0.014459576  0.013728466            4 
 1334000   0.71975623   -8.4462404    231.76998  0.014478385  0.013716768            2 
 1335000    0.7207495   -8.4388923     231.1272  0.014427416  0.013705069            1 
 1336000   0.71924841   -8.4270009    231.86007   0.01446233  0.013693327            1 
 1337000   0.72307331   -8.4241106    231.46711   0.01442702   0.01368164            3 
 1338000    0.7187513   -8.4494403    231.12677   0.01439504  0.013669967            7 
 1339000   0.72457785    -8.465921    231.14865  0.014385652  0.013658257            1 
 1340000   0.72763298   -8.4628372    231.19546  0.014377827  0.013646552            1 
 1341000   0.72571489   -8.4623288    231.53832  0.014388411  0.013634855            2 
 1342000   0.70481228   -8.4596523    231.14122  0.014353032  0.013623155           11 
 1343000   0.73714531   -8.4443172    231.56009  0.014368335  0.013611489            4 
 1344000    0.7320306   -8.4547599    231.65718  0.014363665  0.013599849            5 
 1345000   0.73168059   -8.4775076    231.55067  0.014346386  0.013588197            3 
 1346000    0.7062808   -8.4389411    231.39898  0.014326336  0.013576558            3 
 1347000   0.71885089   -8.4766885    231.57725  0.014326729  0.013564908            3 
 1348000   0.71072121    -8.432298    231.62963  0.014319339  0.013553286            2 
 1349000   0.71820102   -8.4884022    231.41821  0.014295664  0.013541656            7 
 1350000   0.69790902   -8.4666415    231.51651  0.014291143   0.01352999            2 
 1351000   0.70939594   -8.4645394    231.24379  0.014263742  0.013518337            2 
 1352000   0.71084603   -8.4658597    230.97392  0.014236558  0.013506684            6 
 1353000   0.70376626   -8.4328925    231.03711  0.014229928  0.013495048            4 
 1354000   0.72636779   -8.4826343     230.9303  0.014212845  0.013483405            3 
 1355000   0.71002138   -8.4778471    230.70687  0.014188614  0.013471745            3 
 1356000    0.7065455   -8.4427626    231.17449  0.014206889  0.013460128           13 
 1357000   0.72977026   -8.4694158    231.50481  0.014216704  0.013448511            2 
 1358000   0.71961203   -8.5064028    230.87334  0.014167485  0.013436892            3 
 1359000   0.72054432   -8.4665952    231.29834  0.014183121  0.013425285            6 
 1360000   0.70525001   -8.4724403    231.03885  0.014156792  0.013413679            3 
 1361000   0.70128485   -8.4799303     231.3106  0.014163029  0.013402078            5 
 1362000   0.71929028   -8.5086394    231.47874  0.014162918  0.013390517            4 
 1363000   0.70236817   -8.4708466    231.25926  0.014139108  0.013378968            2 
 1364000   0.70575141   -8.5039362    231.06389  0.014116806  0.013367397            4 
 1365000   0.71988011   -8.4846349    231.25809  0.014118321  0.013355858            2 
 1366000   0.69851389   -8.4996347    230.97675  0.014090821  0.013344334            4 
 1367000   0.69708867   -8.4868083    231.04902   0.01408492  0.013332785            3 
 1368000   0.69608627    -8.484179    231.58809  0.014107462  0.013321261            2 
 1369000   0.70192802   -8.5049855    231.13858  0.014069794  0.013309776            2 
 1370000   0.69957761   -8.4864994    231.44879  0.014078394  0.013298333            3 
 1371000   0.71119698   -8.4567616    232.07032  0.014105903  0.013286937            1 
 1372000    0.7212496   -8.4685224    231.59737  0.014066896  0.013275568            2 
 1373000   0.69647905   -8.4809859    231.53419  0.014052816  0.013264176            2 
 1374000   0.69340498   -8.5061884    231.28144  0.014027259  0.013252795            4 
 1375000   0.72188131   -8.5075301    231.31812   0.01401928  0.013241369            3 
 1376000   0.69522363   -8.4900476    231.44285  0.014016646   0.01322993            2 
 1377000   0.70064466   -8.4738268    231.70974  0.014022618  0.013218522            6 
 1378000   0.69762995   -8.4759027    231.59418  0.014005453  0.013207159            7 
 1379000   0.71105078   -8.4983723    232.12795  0.014027553  0.013195796            4 
 1380000   0.70213012   -8.4785673    231.87103  0.014001874   0.01318443            2 
 1381000   0.68220346   -8.5091513    231.25679   0.01395467  0.013173047            5 
 1382000   0.70076031   -8.4940926     232.1514  0.013998517  0.013161703            5 
 1383000   0.71664376   -8.4813965    232.16038  0.013988936   0.01315038            3 
 1384000   0.69782704      -8.5306    231.86071  0.013960784  0.013139039            4 
 1385000   0.70661196   -8.5211986    231.27064  0.013915201  0.013127678            1 
 1386000   0.70479507   -8.5235811    231.59006  0.013924366  0.013116327            2 
 1387000   0.70993533   -8.4979923    232.09199  0.013944484  0.013105005            2 
 1388000   0.70118952   -8.5003741    231.60924  0.013905454  0.013093677            2 
 1389000     0.705044    -8.526973    231.69607  0.013900652  0.013082377            4 
 1390000   0.69596391   -8.4889973    231.82634  0.013898462  0.013071054            4 
 1391000   0.71180406   -8.5107844    231.65792   0.01387838  0.013059746            3 
 1392000   0.69189235   -8.5166117    231.82332  0.013878312  0.013048456            4 
 1393000   0.69587853   -8.5198984    231.51435  0.013849865  0.013037142            4 
 1394000   0.69903968   -8.5144869    231.70719  0.013851458   0.01302586            1 
 1395000   0.68178072   -8.4915646     231.5873  0.013834367  0.013014594            3 
 1396000   0.69795162   -8.5190511     231.5466  0.013822027  0.013003373            8 
 1397000   0.71220197   -8.4853744    231.64986  0.013818293  0.012992151            3 
 1398000   0.68536751   -8.5045124    232.25206  0.013844305  0.012980953            3 
 1399000   0.68868411   -8.5029521    232.03098   0.01382124   0.01296978            5 
 1400000   0.70434058    -8.512205    232.11742  0.013816513  0.012958597            3 
 1401000   0.70159236   -8.5577355    231.30289  0.013758202  0.012947418            2 
 1402000    0.6985853   -8.5058209    232.18192  0.013800637  0.012936265            1 
 1403000   0.67515171   -8.5210265    231.59352  0.013755852  0.012925151            2 
 1404000   0.69287784   -8.5160478    231.86462  0.013762145  0.012914033            2 
 1405000   0.68308982   -8.5104825    232.02183  0.013761675  0.012902922            1 
 1406000   0.68954859   -8.5220362    231.58168  0.013725799  0.012891842            1 
 1407000   0.68474094   -8.5072098    231.89767  0.013734759   0.01288076            2 
 1408000   0.68736446   -8.5321067    231.33903  0.013691941  0.012869634            3 
 1409000    0.6915399   -8.5518662     231.3183  0.013680997  0.012858478            1 
 1410000    0.6896768   -8.5611834    231.71045  0.013694471  0.012847342            3 
 1411000   0.69249911   -8.5430407     231.3245  0.013661971  0.012836199            2 
 1412000   0.68627593   -8.5325677     231.5711   0.01366685  0.012825057            3 
 1413000   0.67406098   -8.5514354    231.21907  0.013636416  0.012813913            3 
 1414000   0.68766194   -8.5255576    231.40417  0.013637681  0.012802779            4 
 1415000   0.68653695   -8.5377494    231.85114  0.013654366  0.012791667            2 
 1416000   0.69643353   -8.5414032    231.26542  0.013610253  0.012780548            3 
 1417000   0.68704775   -8.5466349    230.65287  0.013564624  0.012769439            1 
 1418000   0.68682375   -8.5410817    231.09819  0.013581229  0.012758312            2 
 1419000   0.69869507   -8.5365275    231.23716  0.013579819  0.012747216            6 
 1420000   0.69592238   -8.5514823    231.53829  0.013587928  0.012736123            2 
 1421000    0.6831059   -8.5415118    230.84449  0.013537678  0.012725045            2 
 1422000   0.68825705   -8.5322126    231.79026  0.013583583  0.012714007            2 
 1423000   0.69373026   -8.5455616     231.6848  0.013567861   0.01270297            2 
 1424000   0.67566628   -8.5311892    231.21441  0.013530806  0.012691924            3 
 1425000   0.70403139   -8.5234682     231.2965  0.013526111  0.012680877            5 
 1426000   0.68452361   -8.5645049    231.19631  0.013510771  0.012669861            3 
 1427000   0.68910643   -8.5290304     231.4546  0.013516386  0.012658864            4 
 1428000   0.69283526   -8.5477794     231.5864  0.013514612    0.0126479            2 
 1429000   0.69592756   -8.5506675    231.19888  0.013482557  0.012636894            2 
 1430000   0.68351763   -8.5460862    231.22311   0.01347454  0.012625894            1 
 1431000   0.67599145    -8.554826    231.27437  0.013468109  0.012614892            1 
 1432000   0.69399844   -8.5575243     231.1882   0.01345369  0.012603859            2 
 1433000   0.68259096   -8.5848517    230.95245  0.013430591  0.012592857            1 
 1434000   0.69221626   -8.5695762    231.19768  0.013435477  0.012581834            2 
 1435000   0.66932581   -8.5608715    231.23959  0.013428547  0.012570815            1 
 1436000   0.68046477    -8.580896    231.01417  0.013406115  0.012559813            2 
 1437000   0.68911613   -8.5626012    231.67784  0.013435272  0.012548845            3 
 1438000   0.66908963   -8.5831564    231.12174  0.013393703  0.012537844            1 
 1439000   0.67996262    -8.569172    231.08759  0.013382418  0.012526842            3 
 1440000   0.67234751   -8.5636912    230.88653  0.013361489  0.012515847            3 
 1441000   0.68238308   -8.5863011    231.10226  0.013364692  0.012504846            2 
 1442000   0.68358763   -8.5713155    230.81548  0.013338851  0.012493859            2 
 1443000   0.67351923   -8.6163907    230.95581  0.013337711  0.012482857            5 
 1444000   0.68663454   -8.5898593    230.84056  0.013321824  0.012471855            1 
 1445000   0.69599694   -8.5890774    230.69665  0.013304305  0.012460883            1 
 1446000   0.68533724   -8.5774177    230.64981  0.013292405  0.012449912            2 
 1447000   0.70208566    -8.559717    230.93117  0.013299423  0.012438968            1 
 1448000    0.6723393   -8.5517819    230.85628  0.013285928  0.012428045            3 
 1449000   0.69457945   -8.5695396    230.85076  0.013276441  0.012417156            4 
 1450000   0.68979741    -8.581599    230.19175  0.013229411  0.012406242            2 
 1451000    0.6638606   -8.5911486     230.3485  0.013229296  0.012395297            1 
 1452000   0.68120188    -8.573344    231.38516  0.013279681  0.012384396            1 
 1453000    0.6804657   -8.5584255     230.8407  0.013239315  0.012373507            3 
 1454000   0.69083546   -8.5808997    230.73801  0.013224324  0.012362621            1 
 1455000   0.67334956   -8.5965049    230.69998  0.013213057  0.012351746            1 
 1456000   0.67677557   -8.5698808    230.86343  0.013213337  0.012340848            1 
 1457000   0.66869477   -8.5749626    231.00872  0.013212578  0.012329976            6 
 1458000   0.66882918   -8.6136009    230.52058  0.013175616  0.012319104            2 
 1459000   0.66674789   -8.5902351    230.72843  0.013178457    0.0123082            3 
 1460000   0.66683332   -8.5977129    230.43001  0.013152398  0.012297337            4 
 1461000   0.66950273    -8.590135    230.51807  0.013148418  0.012286473            1 
 1462000   0.67430794   -8.5728117     231.2114  0.013178944  0.012275631            2 
 1463000   0.66081543    -8.610143    230.73363  0.013142722  0.012264801            4 
 1464000   0.65947159   -8.6029344    229.91707  0.013087265  0.012253937            3 
 1465000    0.6725698   -8.5917776    231.12729  0.013147172  0.012243086            1 
 1466000   0.66594116   -8.6051869    230.81549   0.01312048  0.012232272            2 
 1467000   0.66845095   -8.5907984    230.47653  0.013092282  0.012221469            6 
 1468000   0.68301776   -8.6225166    230.59887  0.013090308  0.012210648            6 
 1469000   0.66786243   -8.5899354    230.25244  0.013061745  0.012199846            3 
 1470000    0.6621578   -8.5858436    230.87774  0.013088307  0.012189042            6 
 1471000   0.66925598   -8.6114274    230.76179  0.013072841  0.012178245            3 
 1472000    0.6674434   -8.6050736    230.65684  0.013058019   0.01216747            2 
 1473000   0.66030268   -8.5971786    230.03265  0.013013841  0.012156711            2 
 1474000   0.67839745    -8.593392    230.88733  0.013053332  0.012145982            3 
 1475000   0.67611996   -8.6388498    230.13485  0.013001969  0.012135254            4 
 1476000   0.66950904   -8.6052082    230.90934  0.013036887  0.012124511            2 
 1477000   0.66144987   -8.5878588    231.04816  0.013035892  0.012113784            4 
 1478000    0.6611953   -8.6123448    230.17427  0.012977801  0.012103049            5 
 1479000    0.6520122   -8.6243865    230.40014  0.012981752  0.012092328            4 
 1480000   0.67144115   -8.5959404    230.93321  0.013002996  0.012081622            4 
 1481000    0.6571646   -8.6147905    230.00147  0.012941789   0.01207092            3 
 1482000   0.65835721   -8.6137059    230.49507  0.012960811  0.012060225            3 
 1483000   0.65747165   -8.6193268     230.4454  0.012949281  0.012049541            7 
 1484000   0.65962787   -8.6158451    230.50494  0.012943898  0.012038835            7 
 1485000    0.6409926    -8.615724    230.11119  0.012913086  0.012028141            6 
 1486000   0.66022673   -8.6053554    230.45957  0.012923933  0.012017468            1 
 1487000   0.67354217   -8.5972854    230.79201  0.012933872  0.012006835            3 
 1488000   0.65179409   -8.6130415    230.56761  0.012912613  0.011996184            3 
 1489000   0.66824959   -8.6220122    230.77462  0.012915526  0.011985546            2 
 1490000   0.65607815   -8.6231056    230.84369  0.012910721  0.011974936            3 
 1491000   0.65235755   -8.6036616    230.93043   0.01290691  0.011964316            5 
 1492000     0.666161   -8.6373145    230.11457  0.012852691  0.011953695            7 
 1493000   0.65269779   -8.6449155    230.29578  0.012854196  0.011943085            4 
 1494000    0.6541758   -8.6231632    230.21058   0.01284084  0.011932479            7 
 1495000    0.6473312   -8.6264572    230.30729  0.012837642    0.0119219            1 
 1496000   0.65958266   -8.6446519    230.34741  0.012831295  0.011911315            2 
 1497000   0.66535995    -8.618026     230.7423  0.012844706  0.011900719            7 
 1498000   0.64235831   -8.6498611     229.9676  0.012793035  0.011890139           20 
 1499000    0.6717013    -8.622057    230.25608  0.012800538  0.011879574            7 
 1500000   0.65405274   -8.6206634    230.34898  0.012797166  0.011869027            1 
 1501000    0.6444132   -8.6365276    230.03902  0.012771431  0.011858482            5 
 1502000   0.66099856   -8.6233373    230.40093  0.012783007  0.011847939            5 
 1503000   0.64554207   -8.6367795     230.5402  0.012782224   0.01183742            9 
 1504000   0.65725414   -8.6266186    230.15508  0.012752387  0.011826887            4 
 1505000   0.65601576   -8.6079354    230.58096  0.012767495  0.011816368            3 
 1506000   0.65146167    -8.631682    230.16365  0.012735926  0.011805873            7 
 1507000   0.64669994   -8.6641453    230.49988  0.012746067  0.011795401            4 
 1508000   0.64608828   -8.6420324    230.12851  0.012717093  0.011784917            4 
 1509000   0.63846912   -8.6236701    230.06378  0.012705091  0.011774438            4 
 1510000   0.65446251   -8.6533372    230.50813  0.012721199  0.011763982            3 
 1511000   0.65002777   -8.6409929    230.78263  0.012727919  0.011753513            3 
 1512000   0.64381984   -8.6017934    230.48522   0.01270311  0.011743056            5 
 1513000   0.66052969   -8.6585936    230.21158  0.012679642  0.011732609            3 
 1514000   0.65144837    -8.640249    230.24807  0.012673275  0.011722174            4 
 1515000   0.64915862   -8.6494517    229.98232  0.012650293  0.011711755            3 
 1516000   0.63917626   -8.6484264    230.14352  0.012650809  0.011701353            6 
 1517000   0.64557573   -8.6071791    230.40037  0.012656579  0.011690948            5 
 1518000    0.6431844   -8.6458346    230.26542  0.012640833  0.011680542            6 
 1519000   0.64423452   -8.6455385    230.23612  0.012630904  0.011670161            3 
 1520000   0.64969021   -8.6339218    230.21713  0.012621553  0.011659779            3 
 1521000   0.63427948    -8.644371    230.12355  0.012608128   0.01164942            1 
 1522000   0.64182211   -8.6345661    230.60603  0.012626261  0.011639072            4 
 1523000   0.64849116    -8.646809    230.43744  0.012608746  0.011628721            2 
 1524000   0.64384189   -8.6532246    230.23851  0.012589595  0.011618396            4 
 1525000    0.6497626   -8.6159893    230.30351  0.012584891  0.011608067            3 
 1526000   0.64939633   -8.6564815    230.29179  0.012576004   0.01159777            4 
 1527000   0.64260696   -8.6149983    230.42831  0.012575219  0.011587493            4 
 1528000   0.65461792   -8.6357816    230.17912  0.012553399  0.011577207            5 
 1529000   0.64879627   -8.6459299    229.77957  0.012523412  0.011566905            1 
 1530000   0.63620244   -8.6156347    230.32347  0.012544851  0.011556605            8 
 1531000    0.6426453   -8.6656602     229.9568    0.0125167  0.011546312            3 
 1532000    0.6419015   -8.6450116    230.25299   0.01252464  0.011536027            4 
 1533000   0.64709347   -8.6416329    229.61543  0.012481813  0.011525762            1 
 1534000   0.63193901   -8.6544408    230.35585  0.012513899   0.01151551            2 
 1535000   0.63850705   -8.6490467    230.54359  0.012515938  0.011505252            5 
 1536000   0.64263131   -8.6474671    230.25986  0.012492397  0.011495007            2 
 1537000   0.62470018   -8.6391495    230.12357  0.012476879  0.011484776            4 
 1538000   0.64613105    -8.646284    230.05728  0.012465176  0.011474552            1 
 1539000    0.6306216   -8.6597645    229.92753  0.012450051  0.011464368            2 
 1540000   0.64669301   -8.6529972    229.90947  0.012440989  0.011454183            5 
 1541000   0.64154599   -8.6569935    229.91058  0.012432975  0.011443998            3 
 1542000   0.63535216   -8.6429412    229.71301  0.012414235  0.011433826            2 
 1543000   0.62674789    -8.660355    230.30515   0.01243817  0.011423665            3 
 1544000   0.66162926   -8.6750364    230.07676  0.012417787  0.011413505            3 
 1545000   0.63051631   -8.6481077    230.14598  0.012413483   0.01140338            4 
 1546000   0.63044676   -8.6862698    229.82434  0.012388117  0.011393254            3 
 1547000   0.62296451   -8.6590107    230.20375  0.012400547  0.011383128            2 
 1548000   0.61971952   -8.6558075    230.01834  0.012382555  0.011373016            1 
 1549000   0.63096409   -8.6566033    230.34371  0.012392065  0.011362906            3 
 1550000   0.61885971   -8.6761703    229.76224  0.012352809  0.011352804            3 
 1551000   0.63551255   -8.6605847    230.49638  0.012384289  0.011342736            1 
 1552000    0.6348775    -8.663943    230.46789  0.012374779  0.011332693            5 
 1553000   0.63171358   -8.6632593    230.29283  0.012357417  0.011322643            2 
 1554000   0.63367353   -8.6464357    229.79838   0.01232295  0.011312587            3 
 1555000    0.6286719   -8.6428871    230.20352  0.012336737  0.011302571            3 
 1556000   0.63605127   -8.6842166    230.02346  0.012319166  0.011292535            5 
 1557000   0.63946085    -8.665859    229.82758   0.01230077  0.011282506            3 
 1558000   0.63206675   -8.6884146    229.83014  0.012293011  0.011272509            4 
 1559000     0.619235   -8.6749971    229.95408  0.012291751  0.011262496            2 
 1560000   0.63095414   -8.6659826    230.55324  0.012315878  0.011252491            1 
 1561000    0.6441225   -8.6589506    230.10796  0.012284217    0.0112425            5 
 1562000   0.63226675    -8.668492     230.2666  0.012284816  0.011232511            3 
 1563000   0.63314199   -8.6679223    229.85304  0.012254907  0.011222537            2 
 1564000    0.6479595   -8.6828693    229.82271  0.012245456  0.011212579            4 
 1565000   0.63528108   -8.6760401    229.89314  0.012241381  0.011202604            4 
 1566000     0.619181   -8.6784035    229.69294  0.012222911  0.011192663            3 
 1567000   0.62743489   -8.6690257    229.85199  0.012223569  0.011182719            4 
 1568000   0.63209235   -8.6701387    230.32014  0.012240654  0.011172824            2 
 1569000   0.63198227   -8.6624787    230.00357  0.012216039  0.011162938            3 
 1570000   0.62722728   -8.6913112    230.07118  0.012211846  0.011153048            6 
 1571000    0.6384728   -8.6787128    230.04597  0.012202735  0.011143174            4 
 1572000   0.63966854   -8.6836292      230.171  0.012201601  0.011133324            4 
 1573000   0.62016791   -8.6726174    229.64929  0.012166205  0.011123479            6 
 1574000   0.63199282   -8.6956862     230.2814  0.012191942  0.011113628            3 
 1575000   0.63123027   -8.6666915    229.88329  0.012163137  0.011103799            6 
 1576000   0.62302027   -8.6840822    230.15541  0.012169808  0.011093976            6 
 1577000   0.63242099   -8.6985613     230.2559  0.012167401  0.011084147            2 
 1578000   0.62554293   -8.6750025    229.93375  0.012142678  0.011074333            5 
 1579000   0.63792466   -8.6924529    229.78093  0.012126922  0.011064532            9 
 1580000   0.61117305   -8.6913694    229.87252  0.012124078  0.011054751            3 
 1581000   0.62122905   -8.6765812    230.07176  0.012126911  0.011044977            2 
 1582000   0.62542163   -8.6788897    230.10556  0.012121026  0.011035224            3 
 1583000   0.62447262   -8.6890575    229.84981  0.012099906  0.011025489            4 
 1584000   0.61732209   -8.6855167    229.78042  0.012088616   0.01101575            2 
 1585000    0.6221281    -8.689853    230.02777  0.012093994  0.011006029            3 
 1586000   0.61156698   -8.6959461    229.83955  0.012076479  0.010996302            1 
 1587000   0.60793758   -8.6752602    229.99279  0.012076916  0.010986575            3 
 1588000    0.6126593   -8.6977065    229.49551  0.012043215  0.010976851            5 
 1589000   0.63349453   -8.6709492     230.0741   0.01206598  0.010967145            4 
 1590000   0.61615723   -8.7152109    229.72257  0.012039967  0.010957451            3 
 1591000    0.6065961   -8.7023599    229.98852  0.012046329  0.010947777            3 
 1592000   0.61597115   -8.6904316    229.84614   0.01203131  0.010938101            1 
 1593000   0.61642265   -8.7043098    229.89432  0.012026277  0.010928452            3 
 1594000   0.62293321   -8.7092589    229.96254  0.012022299  0.010918805            3 
 1595000   0.62032816   -8.7014789    229.71157  0.012001649  0.010909168            3 
 1596000   0.61772238   -8.6778816    229.82272  0.011999933  0.010899533            2 
 1597000   0.62198393   -8.7111024    229.80627  0.011991561  0.010889903            3 
 1598000   0.60940759   -8.7022301    229.82328  0.011984944  0.010880255            2 
 1599000   0.62765125   -8.7081453    229.54057  0.011962715  0.010870638            1 
 1600000   0.62135949   -8.7162706    229.64628  0.011960744  0.010861021            2 
 1601000   0.61991991    -8.700745    230.19031   0.01198159  0.010851402            1 
 1602000   0.61703806   -8.7057528    230.00842  0.011964649  0.010841806            2 
 1603000   0.60753277   -8.6981096    229.79984  0.011946342  0.010832191            2 
 1604000   0.62019042   -8.7006026    229.87828  0.011942969  0.010822603            1 
 1605000   0.60636036   -8.7050726     229.6775  0.011925104  0.010813016            2 
 1606000   0.60875783    -8.731271    229.59063  0.011913171   0.01080343            3 
 1607000   0.59838971   -8.6948385    229.59369  0.011905916  0.010793858            3 
 1608000   0.59804885    -8.745518    229.55285  0.011896396  0.010784299            3 
 1609000   0.61095464   -8.7279402    229.78464  0.011901007  0.010774736            2 
 1610000   0.61051107   -8.7135805     229.4724  0.011877453  0.010765179            4 
 1611000   0.61969613    -8.713811    229.77823  0.011885901  0.010755624            2 
 1612000   0.60437545   -8.7345653    229.46413   0.01186229  0.010746083            1 
 1613000   0.61544308    -8.723719    229.44977  0.011854193  0.010736564            1 
 1614000   0.61469545   -8.7244919    229.40302  0.011844435  0.010727025            3 
 1615000   0.61457346   -8.7211503    229.48574   0.01184137  0.010717517            3 
 1616000   0.61980892   -8.7200573     229.9712  0.011859076  0.010708022            2 
 1617000   0.60719311   -8.7230708    229.76433  0.011841081   0.01069854            3 
 1618000   0.60559935   -8.6860608    229.29746  0.011809717  0.010689082            8 
 1619000   0.61273322   -8.7213574    229.53546  0.011814673  0.010679615            3 
 1620000   0.59702992   -8.7125124    230.00789  0.011831682  0.010670177            2 
 1621000   0.60591021   -8.7215041    229.55981  0.011801347  0.010660721            2 
 1622000   0.61240512   -8.7154951    229.81928  0.011807402  0.010651279            3 
 1623000   0.60525107    -8.740072    229.25181   0.01177099  0.010641838            3 
 1624000   0.61475498     -8.70933    229.96238  0.011800204  0.010632432            3 
 1625000   0.59951162   -8.7228854    229.52212  0.011770365  0.010623029            4 
 1626000   0.60054538   -8.7114454    229.83538  0.011779181  0.010613642            3 
 1627000   0.61257503   -8.7264376    229.46303   0.01175287  0.010604252            3 
 1628000   0.59646844   -8.7262994    229.11797  0.011727988  0.010594894            4 
 1629000   0.61390673   -8.7095071    229.36665   0.01173351  0.010585534            6 
 1630000   0.61700863   -8.7075609    230.08358  0.011762964  0.010576195            2 
 1631000   0.59877686   -8.7529667    229.80738   0.01174164  0.010566861            2 
 1632000   0.59821723   -8.7303718    229.73089   0.01173054  0.010557542            3 
 1633000   0.59497165   -8.7237349    229.37595  0.011705243  0.010548222            2 
 1634000   0.59670889   -8.7199705    229.52857  0.011705863  0.010538921            2 
 1635000   0.60336966    -8.743284     229.4431  0.011694347  0.010529606            1 
 1636000   0.61062391   -8.7539478    229.57359  0.011693846  0.010520292            1 
 1637000   0.59172016   -8.7491402     229.4808  0.011681979  0.010510992            2 
 1638000   0.59853693   -8.7457012    229.44385  0.011672968  0.010501697            2 
 1639000   0.59141909   -8.7252247    229.58149  0.011672843  0.010492423            2 
 1640000    0.6146081   -8.7410471    229.50976  0.011662081  0.010483156            4 
 1641000   0.59448471   -8.7422344    229.29423  0.011644029  0.010473895            1 
 1642000   0.59339136   -8.7394418    229.41843  0.011643242  0.010464666            3 
 1643000   0.60958266   -8.7231808    229.72761  0.011651837  0.010455427            2 
 1644000   0.59597325   -8.7572241    229.24512  0.011620292  0.010446199            3 
 1645000   0.59438377   -8.7500182    229.60483   0.01163145  0.010436976            4 
 1646000   0.59402114   -8.7391912    229.19097  0.011603431  0.010427776            4 
 1647000   0.60038623   -8.7337141    229.28131  0.011600957  0.010418574            2 
 1648000   0.59695199   -8.7533049    229.46059  0.011602983  0.010409367            3 
 1649000   0.59930043   -8.7655418    229.47978  0.011596917  0.010400183            3 
 1650000   0.58977173   -8.7360586    229.09899  0.011570656  0.010390993            6 
 1651000   0.58128561   -8.7550931    229.67613  0.011592779  0.010381828            3 
 1652000   0.60027197   -8.7640534    229.10099  0.011556749  0.010372669            2 
 1653000   0.59974126   -8.7597056    228.93708  0.011541494  0.010363502            2 
 1654000   0.59712686   -8.7614702    229.36704  0.011556179  0.010354339            3 
 1655000   0.58273992   -8.7454306    229.07554  0.011534519   0.01034518            2 
 1656000   0.58634211   -8.7497572    229.28033  0.011537859  0.010336023            3 
 1657000   0.57959435   -8.7426716     229.3915  0.011536487  0.010326894            2 
 1658000   0.60565101   -8.7456359    229.13009   0.01151639  0.010317771            8 
 1659000   0.60371455   -8.7635962     229.1173  0.011508806   0.01030864            1 
 1660000   0.60424026   -8.7345436    229.11646   0.01150183   0.01029953            2 
 1661000   0.58938533   -8.7536215    229.53841  0.011516075  0.010290426            1 
 1662000   0.58773229   -8.7356934    229.61948  0.011513211  0.010281354            4 
 1663000   0.58057577   -8.7423657    229.13205  0.011481863  0.010272279            2 
 1664000   0.59717048   -8.7525111    229.21491  0.011479112  0.010263199            2 
 1665000   0.59358686   -8.7812506    229.41189  0.011482077  0.010254121            6 
 1666000   0.58407978   -8.7853671    228.90731  0.011449945  0.010245042            1 
 1667000   0.58393803   -8.7338488    229.08649  0.011452034  0.010235984            5 
 1668000   0.58632274   -8.7667126    228.78824  0.011430268  0.010226951            2 
 1669000   0.57995206   -8.7547008    229.26707  0.011447327  0.010217922            1 
 1670000   0.58065787   -8.7594975     228.5067   0.01140253  0.010208901            4 
 1671000   0.57949236   -8.7748433    228.84706   0.01141268  0.010199876            2 
 1672000    0.5895217    -8.753105    228.76264  0.011401647  0.010190868            1 
 1673000   0.58251764   -8.7836406    228.99535  0.011406423  0.010181861            2 
 1674000   0.58490563   -8.7634008    228.98333  0.011399011   0.01017286            2 
 1675000   0.58272448   -8.7525745    229.35775  0.011410833  0.010163876            3 
 1676000   0.58918068   -8.7675272    229.05815  0.011389128  0.010154901            3 
 1677000   0.59579029   -8.7690692    229.33067  0.011395879   0.01014594            1 
 1678000   0.57825894   -8.8039216    228.94777  0.011370072  0.010136983            3 
 1679000   0.58658525   -8.7647673    229.41703  0.011386591  0.010128028            3 
 1680000   0.57798713    -8.764546     229.3644  0.011377202  0.010119105            2 
 1681000   0.58076075   -8.7758769    228.55159   0.01133014  0.010110186            3 
 1682000   0.58335738   -8.7615008      228.783  0.011334869  0.010101273            7 
 1683000   0.58172082    -8.772666    228.74275  0.011326141  0.010092368            2 
 1684000   0.58317531   -8.7808086     229.1064  0.011337411  0.010083484            4 
 1685000   0.58229141   -8.7501934    228.69514  0.011310343  0.010074604            2 
 1686000   0.57640642   -8.7691396    228.53067  0.011295506  0.010065728            1 
 1687000   0.58059986   -8.7851919    229.00056  0.011312021  0.010056872            3 
 1688000   0.58353028   -8.7672189    228.94074  0.011302367   0.01004802            4 
 1689000   0.59266516   -8.7676308    228.75581  0.011286551  0.010039172            3 
 1690000    0.5837855   -8.7813156     229.2725   0.01130535   0.01003035            3 
 1691000   0.58154208   -8.7675228    229.02015  0.011286228  0.010021526            2 
 1692000   0.59019165   -8.7811047    229.15228  0.011286066  0.010012702            5 
 1693000   0.57671122   -8.7726536    228.72735  0.011258484  0.010003879            2 
 1694000   0.58958343   -8.7529571    228.98112  0.011264321 0.0099950712            2 
 1695000   0.56703801   -8.7785098    228.73262  0.011245458 0.0099862722            2 
 1696000   0.56342279   -8.7717985    228.73278  0.011238836  0.009977482            2 
 1697000   0.57839294   -8.7804381    229.05399  0.011247986 0.0099687023            3 
 1698000   0.57690394   -8.7781762    228.88761  0.011233196 0.0099599371            4 
 1699000   0.59458683   -8.7902662     228.5541  0.011210226 0.0099511663            2 
 1700000   0.57581313   -8.7915042    228.54868  0.011203367 0.0099424212            6 
 1701000   0.56653521   -8.7749328    228.79418  0.011208807 0.0099336819            6 
 1702000   0.58193004   -8.7952797    228.50474   0.01118805 0.0099249287            4 
 1703000   0.57138687   -8.7871773    228.69341  0.011190713 0.0099161757            2 
 1704000   0.57738795   -8.7907434    228.87807  0.011193176 0.0099074526            3 
 1705000   0.57474213    -8.802517    228.66286  0.011176093 0.0098987331            4 
 1706000   0.56209906   -8.7865191    229.11507  0.011191631 0.0098900224            3 
 1707000   0.57062271   -8.7990909     228.7771  0.011168575  0.009881312            2 
 1708000   0.57473632   -8.7838252    228.88785   0.01116744 0.0098726109            3 
 1709000   0.57994259   -8.7918344    228.84101  0.011158622 0.0098639187            2 
 1710000   0.57345759     -8.78699    228.30444  0.011125947 0.0098552493            2 
 1711000   0.56656349    -8.795442    228.51521   0.01112971 0.0098465702            4 
 1712000   0.56991303   -8.7893633     228.5381  0.011124323 0.0098379026            1 
 1713000   0.56059197   -8.8114078    228.63261  0.011122427 0.0098292413            1 
 1714000   0.55748025   -8.8019158    228.55617  0.011112221 0.0098205927            1 
 1715000    0.5664977   -8.7923256    228.76636  0.011115955 0.0098119708            2 
 1716000   0.57475681   -8.7877436    228.46518  0.011094852 0.0098033435            1 
 1717000    0.5726231   -8.7873848    228.36911  0.011083727 0.0097947198            2 
 1718000    0.5691131   -8.7934226    228.88497  0.011102298 0.0097861015            6 
 1719000   0.57007177   -8.8066979    228.74172  0.011088895 0.0097774915            3 
 1720000   0.56524934   -8.8161139    228.33292  0.011062641  0.009768888            3 
 1721000   0.56808109   -8.8141036    228.44875  0.011061822 0.0097602853            2 
 1722000   0.58369593   -8.8118922    228.69229  0.011067184 0.0097517088            7 
 1723000   0.57136679   -8.8186138    228.33111  0.011043292 0.0097431281            3 
 1724000   0.55561988   -8.8237546    228.67682  0.011053597 0.0097345608            4 
 1725000   0.57041483   -8.8101501    228.67112  0.011046914 0.0097259878            3 
 1726000   0.55250512   -8.8161683    228.62367  0.011038223 0.0097174378            4 
 1727000   0.57719735   -8.8098621    228.53205   0.01102741 0.0097089005            3 
 1728000   0.56815461   -8.8064389    228.73414  0.011030775  0.009700375            1 
 1729000   0.57183759   -8.8043164    228.55989  0.011015996 0.0096918597            6 
 1730000   0.54636782   -8.8170014    228.82906  0.011022595 0.0096833488            2 
 1731000   0.55823118   -8.8045171    228.39653  0.010995404 0.0096748325            4 
 1732000   0.56122311   -8.8190538    228.62465  0.011000031 0.0096663257            2 
 1733000   0.56094413   -8.8031116    228.68347  0.010996512 0.0096578293            3 
 1734000   0.56717978   -8.8085006    228.36597  0.010974912 0.0096493584            2 
 1735000   0.56745319   -8.8251893    228.01081  0.010951528 0.0096408829            3 
 1736000    0.5403445   -8.8189045    228.50947  0.010969156  0.009632415            2 
 1737000   0.56099451   -8.8089373    228.63452  0.010968841  0.009623964            6 
 1738000   0.54607215   -8.8129784    228.29346  0.010946177 0.0096155345            2 
 1739000    0.5573473   -8.8120008    228.59433    0.0109543 0.0096070983            3 
 1740000   0.56009699    -8.816251    228.74827  0.010955377 0.0095986765            2 
 1741000   0.55482106   -8.8122721    228.25442  0.010925446 0.0095902625            3 
 1742000   0.57099738   -8.8189696    228.37899  0.010925133 0.0095818448            3 
 1743000   0.56772251   -8.8293869    228.65376  0.010932002 0.0095734401            3 
 1744000   0.56514372   -8.8232747    228.53097  0.010919867 0.0095650398            4 
 1745000   0.56125357    -8.828661     228.4531   0.01090989 0.0095566525            1 
 1746000   0.56252734   -8.8318985    228.26089  0.010894468 0.0095482707            2 
 1747000   0.56000767   -8.8237215    228.43985  0.010896768 0.0095398976            3 
 1748000   0.55525037    -8.811321    228.36281  0.010886862 0.0095315273            3 
 1749000   0.55437819   -8.8300583    228.18661  0.010872242 0.0095231834            5 
 1750000   0.56566326   -8.8370377    228.30971  0.010871891 0.0095148341            5 
 1751000   0.56134228   -8.8261842    228.31057  0.010865723 0.0095064909            2 
 1752000   0.54453893   -8.8414002    228.25853  0.010857046 0.0094981574            6 
 1753000   0.54922898   -8.8336175     227.9398  0.010835701 0.0094898266            7 
 1754000   0.54615383   -8.8286258    228.21848  0.010842763  0.009481509            3 
 1755000   0.55402635   -8.8419306    227.98008  0.010825265 0.0094731991            4 
 1756000   0.55527411    -8.826007    227.95505  0.010817913 0.0094648906            4 
 1757000   0.55495724   -8.8380025    228.24367  0.010825444 0.0094565998            3 
 1758000   0.54727498   -8.8285676    228.08961  0.010811984 0.0094483234            3 
 1759000    0.5391686   -8.8264441     228.1477  0.010808589 0.0094400515            3 
 1760000   0.55520544   -8.8228335    228.10923  0.010800626 0.0094317916            3 
 1761000    0.5476403   -8.8311494    227.81132  0.010780396 0.0094235287            2 
 1762000   0.55111318   -8.8269133     228.1655  0.010791028  0.009415274            3 
 1763000   0.54871412   -8.8366618    227.98191   0.01077623 0.0094070369            5 
 1764000    0.5598574    -8.837697    228.22819  0.010781755 0.0093988059            4 
 1765000   0.55259039   -8.8345035     228.3655   0.01078213 0.0093905832            4 
 1766000   0.53910956   -8.8379036    227.84364  0.010751399 0.0093823629            5 
 1767000   0.55479752   -8.8459111    228.35021  0.010769204 0.0093741541            3 
 1768000   0.55402517   -8.8280761    228.35098  0.010763149 0.0093659668            5 
 1769000   0.55497893   -8.8482176    227.99346  0.010740223 0.0093577756            4 
 1770000   0.53442155   -8.8452661    227.99369  0.010734166 0.0093495907            2 
 1771000   0.54736931   -8.8335228    228.30159  0.010742593 0.0093414163            5 
 1772000   0.54267319   -8.8251917    228.17286  0.010730477 0.0093332545            3 
 1773000   0.54706831   -8.8562998    228.55389  0.010742333 0.0093251059            3 
 1774000   0.54193675     -8.83286    228.06512  0.010713318 0.0093169599            4 
 1775000   0.53467299   -8.8425517    228.01757   0.01070505 0.0093088241            7 
 1776000   0.53896889   -8.8272301    228.08955    0.0107024 0.0093006945            3 
 1777000   0.54984731   -8.8408376    228.07257  0.010695581 0.0092925772            2 
 1778000   0.53168973   -8.8493847    227.96145  0.010684358 0.0092844639            6 
 1779000   0.54107852   -8.8357183    227.96908  0.010678709 0.0092763513            2 
 1780000   0.53862927   -8.8610872    227.91444  0.010670152  0.009268252            1 
 1781000   0.53845091   -8.8326552    228.16389  0.010675832 0.0092601531            3 
 1782000    0.5414124   -8.8442482    227.84418  0.010654891 0.0092520776            5 
 1783000   0.54350117   -8.8717972    228.07369  0.010659642 0.0092440068            2 
 1784000   0.54155736   -8.8695714    227.81381  0.010641527 0.0092359423            1 
 1785000   0.53917166   -8.8440386    228.45883  0.010665679  0.009227884            3 
 1786000   0.54895641    -8.835376    227.91633  0.010634394 0.0092198448            3 
 1787000   0.54042501   -8.8581498    227.98028  0.010631425 0.0092118025            2 
 1788000   0.54714079   -8.8598259    227.99653  0.010626236 0.0092037741            3 
 1789000   0.53555747   -8.8700855    227.82734  0.010612416 0.0091957528            2 
 1790000   0.52997325   -8.8673413    228.18358  0.010623072 0.0091877466            4 
 1791000   0.53713789   -8.8644279    228.15747  0.010615926  0.009179747            2 
 1792000   0.54560487   -8.8568378    227.78554  0.010592706 0.0091717588            3 
 1793000   0.53240947   -8.8546974    228.23402  0.010607642 0.0091637677            2 
 1794000   0.54111573     -8.86019    227.86391  0.010584537 0.0091557854            1 
 1795000   0.51766619   -8.8517388    227.77421  0.010574476 0.0091478184            3 
 1796000   0.54495767   -8.8445844    227.91848  0.010575282 0.0091398662            3 
 1797000   0.53533028   -8.8535082    228.10735  0.010578156 0.0091319157            2 
 1798000   0.53180003   -8.8349281    228.24922  0.010578848 0.0091239778            2 
 1799000   0.53943422   -8.8527726    227.79196  0.010551786  0.009116051            3 
 1800000   0.52912109   -8.8598361    228.09547  0.010559975 0.0091081296            2 
 1801000   0.53052388   -8.8547169    227.66441  0.010534167 0.0091002188            4 
 1802000   0.53583591   -8.8658214    227.89408  0.010538942 0.0090923177            1 
 1803000   0.52939403   -8.8622348    227.84899  0.010531012 0.0090844273            5 
 1804000   0.52751589   -8.8454844    228.16651  0.010539843 0.0090765413            2 
 1805000   0.52732577   -8.8688964    227.98689  0.010525711 0.0090686664            1 
 1806000   0.53402148   -8.8623434    228.07918  0.010524141 0.0090607963            3 
 1807000   0.53046007   -8.8577377    228.31095  0.010529005 0.0090529443            1 
 1808000   0.53170479    -8.863535    228.04023  0.010510704 0.0090450997            5 
 1809000   0.53042877   -8.8616517    227.63199  0.010486088 0.0090372709            3 
 1810000   0.52945248   -8.8702141    227.99335  0.010496931 0.0090294277            3 
 1811000   0.52811899   -8.8754299    227.85831  0.010484921 0.0090216011            2 
 1812000   0.52773882   -8.8565789    228.14828  0.010492471 0.0090137838            6 
 1813000   0.53106772   -8.8525269    228.19887  0.010489008 0.0090059795            2 
 1814000   0.52560592   -8.8530132     227.7308  0.010461724 0.0089981729            2 
 1815000   0.53090198   -8.8836197    227.54101  0.010447246 0.0089903748            1 
 1816000   0.53531312   -8.8495637    228.09084  0.010466724 0.0089825854            2 
 1817000   0.51361027   -8.8688198    227.99346  0.010456497 0.0089748012            2 
 1818000   0.53398161   -8.8767927    227.57293  0.010431469 0.0089670248            1 
 1819000   0.52885732   -8.8795307    227.59775  0.010426871 0.0089592673            3 
 1820000   0.53375543   -8.8725778    227.66143  0.010424058 0.0089515161            2 
 1821000   0.53468299   -8.8742583    227.61179  0.010416062 0.0089437599            3 
 1822000   0.51315177   -8.8811873    227.69002  0.010413924 0.0089360144            2 
 1823000   0.52946482   -8.8770413    227.77801  0.010412233 0.0089282851            5 
 1824000   0.51909428   -8.8864608    228.01734  0.010417459 0.0089205532            2 
 1825000   0.52354298   -8.8553851    227.68276  0.010396473 0.0089128334            2 
 1826000    0.5115932   -8.8891485    227.63747  0.010388712 0.0089051159            4 
 1827000   0.51634475   -8.8759213    227.84764  0.010392612 0.0088974135            2 
 1828000   0.52044826   -8.8737892    228.01694  0.010394645  0.008889715            6 
 1829000   0.53296657   -8.8823284    227.66162  0.010372773 0.0088820281            2 
 1830000   0.52588066   -8.8710265    228.00659  0.010382814 0.0088743552            2 
 1831000   0.51789193   -8.8935222    227.65577  0.010361177 0.0088666922            3 
 1832000   0.52187768    -8.884361    227.27703  0.010338293 0.0088590299            2 
 1833000   0.52314649   -8.8862441    227.77399  0.010355246 0.0088513761            2 
 1834000   0.50522496   -8.8776691    227.69723  0.010346112 0.0088437236            2 
 1835000   0.53124105   -8.8780944    227.91123  0.010350192 0.0088360959            3 
 1836000   0.52314832   -8.8672096    227.98167  0.010347752 0.0088284799            2 
 1837000   0.52792126    -8.891602    227.93938  0.010340201 0.0088208572            2 
 1838000   0.51741966    -8.890731    227.51411  0.010315293 0.0088132521            2 
 1839000   0.53167392   -8.9111583    227.57667  0.010312519 0.0088056566            3 
 1840000   0.52131777   -8.8746389    227.59948  0.010307948 0.0087980688            4 
 1841000   0.51208822   -8.8861376    227.63181  0.010303812  0.008790478            4 
 1842000   0.51295498   -8.9027503    227.70599  0.010301574 0.0087829001            3 
 1843000    0.5164688   -8.8840121    227.21889   0.01027396 0.0087753328            3 
 1844000   0.52546562    -8.876618    227.35986  0.010274759 0.0087677722            1 
 1845000   0.52586514   -8.9073414    227.55079  0.010277813 0.0087602276            2 
 1846000   0.52130202    -8.894551    227.62322  0.010275515 0.0087526872            4 
 1847000   0.51618455   -8.9018036    227.72962  0.010274753 0.0087451499            1 
 1848000   0.52652674   -8.8954847    227.36136  0.010252587 0.0087376169            3 
 1849000   0.51881159   -8.8975944    227.59353  0.010257505 0.0087300902            2 
 1850000   0.49648905   -8.9063881    227.62114  0.010253204 0.0087225695            3 
 1851000   0.51027777   -8.8955313    227.48998   0.01024176 0.0087150586            2 
 1852000   0.52117374    -8.898293    227.69436  0.010245427 0.0087075545            2 
 1853000   0.51745248    -8.895557    227.70622  0.010240431 0.0087000726            6 
 1854000   0.51487828   -8.8957175    227.48229  0.010224842 0.0086925957            1 
 1855000   0.51158714   -8.9013943    227.83398  0.010235129 0.0086851219            2 
 1856000   0.51091737   -8.8972709    227.35001  0.010207885 0.0086776598            2 
 1857000   0.51387863   -8.8836102    227.59472  0.010213369 0.0086702085            7 
 1858000   0.51742853   -8.8956999    227.86571  0.010220027 0.0086627577            4 
 1859000   0.51700579   -8.8816619    227.38228  0.010192858 0.0086553233            4 
 1860000   0.51162005   -8.9089848    227.72771  0.010202854 0.0086478931            3 
 1861000   0.52114393   -8.8892652    228.00166  0.010209639  0.008640478            2 
 1862000   0.50158622   -8.8805317    227.62098  0.010187119 0.0086330694            2 
 1863000    0.5145313   -8.8896554    228.06036  0.010201305 0.0086256647            2 
 1864000    0.5095186   -8.9108177    227.55049  0.010173037 0.0086182693            2 
 1865000   0.50557956   -8.8993266    227.68563  0.010173621 0.0086108812            2 
 1866000   0.51405676    -8.915455     227.5252  0.010161004 0.0086034986            6 
 1867000   0.51697193   -8.9039304    227.39898  0.010149928 0.0085961219            2 
 1868000   0.51140112   -8.8953071    227.63828  0.010155169 0.0085887635            2 
 1869000   0.49988477   -8.9050713    227.39657  0.010138959 0.0085814099            2 
 1870000   0.51539607   -8.9077848    227.62671  0.010143793 0.0085740702            3 
 1871000   0.50533617   -8.8934488    227.56789  0.010135752 0.0085667266            2 
 1872000   0.51104004   -8.8993638    227.61531  0.010132448 0.0085593906            4 
 1873000    0.5107076   -8.9111856    227.26891  0.010111626 0.0085520603            1 
 1874000   0.50747325   -8.9108367    227.47371  0.010115337 0.0085447433            2 
 1875000   0.50476406   -8.9247072    227.50078  0.010111146 0.0085374367            4 
 1876000   0.49418373   -8.9100846     227.6802  0.010113726 0.0085301281            3 
 1877000   0.50025672   -8.9040487    227.51227  0.010100882 0.0085228255            4 
 1878000   0.49644982    -8.910935    227.32167  0.010087046 0.0085155454            5 
 1879000   0.48999958   -8.9094648    227.48529  0.010088934 0.0085082669            6 
 1880000   0.49970538   -8.9033721    227.15896  0.010069103  0.008500999            2 
 1881000   0.51725834   -8.9090491    227.37011  0.010073104 0.0084937366            2 
 1882000   0.49739596   -8.9095285    227.71722  0.010083122 0.0084864754            3 
 1883000   0.49668172   -8.9168657    227.52955  0.010069462 0.0084792221            2 
 1884000   0.49610638   -8.9135705    227.32688  0.010055152 0.0084719863            3 
 1885000   0.48864726   -8.9245738    227.33865  0.010050338 0.0084647561            4 
 1886000   0.49714906   -8.9091221    227.19085  0.010038479 0.0084575345            3 
 1887000   0.50208158   -8.9069616    227.17961  0.010032662 0.0084503264            4 
 1888000   0.49096989   -8.9221461    227.08525  0.010023184 0.0084431179            6 
 1889000   0.51189947   -8.9359323    226.93891  0.010011422  0.008435922            2 
 1890000   0.49925262   -8.9163551    227.32816  0.010023287 0.0084287278            3 
 1891000   0.49632206   -8.9235023    227.01511  0.010004192  0.008421543            2 
 1892000   0.50488003   -8.9139025    227.06021   0.01000089 0.0084143646            4 
 1893000    0.5008006   -8.9229645    227.47112  0.010013696 0.0084071971            2 
 1894000   0.49304066   -8.9165381    227.35075  0.010003113 0.0084000413            3 
 1895000   0.49831933   -8.9065724    227.44365   0.01000192 0.0083928918            2 
 1896000   0.50295187   -8.9272183     227.7402  0.010009678 0.0083857425            3 
 1897000   0.50619265   -8.9211909    227.21412 0.0099812915 0.0083786008            8 
 1898000   0.49218107    -8.907968    227.15057 0.0099732423 0.0083714634            2 
 1899000   0.49781029   -8.9168733    226.98973 0.0099609326 0.0083643385            9 
 1900000   0.50371027   -8.9205619    227.11509 0.0099611882 0.0083572264            3 
 1901000   0.49759823   -8.9268058    227.28942 0.0099635902 0.0083501096            4 
 1902000    0.4982013    -8.925899    227.13425 0.0099515534 0.0083430085            5 
 1903000   0.50047299   -8.9270568     227.2817 0.0099527807 0.0083359152            5 
 1904000   0.50656566   -8.9101911    227.11836 0.0099404043 0.0083288279            3 
 1905000   0.48742981   -8.9261458    227.44362 0.0099494148 0.0083217494            9 
 1906000   0.49010138   -8.9137998    227.10094 0.0099292123 0.0083146852            3 
 1907000   0.50493875    -8.927581    227.33163 0.0099340864   0.00830762            2 
 1908000   0.49849703    -8.932604    227.21638 0.0099238461  0.008300564            3 
 1909000   0.48840565   -8.9283765    227.30042 0.0099223161 0.0082935157            5 
 1910000   0.50345821   -8.9376691    227.17619 0.0099117013 0.0082864788            3 
 1911000   0.49802852   -8.9453874    227.35795 0.0099144403 0.0082794512            4 
 1912000   0.47668693   -8.9201105    227.02772 0.0098948624 0.0082724249            2 
 1913000   0.49258198   -8.9453841    227.24269 0.0098990541 0.0082654044            3 
 1914000    0.4965224   -8.9212616    227.38403  0.009900036 0.0082583952            3 
 1915000   0.48802157   -8.9290628     227.1405 0.0098842691 0.0082513971            1 
 1916000   0.48693755   -8.9118938    227.01444 0.0098736274 0.0082444016            5 
 1917000   0.49395891   -8.9330491    226.88101 0.0098626765 0.0082374194            8 
 1918000   0.49567001   -8.9283654    227.32925 0.0098770096 0.0082304356            2 
 1919000   0.48825754   -8.9331147    227.37482 0.0098738412 0.0082234608            6 
 1920000   0.48771978   -8.9373977    227.12035 0.0098576542 0.0082164942            2 
 1921000    0.4913521    -8.938717    227.28162 0.0098595185 0.0082095342            4 
 1922000   0.48045995   -8.9264754    227.27999 0.0098543182 0.0082025797            2 
 1923000   0.49725909   -8.9299408     227.2831 0.0098493282 0.0081956424            4 
 1924000   0.48690046   -8.9355203     226.8612 0.0098259356 0.0081887119            2 
 1925000   0.49143722   -8.9240409    227.20851 0.0098358664 0.0081817903            3 
 1926000   0.48006553    -8.938925    226.97653 0.0098207221 0.0081748679            5 
 1927000   0.49122898   -8.9391379    227.10179 0.0098210427 0.0081679553            5 
 1928000   0.47945855   -8.9428782    227.45471 0.0098312029 0.0081610502            2 
 1929000   0.47824146    -8.936503    226.72652 0.0097946484 0.0081541514            5 
 1930000   0.47556905   -8.9448141    227.12984 0.0098069881 0.0081472566            3 
 1931000   0.47917323    -8.941653    226.97652 0.0097952926 0.0081403802            2 
 1932000   0.47888366   -8.9391029    226.99422 0.0097909862 0.0081334965            4 
 1933000   0.48275943   -8.9471338    227.18102 0.0097939738 0.0081266269            1 
 1934000   0.47306485   -8.9401592    227.19881 0.0097896764 0.0081197581            3 
 1935000   0.47768255   -8.9605217    227.16365 0.0097831031 0.0081128995            2 
 1936000   0.47380078    -8.925823    227.06873 0.0097739638 0.0081060499            4 
 1937000    0.4752362    -8.952556    227.19286 0.0097742582 0.0080992071            2 
 1938000   0.48748537    -8.944075    227.06441 0.0097636914 0.0080923719            6 
 1939000   0.48157724   -8.9408326    227.06771 0.0097587978  0.008085549            2 
 1940000   0.47139449    -8.960802    226.87227 0.0097453726 0.0080787288            2 
 1941000   0.47939539   -8.9517153    226.84002 0.0097389668 0.0080719096            3 
 1942000   0.48340671   -8.9434917    226.80306  0.009732366 0.0080651002            5 
 1943000   0.47108735   -8.9479053    227.11465 0.0097407208 0.0080582945            1 
 1944000   0.47963816   -8.9547324    227.04293  0.009732636 0.0080514989            5 
 1945000   0.46760728   -8.9313043    226.85272 0.0097194825 0.0080447136            2 
 1946000   0.47351104   -8.9612128    226.89502 0.0097162993  0.008037936            2 
 1947000   0.47603214   -8.9566823    227.14339 0.0097219392 0.0080311675            4 
 1948000   0.48728971   -8.9531888    227.09975 0.0097150815 0.0080244071            5 
 1949000   0.48436124   -8.9495908    226.76836 0.0096959277 0.0080176509            4 
 1950000   0.47146601   -8.9550631    226.83896 0.0096939727 0.0080109025            1 
 1951000   0.48113966   -8.9647112     226.9333 0.0096930333 0.0080041576            5 
 1952000   0.47513239   -8.9668326    226.72818 0.0096793109 0.0079974243            3 
 1953000   0.47492499   -8.9350219    227.15721 0.0096926614 0.0079906968            3 
 1954000   0.48663045   -8.9597059      227.004 0.0096811669 0.0079839772            2 
 1955000   0.47463341   -8.9578298    226.94187 0.0096735663  0.007977264            5 
 1956000   0.47581834   -8.9579864    227.08331 0.0096746468 0.0079705582            4 
 1957000   0.46908593   -8.9638241    227.15894 0.0096729239  0.007963856            1 
 1958000    0.4758391   -8.9611514    226.75085  0.009650615 0.0079571681            4 
 1959000   0.46324127   -8.9384736    226.67304 0.0096423787 0.0079504864            1 
 1960000   0.46002361   -8.9551334    226.88508 0.0096464745 0.0079438103            2 
 1961000   0.47496842   -8.9575718    226.85748 0.0096403825 0.0079371385            2 
 1962000   0.47255714   -8.9570101    226.94457 0.0096391681 0.0079304737            4 
 1963000   0.46933822   -8.9617693    226.79343 0.0096278414 0.0079238153            2 
 1964000   0.46556705   -8.9620435    226.71558 0.0096196359 0.0079171645            1 
 1965000   0.46994374   -8.9653676    226.71557 0.0096147399 0.0079105224            1 
 1966000   0.46114133   -8.9706501    227.04705 0.0096239002 0.0079038835            3 
 1967000   0.45673563   -8.9464346    226.48015 0.0095949903 0.0078972506            2 
 1968000   0.47000126    -8.956756    227.14998 0.0096184782 0.0078906325            5 
 1969000   0.46149977    -8.970716    226.92252 0.0096039666 0.0078840166            3 
 1970000   0.46141373   -8.9621047    226.61307 0.0095860012 0.0078774052            1 
 1971000   0.45709884   -8.9729689    226.81701 0.0095897602 0.0078708086            2 
 1972000   0.47035497   -8.9531382    226.44502 0.0095691776 0.0078642137            3 
 1973000   0.45798864   -8.9759956    227.16003 0.0095945275 0.0078576314            2 
 1974000   0.45340801   -8.9681086    226.84492 0.0095763643 0.0078510454            2 
 1975000   0.47149895    -8.955186    226.80206 0.0095697073 0.0078444716            2 
 1976000    0.4684689   -8.9692572    226.68854 0.0095600766 0.0078379143            2 
 1977000   0.45827593   -8.9631012    226.49517 0.0095470903 0.0078313565            5 
 1978000   0.46294094   -8.9776956    226.71692 0.0095516059 0.0078248048            3 
 1979000   0.45674938   -8.9595144    226.71079 0.0095465214 0.0078182593            2 
 1980000   0.45509541   -8.9764338    226.82307 0.0095464256 0.0078117236            2 
 1981000   0.46763373   -8.9751749    226.61183 0.0095327206   0.00780519            2 
 1982000   0.46786785   -8.9739205    227.12854  0.009549636 0.0077986692            1 
 1983000   0.45575057   -8.9727668    226.31831 0.0095107712 0.0077921483            1 
 1984000   0.46005385   -8.9788015    226.87829 0.0095294981 0.0077856446            5 
 1985000   0.47286986   -8.9799566    226.50222 0.0095089091  0.007779145            2 
 1986000   0.46904847   -8.9713354    226.51003 0.0095044491 0.0077726509            3 
 1987000   0.45384117   -8.9740109      226.403 0.0094951769 0.0077661617            2 
 1988000    0.4561989   -8.9793214    226.68234 0.0095021103  0.007759688            2 
 1989000   0.47364651   -8.9607737    227.00753 0.0095109572 0.0077532204            3 
 1990000   0.46209794   -8.9682035    226.85428 0.0094997603 0.0077467573            3 
 1991000   0.45786752   -8.9700446    226.42164  0.009476881 0.0077403056            6 
 1992000   0.45702175   -8.9766775    226.63259 0.0094809485 0.0077338604            5 
 1993000   0.45120356   -8.9788621    226.64451 0.0094766897  0.007727414            3 
 1994000   0.45460586   -8.9698472    226.82223 0.0094793644 0.0077209752            3 
 1995000   0.46440525   -8.9912707    226.63589  0.009466829 0.0077145405            2 
 1996000   0.46183454   -8.9753389    226.68165 0.0094639965 0.0077081156            1 
 1997000   0.45156824    -8.971766    226.44663 0.0094494506 0.0077016975            2 
 1998000   0.44919428   -8.9798933    226.34341 0.0094404158 0.0076952893            3 
 1999000   0.45228608   -8.9831194     226.4653 0.0094407746 0.0076888799            6 
 2000000   0.45570973   -8.9865668    226.79693 0.0094498719 0.0076824832            3 
 2001000    0.4500096   -8.9590422    226.35808 0.0094268732 0.0076760909            3 
 2002000   0.46090721   -8.9848682    226.50229 0.0094281671 0.0076697084            4 
 2003000    0.4491138   -8.9884829    227.04716 0.0094461291 0.0076633351            4 
 2004000   0.45510211   -8.9810484    226.54906 0.0094207027 0.0076569626            2 
 2005000   0.45498126   -8.9699752    226.41648 0.0094104939 0.0076505989            3 
 2006000   0.45486401   -8.9915316    226.71216 0.0094180859 0.0076442382            2 
 2007000   0.46168613   -8.9836591    226.36722 0.0093990708 0.0076378822            5 
 2008000    0.4535417   -8.9789603    226.54442  0.009401744 0.0076315414            3 
 2009000   0.45040239    -8.971729    226.65553 0.0094016729 0.0076252066            4 
 2010000   0.43672226   -8.9843201    226.38796  0.009385902 0.0076188784            4 
 2011000   0.44879655   -9.0013925      226.889 0.0094019974 0.0076125562            3 
 2012000   0.44345281   -8.9793382     226.7931 0.0093933522 0.0076062402            2 
Loop time of 4965.59 on 48 procs for 2000000 steps with 4000 atoms

Performance: 69599.047 tau/day, 402.772 timesteps/s
99.4% CPU use with 48 MPI tasks x no OpenMP threads

MPI task timing breakdown:
Section |  min time  |  avg time  |  max time  |%varavg| %total
---------------------------------------------------------------
Pair    | 333.86     | 353.24     | 375.51     |  52.3 |  7.11
Neigh   | 32.507     | 34.033     | 35.248     |  12.5 |  0.69
Comm    | 310.01     | 330.48     | 355.81     |  57.3 |  6.66
Output  | 6.1078     | 6.1097     | 6.145      |   0.2 |  0.12
Modify  | 4182.7     | 4196.1     | 4218.2     |  11.9 | 84.50
Other   |            | 45.61      |            |       |  0.92

Nlocal:        83.3333 ave          89 max          76 min
Histogram: 1 1 2 8 4 10 13 1 6 2
Nghost:        2178.15 ave        2205 max        2151 min
Histogram: 2 3 4 5 10 13 1 3 5 2
Neighs:        14481.0 ave       15802 max       12417 min
Histogram: 1 0 3 3 3 11 12 8 3 4
FullNghs:      28960.9 ave       31247 max       26575 min
Histogram: 2 1 4 6 11 7 8 6 2 1

Total # of neighbors = 1390121
Ave neighs/atom = 347.53025
Neighbor list builds = 106757
Dangerous builds = 0

#clear
#
#next RN
#
#jump SELF
Total wall time: 1:22:49
