
units lj                  # Use reduced LJ style units
atom_style atomic         # Uncharged point particles
atom_modify map hash      # Needed for indexing of clusters etc
                          # Used to be able to find where atoms are in relation to each other.

lattice fcc 1.0 spacing 1 1 1
Lattice spacing in x,y,z = 1.5874011 1.5874011 1.5874011
region box block 0 10 0 10 0 10 units lattice
create_box 2 box
Created orthogonal box = (0.0000000 0.0000000 0.0000000) to (15.874011 15.874011 15.874011)
  3 by 4 by 4 MPI processor grid
create_atoms 1 box
Created 4000 atoms
  using lattice units in orthogonal box = (0.0000000 0.0000000 0.0000000) to (15.874011 15.874011 15.874011)
  create_atoms CPU = 0.002 seconds
set type 1 type/fraction 2 0.01 78393
Setting atom values ...
  36 settings made for type/fraction
mass 1 1.0
mass 2 1.0
pair_style lj/cut  3.5
pair_modify tail  yes
pair_coeff 1  1  1.0  1.0   # Intearaction between 1 and 1 set with epsilon = 1 and sigma = 1
pair_coeff 1  2  1.5  0.8
pair_coeff 2  2  0.5  0.88

write_data data.0
System init for write_data ...
Neighbor list info ...
  update every 1 steps, delay 10 steps, check yes
  max neighbors/atom: 2000, page size: 100000
  master list distance cutoff = 3.8
  ghost atom cutoff = 3.8
  binsize = 1.9, bins = 9 9 9
  1 neighbor lists, perpetual/occasional/extra = 1 0 0
  (1) pair lj/cut, perpetual
      attributes: half, newton on
      pair build: half/bin/atomonly/newton
      stencil: half/bin/3d
      bin: standard
WARNING: Not all mixed pair coeffs generated from mixing. Use write_data with 'pair ij' option to store all pair coeffs. (../write_data.cpp:312)


#############################
#   M E L T   S Y S T E M   #
#############################

velocity all create 2.4 5300450 mom yes dist gaussian # Assign velocities
                                                    # Temperature 2.4, random number seed, zero linear momentum
                                                                                # Gaussian distribution

timestep 0.002   # simulation timestep
thermo 1000       # output thermodynamic data every 1000 steps bf 100

# Define a fix  in this case with index 1 applied to all
# particles in the simulation. This fix is for simulations
# in the anisotropic NPT ensemble. Note that we use the MTK
# correction.
fix 1 all npt temp 2.4 2.4 0.1 iso 5.68 5.68 0.5 mtk yes tchain 5 pchain 5 # Use NPT ensemble
                                                                         # Set temperature and pressure and damping
                                                                         # Numbers of thermostats in chain and in barostat
run 10000          # run for 10000 steps
Per MPI rank memory allocation (min/avg/max) = 3.642 | 3.644 | 3.648 Mbytes
Step Temp E_pair E_mol TotEng Press Volume 
       0          2.4   -8.3261558            0   -4.7270558   -2.3168672         4000 
    1000    2.3710274    -4.478132            0  -0.92248008    5.5093361    5160.5462 
    2000    2.3910011   -4.3529014            0  -0.76729634    5.6726393    5224.2958 
    3000    2.4055736    -4.373442            0  -0.76598369    5.6016393    5210.6467 
    4000    2.4131257   -4.3924192            0  -0.77363548    5.4190279    5232.0157 
    5000    2.3969794   -4.3813785            0  -0.78680822    5.5889952    5214.5533 
    6000    2.3742264   -4.3424268            0  -0.78197749     5.879893    5185.6126 
    7000    2.4018511     -4.34063            0  -0.73875409    5.7700897    5211.6253 
    8000    2.3493458    -4.398126            0  -0.87498826    5.5891636     5194.439 
    9000    2.4259025   -4.3643893            0  -0.72644522    5.7270216    5198.5906 
   10000      2.41668   -4.3470695            0  -0.72295571    5.6909312    5218.3618 
Loop time of 2.08437 on 48 procs for 10000 steps with 4000 atoms

Performance: 829025.655 tau/day, 4797.602 timesteps/s
99.6% CPU use with 48 MPI tasks x no OpenMP threads

MPI task timing breakdown:
Section |  min time  |  avg time  |  max time  |%varavg| %total
---------------------------------------------------------------
Pair    | 0.84659    | 0.91051    | 1.0369     |   3.3 | 43.68
Neigh   | 0.16775    | 0.17434    | 0.19639    |   1.2 |  8.36
Comm    | 0.60546    | 0.73243    | 0.81344    |   4.8 | 35.14
Output  | 0.00025104 | 0.00025777 | 0.00032575 |   0.0 |  0.01
Modify  | 0.22557    | 0.25279    | 0.29451    |   4.3 | 12.13
Other   |            | 0.01406    |            |       |  0.67

Nlocal:        83.3333 ave          89 max          73 min
Histogram: 1 0 2 2 2 8 16 5 8 4
Nghost:        1376.67 ave        1406 max        1358 min
Histogram: 1 6 12 7 8 8 4 0 1 1
Neighs:        7290.96 ave        8025 max        6306 min
Histogram: 2 1 2 6 4 8 9 11 4 1

Total # of neighbors = 349966
Ave neighs/atom = 87.491500
Neighbor list builds = 908
Dangerous builds = 239

# Equilibrate just above the melting temperature to avoid step fn in T

fix 1 all npt temp 1.25 1.25 0.1 iso 5.68 5.68 0.5 mtk yes tchain 5 pchain 5
run 2000
Per MPI rank memory allocation (min/avg/max) = 3.642 | 3.644 | 3.648 Mbytes
Step Temp E_pair E_mol TotEng Press Volume 
   10000      2.41668   -4.3470695            0  -0.72295571    5.6909312    5218.3618 
   11000    1.2459879   -5.8233258            0   -3.9548112    5.8527895    4319.2607 
   12000    1.2285809   -5.8532331            0   -4.0108225    5.8157739    4305.2998 
Loop time of 0.458874 on 48 procs for 2000 steps with 4000 atoms

Performance: 753147.885 tau/day, 4358.495 timesteps/s
99.6% CPU use with 48 MPI tasks x no OpenMP threads

MPI task timing breakdown:
Section |  min time  |  avg time  |  max time  |%varavg| %total
---------------------------------------------------------------
Pair    | 0.19843    | 0.21145    | 0.23205    |   1.5 | 46.08
Neigh   | 0.030897   | 0.032213   | 0.036407   |   0.5 |  7.02
Comm    | 0.14162    | 0.16022    | 0.17692    |   2.1 | 34.92
Output  | 5.2541e-05 | 5.4521e-05 | 6.7383e-05 |   0.0 |  0.01
Modify  | 0.041329   | 0.050458   | 0.058006   |   2.0 | 11.00
Other   |            | 0.004483   |            |       |  0.98

Nlocal:        83.3333 ave          92 max          74 min
Histogram: 2 3 3 5 1 15 11 5 2 1
Nghost:        1563.19 ave        1588 max        1546 min
Histogram: 2 9 5 7 4 13 6 1 0 1
Neighs:        8846.88 ave        9882 max        7709 min
Histogram: 2 2 1 7 7 12 8 5 2 2

Total # of neighbors = 424650
Ave neighs/atom = 106.16250
Neighbor list builds = 142
Dangerous builds = 16

#############################
# L I N E A R  Q U E N C H  #
#############################

# Define solid atoms. This closely follows ten Wolde  Ruiz-Montero and Frenkel  Faraday Discuss  1996  104  93-110
# Compute components of the per-atom q6 vector
compute q6 all orientorder/atom degrees 1 6 components 6 nnn NULL cutoff 1.3 # compute the Q6 parameter.
                                                                             # Use all neighbours within 1.3 unit cell.

# get number of connections
compute coord_number all coord/atom orientorder q6 0.5

# An atom is solid if it has 8 or more connections (of a possible 14)
variable is_solid atom c_coord_number>=8
group solid dynamic all var is_solid    # Must be dynamic to update
dynamic group solid defined

# do clustering
compute cluster solid cluster/atom 1.3 # Create a cluster where all atoms within are solid and max 1.3 units from another member

# define chunks one chunk per cluster
compute clus_chunks solid chunk/atom c_cluster nchunk every compress yes  # Says which atoms are in which chunk

# count the size of each chunk
compute size_chunks solid property/chunk clus_chunks count


# Find the maximum entry in the vector of chunk sizes
variable max_n equal max(c_size_chunks)


# Thermo style which includes this variable
# thermo_style custom step temp pe vol v_max_n

thermo ${N}  # Print the thermo information every 100 steps
thermo 1000  

# Reset the npt fix at a lower temperature (below freezing)
fix 1  all npt temp  ${temp} ${temp}  0.1  iso  5.68  5.68  0.5  mtk yes tchain  5  pchain  5
fix 1  all npt temp  0.45 ${temp}  0.1  iso  5.68  5.68  0.5  mtk yes tchain  5  pchain  5
fix 1  all npt temp  0.45 0.45  0.1  iso  5.68  5.68  0.5  mtk yes tchain  5  pchain  5

dump dmp2 all dcd ${N} traj.dcd
dump dmp2 all dcd 1000 traj.dcd


compute msd all msd com yes
variable twopoint equal c_msd[4]/6/(step*dt+1.0e-6)
fix 9 all vector 10 c_msd[4]
variable fit equal slope(f_9)/6/(10*dt)
thermo_style custom step temp pe c_msd[4] v_twopoint v_fit v_max_n

fix 1 all npt temp 1.25 ${temp} 0.1 iso 5.68 5.68 0.5 mtk yes tchain 5 pchain 5
fix 1 all npt temp 1.25 0.45 0.1 iso 5.68 5.68 0.5 mtk yes tchain 5 pchain 5
run 500000 # 5000000  # Run for this many steps
Neighbor list info ...
  update every 1 steps, delay 10 steps, check yes
  max neighbors/atom: 2000, page size: 100000
  master list distance cutoff = 3.8
  ghost atom cutoff = 3.8
  binsize = 1.9, bins = 9 9 9
  4 neighbor lists, perpetual/occasional/extra = 1 3 0
  (1) pair lj/cut, perpetual
      attributes: half, newton on
      pair build: half/bin/atomonly/newton
      stencil: half/bin/3d
      bin: standard
  (2) compute orientorder/atom, occasional
      attributes: full, newton on
      pair build: full/bin/atomonly
      stencil: full/bin/3d
      bin: standard
  (3) compute coord/atom, occasional
      attributes: full, newton on
      pair build: full/bin/atomonly
      stencil: full/bin/3d
      bin: standard
  (4) compute cluster/atom, occasional
      attributes: full, newton on
      pair build: full/bin/atomonly
      stencil: full/bin/3d
      bin: standard
Per MPI rank memory allocation (min/avg/max) = 9.730 | 9.736 | 9.742 Mbytes
Step Temp PotEng c_msd[4] v_twopoint v_fit v_max_n 
   12000    1.2285809   -5.8532331 4.9548353e-30 3.4408577e-32 8.3333333e+20            3 
   13000    1.2640802   -5.8677514   0.59193038 0.0037944254   0.04929232            5 
   14000    1.2741973   -5.8779014    1.1596046 0.0069024083  0.048169582            4 
   15000    1.2285394   -5.8929216    1.6446885 0.0091371583  0.045943484            4 
   16000    1.2382834   -5.8751193    2.2201138  0.011563092  0.045084522            2 
   17000    1.2342231   -5.8977009     2.739344  0.013428157  0.045157519            3 
   18000    1.2310949   -5.8740914     3.283207  0.015200032   0.04524108            3 
   19000    1.2528947   -5.8766189     3.895202  0.017084219  0.045452459            3 
   20000    1.2351984   -5.9109215    4.3973867  0.018322444  0.045565197            3 
   21000    1.2460502   -5.8815113    4.9358896  0.019586863  0.045427823            2 
   22000    1.2390961   -5.8968976    5.4349726  0.020587017  0.045131465            2 
   23000     1.219366   -5.8919937    6.0500014  0.021920294  0.045318989            3 
   24000    1.2248222   -5.8808892      6.65822  0.023118819  0.045465429            2 
   25000    1.2289466   -5.8843565    7.1244249  0.023748083  0.045497018            2 
   26000    1.2143493   -5.9049558    7.6680271   0.02457701  0.045430559            3 
   27000    1.2600562   -5.9082254    8.1458113  0.025141393  0.045363841            8 
   28000    1.2052208   -5.8985003    8.6498214  0.025743516  0.045192295            2 
   29000    1.2116336   -5.9417759    9.2767668  0.026657376   0.04513717            4 
   30000     1.227487    -5.919654    9.9274405  0.027576223  0.045187008            3 
   31000     1.206183   -5.9217519    10.490444  0.028200119  0.045307353            4 
   32000     1.216129   -5.9084146    10.962633  0.028548524  0.045384032            3 
   33000    1.1937413   -5.9273857    11.455442  0.028927883  0.045427338            3 
   34000    1.2501927   -5.9112876    11.974623  0.029349566  0.045393898            4 
   35000     1.210553   -5.8825262    12.339915   0.02938075  0.045245598            3 
   36000    1.1822683   -5.9473038    12.864117  0.029778048  0.045067025            4 
   37000    1.1911508   -5.8917794    13.322135  0.030004809  0.044926871            3 
   38000    1.2044704   -5.8959609    13.885372  0.030450378  0.044773027            5 
   39000    1.2307676   -5.9430705    14.335131  0.030630622  0.044597966            2 
   40000    1.1890526   -5.9309193    14.972054  0.031191779  0.044471058            4 
   41000    1.2074459   -5.8768024    15.501263  0.031506631  0.044389359            2 
   42000    1.1945143   -5.9338023    15.881115  0.031510148  0.044306828            3 
   43000    1.1771238   -5.9726535    16.504473  0.031985412  0.044206709            2 
   44000    1.2104655   -5.9162276    16.855886  0.031924026  0.044117478            5 
   45000    1.1823976   -5.9910003    17.336979  0.032105515   0.04397734            4 
   46000    1.2034931   -5.9882823    17.669649  0.032010233  0.043819769            4 
   47000    1.1910333   -5.9810479    18.123612  0.032134064  0.043644593            3 
   48000    1.2007271   -5.9805699    18.508748  0.032133242   0.04345996            4 
   49000    1.2019425    -5.985365     19.04467  0.032388895  0.043286638            4 
   50000    1.1579224    -5.995994    19.604392  0.032673986  0.043147234            8 
   51000    1.1928712   -5.9583823    20.062977  0.032782641  0.043019152            3 
   52000    1.2039555   -5.9679896    20.470982  0.032806061  0.042877789            4 
   53000    1.1963151   -5.9476445    20.774643  0.032664533  0.042711508            7 
   54000    1.1904959    -5.986513    20.905949  0.032262266  0.042482961            3 
   55000    1.1549622   -6.0128191    21.263246  0.032217039  0.042221893            6 
   56000    1.1841925   -5.9792566    21.724203  0.032327683  0.041967939            3 
   57000    1.1811035   -5.9479972    22.117019  0.032334823  0.041732575            3 
   58000      1.17442   -6.0057138    22.503057  0.032331978  0.041492986            2 
   59000    1.1672519   -6.0024891    22.932362  0.032390341  0.041266931            4 
   60000    1.1728272   -6.0234314    23.481222  0.032612807   0.04106745            5 
   61000    1.1793553    -6.016941    23.972137   0.03274882  0.040903376            4 
   62000    1.1765004   -6.0079634    24.414727  0.032815494  0.040755517            7 
   63000    1.1911567   -5.9953422    24.969949  0.033029032  0.040625848            7 
   64000    1.1596035   -6.0078996    25.428791  0.033110405  0.040503746            3 
   65000     1.166469   -6.0120672    25.904089   0.03321037  0.040398553            4 
   66000    1.1569458   -6.0735272    26.279288  0.033180919  0.040284561            6 
   67000    1.1755556   -6.0078393    26.749701  0.033270772  0.040176278            3 
   68000    1.1478474   -6.0130681    27.195653  0.033328006  0.040077983            9 
   69000     1.150764   -6.0212372     27.65636  0.033401401  0.039983428            6 
   70000    1.1627152   -6.0368947    28.152136  0.033514447  0.039902503            2 
   71000    1.1466407   -6.0269024    28.576787   0.03354083  0.039816576            4 
   72000     1.159122   -6.0363982    29.007838  0.033573887  0.039729435            7 
   73000    1.1475645   -6.0555946    29.370485   0.03352795  0.039642142            3 
   74000    1.1547195   -6.0549822    29.790681  0.033548063  0.039550382            4 
   75000    1.1223516   -6.0604779    30.127568  0.033475075   0.03946662            4 
   76000    1.1472371   -6.0648717    30.557105  0.033505598  0.039386709            4 
   77000    1.1345416   -6.0832943    30.876203  0.033415804  0.039299719            9 
   78000    1.1455538   -6.0847923    31.443701  0.033593698  0.039204316            4 
   79000    1.1439511   -6.0226639    31.936677  0.033688478  0.039123734            7 
   80000    1.1283052   -6.0680926    32.378275   0.03372737  0.039056275            8 
   81000    1.1222392   -6.0651554    32.980932     0.033931  0.039003347            4 
   82000    1.1269612   -6.0167376    33.454527  0.033998503   0.03895045            2 
   83000    1.1232133     -6.02332    33.548023  0.033682753  0.038875852            5 
   84000     1.144881   -6.0488742    33.907109  0.033638005  0.038802032            9 
   85000    1.1392833   -6.0840023    33.994722  0.033328159  0.038719948            3 
   86000    1.1340276   -6.0894105    34.707398  0.033631199  0.038632715            7 
   87000    1.1154046    -6.090829    34.779376  0.033313579  0.038540027            4 
   88000    1.1416391   -6.0795327    35.131163  0.033268147  0.038440055            2 
   89000    1.1217802   -6.0705249    35.490948  0.033231225  0.038335218            3 
   90000    1.1278879   -6.0805315    35.879648  0.033221896  0.038229484            3 
   91000    1.1188828   -6.0836046    36.255128  0.033200666  0.038124014            3 
   92000    1.1199966   -6.1045485    36.814964  0.033346887  0.038024803            6 
   93000    1.0986653   -6.0710972    37.221012  0.033352161  0.037935638            5 
   94000    1.1443255   -6.0582603    37.496329  0.033241426  0.037847673            8 
   95000    1.1128812    -6.078344    37.850742  0.033202405  0.037749204            2 
   96000    1.1245817   -6.0917694    38.091809  0.033065806   0.03764857            6 
   97000    1.1203615   -6.1086378    38.428306  0.033014009   0.03754458            4 
   98000     1.131077   -6.0940621     38.71856  0.032923945  0.037438021            6 
   99000    1.1001169   -6.0964046    39.067419  0.032885032   0.03733068            3 
  100000    1.1008953   -6.1048872    39.628322  0.033023601  0.037228165            3 
  101000    1.1053328   -6.1629901    39.805166  0.032842546  0.037129666            6 
  102000    1.1156161    -6.126978    40.277516  0.032906467  0.037031698            5 
  103000    1.0899725   -6.0886824    40.655006  0.032892399  0.036939912           10 
  104000     1.116913   -6.0732444    41.159129  0.032980071  0.036854497            2 
  105000    1.1314981   -6.1085806    41.570244  0.032992257  0.036778539            5 
  106000    1.1017454   -6.1301826    41.903081  0.032942674  0.036699656            3 
  107000    1.1022369   -6.1475586     42.21797  0.032880039   0.03662468            6 
  108000     1.108031   -6.1258237    42.834106  0.033051007  0.036549639            5 
  109000    1.0986845   -6.1690965    43.216814  0.033040378  0.036483531            5 
  110000    1.0833192   -6.1453568    43.913416  0.033267739  0.036426754            3 
  111000    1.0741847   -6.1568268    44.332657  0.033282775  0.036379043            4 
  112000    1.0980235   -6.1342737     44.83444  0.033358958  0.036333097            6 
  113000    1.0782944   -6.1511737    45.111103  0.033267775  0.036291109            6 
  114000     1.057723   -6.1387204    45.673993  0.033387422  0.036245121            4 
  115000    1.1006861   -6.1621539    45.812534  0.033197488  0.036201996            3 
  116000    1.0914751   -6.1467436    46.149368  0.033153282  0.036153098            5 
  117000    1.0669735   -6.1563649    46.387898  0.033039813  0.036101372            3 
  118000    1.0713276   -6.1488399     46.71434  0.032990353  0.036043996            3 
  119000    1.0716438   -6.1796896    47.100348  0.032983437   0.03598439            5 
  120000    1.1142518   -6.1730896    47.312247  0.032855727  0.035927054            4 
  121000      1.07733   -6.2052112    47.896958  0.032986886  0.035868079            3 
  122000    1.0869119   -6.1767612    48.032605  0.032809156  0.035808843            7 
  123000    1.0608538   -6.1795274    48.508802  0.032865042  0.035750027            4 
  124000    1.0601896   -6.1804011    48.684661  0.032718186  0.035690876           10 
  125000    1.0648962   -6.1668044    49.233236  0.032822157  0.035633775            8 
  126000    1.0647516   -6.1715818    49.572119  0.032785793   0.03558083            2 
  127000    1.0611809   -6.2052143    49.845983  0.032707338  0.035523986            3 
  128000    1.0468174   -6.1733229    50.170966  0.032663389  0.035465528            5 
  129000    1.0917863   -6.1872845    50.549187  0.032654513  0.035406112            6 
  130000    1.0427149   -6.2179254    50.846811   0.03259411   0.03534481            9 
  131000    1.0527315   -6.2192919    51.067523  0.032485701  0.035284452            2 
  132000    1.0597765     -6.22413    51.423624  0.032464409  0.035223873            9 
  133000    1.0644815   -6.1736237     51.81579  0.032466034  0.035163283            2 
  134000     1.048228   -6.2117285    52.076129  0.032385652  0.035098275            5 
  135000    1.0481226   -6.2061153    52.515636  0.032417059     0.035035            8 
  136000    1.0496851   -6.2097212    52.618937  0.032241996  0.034972737            6 
  137000    1.0554256   -6.2048281    52.952238   0.03220939  0.034906763           10 
  138000    1.0585052   -6.2440409    52.973741  0.031988974  0.034837952            6 
  139000    1.0492134   -6.2415027    53.708337  0.032199243  0.034770418            6 
  140000    1.0259449   -6.2581588    53.811411  0.032030602  0.034701508           10 
  141000    1.0452604   -6.2373193    54.185189  0.032024343  0.034632969            8 
  142000    1.0183649   -6.2647182    54.395446   0.03192221  0.034564142            7 
  143000    1.0606266   -6.2397419     54.72758  0.031892529  0.034493492            7 
  144000    1.0458926   -6.1945879    55.408295  0.032064985  0.034428699            2 
  145000    1.0368683   -6.2086105    55.435086  0.031859245  0.034362804            9 
  146000      1.02581   -6.2382558    55.774301  0.031834647  0.034297095            6 
  147000    1.0494698   -6.2651583    56.245275  0.031885076  0.034231202            3 
  148000    1.0128329   -6.2378109    56.519371   0.03182397  0.034168805            6 
  149000     1.035683   -6.2186374    56.878384  0.031811177  0.034104215            4 
  150000    1.0350255    -6.255498    56.977453   0.03165414   0.03403803            4 
  151000    1.0316626   -6.2469434    57.374456  0.031663607  0.033974317           13 
  152000     1.030787   -6.2433937    57.700173  0.031633867  0.033912384            6 
  153000    1.0332464   -6.2693468    58.180613  0.031688787   0.03385129            2 
  154000     1.020443   -6.2300138    58.396837   0.03160002  0.033790388            2 
  155000    1.0334973    -6.265323    58.858248  0.031644219  0.033729124            9 
  156000    1.0174886   -6.2988501    58.873413  0.031449473  0.033668658            6 
  157000    1.0147946   -6.2641282    59.179751  0.031411757  0.033605738            4 
  158000    1.0330913     -6.25842    59.404816  0.031331654  0.033541438            5 
  159000    0.9975594   -6.2462445    59.537899   0.03120435  0.033473737           12 
  160000    1.0259442   -6.2632417    60.074897  0.031289009  0.033407698           15 
  161000    1.0083223   -6.2950597    60.035918  0.031074492   0.03334112            4 
  162000    1.0123169   -6.2641808    60.287859  0.031012273  0.033272462            4 
  163000   0.98633805   -6.2989113    60.690535  0.031027881  0.033203994            6 
  164000    1.0161517   -6.3053035     60.92925  0.030959985  0.033136041            6 
  165000   0.99116906   -6.3095874    61.181211  0.030899601  0.033068736           11 
  166000    1.0109661   -6.2824974    61.765035  0.031006544  0.033001337            5 
  167000    1.0069768   -6.3167594    61.862231  0.030869377  0.032936476            2 
  168000     1.030952   -6.3232208    62.437797   0.03097113  0.032870973           13 
  169000    0.9819215   -6.3288696    62.383858  0.030761271  0.032806047            6 
  170000    1.0013711   -6.2918438    62.689105  0.030729953  0.032741472            7 
  171000    1.0091138   -6.3275974    62.838821  0.030623207  0.032674831            9 
  172000   0.99064338   -6.3164668    63.127261  0.030584913  0.032608937            7 
  173000    1.0019784    -6.300435    63.418894    0.0305486  0.032541836            6 
  174000    1.0093663   -6.3107741    63.841677  0.030575516  0.032477802            8 
  175000   0.98324133   -6.3007528    64.526231  0.030726777  0.032417089            6 
  176000   0.97117843   -6.3101297    64.686161  0.030627917   0.03235616            5 
  177000   0.98521738   -6.3265365    64.813149  0.030514665  0.032296404           11 
  178000    0.9790997   -6.3418499    65.042898  0.030450795  0.032235587            4 
  179000    1.0034556   -6.2991287    65.230877  0.030368192  0.032174302            7 
  180000   0.95394542   -6.3421131    65.407856  0.030281415  0.032111521            9 
  181000   0.98453545   -6.3286879    65.476277  0.030145615  0.032046917           10 
  182000   0.96984898   -6.3744245    65.863278  0.030157178  0.031982729           10 
  183000   0.99735387   -6.3702737    66.272181  0.030178588   0.03191697            8 
  184000   0.97651433   -6.3512363    66.266076   0.03001181  0.031850136            5 
  185000   0.96250143   -6.3567285    66.574423  0.029988479  0.031784423           10 
  186000   0.98916842   -6.3534861    66.706861  0.029886586  0.031717495            9 
  187000   0.97783098   -6.3675049    66.824615   0.02977924  0.031647468            6 
  188000   0.96540012   -6.3725836     67.22157  0.029796795  0.031578085            6 
  189000   0.97819073   -6.3418424     67.37914  0.029708615  0.031510094           10 
  190000   0.95935046   -6.3322809    67.533643  0.029620019  0.031443827            4 
  191000   0.97905322   -6.3972451    68.034292  0.029683373  0.031377769            6 
  192000   0.96143204   -6.3903416    68.343946  0.029663171  0.031313182           14 
  193000    0.9686824   -6.4013182    68.576656  0.029609955  0.031248571           12 
  194000   0.93872968   -6.3559085     68.86105  0.029579489  0.031185774           11 
  195000   0.97541988   -6.3834596    69.084501  0.029523291  0.031121791            9 
  196000   0.94798109   -6.3740791    69.303312  0.029465694  0.031057259            7 
  197000   0.95752357   -6.3921574    69.229633  0.029284955  0.030991216            8 
  198000   0.97046115   -6.3970047    69.342138  0.029184401  0.030923626            4 
  199000   0.93454442   -6.3688022    69.807526  0.029232632  0.030856649            7 
  200000   0.95600771   -6.3822658    70.060828  0.029192012  0.030789996           17 
  201000   0.95812131   -6.3824453    69.922707  0.028989514  0.030722444            9 
  202000   0.92520897   -6.4173676    70.249675  0.028980889  0.030653857            5 
  203000   0.95166541   -6.4099437    70.449707  0.028920241  0.030583979            9 
  204000   0.93341277   -6.4094443    70.814336  0.028927425  0.030515596            9 
  205000   0.94120195   -6.4244728     70.74631  0.028758663   0.03044544            5 
  206000   0.94814656   -6.4044512    71.188117  0.028797782  0.030376269           23 
  207000   0.94636043   -6.4143543    71.339183  0.028719478  0.030307438            8 
  208000     0.928729   -6.4317833    71.545708  0.028664146  0.030239819            8 
  209000   0.94781497   -6.4254628    71.920129  0.028676287  0.030172076            5 
  210000   0.91780611   -6.4098493    72.001967  0.028572209  0.030104806            6 
  211000   0.92937826   -6.4636867    72.231236  0.028527344  0.030038199           17 
  212000   0.93852984   -6.4470344    72.702413  0.028577993  0.029972922           10 
  213000   0.93576808   -6.4271323    72.939082  0.028536417  0.029909018            5 
  214000   0.93578461   -6.4323214    73.218379   0.02851183  0.029846038            7 
  215000   0.91573378   -6.4209326    73.398202  0.028448916  0.029782436            9 
  216000   0.94477166   -6.4554643    73.578816  0.028386889  0.029718808           11 
  217000   0.93840856   -6.4556748    73.905826  0.028381654   0.02965622            5 
  218000   0.90782584   -6.4485463    74.043314  0.028304019  0.029593582            5 
  219000    0.9028174   -6.4493844     74.42999  0.028321914  0.029532321            4 
  220000   0.91268508   -6.4304987    74.448693  0.028200262  0.029470484            8 
  221000   0.91772548   -6.4579956    74.875335  0.028233535  0.029408702            8 
  222000   0.92841908   -6.4660912    75.047931  0.028171145   0.02934534            8 
  223000   0.90953272   -6.4711746    74.964594  0.028013675   0.02928281            7 
  224000   0.90639566    -6.469493    75.147186  0.027956542  0.029219618            8 
  225000   0.92046138   -6.4655232    75.314979  0.027894436  0.029155107            5 
  226000   0.91843102   -6.4580662    75.429591  0.027813271  0.029090269            8 
  227000   0.91462784   -6.5022258    75.354236  0.027663082  0.029024415           12 
  228000   0.87397592   -6.4965844    75.690336  0.027664596  0.028958445            8 
  229000   0.90028078   -6.4714958    75.848915  0.027601497  0.028893215           11 
  230000   0.88746195   -6.5150813    76.075136  0.027563455  0.028827253           15 
  231000   0.90328248   -6.5044841    76.249132  0.027506902  0.028761707            4 
  232000   0.91545277    -6.499113    76.199889   0.02737065  0.028696076           13 
  233000   0.88048294   -6.5310228    76.312788  0.027293558  0.028628311            7 
  234000   0.90500035   -6.5412125    76.695869  0.027313344  0.028560488            9 
  235000   0.89785836   -6.4620364    76.706357  0.027200836  0.028493706            8 
  236000   0.91424322   -6.4763914    76.955165  0.027173434  0.028427694            9 
  237000   0.88266014   -6.5084215    77.192937  0.027142383  0.028361574           14 
  238000   0.88998015    -6.522224    77.350816  0.027083619  0.028294898            8 
  239000    0.9040726   -6.5313393    77.344776  0.026968192  0.028228588            7 
  240000    0.8798109   -6.5169517    77.438027  0.026888204  0.028161537            7 
  241000    0.8927128   -6.5424575    77.700316  0.026867329  0.028094761           14 
  242000   0.90267262   -6.5243877    77.748823  0.026773011  0.028027714           12 
  243000   0.87538253   -6.5018069    77.995192  0.026747322  0.027960235           12 
  244000   0.88031562   -6.5295978    77.896363  0.026603949  0.027892313            9 
  245000    0.8747973   -6.5259562    78.230955  0.026609168  0.027824662            8 
  246000   0.87096468   -6.5573584    78.362154  0.026545445  0.027757415            4 
  247000   0.88288223   -6.5452754    78.687567  0.026547762  0.027691185           14 
  248000   0.87746695   -6.5664347    78.422691  0.026351711  0.027624333            9 
  249000   0.88181233   -6.5434272     78.69155   0.02633586  0.027556255            9 
  250000   0.86621193   -6.5533254    78.646714  0.026215571  0.027487475           13 
  251000   0.86874368   -6.5200992    78.786387  0.026157499  0.027418028            7 
  252000   0.87627106   -6.5365852    79.182449  0.026184672    0.0273498            6 
  253000    0.8803481    -6.551873    79.348901  0.026136001  0.027282194           14 
  254000   0.86065764   -6.5485964    79.176972  0.025976697   0.02721407           11 
  255000    0.8655272   -6.5549409    79.339042  0.025927791  0.027145104           14 
  256000   0.84899023   -6.5272056    79.293734  0.025811762  0.027075988           18 
  257000   0.86782229   -6.5625073    79.556921  0.025796667  0.027006672            9 
  258000   0.86174999   -6.6261594    79.553652  0.025695624   0.02693698            5 
  259000   0.83612441   -6.5710282    79.669745  0.025633766  0.026866398           12 
  260000   0.84388523   -6.5808926    79.711416  0.025548531    0.0267955           11 
  261000   0.85390655   -6.5375823     80.01598  0.025547886  0.026724966           17 
  262000   0.86473099   -6.5738585     79.74636  0.025364618  0.026653524            9 
  263000   0.85971404   -6.5831654    79.890738  0.025313922  0.026581585           18 
  264000   0.82215866   -6.5944527    80.126929  0.025292591  0.026508834           10 
  265000   0.83478048    -6.622693    80.102868  0.025189581  0.026436856            7 
  266000   0.84393554    -6.596629    80.296522  0.025155552  0.026365094           26 
  267000   0.83902884   -6.5873575    80.471587  0.025115976  0.026292713           10 
  268000    0.8433418   -6.6173177    80.768287  0.025114517  0.026221922           18 
  269000    0.8620449   -6.6157893    80.926279  0.025070099  0.026151737           29 
  270000   0.84468715   -6.6203516    81.041422  0.025012784  0.026082396           19 
  271000   0.84496886   -6.5919199    81.315604  0.025004798  0.026013826           11 
  272000   0.83486329    -6.610803    81.159641  0.024865086  0.025945231           11 
  273000   0.86306768   -6.6355713    81.260664  0.024804842  0.025876021           12 
  274000   0.83899967   -6.6207766    81.299336  0.024726075  0.025806967            8 
  275000   0.84201351   -6.6138524    81.619048  0.024733045  0.025737114           12 
  276000   0.83533004   -6.6184425    81.598949  0.024637364  0.025668463           30 
  277000   0.82674136   -6.6507388    81.488678  0.024515246  0.025599475           17 
  278000    0.8207505   -6.6556849    81.306375  0.024372414  0.025529273           14 
  279000   0.84855931   -6.6658192    81.441849  0.024325522  0.025458714           14 
  280000   0.82549664   -6.6511266    81.882825  0.024369888  0.025388708            9 
  281000   0.81926916   -6.6411071    81.946728  0.024302114  0.025319174           14 
  282000    0.8099388   -6.6373642    82.213632  0.024294808  0.025249761           28 
  283000   0.80995009   -6.6601744    82.032192  0.024155534  0.025180502           31 
  284000   0.80621759   -6.6767449     82.21764  0.024124894   0.02511112           22 
  285000    0.8160823   -6.6257753     82.62705  0.024159956   0.02504242           17 
  286000   0.81951816   -6.6690045    82.613226  0.024071453   0.02497463           31 
  287000   0.80890197   -6.6465653    82.872998  0.024063007  0.024907724           17 
  288000    0.8038422   -6.6359354    82.973721    0.0240086  0.024841066           10 
  289000   0.81387492   -6.6533167    83.106042   0.02396368  0.024774801           29 
  290000   0.80098031   -6.6803851    83.179305  0.023902099  0.024708593            7 
  291000   0.80258869   -6.6779746    83.118402  0.023802521  0.024642335            9 
  292000   0.82280385   -6.6695073    83.556583  0.023846057   0.02457663            9 
  293000   0.79146379   -6.6637522    83.341778  0.023703577  0.024510446           15 
  294000   0.79731983   -6.6605169    83.315394  0.023615475  0.024443752           21 
  295000   0.77940047     -6.70092    83.704834  0.023645433   0.02437737           23 
  296000   0.80341474   -6.6695457     83.45278  0.023494589  0.024311237           21 
  297000    0.7905839   -6.6904756    83.574219  0.023449556  0.024244683           23 
  298000   0.78600952   -6.6871528    83.668165  0.023397138   0.02417806            9 
  299000   0.77313601   -6.6915543    84.078112  0.023433142  0.024111862           16 
  300000   0.81073216   -6.7106557    83.916104  0.023310029  0.024046352           22 
  301000   0.78626173   -6.6931263    83.951472  0.023242379   0.02398091           27 
  302000   0.79111194   -6.7149794    84.094796  0.023204966   0.02391614           30 
  303000   0.78451357   -6.6972783    84.265933  0.023175449  0.023851436           35 
  304000    0.7770015   -6.7060427      84.3953  0.023134676  0.023787332           22 
  305000   0.79748116    -6.708656    84.532372  0.023096276   0.02372375           16 
  306000   0.76340358   -6.7274317    84.851991  0.023107841  0.023660375           28 
  307000   0.77467062   -6.7512479    84.735378  0.023000917    0.0235973           26 
  308000   0.76886302   -6.7078768    84.822184  0.022949725  0.023534255           10 
  309000    0.7875242   -6.7516269    84.814076  0.022873268  0.023471226           19 
  310000   0.77407687   -6.7284178    84.986229   0.02284576  0.023408977           13 
  311000   0.76234582   -6.7403094    85.175418  0.022822995  0.023346714           64 
  312000   0.75583107   -6.7462345    85.070445  0.022721807  0.023283364           30 
  313000    0.7482483   -6.7699419    85.200979  0.022683967  0.023220364           21 
  314000   0.76252043     -6.73368    85.267106  0.022629274  0.023158029           30 
  315000   0.77839055   -6.7595689    85.397014  0.022591802  0.023095946           20 
  316000   0.75255241    -6.738545    85.264588  0.022485387  0.023033827           75 
  317000   0.75525541    -6.749495    85.350136  0.022436944  0.022971277           53 
  318000   0.76096059    -6.770543     85.63381  0.022440726   0.02290912           17 
  319000   0.76983492   -6.7581464    85.765144  0.022404688  0.022847449           64 
  320000   0.76189435   -6.7523488    85.997792  0.022395258  0.022786221           28 
  321000   0.75493941   -6.7794815    85.851463  0.022287503  0.022724436           16 
  322000   0.74268777   -6.7703076    85.816508  0.022209241  0.022662843           13 
  323000   0.74966031   -6.7938856    85.763553   0.02212682  0.022601325           20 
  324000   0.74188242   -6.7601407    85.954418  0.022107618  0.022539794           16 
  325000     0.788374   -6.7822991    86.030997   0.02205923  0.022478622           14 
  326000    0.7508034   -6.7745886    86.247119  0.022046809  0.022417969           21 
  327000   0.74314951   -6.7930346    86.247568  0.021979502  0.022357496           34 
  328000   0.75549413   -6.8194077    86.086526  0.021871577  0.022296842           52 
  329000   0.75126301   -6.7869822    86.177443  0.021828126  0.022236008           57 
  330000    0.7465463   -6.7969233    86.057698  0.021731742  0.022175048           59 
  331000    0.7427015   -6.7854919    86.324492  0.021733256  0.022114016           49 
  332000   0.72336005   -6.8232014    86.279228  0.021656433  0.022053113           52 
  333000   0.72175897   -6.8074589    86.449362  0.021633974  0.021992253           48 
  334000   0.72172156    -6.804885    86.396358  0.021555977  0.021931284           50 
  335000   0.72504306   -6.8068397    86.441226  0.021502793  0.021870457           37 
  336000   0.73369633   -6.8183583    86.406415  0.021430162  0.021809645           33 
  337000   0.74349853   -6.8061085    86.504377  0.021390796  0.021749459           28 
  338000   0.73907913   -6.8425973    86.644702  0.021362106  0.021689224           50 
  339000   0.72368808   -6.8118954    86.580028  0.021283193  0.021628768           28 
  340000   0.71802756   -6.8140151    86.683882   0.02124605  0.021568684           26 
  341000   0.71816333   -6.8086428    86.797823  0.021211589  0.021508732           26 
  342000   0.72765561   -6.8262828    86.829362  0.021157252  0.021448783           69 
  343000   0.70546154   -6.8347833     86.82843  0.021095343  0.021388715           43 
  344000   0.72390401   -6.8574993    86.910909  0.021053999  0.021328938           59 
  345000   0.70518439   -6.8566301    86.944601  0.021001111  0.021269326           59 
  346000   0.70852021   -6.8452628      87.1249  0.020983839  0.021210001           51 
  347000   0.71394698   -6.8692958    87.016839  0.020897416   0.02115068           38 
  348000   0.69441223   -6.8837216    87.014007  0.020836687  0.021091232          141 
  349000   0.68764682   -6.8289324    87.144013  0.020808026   0.02103203          107 
  350000   0.72298791   -6.8392637    87.465078  0.020825018  0.020973294           54 
  351000   0.71511382   -6.8697231    87.251352  0.020714946  0.020914644          131 
  352000   0.70187859    -6.883552    87.271213  0.020660799   0.02085619          159 
  353000   0.70362251   -6.8811011    87.343113  0.020619243  0.020797699          169 
  354000   0.69868612   -6.8929138    87.271704  0.020544186  0.020739299          185 
  355000   0.69050767   -6.8758671    87.289622  0.020490521  0.020680801          130 
  356000   0.69191255   -6.8943678    87.322924  0.020440759  0.020622451          134 
  357000   0.70825709   -6.8936108    87.380736  0.020396997  0.020564111          266 
  358000   0.70284217   -6.9111051    87.434102  0.020352445  0.020506043          254 
  359000   0.69672621   -6.9024304    87.365345  0.020279792  0.020448029          257 
  360000    0.6886745   -6.9362006    87.397394  0.020230878  0.020390076          273 
  361000    0.6941401   -6.9011685    87.569638  0.020214598  0.020331961          336 
  362000   0.69477112   -6.9117431    87.579554  0.020161039   0.02027429          347 
  363000   0.68282114   -6.9114275    87.466218  0.020079481  0.020216367          326 
  364000   0.67945991   -6.9478226     87.40806  0.020011003  0.020158721          365 
  365000   0.69598097   -6.9527573    87.358336  0.019944825  0.020100963          462 
  366000   0.68748847    -6.944129    87.445111  0.019910089  0.020043305          430 
  367000   0.69670617   -6.9402689    87.425243  0.019851327  0.019985408          436 
  368000   0.67029257   -6.9434813      87.5987  0.019836662  0.019927703          637 
  369000   0.67400536   -6.9675872    87.630545  0.019790096  0.019870554          739 
  370000   0.68957943   -6.9404584    87.634912  0.019737593  0.019813493          815 
  371000   0.66091345   -6.9712238    87.655831   0.01968909  0.019756432          825 
  372000   0.68741392   -6.9747469    87.610581  0.019626026  0.019699349          636 
  373000   0.68487282   -6.9935163    87.756064  0.019605912  0.019642422          889 
  374000   0.65794129   -6.9858918    87.676377  0.019535735  0.019585415          914 
  375000   0.67415177   -7.0042028    87.754404  0.019500979  0.019528492         1020 
  376000   0.66986313   -7.0000698    87.772909  0.019453216  0.019471859         1109 
  377000   0.68605739   -7.0008129    87.705701   0.01938676  0.019415118         1147 
  378000    0.6621785   -7.0247803    87.556597  0.019302601   0.01935834         1273 
  379000   0.64751886   -7.0090062    87.557443  0.019251856  0.019301472         1202 
  380000   0.65252373   -7.0239132    87.589586  0.019208243  0.019244991         1223 
  381000   0.66440087   -7.0253017    87.770687  0.019197438  0.019188738         1156 
  382000   0.66082464   -7.0488087    87.779231  0.019149047  0.019132734         1362 
  383000   0.65618152   -7.0381678    87.424305  0.019021824  0.019076455         1355 
  384000   0.67078425    -7.050484    87.888102  0.019072939  0.019020373         1433 
  385000   0.63827254   -7.0620318    87.758573  0.018995362   0.01896425         1395 
  386000    0.6516109   -7.0402877    87.675909  0.018928305  0.018908464         1519 
  387000   0.63931136   -7.0582573    87.777684   0.01890131  0.018852762         1506 
  388000   0.64114558   -7.0748623    87.734146  0.018843244  0.018797083         1587 
  389000   0.65951571   -7.0619838    87.568063  0.018759225    0.0187411         1652 
  390000   0.64531999   -7.0775009    87.544314   0.01870605  0.018685312         1761 
  391000   0.63634419   -7.0893771    87.365149  0.018620023  0.018629373         1777 
  392000   0.63548917   -7.1058516    87.411085  0.018582289  0.018573279         1916 
  393000   0.63302222   -7.1268825    87.472392  0.018548005  0.018517271         2018 
  394000   0.64299168   -7.1560887    87.399902  0.018485597  0.018461263         2135 
  395000    0.6447977   -7.1268769    87.460501  0.018451582  0.018405469         2211 
  396000   0.63006059   -7.1543599    87.431513  0.018398887  0.018349706         2336 
  397000   0.63616912   -7.1738371    87.369971  0.018339624  0.018293961         2411 
  398000   0.63569429   -7.1636825    87.234574  0.018265196    0.0182381         2421 
  399000   0.62544001   -7.1891389    87.320374  0.018237338  0.018182318         2526 
  400000   0.62735327   -7.1746991    87.367821  0.018201629  0.018126689         2595 
  401000   0.63227006   -7.1864124    87.381141  0.018159007  0.018071067         2577 
  402000   0.62183237   -7.2125562    87.362414  0.018109953   0.01801568         2694 
  403000   0.61724962   -7.1846421    87.132946  0.018017565  0.017960447         2684 
  404000    0.6160175   -7.2087609    87.372607  0.018022402  0.017905194         2832 
  405000   0.62345254   -7.2201348    87.287536  0.017960398  0.017850011         2848 
  406000   0.61884003    -7.226119    87.320158  0.017922857  0.017795032         2874 
  407000   0.61629764   -7.2411496    87.153399  0.017844676  0.017740147         2957 
  408000   0.61426647   -7.2503594    87.414419  0.017854252   0.01768553         2912 
  409000   0.62196272   -7.2471289    87.200927    0.0177671  0.017630869         3011 
  410000   0.61769401   -7.2487771    87.177919  0.017719089  0.017576472         3013 
  411000   0.62288787   -7.2244934    87.181171  0.017676636  0.017522196         2934 
  412000    0.5935798   -7.2416574    87.272271  0.017652158  0.017468039         2980 
  413000    0.6210284   -7.2488151    87.393883  0.017633955  0.017413977         3020 
  414000   0.59814018   -7.2647729    87.232246  0.017558826  0.017360146         2996 
  415000   0.61985206   -7.2676741     87.28448  0.017527004  0.017306317         3054 
  416000   0.60896605   -7.2639753    87.112332  0.017450387  0.017252754         3020 
  417000   0.59839235   -7.2698382    87.171098  0.017420283  0.017199379         3087 
  418000   0.61270887   -7.2897283    87.196282  0.017383629  0.017146017         3120 
  419000   0.58344489   -7.2884437    87.112901  0.017325557  0.017092726         3123 
  420000   0.61173323   -7.2796881    87.040736  0.017269987  0.017039698         3077 
  421000    0.6073397   -7.2922529    87.208323  0.017262138  0.016986731         3098 
  422000   0.61297742   -7.2949074    87.386451  0.017256408  0.016933995         3133 
  423000   0.58503882   -7.3086211    87.153746  0.017169769  0.016881358         3052 
  424000   0.57809215   -7.2900617    87.224653   0.01714321  0.016828864         3108 
  425000   0.58143438   -7.2814101    87.181952    0.0170945  0.016776384         3075 
  426000   0.58295474   -7.3073777    87.344655    0.0170862  0.016724082         3113 
  427000   0.58741118   -7.2966185    87.185054  0.017015038  0.016671953         3141 
  428000   0.59427465   -7.3355856    87.037789   0.01694661  0.016620079         3137 
  429000   0.58228597   -7.3254987    87.109986  0.016921132   0.01656824         3132 
  430000   0.57762853   -7.3124535    86.886446  0.016838459  0.016516591         3135 
  431000   0.59402103   -7.3280537    87.071282  0.016835128  0.016465101         3078 
  432000   0.57323947   -7.3154115    86.959475   0.01677459  0.016413732         3109 
  433000   0.57637941   -7.3021765    87.052666  0.016753785  0.016362536         3138 
  434000    0.5824514   -7.3309744    87.102653   0.01672478  0.016311497         3155 
  435000   0.57291954   -7.3321426    86.916306  0.016650633   0.01626058         3156 
  436000   0.57363111   -7.3183859    86.988747  0.016626289  0.016209867         3174 
  437000   0.56430314   -7.3357823    87.096325  0.016608758   0.01615931         3123 
  438000   0.56547704   -7.3408508    87.007338  0.016553908  0.016108952         3215 
  439000   0.56225669    -7.336879    87.108244  0.016535354  0.016058766         3180 
  440000   0.56019801    -7.342831    86.948501  0.016467519  0.016008706         3134 
  441000   0.56397687   -7.3327115    86.858343  0.016413141  0.015958706         3203 
  442000   0.55704407   -7.3499724    87.013856  0.016405327  0.015908793         3233 
  443000   0.55789544    -7.338467    86.921324  0.016350889  0.015859098         3218 
  444000    0.5595681   -7.3466281    86.901077  0.016310262  0.015809593         3240 
  445000   0.56648948   -7.3692743    87.082837  0.016307647  0.015760289         3326 
  446000   0.54911132   -7.3416857    86.839967  0.016225704  0.015711168         3275 
  447000   0.55189264   -7.3532293      86.9503  0.016209974  0.015662156         3296 
  448000   0.54530335   -7.3695981    86.950566   0.01617384  0.015613251         3358 
  449000   0.55671417   -7.3727812    86.902781   0.01612895  0.015564402         3354 
  450000   0.54393735   -7.3791644    86.914898  0.016095351   0.01551584         3328 
  451000   0.54942556   -7.3721081    86.840954     0.016046   0.01546748         3328 
  452000   0.54492017   -7.3823514    87.027129  0.016044825  0.015419223         3319 
  453000   0.53781185   -7.3840694    86.901747  0.015986341  0.015371095         3329 
  454000   0.53955425   -7.4018049    86.948512  0.015959712  0.015323208         3291 
  455000   0.54272352   -7.3962409    86.827032  0.015902387  0.015275403         3300 
  456000   0.54765706   -7.3839705    86.833145   0.01586863  0.015227749         3379 
  457000   0.53482703   -7.3707089    86.823746  0.015832193  0.015180235         3386 
  458000   0.55293571   -7.3965364    86.770548  0.015787945  0.015132912         3404 
  459000   0.54119004   -7.4129662    86.865263  0.015770745   0.01508578         3419 
  460000   0.53329331   -7.4033156     86.76818  0.015718873  0.015038718         3379 
  461000   0.53076258   -7.4149748    86.848745  0.015699339   0.01499187         3433 
  462000   0.52514142   -7.4159066    86.691226  0.015636945  0.014945171         3439 
  463000    0.5156441   -7.4013127     86.83783  0.015629559   0.01489857         3352 
  464000   0.52251312   -7.4093892    86.880191  0.015603483  0.014852211         3418 
  465000   0.53184482   -7.4232776    86.751086   0.01554679  0.014805944         3381 
  466000    0.5279585   -7.4198826     86.74237  0.015511869  0.014759918         3431 
  467000    0.5063326   -7.4175111    86.782211  0.015485762  0.014714052         3420 
  468000   0.52093158   -7.4484271    86.881392  0.015470333  0.014668245         3417 
  469000   0.51592371   -7.4286707    86.776435  0.015418698  0.014622722         3423 
  470000   0.51961666   -7.4477675    86.775571  0.015385739  0.014577311         3450 
  471000   0.50532515   -7.4215223    86.890393  0.015373389  0.014532156         3422 
  472000   0.52102011   -7.4424539    86.715431  0.015309928  0.014487179         3474 
  473000   0.50369373   -7.4392122    86.802088  0.015292827  0.014442423         3442 
  474000   0.52198626   -7.4375497    86.727228  0.015247403  0.014397787         3427 
  475000   0.50686272   -7.4529334    86.765891  0.015222086  0.014353185         3474 
  476000   0.50799167    -7.440953    86.754294  0.015188077  0.014308824         3448 
  477000   0.50010341   -7.4551622    86.811565  0.015166241  0.014264619         3408 
  478000   0.50409381   -7.4486372    86.698905  0.015114872  0.014220505         3419 
  479000   0.50367375   -7.4683479    86.748521  0.015091949  0.014176577         3430 
  480000   0.49969521   -7.4638254    86.816236  0.015072263   0.01413276         3419 
  481000   0.49109305   -7.4908764    86.653758  0.015012779  0.014089071         3455 
  482000    0.4972488   -7.4833965    86.626096  0.014976849  0.014045548         3496 
  483000   0.49693119   -7.4911339     86.70299  0.014959108  0.014002129         3466 
  484000   0.48763092   -7.4810562    86.543665  0.014900769  0.013958816         3437 
  485000   0.48440086   -7.4968783    86.616543  0.014882568  0.013915682         3456 
  486000   0.49147472   -7.4979349    86.590027  0.014847398  0.013872761         3486 
  487000    0.4802585   -7.4942744    86.435188  0.014790415  0.013829838         3536 
  488000   0.48300697   -7.5194945    86.737816  0.014811785  0.013787137         3486 
  489000   0.47477159   -7.4942611    86.489574  0.014739191   0.01374456         3492 
  490000   0.48540274   -7.5140036    86.519074  0.014714128   0.01370213         3514 
  491000   0.47868877   -7.4969933    86.547504  0.014688986   0.01365989         3481 
  492000   0.48594585   -7.5357041    86.582616  0.014665077  0.013617772         3553 
  493000   0.47798475    -7.508514    86.472117  0.014616653  0.013575747         3524 
  494000   0.48731218   -7.5119255    86.510865  0.014593601  0.013533932         3569 
  495000   0.46615066   -7.5123485    86.350966    0.0145372  0.013492249         3560 
  496000   0.46525322   -7.5256505    86.477652  0.014529175  0.013450667         3569 
  497000   0.46991562   -7.5274266    86.372419  0.014482297  0.013409237         3551 
  498000   0.47007225   -7.5333378    86.413812  0.014460143  0.013367891         3571 
  499000   0.47593469   -7.5216874    86.462391  0.014439277  0.013326712         3593 
  500000     0.469981   -7.5421426    86.413789  0.014402298  0.013285662         3565 
  501000   0.46596571   -7.5330602    86.304787   0.01435542  0.013244779         3614 
  502000   0.46605733   -7.5445557    86.280636  0.014322815  0.013204079         3563 
  503000   0.46936438   -7.5478534    86.410583  0.014315869  0.013163516         3593 
  504000   0.45626236   -7.5461534    86.170687  0.014247799  0.013123085         3603 
  505000   0.46592212   -7.5587019    86.259242  0.014234198  0.013082793         3579 
  506000   0.46592415   -7.5378358    86.212002  0.014198288  0.013042655         3572 
  507000   0.45334475   -7.5468031    86.225962  0.014172578  0.013002643         3580 
  508000   0.45255784   -7.5728197    86.276486  0.014152967   0.01296277         3544 
  509000   0.45386406   -7.5682857    86.373974  0.014141122  0.012923083         3541 
  510000   0.44945183   -7.5528032    86.257512  0.014094365  0.012883591         3556 
  511000   0.44524958   -7.5764734    86.328802  0.014078409  0.012844257         3601 
  512000   0.44250383   -7.5803066    86.264325  0.014040417  0.012805074         3598 
Loop time of 1051.04 on 48 procs for 500000 steps with 4000 atoms

Performance: 82204.462 tau/day, 475.720 timesteps/s
99.4% CPU use with 48 MPI tasks x no OpenMP threads

MPI task timing breakdown:
Section |  min time  |  avg time  |  max time  |%varavg| %total
---------------------------------------------------------------
Pair    | 63.35      | 68.301     | 75.713     |  33.9 |  6.50
Neigh   | 6.6294     | 6.7557     | 7.2236     |   3.5 |  0.64
Comm    | 56.022     | 61.679     | 67.394     |  32.4 |  5.87
Output  | 0.90683    | 0.9073     | 0.9167     |   0.1 |  0.09
Modify  | 895.47     | 901.74     | 907.07     |   9.1 | 85.79
Other   |            | 11.66      |            |       |  1.11

Nlocal:        83.3333 ave          89 max          78 min
Histogram: 2 2 6 10 6 9 4 4 2 3
Nghost:        1735.46 ave        1749 max        1721 min
Histogram: 3 2 3 8 3 12 5 6 3 3
Neighs:        10443.8 ave       11598 max        9345 min
Histogram: 1 0 6 7 12 12 6 2 1 1
FullNghs:      20887.7 ave       22623 max       19322 min
Histogram: 2 1 7 10 8 7 8 2 1 2

Total # of neighbors = 1002611
Ave neighs/atom = 250.65275
Neighbor list builds = 27012
Dangerous builds = 0

#clear
#
#next RN
#
#jump SELF
Total wall time: 0:17:33
