
units lj                  # Use reduced LJ style units
atom_style atomic         # Uncharged point particles
atom_modify map hash      # Needed for indexing of clusters etc
                          # Used to be able to find where atoms are in relation to each other.

lattice fcc 1.0 spacing 1 1 1
Lattice spacing in x,y,z = 1.5874011 1.5874011 1.5874011
region box block 0 10 0 10 0 10 units lattice
create_box 2 box
Created orthogonal box = (0.0000000 0.0000000 0.0000000) to (15.874011 15.874011 15.874011)
  3 by 4 by 4 MPI processor grid
create_atoms 1 box
Created 4000 atoms
  using lattice units in orthogonal box = (0.0000000 0.0000000 0.0000000) to (15.874011 15.874011 15.874011)
  create_atoms CPU = 0.037 seconds
set type 1 type/fraction 2 0.78 78393
Setting atom values ...
  3107 settings made for type/fraction
mass 1 1.0
mass 2 1.0
pair_style lj/cut  3.5
pair_modify tail  yes
pair_coeff 1  1  1.0  1.0   # Intearaction between 1 and 1 set with epsilon = 1 and sigma = 1
pair_coeff 1  2  1.5  0.8
pair_coeff 2  2  0.5  0.88

write_data data.0
System init for write_data ...
Neighbor list info ...
  update every 1 steps, delay 10 steps, check yes
  max neighbors/atom: 2000, page size: 100000
  master list distance cutoff = 3.8
  ghost atom cutoff = 3.8
  binsize = 1.9, bins = 9 9 9
  1 neighbor lists, perpetual/occasional/extra = 1 0 0
  (1) pair lj/cut, perpetual
      attributes: half, newton on
      pair build: half/bin/atomonly/newton
      stencil: half/bin/3d
      bin: standard
WARNING: Not all mixed pair coeffs generated from mixing. Use write_data with 'pair ij' option to store all pair coeffs. (../write_data.cpp:312)


#############################
#   M E L T   S Y S T E M   #
#############################

velocity all create 2.4 3143649 mom yes dist gaussian # Assign velocities
                                                    # Temperature 2.4, random number seed, zero linear momentum
                                                                                # Gaussian distribution

timestep 0.002   # simulation timestep
thermo 1000       # output thermodynamic data every 1000 steps bf 100

# Define a fix  in this case with index 1 applied to all
# particles in the simulation. This fix is for simulations
# in the anisotropic NPT ensemble. Note that we use the MTK
# correction.
fix 1 all npt temp 2.4 2.4 0.1 iso 5.68 5.68 0.5 mtk yes tchain 5 pchain 5 # Use NPT ensemble
                                                                         # Set temperature and pressure and damping
                                                                         # Numbers of thermostats in chain and in barostat
run 10000          # run for 10000 steps
Per MPI rank memory allocation (min/avg/max) = 3.642 | 3.644 | 3.648 Mbytes
Step Temp E_pair E_mol TotEng Press Volume 
       0          2.4   -3.8018078            0  -0.20270782   -3.3841895         4000 
    1000     2.377256    -3.253372            0   0.31162056    5.1902936    3794.1718 
    2000    2.4201766   -3.2529293            0   0.37642794     5.842594    3730.8466 
    3000    2.3644158   -3.2267266            0   0.31901037    5.6484164    3743.2597 
    4000    2.3503319   -3.2340736            0   0.29054291    5.5201383    3753.7318 
    5000    2.3881436   -3.2141144            0   0.36720541    5.8724915    3745.1532 
    6000    2.4008753   -3.2846856            0   0.31572707     5.771445    3719.8848 
    7000    2.4030223   -3.2526267            0   0.35100557    5.4558848    3757.9398 
    8000    2.4222602   -3.2458221            0   0.38665986    6.0840125    3696.1146 
    9000    2.3699201   -3.2108041            0   0.34318733    5.8906284    3735.9518 
   10000    2.3642749    -3.202219            0   0.34330667    5.5206924    3787.5571 
Loop time of 2.62482 on 48 procs for 10000 steps with 4000 atoms

Performance: 658329.738 tau/day, 3809.779 timesteps/s
99.6% CPU use with 48 MPI tasks x no OpenMP threads

MPI task timing breakdown:
Section |  min time  |  avg time  |  max time  |%varavg| %total
---------------------------------------------------------------
Pair    | 1.194      | 1.2431     | 1.2951     |   2.3 | 47.36
Neigh   | 0.22108    | 0.22689    | 0.2362     |   0.7 |  8.64
Comm    | 0.81779    | 0.8821     | 0.95767    |   3.1 | 33.61
Output  | 0.00025781 | 0.00026428 | 0.00034424 |   0.0 |  0.01
Modify  | 0.22501    | 0.25725    | 0.28936    |   3.3 |  9.80
Other   |            | 0.01524    |            |       |  0.58

Nlocal:        83.3333 ave          95 max          77 min
Histogram: 6 11 9 5 4 3 3 3 2 2
Nghost:        1706.98 ave        1739 max        1659 min
Histogram: 1 1 4 2 2 13 6 10 8 1
Neighs:        10083.2 ave       11725 max        9036 min
Histogram: 6 6 9 6 8 2 5 1 3 2

Total # of neighbors = 483996
Ave neighs/atom = 120.99900
Neighbor list builds = 920
Dangerous builds = 293

# Equilibrate just above the melting temperature to avoid step fn in T

fix 1 all npt temp 1.25 1.25 0.1 iso 5.68 5.68 0.5 mtk yes tchain 5 pchain 5
run 2000
Per MPI rank memory allocation (min/avg/max) = 3.644 | 3.646 | 3.649 Mbytes
Step Temp E_pair E_mol TotEng Press Volume 
   10000    2.3642749    -3.202219            0   0.34330667    5.5206924    3787.5571 
   11000    1.2333584    -4.782665            0   -2.9330899    5.7986945    2868.0184 
   12000    1.2467578   -4.7685425            0   -2.8988733    5.7964743    2866.6179 
Loop time of 0.672674 on 48 procs for 2000 steps with 4000 atoms

Performance: 513770.190 tau/day, 2973.207 timesteps/s
99.6% CPU use with 48 MPI tasks x no OpenMP threads

MPI task timing breakdown:
Section |  min time  |  avg time  |  max time  |%varavg| %total
---------------------------------------------------------------
Pair    | 0.30232    | 0.32142    | 0.39119    |   2.4 | 47.78
Neigh   | 0.042274   | 0.043839   | 0.051152   |   0.6 |  6.52
Comm    | 0.18437    | 0.25606    | 0.27562    |   2.8 | 38.07
Output  | 5.4352e-05 | 5.556e-05  | 6.8887e-05 |   0.0 |  0.01
Modify  | 0.039328   | 0.046268   | 0.051669   |   1.6 |  6.88
Other   |            | 0.005031   |            |       |  0.75

Nlocal:        83.3333 ave          91 max          76 min
Histogram: 3 2 4 4 17 3 5 3 3 4
Nghost:        2058.44 ave        2079 max        2033 min
Histogram: 2 2 1 8 4 7 11 7 4 2
Neighs:        13329.8 ave       14779 max       12181 min
Histogram: 4 5 8 5 7 6 6 2 2 3

Total # of neighbors = 639830
Ave neighs/atom = 159.95750
Neighbor list builds = 143
Dangerous builds = 10

#############################
# L I N E A R  Q U E N C H  #
#############################

# Define solid atoms. This closely follows ten Wolde  Ruiz-Montero and Frenkel  Faraday Discuss  1996  104  93-110
# Compute components of the per-atom q6 vector
compute q6 all orientorder/atom degrees 1 6 components 6 nnn NULL cutoff 1.3 # compute the Q6 parameter.
                                                                             # Use all neighbours within 1.3 unit cell.

# get number of connections
compute coord_number all coord/atom orientorder q6 0.5

# An atom is solid if it has 8 or more connections (of a possible 14)
variable is_solid atom c_coord_number>=8
group solid dynamic all var is_solid    # Must be dynamic to update
dynamic group solid defined

# do clustering
compute cluster solid cluster/atom 1.3 # Create a cluster where all atoms within are solid and max 1.3 units from another member

# define chunks one chunk per cluster
compute clus_chunks solid chunk/atom c_cluster nchunk every compress yes  # Says which atoms are in which chunk

# count the size of each chunk
compute size_chunks solid property/chunk clus_chunks count


# Find the maximum entry in the vector of chunk sizes
variable max_n equal max(c_size_chunks)


# Thermo style which includes this variable
# thermo_style custom step temp pe vol v_max_n

thermo ${N}  # Print the thermo information every 100 steps
thermo 1000  

# Reset the npt fix at a lower temperature (below freezing)
fix 1  all npt temp  ${temp} ${temp}  0.1  iso  5.68  5.68  0.5  mtk yes tchain  5  pchain  5
fix 1  all npt temp  0.45 ${temp}  0.1  iso  5.68  5.68  0.5  mtk yes tchain  5  pchain  5
fix 1  all npt temp  0.45 0.45  0.1  iso  5.68  5.68  0.5  mtk yes tchain  5  pchain  5

dump dmp2 all dcd ${N} traj.dcd
dump dmp2 all dcd 1000 traj.dcd


compute msd all msd com yes
variable twopoint equal c_msd[4]/6/(step*dt+1.0e-6)
fix 9 all vector 10 c_msd[4]
variable fit equal slope(f_9)/6/(10*dt)
thermo_style custom step temp pe c_msd[4] v_twopoint v_fit v_max_n

fix 1 all npt temp 1.25 ${temp} 0.1 iso 5.68 5.68 0.5 mtk yes tchain 5 pchain 5
fix 1 all npt temp 1.25 0.45 0.1 iso 5.68 5.68 0.5 mtk yes tchain 5 pchain 5
run 500000 # 5000000  # Run for this many steps
Neighbor list info ...
  update every 1 steps, delay 10 steps, check yes
  max neighbors/atom: 2000, page size: 100000
  master list distance cutoff = 3.8
  ghost atom cutoff = 3.8
  binsize = 1.9, bins = 8 8 8
  4 neighbor lists, perpetual/occasional/extra = 1 3 0
  (1) pair lj/cut, perpetual
      attributes: half, newton on
      pair build: half/bin/atomonly/newton
      stencil: half/bin/3d
      bin: standard
  (2) compute orientorder/atom, occasional
      attributes: full, newton on
      pair build: full/bin/atomonly
      stencil: full/bin/3d
      bin: standard
  (3) compute coord/atom, occasional
      attributes: full, newton on
      pair build: full/bin/atomonly
      stencil: full/bin/3d
      bin: standard
  (4) compute cluster/atom, occasional
      attributes: full, newton on
      pair build: full/bin/atomonly
      stencil: full/bin/3d
      bin: standard
Per MPI rank memory allocation (min/avg/max) = 9.838 | 9.843 | 9.848 Mbytes
Step Temp PotEng c_msd[4] v_twopoint v_fit v_max_n 
   12000    1.2467578   -4.7685425 1.8581619e-30 1.2903901e-32 8.3333333e+20            2 
   13000    1.2518904   -4.7518744   0.74895218 0.0048009753  0.063168825            2 
   14000    1.2382202   -4.7980832    1.5547924 0.0092547164  0.065449939            2 
   15000    1.2387824   -4.7751704    2.3632805  0.013129336  0.066278801            1 
   16000    1.2222609   -4.7902701    3.1442916  0.016376518  0.066294881            2 
   17000    1.2519565   -4.7777677    3.8821461  0.019030127  0.065800284            2 
   18000    1.2384515   -4.8143667    4.6366053  0.021465765  0.065062058            5 
   19000    1.2425685   -4.7905709    5.3904667  0.023642397   0.06472006            2 
   20000     1.238735   -4.7857939    6.1764799  0.025735332  0.064348073            2 
   21000       1.2458   -4.8077187    6.8642138  0.027238943  0.063966247            4 
   22000    1.2367576   -4.8264644    7.4558647  0.028241911  0.063200508            4 
   23000    1.2424993   -4.8102337    8.2128215  0.029756599  0.062489735            2 
   24000    1.2481964   -4.8128305    8.8634111  0.030775732  0.061904254            2 
   25000    1.2682582    -4.786672    9.6178162  0.032059387  0.061504692            2 
   26000    1.2267062   -4.8288688    10.390276  0.033302167  0.061295398            3 
   27000    1.2493693   -4.7678846    11.215645  0.034616187  0.061254133            2 
   28000     1.221205   -4.8295348    12.003404  0.035724417  0.061389232            2 
   29000    1.2191398   -4.8328033    12.764087  0.036678411  0.061563347            2 
   30000    1.2279455     -4.82652    13.549081  0.037636335  0.061722951            2 
   31000    1.2161661   -4.8118214    14.288105  0.038408883  0.061848432            1 
   32000    1.2296793   -4.8870467    14.868004   0.03871876  0.061907361            3 
   33000    1.2171768   -4.8408544    15.761507  0.039801785  0.061990986            3 
   34000    1.2162839   -4.8073817    16.558656  0.040584941  0.062043226            3 
   35000    1.2164404   -4.8165399    17.192962  0.040935623  0.062002658            2 
   36000    1.2262442   -4.8385521    17.814177  0.041236521  0.061940132            3 
   37000    1.2143284   -4.8564752    18.611326    0.0419174  0.061859065            2 
   38000    1.2215051   -4.8721783    19.226124  0.042162552  0.061776545            4 
   39000    1.2246111   -4.8635229    19.838273  0.042389473  0.061653769            3 
   40000    1.2118547   -4.8462489     20.41678  0.042534959  0.061468327            3 
   41000    1.2112051   -4.8903468    21.234737  0.043160035  0.061290353            4 
   42000    1.2224287   -4.8745939    21.906666  0.043465606  0.061108321            3 
   43000     1.183039   -4.8862985    22.592115  0.043783167  0.060983187            6 
   44000    1.1867803   -4.8959912    23.516364  0.044538568   0.06092057            2 
   45000    1.1943227   -4.8942779    24.141855  0.044707138   0.06086873            2 
   46000    1.1734867   -4.8884428    24.851936  0.045021623  0.060772754            2 
   47000    1.1750766   -4.9364337    25.550902  0.045303017  0.060692675            1 
   48000     1.180614   -4.8648081    26.256423  0.045584068  0.060663799            2 
   49000    1.1981241   -4.9045847    27.050697  0.046004587  0.060608466            4 
   50000    1.1857909   -4.8738348    27.792464  0.046320773  0.060545219            3 
   51000    1.1879964   -4.8782735    28.582214  0.046702964   0.06052451            4 
   52000    1.1679793   -4.9215155    29.474737  0.047235155  0.060552214            3 
   53000    1.1819538   -4.9345649    30.067572  0.047276055  0.060592097            2 
   54000    1.1634404     -4.88367     30.94121   0.04774878  0.060604592            2 
   55000    1.1921799   -4.9112519    31.398419  0.047573361  0.060585087            5 
   56000    1.1654538   -4.8754199    32.188491  0.047899539  0.060554801            3 
   57000    1.1603821   -4.9360965    32.534404  0.047564918  0.060467143            3 
   58000    1.1918039   -4.9171462    33.208636  0.047713558  0.060384546            3 
   59000     1.166241   -4.9102507    33.803636  0.047745249  0.060285968            1 
   60000    1.1779142   -4.9243464    34.609103  0.048068198   0.06020436            2 
   61000    1.1756575   -4.9129385    35.465534  0.048450183  0.060122589            2 
   62000    1.1514462   -4.9197027    35.578104  0.047820032  0.059991711            4 
   63000     1.179014   -4.9286401    36.210056  0.047896899  0.059839061            2 
   64000    1.1638761   -4.9746501    36.723912  0.047817593  0.059684728            2 
   65000    1.1846627   -4.9266073     37.56312  0.048157845  0.059524789            4 
   66000    1.1800231   -4.9360793    38.370749  0.048447916  0.059403253            3 
   67000    1.1386735   -4.9288071    38.985129  0.048488966  0.059285789            4 
   68000    1.1658717   -4.9371542    39.465595    0.0483647  0.059152568            2 
   69000    1.1669783    -4.945236    40.146726  0.048486383   0.05903616            2 
   70000    1.1763175   -4.9679811    40.614157  0.048350186  0.058905929            6 
   71000    1.1385453    -4.987225    41.470785   0.04867463  0.058774121            6 
   72000    1.1670649   -4.9448871    42.179093  0.048818395  0.058642643            1 
   73000    1.1713988   -4.9586133    42.608399  0.048639725   0.05852566            3 
   74000     1.145895   -4.9617207    43.152201   0.04859482  0.058384294            3 
   75000    1.1438672   -4.9569299    43.795997  0.048662218  0.058256868            1 
   76000    1.1386288   -4.9760209    44.309129  0.048584571    0.0581233            2 
   77000    1.1655713   -4.9630292    44.913061  0.048607208  0.057987631            1 
   78000    1.1471267    -4.983076    45.683072  0.048806701  0.057861074            3 
   79000    1.1084156   -4.9607703    46.311225  0.048851503  0.057725719            2 
   80000    1.1422707   -4.9621331    46.869785  0.048822692  0.057601445            3 
   81000    1.1534978   -4.9897049    47.730661  0.049105618  0.057485879            3 
   82000    1.1465622   -4.9457456    48.244232  0.049028691  0.057369306            4 
   83000    1.1381548   -4.9844798    48.515822  0.048710664  0.057255271            3 
   84000    1.1549236   -4.9675188    49.026678  0.048637577  0.057137128            2 
   85000    1.1324473   -4.9982034    49.575103  0.048603041  0.057004223            2 
   86000    1.1572715   -5.0287657    50.401682  0.048838839  0.056891958            3 
   87000    1.1388064   -5.0094888    51.065876  0.048913674  0.056784905            2 
   88000    1.1278662    -4.987352     51.53819  0.048805103  0.056679515            2 
   89000    1.1174994   -5.0296141    52.325675  0.048994078  0.056573205            1 
   90000    1.1469798   -5.0164829    52.800122  0.048889002   0.05647287            2 
   91000    1.1099543   -4.9730256    53.403324  0.048904143  0.056364989            1 
   92000    1.1052657    -4.994184    53.899008  0.048821565  0.056249015            1 
   93000     1.123523   -5.0573347    54.069209  0.048449111  0.056124719            2 
   94000    1.0903028   -5.0343247    54.753129  0.048540008  0.055992552            1 
   95000    1.1367783   -5.0246381    55.332823  0.048537564  0.055854991            3 
   96000    1.1487701   -5.0415628    55.892109  0.048517456  0.055720417            2 
   97000    1.1304092   -5.0386812    56.370985  0.048428681  0.055593102            3 
   98000    1.1105044   -5.0349344    56.920468  0.048401758   0.05546553            2 
   99000    1.1083736    -5.016161    57.307658  0.048238769  0.055335669            3 
  100000    1.1055709   -5.0620826    57.520496  0.047933746  0.055198438            2 
  101000    1.1029642   -5.0594485    58.642619  0.048384999  0.055068152            4 
  102000    1.0915441   -5.0612328    59.160716  0.048333918  0.054941375            2 
  103000    1.1200046   -5.0664417    59.520686  0.048155894   0.05480308            2 
  104000     1.096936   -5.0672168    59.808779  0.047923701   0.05466779            3 
  105000    1.1007473    -5.046868    60.733969  0.048201562  0.054541832            2 
  106000    1.1004691   -5.0439905    61.481474  0.048334492  0.054428072            3 
  107000    1.0939093   -5.0876555    61.666463   0.04802684  0.054309697            2 
  108000     1.085567     -5.07108    62.303665  0.048073815  0.054185891            3 
  109000    1.0890703    -5.078449    62.780395  0.047997244  0.054063933            3 
  110000     1.064832   -5.1166674    63.514515  0.048117056  0.053946388            7 
  111000    1.1140973   -5.1060339    63.755118  0.047864202  0.053834668            5 
  112000    1.1024795   -5.0763403    64.673204  0.048119944  0.053725037            3 
  113000     1.080384   -5.0881833    65.258386  0.048125653  0.053617409            2 
  114000    1.1087473   -5.0984288    65.890006  0.048165209  0.053525034            5 
  115000    1.0855149   -5.0711983    66.860853  0.048449893  0.053436947            3 
  116000    1.0611181   -5.1016362    66.928117  0.048080544  0.053353612            3 
  117000    1.0980448   -5.0745665    67.960978  0.048405255  0.053267459            1 
  118000    1.0801983   -5.1339535    67.973784  0.048004084  0.053178978            2 
  119000    1.1052051   -5.1072927    68.669207   0.04808768  0.053090568            2 
  120000    1.0393032   -5.0901642    69.218066  0.048068102  0.053006214            3 
  121000    1.0678682   -5.0941077    70.070869  0.048258174  0.052923539            2 
  122000    1.0655043   -5.1281706    70.383447  0.048076125   0.05284294            2 
  123000    1.0706132   -5.1393445     70.99857  0.048102012  0.052766871            3 
  124000    1.0847122   -5.1051514    71.661706  0.048159748  0.052691899            4 
  125000    1.0692406   -5.1576355    71.952789  0.047968526   0.05261724            3 
  126000    1.0534289   -5.1336004    72.776269  0.048132453  0.052543803            2 
  127000    1.0664176   -5.1674064    73.229824  0.048051065  0.052477642            8 
  128000    1.0516207   -5.1191686     74.11797  0.048253886  0.052414144            2 
  129000    1.0825446   -5.1840987    74.221456  0.047946677  0.052346337            2 
  130000    1.0413027   -5.1379375    74.860104  0.047987246   0.05227966            3 
  131000    1.0694092   -5.1649256    75.371119  0.047946004  0.052213966            4 
  132000    1.0621966   -5.1565274    75.792649  0.047848894  0.052141379            3 
  133000     1.050423   -5.1758094    76.228205  0.047762033  0.052064153            2 
  134000    1.0594237   -5.1614297    76.835261  0.047783122  0.051987964            2 
  135000    1.0586348   -5.1825354    77.582371  0.047890352  0.051920298            3 
  136000    1.0290144   -5.1341559    78.190604  0.047910909  0.051850627            2 
  137000     1.037455   -5.1615786    78.490869  0.047743837  0.051777853            6 
  138000     1.060536   -5.1522442    78.857826   0.04761946  0.051700749            3 
  139000    1.0421683   -5.1825514    79.203776  0.047484278  0.051624224            3 
  140000    1.0429545   -5.1811391    79.874042  0.047544072  0.051544049            2 
  141000    1.0392209   -5.1717996    80.150715  0.047370399  0.051462019            4 
  142000    1.0529608   -5.1816795    80.760775  0.047394821  0.051377534            2 
  143000      1.02693    -5.185521    81.161091  0.047296673  0.051293792            5 
  144000    1.0433374    -5.181495    81.452403  0.047136807  0.051210346            2 
  145000    1.0400216    -5.154923    82.274617  0.047284263  0.051123661            4 
  146000    1.0439357   -5.2034149    82.052705  0.046833736  0.051029899            3 
  147000    1.0516526   -5.1868314    82.454651  0.046742999  0.050933438            5 
  148000    1.0303393   -5.1908541     82.88814   0.04667125  0.050837401            4 
  149000      1.04004    -5.172397    83.400504  0.046644577  0.050741973            3 
  150000    1.0409556   -5.2264726    83.873234  0.046596241  0.050647332            3 
  151000    1.0286377   -5.2188382    84.580135  0.046677778  0.050551213            5 
  152000    1.0203486   -5.2112922    84.824807  0.046504828  0.050455927            3 
  153000    1.0322671   -5.1633156    85.875715  0.046773265  0.050363205            7 
  154000    1.0358076   -5.2021582     85.88394  0.046473994  0.050273311            3 
  155000    1.0167363   -5.2189068    86.548402  0.046531399  0.050181983            4 
  156000    1.0263992   -5.2308917    86.800215  0.046367636   0.05009359            2 
  157000    1.0003906   -5.2451304    87.134081  0.046249512  0.050000897            4 
  158000      1.01086   -5.2421993    87.720839  0.046266265  0.049910081            4 
  159000    1.0018749   -5.2190939     88.00671   0.04612511   0.04981961            3 
  160000    1.0197787   -5.2474112    88.306335  0.045992883   0.04972555            2 
  161000   0.99722762   -5.2541484    88.760456  0.045942265  0.049629163            3 
  162000    1.0174641   -5.2377377    89.298413  0.045935398   0.04953285            7 
  163000    1.0220863   -5.2438122     89.54671  0.045780527   0.04943693            1 
  164000    1.0144446   -5.2060967     90.09691   0.04578095  0.049340681            3 
  165000    1.0246108   -5.2280068    90.579531  0.045747238  0.049247144            3 
  166000    1.0122069   -5.2430312    90.934706  0.045649953  0.049154912            3 
  167000      0.99981   -5.2433863    91.439311  0.045628399  0.049058962            4 
  168000    1.0035659   -5.2533551    91.259614  0.045267666  0.048961274            2 
  169000   0.98771832   -5.2560314    91.644906  0.045189796  0.048859079            3 
  170000     1.004162   -5.2437013    92.184465  0.045188463  0.048753167            3 
  171000   0.98525949   -5.2895797    91.954927  0.044812343  0.048646104            7 
  172000   0.98592649   -5.2569455    92.467209  0.044800004  0.048537558            7 
  173000    1.0201879   -5.2579451    92.849899  0.044725385  0.048428707            2 
  174000   0.99355225   -5.3261888    92.594985  0.044346257  0.048315859            4 
  175000   0.99708415   -5.2761975    93.381866  0.044467555  0.048201732            3 
  176000   0.97208188   -5.2827101    93.912433  0.044466114  0.048089406            3 
  177000   0.97821173   -5.3007287     94.35494   0.04442323  0.047979631            4 
  178000   0.98700548   -5.2679314    94.795543  0.044379936  0.047870364            3 
  179000   0.97423062    -5.304771     94.65431  0.044066252   0.04776196            5 
  180000   0.98271577   -5.3205573    94.955785  0.043961012  0.047647685            3 
  181000   0.98837498   -5.3166402    95.085106  0.043777673  0.047529931            2 
  182000   0.99682776    -5.306709    95.286275  0.043629247   0.04741035            4 
  183000   0.98470616   -5.3069745    95.905899  0.043672996  0.047290801            7 
  184000   0.97907865   -5.2907852    95.834482  0.043403298  0.047168701            5 
  185000    1.0055605   -5.3235239    96.053542  0.043267361  0.047045845            3 
  186000   0.96063182   -5.3254933    96.555406  0.043259591  0.046923148            3 
  187000   0.97409724   -5.3460316    96.745908   0.04311315  0.046801628            5 
  188000   0.98750626   -5.3293304    96.864341  0.042936321  0.046676428            4 
  189000   0.94872375   -5.3482526    97.157805  0.042838538  0.046554538            3 
  190000   0.94887899    -5.305741    97.735965  0.042866651  0.046430031            2 
  191000   0.99155992   -5.3251699    98.285848  0.042882132  0.046307326           22 
  192000   0.95491309   -5.3466343    98.402017  0.042709209  0.046183628            3 
  193000   0.99863946   -5.3321722     98.63318  0.042587729  0.046061277            4 
  194000   0.94200825   -5.3498885    99.156454  0.042592978   0.04593968            3 
  195000   0.94188987   -5.3585705    99.335942  0.042451257  0.045818053            3 
  196000   0.95724063   -5.3793414    99.326322  0.042230579  0.045696445            4 
  197000   0.94316753   -5.3539712    100.25259  0.042408031  0.045575466            5 
  198000   0.94645333   -5.3944264    99.880032   0.04203705  0.045457414            4 
  199000    0.9675434    -5.355916     100.9416  0.042270352  0.045339497            6 
  200000   0.96692934   -5.3787201    101.07697  0.042115403   0.04522263            1 
  201000   0.94948354   -5.3953029    100.94438  0.041850904  0.045104567            8 
  202000   0.93084282   -5.3585162    101.37774  0.041822499  0.044985035            6 
  203000   0.94575976   -5.4036139    101.62931  0.041719748  0.044864481            2 
  204000   0.94203497   -5.3668332    102.12379  0.041717233  0.044745422            4 
  205000   0.93537887   -5.3586115    102.64611  0.041726061  0.044628108            1 
  206000   0.95291341   -5.3516582    103.29913  0.041787675  0.044513579            7 
  207000   0.93055404   -5.3798882    103.10953  0.041509471  0.044399316            2 
  208000   0.93555769   -5.4276085    103.46636  0.041452869  0.044285072            5 
  209000   0.93968115   -5.4020779    103.57423  0.041297541  0.044169972            2 
  210000    0.9302714   -5.3826005    104.02807  0.041280978  0.044057564            7 
  211000   0.94026608   -5.4141668    104.64534  0.041329122  0.043946147            2 
  212000   0.93824752   -5.4350911    104.69254  0.041152727  0.043835835            4 
  213000   0.91149227   -5.4079165    105.30953  0.041200911  0.043726702            5 
  214000   0.92716627   -5.3929561    105.44233  0.041060098  0.043619173           10 
  215000   0.92313755   -5.4492641    105.24858  0.040794022  0.043510597            6 
  216000   0.94227706   -5.4531489    105.78087  0.040810519  0.043402265            4 
  217000   0.90933971     -5.43568    105.88455   0.04066227  0.043292503            6 
  218000   0.93189512   -5.4005751    106.77887   0.04081761  0.043182921            3 
  219000   0.93285595   -5.4184534    106.78414  0.040633235  0.043074014            4 
  220000   0.92938466   -5.4490843    106.95503   0.04051327  0.042964755            5 
  221000   0.93065071   -5.4334554    106.84615  0.040288894  0.042856408            3 
  222000   0.94140864   -5.4509779    107.52701   0.04036299  0.042747345            4 
  223000   0.90498182   -5.3939731    107.68284  0.040240224  0.042640105            4 
  224000   0.90410863   -5.4526714    108.30157  0.040290763  0.042533581            5 
  225000   0.88774254    -5.422742    108.46814  0.040173386  0.042428487            2 
  226000   0.92442661   -5.4664122    108.76476  0.040104999  0.042323158            9 
  227000   0.89364077   -5.4989905     108.6191  0.039874852   0.04221817            4 
  228000    0.9143411   -5.4621058    108.90513  0.039804508  0.042111536            3 
  229000   0.91272936   -5.5036847    109.27936  0.039766872  0.042004454            4 
  230000   0.91286024   -5.4908921    109.73091  0.039757575  0.041899069            6 
  231000   0.89480768   -5.4651929    110.26271  0.039777311  0.041796702            4 
  232000   0.91378079   -5.4257547    110.35601  0.039639373  0.041695211            3 
  233000   0.87810833   -5.4968706    110.73602  0.039605157  0.041594575            3 
  234000    0.9025559   -5.4861206    111.00944  0.039533276  0.041493736            4 
  235000   0.89592313   -5.4590088    111.18767  0.039428251  0.041392592            8 
  236000   0.87386665   -5.4934105    111.05113   0.03921297  0.041289916            4 
  237000   0.88359133   -5.5330947    110.76567  0.038947142  0.041185996           10 
  238000   0.86827546   -5.4806248    111.55833  0.039061041    0.0410832            3 
  239000   0.88635813   -5.5105647    111.66272  0.038934003  0.040980283            3 
  240000   0.87066983   -5.4867062    111.64932  0.038767124  0.040877312            3 
  241000   0.88826977   -5.5222087    112.37722  0.038857961  0.040775225            5 
  242000   0.87540207    -5.522412    112.69771  0.038807751  0.040672757            8 
  243000   0.87663565   -5.4674317    113.32766  0.038864082  0.040571736            4 
  244000   0.86713968   -5.5287811     112.7398  0.038504029  0.040471513            4 
  245000   0.87442141   -5.4812396    113.12725  0.038478658  0.040368795            6 
  246000   0.87696881    -5.555844    113.51758  0.038454465  0.040267944            7 
  247000   0.88663289   -5.5699804    113.38415  0.038253762  0.040165302            4 
  248000   0.87189765   -5.5242845     113.3894  0.038101277  0.040062274            6 
  249000   0.88638464   -5.5225495    113.71526  0.038057316  0.039956868            4 
  250000   0.85589495   -5.5305599    113.48359  0.037827863  0.039851369            9 
  251000   0.84075155   -5.5423743    114.16384  0.037903003  0.039746974            5 
  252000   0.88400862   -5.5478019    114.62035  0.037903555  0.039643522            4 
  253000   0.87309487   -5.5481216     114.6758  0.037772003  0.039542704            8 
  254000   0.87883091   -5.5473281    115.05241  0.037746854   0.03944123            5 
  255000   0.87578576   -5.5725283    114.54922  0.037434386  0.039338319            7 
  256000   0.85460592   -5.5296702    115.73268  0.037673398  0.039238427            5 
  257000   0.87526775   -5.5491558     115.5223  0.037458592  0.039138128            4 
  258000   0.86399155   -5.5846314    115.69128  0.037367985  0.039037309            4 
  259000   0.85830145   -5.5865893    115.43606  0.037141589  0.038935384            7 
  260000   0.86069679   -5.5741157    115.60246  0.037052071  0.038833643            8 
  261000   0.86751546   -5.6006146     115.8818  0.036999298  0.038731188            9 
  262000   0.85429153   -5.5643222    116.08366  0.036922285  0.038628084            3 
  263000   0.85494249   -5.5751296    116.55726  0.036931957  0.038525539            6 
  264000   0.85192081   -5.5981831    115.76159  0.036540907  0.038421993            3 
  265000    0.8544888    -5.592898    116.54221  0.036648493  0.038319492           11 
  266000   0.83179307   -5.6098966    116.33197  0.036444853  0.038216968            4 
  267000    0.8485055   -5.6234066    116.56855  0.036382195  0.038114636           18 
  268000   0.83110102   -5.5892298    117.22923  0.036451876  0.038012525            6 
  269000    0.8473776   -5.6218521      117.168  0.036297399  0.037911784            5 
  270000   0.82561387   -5.5828437    117.75321  0.036343582  0.037812047            3 
  271000   0.83494295   -5.5921445    118.15358  0.036332591    0.0377135            3 
  272000   0.85393357   -5.6375394    117.71438  0.036064454  0.037614364           10 
  273000   0.84267913   -5.6173494    118.12216  0.036056824   0.03751446            9 
  274000   0.82334371   -5.6103811    118.49076  0.036037335  0.037415288           12 
  275000   0.81904247   -5.5895847     118.4856  0.035904726  0.037315116           11 
  276000   0.82689806   -5.6237151    118.24164  0.035700979  0.037214685            5 
  277000   0.84133188   -5.6332387    118.36312  0.035608641  0.037112777            4 
  278000   0.82516016   -5.6321083     118.3097  0.035464538  0.037010734            6 
  279000   0.82316598   -5.6411974    118.83944   0.03549565  0.036909608            6 
  280000   0.80461896    -5.679592    118.74827  0.035341748  0.036809155            5 
  281000   0.82191618   -5.6531425    119.53377  0.035448925  0.036709764           11 
  282000    0.8039774    -5.652634    119.30903  0.035256806  0.036610833            7 
  283000   0.82358225   -5.6506263    119.55233  0.035203866  0.036511677            6 
  284000   0.81766912    -5.694163    119.28218   0.03500064  0.036411469            3 
  285000   0.82671925   -5.6502001    119.67043  0.034991354  0.036311956            5 
  286000   0.81737688   -5.6485315    119.85865  0.034923849  0.036214114           10 
  287000   0.81275593   -5.6608034    119.95174  0.034829192  0.036115572            5 
  288000   0.80693569   -5.6677577    119.94548  0.034706448  0.036017797           11 
  289000   0.81493208   -5.6540804    120.30106  0.034688887  0.035920848            4 
  290000   0.81120856   -5.6874937    120.51851  0.034631756  0.035824263           15 
  291000   0.80100297   -5.6888348    120.75499  0.034580465  0.035727258            6 
  292000   0.80974335    -5.698577    120.86606  0.034493737  0.035630879            6 
  293000    0.8034554    -5.669626     121.1288  0.034450738  0.035534665            8 
  294000   0.79562768   -5.7365361    121.02269  0.034303482  0.035438936            7 
  295000   0.79378514   -5.7087689    121.37797  0.034287561  0.035344164            9 
  296000   0.78218216   -5.6885037    122.22929  0.034411399  0.035250725            7 
  297000   0.80621935     -5.69638    121.92834  0.034211094  0.035159112            7 
  298000   0.80650693   -5.7231435    122.01297  0.034119959  0.035067346            8 
  299000   0.77284279   -5.7264004    122.28814  0.034082535  0.034975599            4 
  300000   0.78123916    -5.697565    122.52479  0.034034663  0.034884444            3 
  301000   0.77524141   -5.7350289    122.36068  0.033876158   0.03479229           12 
  302000   0.77374737    -5.722055    122.38555  0.033770848  0.034699661            4 
  303000   0.79730888   -5.7125548    122.65153  0.033732544  0.034607227           11 
  304000   0.76728047   -5.7544071    122.29572  0.033524045  0.034513941            5 
  305000   0.78940813   -5.7425549    122.07459  0.033353713  0.034420484            5 
  306000   0.78559132   -5.7203422    122.64804  0.033400883  0.034327836           11 
  307000   0.76623707   -5.7458788    123.00578  0.033389191  0.034236239            4 
  308000   0.77541923   -5.7651512    122.92404  0.033258668  0.034143843            9 
  309000   0.77607481   -5.7624706    123.45626   0.03329457  0.034052133            6 
  310000   0.77623989   -5.7487381    123.14589  0.033103734  0.033959755            8 
  311000   0.77129783   -5.7712237    123.54713  0.033104805   0.03386749           13 
  312000   0.76597215   -5.7476792    124.08891  0.033143405  0.033776126           11 
  313000   0.75656189   -5.7530912    123.69001  0.032931311  0.033685678            6 
  314000   0.76216832   -5.7683375    123.76978  0.032847606  0.033594774            4 
  315000   0.75646778    -5.758983    124.11366  0.032834302  0.033504319            6 
  316000   0.78125398   -5.7870817     124.1144  0.032730591  0.033414362           11 
  317000    0.7720899   -5.7873795    123.84033  0.032555291  0.033323813           10 
  318000   0.75223692     -5.76583    124.54469  0.032637498  0.033233008            6 
  319000    0.7533605    -5.757131    124.59052  0.032547158   0.03314338            8 
  320000   0.75841505    -5.821195    124.48461  0.032417867  0.033052901            8 
  321000    0.7474054   -5.7907577     124.5707  0.032339227  0.032962998            5 
  322000   0.75226361   -5.8160637    124.68829  0.032269226  0.032874513            7 
  323000   0.74934968   -5.7906554     124.7371  0.032181914  0.032786643            5 
  324000   0.75100132   -5.7927372    125.10893  0.032178223  0.032698455            8 
  325000   0.75608965   -5.8003129    124.67859  0.031968868  0.032608903            9 
  326000   0.75737482   -5.8188245    124.77608  0.031895726  0.032518627            4 
  327000     0.740784   -5.8317238    124.96261  0.031845722  0.032428989            8 
  328000   0.73593731    -5.812751    124.76485  0.031698387  0.032339197           10 
  329000   0.72778107   -5.8246788    124.72104  0.031590943  0.032249257           11 
  330000   0.74552104   -5.8383355    124.74786  0.031501984  0.032159178            8 
  331000   0.74672348   -5.8278226    124.70237  0.031395359  0.032068818            5 
  332000   0.74659395   -5.8584209     124.9727  0.031368649  0.031978982            8 
  333000   0.74963783   -5.8354846    125.49518  0.031405201  0.031889951           15 
  334000   0.72952044   -5.8369762    125.16177  0.031227987  0.031801332            9 
  335000   0.72934971   -5.8461204    125.40776   0.03119596  0.031713362           21 
  336000   0.72510588   -5.8414747    125.42795  0.031108124  0.031625516            8 
  337000    0.7311075   -5.8501301    125.83613  0.031116749  0.031538345            7 
  338000   0.71897521    -5.868521    125.68231  0.030986762  0.031451096            4 
  339000    0.7313614   -5.8796127    125.92653   0.03095539  0.031363619            9 
  340000   0.73164877   -5.8553151    125.90528  0.030859138  0.031276594           20 
  341000    0.7171155   -5.8665625      125.919  0.030771994  0.031189856           17 
  342000   0.71538913   -5.8718222    126.34713  0.030786339  0.031103502            8 
  343000   0.71969392   -5.8803476     126.3492  0.030697084  0.031017675           12 
  344000   0.72437861   -5.8763277    126.33759  0.030605035  0.030931914            8 
  345000   0.71994851   -5.9039897     126.3356  0.030515845  0.030846393           13 
  346000   0.70649014   -5.8769442    126.33427  0.030427329  0.030760284            4 
  347000   0.70352211   -5.9042376    126.41715  0.030359546  0.030674867           13 
  348000    0.7141936   -5.8821202    126.60031  0.030316165  0.030589599            6 
  349000   0.71801204   -5.9228893     126.1626  0.030124785   0.03050509           11 
  350000   0.69958179   -5.9178402    126.55287  0.030131636  0.030420118            6 
  351000   0.72389428   -5.9317076    126.82219  0.030109732  0.030335325           10 
  352000   0.72272779   -5.9281622    126.77489  0.030012996  0.030251095           11 
  353000   0.71331151   -5.9135575    126.37144  0.029832728  0.030167142            7 
  354000   0.72836681   -5.9160293    126.91372  0.029876111  0.030083481           12 
  355000   0.69633483   -5.9358586    126.71603  0.029745548  0.029999508           17 
  356000   0.70346027   -5.9392715    127.16719  0.029767602  0.029915542           12 
  357000   0.69536403   -5.9040016    127.16676  0.029684117    0.0298315           26 
  358000   0.69721208   -5.9312806    127.13888  0.029594712  0.029748227           17 
  359000   0.69506098   -5.9468569     127.3505  0.029561396  0.029665102           13 
  360000    0.6984536   -5.9424886    126.98484  0.029394639   0.02958248           11 
  361000   0.68195382   -5.9517361    127.23576  0.029371136  0.029500007           13 
  362000   0.70005034   -5.9887013    126.90886  0.029214746  0.029416987            9 
  363000   0.68511129   -5.9804207    127.27105  0.029217413  0.029334045           10 
  364000   0.69951949   -5.9629579    127.21583  0.029124503  0.029251361           11 
  365000   0.69448555   -5.9571382    127.61272  0.029135324  0.029169133            7 
  366000   0.68142614   -5.9630365    127.59173  0.029050939  0.029087238           10 
  367000   0.69182369   -5.9835965    127.83363  0.029026709  0.029005851           13 
  368000   0.67677952   -5.9915709    127.53058  0.028879207  0.028924059           13 
  369000   0.67850221   -6.0099436    127.64565   0.02882693  0.028842405            8 
  370000   0.66986734   -6.0124934    127.62187  0.028743665  0.028760922           19 
  371000   0.66782288    -5.995128    127.42446  0.028621846  0.028679512           12 
  372000   0.67331782   -5.9918901    127.76847  0.028621968  0.028598202           16 
  373000   0.66742034   -5.9950317    127.60854  0.028509504  0.028517075           21 
  374000   0.66079023   -6.0014555    128.04407  0.028530319  0.028435886           32 
  375000   0.67092496   -6.0043161     127.4915  0.028331445  0.028354848           12 
  376000   0.66555012    -5.983319    127.85717  0.028337139   0.02827411            8 
  377000   0.64965453   -5.9934434    128.17806  0.028332905  0.028193592           14 
  378000   0.67138961   -6.0403028    127.91691  0.028200377  0.028113525           15 
  379000   0.67329973   -5.9975589    128.04298   0.02815369  0.028033557           10 
  380000   0.65664556   -6.0202978    128.07962  0.028087637  0.027953135            8 
  381000   0.65284223   -6.0460715    127.80551   0.02795396  0.027873095           48 
  382000   0.64971812   -6.0361647    127.90508  0.027902505  0.027793538           29 
  383000   0.65670377   -6.0059612    128.42719  0.027943253  0.027714617           13 
  384000   0.66679946   -6.0238039    128.11082  0.027801827  0.027635849           22 
  385000   0.64683119   -6.0281433    128.63281  0.027842599  0.027557675            9 
  386000   0.63220386   -6.0469491    128.17491  0.027671613  0.027479642            6 
  387000   0.64168284   -6.0292302    128.62071  0.027696104  0.027401451           14 
  388000   0.63677583   -6.0518583     128.2529  0.027545726  0.027323617           16 
  389000   0.64793585   -6.0747504    128.16753  0.027456626  0.027245286            7 
  390000    0.6458427   -6.0604838    128.14778  0.027382004  0.027167251            6 
  391000   0.63865693   -6.0563761    128.50254  0.027387584   0.02709002           11 
  392000   0.63590753   -6.0480751    128.25314  0.027264697  0.027012852           10 
  393000   0.64076816   -6.0679974    128.53207  0.027254467  0.026935512           13 
  394000   0.63223909   -6.0574933    128.61707  0.027203271  0.026858317           30 
  395000   0.63419421     -6.08843    128.60891  0.027132681  0.026781544            9 
  396000   0.63271803   -6.0796316    128.27745  0.026994414  0.026704859           11 
  397000   0.62635561   -6.0955781    128.29483  0.026930066  0.026627837           10 
  398000   0.62608235   -6.0856745    128.09123  0.026819772  0.026551008           16 
  399000   0.63137062   -6.1027509    128.28546  0.026793121  0.026474112            5 
  400000   0.62682609   -6.1178019     128.4815  0.026766979  0.026397643            7 
  401000   0.62415199   -6.1050865    128.46882  0.026697593  0.026321089           18 
  402000    0.6144569   -6.1167225    128.15092  0.026565281  0.026244623           25 
  403000   0.62024309   -6.1149829    128.07137  0.026482914  0.026168191           23 
  404000   0.61230841   -6.1131983    128.25117   0.02645445  0.026092119           13 
  405000   0.61356947   -6.1193527    128.36899  0.026413372  0.026016295           21 
  406000   0.63077754   -6.1344748    128.24614  0.026323099  0.025940297           16 
  407000   0.61947558   -6.1134991    128.39149  0.026288184  0.025864445           22 
  408000   0.63094097   -6.1181314    127.94765  0.026133098  0.025788622           31 
  409000    0.6085118   -6.1200186    128.34445  0.026150051   0.02571301           22 
  410000   0.61309961   -6.1396761     128.0211  0.026020548  0.025637461           14 
  411000   0.60271194   -6.1439714    128.16004   0.02598541  0.025561808           34 
  412000    0.5998154   -6.1613354    128.18995  0.025928387  0.025486552           45 
  413000    0.6061052   -6.1634951    128.17458  0.025862506  0.025411416           22 
  414000   0.61854189   -6.1608863    128.07303  0.025779596  0.025336189           23 
  415000   0.60628222   -6.1402718    128.29426  0.025761901  0.025261381           35 
  416000   0.61112314   -6.1630747    128.18274  0.025677631  0.025187111           17 
  417000   0.60124302   -6.1561873     128.2745  0.025634392  0.025112787           12 
  418000   0.58362447    -6.173424    128.10223  0.025538722  0.025038643           11 
  419000   0.60345879   -6.1753173    128.06697  0.025470759  0.024964761           25 
  420000   0.58624376   -6.1850396    128.38711  0.025473633  0.024891153           15 
  421000   0.58194873   -6.1942207    128.02459  0.025341368  0.024817683           27 
  422000   0.59632264   -6.1587871     128.2734  0.025330449  0.024744723           16 
  423000   0.58543232   -6.1711672     128.0343  0.025223464  0.024671778           12 
  424000   0.59270292   -6.1708489    128.17867  0.025192348  0.024599084           24 
  425000   0.58836897   -6.1916298    128.18089  0.025133508     0.024527           12 
  426000   0.58263781   -6.1885525     128.3657   0.02511066   0.02445501           62 
  427000   0.59454778   -6.1954697    128.25576  0.025030398  0.024383465           34 
  428000   0.59516505   -6.2039147    128.44442  0.025008648  0.024311873            9 
  429000   0.59517261   -6.2158861    128.43417  0.024948362  0.024240305           16 
  430000   0.57926332   -6.2150695     128.2956  0.024863489  0.024168877           14 
  431000   0.57643284    -6.223233    128.09007  0.024766062  0.024097598           39 
  432000   0.57348194   -6.2171949    128.49551  0.024786942  0.024026271           68 
  433000   0.58228617   -6.2235875    128.35514  0.024702683  0.023955544           62 
  434000   0.58130673   -6.2301717    128.17025  0.024610263  0.023884827           67 
  435000   0.56084494   -6.2274187     128.3785  0.024593583   0.02381448           45 
  436000   0.56041041   -6.2503628    128.59386  0.024578337  0.023744465           66 
  437000   0.57144446   -6.2356151     128.8486  0.024570671  0.023674919           82 
  438000   0.56733431   -6.2531699    128.41071  0.024431261  0.023605533           81 
  439000   0.57078599   -6.2430518    128.48077  0.024388908  0.023536436           37 
  440000   0.55918427   -6.2770683    128.53935  0.024344575  0.023467526           31 
  441000    0.5580732    -6.243781    128.75074  0.024329315  0.023398939           35 
  442000   0.57278101   -6.2548939    128.49419  0.024225903  0.023330689           30 
  443000   0.55968908   -6.2541411    128.29611  0.024133957  0.023262571           51 
  444000   0.54799294   -6.2542208    128.89994  0.024192932   0.02319474           40 
  445000   0.57247063   -6.2668139    128.84374   0.02412804   0.02312694           27 
  446000   0.54646688    -6.258082    128.61913  0.024031974  0.023059497           19 
  447000   0.55441283     -6.27528    128.68398  0.023990302  0.022992322           23 
  448000   0.55243393    -6.253206    128.57817  0.023917071  0.022925152           27 
  449000   0.55229059   -6.2797695    128.44229  0.023838584   0.02285806           25 
  450000   0.54312675   -6.3127153    128.61513  0.023817616  0.022790961           54 
  451000   0.53705387   -6.2922066    128.56469  0.023755486  0.022724267           36 
  452000   0.54098695   -6.2838036    128.66124  0.023720731  0.022657445           49 
  453000   0.53632119   -6.2830312    128.73211  0.023681404  0.022590766           72 
  454000   0.53482411    -6.328041    128.31696   0.02355304  0.022524228           74 
  455000   0.53788027   -6.3264613    128.25686  0.023490267  0.022457649           22 
  456000   0.53951147   -6.3137749    128.26671  0.023440553  0.022391364           21 
  457000   0.54781984   -6.3265482    128.41635  0.023416547  0.022325483           28 
  458000   0.54306754   -6.3282925    128.32874   0.02334948  0.022259711           38 
  459000    0.5364629   -6.3417011    128.30683  0.023294632  0.022194227           89 
  460000   0.52915835   -6.3175463    128.32203  0.023246745  0.022128991           94 
  461000   0.53094161   -6.3499666    128.34019    0.0231996   0.02206357           52 
  462000   0.53221064   -6.3269956    128.21905  0.023127534  0.021998424           59 
  463000   0.52505356   -6.3422355    128.16065  0.023067072  0.021933383           55 
  464000   0.52300539   -6.3661659    128.32872  0.023047543  0.021868609           44 
  465000   0.52382513   -6.3437321    128.34672  0.023001204  0.021804081           37 
  466000   0.52006557   -6.3647601    128.40504  0.022962274  0.021739854           36 
  467000    0.5243513   -6.3668706    128.30779  0.022895751  0.021675883           88 
  468000   0.52437898   -6.3646347    128.11284  0.022812116  0.021612069           54 
  469000    0.5208286   -6.3524113    128.22679  0.022783723  0.021548339           86 
  470000   0.52797138   -6.3405528    128.20188   0.02273083  0.021484793           77 
  471000    0.5171547   -6.3767273    128.03183  0.022652482  0.021421484           95 
  472000   0.51495259   -6.3740763     128.0281  0.022603831  0.021358113           63 
  473000   0.50709472   -6.3863326     128.3703  0.022616333  0.021295014           88 
  474000   0.50912124   -6.3754723    128.03865  0.022510311  0.021232146           51 
  475000   0.50574908   -6.3830752    128.22551  0.022495703  0.021169339           32 
  476000   0.50054832   -6.3962647    128.27071  0.022456357  0.021106685           55 
  477000   0.49972401   -6.4018053    127.93404  0.022350461  0.021044153           49 
  478000   0.50598437   -6.4110787    128.06837  0.022327122  0.020981711           55 
  479000   0.49706479   -6.3922633    128.20859  0.022304905  0.020919566           46 
  480000   0.50211299   -6.4161667    127.88869  0.022202897  0.020857566           52 
  481000   0.48987787   -6.3982632    127.82274  0.022145312  0.020795651           86 
  482000   0.49468883   -6.4198023    127.89405  0.022111697  0.020734077           53 
  483000   0.50290589   -6.4087624    127.96029  0.022077345  0.020672518           33 
  484000   0.50096752   -6.4257899     127.7091  0.021988482  0.020611209           59 
  485000   0.49683731   -6.4109561    127.53836  0.021913807  0.020550047           68 
  486000   0.50146723   -6.4244215     127.9507   0.02193942  0.020489048           31 
  487000   0.48879228   -6.4211959    127.75359  0.021860642  0.020428246           42 
  488000   0.47877677   -6.4356431    127.76293   0.02181744   0.02036763           28 
  489000   0.48688362   -6.4357782    127.82571  0.021783523  0.020307206           44 
  490000   0.49053244   -6.4376686    127.91386  0.021754057  0.020246871           39 
  491000   0.48503705   -6.4359574    127.72937   0.02167844   0.02018687           80 
  492000   0.47702531   -6.4444503    127.52697  0.021600097  0.020127071           75 
  493000   0.48365681   -6.4470461    127.73161  0.021590874  0.020067329           63 
  494000   0.46428225   -6.4515746    127.68346  0.021539045  0.020007864           55 
  495000   0.47456961   -6.4426056    127.68286  0.021495431  0.019948551           80 
  496000   0.48480642   -6.4551374    127.73173  0.021460304  0.019889304           43 
  497000   0.47079246    -6.465309    127.45569  0.021370839  0.019830164           73 
  498000   0.46358609   -6.4755118    127.37684  0.021314732  0.019771239           81 
  499000   0.46962578    -6.474886    127.37237  0.021271272  0.019712499           74 
  500000   0.46136654   -6.4772829    127.52293  0.021253822  0.019653876           48 
  501000   0.46500732   -6.4553544    127.57123  0.021219433  0.019595491           45 
  502000    0.4614504   -6.4769813    127.46302  0.021159201   0.01953732           65 
  503000   0.46911762   -6.4886798    127.35775  0.021099693  0.019479387           65 
  504000   0.45632736    -6.474535    127.42592    0.0210691  0.019421529           62 
  505000   0.46155652   -6.4858229    127.30188   0.02100691  0.019363932           62 
  506000   0.46015837   -6.4837904    127.38961  0.020979843  0.019306604           23 
  507000   0.45688461   -6.4838222    127.42194  0.020943777   0.01924936           43 
  508000   0.45449994   -6.4907738    127.45686  0.020908277  0.019192444           70 
  509000   0.45812083   -6.4996646    127.51989  0.020877519  0.019135696           42 
  510000   0.45502036   -6.4758816    127.43602  0.020822878  0.019079104           54 
  511000    0.4630665   -6.4840733    127.31735  0.020762777  0.019022743           33 
  512000   0.44506843   -6.4950426    127.41458   0.02073805  0.018966528           50 
Loop time of 1293.86 on 48 procs for 500000 steps with 4000 atoms

Performance: 66776.730 tau/day, 386.439 timesteps/s
99.4% CPU use with 48 MPI tasks x no OpenMP threads

MPI task timing breakdown:
Section |  min time  |  avg time  |  max time  |%varavg| %total
---------------------------------------------------------------
Pair    | 91.862     | 97.608     | 103.93     |  26.7 |  7.54
Neigh   | 8.8233     | 9.1799     | 9.5138     |   5.4 |  0.71
Comm    | 82.288     | 88.329     | 96.479     |  35.3 |  6.83
Output  | 1.0193     | 1.02       | 1.0415     |   0.3 |  0.08
Modify  | 1079.3     | 1085.4     | 1091       |   8.5 | 83.89
Other   |            | 12.36      |            |       |  0.96

Nlocal:        83.3333 ave          88 max          77 min
Histogram: 3 2 5 3 3 8 8 4 2 10
Nghost:        2377.48 ave        2399 max        2358 min
Histogram: 3 2 8 6 7 7 7 4 3 1
Neighs:        16298.4 ave       18687 max       13771 min
Histogram: 2 2 8 4 9 4 7 3 5 4
FullNghs:      32597.1 ave       34779 max       29967 min
Histogram: 2 3 4 3 5 13 6 2 6 4

Total # of neighbors = 1564663
Ave neighs/atom = 391.16575
Neighbor list builds = 26855
Dangerous builds = 0

#clear
#
#next RN
#
#jump SELF
Total wall time: 0:21:37
