
units lj                  # Use reduced LJ style units
atom_style atomic         # Uncharged point particles
atom_modify map hash      # Needed for indexing of clusters etc
                          # Used to be able to find where atoms are in relation to each other.

lattice fcc 1.0 spacing 1 1 1
Lattice spacing in x,y,z = 1.5874011 1.5874011 1.5874011
region box block 0 10 0 10 0 10 units lattice
create_box 2 box
Created orthogonal box = (0.0000000 0.0000000 0.0000000) to (15.874011 15.874011 15.874011)
  3 by 4 by 4 MPI processor grid
create_atoms 1 box
Created 4000 atoms
  using lattice units in orthogonal box = (0.0000000 0.0000000 0.0000000) to (15.874011 15.874011 15.874011)
  create_atoms CPU = 0.003 seconds
set type 1 type/fraction 2 0.25 78393
Setting atom values ...
  1031 settings made for type/fraction
mass 1 1.0
mass 2 1.0
pair_style lj/cut  3.5
pair_modify tail  yes
pair_coeff 1  1  1.0  1.0   # Intearaction between 1 and 1 set with epsilon = 1 and sigma = 1
pair_coeff 1  2  1.5  0.8
pair_coeff 2  2  0.5  0.88

write_data data.0
System init for write_data ...
Neighbor list info ...
  update every 1 steps, delay 10 steps, check yes
  max neighbors/atom: 2000, page size: 100000
  master list distance cutoff = 3.8
  ghost atom cutoff = 3.8
  binsize = 1.9, bins = 9 9 9
  1 neighbor lists, perpetual/occasional/extra = 1 0 0
  (1) pair lj/cut, perpetual
      attributes: half, newton on
      pair build: half/bin/atomonly/newton
      stencil: half/bin/3d
      bin: standard
WARNING: Not all mixed pair coeffs generated from mixing. Use write_data with 'pair ij' option to store all pair coeffs. (../write_data.cpp:312)


#############################
#   M E L T   S Y S T E M   #
#############################

velocity all create 2.4 5300450 mom yes dist gaussian # Assign velocities
                                                    # Temperature 2.4, random number seed, zero linear momentum
                                                                                # Gaussian distribution

timestep 0.002   # simulation timestep
thermo 1000       # output thermodynamic data every 1000 steps bf 100

# Define a fix  in this case with index 1 applied to all
# particles in the simulation. This fix is for simulations
# in the anisotropic NPT ensemble. Note that we use the MTK
# correction.
fix 1 all npt temp 2.4 2.4 0.1 iso 5.68 5.68 0.5 mtk yes tchain 5 pchain 5 # Use NPT ensemble
                                                                         # Set temperature and pressure and damping
                                                                         # Numbers of thermostats in chain and in barostat
run 10000          # run for 10000 steps
Per MPI rank memory allocation (min/avg/max) = 3.642 | 3.644 | 3.648 Mbytes
Step Temp E_pair E_mol TotEng Press Volume 
       0          2.4   -6.7340002            0   -3.1349002   -3.8290783         4000 
    1000    2.4360834   -4.9368848            0   -1.2836733    5.4324429     4329.938 
    2000    2.3675136   -4.8982785            0    -1.347896    5.3775899    4352.2534 
    3000    2.4016047   -4.9173319            0   -1.3158255    5.5417553    4320.4805 
    4000    2.4225745   -4.8935953            0   -1.2606419    5.7556366     4313.328 
    5000    2.4019743   -4.9043227            0    -1.302262    5.6972878    4311.6655 
    6000    2.3705153   -4.8884058            0   -1.3335219    5.8975933     4300.108 
    7000     2.433933   -4.8935753            0   -1.2435885    5.7777363    4316.3069 
    8000    2.4636341   -4.8856082            0   -1.1910809     5.884167    4311.5103 
    9000    2.4161873    -4.908263            0   -1.2848881    5.5782896    4323.6927 
   10000    2.4296789   -4.8844434            0   -1.2408361    5.6409277    4329.0044 
Loop time of 2.34106 on 48 procs for 10000 steps with 4000 atoms

Performance: 738127.377 tau/day, 4271.570 timesteps/s
99.7% CPU use with 48 MPI tasks x no OpenMP threads

MPI task timing breakdown:
Section |  min time  |  avg time  |  max time  |%varavg| %total
---------------------------------------------------------------
Pair    | 1.0023     | 1.0769     | 1.1814     |   3.6 | 46.00
Neigh   | 0.19888    | 0.20803    | 0.23057    |   1.2 |  8.89
Comm    | 0.6856     | 0.79609    | 0.88098    |   4.9 | 34.01
Output  | 0.00024287 | 0.00024748 | 0.00031413 |   0.0 |  0.01
Modify  | 0.21072    | 0.24512    | 0.28152    |   4.2 | 10.47
Other   |            | 0.01465    |            |       |  0.63

Nlocal:        83.3333 ave          91 max          77 min
Histogram: 8 2 4 7 5 7 4 5 2 4
Nghost:        1556.65 ave        1596 max        1527 min
Histogram: 4 3 6 7 10 9 4 3 1 1
Neighs:        8801.38 ave        9943 max        7748 min
Histogram: 4 3 3 9 9 2 11 1 2 4

Total # of neighbors = 422466
Ave neighs/atom = 105.61650
Neighbor list builds = 909
Dangerous builds = 229

# Equilibrate just above the melting temperature to avoid step fn in T

fix 1 all npt temp 1.25 1.25 0.1 iso 5.68 5.68 0.5 mtk yes tchain 5 pchain 5
run 2000
Per MPI rank memory allocation (min/avg/max) = 3.643 | 3.645 | 3.649 Mbytes
Step Temp E_pair E_mol TotEng Press Volume 
   10000    2.4296789   -4.8844434            0   -1.2408361    5.6409277    4329.0044 
   11000    1.2641593   -6.6976082            0   -4.8018433    5.6718083    3497.2982 
   12000    1.2499956   -6.7381789            0   -4.8636543    5.4354265    3497.7939 
Loop time of 0.537069 on 48 procs for 2000 steps with 4000 atoms

Performance: 643492.322 tau/day, 3723.914 timesteps/s
99.7% CPU use with 48 MPI tasks x no OpenMP threads

MPI task timing breakdown:
Section |  min time  |  avg time  |  max time  |%varavg| %total
---------------------------------------------------------------
Pair    | 0.22568    | 0.25817    | 0.28853    |   2.6 | 48.07
Neigh   | 0.034527   | 0.037969   | 0.040937   |   0.8 |  7.07
Comm    | 0.1525     | 0.18623    | 0.22014    |   3.2 | 34.68
Output  | 5.114e-05  | 5.2035e-05 | 6.8126e-05 |   0.0 |  0.01
Modify  | 0.041902   | 0.049954   | 0.055153   |   1.8 |  9.30
Other   |            | 0.004688   |            |       |  0.87

Nlocal:        83.3333 ave          93 max          74 min
Histogram: 1 2 2 8 11 17 2 3 1 1
Nghost:        1799.10 ave        1818 max        1774 min
Histogram: 1 0 6 2 7 12 7 8 0 5
Neighs:        10924.2 ave       11924 max        9548 min
Histogram: 4 1 5 1 5 6 9 5 6 6

Total # of neighbors = 524364
Ave neighs/atom = 131.09100
Neighbor list builds = 144
Dangerous builds = 16

#############################
# L I N E A R  Q U E N C H  #
#############################

# Define solid atoms. This closely follows ten Wolde  Ruiz-Montero and Frenkel  Faraday Discuss  1996  104  93-110
# Compute components of the per-atom q6 vector
compute q6 all orientorder/atom degrees 1 6 components 6 nnn NULL cutoff 1.3 # compute the Q6 parameter.
                                                                             # Use all neighbours within 1.3 unit cell.

# get number of connections
compute coord_number all coord/atom orientorder q6 0.5

# An atom is solid if it has 8 or more connections (of a possible 14)
variable is_solid atom c_coord_number>=8
group solid dynamic all var is_solid    # Must be dynamic to update
dynamic group solid defined

# do clustering
compute cluster solid cluster/atom 1.3 # Create a cluster where all atoms within are solid and max 1.3 units from another member

# define chunks one chunk per cluster
compute clus_chunks solid chunk/atom c_cluster nchunk every compress yes  # Says which atoms are in which chunk

# count the size of each chunk
compute size_chunks solid property/chunk clus_chunks count


# Find the maximum entry in the vector of chunk sizes
variable max_n equal max(c_size_chunks)


# Thermo style which includes this variable
# thermo_style custom step temp pe vol v_max_n

thermo ${N}  # Print the thermo information every 100 steps
thermo 1000  

# Reset the npt fix at a lower temperature (below freezing)
fix 1  all npt temp  ${temp} ${temp}  0.1  iso  5.68  5.68  0.5  mtk yes tchain  5  pchain  5
fix 1  all npt temp  0.45 ${temp}  0.1  iso  5.68  5.68  0.5  mtk yes tchain  5  pchain  5
fix 1  all npt temp  0.45 0.45  0.1  iso  5.68  5.68  0.5  mtk yes tchain  5  pchain  5

dump dmp2 all dcd ${N} traj.dcd
dump dmp2 all dcd 1000 traj.dcd


compute msd all msd com yes
variable twopoint equal c_msd[4]/6/(step*dt+1.0e-6)
fix 9 all vector 10 c_msd[4]
variable fit equal slope(f_9)/6/(10*dt)
thermo_style custom step temp pe c_msd[4] v_twopoint v_fit v_max_n

fix 1 all npt temp 1.25 ${temp} 0.1 iso 5.68 5.68 0.5 mtk yes tchain 5 pchain 5
fix 1 all npt temp 1.25 0.45 0.1 iso 5.68 5.68 0.5 mtk yes tchain 5 pchain 5
run 5000000 # 5000000  # Run for this many steps
Neighbor list info ...
  update every 1 steps, delay 10 steps, check yes
  max neighbors/atom: 2000, page size: 100000
  master list distance cutoff = 3.8
  ghost atom cutoff = 3.8
  binsize = 1.9, bins = 8 8 8
  4 neighbor lists, perpetual/occasional/extra = 1 3 0
  (1) pair lj/cut, perpetual
      attributes: half, newton on
      pair build: half/bin/atomonly/newton
      stencil: half/bin/3d
      bin: standard
  (2) compute orientorder/atom, occasional
      attributes: full, newton on
      pair build: full/bin/atomonly
      stencil: full/bin/3d
      bin: standard
  (3) compute coord/atom, occasional
      attributes: full, newton on
      pair build: full/bin/atomonly
      stencil: full/bin/3d
      bin: standard
  (4) compute cluster/atom, occasional
      attributes: full, newton on
      pair build: full/bin/atomonly
      stencil: full/bin/3d
      bin: standard
Per MPI rank memory allocation (min/avg/max) = 9.800 | 9.807 | 9.810 Mbytes
Step Temp PotEng c_msd[4] v_twopoint v_fit v_max_n 
   12000    1.2499956   -6.7381789 1.7051228e-30 1.184113e-32 8.3333333e+20            1 
   13000    1.2717427   -6.7211707   0.53888659 0.0034544011  0.044377631            1 
   14000    1.2572615   -6.7205368    1.0160412 0.0060478642  0.042274463            1 
   15000    1.2533407   -6.7474515    1.5016961 0.0083427557  0.040882152            3 
   16000    1.2599048   -6.6845048    1.9527126  0.010170378  0.040225064            1 
   17000    1.2407336   -6.7335216    2.4335659  0.011929244  0.039817144            1 
   18000    1.2370823   -6.6765082    2.9360832  0.013592977  0.039540342            1 
   19000     1.230506   -6.7232635    3.4236656  0.015016077  0.039738055       -1e+20 
   20000    1.2236103   -6.6903809    3.9405816   0.01641909  0.040030674            2 
   21000    1.2611126   -6.7276663    4.4899277  0.017817173   0.04038289            2 
   22000    1.2002882   -6.7386793    4.9488367  0.018745593  0.040656679            4 
   23000    1.2431567   -6.7353346     5.449513  0.019744612  0.040795576            1 
   24000    1.2404793   -6.7399743    6.0102146    0.0208688   0.04112136            7 
   25000    1.2415598   -6.7426919    6.5332368  0.021777455  0.041395455            2 
   26000     1.181587   -6.7735365    6.9936961  0.022415692  0.041634667            3 
   27000    1.2313647   -6.7068782    7.6332813   0.02355951  0.041836745            1 
   28000    1.2427076   -6.7304516     8.183368  0.024355262  0.042101353            3 
   29000    1.2463127   -6.7008868    8.7473907   0.02513618  0.042421534            1 
   30000    1.2506038   -6.7337351     9.138717  0.025385325  0.042544781            1 
   31000    1.2503236   -6.6995623    9.6268575  0.025878649  0.042577368            1 
   32000    1.2566666   -6.7489259    10.117589  0.026347889  0.042547659            1 
   33000    1.2359081   -6.7210696    10.677323  0.026962935  0.042545229            2 
   34000    1.2448191   -6.7314133    11.066815  0.027124546  0.042538474            2 
   35000    1.2510944   -6.7597457     11.56053  0.027525071  0.042436868            1 
   36000    1.2684535   -6.7831729    12.079093  0.027960862  0.042342189            1 
   37000    1.2483779    -6.728592    12.640441  0.028469462  0.042341685            3 
   38000    1.2562041   -6.7709132     13.10509  0.028739231  0.042325425            2 
   39000    1.2738945   -6.7082114    13.581812  0.029020966  0.042297869            3 
   40000    1.2391804   -6.7332655    14.060243  0.029292174  0.042231178            2 
   41000    1.2434016   -6.7831227    14.390639  0.029249265  0.042128717            2 
   42000    1.2272629   -6.7330929    14.874335  0.029512569  0.041994349            2 
   43000    1.2901018   -6.7399509    15.414597  0.029873249   0.04189085            2 
   44000    1.2047508   -6.7150471    15.851182  0.030021177  0.041788658            2 
   45000    1.2414742   -6.7588698    16.441056  0.030446399  0.041725506            2 
   46000    1.2445525   -6.7046265    17.067148  0.030918745  0.041718005            1 
   47000    1.2484003    -6.725394     17.53058  0.031082588  0.041719499            2 
   48000     1.248038   -6.7337815    18.170647  0.031546262  0.041733294            1 
   49000    1.2589669   -6.7309866    18.632462   0.03168786  0.041787526            2 
   50000    1.2540577   -6.7341128    19.162837  0.031938061  0.041832929            1 
   51000    1.2361106   -6.7481933    19.559541  0.031960034  0.041840499            3 
   52000    1.2693896    -6.728938    20.143663  0.032281511   0.04186192            2 
   53000     1.254499   -6.7484599    20.664534  0.032491405  0.041884516            1 
   54000    1.2419429   -6.7263818    21.371651  0.032980942  0.041916073            1 
   55000    1.2176771    -6.769385    21.779721  0.032999577   0.04197217            1 
   56000    1.2469794   -6.7467971    22.244284  0.033101613  0.042014229            1 
   57000    1.2469212   -6.7539866    22.781924  0.033306905  0.042036553            1 
   58000    1.2555645   -6.6976808    23.294377  0.033468932  0.042058329            2 
   59000    1.2279224   -6.7518728    23.721231  0.033504563   0.04207558            1 
   60000    1.2334565   -6.7571828    24.084062  0.033450086  0.042058034            3 
   61000    1.2392988   -6.7499443    24.462523  0.033418747  0.042028205            1 
   62000    1.2393249   -6.7375178    24.819848  0.033360011  0.041973893            2 
   63000    1.2360599   -6.7181603    25.329102  0.033504103  0.041915728            1 
   64000    1.2420451   -6.6890071    25.692923  0.033454326  0.041845933            1 
   65000    1.2523238   -6.7017452    26.106641  0.033470052   0.04176529            3 
   66000    1.2542145   -6.7611263    26.534525  0.033503188  0.041693746            2 
   67000    1.2354952   -6.7455111    27.100632  0.033707253  0.041620506            1 
   68000    1.2742946   -6.7213092    27.638049  0.033870158  0.041550866            2 
   69000    1.2451009   -6.7613782    28.077971  0.033910593  0.041486384            4 
   70000    1.2278161   -6.7431617    28.633624  0.034087647  0.041438766            1 
   71000    1.2425287   -6.7184389    29.176333  0.034244522  0.041410408            1 
   72000    1.2454159   -6.7055024     29.49511  0.034137859  0.041361727            2 
   73000    1.2551792   -6.7531639    29.919343  0.034154501  0.041311374            2 
   74000    1.2317486   -6.6909373    30.644568  0.034509649  0.041270623            3 
   75000     1.256772   -6.7629901    30.995671  0.034439634  0.041238469            1 
   76000    1.2462284   -6.7630786    31.603688  0.034653167  0.041205183            1 
   77000    1.2531685   -6.7221498    32.345485  0.035005935  0.041203063            2 
   78000    1.2268719   -6.7442109    32.731544  0.034969598  0.041202098            1 
   79000    1.2064332   -6.7272882    33.193958  0.035014724  0.041186403            1 
   80000    1.2225127   -6.7383066    33.600512  0.035000533  0.041171122            3 
   81000    1.2385751   -6.6887021    34.099625  0.035081919  0.041162648            2 
   82000    1.2801816   -6.7344519    34.758711  0.035323893  0.041159507            3 
   83000    1.2625113   -6.7226911    35.180252  0.035321538  0.041160116            3 
   84000    1.2427645   -6.7436675    35.947134  0.035661839   0.04117316            3 
   85000    1.2251893   -6.7669145    36.307593   0.03559568  0.041192409            2 
   86000    1.2589954   -6.7363458    36.881282  0.035737676  0.041209001            2 
   87000    1.2417168   -6.7930837     37.21869  0.035650086  0.041222291            1 
   88000    1.2399213   -6.7157325    38.185072  0.036160105  0.041237572            1 
   89000    1.2350065   -6.7892347    38.206708  0.035774071   0.04125731            2 
   90000    1.2554007   -6.7599236    38.691263  0.035825243  0.041264607            3 
   91000    1.2573798   -6.7863591    39.346933   0.03603199  0.041274604            1 
   92000    1.2102416   -6.7275833     39.97534  0.036209547  0.041291767            3 
   93000    1.2262713   -6.7617086     40.28786  0.036100232  0.041305742            1 
   94000    1.2315917   -6.7564243    40.565858   0.03596264    0.0413087            2 
   95000    1.2557455   -6.7344911    41.149218  0.036095805  0.041300531            2 
   96000    1.2433249   -6.7405402    41.536127  0.036055666  0.041289236            1 
   97000       1.2346   -6.7583603    42.036095  0.036113483  0.041270335            2 
   98000     1.234289   -6.7435858     42.66198  0.036277194   0.04125247            2 
   99000     1.231626   -6.7558598      43.3238  0.036467845  0.041249763            1 
  100000    1.2272045     -6.76249    43.573364  0.036311137  0.041252157            1 
  101000    1.2339353   -6.7560012     44.21266  0.036479092  0.041250481            2 
  102000    1.2424631   -6.7761341    44.787299   0.03659093  0.041252939            1 
  103000     1.225879   -6.7545562    45.065535  0.036460789  0.041246248            1 
  104000    1.2426784   -6.7038935    45.311526  0.036307312   0.04123057            2 
  105000    1.2345599   -6.7425195    45.430637  0.036056061  0.041204506            2 
  106000    1.2414351   -6.7309049    46.168281  0.036295818  0.041169819            2 
  107000    1.2413453   -6.8020475    46.311146   0.03606787  0.041139248            1 
  108000    1.2410041   -6.7532076    47.031924  0.036290065  0.041111565            2 
  109000    1.2118505   -6.7580195     47.37915  0.036222592  0.041080916            3 
  110000    1.2332105    -6.751025    47.733721   0.03616191  0.041047994            1 
  111000    1.2414879   -6.7904445    48.097125  0.036108953  0.041009776            1 
  112000    1.2326551   -6.7860136     48.93607  0.036410766  0.040975072            4 
  113000    1.2524742   -6.7381556    49.267517  0.036332977  0.040945179            2 
  114000    1.2389749   -6.7349744    49.544766  0.036216934  0.040910878            2 
  115000    1.2644355   -6.7558688    50.117669  0.036317151   0.04086879            1 
  116000    1.2534196   -6.7705095    50.384749   0.03619594   0.04082872            1 
  117000    1.2312797   -6.6828019    50.828857   0.03620289  0.040789316            2 
  118000    1.2415161   -6.7857383    51.310804  0.036236443  0.040750979            3 
  119000    1.2343007   -6.7408027    52.090163  0.036477705  0.040720425            2 
  120000    1.2246638   -6.7669994    52.618876  0.036540886  0.040698295            2 
  121000    1.2084315   -6.7413321    53.393395   0.03677231  0.040684056            2 
  122000    1.2252513    -6.806734    53.593169  0.036607356  0.040668323            1 
  123000    1.2257425   -6.7505532    54.108762  0.036659053  0.040649602            1 
  124000    1.2367244   -6.7964849    54.287266  0.036483377  0.040627972            1 
  125000    1.2204447   -6.7460337    55.028643  0.036685762  0.040603149            1 
  126000    1.2335497   -6.7352087    55.467731  0.036685007  0.040587001            2 
  127000    1.2732609   -6.7785618    56.108126  0.036816356  0.040572114            4 
  128000    1.2062978   -6.7752503     56.32503  0.036669942  0.040557536            2 
  129000    1.2286724   -6.7526072     56.94094  0.036783553    0.0405414            2 
  130000    1.2342237   -6.7658114    57.297744  0.036729323  0.040526107            2 
  131000    1.2320644   -6.7733229    57.689578  0.036698205  0.040505444            1 
  132000    1.2287807   -6.7791269    58.389506  0.036862062  0.040488877            3 
  133000    1.2108216   -6.7763147    59.026814  0.036984219  0.040478898            1 
  134000    1.2075151   -6.7561491    59.417759  0.036951343  0.040468692            2 
  135000    1.2524158   -6.7473852    59.812688  0.036921412   0.04045576            1 
  136000    1.2315488   -6.7543703    60.367747  0.036990041  0.040446308            3 
  137000    1.2118837   -6.7489048    60.860169  0.037019568  0.040437662            1 
  138000    1.2288733   -6.7849144    61.340883  0.037041596   0.04042751            1 
  139000    1.2407213   -6.7968912    61.706634  0.036994385  0.040419645            1 
  140000     1.213326   -6.7982745    62.019916  0.036916616  0.040405673            1 
  141000    1.2421341   -6.7392992    62.713595  0.037064772  0.040389577            3 
  142000    1.2419726   -6.7536718    63.137453  0.037052495    0.0403771            3 
  143000    1.2084598   -6.7830523    63.368028  0.036927755  0.040361725            2 
  144000     1.214878   -6.7915244    63.585388  0.036797099  0.040343215            3 
  145000    1.2120719   -6.7402577    64.335395  0.036974365  0.040326371            1 
  146000    1.2106096   -6.8006678    64.492933  0.036811035  0.040301963            2 
  147000    1.2129665   -6.7454019    64.840075  0.036757412  0.040276728            1 
  148000     1.191204   -6.7773456     65.21654  0.036721025  0.040249689            2 
  149000    1.2278852   -6.7598053    65.601887  0.036690093  0.040223546            1 
  150000    1.2551802   -6.7787128    65.900294  0.036611274  0.040197782            1 
  151000    1.2435305   -6.7632207    66.706653  0.036813826  0.040169782            1 
  152000    1.2237302   -6.7833684    67.296366  0.036894937  0.040146949            1 
  153000    1.2257546   -6.7373453    68.210357   0.03715161  0.040132496            2 
  154000    1.2494624   -6.7659166    68.457118  0.037043895  0.040118342            1 
  155000    1.2669048   -6.7780723    68.858146  0.037020508  0.040105746       -1e+20 
  156000     1.221519    -6.779146    69.247368  0.036991115  0.040092849            2 
  157000    1.2318154   -6.7654468    70.034138  0.037173109  0.040076966            1 
  158000    1.2079671   -6.7917751    69.935849  0.036885996  0.040059839            1 
  159000    1.2658768   -6.7747004    70.548841  0.036975283  0.040043642            1 
  160000    1.2453912   -6.7697143     71.18725  0.037076693  0.040029819            1 
  161000    1.2383705   -6.7686903    71.578777  0.037049056  0.040020054            3 
  162000    1.2091462   -6.7208663    72.090719  0.037083703  0.040005049            1 
  163000    1.2160466   -6.7617719    72.707412  0.037171478  0.039988977            1 
  164000    1.2237927    -6.757678    72.678238  0.036929999  0.039973802            2 
  165000    1.2267773   -6.7560442    73.319347  0.037029973  0.039957772            2 
  166000    1.2051387   -6.7353253    73.849351  0.037072967  0.039943872            1 
  167000    1.2281363   -6.7901743    74.322187   0.03708692  0.039931249            1 
  168000    1.2068867   -6.7760838    74.704538  0.037055822   0.03991679            1 
  169000     1.231465   -6.8226978    75.394061  0.037176559  0.039904102            3 
  170000    1.2009299   -6.7575171    75.961057  0.037235812   0.03989449            1 
  171000    1.2019935   -6.7923454    76.253131  0.037160395  0.039884683            2 
  172000    1.2299906    -6.761184    76.585767  0.037105507  0.039869162            1 
  173000    1.2114709   -6.7767827    77.084812  0.037131412  0.039853347            2 
  174000    1.2143734   -6.7827237     77.53971  0.037135876  0.039839175            2 
  175000     1.227581   -6.7466434    78.291171   0.03728151  0.039831089            1 
  176000    1.2327195   -6.7637365    78.972968  0.037392504  0.039824722            1 
  177000    1.2152229   -6.7841377    79.341311  0.037354666  0.039819796            3 
  178000    1.2158935   -6.7817632    79.676571  0.037301765  0.039812911            2 
  179000    1.2196265    -6.783976    80.451936  0.037454346  0.039807459            3 
  180000    1.2348761   -6.7748832    80.947227  0.037475568  0.039802757            1 
  181000    1.2139385    -6.754633    81.284784  0.037423933  0.039800039            2 
  182000     1.230206   -6.7951169     81.93751  0.037517175  0.039795892            1 
  183000    1.2317935   -6.7786189    82.552265  0.037592106  0.039793078            1 
  184000    1.2000472   -6.7705254    83.165745  0.037665645   0.03979275            1 
  185000    1.2206646   -6.8340002    83.252173  0.037500979  0.039795239            1 
  186000    1.1934978   -6.7604677    84.314217  0.037775187  0.039799044            2 
  187000    1.2201459   -6.7988913    84.687653  0.037739596  0.039805201            2 
  188000    1.2446021   -6.7738683    85.723165  0.037997857  0.039815233            1 
  189000    1.2292029   -6.7475416    86.118505  0.037971122    0.0398244            1 
  190000    1.2143064    -6.762206    86.980379  0.038149289  0.039834497            2 
  191000    1.2318563   -6.8059321     87.32359  0.038099298  0.039846588            3 
  192000    1.2235441   -6.7762842    87.975266  0.038183709  0.039859418            1 
  193000    1.2211307   -6.7874049    88.153916  0.038063003  0.039872089            3 
  194000    1.2326855   -6.7656517      88.5195   0.03802384  0.039882187            2 
  195000     1.210648   -6.7637836    89.298262   0.03816165  0.039890892            1 
  196000    1.2344769   -6.7280876    89.602088  0.038096126  0.039903506            1 
  197000    1.2115982   -6.7884192    90.315873  0.038204684  0.039914207            2 
  198000    1.2005136   -6.8048636    90.734348  0.038187857  0.039927422            2 
  199000    1.2062212   -6.8103066       91.595  0.038356365  0.039943091            1 
  200000    1.2360792   -6.7734626    91.949513  0.038312297  0.039959754            1 
  201000    1.2015906   -6.7489748    92.550719  0.038370945  0.039975535            1 
  202000    1.2139907   -6.8325741    92.499419  0.038159826   0.03998766            1 
  203000    1.2281832   -6.7799245    93.305686  0.038302827  0.039996859            2 
  204000    1.2285981   -6.8038764    93.475252  0.038184335  0.040005416            3 
  205000    1.1963939   -6.8057411    93.784905  0.038123945  0.040014028            3 
  206000    1.1863138   -6.8025209    94.199109  0.038106436  0.040019554            1 
  207000    1.2160789    -6.851065    94.424934  0.038013258  0.040025364            1 
  208000    1.2051279   -6.8174199    94.667899  0.037927844  0.040029698            2 
  209000    1.2007369    -6.751851    95.507503  0.038081142  0.040032653            3 
  210000    1.2407568   -6.7818364    96.029387    0.0381069   0.04003505            2 
  211000    1.2462834   -6.7835819    96.150121  0.037973981  0.040036198            5 
  212000    1.2112749   -6.7608043    96.762387   0.03803553  0.040036492            1 
  213000    1.2149162   -6.7715655    97.201416  0.038028723  0.040034376            1 
  214000    1.2201269   -6.7807281    97.171644  0.037839425  0.040031939            2 
  215000    1.2446604   -6.7889539    98.051697  0.038004533   0.04002908            1 
  216000    1.2186932   -6.7743198    98.700568  0.038078923  0.040028417            2 
  217000    1.2314017   -6.7790382    98.909201  0.037983564  0.040027084            2 
  218000    1.2504806   -6.8029505    99.709752  0.038115349  0.040026537            1 
  219000    1.2152207   -6.8062209    99.858663  0.037997969  0.040025592            1 
  220000    1.2412066   -6.8210305    100.41155  0.038034678  0.040023578            3 
  221000     1.202081   -6.7949482     100.8296  0.038020211  0.040020079            1 
  222000    1.2044867   -6.7830101    101.13362   0.03796307  0.040017328            3 
  223000    1.2276744    -6.813126    101.70687  0.038007053  0.040011892            1 
  224000    1.2058432   -6.7826651     102.2978  0.038057217  0.040006121            1 
  225000    1.2303338   -6.7657837    102.45971  0.037948039  0.040000278            2 
  226000    1.2011666   -6.7722705     102.8162  0.037911577  0.039993411            1 
  227000    1.2184603   -6.7378388    103.14924  0.037866828  0.039983381            1 
  228000    1.2241146   -6.7774034     103.1542  0.037702557  0.039972956            2 
  229000    1.2270535   -6.8128671    104.32721  0.037964777  0.039962838            1 
  230000    1.2174107   -6.7532271    104.52355  0.037870852  0.039953274            2 
  231000    1.2116704   -6.7867941    104.88763   0.03783825  0.039945109            3 
  232000    1.1950113      -6.8158    105.25741  0.037807978  0.039935987            2 
  233000    1.2139981    -6.789716    105.68834  0.037799835  0.039927796            2 
  234000    1.2155124   -6.7836895    106.05918  0.037770363  0.039919217            1 
  235000    1.2260484   -6.7854177    106.45621   0.03775043  0.039910747            2 
  236000    1.2186993    -6.820161     107.3845  0.037918257  0.039904319            3 
  237000    1.1777204   -6.7986524    107.73577  0.037881776  0.039899671            1 
  238000     1.214676   -6.7919471    108.59017  0.038021766  0.039895815            2 
  239000    1.2325402   -6.7941527    109.03141   0.03801653  0.039889114            1 
  240000    1.2405913   -6.7949007    109.79512  0.038123306  0.039886298            3 
  241000    1.2372523   -6.8206313    110.21244   0.03810942  0.039884973            2 
  242000    1.2279822   -6.7800052    111.19292  0.038289572  0.039883912            1 
  243000    1.1907115   -6.7942275    111.12359  0.038108226  0.039882253            3 
  244000    1.2433495   -6.7713289    111.74056  0.038162758  0.039879029            1 
  245000    1.2135067   -6.8186289    112.09293  0.038126846  0.039877647            2 
  246000    1.1915592   -6.8204899    112.65557  0.038162457  0.039875594            5 
  247000    1.2125247    -6.778763    113.07838  0.038150601  0.039874066            2 
  248000    1.2283345   -6.7797153    113.80408  0.038240618   0.03987302            1 
  249000    1.2044393    -6.779378    114.24626  0.038235027  0.039872573            1 
  250000      1.21413    -6.818086    114.56136  0.038187119  0.039873879            2 
  251000     1.203344   -6.8068734    114.83478  0.038125755  0.039873305            1 
  252000    1.2220236   -6.7509974    115.80609  0.038295665  0.039872537            3 
  253000    1.2117192   -6.7726177    116.06813  0.038230609  0.039872559            1 
  254000    1.2143398   -6.8160313    116.20497   0.03812499  0.039870551            3 
  255000    1.1984376   -6.8100167    116.50137  0.038072342  0.039867439            2 
  256000    1.1888977   -6.7622325    116.98157  0.038079939  0.039862374            1 
  257000    1.1704688   -6.8375464    117.39956  0.038067303  0.039856955            2 
  258000    1.1648203   -6.7929675    117.96494   0.03810237  0.039852158            3 
  259000    1.2030824   -6.8233282    118.28154  0.038057124  0.039847809            2 
  260000    1.2192848   -6.7796444    119.04771  0.038156318  0.039842794            2 
  261000    1.2274544   -6.7837514    118.87081  0.037953644  0.039837447            3 
  262000    1.2303099   -6.8019899    119.37906   0.03797044   0.03982984            1 
  263000    1.1901995   -6.8319884    119.75354  0.037944723  0.039821693            2 
  264000    1.2132253   -6.8352606    119.93722  0.037858972  0.039812491            2 
  265000    1.1927466   -6.7752477    120.40934  0.037864573  0.039802574            4 
  266000    1.2355675   -6.8039746    120.92554   0.03788394  0.039792526            2 
  267000    1.2172434     -6.79642    121.09148  0.037793844  0.039782498            2 
  268000    1.1659042   -6.8239738    121.47161  0.037771023  0.039771708            2 
  269000    1.2028119   -6.8105448    122.05715  0.037812004  0.039760632            2 
  270000    1.2138489   -6.7987114    122.43789  0.037789474   0.03975127            2 
  271000    1.2013517   -6.7928894    122.85744  0.037779041   0.03974028            2 
  272000    1.1948057   -6.7807356    123.50903  0.037839776  0.039730103            4 
  273000    1.2117334   -6.7840021     123.7983  0.037789469  0.039718174            1 
  274000    1.2109213   -6.7993393    123.84898  0.037666964  0.039705805            1 
  275000    1.2052742   -6.8036703    124.34847  0.037681356  0.039695102            1 
  276000    1.2128016   -6.8051026    124.86908  0.037702017  0.039683019            1 
  277000    1.1827414   -6.8072732    125.75472  0.037832347  0.039672461            1 
  278000    1.2161055   -6.7837988    126.37969    0.0378836  0.039661154            1 
  279000    1.2065596   -6.7915826    126.86415  0.037892518  0.039651628            1 
  280000    1.2174218   -6.7861429    127.41757  0.037921895   0.03964259            1 
  281000    1.1850537    -6.772201    127.72661  0.037878592  0.039632481            1 
  282000    1.1825663   -6.7840263    127.95959  0.037813118   0.03962411            1 
  283000    1.2083342   -6.8390569    128.33624  0.037790414  0.039614012            1 
  284000    1.2277344    -6.771403      129.198  0.037910211  0.039605024            1 
  285000    1.2273895   -6.7931574    129.44501  0.037849419  0.039597297            2 
  286000     1.225676   -6.8219101    129.56229  0.037751251  0.039587152            3 
  287000    1.1923659   -6.8195444    130.26066  0.037822491  0.039575504            2 
  288000    1.2341301   -6.8194283    130.84453  0.037860107  0.039565184            2 
  289000    1.1816419   -6.7907989    131.00856  0.037776401  0.039555778            4 
  290000    1.2063175   -6.8163239    131.74843  0.037858744  0.039547607            2 
  291000    1.2103469   -6.7615251     132.8324  0.038039062   0.03954083            1 
  292000    1.2149312     -6.78225    133.08839  0.037981846  0.039534512            1 
  293000    1.1812927   -6.7987911    133.40541  0.037942382  0.039528367            2 
  294000    1.2080778   -6.8068151    134.03047  0.037990497  0.039522667            2 
  295000    1.2074801   -6.8034819    133.56698  0.037730784  0.039515343            2 
  296000    1.2002466   -6.8174759    134.69135  0.037919862  0.039506237            8 
  297000    1.2013755   -6.8364991    135.10477  0.037908185  0.039498832            1 
  298000     1.180276   -6.8259949    135.04844  0.037765223  0.039489541            1 
  299000    1.2022139   -6.8433097    134.99116  0.037622953   0.03947864            2 
  300000    1.1741178   -6.8057206     135.8951  0.037748639  0.039467766            1 
  301000    1.2118328   -6.8115458    136.50507  0.037792102  0.039457378            3 
  302000    1.2010936   -6.7979175    136.35414  0.037625314  0.039446013            2 
  303000     1.195264   -6.7587853    137.43957  0.037799661  0.039435725            2 
  304000    1.2025306   -6.8450378    137.75127  0.037760764  0.039425309            2 
  305000    1.2009731   -6.7943315    137.95038  0.037691361  0.039413942            3 
  306000    1.2093927   -6.8152836    138.06011  0.037598069   0.03940166            1 
  307000    1.2041699   -6.8556109    137.99335  0.037457477  0.039389975            3 
  308000    1.2237389   -6.7920003    139.44227  0.037727888  0.039378176            1 
  309000    1.2095156   -6.8531686    139.34193  0.037578729  0.039366807            1 
  310000    1.2276719     -6.79678    140.49019  0.037766181  0.039355655            1 
  311000    1.2066632   -6.8276151    140.65256  0.037688252  0.039344571            1 
  312000    1.1914065   -6.8509312      141.033  0.037669071  0.039334515            2 
  313000    1.1620801     -6.86824    141.41696  0.037650947  0.039324351            2 
  314000    1.1936901   -6.7719552    142.69611  0.037870517  0.039314476            2 
  315000    1.1644985   -6.8338041    142.89338  0.037802481  0.039304757            2 
  316000     1.216546   -6.8613355     143.1079  0.037739426  0.039295899            4 
  317000    1.2023257   -6.8308537    143.62767  0.037757011  0.039287175            1 
  318000    1.1966204   -6.8009111    144.21696  0.037792704  0.039278642            2 
  319000    1.2230969   -6.7801403    144.81214  0.037829713   0.03927059            1 
  320000    1.1994284   -6.8509322    145.04246  0.037771475  0.039262087            1 
  321000    1.1759649   -6.8435711    146.22759  0.037961473  0.039255267            2 
  322000     1.197273   -6.8204223    146.50691  0.037915866  0.039249432            1 
  323000    1.1856864   -6.8150734    147.20917  0.037979663   0.03924502            1 
  324000    1.1862592   -6.8378891    147.83196  0.038022623  0.039240757            1 
  325000    1.2105516   -6.8099336    147.78697  0.037894095  0.039236642            1 
  326000    1.1600379   -6.8003953    148.19213  0.037881423  0.039230895            2 
  327000    1.1723862   -6.8103316    148.68311  0.037890699  0.039225298            3 
  328000    1.1787285   -6.8288872    149.00083  0.037855903  0.039219493            1 
  329000    1.2295654   -6.8097553    149.60798  0.037894625  0.039213565            1 
  330000    1.1845835   -6.8311725    150.60651  0.038031947    0.0392088            4 
  331000    1.1894401     -6.80425    151.05885  0.038030929  0.039204012            1 
  332000    1.2058708   -6.7940962    151.46559   0.03801847  0.039199515            2 
  333000    1.1826439   -6.8403214     151.6339  0.037946422  0.039194635            1 
  334000    1.2140028   -6.8740795    152.01882  0.037928846  0.039190438            1 
  335000    1.2344174   -6.8015011    152.44097  0.037920639  0.039185147            2 
  336000    1.2276365   -6.8016643      152.986  0.037942956  0.039179528            1 
  337000     1.177826   -6.7752252    153.50214  0.037957998  0.039174597            2 
  338000    1.2094415   -6.8340152    153.58408  0.037865898  0.039169497            2 
  339000    1.1878697   -6.8157131    154.57638  0.037998127  0.039164472            2 
  340000    1.1954508   -6.8301923    154.70467  0.037917811  0.039160359            3 
  341000    1.2064011   -6.8133971    156.45401  0.038234117  0.039156566            2 
  342000    1.1861434   -6.8262079    155.70899  0.037940788  0.039154017            1 
  343000    1.2097789   -6.7880476    156.97053   0.03813667  0.039151023            2 
  344000    1.2180585   -6.8431797    156.74185   0.03797041  0.039148131            5 
  345000     1.205848   -6.8357347    157.32448  0.038001083  0.039145918            4 
  346000    1.2182178   -6.8248224    157.21193  0.037864146  0.039142794            2 
  347000    1.1893189   -6.7973168    158.81533  0.038140089  0.039139243            1 
  348000    1.1823814   -6.8305954     159.0705  0.038091595   0.03913687            3 
  349000    1.2131448   -6.8752606    159.17898  0.038008353  0.039134168            2 
  350000     1.230194   -6.8465061     160.2124  0.038145809  0.039131887            2 
  351000    1.2087078   -6.7940932    160.50224  0.038105946  0.039130594            1 
  352000    1.2013664   -6.8809913    160.79762  0.038067619  0.039129457            1 
  353000     1.204219   -6.8371734    160.97952   0.03800272  0.039127589            2 
  354000    1.2311743   -6.8442582    161.91021  0.038114457  0.039125232            2 
  355000    1.1835447   -6.8404953    162.57837  0.038163937  0.039122667            1 
  356000    1.1786252   -6.8661309    162.14432   0.03795513  0.039120035            1 
  357000    1.2019512   -6.8594545    163.13418  0.038079874  0.039115549            1 
  358000     1.188637   -6.8319028    163.18704   0.03798581  0.039111597            1 
  359000    1.2012774   -6.8545361     163.1285  0.037866412  0.039106443            1 
  360000     1.178919   -6.8564863    163.47018  0.037840319  0.039102201            1 
  361000     1.201392   -6.8233897    163.57534  0.037759774  0.039095776            1 
  362000      1.19106   -6.8208433    164.41284  0.037848259  0.039086892            2 
  363000    1.2071247   -6.8145788    164.52889  0.037770636  0.039079914            1 
  364000    1.1854006   -6.8343511    165.44088   0.03787566  0.039072617            1 
  365000    1.1922487   -6.8163679    166.07102  0.037915758  0.039066181            2 
  366000    1.1793461   -6.8260308     166.3922  0.037885291  0.039059057            1 
  367000    1.1874852   -6.8308897    166.76581  0.037866897  0.039050838            2 
  368000    1.1958579   -6.8141813    167.06927  0.037832716  0.039043466            1 
  369000    1.1867717   -6.8495865    167.07232  0.037730876  0.039036066            1 
  370000    1.1565043   -6.8316129    167.58347  0.037744025  0.039028793            2 
  371000    1.1900614   -6.8266402    168.36166  0.037817084  0.039021537            4 
  372000    1.2067562   -6.8486067    168.59477  0.037767646  0.039014988            2 
  373000    1.2021033   -6.8453383     169.7144  0.037916532  0.039008588            1 
  374000    1.1872213   -6.8376122    169.95356  0.037868441  0.039002713            1 
  375000    1.1700801   -6.8778243    170.36076  0.037857947  0.038996694            1 
  376000    1.1858483   -6.8523734    171.08962  0.037918799   0.03899133            1 
  377000    1.1716328    -6.882184     171.4817  0.037904885  0.038985966            6 
  378000    1.1899833   -6.8746544    171.17715  0.037737466  0.038980105            1 
  379000      1.19833   -6.8718279    172.46957   0.03792207  0.038974759            2 
  380000    1.1997914   -6.8313127    173.13102  0.037967329  0.038970785            1 
  381000    1.1738892   -6.8153612        173.3  0.037904637  0.038966756            1 
  382000    1.2009558   -6.8614779    174.47261  0.038061215  0.038963122            1 
  383000     1.151115   -6.8013003    174.10988  0.037882916  0.038959313            1 
  384000    1.1993745   -6.8699818     175.2777  0.038037695  0.038955673            1 
  385000    1.1800728   -6.8696759    175.20396  0.037922934  0.038952308            2 
  386000    1.1728997   -6.8386321    175.35332  0.037856935  0.038948186            1 
  387000    1.1593256   -6.8616028     175.4642  0.037782989  0.038942774            2 
  388000    1.1664501   -6.8571525    176.14631   0.03783211  0.038936767            1 
  389000    1.1891936   -6.8281196    177.02081  0.037922197  0.038930856            3 
  390000    1.1889168   -6.8353522    177.09573  0.037840967  0.038926082            1 
  391000    1.1934308    -6.820342    177.56153  0.037843463  0.038920831            2 
  392000     1.195207   -6.8303824    177.46508   0.03772642  0.038915088            2 
  393000    1.1596377   -6.8264614    177.63479   0.03766641  0.038907689            3 
  394000    1.1663038    -6.892004    177.31224  0.037502589  0.038899717            2 
  395000    1.2172382   -6.8533826    178.57725  0.037674526  0.038891748            2 
  396000    1.1657677   -6.8223259    178.91161  0.037649749  0.038884076            2 
  397000    1.1562009   -6.8404906    179.26855  0.037629839  0.038876081            2 
  398000    1.1890372   -6.8473275     180.0027  0.037689009  0.038868971            2 
  399000    1.2052597   -6.8776326    179.91946  0.037577163  0.038861384            1 
  400000    1.1735125   -6.8863887    180.61425  0.037627969  0.038853573            1 
  401000    1.1924061   -6.8497493     180.6954  0.037550997  0.038845606            1 
  402000    1.2013014   -6.8471335    181.38141  0.037599794  0.038837679            3 
  403000    1.1786043   -6.8556305    181.84294  0.037601931  0.038830205            2 
  404000    1.1864186   -6.8572662    182.45741  0.037635604  0.038823377            4 
  405000    1.1850679   -6.8114218    183.21757  0.037699087  0.038816867            2 
  406000    1.1818967   -6.8688956    182.93374  0.037547976  0.038809129            3 
  407000    1.2030715   -6.8433154    183.62718  0.037597703  0.038801468            1 
  408000    1.2033285   -6.8603558    184.29909  0.037642788  0.038793464            2 
  409000    1.1934959   -6.8866002    183.81205  0.037451517  0.038784576            1 
  410000    1.1928093   -6.8445582    184.74014  0.037548808  0.038775617            1 
  411000    1.1973592    -6.873136    185.38978  0.037589169  0.038767627            2 
  412000    1.1915357   -6.8269247    185.77214  0.037575271  0.038759397            3 
  413000    1.1599665   -6.8436052     186.0401  0.037538358  0.038751544            1 
  414000    1.1924867   -6.8722175    186.31109  0.037502232  0.038742111            1 
  415000    1.1822073   -6.8548073     186.6258   0.03747506  0.038733334            1 
  416000    1.1818883   -6.8625525    186.54287  0.037368362  0.038723838            3 
  417000     1.199121   -6.8658236    187.30926  0.037431907  0.038714376            1 
  418000    1.1714463   -6.8776831     188.3134  0.037542543   0.03870489            1 
  419000    1.1875569   -6.8444616    188.20861  0.037432103  0.038695592            2 
  420000    1.2051396   -6.8478748     188.7855   0.03745744  0.038686577            1 
  421000    1.1715763   -6.8588363    189.42811  0.037495666  0.038678166            2 
  422000    1.1768438   -6.8365387    189.92003  0.037503956  0.038670242            3 
  423000     1.194392   -6.9100731    189.43135   0.03731902   0.03866154            1 
  424000    1.2059905   -6.8668932    190.70195  0.037480729  0.038652385            2 
  425000    1.1874982   -6.8604919    191.25158  0.037500309  0.038644049            1 
  426000    1.1868865   -6.8689596    191.43145  0.037447466  0.038635412            2 
  427000    1.1869477   -6.8660554    192.07306  0.037484984  0.038626769            1 
  428000    1.1738316   -6.8687144    191.81273  0.037346715  0.038618055            2 
  429000    1.1974266   -6.8798153    192.03768  0.037303356  0.038608292            3 
  430000    1.2058685   -6.8274236    192.77794  0.037360065  0.038598504            2 
  431000    1.1824652   -6.8954907    192.58994  0.037237034  0.038588662            1 
  432000    1.1665007   -6.9086205    193.00238  0.037230397   0.03857868            1 
  433000    1.1710015   -6.8453219    194.34084  0.037402009   0.03856893            2 
  434000    1.1665389   -6.8936308    194.55526  0.037357001  0.038559318            2 
  435000    1.2127777   -6.8835619    194.63395  0.037286197  0.038549118            2 
  436000    1.1717774   -6.8750865     195.1568  0.037300612  0.038539332            2 
  437000    1.2040872   -6.9255033    194.93985  0.037173885  0.038529515            1 
  438000    1.2015949   -6.8391599    195.59097  0.037212895  0.038519164            3 
  439000    1.1813213   -6.8676828    195.90581  0.037187892  0.038508681            2 
  440000    1.1851286   -6.8860423    196.15688  0.037150923  0.038498684            1 
  441000    1.1670849   -6.9130306    196.87713  0.037202783   0.03848864            1 
  442000    1.2317269   -6.8827612    197.63169  0.037260877   0.03847854            3 
  443000    1.1918532   -6.8561174    198.47548  0.037335493  0.038468942            2 
  444000    1.1905447    -6.852031    199.13158  0.037374547  0.038460507            1 
  445000    1.1989823   -6.8283281    199.28932  0.037320097  0.038451799            2 
  446000    1.1989528   -6.8852861    199.03522  0.037188942  0.038442277            1 
  447000    1.1728513   -6.8707997    200.06794  0.037298275  0.038432867            1 
  448000    1.1675924   -6.8671601    200.14986  0.037230257  0.038423087            4 
  449000    1.1695373   -6.8709355    200.30604  0.037176325  0.038412844            2 
  450000    1.1595242   -6.8378169    201.18182  0.037255892  0.038402189            1 
  451000    1.1859091   -6.8567959    200.83261  0.037108761  0.038391667            1 
  452000    1.2100926   -6.8676244    201.55868  0.037160524  0.038380079            1 
  453000    1.2089848    -6.866884    201.22474  0.037017061  0.038368836            1 
  454000    1.1666038   -6.8602728    201.63911  0.037011584  0.038357517            1 
  455000    1.1650254   -6.8991803    202.44471  0.037077786  0.038345599            3 
  456000    1.1736476   -6.8843647    202.49672  0.037005979  0.038334278            2 
  457000    1.1924252   -6.8508855    203.47906  0.037104131  0.038322711            1 
  458000    1.1735276   -6.8833932    203.47681   0.03702271  0.038311816            2 
  459000    1.1924924   -6.8845578    203.62643  0.036969215   0.03830102            1 
  460000    1.1852683   -6.9015319    204.88435  0.037116731  0.038290564            1 
  461000    1.1738445   -6.8944575    205.73619  0.037190201  0.038279712            2 
  462000    1.1475925   -6.8662315    206.21781  0.037196575  0.038269344            2 
  463000     1.165053   -6.8634826    206.25757  0.037123393  0.038259417            2 
  464000    1.1527488   -6.8770956    206.68885  0.037120842  0.038249477            2 
  465000    1.1627527   -6.8728903    207.44511  0.037176543  0.038240364            2 
  466000    1.1774164   -6.8134179    208.57238  0.037298351  0.038230791            2 
  467000    1.1884121   -6.9249446    206.62355  0.036870726  0.038221314            1 
  468000    1.2113285   -6.8882422    207.89543  0.037018418  0.038211672            1 
  469000    1.1721531   -6.8787794    208.30871   0.03701292  0.038201836            2 
  470000    1.1855681   -6.8460287    209.23884  0.037099086  0.038192522            2 
  471000    1.1802411   -6.8681699    209.72179  0.037105765  0.038183636            2 
  472000    1.1867643   -6.8809754      209.573  0.037000883  0.038173535            2 
  473000    1.1861917   -6.8610784    209.88281  0.036977239  0.038162887            3 
  474000    1.1620026   -6.9108553     209.9578  0.036912412  0.038152598            1 
  475000    1.1921668   -6.8903528    211.08427  0.037032327  0.038142271            2 
  476000    1.1577368   -6.8488353    211.22145  0.036978545  0.038131842            1 
  477000    1.1617863   -6.9050515    211.41006  0.036933972  0.038121581            3 
  478000    1.1873678   -6.8983226    211.85289  0.036933907  0.038111228            2 
  479000    1.1844672   -6.8591274    213.32024   0.03711208  0.038100679            2 
  480000    1.1782409   -6.8438169    213.12982  0.037001705  0.038090371            1 
  481000    1.1794158   -6.9187543    212.85442  0.036877066  0.038079898            2 
  482000    1.1692411   -6.8865725    213.01657   0.03682859  0.038069548            1 
  483000    1.1837798   -6.8200245    213.71212  0.036872347  0.038058582            1 
  484000    1.1873392   -6.8561342    214.03834  0.036852332  0.038047847            2 
  485000    1.1717088   -6.8993417    213.98701  0.036767528  0.038036269            2 
  486000    1.1883889   -6.8125652    215.35031  0.036925636  0.038025272            3 
  487000    1.1683017   -6.9151958    215.60281  0.036893021  0.038014476            3 
  488000    1.1575958     -6.87266    215.96157  0.036878683  0.038003912            1 
  489000    1.1984126   -6.9048245    216.33547  0.036866986  0.037993845            4 
  490000    1.1771091   -6.8889477     216.4635   0.03681352  0.037984149            2 
  491000    1.1635255   -6.8575806    217.37075  0.036892524   0.03797425            2 
  492000    1.1717943   -6.9081554    217.79513  0.036889419  0.037964133            3 
  493000    1.1755778   -6.8774198    218.66244  0.036961197  0.037954482            2 
  494000    1.1921978   -6.8890388    218.33584  0.036831281  0.037944951            2 
  495000    1.1698248   -6.8763867    218.70813  0.036819551  0.037935689            2 
  496000    1.1779691   -6.8734006    217.98808  0.036624342  0.037925469            1 
  497000    1.1809052   -6.8664415    218.58902  0.036651412  0.037913836            1 
  498000     1.175491   -6.8762926    219.16088  0.036673507   0.03790244            1 
  499000    1.1892456   -6.8646349    220.24463     0.036781  0.037891763            2 
  500000    1.1983351   -6.8871281    219.80583  0.036634304  0.037879797            2 
  501000    1.1483888   -6.8758769    220.23147  0.036631981  0.037867818            3 
  502000    1.1912293   -6.9110894     219.5321  0.036442912  0.037854582            2 
  503000    1.1542919   -6.9094362    220.05409   0.03645694  0.037840867            1 
  504000    1.1526824   -6.8792192    221.16356   0.03656805   0.03782729            2 
  505000    1.1804808   -6.8631821    221.14489  0.036492557  0.037813555            1 
  506000    1.1874653   -6.8515242    220.92149  0.036383644  0.037799621            2 
  507000    1.1754832   -6.8950432     221.0993  0.036341108   0.03778491            1 
  508000    1.1747948   -6.8692061     220.8148    0.0362229  0.037769435            1 
  509000    1.1563052   -6.9160782      221.439  0.036253929  0.037753902            1 
  510000     1.183533   -6.8617197    221.89341  0.036257093  0.037738193            2 
  511000    1.1510908   -6.8474306      223.507  0.036449282  0.037723646            3 
  512000    1.1678651   -6.8632002    223.24412  0.036335306  0.037709637            2 
  513000    1.1713617   -6.8843607    223.51521  0.036308514  0.037695212            2 
  514000    1.1797433   -6.9107131     224.2239  0.036352773  0.037681909            4 
  515000    1.1781875   -6.8732291    224.47737  0.036323199  0.037668088            1 
  516000    1.1936171   -6.8900742    225.13651  0.036359255  0.037655051            2 
  517000     1.174386   -6.9309504    226.18519  0.036457961  0.037641739            1 
  518000    1.1599159   -6.8690242    226.14316  0.036380817  0.037628499            2 
  519000    1.1434315   -6.9367155    225.44476   0.03619858  0.037614764            1 
  520000    1.1577993   -6.8631283    227.36138  0.036436119  0.037601174            2 
  521000     1.173402   -6.8528118    226.74006  0.036266804  0.037588392            2 
  522000    1.1659554   -6.9201541    227.90102  0.036382666  0.037575406            1 
  523000    1.1727277   -6.8426015    228.42453  0.036396515  0.037562552            5 
  524000    1.1706659   -6.8801803    228.66321  0.036365014  0.037550229            1 
  525000    1.1633149   -6.9050477    229.12351  0.036368811  0.037538478            3 
  526000    1.1510765   -6.8867011    229.68323  0.036388344  0.037526691            4 
  527000      1.16129   -6.8952792    229.88349  0.036350963  0.037514946            1 
  528000    1.1581089   -6.8484566    230.76836  0.036421774  0.037502981            3 
  529000    1.1811819   -6.9139544    230.55116  0.036318708  0.037490855            6 
  530000    1.1571413   -6.8869972    230.85573  0.036298071  0.037478211            2 
  531000    1.1507402   -6.8994008    230.97278  0.036248081  0.037465672            1 
  532000    1.1746147    -6.886814    231.08784   0.03619797   0.03745269            1 
  533000     1.154228   -6.8707294    232.00887  0.036274058  0.037439356            2 
  534000    1.1777238   -6.8877176    231.90502  0.036189921  0.037426198            1 
  535000     1.164011   -6.8954629    232.36368   0.03619372  0.037413481            1 
  536000    1.1691169   -6.8685589    232.60957  0.036164423  0.037400931            1 
  537000    1.1597838    -6.948498    232.19674  0.036033013  0.037387764            2 
  538000    1.1536765   -6.9086018    233.45389  0.036160763  0.037374383            2 
  539000    1.1577852   -6.8878462    233.65291  0.036124446  0.037360716            2 
  540000    1.1750193   -6.8892205    234.94985  0.036257693  0.037347148            2 
  541000    1.1941577   -6.9142018    233.71631  0.036000663  0.037333968            1 
  542000    1.1775629   -6.8701504    235.16224  0.036156556  0.037320394            2 
  543000    1.1687938   -6.9304821    234.72862  0.036023423  0.037306901            4 
  544000     1.173232   -6.8766355    236.82972  0.036279062  0.037293444            1 
  545000    1.1727251   -6.8896734    236.14265  0.036107439  0.037280676            2 
  546000    1.1706658   -6.8634972    237.06464  0.036182027   0.03726783            1 
  547000    1.1941245    -6.933153    237.05051  0.036113728  0.037255427            2 
  548000    1.1493537   -6.8794079    238.32705  0.036241948   0.03724318            1 
  549000    1.1578724   -6.9086068    237.12864  0.035994025  0.037230751            1 
  550000    1.1667929   -6.9262965    238.22005  0.036093947  0.037218345            1 
  551000    1.1894291    -6.915802    238.24572  0.036032323  0.037206453            2 
  552000    1.1657836   -6.9409243    238.06867  0.035940319  0.037193953            2 
  553000    1.1586113   -6.8826623     239.3033  0.036061377  0.037181823            1 
  554000    1.1615242   -6.9252122    239.37831  0.036007567  0.037168601            3 
  555000    1.1587895   -6.8861337    240.06741  0.036046158  0.037156027            1 
  556000    1.1836076   -6.9167525    240.46031  0.036040214  0.037143268            1 
  557000    1.1556351   -6.8983238    241.03529  0.036061533  0.037130608            1 
  558000    1.1786658   -6.8836414    240.45223  0.035909832  0.037118426            2 
  559000    1.1517768   -6.9265935    240.85548  0.035905707  0.037105841            3 
  560000    1.1495827   -6.8592169    242.40858  0.036072705  0.037093539            2 
  561000    1.1679358   -6.9374119    241.98707  0.035945792   0.03708088            1 
  562000    1.1637945    -6.912871    242.64075  0.035978759  0.037068165            3 
  563000    1.1229186   -6.9038153    242.54999  0.035901419  0.037055926            2 
  564000     1.146995   -6.9101565    243.44062  0.035969359  0.037043325            3 
  565000     1.154806   -6.9406128    243.10219   0.03585578  0.037030622            2 
  566000    1.1797408   -6.9275494    244.57958   0.03600995  0.037018511            2 
  567000    1.1695755   -6.8890184    245.01779  0.036010844  0.037006641            1 
  568000    1.1755164   -6.9139084    245.02268  0.035948163  0.036994881            2 
  569000    1.1576601   -6.8927638    245.05106  0.035889142  0.036983036            1 
  570000    1.1578064   -6.9119739    245.57581  0.035902896  0.036970411            2 
  571000    1.1560587   -6.9329065    246.23653  0.035936447  0.036957933            1 
  572000    1.1436826   -6.8471156    247.61279  0.036074124  0.036945959            6 
  573000    1.1330413   -6.8795918    246.71001  0.035879874  0.036933881            2 
  574000    1.1707518   -6.8568719    247.92455  0.035993693  0.036922341            2 
  575000    1.1549609   -6.9068303    248.46137  0.036008894  0.036911097            4 
  576000    1.1420118   -6.9475992    248.19776  0.035908241  0.036899649            1 
  577000    1.1551308   -6.9185667    247.82264  0.035791831  0.036888739            2 
  578000    1.1490869   -6.9382672    248.98087  0.035896896  0.036877841            3 
  579000    1.1613832   -6.8889843    249.53939  0.035915283  0.036866682            1 
  580000    1.1782469   -6.8941146    249.68686  0.035874548  0.036855398            1 
  581000    1.1575849   -6.9134157     250.2684  0.035896214  0.036844325            3 
  582000    1.1367459   -6.8964489    250.58732    0.0358802  0.036832942            2 
  583000    1.1537619   -6.9089049    250.49157   0.03580497  0.036821639            2 
  584000    1.1689882   -6.9016161    251.15287  0.035838024   0.03681052            1 
  585000    1.2044775   -6.8978748    251.95966  0.035891689  0.036799616            2 
  586000    1.1535101   -6.9201759    252.64921  0.035928499  0.036788847            4 
  587000    1.1935319   -6.8799701    252.63792  0.035865689  0.036777753            2 
  588000     1.155587   -6.9262423    252.08036  0.035725675  0.036766548            1 
  589000    1.1813447   -6.8896887    254.11018  0.035952205  0.036755874            2 
  590000    1.1387983   -6.9032656    253.88057  0.035858838  0.036745292            2 
  591000    1.1390085   -6.9508835    253.59664  0.035758127  0.036734313            2 
  592000    1.1888569   -6.9318815    254.24456   0.03578893  0.036723621            3 
  593000    1.1348583   -6.9621766    254.89569   0.03582008   0.03671285            6 
  594000     1.174027   -6.9163805    255.15724  0.035796471  0.036701494            2 
  595000    1.1827125   -6.9397647    255.22421  0.035745687  0.036690004            3 
  596000    1.1519977    -6.903007    256.63289  0.035882675  0.036678884            2 
  597000     1.163461   -6.9359274    256.47174  0.035800076  0.036668526            2 
  598000    1.1737655    -6.901421     256.9091  0.035801157  0.036657624            1 
  599000    1.1665426   -6.8916443    256.77511  0.035722748  0.036646655            1 
  600000    1.1643569   -6.8844773     257.5212  0.035766834  0.036636354            2 
  601000      1.13552   -6.8906311    257.39909   0.03569039  0.036625654            1 
  602000    1.1343799   -6.8830962    258.13281   0.03573267  0.036614917            1 
  603000    1.1656375   -6.9283243     257.9227  0.035644376  0.036603792            2 
  604000    1.1484166   -6.9643624    258.34475  0.035643591  0.036592378            1 
  605000    1.1506441   -6.9355433    258.35939  0.035586693  0.036580835            3 
  606000    1.1587356   -6.9117572    258.76917   0.03558432  0.036569227            2 
  607000      1.15693   -6.9202942    259.23384  0.035589489  0.036557416            4 
  608000    1.1512586   -6.9226032    259.87289  0.035618542  0.036546113            2 
  609000    1.1580371   -6.9659781    259.89145  0.035562596  0.036534564            2 
  610000    1.1326132   -6.9315708    260.18976  0.035545049  0.036522907            1 
  611000    1.1417682   -6.9253632    260.18471  0.035486186   0.03651096            1 
  612000    1.1555357   -6.8881247    261.21549  0.035568558  0.036499447            3 
  613000    1.1595357   -6.9282461    261.10172  0.035495067  0.036487297            5 
  614000    1.1337154   -6.9247781    261.51057  0.035492749  0.036474982            1 
  615000    1.1475078   -6.9308809    261.99521  0.035500706  0.036462731            3 
  616000    1.1371441   -6.8905038    262.03602  0.035448596  0.036450391            2 
  617000    1.1653228    -6.905864    263.41985  0.035578046  0.036438931            1 
  618000    1.1467636   -6.9273965    262.67573  0.035420136  0.036427383            2 
  619000    1.1441165   -6.9217594    263.39141  0.035459263  0.036415264            1 
  620000    1.1683719   -6.8977702    263.51489  0.035418668   0.03640321            3 
  621000     1.168512   -6.8988364    264.88931  0.035546069  0.036391754            4 
  622000    1.1679006   -6.9266741    264.76347  0.035472062  0.036380519            2 
  623000    1.1818403   -6.9375375    264.94391   0.03543926  0.036369462            1 
  624000    1.1555429   -6.8989459    265.34388  0.035435881  0.036358005            1 
  625000    1.1481233   -6.9027287    266.68734  0.035558312  0.036346671            1 
  626000    1.1282207   -6.9252867    266.26856  0.035445761  0.036335828            1 
  627000    1.1777856   -6.9339982    266.77354  0.035456344  0.036324725            3 
  628000     1.146563   -6.9460856    266.92051  0.035419389   0.03631395            2 
  629000    1.1447783   -6.9319792    267.67355  0.035462845  0.036303171            2 
  630000    1.1441715   -6.9355118    267.98078  0.035447193  0.036292076            1 
  631000    1.1278974   -6.9563547    268.54046  0.035464931   0.03628142            1 
  632000    1.1553319   -6.9491133    269.09309  0.035481684  0.036270534            1 
  633000    1.1484875   -6.9374121    269.26485  0.035448242  0.036259565            1 
  634000    1.1427969   -6.9008184    270.42945  0.035545407  0.036249173            2 
  635000    1.1493847    -6.904712    270.86503  0.035546592  0.036238263            1 
  636000    1.1599799   -6.9664258    270.19212  0.035402532  0.036227799            2 
  637000    1.1762729   -6.9277972     269.8188  0.035298116  0.036217157            1 
  638000    1.1658344   -6.9405803    272.02565  0.035531041  0.036206892            6 
  639000    1.1643056   -6.9435851    271.27572  0.035377637  0.036196829            2 
  640000    1.1273894   -6.8786697    272.25236  0.035449526  0.036186601            2 
  641000    1.1361849   -6.9289055    272.73492  0.035456958  0.036176155            2 
  642000    1.1738578   -6.9009356    273.03722  0.035440968  0.036165996            2 
  643000     1.170372   -6.8915292    273.89721  0.035497305  0.036155706            2 
  644000    1.1158391   -6.9300494    273.05706   0.03533347  0.036145351            1 
  645000    1.1417366   -6.9241402    273.61437  0.035350693  0.036134829            1 
  646000    1.1601628   -6.9272305    274.53693   0.03541498  0.036124694            4 
  647000    1.1375293   -6.8971997     274.3844  0.035340598  0.036114178            3 
  648000    1.1619795   -6.9113776    275.10537  0.035378777   0.03610404            2 
  649000    1.1449745   -6.9051295    275.65587   0.03539495  0.036094104            1 
  650000    1.1625196   -6.9251393    276.11098  0.035398844   0.03608428            1 
  651000    1.1416593   -6.9313607    276.53309  0.035398501  0.036074706            1 
  652000    1.1406456   -6.9015178    277.44837  0.035461193  0.036065172            2 
  653000    1.1532163   -6.9377862    276.64769  0.035304708  0.036055697            2 
  654000     1.150671   -6.9357181    277.96347  0.035418383  0.036045811            1 
  655000    1.1603252   -6.9690947    277.54047  0.035310492  0.036035882            3 
  656000    1.1539932   -6.9219615    277.84381    0.0352952  0.036025977            1 
  657000    1.1550819   -6.9459606    278.32284  0.035302238  0.036015923            4 
  658000    1.1366458   -6.9927836    277.43878  0.035136624  0.036005815            1 
  659000    1.1578426   -6.9460596    277.92969  0.035145383  0.035995604            1 
  660000    1.1231774   -6.8830827    280.34658  0.035397296  0.035986296            2 
  661000    1.1499573   -6.9399718    279.48677  0.035235346  0.035976388            1 
  662000    1.1428197   -6.9691265    280.13148  0.035263278  0.035966362            2 
  663000    1.1502758   -6.9503441     280.4096  0.035245047    0.0359565            2 
  664000    1.1401253   -6.9180682    281.33273  0.035307823  0.035947003            2 
  665000     1.124309   -6.9342949     281.8015  0.035313471  0.035937784            2 
  666000     1.133272   -6.9642803     281.7488  0.035253854  0.035928231            2 
  667000    1.1549471   -6.8966862    282.98958  0.035356019  0.035919437            2 
  668000    1.1507069   -6.9486032    283.06774  0.035312842    0.0359104            1 
  669000    1.1656202   -6.9934377    282.71721  0.035216394  0.035900936            1 
  670000    1.1555804   -6.8975753     284.0163   0.03532541   0.03589145            3 
  671000    1.1368839    -6.922748    283.21791  0.035173611   0.03588191            2 
  672000    1.1372059   -6.9176886    284.05259  0.035224775  0.035872168            2 
  673000     1.157778   -6.9113913    284.72418  0.035255595  0.035862413            4 
  674000     1.124249   -6.9344673    284.37081  0.035159596  0.035852135            1 
  675000    1.1368395    -7.000565    284.71842  0.035150422  0.035842176            3 
  676000    1.1421891   -6.9284365    284.50262  0.035071822  0.035831939            1 
  677000    1.1372707   -6.9597438    285.16357  0.035101375  0.035821807            3 
  678000    1.1184322    -6.936338    285.75108  0.035121814   0.03581174            3 
  679000    1.1311915   -6.9426511     286.0113  0.035102025  0.035801814            1 
  680000    1.1485172   -6.9566003    286.83388  0.035151211  0.035792099            1 
  681000    1.1373809   -6.9271788    287.26045  0.035151792  0.035782192            1 
  682000     1.153312   -6.9791663     286.5416  0.035012414  0.035771968            1 
  683000    1.1379855   -6.9391448    287.51605  0.035080045  0.035761227            3 
  684000    1.1371022   -6.9171047    288.36254  0.035131888  0.035750451            1 
  685000    1.1348779   -6.9507042    287.00882  0.034915915  0.035739894            2 
  686000    1.1271323   -6.9313323    287.66475  0.034944697  0.035729224            2 
  687000    1.1233597   -6.9034928    288.72768  0.035022766  0.035718502            2 
  688000    1.1525287   -6.9686518    287.50822  0.034824154  0.035707755            1 
  689000    1.1297349   -6.9440995    289.74644   0.03504432  0.035696818            2 
  690000    1.1324968    -6.951393    289.25404  0.034934063  0.035686178            2 
  691000    1.1314527    -6.957685    289.52468  0.034916146  0.035675654            2 
  692000    1.1355438   -6.9317141    290.21127  0.034948371  0.035665112            4 
  693000    1.1124755   -6.9764849    290.03335  0.034876545  0.035654531            2 
  694000    1.1420636   -6.9570955    290.61238  0.034895819  0.035644257            1 
  695000    1.1195137   -6.9175903    291.98494  0.035010185  0.035634038            2 
  696000    1.1310785   -6.9351584     291.8767  0.034946923  0.035624002            1 
  697000    1.1168667   -6.9397759    293.13529  0.035047261  0.035613869            3 
  698000    1.1373793   -6.9442545    293.15661  0.034999595  0.035604135            3 
  699000    1.1182327   -6.9377122    293.86223  0.035033647  0.035594721            1 
  700000    1.1395105   -6.9572705     293.3138   0.03491831   0.03558511            2 
  701000    1.1193238   -6.9491933    294.29958  0.034985685  0.035575323            2 
  702000    1.1451845   -6.9508509     293.8929  0.034887571  0.035565538            3 
  703000    1.1204526    -6.931596      294.811  0.034946775  0.035555663            2 
  704000    1.1514482   -6.9390101     295.3917  0.034965873  0.035545838            1 
  705000    1.1260229   -6.9080748    296.45716  0.035042218  0.035536128            3 
  706000    1.1457714   -6.9112853    295.89779  0.034926557  0.035526067            1 
  707000      1.14037   -6.9455844    295.47647  0.034827495  0.035516635            2 
  708000    1.1170099   -6.9606069    296.07409  0.034848645  0.035507088            1 
  709000    1.1159124   -6.9346171    297.11606  0.034921962  0.035497224            2 
  710000    1.1406337   -6.9615685     295.9367  0.034734354  0.035487098            3 
  711000    1.1318831   -6.9320797    297.61894   0.03488267  0.035477493            1 
  712000    1.1394853   -6.9386434    298.13213  0.034893741  0.035468497            3 
  713000    1.1295169   -6.9491772     298.3633  0.034871821  0.035458903            2 
  714000    1.1607989   -6.9264161    298.97171  0.034893991  0.035449585            3 
  715000    1.1342706   -6.9514196    299.71593  0.034931926   0.03544024            2 
  716000    1.1619489   -6.9261877    299.69043  0.034880171  0.035430507            2 
  717000    1.1478095   -6.9056542    300.68491  0.034947108  0.035421296            2 
  718000    1.1245969   -6.9719477    300.30561  0.034854412  0.035411665            2 
  719000     1.166409   -6.9453145    300.32872  0.034808614  0.035401936            1 
  720000    1.1289467    -6.934843    300.09474  0.034733188  0.035392546            1 
  721000    1.1446457   -6.9371809     301.3494  0.034830028  0.035383053            3 
  722000    1.1267236   -6.9207133    302.62603  0.034929135   0.03537342            2 
  723000    1.1443331   -6.9515295    301.79117  0.034784598  0.035364115            2 
  724000    1.1369235   -6.9495186    302.93188   0.03486785  0.035354838            2 
  725000     1.129998   -6.9452148    303.26466  0.034858007  0.035345376            1 
  726000    1.1269644   -6.9361123     303.4968  0.034836639  0.035335644            3 
  727000    1.1309634    -6.932235    303.28399  0.034764327  0.035326263            2 
  728000    1.1343771   -6.9082158    305.03729  0.034917273  0.035317419            1 
  729000    1.1193416   -6.9516967     304.1062   0.03476294  0.035308135            2 
  730000    1.1384064   -6.9843902    303.37017  0.034631298  0.035298278            2 
  731000    1.1297451    -6.960359    304.92789  0.034761502  0.035288729            1 
  732000    1.1319386   -6.9669419    305.83214  0.034816955  0.035279802            2 
  733000    1.1745037   -6.9946149    304.91543  0.034665238  0.035270413            1 
  734000    1.1325578   -6.9748453    304.96962  0.034624162  0.035261027            3 
  735000    1.1339323   -6.9221774    307.38643  0.034851069  0.035251788            2 
  736000     1.141245   -6.9767662     306.5316  0.034706929  0.035242431            2 
  737000     1.133789   -6.9545291    307.61041   0.03478182  0.035232891            1 
  738000    1.1384888   -6.9448525    308.28783  0.034811182  0.035223746            1 
  739000    1.1231179   -6.9983138    307.31959  0.034654893  0.035214478            2 
  740000    1.1192642   -6.9540612    309.11559  0.034810314  0.035205323            2 
  741000     1.126556   -6.9281014     310.0837  0.034872211  0.035196589            2 
  742000    1.1299337    -6.970323    310.33866  0.034853848  0.035188356            1 
  743000    1.1322763   -6.9784568    309.91378  0.034759285  0.035179957            2 
  744000    1.1098918   -6.9725251    310.77169  0.034808657  0.035171534            3 
  745000    1.0883737   -6.9437313    310.92503  0.034779086  0.035163172            3 
  746000    1.1082965   -7.0012031    311.25263   0.03476906  0.035155307            2 
  747000    1.1215653   -6.9831161    312.02494  0.034808672  0.035147561            2 
  748000    1.1161613   -6.9781352    312.00658  0.034760091  0.035139128            1 
  749000    1.1222074   -6.9771913    311.69532  0.034679052  0.035130823            1 
  750000    1.1367065   -6.9618596      312.042  0.034671333  0.035122396            2 
  751000    1.1201524   -6.9986653    311.72082  0.034589528  0.035114136            1 
  752000    1.1229817   -6.9441046    313.33272  0.034722154  0.035105557            2 
  753000    1.1355684    -6.982153    313.67118    0.0347135  0.035096856            1 
  754000    1.1100887   -6.9591923    313.27418  0.034623583   0.03508841            2 
  755000    1.1426211   -6.9696818    314.18005  0.034677709  0.035080011            4 
  756000    1.1204851   -6.9618433     314.3502  0.034650596  0.035071193            2 
  757000    1.1256449   -6.9842627    314.21831  0.034590303  0.035062757            2 
  758000    1.1217498   -6.9426633    315.55218  0.034691313  0.035054713            2 
  759000    1.1191952   -6.9850729    316.39629  0.034738284  0.035046442            2 
  760000    1.1346244   -6.9720361    316.17529  0.034668343  0.035038515            2 
  761000    1.1281012   -6.9470729    316.76801  0.034687692  0.035030526            1 
  762000    1.1585823   -6.9792882    315.52223  0.034505931  0.035022392            2 
  763000    1.1320053   -6.9498485    317.04331  0.034626836  0.035014216            1 
  764000    1.1026364   -6.9961378    317.39767  0.034620164  0.035006041            3 
  765000    1.1298992   -6.9736831    318.10662  0.034652137  0.034998099            1 
  766000    1.1364826   -6.9660486    318.98451  0.034702405  0.034990444            3 
  767000    1.1323943   -6.9497191    318.33605  0.034586706  0.034982585            1 
  768000    1.1117827    -6.953033    317.91847  0.034496361  0.034974645            2 
  769000    1.1158207   -6.9578033    319.19487  0.034589822  0.034966312            3 
  770000    1.1389432   -6.9865614    318.78844  0.034500913  0.034958018            2 
  771000    1.1240586   -6.9808068    319.39437  0.034521657  0.034949688            4 
  772000    1.1242852   -6.9649747    320.26644  0.034571075   0.03494145            1 
  773000     1.126978   -6.9781973    320.60472  0.034562821  0.034933362            2 
  774000    1.1286052   -6.9734847    319.99535  0.034452557  0.034925475            2 
  775000    1.1272112   -6.9446554    321.76717   0.03459862   0.03491737            4 
  776000    1.1438497   -6.9679079    321.30134   0.03450401  0.034909033            1 
  777000    1.1333162    -6.977333    321.01529  0.034428924  0.034900785            3 
  778000    1.1106311   -6.9480182     322.1335  0.034504445  0.034892582            1 
  779000    1.1091753   -6.9561625    322.82271   0.03453388  0.034884495            2 
  780000    1.1333887   -6.9293716    323.83629  0.034597894  0.034876156            1 
  781000    1.1257844    -6.983769    322.30894  0.034390626  0.034867623            2 
  782000    1.1500923   -6.9502144    323.98052  0.034524778  0.034858921            2 
  783000     1.130342    -6.947381     323.9694  0.034479502  0.034850531            3 
  784000     1.134169   -6.9788696    324.23331  0.034463574  0.034842232            2 
  785000    1.0968272   -6.9206698     324.8381  0.034483875  0.034833638            1 
  786000    1.1185934   -7.0177983    323.85129  0.034335378  0.034825352            3 
  787000    1.1336636   -6.9477532    325.07243  0.034421053   0.03481679            1 
  788000    1.1260139    -6.937672    325.44545   0.03441682  0.034808312            2 
  789000    1.1373567   -6.9514691    326.84634  0.034521159  0.034799671            2 
  790000    1.1341549   -6.9317718    326.28993  0.034418769  0.034791432            3 
  791000    1.1516947   -6.9956252     325.8835  0.034332438  0.034782686            5 
  792000    1.1187755   -6.9681255    325.53614   0.03425254  0.034774212            3 
  793000    1.1089778   -6.9846401    326.12851  0.034271597  0.034765232            2 
  794000     1.103659    -6.968744    326.53652  0.034271255  0.034756345            2 
  795000    1.1147396   -6.9687927    326.99244  0.034275937  0.034747501            1 
  796000    1.1113377   -7.0109034    327.19289  0.034253862  0.034738212            2 
  797000    1.1236137    -7.017666    326.96113  0.034186651  0.034728894            2 
  798000     1.128667   -6.9983708    327.66792  0.034217619  0.034719649            1 
  799000    1.1403261    -6.987534    328.10039  0.034219898  0.034710343            2 
  800000    1.1233601   -6.9794282    327.56916  0.034121788  0.034701288            2 
  801000    1.1056697   -6.9711128    329.50265  0.034280342  0.034692009            1 
  802000    1.1062713   -7.0306099    328.88495  0.034173416  0.034682836            4 
  803000    1.1370628   -7.0032007     328.6592   0.03410743  0.034673383            3 
  804000    1.1078079   -6.9911999    330.51355  0.034257209  0.034664245            1 
  805000    1.1167772   -6.9562219    331.15644  0.034281205  0.034655495            2 
  806000    1.1055958   -6.9856363    331.43396  0.034267365  0.034646915            1 
  807000    1.1037718   -6.9594658    332.26014  0.034310217  0.034638077            1 
  808000    1.1233647   -7.0009168    331.76582  0.034216772  0.034629369            1 
  809000    1.1176016   -6.9729221    332.17636  0.034216766  0.034620844            1 
  810000    1.1173856    -7.005462    331.74044  0.034129675   0.03461219            1 
  811000      1.11499   -7.0142567    332.13611  0.034128248  0.034603752            1 
  812000    1.1220441   -7.0014252    332.54553  0.034128236  0.034594963            4 
  813000    1.1249481   -6.9648106    334.01385  0.034236762   0.03458634            5 
  814000    1.1275532   -6.9384865    334.76171  0.034271264  0.034577833            1 
  815000    1.1350344   -6.9661187    333.70349  0.034121011  0.034569475            2 
  816000    1.1023324    -7.030317    333.23174  0.034031019  0.034560824            1 
  817000    1.1377529   -7.0005807    334.84635  0.034154055  0.034551887            1 
  818000    1.1211776   -7.0207324     335.2015  0.034148482  0.034543324            2 
  819000    1.1251502    -6.959456    335.38854  0.034125818  0.034534518            2 
  820000    1.1103032   -6.9682047     334.6083  0.034004909  0.034525439            2 
  821000    1.1125799     -7.00386    335.33622  0.034037376  0.034516348            1 
  822000    1.1023312   -6.9628733    335.78646  0.034041611   0.03450746            1 
  823000    1.1256611   -6.9563858    336.88594  0.034111577  0.034498733            6 
  824000    1.1134337   -7.0000031    336.20362  0.034001176  0.034490022            3 
  825000    1.1301323   -7.0199674    335.94459  0.033933797  0.034480996            3 
  826000    1.0991466   -7.0069124    338.49316  0.034149834  0.034472225            3 
  827000    1.1105805   -6.9620663    337.93958  0.034052759  0.034463647            3 
  828000    1.1146724   -7.0106129    336.75558  0.033892469  0.034454826            1 
  829000    1.1226939   -6.9920464    339.03641  0.034080862   0.03444582            3 
  830000    1.1208187    -6.993011    339.02286   0.03403844  0.034436971            2 
  831000    1.1220865   -7.0045066    338.54278  0.033949336  0.034427996            3 
  832000    1.1331127   -6.9766802    339.34982  0.033989365  0.034419034            3 
  833000     1.114077   -6.9633227    339.80012   0.03399361  0.034410046            1 
  834000    1.1156466   -7.0255256    339.83993  0.033956828  0.034400716            8 
  835000    1.1174195    -6.987824    339.83368  0.033915536  0.034391491            3 
  836000     1.107407   -6.9847802    339.60159  0.033851833  0.034382376            2 
  837000    1.1103479   -7.0020454    340.51608  0.033902438  0.034372994            1 
  838000    1.1536649   -6.9741879    340.93043  0.033903185  0.034364307            1 
  839000    1.1265043   -7.0228112    341.42318  0.033911718    0.0343552            1 
  840000    1.1123231   -6.9980799    341.59611  0.033888503  0.034345778            1 
  841000    1.1205134   -7.0124624    340.82058  0.033771362  0.034336496            2 
  842000    1.1296737   -6.9773147    342.09327  0.033857212  0.034327263            3 
  843000    1.1165485   -7.0121294    341.96929  0.033804794  0.034317846            1 
  844000    1.1211682   -7.0017895    341.86646  0.033754587  0.034308205            2 
  845000    1.1070843    -6.967619    342.89019    0.0338156  0.034298768            2 
  846000     1.104218   -6.9801004    344.37272  0.033921663  0.034289542            1 
  847000    1.1054831   -6.9687592    342.84657  0.033731461  0.034280363            1 
  848000    1.0946501   -7.0142599    344.15198  0.033819967  0.034270875            4 
  849000    1.1378975   -7.0256677    343.10157  0.033677028  0.034261192            2 
  850000    1.1155829   -6.9648895    343.85312   0.03371109  0.034251562            1 
  851000    1.1358717   -6.9998502     342.7208  0.033560595  0.034241968            1 
  852000    1.1197558   -6.9872181    344.68713   0.03371353  0.034232396            1 
  853000    1.1279355   -7.0131305    345.17874  0.033722034  0.034222716            3 
  854000    1.1132151   -6.9940274    345.43765  0.033707812   0.03421303            2 
  855000    1.1205473   -7.0128885    346.44789  0.033766851  0.034203169            2 
  856000    1.1077826   -7.0212365    345.43763  0.033629053  0.034193419            3 
  857000    1.1178291   -7.0195089    344.33778  0.033482865  0.034183063            4 
  858000    1.1285925   -6.9876322    344.93897  0.033502231  0.034172543            2 
  859000    1.1127734   -7.0051932    344.95494  0.033464779  0.034162025            2 
  860000    1.1206719   -7.0172364    345.03995  0.033434103  0.034151144            2 
  861000    1.0966428   -6.9726907    346.24149  0.033511565  0.034140584            2 
  862000    1.1146455   -7.0193921    345.77222  0.033427322  0.034130167            2 
  863000    1.1082731   -6.9497233    347.68996   0.03357377  0.034119766            3 
  864000    1.1174144   -7.0001916    345.99608  0.033371535  0.034109138            2 
  865000    1.1168336   -7.0357296    347.54041  0.033481735  0.034098371            3 
  866000    1.1293229   -6.9395768    347.89809  0.033477491  0.034087843            2 
  867000    1.0992898   -6.9948762    348.92952  0.033538017  0.034077483            3 
  868000    1.1171158   -6.9327663    349.16094  0.033521596  0.034067225            3 
  869000     1.127046   -7.0321483    349.08891  0.033476113  0.034056787            1 
  870000    1.1083842   -7.0189532    348.49463  0.033380712  0.034046264            2 
  871000    1.1187819   -6.9780526    349.31248  0.033420636  0.034035945            1 
  872000    1.1157633   -7.0379787    349.10754  0.033362723  0.034025362            1 
  873000    1.0977293   -7.0049964    349.23901  0.033337057  0.034014729            1 
  874000    1.1148888   -7.0094687    350.12962  0.033383831  0.034004243            3 
  875000    1.1002626   -6.9829868    350.83848  0.033413189   0.03399402            3 
  876000    1.1186118   -7.0252201    349.41088  0.033239239  0.033983583            1 
  877000    1.1294204   -6.9676616    351.21784  0.033373037  0.033973285            2 
  878000    1.1309144    -7.000233    350.49327  0.033266256  0.033963275            2 
  879000    1.1172813   -7.0355768    351.23508  0.033298737  0.033952756            1 
  880000    1.1177935   -6.9794935    353.37848  0.033463871  0.033942388            2 
  881000    1.1173674    -7.010789    351.65235  0.033262614  0.033931918            3 
  882000    1.1163885   -7.0071952    352.03491  0.033261046  0.033921311            3 
  883000    1.1184597   -6.9948978    353.37411  0.033349765   0.03391109            1 
  884000    1.1426257   -7.0101265    353.65893  0.033338888  0.033900575            2 
  885000    1.1281394    -7.004782    354.32412  0.033363853  0.033890222            1 
  886000    1.1044869   -6.9841882    354.81718  0.033372571  0.033879474            1 
  887000    1.0965639   -7.0266236    352.85492  0.033150594   0.03386879            3 
  888000    1.1011093   -7.0116477    354.51797  0.033269329  0.033858254            1 
  889000    1.1258017   -7.0417716    354.14256  0.033196716  0.033847945            2 
  890000    1.0910412   -6.9879377    355.81679  0.033316179  0.033837963            2 
  891000    1.1125644   -7.0059884    356.49113  0.033341856  0.033828013            5 
  892000    1.0982256   -6.9898588    355.94556  0.033253509  0.033818154            3 
  893000    1.1137745   -7.0270092    356.24186  0.033243921  0.033808331            2 
  894000    1.1128349   -7.0595527    357.49831  0.033323854  0.033798564            2 
  895000    1.0998047   -7.0431179    356.90664  0.033231531  0.033788751            2 
  896000    1.1112212   -6.9781836    358.80352  0.033370863  0.033779193            3 
  897000     1.111743   -7.0324185    358.95003  0.033347272  0.033769541            2 
  898000    1.0959635   -7.0140849     358.2264  0.033242985  0.033759806            1 
  899000    1.1253251   -6.9880879    358.63869  0.033244225  0.033750306            2 
  900000    1.1052418   -7.0063271    359.87008  0.033321304  0.033740682            1 
  901000    1.1123091   -7.0694882    358.89726  0.033194345  0.033731056            1 
  902000    1.1016687   -7.0222941    360.70638  0.033324684  0.033721264            1 
  903000    1.1010372   -7.0171381     360.8529  0.033301301  0.033711999            2 
  904000     1.109482    -6.997702    361.25105  0.033301166  0.033702545            2 
  905000    1.0887218   -7.0363978     361.0184  0.033242946   0.03369323            4 
  906000    1.1057575   -6.9929256    361.24598  0.033227187   0.03368395            1 
  907000    1.1169732   -7.0151474    361.60348    0.0332234  0.033674507            1 
  908000    1.1207854   -7.0042658    362.83836  0.033300143  0.033665064            2 
  909000    1.1197948   -6.9907426    363.14981  0.033292062  0.033655752            2 
  910000    1.1116415   -7.0111206    363.45322  0.033283262  0.033646933            3 
  911000    1.0908151   -7.0209143     364.4767   0.03334035  0.033637871            3 
  912000    1.1003271   -7.0351226    364.38706  0.033295601  0.033629023            2 
  913000    1.1416297    -7.038653    363.92085   0.03321658  0.033619926            2 
  914000    1.1191917   -6.9992102    365.82314  0.033353678  0.033610723            1 
  915000    1.0831448   -6.9936914    364.48289  0.033195163  0.033601713            2 
  916000    1.1029271   -7.0314655    365.54143  0.033255225  0.033592352            1 
  917000    1.1070571   -7.0080842    366.38427  0.033295553  0.033583281            2 
  918000    1.1061882   -7.0510678      365.975  0.033222132  0.033574364            1 
  919000    1.1018257    -7.021892    365.81848  0.033171788   0.03356536            1 
  920000    1.1178335    -7.045108    366.35736  0.033184543   0.03355636            4 
  921000    1.1140502   -6.9815537     367.3317  0.033236672  0.033547444            2 
  922000    1.0871826   -6.9824843    366.82179  0.033154536  0.033538799            1 
  923000    1.1186483    -7.015208    366.50247  0.033089786  0.033530053            3 
  924000    1.1016436   -7.0122456    368.60315   0.03324343  0.033520919            3 
  925000     1.110999   -7.0078661    367.62319  0.033119207  0.033512193            1 
  926000    1.0864585   -7.0101412    368.38112  0.033151649  0.033503492            2 
  927000    1.0994818   -6.9886971    370.18399  0.033277956  0.033494902            5 
  928000    1.1139827    -7.016418    369.90099  0.033216683  0.033486502            1 
  929000    1.0843437    -7.015591    369.73181  0.033165752  0.033477816            1 
  930000    1.0968795   -7.0182099    369.86408  0.033141943   0.03346932            4 
  931000    1.1004602   -7.0217182    371.27667  0.033232784  0.033460901            2 
  932000    1.1179264   -7.0452454    370.83705  0.033157819  0.033452758            1 
  933000     1.111296   -7.0511092    372.55975  0.033276148  0.033444602            1 
  934000    1.0986115   -7.0666162     371.4415  0.033140747  0.033436559            2 
  935000    1.0966102   -7.0623029    373.62721  0.033300108  0.033428335            4 
  936000    1.0977244   -7.0210831    372.04691  0.033123835  0.033420526            2 
  937000     1.120476   -7.0660775    372.59157  0.033136924  0.033412242            1 
  938000    1.1192093   -7.0509255    373.68781  0.033198988  0.033403877            1 
  939000    1.1134434   -7.0390066    373.55126  0.033151514   0.03339573            1 
  940000    1.1181555   -7.0415145    373.84522  0.033142307  0.033387664            3 
  941000    1.1094135   -7.0434371    372.42012  0.032980882  0.033379302            2 
  942000    1.1101389   -7.0074643    374.78828  0.033155368  0.033371145            1 
  943000    1.1020624    -7.023756    376.52536  0.033273715  0.033362796            2 
  944000    1.0985621   -7.0781082     375.6158  0.033158175  0.033354082            2 
  945000    1.1184937   -7.0335111    374.91326  0.033061134   0.03334594            1 
  946000    1.0986994    -7.031261    376.23885  0.033142957  0.033337622            1 
  947000    1.1114617   -7.0776054    374.31311  0.032938499  0.033329288            2 
  948000    1.0875879   -7.0333103    377.53363  0.033186852  0.033321122            2 
  949000    1.0995516    -6.992854    377.33623  0.033134548  0.033312766            1 
  950000    1.0917989   -7.0334332    377.48702  0.033112897  0.033304498            2 
  951000    1.1339509   -7.0284083    377.84061  0.033109062  0.033295999            1 
  952000     1.106202   -6.9851512     377.1419  0.033013122  0.033287532            3 
  953000    1.0824622   -7.0214872    379.15759  0.033154739  0.033279069            1 
  954000    1.0972849   -7.0701024    377.62699  0.032986285  0.033270641            1 
  955000    1.0709384   -7.0332967    378.09038   0.03299218  0.033262228            3 
  956000    1.1150368   -7.0413664     378.4186  0.032986279  0.033253973            2 
  957000    1.0993499   -7.0348614    378.51055  0.032959818  0.033245608            1 
  958000    1.0789389   -7.0333501    380.83581   0.03312768  0.033237125            1 
  959000     1.106593   -6.9962652    379.63568   0.03298885   0.03322873            3 
  960000    1.0562111   -7.0593859    379.23607  0.032919798  0.033220415            2 
  961000    1.0914199    -6.995794    380.96883  0.033035798  0.033212274            2 
  962000    1.1008776   -6.9992976    381.06812  0.033010059  0.033204444            2 
  963000    1.1190341   -6.9970214    383.06347  0.033148449  0.033196631            2 
  964000    1.1037151   -7.0583487    382.06995  0.033028177  0.033188885            2 
  965000    1.1127541   -7.0642781    382.51916  0.033032743  0.033180998            1 
  966000    1.1088569   -6.9938128    382.83306  0.033025626  0.033173266            2 
  967000    1.1032239   -7.0556018    383.06182  0.033011188   0.03316555            1 
  968000     1.100824   -7.0422405    383.74652   0.03303603  0.033157949            1 
  969000     1.114304   -7.0517253    383.41345  0.032973293  0.033150198            5 
  970000    1.1096226   -6.9978582    383.45541  0.032942905  0.033142253            2 
  971000    1.1059742   -7.0364624    383.97821  0.032953845  0.033134362            2 
  972000    1.0998394   -7.0411085    385.16961  0.033022086  0.033126496            2 
  973000    1.1009046   -7.0680292    384.52726  0.032933133  0.033118699            1 
  974000    1.0867004   -7.0348336    384.87625   0.03292918  0.033110799            2 
  975000    1.0933556    -6.995235    385.65657    0.0329621  0.033102867            2 
  976000    1.0905508   -7.0187769    385.79881  0.032940472  0.033095125            2 
  977000    1.1058466   -7.0441533    385.61384  0.032890979  0.033087243            2 
  978000    1.0977129    -7.062532    384.34479  0.032749215  0.033079123            2 
  979000    1.1040728   -7.0683908    386.47131  0.032896775  0.033070911            2 
  980000    1.0745934    -7.034681    385.49194  0.032779927  0.033062494            2 
  981000    1.0896487   -7.0220509    386.50859  0.032832874   0.03305421            2 
  982000    1.0916048   -7.0317649    385.50422  0.032714207  0.033046115            2 
  983000    1.1050035   -7.0430384    385.75156  0.032701895  0.033037548            2 
  984000    1.0926582    -7.062456     385.9461  0.032685137  0.033028976            1 
  985000    1.1254632   -7.0233158     387.5923  0.032791226  0.033020416            2 
  986000    1.0867605   -7.0334438    387.73038   0.03276964   0.03301211            1 
  987000    1.0932491   -7.0219213    387.47439  0.032714826  0.033004049            2 
  988000    1.0842853   -7.0547068    387.45638  0.032680194  0.032995598            1 
  989000    1.0697708   -7.0399324    388.98005  0.032775535  0.032987275            2 
  990000    1.1083931    -7.029693     388.8106  0.032728165  0.032978987            2 
  991000    1.0893574   -7.0748799    389.86422  0.032783739  0.032971022            2 
  992000    1.0883376   -7.0779783    389.54076  0.032723518  0.032962964            1 
  993000    1.0911559   -7.0168694     389.8374  0.032715458  0.032954916            1 
  994000    1.1136448   -7.0698056    390.82413  0.032765269  0.032946869            1 
  995000     1.096421   -7.0849836    390.03202  0.032665999  0.032938621            1 
  996000    1.1165557   -7.0729054    390.60427   0.03268108  0.032930319            2 
  997000    1.0837428   -7.0324763    392.28647  0.032788906  0.032922283            2 
  998000    1.0941655   -7.0355907    391.89783    0.0327236  0.032914424            2 
  999000    1.1034532   -7.0534353    391.95215  0.032695374  0.032906806            2 
 1000000    1.0804044   -7.0374413    393.78429  0.032815358  0.032899025            4 
 1001000     1.076126   -7.0508423    393.51042  0.032759775  0.032891353            2 
 1002000    1.0884937   -7.0476746    393.45508  0.032722478  0.032883568            2 
 1003000    1.0823098   -7.0236338    394.22516  0.032753835  0.032875912            4 
 1004000    1.0666006   -7.0496822    393.99396  0.032702022  0.032868215            3 
 1005000    1.1000929    -7.059602    394.30219  0.032695041  0.032860672            2 
 1006000    1.0954084   -7.0215475    395.64638  0.032773888  0.032853115            2 
 1007000    1.1120474   -7.0781195     396.5894  0.032819381  0.032845742            2 
 1008000    1.0909306   -7.0835188    395.63913  0.032708261  0.032838389            2 
 1009000    1.0722735   -7.0258882    397.63269  0.032840493  0.032831515            6 
 1010000    1.0732645    -7.056104    396.75457  0.032735525  0.032824567            1 
 1011000    1.1087013   -7.0157563    399.41906  0.032922771  0.032817891            1 
 1012000    1.1028896   -7.0590342    397.06998  0.032696804  0.032810988            5 
 1013000    1.0811865   -7.0365164     398.7777   0.03280501  0.032804121            2 
 1014000    1.0809193   -7.0336085    400.07785  0.032879507  0.032797537            2 
 1015000    1.0668383   -7.0473468    399.06009  0.032763554   0.03279072            2 
 1016000    1.0855398   -7.0719247    398.20253  0.032660969  0.032783861            4 
 1017000    1.1042004   -7.0561015    400.15844  0.032789121  0.032776849            1 
 1018000    1.0741146   -7.0332498    401.32971  0.032852792  0.032769921            1 
 1019000    1.1015115   -7.0578181    399.97855  0.032710055  0.032763043            3 
 1020000    1.0804756   -7.0471393    401.53443  0.032805101  0.032756052            1 
 1021000    1.0954201   -7.0655191    400.43231  0.032683016  0.032749182            2 
 1022000    1.0925996   -7.0961953    402.53606  0.032822575  0.032742325            3 
 1023000    1.0786514   -7.0615225    401.74728  0.032726236  0.032735439            2 
 1024000    1.0829954    -7.061725    400.91491  0.032626538  0.032728503            1 
 1025000    1.0901714   -7.0922911    401.19097  0.032617152  0.032721309            3 
 1026000    1.0841762   -7.0753976    400.99308  0.032569288  0.032714003            3 
 1027000    1.1076535    -7.044909    403.32186  0.032726538  0.032706714            2 
 1028000    1.0984313   -7.0554586    402.46946  0.032625605  0.032699601            3 
 1029000    1.0910567   -7.0945034    402.90132  0.032628873  0.032692311            2 
 1030000      1.08476   -7.0537355    402.98278  0.032603785  0.032684975            2 
 1031000    1.0845826   -7.0518188    403.48658  0.032612882   0.03267761            2 
 1032000    1.0917317    -7.079096    402.91212  0.032534893  0.032670217            3 
 1033000    1.0850604   -7.0938043    403.22944  0.032528996  0.032662991            2 
 1034000    1.0788237   -7.0489602    404.19602  0.032575437  0.032655925            1 
 1035000    1.0815436   -7.0344288    406.26974  0.032710929  0.032648869            2 
 1036000    1.0882704   -7.0571374    404.82228  0.032562925   0.03264174            3 
 1037000    1.0862985   -7.0315319    406.88668  0.032697419  0.032634748            1 
 1038000    1.1062984   -7.0894907    405.41427  0.032547709  0.032627726            1 
 1039000      1.09849    -7.075485    406.24426  0.032582953  0.032620683            2 
 1040000    1.0586779    -7.058628    406.63638  0.032583043  0.032613728            2 
 1041000    1.0863085   -7.0779828    407.72549  0.032638928  0.032606987            1 
 1042000    1.0940547   -7.0839248    407.27996  0.032571974  0.032600292            2 
 1043000    1.0634724   -7.0726711    408.39511  0.032629843  0.032593482            3 
 1044000     1.118212   -7.0599771    408.30652  0.032591517  0.032586693            1 
 1045000    1.0771223   -7.0973539    407.98928   0.03253503  0.032580016            1 
 1046000    1.0900013   -7.0424318     409.8483  0.032652032    0.0325733            2 
 1047000    1.0861683   -7.0713289    409.35105  0.032581268  0.032566821            1 
 1048000    1.0806574   -7.0780011    410.62971  0.032651854  0.032560086            1 
 1049000    1.0841978   -7.0797809    411.74231  0.032709113  0.032553509            1 
 1050000    1.0815739   -7.0723313    411.27868  0.032641165  0.032547206            3 
 1051000     1.064719   -7.0483422    411.85039  0.032655438  0.032540868            3 
 1052000    1.0648772   -7.0256638    412.96264  0.032712503  0.032534519            1 
 1053000    1.0896161   -7.0951712    413.28601  0.032707028  0.032527988            1 
 1054000    1.0846983   -7.0592404    411.90579  0.032566871  0.032521469            2 
 1055000    1.0748289   -7.0863449    412.57399  0.032588782  0.032515019            5 
 1056000    1.0780644   -7.0632184    412.42075  0.032545829  0.032508682            2 
 1057000    1.0972693   -7.0900272    412.82194  0.032546668  0.032502119            1 
 1058000    1.0582923    -7.077106    413.59875  0.032577091  0.032495538            3 
 1059000    1.0668143   -7.0446244    414.46433  0.032614442  0.032488999            4 
 1060000    1.0866917   -7.0572203    413.07262  0.032474263  0.032482452            1 
 1061000    1.1055939   -7.0760037    412.06943  0.032364862   0.03247574            1 
 1062000    1.0920606   -7.0734763    414.82934  0.032550952  0.032469229            2 
 1063000    1.0719917   -7.0454649    415.63262  0.032583304  0.032462681            1 
 1064000    1.0613428   -7.0671647    415.29118  0.032525938  0.032456157            3 
 1065000    1.0787399   -7.0673366    415.03319   0.03247521  0.032449581            2 
 1066000    1.0879751    -7.053312    416.30673  0.032544303  0.032443198            1 
 1067000    1.0782199   -7.0749751    416.19051  0.032504726  0.032436659            6 
 1068000    1.0771934   -7.0646105    415.12477  0.032391133  0.032429974            4 
 1069000    1.0635406    -7.086215    415.23703  0.032369585   0.03242343            2 
 1070000    1.1101131   -7.0687697    416.54313  0.032441054  0.032416654            3 
 1071000    1.0892599   -7.0898196    416.74008  0.032426088  0.032409872            2 
 1072000    1.0962802   -7.0806335    417.16451  0.032428833  0.032403169            1 
 1073000    1.0807508    -7.099956    416.94027  0.032381196  0.032396428            1 
 1074000    1.1007877   -7.0591826    417.82416  0.032419628  0.032389558            4 
 1075000    1.0848489   -7.0805554    416.18068  0.032262068  0.032382663            1 
 1076000     1.073201   -7.0908938    418.21278  0.032389466  0.032375787            3 
 1077000    1.0634441   -7.0583222    419.40748  0.032451832  0.032368957            2 
 1078000    1.0869863   -7.0643439    419.03007  0.032392553  0.032362126            2 
 1079000    1.1025635   -7.0573844     420.3384  0.032463577  0.032355431            5 
 1080000    1.0695244   -7.0096162    419.35176  0.032357389  0.032348837            2 
 1081000    1.0772422     -7.05826    420.74734   0.03243504   0.03234209            2 
 1082000    1.0777001   -7.0593757    419.57001  0.032314388  0.032335384            2 
 1083000    1.0988814   -7.0568302     421.7632  0.032453308  0.032328627            3 
 1084000    1.0750234   -7.0603585    421.45584  0.032399742  0.032322033            4 
 1085000    1.0761194    -7.090113    421.64836  0.032384666  0.032315571            1 
 1086000    1.0861733   -7.0769274    419.67236   0.03220322  0.032308859            3 
 1087000    1.0832747   -7.0961021     421.4007  0.032306095  0.032301975            3 
 1088000    1.0757414   -7.0667236    421.37973  0.032274795   0.03229529            3 
 1089000     1.078803   -7.0581517    421.68756  0.032268715  0.032288387            2 
 1090000    1.0836392   -7.0869124    420.78607  0.032170189  0.032281232            2 
 1091000    1.0578043   -7.1132426    422.50425  0.032271941  0.032273918            2 
 1092000    1.0884236    -7.108794    421.40871  0.032158785  0.032266851            2 
 1093000    1.0608936   -7.0850912    422.75268  0.032231829  0.032259838            1 
 1094000    1.0855739   -7.0893857    422.46643  0.032180563  0.032252928            3 
 1095000    1.0622575   -7.0761404    423.41615  0.032223451  0.032245941            2 
 1096000    1.0469134   -7.0591165    424.21167  0.032254537  0.032239057            1 
 1097000    1.0792701   -7.0807214    424.47068   0.03224481  0.032232063            1 
 1098000    1.0725259    -7.095489    424.95331  0.032252073  0.032224969            3 
 1099000    1.0806074   -7.0768631    424.17594  0.032163781  0.032217882            3 
 1100000    1.0853091   -7.1059379    424.38336  0.032150255  0.032210722            1 
 1101000    1.0666748   -7.0515799    426.53706  0.032284065  0.032203648            2 
 1102000    1.0672079   -7.0756629     426.9258  0.032284165  0.032196857            1 
 1103000    1.0663703   -7.0624682    427.28977  0.032282395  0.032189985            2 
 1104000    1.1017974   -7.0773604    427.05853  0.032235698   0.03218324            1 
 1105000    1.0833396   -7.0912771     427.2697  0.032222451  0.032176363            2 
 1106000    1.0628223   -7.0833395    427.02078  0.032174561  0.032169223            4 
 1107000    1.0749403   -7.1041286    427.25588  0.032163195  0.032162189            2 
 1108000    1.0724647   -7.1029403    425.67381  0.032015178  0.032155249            2 
 1109000    1.0624666   -7.0720106    427.77149  0.032143935  0.032148164            5 
 1110000    1.0731023   -7.0759377    427.93042  0.032126908  0.032141097            1 
 1111000    1.0591916   -7.0813162    428.06001  0.032107712  0.032133886            1 
 1112000    1.0822547   -7.0933927    428.42175  0.032105947  0.032126682            1 
 1113000    1.0813392   -7.1061503    428.90186  0.032113047  0.032119534            1 
 1114000    1.0674535   -7.0952251     427.1043  0.031949753  0.032112551            2 
 1115000    1.1051582   -7.0881437    429.19847  0.032077614  0.032105463            2 
 1116000    1.0732544   -7.0828732    428.99607  0.032033757  0.032098461            1 
 1117000    1.0757901   -7.0896422    429.49832  0.032042549  0.032091327            3 
 1118000    1.0404802   -7.1089947    429.71419  0.032029978  0.032083976            1 
 1119000    1.0690445   -7.0816785     429.2563  0.031967255   0.03207664            1 
 1120000    1.0948545   -7.1126866    429.56518  0.031961695  0.032069132            1 
 1121000    1.0749334   -7.1424774    429.03449  0.031893733  0.032061584            2 
 1122000    1.0755233    -7.100763    430.49154  0.031973525  0.032053878            2 
 1123000    1.0773847   -7.0886983     429.5108  0.031872277  0.032046199            1 
 1124000    1.0712669   -7.0960831    430.32355  0.031904178  0.032038502            2 
 1125000    1.0488872   -7.0749908    432.21452   0.03201589  0.032030897            1 
 1126000    1.0698724   -7.1170078    430.63202  0.031870339  0.032023259            2 
 1127000    1.0845138    -7.112865    429.76431  0.031777899  0.032015523            2 
 1128000    1.0736171   -7.0617614    431.65939   0.03188973  0.032007929            2 
 1129000    1.0604451   -7.1079951    430.84466  0.031801347   0.03200013            3 
 1130000    1.0498398   -7.1114959    430.43893  0.031743284  0.031992583            2 
 1131000    1.0652642   -7.1188989    432.43769  0.031862488  0.031984976            1 
 1132000    1.0451835    -7.092708    432.40616   0.03183202  0.031977382            1 
 1133000    1.0699852   -7.0926244    433.00562  0.031848015  0.031969765            2 
 1134000    1.0913011    -7.076532    432.11877  0.031754759   0.03196218            1 
 1135000    1.0816586   -7.0922259    433.33097  0.031815783  0.031954773            2 
 1136000    1.0833457   -7.0654755    434.28825     0.031858  0.031947357            1 
 1137000    1.0716498   -7.1182731    433.59504  0.031779173  0.031939828            1 
 1138000    1.0864701    -7.045247    435.52064  0.031892255  0.031932399            2 
 1139000    1.0890396   -7.0696366    435.80904  0.031885355  0.031925119            2 
 1140000    1.0841024   -7.1091911    435.68774  0.031848519   0.03191771            2 
 1141000    1.0670092   -7.1175292    434.20901  0.031712606  0.031910266            1 
 1142000    1.0937369    -7.105771    435.99696  0.031815306  0.031902668            1 
 1143000      1.06232   -7.1220251    436.33853  0.031812375  0.031895305            1 
 1144000    1.0718053   -7.1035915    438.06523  0.031910346  0.031888007            1 
 1145000    1.0681097   -7.0981718    438.29163  0.031898954  0.031880849            1 
 1146000    1.0560857   -7.1212837    438.69099   0.03190016  0.031873588            2 
 1147000    1.0693374   -7.1226022    438.52635  0.031860386  0.031866595            2 
 1148000    1.0544116   -7.1078293    438.21218  0.031809827  0.031859667            1 
 1149000    1.0459437   -7.1038572     438.5201  0.031804475  0.031852564            2 
 1150000    1.0604341   -7.0902368    438.90326  0.031804584  0.031845426            2 
 1151000     1.062235   -7.1161462    440.96564   0.03192627   0.03183841            1 
 1152000    1.0980899   -7.1031443    439.85059  0.031817895  0.031831431            2 
 1153000    1.0703078    -7.076232    440.50329  0.031837474  0.031824654            2 
 1154000    1.0496076   -7.1236142    440.37472  0.031800601  0.031817673            1 
 1155000       1.0719   -7.1503515    440.02533  0.031747859  0.031810751            2 
 1156000    1.0745359   -7.0988154     442.6831  0.031911988   0.03180382            1 
 1157000    1.0651878   -7.1255534    441.98116  0.031833849  0.031796869            2 
 1158000    1.0680008   -7.0571107    442.39427  0.031836088  0.031789961            1 
 1159000    1.0900116   -7.0677907    442.37596  0.031807302   0.03178312            2 
 1160000    1.0538067   -7.0928686    442.16603  0.031764801  0.031776234            1 
 1161000    1.0569406   -7.0756836    443.27405  0.031816972  0.031769291            2 
 1162000    1.0950574   -7.1270443    442.64723  0.031744638  0.031762224            2 
 1163000    1.0871623   -7.1275827    442.23223  0.031687606   0.03175515            1 
 1164000    1.0651502   -7.0838693    444.51138  0.031823552  0.031748252            3 
 1165000    1.0672176   -7.0823904     443.5301  0.031726045  0.031741245            1 
 1166000    1.0790825    -7.095053    444.79273  0.031789074  0.031734178            3 
 1167000    1.0522436   -7.0847343    443.15104  0.031644604  0.031727173            4 
 1168000    1.0554239   -7.1204681    443.81844  0.031665128   0.03171986            2 
 1169000    1.0566447   -7.0691552      444.485  0.031685557  0.031712706            2 
 1170000    1.0744772   -7.0591802    445.96307  0.031763752  0.031705619            3 
 1171000     1.087832   -7.1193398    445.15802  0.031679336  0.031698493            2 
 1172000    1.0687649   -7.0998356    444.78826  0.031626014  0.031691257            2 
 1173000     1.063186   -7.1124975    445.29887  0.031635327  0.031683991            2 
 1174000    1.0762687   -7.1346755    445.63576  0.031632294  0.031676769            1 
 1175000    1.0826327   -7.1319615    445.50829  0.031596332  0.031669562            1 
 1176000    1.0495979   -7.0562809     446.4183   0.03163395  0.031662608            3 
 1177000    1.0659203   -7.0971988    447.42356  0.031678247  0.031655551            2 
 1178000     1.068255   -7.0736943    447.28856  0.031641805  0.031648647            2 
 1179000    1.0958917   -7.1447807    445.74111  0.031505592  0.031641523            2 
 1180000     1.067834   -7.1118016    446.78254  0.031552439  0.031634311            1 
 1181000    1.0511293   -7.1144498    447.23758  0.031557831  0.031627103            1 
 1182000    1.0591776   -7.1134683    447.25141  0.031532107  0.031619774            2 
 1183000    1.0754418   -7.1306666    446.94006   0.03148352  0.031612315            1 
 1184000    1.0630682   -7.1303854    447.90821  0.031525071  0.031604995            3 
 1185000    1.0502759   -7.1345986    448.71779    0.0315554   0.03159772            3 
 1186000    1.0673767    -7.094816    447.92455  0.031473057   0.03159034            2 
 1187000    1.0654357   -7.1384148    449.35493  0.031546962  0.031582836            5 
 1188000    1.0643615   -7.1150429    446.81183  0.031342019  0.031575371            2 
 1189000    1.0576596   -7.1291447    449.10999   0.03147673  0.031567677            5 
 1190000    1.0579647   -7.0907369    449.49201  0.031477032  0.031560061            2 
 1191000    1.0541636   -7.1125486    447.70466  0.031325543  0.031552455            1 
 1192000    1.0461214   -7.1099456    448.24931   0.03133734  0.031544779            1 
 1193000    1.0791876   -7.1339712    447.62156  0.031267223  0.031536995            5 
 1194000    1.0445399   -7.0983318     449.6355  0.031381595  0.031529352            3 
 1195000    1.0520283   -7.1326406    449.44595  0.031342116  0.031521636            3 
 1196000    1.0606397   -7.1098999    450.62877  0.031398325  0.031514006            1 
 1197000    1.0573286   -7.1240115     451.8621  0.031457957  0.031506538            3 
 1198000    1.0718827   -7.1281525    449.60008  0.031274352  0.031498954            2 
 1199000    1.0776375   -7.1258581    451.68088  0.031392889  0.031491321            2 
 1200000    1.0363019   -7.1097756    451.92822  0.031383904  0.031484016            2 
 1201000    1.0655055   -7.1011769    452.87333  0.031423351  0.031476568            2 
 1202000    1.0719392    -7.097257    453.05463  0.031409777  0.031469152            2 
 1203000    1.0511789   -7.1171221     452.5555  0.031349092  0.031461773            1 
 1204000    1.0510211   -7.1150748    453.05036  0.031357306  0.031454289            4 
 1205000     1.055538   -7.1352957    450.77999  0.031174273  0.031446722            2 
 1206000    1.0657631   -7.1295825    453.36352  0.031326943  0.031439006            2 
 1207000     1.054974   -7.1211597    453.82341   0.03133274  0.031431431            2 
 1208000    1.0672074   -7.1044044    453.74027  0.031301067  0.031423722            2 
 1209000    1.0708386   -7.1062151    455.35952  0.031386788  0.031416199            2 
 1210000    1.0665116   -7.0671614    454.95798  0.031333194  0.031408625            1 
 1211000    1.0466819   -7.1408296    455.11899    0.0313184    0.0314012            2 
 1212000    1.0468379   -7.1493391    455.18938    0.0312974  0.031393774            4 
 1213000    1.0705127   -7.1182717     455.3574  0.031283141  0.031386493            4 
 1214000    1.0252876   -7.1246601    456.35005  0.031325511  0.031379079            1 
 1215000    1.0679935    -7.128383    456.51026  0.031310717  0.031371718            3 
 1216000    1.0586187   -7.1541087    456.21933  0.031265031   0.03136445            3 
 1217000     1.061496   -7.1122141    459.32041  0.031451685  0.031357289            2 
 1218000    1.0828274   -7.1097374    457.70333  0.031315225  0.031349972            2 
 1219000    1.0657591    -7.153654    457.76303  0.031293617  0.031342467            1 
 1220000    1.0615337   -7.1199272    457.15837  0.031226664  0.031335182            3 
 1221000    1.0843253   -7.1206213    456.49076  0.031155525  0.031327873            3 
 1222000    1.0670351   -7.1265816     457.6253  0.031207399  0.031320385            3 
 1223000    1.0187081   -7.1037505    458.03074  0.031209508  0.031312901            2 
 1224000    1.0725649   -7.1474877    458.42676  0.031210972  0.031305437            2 
 1225000    1.0399403   -7.1071218    458.84193  0.031213737  0.031297982            1 
 1226000     1.049281   -7.1293839    459.25693  0.031216485  0.031290585            2 
 1227000    1.0293266   -7.1726944    459.13235  0.031182583  0.031283255            2 
 1228000    1.0815861   -7.1023414    459.84807   0.03120576  0.031276056            1 
 1229000    1.0393459   -7.1307601    459.55988  0.031160827  0.031268884            2 
 1230000    1.0634561   -7.1513339    460.36192  0.031189832  0.031261564            6 
 1231000    1.0400475   -7.1537905     460.9234  0.031202504  0.031254263            2 
 1232000    1.0385708   -7.1113088    460.87351  0.031173804  0.031246989            2 
 1233000    1.0602374   -7.1573872    460.98549  0.031156089  0.031239534            1 
 1234000    1.0615932   -7.1316249    461.35964  0.031156107  0.031232314            2 
 1235000    1.0581163    -7.121556    461.58655  0.031146191  0.031225027            2 
 1236000     1.048098   -7.1306312    460.77497  0.031066274  0.031217753            3 
 1237000    1.0511707   -7.0971612    463.03909  0.031193687  0.031210557            3 
 1238000    1.0605171   -7.0908879    463.68001  0.031211632  0.031203678            2 
 1239000    1.0607907   -7.1451268    463.38951  0.031166903  0.031196695            4 
 1240000     1.034724   -7.1363762    463.24701  0.031132192  0.031189854            2 
 1241000    1.0534878   -7.1124557    465.31247  0.031245801  0.031183032            2 
 1242000     1.046845   -7.1514901     464.0033  0.031132803  0.031176268            2 
 1243000    1.0753445   -7.1052762    467.78894  0.031361554  0.031169663            4 
 1244000    1.0485151   -7.1461949    467.25912  0.031300852  0.031163205            2 
 1245000    1.0446993   -7.1040988    469.17003  0.031403616  0.031156689            3 
 1246000     1.065522   -7.1198678    467.77886  0.031285371  0.031150366            3 
 1247000    1.0592818    -7.093228    468.49507  0.031308144  0.031144057            1 
 1248000    1.1013251    -7.116114    468.81563  0.031304462  0.031137727            3 
 1249000    1.0613839    -7.150206    468.03744  0.031227478   0.03113128            2 
 1250000    1.0480299   -7.1068011    470.37771  0.031358514  0.031124926            3 
 1251000    1.0504596   -7.1186124    469.46067   0.03127236  0.031118621            2 
 1252000    1.0823063   -7.1075008    470.54078  0.031319274  0.031112319            2 
 1253000    1.0483589    -7.164184    469.82878  0.031246926  0.031106001            3 
 1254000     1.063728   -7.1255339    471.05663  0.031303604  0.031099684            1 
 1255000    1.0519756   -7.1534439    470.11565  0.031216179    0.0310933            1 
 1256000    1.0385972   -7.1097498    471.58066  0.031288526  0.031087081            3 
 1257000    1.0432913   -7.1297794    470.23691   0.03117455   0.03108077            4 
 1258000    1.0509782    -7.121352     472.3639  0.031290667  0.031074644            2 
 1259000     1.047061   -7.1657797    471.16359  0.031186364  0.031068311            2 
 1260000    1.0691413   -7.1349257    473.03267  0.031285229  0.031062138            2 
 1261000     1.053503   -7.1310471    472.88782  0.031250847  0.031056031            2 
 1262000    1.0316442   -7.1925137    471.00679  0.031101875  0.031049717            1 
 1263000    1.0592806   -7.1303167    473.43147  0.031237231  0.031043561            3 
 1264000     1.045506   -7.1425191     473.3432  0.031206698  0.031037288            1 
 1265000    1.0460886   -7.1265415    474.03026   0.03122729  0.031030979            2 
 1266000    1.0558737   -7.1441152    473.96579   0.03119838  0.031024794            1 
 1267000    1.0495399   -7.1784356      474.066  0.031180347  0.031018641            3 
 1268000    1.0451851   -7.1656967    474.63126  0.031192906  0.031012647            2 
 1269000    1.0629357   -7.1139752    475.32977  0.031214195  0.031006559            2 
 1270000    1.0464081    -7.125049    475.11191  0.031175322  0.031000438            2 
 1271000     1.039942   -7.1154683    475.67895  0.031187972  0.030994342            2 
 1272000    1.0480123   -7.1768563    475.44518  0.031148138  0.030988085            1 
 1273000    1.0216891   -7.1223189    476.91772  0.031220066  0.030982022            2 
 1274000    1.0540962   -7.1324731    477.02289  0.031202439  0.030975969            2 
 1275000    1.0333092    -7.183586    475.18218  0.031057659  0.030969735            1 
 1276000    1.0614701    -7.134414    476.46202  0.031116903  0.030963571            1 
 1277000    1.0443444   -7.1564039    476.31403  0.031082878  0.030957212            1 
 1278000    1.0731772   -7.1096901    477.36475   0.03112707  0.030950918            1 
 1279000    1.0477298   -7.1460133    478.32331  0.031165189  0.030944763            2 
 1280000    1.0483402   -7.1518154    477.47951  0.031085906  0.030938504            2 
 1281000    1.0367856   -7.1630539    477.78445  0.031081476  0.030932089            1 
 1282000    1.0530653   -7.1295267     477.3945  0.031031884  0.030925657            2 
 1283000    1.0363627   -7.1646252    478.66984  0.031090533  0.030919392            2 
 1284000    1.0454876   -7.1289106    478.48028  0.031054016  0.030913059            2 
 1285000    1.0467892   -7.1546855    477.34129  0.030955985  0.030906377            6 
 1286000    1.0358041   -7.1421239    477.88436  0.030967104   0.03089984            1 
 1287000    1.0713345   -7.1597402    477.48652  0.030917283  0.030893203            3 
 1288000    1.0657961   -7.1598981    477.48122  0.030892936  0.030886527            1 
 1289000    1.0461445   -7.1125144    479.37395  0.030991334  0.030879875            4 
 1290000    1.0496574   -7.0945098    478.42436  0.030905966  0.030873205            2 
 1291000    1.0515369   -7.1237244    480.96442  0.031045986  0.030866469            3 
 1292000    1.0596071   -7.1547647    478.92653  0.030890514  0.030859795            1 
 1293000    1.0781113   -7.1463212    479.47882  0.030902218  0.030852937            5 
 1294000    1.0538384   -7.1479935    479.00903  0.030848083  0.030846049            1 
 1295000    1.0364442   -7.1340344    479.67989  0.030867432  0.030839107            2 
 1296000    1.0250048    -7.165574    480.10952   0.03087124  0.030832256            2 
 1297000    1.0262414   -7.1852012    478.91413  0.030770633  0.030825261            2 
 1298000    1.0398474   -7.1718224    478.45265  0.030717299  0.030818086            1 
 1299000    1.0333984   -7.1494761     479.8404  0.030782679  0.030811012            2 
 1300000    1.0551205   -7.1317883    481.77449   0.03088298  0.030803979            1 
 1301000    1.0376597   -7.1680545    480.04356   0.03074837  0.030797016            2 
 1302000    1.0341148   -7.1438328     482.1377  0.030858788  0.030790068            2 
 1303000    1.0444894   -7.1696931    479.83058  0.030687553  0.030783061            3 
 1304000     1.058824   -7.1518054    481.13415  0.030747326  0.030775923            2 
 1305000    1.0298193   -7.1433618    481.38762   0.03073995  0.030768978            3 
 1306000    1.0466558   -7.0989152    483.28393  0.030837412   0.03076215            2 
 1307000    1.0405627   -7.1409145    481.33843  0.030689775  0.030755182            2 
 1308000    1.0515491   -7.1407405    482.03211  0.030710506  0.030748067            3 
 1309000     1.050349   -7.1316996    483.29751  0.030767603  0.030740942            2 
 1310000    1.0191369   -7.1556496    483.25659  0.030741513  0.030733781            1 
 1311000    1.0335426   -7.1787207    482.46867  0.030667981  0.030726492            2 
 1312000    1.0386183   -7.2001266    482.53863  0.030649049  0.030719202            3 
 1313000     1.034639   -7.1490888    482.93907  0.030651122  0.030711909            2 
 1314000     1.041687   -7.1856567    483.37963  0.030655735  0.030704565            2 
 1315000    1.0149893   -7.1179628    484.40127  0.030697166  0.030697584            2 
 1316000    1.0374238   -7.1815889    484.35897  0.030671161  0.030690595            2 
 1317000     1.050435    -7.115325    486.09456  0.030757692  0.030683642            2 
 1318000    1.0616507   -7.1224307    485.08205  0.030670337  0.030676822            1 
 1319000    1.0388562   -7.1231449    485.30908  0.030661428  0.030669962            3 
 1320000    1.0277728   -7.1523686    485.11041  0.030625657  0.030662918            3 
 1321000      1.03781     -7.13691    485.40051  0.030620774  0.030655911            2 
 1322000    1.0593725   -7.1608703    486.85353  0.030689204  0.030648866            2 
 1323000    1.0223013   -7.1490851     486.6261  0.030651682   0.03064171            1 
 1324000    1.0453452   -7.1802188    485.81636  0.030577566  0.030634732            1 
 1325000    1.0299309   -7.1920921    486.48931  0.030596812  0.030627639            1 
 1326000    1.0394215   -7.1305543     488.0168  0.030669734   0.03062066            5 
 1327000     1.063034    -7.179678    486.73644  0.030566217  0.030613803            2 
 1328000    1.0420527   -7.1623427    489.38881  0.030709639  0.030606774            2 
 1329000    1.0576819   -7.1779483    488.87002  0.030654002  0.030599931            2 
 1330000    1.0443045   -7.1614089    488.63526  0.030616244  0.030592989            3 
 1331000     1.021198   -7.1620207    488.47702  0.030583334  0.030586008            3 
 1332000    1.0377107   -7.1523745    489.83696  0.030645456  0.030579068            3 
 1333000    1.0236778   -7.1648353    490.09041   0.03063831  0.030572426            3 
 1334000    1.0238846   -7.1644427    490.75165   0.03065665  0.030565753            1 
 1335000    1.0107257   -7.1624422    490.67927  0.030629168  0.030559075            2 
 1336000    1.0305358   -7.1908103    489.60017  0.030538932  0.030552319            2 
 1337000    1.0277991   -7.1503063    492.12506  0.030673464  0.030545635            2 
 1338000    1.0483625   -7.1989554    490.67187  0.030560032  0.030538789            1 
 1339000    1.0332888   -7.2108151    489.83271  0.030484983  0.030531936            3 
 1340000    1.0536653   -7.1474258    492.63591  0.030636562  0.030525005            4 
 1341000    1.0605237   -7.1605729    491.00701  0.030512491   0.03051811            2 
 1342000    1.0456622   -7.1850343    491.74677  0.030535691  0.030511298            1 
 1343000    1.0521438   -7.1996003     492.2958  0.030547022  0.030504471            2 
 1344000      1.04519   -7.1520931    491.83355  0.030495632  0.030497598            2 
 1345000    1.0287722   -7.1721884     492.9935  0.030544827  0.030490801            1 
 1346000    1.0493947   -7.1686147    492.79718  0.030509979  0.030483866            2 
 1347000    1.0320283   -7.1814106    492.23845  0.030452762  0.030477121            3 
 1348000     1.030935   -7.1325388    494.45236  0.030567035  0.030470217            3 
 1349000    1.0567289   -7.2045192     492.6378  0.030432283  0.030463356            2 
 1350000    1.0218063   -7.1776667    493.09729  0.030438104   0.03045654            2 
 1351000       1.0468   -7.1347306    494.22949  0.030485411  0.030449664            2 
 1352000    1.0163711   -7.1783354    492.92053  0.030382183   0.03044264            2 
 1353000    1.0322827   -7.1171428    494.00362  0.030426436  0.030435692            4 
 1354000    1.0550661   -7.1530988    493.99351  0.030403342  0.030428656            3 
 1355000    1.0288596   -7.2014693    492.77289  0.030305836  0.030421583            4 
 1356000    1.0509954   -7.1521586    493.98215  0.030357802  0.030414397            2 
 1357000    1.0579684   -7.1637385    494.48114  0.030366073  0.030407204            3 
 1358000     1.016221   -7.1530615    495.89631  0.030430554  0.030400133            1 
 1359000    1.0355204   -7.2003129    494.39385  0.030316032  0.030392916            1 
 1360000    1.0100469   -7.1639208    493.70404  0.030251473   0.03038586            2 
 1361000    1.0275461   -7.1780689    494.24242   0.03026221  0.030378739            2 
 1362000     1.032101   -7.1730638    495.28836  0.030303987  0.030371502            3 
 1363000     1.032851    -7.185369    495.48349  0.030293684  0.030364356            3 
 1364000    1.0230292   -7.1553567    496.81076  0.030352563  0.030357214            2 
 1365000    1.0084402   -7.1833735     495.2071  0.030232424  0.030349947            2 
 1366000    1.0107797   -7.1915081    496.69115  0.030300827  0.030342669            3 
 1367000    1.0334658    -7.149796    495.68495  0.030217322  0.030335439            1 
 1368000    1.0594816   -7.1898039    496.06316  0.030218272  0.030328123            2 
 1369000    1.0378127   -7.1556826     497.3375   0.03027377  0.030320873            2 
 1370000    1.0450896   -7.1613958    498.02938  0.030293758  0.030313672            3 
 1371000    1.0279174   -7.1437233    497.23482  0.030223366  0.030306433            3 
 1372000    1.0362506   -7.1562062    497.97394  0.030246231  0.030299154            2 
 1373000    1.0194868   -7.1145174    498.10807  0.030232342  0.030291768            3 
 1374000    1.0436172    -7.173766    498.44532  0.030230793  0.030284313            5 
 1375000    1.0314128    -7.132896    499.59037  0.030278204  0.030276841            3 
 1376000    1.0451585   -7.1623788    498.73686  0.030204509  0.030269435            2 
 1377000    1.0312438   -7.1553857    498.21512     0.030151   0.03026216            2 
 1378000    1.0228261   -7.1352618    499.46153  0.030204495  0.030254695            2 
 1379000     1.018918   -7.1497441    498.31573  0.030113351  0.030247233            2 
 1380000     1.044722   -7.1725773    499.04063  0.030135304  0.030239754            1 
 1381000    1.0310911   -7.1982236    498.93518  0.030107119  0.030232231            2 
 1382000    1.0371242   -7.1382742    500.08532  0.030154687  0.030224755            1 
 1383000    1.0186412   -7.2011317    500.26557  0.030143744  0.030217311            3 
 1384000    1.0524023   -7.1611063    500.51715  0.030137111  0.030209857            1 
 1385000    1.0370234   -7.1723669    499.75963  0.030069773  0.030202492            1 
 1386000    1.0115478   -7.1888325     499.8109   0.03005116  0.030195006            3 
 1387000    1.0204012   -7.2179515    499.76642  0.030026822  0.030187423            2 
 1388000    1.0379746   -7.2073142    501.92844  0.030134993  0.030179951            1 
 1389000    1.0408618   -7.1651473    502.78868  0.030164908   0.03017255            2 
 1390000    1.0320206   -7.1832918    500.62063  0.030013227  0.030165104            3 
 1391000    1.0260984   -7.1926399    502.72963  0.030117998  0.030157542            3 
 1392000    1.0260847   -7.1826721    502.21626  0.030065628  0.030150176            2 
 1393000    1.0061781   -7.1694483    502.57946  0.030065773   0.03014277            3 
 1394000    1.0387749    -7.193168    502.36947  0.030031652  0.030135207            5 
 1395000    1.0572092   -7.2106783    502.40794  0.030012421  0.030127706            2 
 1396000    1.0207384   -7.1879859    501.66219  0.029946406  0.030120124            1 
 1397000    1.0260972   -7.1892539    501.93342  0.029941149  0.030112554            2 
 1398000    1.0292586    -7.202214    503.71648  0.030026018  0.030105003            1 
 1399000    1.0213235   -7.1819167     503.2311  0.029975643  0.030097378            2 
 1400000    1.0222893   -7.2143576    503.22429  0.029953827  0.030089811            1 
 1401000   0.99453403   -7.1918837     502.9206  0.029914383   0.03008208            3 
 1402000    1.0532808   -7.2073319    504.06695  0.029961184  0.030074516            2 
 1403000     1.027068    -7.188299     503.2708   0.02989254  0.030066907            3 
 1404000    1.0408741   -7.1894958    504.57327  0.029948556  0.030059457            2 
 1405000    1.0196241   -7.2057233    504.34756  0.029913853  0.030052045            3 
 1406000    1.0204441   -7.2066912    504.88484  0.029924421  0.030044532            1 
 1407000    1.0503841   -7.2138435     505.4836  0.029938616  0.030036981            1 
 1408000    1.0256424     -7.18941    505.25798     0.029904  0.030029435            2 
 1409000    1.0214636   -7.1697327    505.65369   0.02990618  0.030021828            4 
 1410000    1.0257315   -7.1939239    505.56716  0.029879856  0.030014199            2 
 1411000    1.0369901     -7.16587    505.98178  0.029883167  0.030006445            1 
 1412000    1.0322752   -7.1655847    505.67526  0.029843913  0.029998872            2 
 1413000   0.99484225   -7.2054202    507.33085  0.029920432  0.029991328            2 
 1414000    1.0231689   -7.1587781    507.48019  0.029908073  0.029983794            3 
 1415000    1.0285444   -7.1673667    506.19515  0.029811257   0.02997617            1 
 1416000    1.0060888   -7.1928464    507.22022  0.029850531   0.02996854            2 
 1417000    1.0159965   -7.2179093     507.2722  0.029832522  0.029960996            3 
 1418000    1.0470208   -7.1471305    510.34092  0.029991826  0.029953547            1 
 1419000     1.017877   -7.1744101    507.64979  0.029812649  0.029946197            2 
 1420000      1.04184   -7.1654525    509.02007   0.02987207  0.029938691            2 
 1421000    1.0378561    -7.163043    508.49498  0.029820255  0.029931217            2 
 1422000    1.0104283   -7.1866164    507.35914   0.02973272  0.029923597            1 
 1423000    1.0271099   -7.1822511    508.49297  0.029778225  0.029916036            2 
 1424000    1.0056565   -7.2244522    508.88387  0.029780189  0.029908338            3 
 1425000    1.0336817   -7.2002978    509.61604  0.029802108   0.02990058            1 
 1426000    1.0388517   -7.2018303    508.88386  0.029738421   0.02989275            1 
 1427000    1.0144893   -7.2121065    508.58913   0.02970037  0.029884941            2 
 1428000    1.0402321   -7.2077404    510.59535  0.029796647  0.029877192            1 
 1429000     1.038672   -7.2170775    510.64776  0.029778852  0.029869411            3 
 1430000    1.0199331   -7.1534317    510.15796  0.029729485  0.029861788            2 
 1431000    1.0106307    -7.229232    510.73959   0.02974258  0.029854122            1 
 1432000    1.0153531   -7.2152473    511.53844  0.029768299  0.029846508            2 
 1433000    1.0130444   -7.1970543    511.56392  0.029749007  0.029839039            2 
 1434000    1.0201868   -7.2160615    510.51335   0.02966721  0.029831545            1 
 1435000    1.0187935   -7.2081098    511.88008  0.029725905  0.029824016            3 
 1436000    1.0118712      -7.2052     512.9943  0.029769864  0.029816571            7 
 1437000    1.0160124   -7.2359723    513.86041  0.029799374  0.029809166            3 
 1438000     1.043569   -7.2304042     514.3994  0.029809886  0.029801923            2 
 1439000    1.0233447   -7.1924799    515.21339   0.02983631  0.029794656            2 
 1440000    1.0265372   -7.1955533    514.52446  0.029775721  0.029787427            2 
 1441000    1.0378737   -7.1735746    514.53541  0.029755691  0.029780222            2 
 1442000   0.99888609   -7.2168843    513.30526  0.029663966  0.029772916            2 
 1443000    1.0365221   -7.2267234    514.79685  0.029729548  0.029765547            2 
 1444000    1.0126727   -7.2025586    513.83269  0.029653318  0.029758319            1 
 1445000    1.0103652   -7.1806049    515.74623  0.029743151  0.029751029            2 
 1446000    1.0298819   -7.1749115    515.12903  0.029687012  0.029743853            3 
 1447000    1.0124219   -7.2174924    515.67543  0.029697963  0.029736559            1 
 1448000    1.0135412   -7.2362302    516.49474  0.029724605  0.029729293            4 
 1449000     1.024898   -7.2141858    515.64186  0.029655041  0.029721974            1 
 1450000    1.0237977   -7.1824795    517.22454  0.029725548  0.029714694            2 
 1451000    1.0154883   -7.2384964    515.11052   0.02958365  0.029707393            3 
 1452000     1.014224   -7.2119441    516.33606  0.029633612  0.029700016            2 
 1453000    1.0099319   -7.2175298    516.24983  0.029608272   0.02969268            3 
 1454000    1.0102192   -7.1987551    517.40934  0.029654364  0.029685448            2 
 1455000    1.0309506   -7.2145259    519.05472   0.02972822  0.029678306            5 
 1456000    1.0063935   -7.1973023     517.5969  0.029624365  0.029670993            2 
 1457000   0.99816563    -7.247721    516.55075  0.029544198  0.029663627            3 
 1458000    1.0080907   -7.2144992    517.64368  0.029586402  0.029656249            1 
 1459000    1.0492524   -7.2120214    516.89568  0.029523399   0.02964911            3 
 1460000    1.0184637   -7.2223136    518.12593  0.029573398  0.029641745            1 
 1461000    1.0400152   -7.1958308     518.9674  0.029601152   0.02963441            2 
 1462000    1.0272312   -7.1680941     518.7751  0.029569944  0.029627182            3 
 1463000    1.0263975   -7.2015861    519.93479  0.029615789  0.029620033            3 
 1464000    1.0054568   -7.2098186    519.64778  0.029579222  0.029612735            1 
 1465000    1.0153478   -7.2054177    519.87016  0.029571681  0.029605484            2 
 1466000    1.0012182   -7.1893797     520.6982  0.029598579  0.029598272            2 
 1467000    1.0205325   -7.2000986    520.27374  0.029554291  0.029590962            3 
 1468000   0.98398785    -7.178889    521.42616  0.029599578  0.029583686            2 
 1469000    1.0422029   -7.1976658    521.90918  0.029606829  0.029576427            2 
 1470000    1.0066819   -7.2556159    521.08357  0.029539885  0.029569153            2 
 1471000    1.0049171   -7.2119723    521.21059  0.029526999  0.029561739            2 
 1472000    1.0005844   -7.2502691    519.97491  0.029436986  0.029554361            5 
 1473000    1.0207256   -7.1889142    522.93359  0.029584385  0.029547107            2 
 1474000    1.0217833    -7.172363    522.66347  0.029549043  0.029539922            1 
 1475000    1.0133177   -7.2192367      523.343  0.029567401  0.029532796            1 
 1476000   0.99876446   -7.2085631    522.64732  0.029508092  0.029525604            2 
 1477000   0.99193811   -7.2401759    521.95373  0.029448981  0.029518353            4 
 1478000    1.0065869   -7.2202822    522.32053  0.029449737  0.029510882            2 
 1479000     1.023483   -7.2189267    521.15439  0.029364119  0.029503406            3 
 1480000    1.0082083   -7.2258215     522.3978  0.029414291  0.029496051            5 
 1481000   0.97768148   -7.1957493    522.93776  0.029424812  0.029488719            2 
 1482000   0.99781884   -7.1939157    523.82775  0.029455002  0.029481308            3 
 1483000    1.0099316   -7.1922396    523.63247  0.029424167  0.029474103            2 
 1484000    1.0245778   -7.1792295    523.96945  0.029423262  0.029466861            1 
 1485000    1.0108194   -7.2408283    523.76758   0.02939212   0.02945961            2 
 1486000    1.0146197   -7.2274104    523.73833    0.0293707  0.029452362            1 
 1487000    1.0112802    -7.195829    525.77202  0.029464919   0.02944488            2 
 1488000    1.0394799   -7.1965609    522.25535  0.029248172  0.029437483            5 
 1489000    1.0045636   -7.2119048    524.55348  0.029357146  0.029430166            1 
 1490000    1.0316139   -7.2182514    524.09109  0.029311582  0.029422631            2 
 1491000   0.99568241    -7.237881    524.49066  0.029314255  0.029415139            1 
 1492000    1.0232081   -7.2154397    524.82205  0.029313117  0.029407527            1 
 1493000    1.0152242   -7.2640645     524.6293  0.029282725  0.029400049            4 
 1494000   0.99384914   -7.2829534    524.25708  0.029242363  0.029392498            2 
 1495000    1.0192468    -7.228242    525.90965  0.029314919  0.029385075            2 
 1496000    1.0130358   -7.2447097    527.23356  0.029369071  0.029377849            3 
 1497000    1.0282015   -7.2188142    527.61427  0.029370645  0.029370555            3 
 1498000    1.0065715   -7.2306637     525.9621  0.029259129  0.029363264            2 
 1499000   0.99749821   -7.2253142    527.88847  0.029346702  0.029355943            2 
 1500000    1.0012554   -7.2225674    527.53793  0.029307663  0.029348622            3 
 1501000    1.0188807    -7.236547    526.59613   0.02923585  0.029341294            2 
 1502000    1.0088015     -7.21435    529.01689  0.029350693  0.029334002            3 
 1503000    1.0100794   -7.2471242    528.96469  0.029328271  0.029326835            1 
 1504000    1.0136974   -7.2266044    528.45475  0.029280516   0.02931953            2 
 1505000    1.0420994   -7.2239979    529.21318  0.029303056  0.029312204            3 
 1506000     1.017258   -7.2447163    527.58977  0.029193768  0.029304964            2 
 1507000    1.0205123   -7.2099191    530.29646  0.029324069  0.029297585            3 
 1508000    1.0205481   -7.2411534    528.02884  0.029179313  0.029290376            3 
 1509000    1.0242844   -7.2023885    531.06993  0.029327917  0.029283228            2 
 1510000    1.0011897   -7.2121804    528.94555  0.029191256  0.029276153            2 
 1511000    1.0146363   -7.2167615    530.24509  0.029243607  0.029268967            2 
 1512000   0.99914806    -7.206395    530.02911  0.029212363  0.029261701            3 
 1513000    1.0239305   -7.2450141    530.01138  0.029192079  0.029254354            2 
 1514000    1.0217227   -7.2264035    532.27605  0.029297449  0.029247037            3 
 1515000   0.99890481   -7.2151257    530.35888  0.029172656  0.029239802            1 
 1516000    1.0020066    -7.233396     530.7727   0.02917616  0.029232478            3 
 1517000    1.0016924   -7.2149015     530.4364  0.029138453  0.029225275            1 
 1518000    1.0261825   -7.1833384    533.01619   0.02926088  0.029218188            1 
 1519000    1.0174234   -7.2163483    531.71597  0.029170286   0.02921113            4 
 1520000   0.99960574   -7.2171727    534.03973  0.029278494  0.029204065            2 
 1521000    1.0024015   -7.2194577    533.62244  0.029236382  0.029197017            1 
 1522000   0.99729307   -7.2167591    532.92882  0.029179195   0.02919001            2 
 1523000     1.003665   -7.2170816    533.01313  0.029164649  0.029182931            4 
 1524000   0.99903653   -7.2420005    532.53124  0.029119162  0.029175782            1 
 1525000    0.9950463    -7.258691    533.36982  0.029145892  0.029168429            2 
 1526000   0.98815658   -7.2185435    534.33391   0.02917944  0.029161198            2 
 1527000    0.9999767   -7.2457214    533.11041  0.029093561  0.029153989            1 
 1528000    1.0179145   -7.2376801    534.30796  0.029139832  0.029146785            2 
 1529000     1.021765   -7.2360095    536.15787  0.029221597  0.029139639            2 
 1530000    1.0124367   -7.2147806    535.44149   0.02916348  0.029132635            2 
 1531000     1.024894   -7.2017617    535.89393  0.029169058  0.029125668            2 
 1532000    1.0125826   -7.2209709    534.83369  0.029092346  0.029118583            3 
 1533000    1.0082367   -7.2376668    535.09183  0.029087401  0.029111493            3 
 1534000    1.0143966   -7.2456058    536.44701  0.029142058  0.029104408            1 
 1535000    1.0084585   -7.2492275    536.21958  0.029110726   0.02909738            2 
 1536000    1.0248058   -7.2012831    537.52205  0.029162437  0.029090246            5 
 1537000    1.0265241   -7.2178585    536.58512  0.029092665  0.029083142            2 
 1538000     1.007253   -7.2469666    536.62986  0.029076173  0.029075897            1 
 1539000    1.0126178   -7.2394085    534.58538  0.028946577  0.029068734            3 
 1540000    1.0066571    -7.259462    536.95475  0.029055993  0.029061586            2 
 1541000    1.0030714   -7.1811209    538.44125  0.029117524  0.029054513            2 
 1542000    1.0069654   -7.2530409    536.92405  0.029016648  0.029047456            1 
 1543000    1.0019132   -7.2460893    537.48194  0.029027973  0.029040325            5 
 1544000    1.0220815   -7.2149769    538.57355  0.029068089  0.029033161            3 
 1545000    0.9980686   -7.2102965    537.79939  0.029007518  0.029026039            1 
 1546000   0.99884323   -7.2253373    539.94109  0.029104199  0.029019049            3 
 1547000    1.0183964    -7.239143    539.26783  0.029049118   0.02901204            2 
 1548000     1.020004   -7.2536363    539.28622  0.029031343  0.029004937            1 
 1549000    1.0034426   -7.2494858    539.53909  0.029026205  0.028997774            2 
 1550000   0.99377025   -7.2366541    539.54125  0.029007594  0.028990612            1 
 1551000   0.98197238   -7.2530004    539.42052  0.028982405   0.02898344            2 
 1552000   0.99896596   -7.2371617    539.83489   0.02898598  0.028976395            2 
 1553000   0.97226071   -7.2441832    538.66908  0.028904759  0.028969327            2 
 1554000   0.99439629    -7.230063    538.43173   0.02887343  0.028962162            2 
 1555000    1.0143345   -7.1900045     542.0988  0.029051382  0.028955185            1 
 1556000    1.0010042   -7.2468393    541.13484  0.028981086   0.02894824            2 
 1557000   0.98569797   -7.2685812    541.23739  0.028967961  0.028941298            4 
 1558000   0.99863433   -7.2171319    542.01447  0.028990932  0.028934328            2 
 1559000    1.0182744   -7.2352127    542.85733   0.02901739  0.028927419            3 
 1560000   0.97624043   -7.2535448    543.95145  0.029057236  0.028920491            1 
 1561000    1.0002616   -7.2759265     543.2977  0.029003721  0.028913736            1 
 1562000    0.9988394   -7.2295713    542.71354  0.028953987  0.028906971            2 
 1563000   0.99285074    -7.229541    544.01962  0.029005098  0.028900235            4 
 1564000    1.0235654   -7.2480429    543.85975  0.028978034  0.028893445            3 
 1565000    1.0081111   -7.2528031    543.20738   0.02892478   0.02888669            2 
 1566000    1.0129305    -7.254955    543.77146  0.028936327  0.028879839            3 
 1567000    1.0052815   -7.2266049    545.33441  0.029000979  0.028872977            2 
 1568000   0.99270072   -7.2507206    543.81823  0.028901904  0.028866207            4 
 1569000    1.0007752    -7.227162    545.09113   0.02895109  0.028859536            2 
 1570000   0.99899168   -7.2885285    545.23854  0.028940474  0.028852677            2 
 1571000    1.0204458   -7.2697861    544.94684   0.02890658  0.028845823            2 
 1572000    1.0191259   -7.2418464    544.04973  0.028840635   0.02883889            1 
 1573000     1.001755    -7.259443    543.62713  0.028799912  0.028831827            2 
 1574000    1.0044071   -7.2246244    545.57054  0.028884506  0.028824712            6 
 1575000   0.98438127   -7.2731815    545.92678  0.028885015  0.028817635            1 
 1576000    1.0097442   -7.2583739    544.05802  0.028767873  0.028810546            1 
 1577000    1.0074084   -7.2140846    546.55427  0.028881541  0.028803625            2 
 1578000   0.98851714   -7.2218003    545.48304  0.028806667  0.028796664            2 
 1579000    1.0020604   -7.2106729    547.53716  0.028896831  0.028789736            2 
 1580000    1.0034476   -7.2366596    546.93381   0.02884672  0.028782861            2 
 1581000   0.98665687    -7.248632    547.56278  0.028861626    0.0287758            2 
 1582000   0.99047334   -7.2187754    546.87425  0.028807114  0.028768919            2 
 1583000    1.0034166   -7.2318726     547.1405  0.028802932  0.028762064            3 
 1584000    0.9896982   -7.2509516    547.28261  0.028792225  0.028755168            1 
 1585000   0.99921151   -7.2294413    547.71015  0.028796538  0.028748249            3 
 1586000   0.98569115   -7.2421563    547.61575  0.028773421  0.028741249            3 
 1587000   0.97607688   -7.2357975    548.62178  0.028808117   0.02873437            2 
 1588000   0.98459241   -7.2770464    548.88089  0.028803573  0.028727461            3 
 1589000   0.98438939   -7.2724001    548.53195  0.028767147  0.028720587            3 
 1590000   0.99301978   -7.2504186     549.5574  0.028802799  0.028713656            2 
 1591000    1.0008769   -7.2590365    550.10629  0.028813445  0.028706785            2 
 1592000   0.98280886   -7.2487031    548.54167  0.028713446  0.028699869            3 
 1593000    1.0183633   -7.2536322    549.54256   0.02874778  0.028692922            2 
 1594000   0.99800381   -7.2228061    550.72974   0.02879181  0.028685994            2 
 1595000   0.99880144   -7.2623539    549.76729  0.028723474  0.028679188            2 
 1596000    1.0196073   -7.2274039    550.31943  0.028734306  0.028672384            3 
 1597000    0.9979497   -7.2778316    551.45889  0.028775772  0.028665489            2 
 1598000    1.0012339      -7.2446    551.01345  0.028734535  0.028658506            2 
 1599000   0.99812539   -7.2529647    552.49575  0.028793816   0.02865152            2 
 1600000   0.98424352   -7.2389423    552.35984  0.028768741  0.028644632            2 
 1601000   0.99360727   -7.2473149    550.94087  0.028676914  0.028637748            3 
 1602000   0.95865942   -7.2275655    551.68924  0.028697942  0.028630824            7 
 1603000   0.98143782     -7.25532    552.04616  0.028698594  0.028623836            2 
 1604000   0.99893783   -7.2469084    553.91191  0.028777635  0.028616934            3 
 1605000    1.0101598   -7.2335941    552.14934   0.02866819  0.028610036            1 
 1606000   0.97767671   -7.2395085    552.49196  0.028668118   0.02860308            2 
 1607000   0.97390236   -7.2541352    552.47357  0.028649324  0.028596178            1 
 1608000    1.0013371    -7.261818    551.61735  0.028587134  0.028589243            2 
 1609000   0.98668594   -7.2578586    552.44026  0.028611988  0.028582227            3 
 1610000   0.98214842   -7.2920307    553.01556  0.028623994   0.02857512            3 
 1611000   0.98463371   -7.2936166    552.19947  0.028564011  0.028568076            2 
 1612000    0.9960629    -7.251892    553.07551  0.028591579   0.02856105            1 
 1613000   0.98283259   -7.2231838    554.27269  0.028635704  0.028554037            2 
 1614000    1.0146684   -7.3046699    551.55532   0.02847766  0.028546904            2 
 1615000   0.97696588   -7.2779364    553.93535  0.028582835  0.028539855            1 
 1616000    1.0013086   -7.2473107    553.62115  0.028548946  0.028532719            4 
 1617000   0.98896786   -7.2687911    554.74305  0.028589108  0.028525724            2 
 1618000    1.0053616   -7.2942718    553.64542  0.028514906  0.028518502            1 
 1619000   0.98547862   -7.2748545    552.87755   0.02845777  0.028511336            2 
 1620000   0.99000143   -7.2414398     554.4205  0.028519573  0.028504184            3 
 1621000   0.98035454   -7.2710722    553.67499  0.028463654  0.028497049            2 
 1622000   0.99329005   -7.2380673    555.63328  0.028546716  0.028489892            1 
 1623000   0.98857372   -7.2334778    555.43117   0.02851875  0.028482722            4 
 1624000   0.99231534   -7.2822374    554.24822  0.028440488  0.028475585            2 
 1625000    1.0082822   -7.2747681    554.69296  0.028445793   0.02846839            3 
 1626000   0.99617998   -7.2736382    554.23218  0.028404683  0.028461225            1 
 1627000   0.98474274   -7.2514583    557.38983  0.028548957  0.028454187            3 
 1628000   0.97775947   -7.2755093    555.38516  0.028428806  0.028447085            5 
 1629000   0.99569175   -7.2289509    555.68932  0.028426914  0.028439834            2 
 1630000   0.99223136   -7.2203283    557.67786  0.028511138  0.028432755            1 
 1631000   0.98236353   -7.2560977    556.98064  0.028458034  0.028425758            2 
 1632000   0.98938472   -7.2506573    556.73516  0.028428062    0.0284186            1 
 1633000   0.99790145   -7.2671538    557.69462  0.028459615  0.028411559            3 
 1634000    1.0139931   -7.3024135     557.9625   0.02845586  0.028404616            1 
 1635000   0.97356166   -7.2621274    557.95303  0.028437973    0.0283977            2 
 1636000    1.0016682   -7.2615984    559.71834  0.028510511  0.028390784            3 
 1637000   0.97684842   -7.2621232    558.76303  0.028444463  0.028383949            2 
 1638000   0.99544498   -7.2393122     560.1137  0.028495813  0.028377102            3 
 1639000   0.98231614   -7.2716655    559.15391  0.028429627  0.028370235            2 
 1640000    1.0038305   -7.2756048    559.43993  0.028426826  0.028363437            4 
 1641000   0.98076777   -7.2445057    558.65533  0.028369659  0.028356466            3 
 1642000    1.0080987   -7.2485033    561.38742  0.028491039  0.028349514            2 
 1643000   0.98431006   -7.2496774    560.44091   0.02842569  0.028342652            1 
 1644000    1.0023667   -7.2692593    559.51329  0.028361379  0.028335745            3 
 1645000   0.96959113   -7.3067925    560.57611  0.028397979  0.028328777            1 
 1646000   0.99010386   -7.2315542       561.56  0.028430539  0.028321852            2 
 1647000   0.98964351   -7.2393401    560.65829  0.028367653  0.028314858            2 
 1648000    1.0025406   -7.2516538     560.9996  0.028367698  0.028307964            1 
 1649000   0.97507383   -7.2579086    560.79565  0.028340189  0.028300955            3 
 1650000    1.0045123   -7.3007151    560.89132  0.028327845  0.028294023            2 
 1651000   0.99659265   -7.2233573    563.03048  0.028418659  0.028287153            1 
 1652000   0.97810458    -7.262444    562.73718  0.028386662  0.028280366            2 
 1653000   0.96740486   -7.2641273    562.43525  0.028354268  0.028273501            2 
 1654000   0.98601648   -7.2338102    564.29732  0.028430941  0.028266667            1 
 1655000   0.99165785   -7.2777592    561.38029  0.028266883  0.028259824            2 
 1656000   0.99072938   -7.2617469    563.46947  0.028354945  0.028252966            2 
 1657000   0.98348646   -7.2793761    561.91955  0.028259885  0.028246063            2 
 1658000   0.98677655   -7.2738499    564.77569  0.028386394  0.028239268            2 
 1659000   0.97736217   -7.2959876    561.32685  0.028196044  0.028232438            2 
 1660000   0.98299748   -7.2408659    563.74451  0.028300427   0.02822558            2 
 1661000   0.97285239   -7.2811579    563.24041  0.028258098  0.028218518            1 
 1662000    1.0036567   -7.2426028    563.51206  0.028254716  0.028211473            3 
 1663000    1.0025129   -7.2673155    565.62492  0.028343602  0.028204563            1 
 1664000    1.0006919   -7.2722422    563.35942  0.028213112  0.028197614            1 
 1665000   0.97839268   -7.2751896    565.07845  0.028282205  0.028190686            3 
 1666000   0.99267124   -7.2677995    563.13942  0.028168239  0.028183809            1 
 1667000   0.98313471   -7.2732099    564.92037  0.028240371  0.028176866            3 
 1668000   0.99449703   -7.2886856    563.78382  0.028166658  0.028169862            2 
 1669000   0.98954279    -7.283442    566.35627  0.028278224  0.028162864            2 
 1670000   0.98449566   -7.3111629    562.68058  0.028077873  0.028155747            2 
 1671000   0.97422984   -7.3263818    562.72598  0.028063334  0.028148632            4 
 1672000   0.96273841   -7.2934563    562.94061  0.028057247   0.02814142            1 
 1673000   0.97783266    -7.281719    565.99549  0.028192643  0.028134221            2 
 1674000   0.96332615   -7.2829904    565.31971   0.02814216  0.028127106            2 
 1675000   0.98159016   -7.2571759     566.7557  0.028196801   0.02811999            2 
 1676000   0.98469315   -7.2644974    565.65978  0.028125486  0.028112917            1 
 1677000   0.99652412   -7.2760443    565.16307  0.028084032  0.028105771            2 
 1678000   0.98086708   -7.2947987    564.90914  0.028054685   0.02809859            2 
 1679000     1.007606   -7.2542877    566.36606  0.028110287    0.0280914            2 
 1680000   0.98988289   -7.2715832    567.08214  0.028129074  0.028084259            3 
 1681000   0.96941928   -7.2983324    566.10301  0.028063802  0.028077054            2 
 1682000   0.97037698    -7.290122    567.22792   0.02810285  0.028069914            3 
 1683000   0.97265392   -7.3183722    565.10779  0.027981174  0.028062713            2 
 1684000   0.98678918   -7.2609295    566.34223  0.028025645  0.028055539            2 
 1685000   0.97991013   -7.2846641    567.92712  0.028087395  0.028048382            3 
 1686000   0.98131125   -7.3009049    566.69397  0.028009785   0.02804117            3 
 1687000   0.99051857   -7.2802012    566.61074   0.02798907  0.028033967            3 
 1688000   0.99642747   -7.3001242    567.06442  0.027994887  0.028026782            3 
 1689000    0.9665898   -7.3007364    566.42621  0.027946823  0.028019521            2 
 1690000   0.96828625   -7.2950712    568.11483  0.028013552  0.028012348            2 
 1691000   0.98500553   -7.2766485    566.73837  0.027929153  0.028005157            2 
 1692000    1.0050357   -7.3127224    566.84323  0.027917811  0.027997896            5 
 1693000   0.97062597   -7.3140088    566.61791   0.02789023  0.027990595            2 
 1694000   0.98579322   -7.2805426    567.60582  0.027922364  0.027983243            3 
 1695000   0.98652621   -7.2735172    567.00561  0.027876382  0.027975926            2 
 1696000   0.98140658   -7.2717443    567.67681  0.027892925  0.027968574            2 
 1697000   0.99874545   -7.2573285    568.77057  0.027930199  0.027961304            3 
 1698000   0.97406462   -7.2688395    569.22927  0.027936262  0.027954094            3 
 1699000   0.98862066   -7.2583338    569.58435  0.027937235  0.027946855            2 
 1700000    0.9734981   -7.2868522    569.60922  0.027922021  0.027939564            6 
 1701000   0.98092285   -7.3145464    568.69242  0.027860691  0.027932242            3 
 1702000   0.96825123    -7.273391      568.095   0.02781507  0.027924917            3 
 1703000   0.98098203   -7.2816563    569.22362  0.027853965  0.027917652            2 
 1704000   0.98560367   -7.3029319     569.8904  0.027870227  0.027910357            1 
 1705000   0.97177213   -7.3052633    570.31052  0.027874415  0.027903034            2 
 1706000   0.97445214   -7.2836132    569.74382  0.027830394  0.027895785            2 
 1707000   0.99308112   -7.2626142    571.55017  0.027902274  0.027888526            2 
 1708000   0.97934608   -7.2765138    569.56645  0.027789151  0.027881304            1 
 1709000   0.98143035   -7.2710758    570.65965  0.027826197  0.027874102            3 
 1710000   0.99198841   -7.2804265     571.6042  0.027855955  0.027866789            3 
 1711000   0.96690165    -7.300592    570.09457  0.027766149  0.027859516            2 
 1712000   0.98033435   -7.2789441    570.16112   0.02775317  0.027852142            3 
 1713000   0.98213204    -7.316899    572.17275  0.027834829  0.027844732            3 
 1714000   0.97572868   -7.2909756    571.99123  0.027809764  0.027837429            1 
 1715000   0.97876431   -7.2576341    572.56555  0.027821456  0.027830184            1 
 1716000   0.96052889   -7.2686267    573.22509  0.027837271  0.027822943            2 
 1717000   0.96938303   -7.3090297    573.21881  0.027820754  0.027815752            3 
 1718000   0.99881315   -7.2988233     573.6861  0.027827226  0.027808551            3 
 1719000   0.98352524   -7.3179809    572.10883  0.027734576  0.027801394            2 
 1720000   0.96813262     -7.32867    573.12856  0.027767856  0.027794272            2 
 1721000    0.9664561   -7.3335614    572.73866  0.027732842  0.027787027            2 
 1722000   0.96748828   -7.3042453    573.56989  0.027756963  0.027779889            2 
 1723000   0.95879913   -7.3019732    571.76811   0.02765371  0.027772688            6 
 1724000   0.98065335   -7.3022592    575.16467   0.02780185  0.027765476            3 
 1725000   0.99222332   -7.3013875    574.28678  0.027743323  0.027758335            2 
 1726000   0.99458566   -7.3166706    573.53142  0.027690779  0.027751078            2 
 1727000   0.98851662   -7.2724588    575.16183  0.027753418  0.027743838            3 
 1728000   0.97592948   -7.2941907    574.22921  0.027692381  0.027736535            1 
 1729000   0.97931743   -7.3118423    574.51032  0.027689913  0.027729272            1 
 1730000   0.95465239   -7.3048609    574.89812  0.027692588  0.027721929            2 
 1731000   0.96672811   -7.2994231    574.46694  0.027655832  0.027714636            2 
 1732000   0.99259874   -7.3349216    573.12247  0.027575177  0.027707214            1 
 1733000   0.96680463     -7.30908    574.50693  0.027625838   0.02769979            4 
 1734000   0.96102438   -7.3132299     575.5165  0.027658425  0.027692527            1 
 1735000   0.96132388   -7.3129254    575.99857  0.027665638  0.027685249            2 
 1736000   0.97175599   -7.3201371    575.54262  0.027627814  0.027677949            2 
 1737000   0.97723002   -7.3018911    576.42404  0.027654195  0.027670717            2 
 1738000   0.95164377   -7.2773863    576.96936  0.027664431  0.027663405            1 
 1739000   0.96409442   -7.3245584    577.20268  0.027659703   0.02765616            2 
 1740000   0.97477144   -7.3001162    577.13448   0.02764054  0.027648906            1 
 1741000   0.97752756   -7.3200533    574.68812  0.027507568  0.027641663            2 
 1742000   0.97696057   -7.3273179    578.29874  0.027664502  0.027634488            2 
 1743000   0.97981369   -7.3264912    577.58401  0.027614458   0.02762732            1 
 1744000    0.9706077   -7.2975862    578.44341  0.027639689  0.027620273            3 
 1745000   0.98561001   -7.3124092    577.39673  0.027573865  0.027613156            2 
 1746000   0.97125243   -7.2854719     578.2701  0.027599756  0.027605909            2 
 1747000    0.9831938   -7.3189801    577.51551  0.027547964  0.027598683            1 
 1748000   0.99087902   -7.3148574    577.96835  0.027553793  0.027591479            2 
 1749000   0.98525523    -7.291228    578.92739  0.027583733  0.027584358            4 
 1750000   0.97383544   -7.2939203    579.40649  0.027590785  0.027577274            3 
 1751000    1.0007533   -7.2679662    579.75656  0.027591688  0.027570215            3 
 1752000   0.97628206   -7.2864846    580.42758  0.027607857  0.027563197            6 
 1753000   0.97328051   -7.3064707    579.02599   0.02752548  0.027556115            2 
 1754000   0.95747352   -7.3027436    579.65651  0.027539743  0.027548884            2 
 1755000   0.96209855   -7.3295299    578.57553  0.027472722  0.027541698            2 
 1756000   0.95313252   -7.2872798    580.09173   0.02752903  0.027534561            2 
 1757000   0.96231511   -7.3116164    580.94922  0.027554032  0.027527378            3 
 1758000   0.95022361   -7.3289987    580.91518  0.027536746  0.027520243            3 
 1759000    1.0049502   -7.2859479    582.39205  0.027591058  0.027513098            2 
 1760000   0.98225789   -7.3111043    580.21087  0.027472105  0.027505974            2 
 1761000   0.97554557   -7.3318461    578.87048  0.027393076  0.027498764            1 
 1762000   0.95829334   -7.3013199    581.73418  0.027512967  0.027491649            3 
 1763000   0.95606966   -7.2930913    580.06675  0.027418546  0.027484427            4 
 1764000   0.95272325   -7.3200421    581.19057  0.027456093   0.02747713            5 
 1765000   0.98258065   -7.2826683    583.83252  0.027565275  0.027469853            1 
 1766000   0.95684256   -7.3159112    581.21868  0.027426325  0.027462642            2 
 1767000    0.9625542   -7.3286129    580.88001  0.027394831  0.027455335            2 
 1768000   0.95496734   -7.2856634    582.82628  0.027471073  0.027448115            4 
 1769000   0.97566985   -7.3116233    582.33414   0.02743236  0.027440861            2 
 1770000   0.97508889   -7.2767547    581.70469  0.027387226  0.027433649            2 
 1771000   0.96751826   -7.2930157    582.12906   0.02739173   0.02742649            2 
 1772000   0.94318341   -7.3414844     582.9409  0.027414452   0.02741924            7 
 1773000   0.97335519   -7.3202948    581.58124  0.027335084  0.027412046            2 
 1774000   0.97359252   -7.3306819    582.64849  0.027369809  0.027404813            4 
 1775000    0.9582069   -7.3289423    582.76458   0.02735984  0.027397574            4 
 1776000   0.98896677   -7.3076374    583.64066  0.027385542  0.027390353            3 
 1777000   0.96640422   -7.3607133    582.91892  0.027336284  0.027383034            3 
 1778000   0.96721334   -7.3185473    582.34802  0.027294152  0.027375692            2 
 1779000   0.98962595    -7.278552    585.46316  0.027424731  0.027368477            2 
 1780000   0.96030012   -7.3305204    584.12696  0.027346768  0.027361255            1 
 1781000   0.98047795   -7.3538095    584.13741  0.027331902  0.027354063            1 
 1782000   0.95278658   -7.2861533     586.0562  0.027406294  0.027346841            5 
 1783000   0.96215501   -7.3283597    584.14882  0.027301777  0.027339723            1 
 1784000   0.95077879    -7.323388    583.77488  0.027269006  0.027332499            3 
 1785000   0.96818413   -7.3501521    585.19851  0.027320192  0.027325304            1 
 1786000   0.95621897   -7.2882967    585.97237  0.027341003  0.027318127            2 
 1787000   0.96421099   -7.3494493    583.75197  0.027222159  0.027310874            5 
 1788000   0.96584645   -7.3461188    585.36295  0.027282017  0.027303619            1 
 1789000   0.95694971   -7.3213407    585.43653  0.027270194  0.027296336            1 
 1790000   0.94936101   -7.3492082    585.79606  0.027271697  0.027289178            4 
 1791000   0.98154321   -7.3222783    585.26625  0.027231819  0.027281953            1 
 1792000   0.95068696     -7.34951    587.09772  0.027301791  0.027274741            2 
 1793000   0.97661938   -7.3134321    585.47177  0.027210995  0.027267557            3 
 1794000   0.95923648   -7.3247712    587.03304   0.02726835  0.027260324            4 
 1795000    0.9719626   -7.2982903    588.45879  0.027319349  0.027253217            1 
 1796000     0.971983   -7.3713991    585.50611  0.027167136  0.027246066            4 
 1797000    0.9840896   -7.3303347    587.04414  0.027223342  0.027239032            4 
 1798000   0.94122686   -7.3283653    588.31631  0.027267163  0.027232015            2 
 1799000   0.96871852   -7.3401929    589.02082  0.027284641  0.027224964            1 
 1800000   0.97261603   -7.3445758    588.59314  0.027249682  0.027217841            5 
 1801000   0.97313575   -7.3122922    587.90834  0.027202866   0.02721071            1 
 1802000   0.94148531   -7.3281866    587.72605   0.02717934  0.027203702            1 
 1803000   0.96233305   -7.3586412    588.59756  0.027204546  0.027196603            3 
 1804000   0.96278993    -7.341341    588.96671  0.027206518  0.027189475            2 
 1805000   0.95678408   -7.3290037    590.31165  0.027253539  0.027182348            2 
 1806000   0.95304273   -7.3705339     587.9986  0.027131718  0.027175126            4 
 1807000   0.95852702    -7.309749    589.03094  0.027164312   0.02716795            3 
 1808000   0.96627983   -7.3049482    588.60615  0.027129708  0.027160826            3 
 1809000   0.93879684   -7.3478643    589.38495  0.027150588  0.027153588            2 
 1810000   0.98759861   -7.3574244    587.82314   0.02706368   0.02714636            4 
 1811000   0.95846551   -7.3161625    589.78089  0.027138823  0.027139135            1 
 1812000   0.94907481   -7.3370905    589.38589  0.027105679  0.027131925            2 
 1813000    0.9613446   -7.3584491    587.94185  0.027024354  0.027124721            2 
 1814000   0.94581576   -7.3486534    590.64484  0.027133629  0.027117476            2 
 1815000   0.97792783   -7.3000324    591.59952  0.027162512  0.027110356            2 
 1816000   0.97380638   -7.3500292    589.24906  0.027039696   0.02710323            2 
 1817000   0.97167974   -7.3391541    591.25514   0.02711682    0.0270961            1 
 1818000   0.95644119   -7.3312786    590.91979  0.027086532  0.027088895            3 
 1819000   0.93868884   -7.3534119    591.34616  0.027091175  0.027081697            2 
 1820000   0.95845827   -7.3225628    593.16569  0.027159601  0.027074723            3 
 1821000   0.96736901     -7.30783     592.6713  0.027122062  0.027067781            2 
 1822000   0.96258955   -7.3504301    594.17306  0.027175863  0.027060805            4 
 1823000   0.95311436   -7.3269603    593.56226  0.027133034  0.027053862            1 
 1824000   0.96022495   -7.3332758    592.85849  0.027086005  0.027046877            1 
 1825000   0.96938069   -7.3485027    593.15225  0.027084578  0.027039836            1 
 1826000   0.97597455   -7.3396535    594.10068  0.027113028  0.027032833            3 
 1827000   0.96399699    -7.357037    591.65827  0.026986785   0.02702581            5 
 1828000   0.96445733   -7.3610268    592.38702  0.027005243  0.027018712            3 
 1829000    0.9468816   -7.3444257    594.39227  0.027081842  0.027011671            6 
 1830000   0.96520454   -7.3291786    592.59827  0.026985349  0.027004596            7 
 1831000    0.9367376   -7.2923524    594.27752  0.027047038  0.026997654            2 
 1832000   0.95187545   -7.3249236    594.64306  0.027048902  0.026990616            3 
 1833000   0.95067669   -7.3267407    593.33238  0.026974558  0.026983531            2 
 1834000   0.98221544   -7.3595465    594.27628  0.027002739  0.026976485            3 
 1835000   0.96313102   -7.3736907    593.81261  0.026966967  0.026969425            2 
 1836000   0.95850232   -7.3695259    595.83529  0.027044085  0.026962399            4 
 1837000   0.97602547   -7.3322727    596.89755  0.027077552  0.026955418            2 
 1838000   0.95101257   -7.3586541    593.98099  0.026930585  0.026948446            3 
 1839000   0.95876833   -7.3501615      594.822  0.026954051  0.026941425            3 
 1840000   0.93974687   -7.3227997    595.92612  0.026989408  0.026934432            1 
 1841000   0.94787306   -7.3326351    595.16714  0.026940392  0.026927534            3 
 1842000   0.95612187   -7.3514546    596.93355   0.02700568  0.026920469            5 
 1843000   0.96284125   -7.3695605     595.0744  0.026906963  0.026913367            5 
 1844000   0.94593795   -7.3316542    596.02641  0.026935395  0.026906333            4 
 1845000   0.95307773    -7.331386    597.22158  0.026974778  0.026899431            3 
 1846000   0.94479719   -7.3244389    597.41261  0.026968789  0.026892511            2 
 1847000   0.95768091   -7.3268526    597.94373  0.026978151  0.026885723            1 
 1848000   0.92269767   -7.3808362    596.35508  0.026891914  0.026878806            4 
 1849000   0.95098979   -7.3424522    596.44467  0.026881408  0.026871832            4 
 1850000   0.96295586   -7.3617702    596.51885  0.026870219  0.026864867            2 
 1851000   0.94156244   -7.3478952    597.82432  0.026914475  0.026857827            3 
 1852000   0.93876239   -7.2840336    598.00892  0.026908249  0.026850848            2 
 1853000   0.94958124   -7.3361921    598.13425  0.026899363  0.026843833            3 
 1854000   0.95202507   -7.3324895    598.98916  0.026923281  0.026836745            3 
 1855000   0.94733431   -7.3622653    598.59613  0.026891111  0.026829774            2 
 1856000   0.95719835   -7.3691813    598.83376  0.026887292   0.02682273            2 
 1857000   0.94647256   -7.3440158    600.05001  0.026927392  0.026815761            2 
 1858000   0.95490245   -7.3830486    597.98056  0.026820083  0.026808736            3 
 1859000   0.95915274   -7.3511746    598.06471  0.026809428  0.026801719            2 
 1860000   0.95304773   -7.3273562    600.64389  0.026910569   0.02679474            2 
 1861000    0.9724628   -7.3068636    599.92296  0.026863826  0.026787841            2 
 1862000   0.92227051   -7.3595631    600.04849  0.026855016   0.02678096            1 
 1863000   0.96430235   -7.3178718    600.61998  0.026866165  0.026774109            2 
 1864000   0.96787207   -7.3655084    600.12008  0.026829403   0.02676728            2 
 1865000   0.94334869   -7.3481892     599.6019  0.026791863  0.026760415            2 
 1866000    0.9311205   -7.3371337    600.30316  0.026808823  0.026753471            1 
 1867000   0.95337226   -7.3453349    601.03492  0.026827126  0.026746626            3 
 1868000   0.93826581   -7.3609325    601.68378   0.02684171  0.026739743            3 
 1869000   0.95720876   -7.3455142    602.63802  0.026869896  0.026732913            1 
 1870000   0.95033398   -7.3611973    600.47837  0.026759285  0.026726021            2 
 1871000   0.93322181   -7.3474612    603.10386  0.026861922  0.026719216            2 
 1872000   0.95922835   -7.3091377    603.21472  0.026852507  0.026712465            2 
 1873000   0.94352891   -7.3359924    603.45345  0.026848792  0.026705669            3 
 1874000   0.94646033   -7.3679291    603.59981  0.026840974  0.026698896            4 
 1875000   0.96408224   -7.3292617    604.14094  0.026850708  0.026692186            2 
 1876000   0.93925765   -7.3475632    603.21665  0.026795338  0.026685519            4 
 1877000   0.95863574   -7.3723073    600.69491  0.026669104  0.026678689            4 
 1878000   0.94480502   -7.3873048    602.27857  0.026725176  0.026671803            4 
 1879000   0.98437597    -7.342926    602.55956  0.026723415  0.026664881            2 
 1880000   0.94844809   -7.3574885    603.31652  0.026742754  0.026658018            3 
 1881000   0.95662953   -7.3847497    602.28618  0.026682889  0.026651141            1 
 1882000   0.94510871   -7.3520288    603.08574  0.026704115  0.026644225            2 
 1883000    0.9321038   -7.3571459    603.80027  0.026721555  0.026637365            2 
 1884000   0.92986256   -7.3058312    604.35503   0.02673191  0.026630482            2 
 1885000    0.9762013   -7.3807172    603.49914  0.026679891  0.026623555            5 
 1886000   0.94415423    -7.371334    603.72388  0.026675675  0.026616602            2 
 1887000   0.96606606   -7.3440401    603.04068  0.026631367  0.026609642            4 
 1888000   0.96572892   -7.3642365    604.50753  0.026682006  0.026602685            4 
 1889000   0.94242578   -7.3701045    604.07995  0.026649018  0.026595776            1 
 1890000   0.95475788   -7.3435682    604.89684  0.026670936  0.026588895            2 
 1891000   0.92806616   -7.3926002    603.18997  0.026581613  0.026581946            3 
 1892000   0.96890936   -7.3877058    604.03131  0.026604621  0.026574978            2 
 1893000   0.94102113   -7.3624395    605.46942  0.026653875  0.026568036            2 
 1894000    0.9285288   -7.3679924    605.60257   0.02664566  0.026561079            3 
 1895000   0.93770108   -7.3688131    604.81384  0.026596915   0.02655414            3 
 1896000   0.95723413   -7.3551193    606.93523  0.026676127  0.026547195            4 
 1897000   0.93472489   -7.3205636    606.35934  0.026636766  0.026540382            2 
 1898000   0.93621684   -7.3425145    607.00176  0.026650938  0.026533645            3 
 1899000   0.92939191   -7.3402625    605.89094  0.026588158  0.026526782            3 
 1900000   0.98047386   -7.3513846    606.20072  0.026587751  0.026519887            4 
 1901000   0.94087936   -7.3540323    606.22446  0.026574805  0.026512971            2 
 1902000    0.9566654   -7.3462752    606.90062  0.026590458  0.026506103            4 
 1903000   0.94848818   -7.4115776    607.00389  0.026581008  0.026499165            3 
 1904000   0.93584234   -7.3227692    607.35111  0.026582244  0.026492303            1 
 1905000   0.94044346   -7.3331625    609.60643  0.026666948  0.026485558            2 
 1906000   0.93480205   -7.3531148    607.65913  0.026567818  0.026478753            2 
 1907000   0.95547564   -7.3782753      609.374  0.026628823  0.026471966            1 
 1908000    0.9458533   -7.3444303    609.65719  0.026627236  0.026465211            2 
 1909000   0.95339308   -7.3910777    608.81105  0.026576351   0.02645853            1 
 1910000   0.93361828   -7.3364257    609.20017  0.026579414  0.026451819            3 
 1911000   0.93248583   -7.3721019    608.38771  0.026530076  0.026445082            3 
 1912000   0.96191022   -7.3409017    610.78807  0.026620819  0.026438346            2 
 1913000   0.94164083   -7.3722054    609.91732  0.026568972  0.026431522            2 
 1914000    0.9266609   -7.3787393    609.99639  0.026558533  0.026424693            1 
 1915000   0.96253658   -7.3664385    608.56822  0.026482516  0.026417859            1 
 1916000    0.9518505   -7.3732825    609.09197  0.026491474  0.026411036            1 
 1917000   0.93723916   -7.3467526    611.70171  0.026591102  0.026404306            3 
 1918000   0.95097187    -7.414291    609.21947   0.02646939  0.026397483            1 
 1919000   0.96486503   -7.3677751    608.70821  0.026433395  0.026390668            4 
 1920000   0.95319378   -7.3872369     609.2522  0.026443238  0.026383769            3 
 1921000   0.95759189   -7.3718121    609.75051  0.026451089  0.026376914            2 
 1922000   0.93406248    -7.334225    613.57286  0.026603055  0.026370147            2 
 1923000   0.95717689   -7.3482346    610.67364  0.026463583  0.026363413            3 
 1924000   0.93442443   -7.3869699    611.33619  0.026478525  0.026356667            4 
 1925000     0.943151   -7.3461981    612.55139  0.026517376  0.026349972            2 
 1926000   0.95296623    -7.377654    613.33176  0.026537373  0.026343299            2 
 1927000   0.93009091   -7.3725134    611.92173  0.026462624   0.02633661            3 
 1928000   0.94894802   -7.3703146    611.75248  0.026441584  0.026329908            3 
 1929000   0.92021945   -7.3855075    611.14583  0.026401669  0.026323214            2 
 1930000   0.95765344   -7.3684701    613.57496  0.026492874  0.026316513            2 
 1931000   0.93025348   -7.3579839    611.15704  0.026374808   0.02630983            1 
 1932000   0.93675097   -7.4042436    612.10347  0.026401978  0.026303028            4 
 1933000   0.96515992   -7.3565912    612.03212  0.026385244   0.02629625            2 
 1934000   0.93704811   -7.3767092    612.33978  0.026384858   0.02628952            3 
 1935000   0.93340207   -7.3822499    612.26766  0.026368116  0.026282746            3 
 1936000   0.94968658   -7.3647677    613.99416  0.026428812  0.026276007            1 
 1937000   0.95041108    -7.346049    615.63282  0.026485666   0.02626934            2 
 1938000   0.95384238   -7.3632387    614.61444  0.026428209  0.026262697            2 
 1939000   0.93984222   -7.3566584     613.8532  0.026381863  0.026255978            2 
 1940000   0.92856223     -7.36808    614.56179  0.026398702  0.026249254            6 
 1941000   0.96571913   -7.3534722    613.46125  0.026337852  0.026242549            2 
 1942000   0.93127847   -7.3877299    613.97316  0.026346256  0.026235892            3 
 1943000   0.94042703   -7.3848221    615.32188  0.026390542  0.026229136            3 
 1944000   0.94162223   -7.3957327     613.2544   0.02628834  0.026222389            3 
 1945000   0.96011128    -7.381794    616.01028    0.0263929  0.026215641            4 
 1946000   0.95777907   -7.3633048    615.09734  0.026340242  0.026208962            2 
 1947000   0.96244115   -7.3798992    615.63265  0.026349626  0.026202233            1 
 1948000   0.95593732   -7.3575872    616.41433  0.026369538  0.026195467            2 
 1949000   0.94098149   -7.3598958    614.56262  0.026276835   0.02618866            3 
 1950000   0.95511266   -7.3361897    615.05549  0.026284423  0.026181853            2 
 1951000   0.93485182   -7.3872048    615.00823  0.026268932  0.026175033            1 
 1952000   0.93645428   -7.3881892    615.93111  0.026294873  0.026168237            4 
 1953000   0.92418139   -7.3590893    614.51435  0.026220957   0.02616142            2 
 1954000   0.94355281   -7.3939103    614.59827  0.026211117  0.026154572            2 
 1955000   0.92525038   -7.3891606    614.73028  0.026203337  0.026147608            3 
 1956000   0.95097424   -7.3984662    615.92259  0.026240737  0.026140619            2 
 1957000   0.95103761   -7.3644991    617.66903  0.026301696  0.026133797            1 
 1958000   0.93547554   -7.3545072    615.66749  0.026203077  0.026126952            2 
 1959000   0.92557152   -7.4068003    614.05479  0.026121099  0.026119962            3 
 1960000   0.96444064   -7.3736165    615.29064  0.026160316  0.026112892            1 
 1961000   0.92876335   -7.3960387    615.25221  0.026145343  0.026105959            2 
 1962000   0.92913538   -7.3785736    617.00501  0.026206465  0.026098992            3 
 1963000   0.94090804   -7.4206093    615.71934  0.026138535  0.026092018            2 
 1964000   0.92801101   -7.3717317    619.03276  0.026265816  0.026085125            1 
 1965000   0.92922177   -7.4100481      617.201  0.026174767  0.026078243            2 
 1966000   0.94164482   -7.3672844    615.53079  0.026090657  0.026071387            1 
 1967000   0.94634145   -7.3872563    617.20908  0.026148495  0.026064501            4 
 1968000   0.95829707   -7.4150177    616.65771  0.026111861  0.026057661            3 
 1969000   0.93964165   -7.3926307    616.66965  0.026099105  0.026050722            1 
 1970000   0.95338501   -7.3797622    617.83423   0.02613512  0.026043764            2 
 1971000   0.92221477   -7.3870455    619.36292  0.026186493  0.026036912            1 
 1972000   0.94442891   -7.3864772    618.89321  0.026153364  0.026030054            2 
 1973000   0.93813972   -7.3967728     616.6717  0.026046279  0.026023182            2 
 1974000   0.92319386   -7.3788701    618.16768  0.026096238   0.02601622            4 
 1975000   0.93302942   -7.3992175    617.52868  0.026056062  0.026009309            2 
 1976000   0.93443859   -7.3732122    619.45554  0.026124137  0.026002457            3 
 1977000   0.94268319   -7.3770086    619.91699  0.026130374  0.025995646            1 
 1978000   0.91408468   -7.3681164      619.401  0.026095425  0.025988766            2 
 1979000   0.93752109   -7.3561875    619.19464  0.026073549  0.025981895            2 
 1980000   0.92479396   -7.3931636    617.69637  0.025997322  0.025975053            2 
 1981000   0.93086012   -7.4023937    619.40812  0.026056206  0.025968132            2 
 1982000   0.91777141   -7.3661846    619.28724  0.026037977  0.025961208            2 
 1983000   0.92404767   -7.3518254    620.41816  0.026072372  0.025954352            3 
 1984000   0.91635805   -7.3792234    618.85404  0.025993533  0.025947559            7 
 1985000   0.94545684   -7.3809949    619.78532  0.026019535  0.025940704            1 
 1986000    0.9257764   -7.4167569    620.06146   0.02601802  0.025933777            2 
 1987000   0.94210552   -7.3946892    619.99073   0.02600196  0.025926743            2 
 1988000   0.93285871   -7.3918254    619.72026  0.025977543  0.025919717            3 
 1989000   0.94390511   -7.3863713     620.6848  0.026004893  0.025912717            2 
 1990000    0.9426466   -7.4144684    620.70607  0.025992716  0.025905845            2 
 1991000   0.93370784   -7.3663995    621.54507  0.026014778  0.025898983            1 
 1992000    0.9380868    -7.394536    620.05013  0.025939179  0.025892172            2 
 1993000   0.95872655   -7.4485156    619.45659  0.025901346    0.0258852            2 
 1994000   0.93029341   -7.3880139    621.35469  0.025967682  0.025878284            2 
 1995000   0.95044498   -7.3774224    620.28817  0.025910116  0.025871376            2 
 1996000   0.95521244   -7.3968604    622.77227  0.026000846  0.025864497            3 
 1997000   0.92693356   -7.3851816    621.21006  0.025922636  0.025857658            1 
 1998000   0.94530232    -7.371971    622.03886   0.02594423  0.025850769            3 
 1999000    0.9274773   -7.3679057    622.51423  0.025951068  0.025843851            2 
 2000000   0.92218138   -7.4251715    619.90354  0.025829314  0.025836947            2 
 2001000   0.95458585   -7.3689238    621.95389  0.025901794  0.025830017            2 
 2002000   0.93333902   -7.3983923     622.5605  0.025914107  0.025823204            2 
 2003000   0.93253929   -7.3791894    623.32118  0.025932816  0.025816333            3 
 2004000   0.92426859   -7.4431822    621.93315  0.025862157  0.025809397            3 
 2005000   0.93773487    -7.405452     621.3046  0.025823134  0.025802386            3 
 2006000   0.92551584   -7.4148321    621.44659   0.02581616  0.025795476            3 
 2007000   0.91348717   -7.3837846    620.98053  0.025783945  0.025788571            6 
 2008000   0.94085969   -7.3573489    622.71864  0.025843237  0.025781663            2 
 2009000   0.94339316   -7.4227788      622.681  0.025828812  0.025774779            1 
 2010000   0.92575546   -7.4101627     623.2634  0.025840108  0.025767963            2 
 2011000   0.92001115   -7.4077828     623.8337  0.025850891   0.02576114            2 
 2012000   0.91281362   -7.4324436    624.20883   0.02585358  0.025754219            2 
 2013000   0.93702272   -7.3820063    624.22452  0.025841386  0.025747254            3 
 2014000   0.91747153   -7.4111436    622.38826  0.025752576  0.025740285            2 
 2015000   0.94410272   -7.4351388    623.10685  0.025769514  0.025733259            4 
 2016000   0.92888309   -7.4249607    622.18225  0.025718512   0.02572619            2 
 2017000   0.89666084   -7.3914979    624.00779  0.025781184  0.025719101            3 
 2018000   0.93058037   -7.4110031    624.53288  0.025790092  0.025712071            3 
 2019000   0.93530694     -7.40976    623.27568  0.025725428  0.025705112            2 
 2020000   0.92511435   -7.4261289    624.25005   0.02575289  0.025698089            2 
 2021000   0.93129871   -7.4214596    623.83696  0.025723114   0.02569103            1 
 2022000   0.93167601   -7.3965477     625.8978  0.025795327  0.025683983            5 
 2023000   0.92563409   -7.4000715    625.96927  0.025785519  0.025677012            1 
 2024000   0.91865178   -7.3763042    625.90927  0.025770309  0.025670015            2 
 2025000   0.90687412   -7.3913539    623.63633  0.025664047  0.025662973            3 
 2026000   0.90430409   -7.3951724    625.45152  0.025726041  0.025655951            3 
 2027000   0.92501489   -7.4165875    623.31028   0.02562532  0.025648828            2 
 2028000   0.92520866   -7.3890273    624.81412  0.025674479  0.025641708            1 
 2029000   0.92055341   -7.3883879     625.8418  0.025704033   0.02563463            1 
 2030000   0.91197771   -7.3771583    623.95543  0.025613934  0.025627592            3 
 2031000   0.91817824   -7.3947579    624.88899  0.025639627  0.025620575            1 
 2032000   0.92589271   -7.4310092    624.49828  0.025610986   0.02561348            1 
 2033000   0.93551098   -7.4372582    625.63504  0.025644985  0.025606328            6 
 2034000   0.93339046   -7.3966918    624.34785   0.02557964  0.025599161            2 
 2035000   0.92647519   -7.3936755    623.47392  0.025531283  0.025592017            3 
 2036000   0.91170592   -7.3921223    625.46419  0.025600204  0.025584931            3 
 2037000   0.89838247   -7.4146369    626.30799  0.025622156  0.025577822            3 
 2038000   0.91654762    -7.426676    624.83434  0.025549327  0.025570683            1 
 2039000   0.92027319   -7.4381377    625.09215  0.025547333  0.025563487            2 
 2040000   0.93470313   -7.3708078    625.86554  0.025566403  0.025556361            2 
 2041000   0.90830891   -7.4310431    623.91754   0.02547434  0.025549183            2 
 2042000    0.9176464   -7.4004141    625.80082  0.025538721  0.025541998            1 
 2043000   0.91791261    -7.414897    624.72418  0.025482305  0.025534819            3 
 2044000   0.91931878   -7.4020867    624.79934  0.025472902  0.025527553            3 
 2045000   0.94942179    -7.371771    627.21643  0.025558942  0.025520363            2 
 2046000   0.91966632   -7.3888163    627.71097  0.025566592  0.025513192            2 
 2047000    0.9165762   -7.4079314    624.89873  0.025439616  0.025505938            1 
 2048000   0.91605819    -7.397379    627.65053  0.025539166   0.02549872            3 
 2049000   0.92569079   -7.4533067    625.60586  0.025443544   0.02549146            3 
 2050000   0.94200972   -7.4099738    626.67705  0.025474677  0.025484204            1 
 2051000   0.93669495   -7.4281638    625.99996  0.025434746  0.025476993            3 
 2052000   0.94027185    -7.454465    624.20507  0.025349459  0.025469733            8 
 2053000   0.91135795   -7.3955386    626.04208  0.025411677  0.025462496            2 
 2054000   0.91117541   -7.4044939    628.61987  0.025503889  0.025455266            1 
 2055000   0.94204252   -7.4165083    626.68017  0.025412821  0.025447999            1 
 2056000   0.92342481   -7.4151325     626.9668  0.025412079  0.025440674            2 
 2057000   0.95184841   -7.4047296    626.60358   0.02538501  0.025433372            3 
 2058000   0.91414802   -7.4219082    624.86061  0.025302098  0.025426065            2 
 2059000   0.90455458   -7.3964242    627.01564  0.025377029  0.025418782            4 
 2060000   0.92701119   -7.3999653    627.44788  0.025382196  0.025411542            2 
 2061000   0.94141788   -7.4375316    625.88178  0.025306557   0.02540425            2 
 2062000   0.93596531   -7.3990635     628.9501  0.025418287   0.02539693            4 
 2063000   0.90643457   -7.4083911    628.03705  0.025369084  0.025389687            1 
 2064000    0.9160075   -7.4431544    627.03784   0.02531645  0.025382422            4 
 2065000   0.91214231   -7.4144982     627.7655  0.025333555  0.025375207            3 
 2066000   0.94086862    -7.445263    627.19369  0.025298229  0.025367963            2 
 2067000   0.90410451   -7.4190256    627.77911  0.025309592  0.025360732            4 
 2068000   0.91678688   -7.4031424    629.09111  0.025350222  0.025353533            2 
 2069000   0.93097748   -7.3955389    628.97522  0.025333302  0.025346362            2 
 2070000   0.92157572   -7.4359026    628.54366   0.02530369  0.025339315            2 
 2071000   0.94678576    -7.421988    628.57714  0.025292819   0.02533221            1 
 2072000   0.93122756   -7.3820739    631.63172  0.025403464  0.025325101            3 
 2073000   0.91723264   -7.4250961    629.51944  0.025306297  0.025317979            4 
 2074000   0.92665495   -7.4459863    627.96436  0.025231612  0.025310856            1 
 2075000   0.93258864   -7.4150894    629.25993  0.025271483  0.025303725            3 
 2076000   0.92508222   -7.4407121    628.94386  0.025246623  0.025296574            3 
 2077000    0.9330276   -7.4889328    630.08761  0.025280357  0.025289482            2 
 2078000   0.91809105   -7.4604335    629.68549  0.025252065  0.025282292            2 
 2079000   0.89693135   -7.4122437    630.53789  0.025274086  0.025275153            4 
 2080000   0.90888553   -7.4304101    632.78822  0.025352092  0.025268066            4 
 2081000    0.9214548   -7.4131855    630.99014  0.025267906  0.025261033            3 
 2082000   0.93130142   -7.4350451     631.4547  0.025274363  0.025253939            4 
 2083000   0.90547907    -7.437966    631.46316  0.025262568  0.025246833            1 
 2084000    0.9151494   -7.3967463    633.08193  0.025315176  0.025239774            3 
 2085000   0.90180404    -7.407688    633.35197  0.025313828  0.025232723            1 
 2086000   0.91178982   -7.4440676    631.88707  0.025243172  0.025225707            2 
 2087000   0.90361034   -7.4277073    632.17148  0.025242432  0.025218726            2 
 2088000    0.9178057   -7.4307825    632.59321  0.025247175  0.025211694            1 
 2089000   0.93166608   -7.4248833     632.9869  0.025250794  0.025204712            2 
 2090000   0.91614703   -7.4292667    631.61213  0.025183897  0.025197632            2 
 2091000   0.90142743   -7.4592511    632.14396  0.025193048   0.02519052            2 
 2092000   0.91908932   -7.4181725    632.86268  0.025209635  0.025183415            1 
 2093000   0.91830891   -7.4155073     633.1245  0.025208015  0.025176362            3 
 2094000   0.91077296   -7.4206764    633.10471  0.025195189  0.025169292           10 
 2095000   0.91465036   -7.4822438    631.68119  0.025126539  0.025162248            4 
 2096000   0.92017565   -7.4710846    632.40048  0.025143149  0.025155071            4 
 2097000   0.90160348   -7.4527336    632.55521  0.025137308  0.025147934            2 
 2098000    0.9154733   -7.4213255    634.42449  0.025199575   0.02514083            2 
 2099000   0.90890783   -7.4245254    634.15504  0.025176872  0.025133755            2 
 2100000   0.90807779   -7.4528076    633.13803  0.025124525  0.025126666            2 
 2101000   0.93341002   -7.4248462    634.29487  0.025158451  0.025119571            3 
 2102000   0.90929118    -7.416804    634.16618   0.02514138  0.025112465            2 
 2103000   0.91710414   -7.4415941    633.79045  0.025114537   0.02510536            2 
 2104000   0.91668836   -7.4230291     633.5509  0.025093112  0.025098287            4 
 2105000   0.94898038   -7.4307205    633.82039   0.02509186  0.025091249            2 
 2106000    0.8993801   -7.4578978    634.20316  0.025095092  0.025084227            2 
 2107000   0.91203288   -7.4527258    634.98996    0.0251143    0.0250772            6 
 2108000   0.90556802   -7.4489404    635.69739  0.025130352  0.025070191            3 
 2109000    0.9076527   -7.4068298    634.94077   0.02508854  0.025063211            2 
 2110000   0.89641261   -7.4708178    634.86876  0.025073806  0.025056127            1 
 2111000   0.92671775   -7.4656205      634.785  0.025058622  0.025049044            3 
 2112000   0.91846916    -7.434031    635.34723  0.025068941  0.025041972            4 
 2113000   0.90348144   -7.4452257    636.20988  0.025091098  0.025034916            2 
 2114000   0.92867571   -7.4305964    636.04999  0.025072926  0.025027826            2 
 2115000   0.90175166   -7.4380496    637.88753  0.025133472  0.025020807            4 
 2116000   0.89883418   -7.4160383    636.48995  0.025066554  0.025013726            4 
 2117000   0.93772098    -7.446174    635.43143  0.025013046  0.025006632            4 
 2118000   0.93410409   -7.4209915    635.57396  0.025006845  0.024999559            2 
 2119000   0.90044697   -7.4285905    636.88806  0.025046722  0.024992516            4 
 2120000   0.92832507   -7.4057007    635.13566  0.024966024  0.024985439            2 
 2121000   0.90537004   -7.4145972    638.07641  0.025069795  0.024978432            3 
 2122000    0.9008003   -7.4286609    636.65204  0.025002044  0.024971332            1 
 2123000   0.90247568   -7.4676494    636.33729  0.024977912  0.024964216            3 
 2124000   0.93285974   -7.4263385    636.57049  0.024975302  0.024957137            2 
 2125000   0.90895142   -7.4479915    636.73789  0.024970113  0.024949959            3 
 2126000   0.90752912   -7.4345601    635.52592  0.024910862  0.024942789            3 
 2127000   0.93017606   -7.4240226    637.99908  0.024996046  0.024935667            2 
 2128000   0.89868493   -7.4570259    636.71206    0.0249339  0.024928511            5 
 2129000   0.92701927   -7.4018509    637.55233  0.024955078   0.02492148            3 
 2130000   0.92882375   -7.4307208    639.29749  0.025011639  0.024914499            2 
 2131000    0.8999928   -7.4592943    636.70842  0.024898655  0.024907377            3 
 2132000   0.92105291   -7.4340445    636.07463  0.024862204  0.024900224            4 
 2133000   0.92261707    -7.436697    638.13534  0.024931057  0.024893128            3 
 2134000   0.90483998   -7.4343233    636.29425  0.024847479  0.024886001            4 
 2135000   0.92632006   -7.4260676    637.37492  0.024878022  0.024878858            1 
 2136000   0.89943303   -7.4417516    638.50812  0.024910585  0.024871797            3 
 2137000   0.91453229   -7.4507217    637.56601  0.024862191  0.024864716            2 
 2138000   0.91998334   -7.4557062    637.59966  0.024851873  0.024857689            4 
 2139000   0.89556141   -7.4497738    638.89787  0.024890832  0.024850606            2 
 2140000   0.91968645   -7.4663572    636.69126  0.024793273  0.024843399            2 
 2141000   0.91968649   -7.4199467    638.96326  0.024870125  0.024836253            2 
 2142000   0.91084596   -7.4353747    636.85813  0.024776616  0.024829112            4 
 2143000   0.90919784   -7.4383594    638.33587  0.024822518  0.024821991            2 
 2144000   0.90539421   -7.4525003     637.6398  0.024783885  0.024814877            3 
 2145000   0.89696809   -7.4498786     639.2502  0.024834895  0.024807752            5 
 2146000   0.90792819   -7.4336666    639.96192   0.02485096  0.024800633            2 
 2147000    0.9194401     -7.45271    640.52653    0.0248613  0.024793523            2 
 2148000   0.91656057   -7.4729934    638.32149   0.02476418  0.024786408            2 
 2149000   0.90934229   -7.4591836    638.97919   0.02477816  0.024779204            3 
 2150000   0.89766007    -7.453574     639.2072  0.024775473  0.024772058            4 
 2151000   0.90159791   -7.4757358    640.35777   0.02480853   0.02476493            3 
 2152000    0.8947735   -7.4631015    639.48343  0.024763144  0.024757812            1 
 2153000    0.9173569   -7.4431117    639.49893  0.024752242  0.024750671            5 
 2154000   0.90315344   -7.4487033    639.75655  0.024750718  0.024743601            2 
 2155000   0.90101141   -7.4548237    641.58189  0.024809818  0.024736516            2 
 2156000   0.88890412   -7.4493963    639.35175  0.024712111  0.024729376            6 
 2157000   0.91201742   -7.4221279    639.36071  0.024701001  0.024722294            1 
 2158000   0.90441926   -7.4418779    638.93993  0.024673306  0.024715195            2 
 2159000   0.93540646    -7.429083    641.14054  0.024746817  0.024708075            4 
 2160000   0.90740512   -7.4414855    641.75084  0.024758906  0.024700991            2 
 2161000   0.89381716   -7.4367065    640.88604    0.0247141  0.024693895            1 
 2162000   0.89032528   -7.4577046    640.44843  0.024685801  0.024686704            1 
 2163000   0.91343105   -7.4352782    639.55999   0.02464016  0.024679583            3 
 2164000   0.89914703   -7.4799206    640.08547  0.024649009   0.02467244            2 
 2165000    0.8881838    -7.484277    641.06931  0.024675493  0.024665294            2 
 2166000   0.88860329   -7.4630765    641.09003  0.024664898  0.024658132            1 
 2167000   0.89517732   -7.4710028    640.83816   0.02464383  0.024651046            1 
 2168000   0.88372496      -7.4619    642.99035  0.024715189  0.024643978            3 
 2169000   0.90054011   -7.4585205    643.66731  0.024729803  0.024636908            2 
 2170000   0.90382211   -7.4917509    642.32939  0.024667027  0.024629789            4 
 2171000   0.89120728   -7.4900098    641.44868  0.024621859  0.024622617            5 
 2172000   0.89606223   -7.4812712    640.85143  0.024587609  0.024615461            3 
 2173000   0.90630546   -7.4495203    642.02602  0.024621339  0.024608355            4 
 2174000   0.89377998   -7.4539326    643.27256  0.024657795  0.024601263            2 
 2175000   0.91526438   -7.4460533     642.4385  0.024614502  0.024594205            2 
 2176000   0.90553644   -7.4361728    643.19395  0.024632121  0.024587114            2 
 2177000   0.90669972   -7.4341204    642.89216  0.024609254  0.024580014            2 
 2178000   0.93350227   -7.4570053    642.39633  0.024578984  0.024572923            3 
 2179000   0.90636225   -7.4506017    642.80742  0.024583426  0.024565796            2 
 2180000   0.89526777   -7.4321253    643.46232  0.024597184  0.024558695            2 
 2181000   0.90144194   -7.4715522    644.24385  0.024615767  0.024551541            3 
 2182000   0.89966245   -7.4422176    641.99749  0.024518694  0.024544374            5 
 2183000   0.89278372    -7.461179    642.06377  0.024509993  0.024537243            3 
 2184000   0.88537077   -7.4460585    642.27929  0.024506994  0.024530077            2 
 2185000   0.90852092   -7.4642222    643.54426  0.024544022   0.02452293            2 
 2186000   0.89917909   -7.4641535    643.16589   0.02451837  0.024515726            7 
 2187000   0.91638224   -7.4498791    643.24738  0.024510264  0.024508531            2 
 2188000   0.90909947   -7.4636321    642.34205  0.024464582  0.024501294            1 
 2189000   0.88634107   -7.4741822    642.62337  0.024464115  0.024494112            4 
 2190000   0.89778475    -7.468402     642.3119  0.024441092  0.024486946            3 
 2191000   0.89964062   -7.4630051    643.28681  0.024467017  0.024479763            3 
 2192000   0.88973339   -7.4771486    643.15552  0.024450864  0.024472626            2 
 2193000   0.89808541   -7.4402179     644.6224  0.024495455  0.024465469            2 
 2194000    0.9024862   -7.4495453     644.5189  0.024480359  0.024458292            3 
 2195000   0.90921731   -7.4674338     643.2415   0.02442071  0.024451142            1 
 2196000   0.87571858   -7.4605321    644.04187  0.024439962  0.024443946            2 
 2197000   0.91457835   -7.4652918    643.25935  0.024399156  0.024436792            2 
 2198000   0.89616581   -7.4522409    644.10425  0.024420088  0.024429637            2 
 2199000   0.90405832   -7.4670618     645.6676  0.024468228  0.024422484            2 
 2200000   0.91331908   -7.4409568    644.57148  0.024415586  0.024415364            5 
 2201000   0.90426986   -7.4826149    644.36433   0.02439665  0.024408217            5 
 2202000   0.91205899   -7.4790542    645.52072  0.024429334  0.024401061            6 
 2203000   0.89581156   -7.4811244    644.71658  0.024387826  0.024393868            2 
 2204000   0.90043055   -7.4985875    644.16422  0.024355877  0.024386646            4 
 2205000    0.8922577   -7.4764267    644.24379  0.024347838  0.024379417            2 
 2206000   0.90475288   -7.4593921    643.40873  0.024305256  0.024372206            1 
 2207000   0.86748199   -7.4609426    644.36399  0.024330312  0.024365021            2 
 2208000   0.87709631   -7.4896151     643.6161  0.024291067  0.024357792            4 
 2209000   0.88419749     -7.47312    644.70431  0.024321122  0.024350443            1 
 2210000   0.89863422   -7.4908778    643.57003  0.024267347  0.024343169            2 
 2211000   0.90285057   -7.4543578    645.46508  0.024327796  0.024335864            2 
 2212000    0.8882673   -7.4624399    644.12965  0.024266488  0.024328578            4 
 2213000   0.89533721   -7.4985925    645.37459  0.024302402  0.024321373            3 
 2214000   0.89284882   -7.4470726    644.75536  0.024268118  0.024314159            2 
 2215000    0.9024551   -7.4604121    645.27943  0.024276878  0.024306956            4 
 2216000   0.90004789   -7.4682984    645.32438  0.024267614  0.024299762            3 
 2217000   0.89667073   -7.4534023    648.15439  0.024363043  0.024292553            4 
 2218000   0.91181128   -7.4795569    645.38327  0.024247944  0.024285328            3 
 2219000   0.91922812   -7.5068627    644.41392  0.024200613  0.024278064            5 
 2220000   0.89416177   -7.4558104    646.92037  0.024283798  0.024270856            1 
 2221000   0.90397297   -7.4770969    645.28049  0.024211334  0.024263669            3 
 2222000   0.89841245   -7.4858916    647.00629  0.024265162  0.024256501            2 
 2223000    0.8980927   -7.4666104    645.36096  0.024192569  0.024249327            3 
 2224000   0.88093137   -7.4994498    647.04158  0.024244664  0.024242145            3 
 2225000   0.89717931   -7.4531579    646.70623  0.024221207  0.024234923            5 
 2226000   0.88259603    -7.466257    647.01628  0.024221933  0.024227774            3 
 2227000   0.91106768   -7.4976668    647.37094  0.024224328  0.024220565            2 
 2228000   0.89673357   -7.4919913    647.35168  0.024212735  0.024213344            2 
 2229000   0.89788607   -7.4942597    647.59312  0.024210899  0.024206136            1 
 2230000   0.87763501   -7.5016434    646.65413  0.024164953  0.024198905            4 
 2231000   0.88190802   -7.5062487    646.93926  0.024164771  0.024191718            2 
 2232000   0.87868966   -7.4778769    648.06323  0.024195909  0.024184495            3 
 2233000   0.90633049   -7.4868142    648.93781  0.024217712  0.024177292            3 
 2234000   0.89060518   -7.4484638    648.29686  0.024182963  0.024170187            2 
 2235000   0.86327445   -7.4388722    649.13264  0.024203305  0.024163071            1 
 2236000   0.91286863   -7.4815022    648.82942   0.02418118  0.024155899            2 
 2237000   0.89058255   -7.4988921    648.99666    0.0241766  0.024148772            5 
 2238000   0.89458204   -7.4538955    649.17691  0.024172509  0.024141659            2 
 2239000   0.88567749   -7.4937929    647.71293  0.024107225  0.024134505            4 
 2240000   0.89734694   -7.5211863    648.91579  0.024141213   0.02412734            5 
 2241000   0.87668345    -7.482206     647.8697   0.02409154  0.024120163            3 
 2242000    0.8871446   -7.4523319    650.36772  0.024173644  0.024113082            4 
 2243000   0.89770445   -7.4937452    647.82285  0.024068318  0.024106024            4 
 2244000   0.90047356   -7.4631836    649.56813  0.024122405  0.024098965            2 
 2245000   0.89567854   -7.4906307    649.25412  0.024100004  0.024091889            2 
 2246000   0.88197563   -7.4744427    649.79485  0.024109337  0.024084821            1 
 2247000   0.86799984   -7.4842787    649.32844   0.02408131  0.024077819            4 
 2248000   0.89471678   -7.4821729    649.36871   0.02407209   0.02407074            2 
 2249000   0.89748196   -7.5156865    649.32232  0.024059668  0.024063705            3 
 2250000   0.91217134   -7.4980005    649.79653  0.024066538  0.024056571            4 
 2251000   0.88426027   -7.4668511    652.41279  0.024152702  0.024049533            2 
 2252000    0.9016764   -7.4714104    651.24213  0.024098658  0.024042469            2 
 2253000   0.89174006   -7.4974066    651.01912  0.024079713  0.024035381            2 
 2254000   0.89571775      -7.4988     651.1155  0.024072593  0.024028333            3 
 2255000   0.88807871   -7.4901561    651.72743  0.024084532  0.024021314            2 
 2256000   0.87616485   -7.4647614    652.11612  0.024088214  0.024014305            3 
 2257000   0.87695938   -7.4635843    651.34968  0.024049242  0.024007346            3 
 2258000   0.88251228   -7.4761387    653.58903  0.024121237   0.02400038            2 
 2259000   0.91552494   -7.4967759     651.0093  0.024015394  0.023993372            1 
 2260000   0.91331589   -7.4619082    652.47031   0.02405864  0.023986376            2 
 2261000   0.90678395   -7.4747059    652.53133  0.024050248  0.023979482            1 
 2262000   0.87559779   -7.4832018    652.53159  0.024039625  0.023972543            3 
 2263000   0.87835988   -7.5030812    652.12214  0.024013925  0.023965591            3 
 2264000   0.87635061   -7.4926043    651.73834  0.023989191  0.023958584            2 
 2265000   0.87770526   -7.4551311    654.00651   0.02406205  0.023951611            4 
 2266000   0.89770563   -7.5149643    653.17494   0.02402085  0.023944661            1 
 2267000   0.88665532   -7.5142248    651.77351  0.023958738  0.023937634            2 
 2268000   0.86894247   -7.4785832    652.75044   0.02398407  0.023930648            3 
 2269000   0.88792638   -7.5027818    654.44989  0.024035915  0.023923703            1 
 2270000   0.90394181   -7.4867444    652.61633  0.023958015  0.023916776            3 
 2271000   0.88485773   -7.4783713    653.97298  0.023997247  0.023909856            2 
 2272000   0.90954451   -7.4914632    655.00288   0.02402446  0.023902985            3 
 2273000   0.88651502    -7.499466    653.94579  0.023975135  0.023896039            4 
 2274000   0.89851767   -7.5120225    653.86576  0.023961659  0.023889081            3 
 2275000   0.89957524   -7.5464954    653.94651  0.023954085  0.023882079            2 
 2276000   0.88046049   -7.5155539     652.6178  0.023894911  0.023875143            2 
 2277000   0.86682671   -7.5153889    655.52372  0.023990767  0.023868188            3 
 2278000   0.89306044   -7.4992679    654.06621  0.023926917  0.023861183            2 
 2279000   0.91986426   -7.4974202    655.38983  0.023964818  0.023854267            2 
 2280000   0.90433878   -7.5017577    653.97746  0.023902685  0.023847343            5 
 2281000   0.89384747   -7.5418292    656.38482  0.023980155  0.023840392            2 
 2282000   0.88668462   -7.5022574    657.00252  0.023992204  0.023833506            3 
 2283000   0.87760504   -7.4875343    655.41433  0.023923724  0.023826603            3 
 2284000   0.88760742   -7.4786111    654.94284  0.023896046  0.023819637            2 
 2285000   0.86545465   -7.5135201    656.08252  0.023927152  0.023812704            3 
 2286000   0.89679435   -7.4956105    655.54456  0.023897075  0.023805761            2 
 2287000   0.88734708   -7.5151606    655.50052  0.023885021  0.023798782            3 
 2288000   0.89869153    -7.529285    653.33043  0.023795543  0.023791788            2 
 2289000   0.87788622   -7.5178588    656.08406  0.023885396  0.023784848            2 
 2290000   0.90087348    -7.483656    654.77745  0.023827418   0.02377785            3 
 2291000   0.88619458   -7.4805895    656.36282  0.023874684  0.023770856            4 
 2292000   0.89909085   -7.5132269    653.64488  0.023765448  0.023763809            1 
 2293000    0.8849413   -7.4781172    656.20056  0.023847963  0.023756813            1 
 2294000   0.87116378   -7.4994618    654.93836  0.023791716   0.02374987            3 
 2295000   0.90253951   -7.5295959    655.05953  0.023785749  0.023742844            4 
 2296000    0.8905604   -7.4951673    655.51445  0.023791901  0.023735833            3 
 2297000   0.90683352   -7.5088905    655.04578   0.02376454  0.023728877            2 
 2298000   0.87069944   -7.4982881    655.51295   0.02377114  0.023721851            3 
 2299000   0.89743316   -7.5028052    656.09283  0.023781819  0.023714849            2 
 2300000   0.88171606   -7.4773055    657.79202  0.023833044  0.023707864            5 
 2301000   0.88362004    -7.520778    655.69199  0.023746632  0.023700862            2 
 2302000   0.87321469   -7.5654601    655.25276  0.023720415  0.023693801            1 
 2303000   0.86858837   -7.5163615    655.38517  0.023714907  0.023686733            2 
 2304000   0.89111729   -7.4944341    656.35766  0.023739788  0.023679666            5 
 2305000   0.86788279   -7.4496866    655.80004  0.023709329  0.023672692            5 
 2306000   0.87201253   -7.5336012    655.92579  0.023703592  0.023665742            5 
 2307000   0.88320387   -7.5064989    654.75658  0.023651083  0.023658715            4 
 2308000   0.88214674   -7.5285913    656.24005  0.023694398   0.02365165            2 
 2309000   0.88433935   -7.5221047    656.43236  0.023691077  0.023644616            1 
 2310000   0.88325236   -7.5247122    657.11429  0.023705422  0.023637611            2 
 2311000   0.87533762   -7.5005588    657.36836  0.023704326  0.023630653            4 
 2312000   0.85724366   -7.4758395    655.81717  0.023638162  0.023623721            3 
 2313000   0.86974856   -7.4999611    657.45308  0.023686881  0.023616799            2 
 2314000   0.88177034   -7.5027054    658.54116   0.02371583   0.02360985            2 
 2315000   0.87548447   -7.5149724    657.43098  0.023665622  0.023602854            2 
 2316000   0.87987216   -7.4925233    657.54324  0.023659443  0.023595939            2 
 2317000   0.87363993   -7.4978446     659.1358   0.02370651  0.023589093            3 
 2318000   0.88203566   -7.5069439    659.94128   0.02372524  0.023582219            3 
 2319000   0.88566259   -7.5252903    659.34789  0.023693686   0.02357535            3 
 2320000    0.8647345   -7.5109564    660.39498  0.023721084  0.023568497            7 
 2321000   0.89349765    -7.488291    659.08922  0.023663982  0.023561668            4 
 2322000   0.86146475   -7.5295929    659.51488  0.023669067  0.023554902            3 
 2323000   0.86259081   -7.5293723    658.65778  0.023628131  0.023548044            1 
 2324000   0.87982521   -7.5271857    658.76515  0.023621814  0.023541174            1 
 2325000   0.88024305   -7.4869449    660.40189  0.023670319  0.023534318            4 
 2326000   0.89026108   -7.5114912     660.4663   0.02366245  0.023527489            5 
 2327000   0.87790064   -7.4884793    660.13744  0.023640504  0.023520632            2 
 2328000   0.87719735   -7.5294674    658.71774   0.02357953  0.023513774            3 
 2329000   0.86982138   -7.5067161    660.62548  0.023637666  0.023506979            2 
 2330000   0.90706981   -7.5085703     659.9373  0.023602908  0.023500211            2 
 2331000   0.88054579    -7.507463     661.7088  0.023656113  0.023493387            2 
 2332000    0.8693527   -7.5398009    660.28336  0.023595032  0.023486531            3 
 2333000   0.88483068   -7.5422231    660.08707  0.023577906  0.023479627            1 
 2334000   0.90696306   -7.5233138    658.76226  0.023520504  0.023472713            3 
 2335000   0.86135534     -7.53717    659.61878  0.023540999  0.023465832            4 
 2336000   0.89037503   -7.5442868    661.35087  0.023592711  0.023458897            2 
 2337000   0.88254124   -7.5124728    661.83762  0.023599972  0.023452011            1 
 2338000   0.87646683   -7.5590923    657.84274  0.023447488  0.023445108            2 
 2339000   0.87141347   -7.5202075    660.49113   0.02353182  0.023438177            3 
 2340000   0.86322467    -7.508036    661.34951  0.023552333  0.023431278            3 
 2341000   0.88174894   -7.5057733    661.25246  0.023538817  0.023424357            3 
 2342000   0.87088442   -7.5251187    659.76291  0.023475765  0.023417427            2 
 2343000   0.87728783   -7.5276545    661.50164  0.023527587  0.023410554            5 
 2344000   0.87399597   -7.5308368    660.99613  0.023499578  0.023403684            3 
 2345000   0.87583283   -7.4924556     662.0971  0.023528681  0.023396832            3 
 2346000    0.8694871   -7.4650862    663.18134  0.023557166  0.023390061            4 
 2347000   0.86530827    -7.499104    662.41438  0.023519897  0.023383297            2 
 2348000   0.86346696   -7.5216899    662.54089   0.02351437   0.02337642            3 
 2349000   0.88796874   -7.5378686    660.00449  0.023414378  0.023369551            4 
 2350000   0.86488282   -7.5076607    661.99548  0.023475017  0.023362743            1 
 2351000    0.8753276   -7.5216336     662.0131  0.023465657  0.023355949            1 
 2352000   0.87663382   -7.5205327     661.8256  0.023449036   0.02334919            2 
 2353000   0.88320091   -7.5309141    662.30482  0.023456043  0.023342376            2 
 2354000   0.85799079   -7.5412002    662.34022  0.023447332   0.02333552            2 
 2355000   0.90602411   -7.5804557    662.48581  0.023442527  0.023328643            2 
 2356000   0.86755703   -7.5489587    662.61435  0.023437123  0.023321768            1 
 2357000   0.88976083   -7.5427192    662.73202   0.02343134   0.02331495            5 
 2358000   0.88452788   -7.5318989    663.32069  0.023442207  0.023308122            2 
 2359000    0.8649858   -7.5594583    662.59261   0.02340655  0.023301221            5 
 2360000   0.86911515   -7.5343327    662.10958  0.023379576  0.023294368            2 
 2361000   0.86876748   -7.5204971    663.13239  0.023405774  0.023287545            2 
 2362000   0.88170512   -7.5261171     661.8855  0.023351873  0.023280671            2 
 2363000   0.86820843   -7.5075697    665.64209  0.023474471  0.023273862            3 
 2364000   0.85218566   -7.5208842     663.5798  0.023391843  0.023267109            3 
 2365000   0.86257835    -7.527446    664.09308  0.023400038  0.023260291            1 
 2366000   0.86621187   -7.5427801    664.32717  0.023398393  0.023253481            3 
 2367000   0.85921001   -7.5077602    664.30035  0.023387563  0.023246695            2 
 2368000   0.89073579   -7.5549716    664.08833  0.023370226  0.023239873            4 
 2369000   0.87556822   -7.5299739    663.13836  0.023326944  0.023233031            5 
 2370000   0.87395937   -7.5205882    663.85555  0.023342319  0.023226223            2 
 2371000   0.86670277   -7.4944902    663.05875  0.023304469  0.023219425            3 
 2372000    0.8803398    -7.520193    663.22733  0.023300567  0.023212638            3 
 2373000   0.88694211   -7.5651986    662.65427  0.023270623  0.023205798            4 
 2374000   0.86216436   -7.5082085    664.14144  0.023313025  0.023198964            2 
 2375000   0.84796389    -7.480302    665.08767  0.023336409  0.023192146            2 
 2376000   0.89266073   -7.5182702    661.89771  0.023214706  0.023185314            5 
 2377000   0.88464563   -7.5380435    665.27169  0.023323226  0.023178468            2 
 2378000   0.87572003   -7.5052769    665.86972  0.023334375  0.023171667            2 
 2379000   0.86805268   -7.5521485    665.46997  0.023310564  0.023164883            3 
 2380000   0.88165945   -7.5090768    666.00928  0.023319653   0.02315814            3 
 2381000   0.89405921   -7.5277893    664.41392  0.023254022  0.023151397            3 
 2382000   0.87944593   -7.5298981    665.44056  0.023280176   0.02314466            1 
 2383000   0.86738565   -7.5341378    666.60569  0.023311152  0.023137886            1 
 2384000   0.87920412   -7.5029847    665.72302  0.023270519  0.023131122            2 
 2385000   0.85843573   -7.5362375    665.81343  0.023263921   0.02312443            3 
 2386000   0.86518022   -7.5531805    666.45191  0.023276471  0.023117672            3 
 2387000   0.88075079   -7.5236817     665.7359  0.023241723   0.02311093            3 
 2388000    0.8703314   -7.5381118    666.91189  0.023273028  0.023104202            3 
 2389000   0.87134237   -7.5118561    667.33622  0.023278088  0.023097446            3 
 2390000   0.86426436   -7.5361248    666.34592  0.023233819  0.023090686            2 
 2391000   0.83455024   -7.5592322    667.11257  0.023250822  0.023083901            2 
 2392000   0.86562808   -7.5257047    666.16949  0.023208246  0.023077164            2 
 2393000    0.8659092   -7.5225711     668.2542  0.023271145  0.023070515            3 
 2394000   0.87684623   -7.5281741    667.67003   0.02324109  0.023063823            2 
 2395000   0.87383733   -7.5529867    667.78512  0.023235391  0.023057114            5 
 2396000    0.8773262    -7.554203    666.82898  0.023192438   0.02305038            3 
 2397000   0.86923425   -7.5432263    668.52264  0.023241644  0.023043642            2 
 2398000   0.87038079   -7.5322745    669.69768  0.023272786  0.023036936            6 
 2399000   0.87723999    -7.545715    667.35467  0.023181696  0.023030201            2 
 2400000   0.89637402    -7.553059    667.85137  0.023189284  0.023023489            4 
 2401000   0.85773411   -7.5590469    667.94123  0.023182744  0.023016724            2 
 2402000   0.86974089   -7.5376968    669.11146  0.023213692   0.02300998            3 
 2403000   0.87605994   -7.5211271    667.38037     0.023144  0.023003272            4 
 2404000   0.88419414   -7.5302147    668.99712  0.023190416  0.022996567            3 
 2405000   0.86698681   -7.5269431    668.91365  0.023177881  0.022989817            3 
 2406000   0.87210631   -7.5518745    667.69821   0.02312615  0.022983093            3 
 2407000   0.84769732   -7.5450476    666.34829  0.023069806  0.022976366            2 
 2408000   0.87237738   -7.5682197    667.32258  0.023093943  0.022969628            3 
 2409000   0.87586956   -7.5488667    667.81466  0.023101379  0.022962895            4 
 2410000   0.87380475   -7.5474291    669.67722  0.023156197  0.022956163            1 
 2411000    0.8833651   -7.5417035    670.06494  0.023159994  0.022949438            3 
 2412000   0.86381336   -7.5512515    668.82265  0.023107471  0.022942697            2 
 2413000   0.88332885   -7.5546496    668.61849  0.023090844  0.022935982            2 
 2414000   0.85418952    -7.557297     669.1813  0.023100708  0.022929252            3 
 2415000   0.87191298    -7.524895    668.40701  0.023064424   0.02292254            2 
 2416000   0.84229436   -7.5145494    668.42478   0.02305549  0.022915831            1 
 2417000   0.84659818     -7.53594    669.23209  0.023073786  0.022909073            2 
 2418000   0.85939381   -7.5209525    668.79112  0.023049046   0.02290239            2 
 2419000   0.86686722   -7.5497013    668.09211  0.023015437  0.022895702            3 
 2420000   0.87577759   -7.5304381    670.08233   0.02307446  0.022888984            7 
 2421000   0.87813957   -7.5335585    670.64985  0.023084464  0.022882287            4 
 2422000   0.85143667   -7.5326008    668.03924   0.02298511  0.022875537            2 
 2423000   0.85751003   -7.5450725    669.00797  0.023008941  0.022868792            2 
 2424000   0.84529824   -7.5332165    671.90416  0.023099015   0.02286207            3 
 2425000   0.87309089   -7.5691006    667.67856  0.022944281  0.022855321            2 
 2426000    0.8645774   -7.5330743    670.37533  0.023027457  0.022848534            3 
 2427000   0.85239493   -7.5504004    669.42141  0.022985215  0.022841805            2 
 2428000   0.86414046   -7.5561092    670.83146  0.023024144   0.02283506            3 
 2429000    0.8493363   -7.5718364    671.10951  0.023024204  0.022828321            1 
 2430000   0.87035971   -7.5478391    669.66439  0.022965171  0.022821584            1 
 2431000   0.85654461   -7.5471114    670.00249  0.022967314   0.02281486            4 
 2432000   0.85339251    -7.528269    671.12953  0.022996489  0.022808125            2 
 2433000   0.84768596   -7.5828795    669.48351  0.022930659  0.022801365            2 
 2434000   0.86911783   -7.5888076    670.00031  0.022938932  0.022794626            3 
 2435000   0.86937402   -7.5718586     670.5195  0.022947279  0.022787895            4 
 2436000   0.84364705   -7.5845331    669.93799  0.022917966  0.022781126            2 
 2437000   0.86219723   -7.5983795    671.08483  0.022947778  0.022774357            2 
 2438000   0.85630422    -7.548762    671.01007   0.02293581  0.022767613            2 
 2439000   0.87521773   -7.5776586    670.49927  0.022908954  0.022760942            1 
 2440000   0.84660962   -7.5490508    671.06223  0.022918792  0.022754246            5 
 2441000   0.84546623   -7.5204777    672.78949   0.02296837  0.022747587            2 
 2442000   0.86330747   -7.5710224    670.37994  0.022876738  0.022740918            2 
 2443000   0.85150269    -7.547594    673.29334  0.022966753  0.022734288            3 
 2444000   0.84825499   -7.5779541    672.87471  0.022943082  0.022727623            2 
 2445000   0.86577126   -7.6068024    672.32552   0.02291498  0.022720961            3 
 2446000   0.84456031   -7.5468133    673.06051  0.022930653  0.022714377            2 
 2447000   0.86604029   -7.5738741    673.94511  0.022951407  0.022707755            6 
 2448000   0.86421195   -7.5753521    673.10573  0.022913458  0.022701121            4 
 2449000   0.86757661   -7.5780684    674.04774  0.022936155  0.022694471            4 
 2450000   0.84484473   -7.5668495    671.83077  0.022851387  0.022687829            5 
 2451000   0.84688315   -7.5915313    674.06596  0.022918059  0.022681202            2 
 2452000   0.86345941   -7.5240185     675.7664  0.022966503  0.022674618            5 
 2453000   0.86184336   -7.5753219    673.52442  0.022880976  0.022668055            2 
 2454000   0.86922185   -7.5655775    674.14183  0.022892619  0.022661436            3 
 2455000   0.85946346   -7.5440089     674.3412  0.022890061  0.022654864            7 
 2456000   0.85969297   -7.5778412    672.10843  0.022804982   0.02264828            1 
 2457000   0.86526816   -7.5982851    673.22694  0.022833637  0.022641723            3 
 2458000   0.84793625   -7.5671417    673.92929  0.022848159  0.022635106            3 
 2459000   0.85508474   -7.5873341    673.47436   0.02282345  0.022628482            3 
 2460000   0.84247459   -7.5549931    675.06676  0.022868115  0.022621898            3 
 2461000   0.86674038   -7.5788588     673.6709  0.022811557  0.022615321            3 
 2462000   0.85809362   -7.5939919    673.40644   0.02279334  0.022608722            3 
 2463000   0.83361248   -7.5727532    674.05073  0.022805885  0.022602112            5 
 2464000   0.85660295   -7.5627589    673.19929  0.022767833  0.022595508            2 
 2465000   0.87196078   -7.6004987    674.80324  0.022812821  0.022588876            3 
 2466000   0.84231047   -7.5805548    673.93707  0.022774299  0.022582174            3 
 2467000   0.87612553   -7.5679708    673.85139  0.022762174  0.022575517            2 
 2468000    0.8502521   -7.5721134    675.10328  0.022795222  0.022568901            4 
 2469000    0.8641292   -7.6182816    675.23096  0.022790298   0.02256231            2 
 2470000   0.87013216   -7.5607818    675.33323  0.022784522  0.022555756            1 
 2471000   0.87907856   -7.5252039    676.79913  0.022824738  0.022549209            2 
 2472000   0.86218051   -7.5723972    673.78603   0.02271393  0.022542672            3 
 2473000   0.85830845   -7.5917243    675.04448  0.022747152  0.022536068            3 
 2474000   0.86452159   -7.5761879     674.7907  0.022729409  0.022529512            2 
 2475000   0.85339307     -7.55332     677.5227  0.022812212  0.022522989            4 
 2476000   0.84519979   -7.5412893    677.36722  0.022797766  0.022516488            3 
 2477000   0.84185914   -7.5605083    675.99691  0.022742461  0.022509959            3 
 2478000   0.84915975   -7.5725621    675.43573  0.022714411   0.02250341            2 
 2479000   0.87080394    -7.563495    675.43002  0.022705057  0.022496888            2 
 2480000   0.83816699   -7.5705598    676.67714  0.022737807  0.022490352            4 
 2481000   0.86232738   -7.5590891    676.30631  0.022716187  0.022483871            2 
 2482000   0.85730982    -7.581549    676.44936  0.022711837   0.02247738            2 
 2483000   0.86869163   -7.5854034    675.91002  0.022684589  0.022470854            2 
 2484000   0.86520642   -7.5388534    677.28531  0.022721595  0.022464382            4 
 2485000   0.85867602   -7.5581027    676.37311  0.022681862  0.022457885            7 
 2486000   0.83526536    -7.530286    677.53202  0.022711585  0.022451417            2 
 2487000   0.84629724   -7.5831728    676.90347  0.022681392  0.022444922            2 
 2488000   0.85934877   -7.6155311    677.43394  0.022690043  0.022438425            2 
 2489000   0.84976438    -7.595748    676.75948  0.022658346  0.022431901            5 
 2490000   0.84329491   -7.5839019    678.00119  0.022690803   0.02242535            3 
 2491000   0.84760563    -7.582463    676.97225  0.022647272  0.022418835            2 
 2492000   0.84445585   -7.5795335    678.06138  0.022674605  0.022412352            1 
 2493000   0.85726386   -7.5718185    677.64671  0.022651648  0.022405894            5 
 2494000   0.84940356   -7.5747477    676.69749  0.022610849    0.0223994            3 
 2495000   0.83232598   -7.5573118    678.85924  0.022673989  0.022392913            5 
 2496000   0.87901818   -7.5763114     679.0371  0.022670843  0.022386493            2 
 2497000   0.83771953    -7.584297    679.92264  0.022691318  0.022380055            5 
 2498000   0.83717319   -7.5800768    679.00412  0.022651592  0.022373579            3 
 2499000   0.84741878   -7.6340188    676.70496  0.022565858    0.0223671            1 
 2500000   0.86743109   -7.5716184    679.51669  0.022650556  0.022360599            3 
 2501000   0.83708207   -7.5608804    679.63285   0.02264537  0.022354136            4 
 2502000   0.83719104   -7.6039936    677.26507  0.022557456  0.022347661            4 
 2503000   0.85674439   -7.5850503    678.93078  0.022603901  0.022341212            2 
 2504000   0.84843328   -7.5639899      680.361  0.022642472  0.022334793            4 
 2505000   0.84116352   -7.5762471    678.59337   0.02257463  0.022328357            5 
 2506000   0.85496889    -7.574813    680.63845  0.022633628  0.022321892            6 
 2507000   0.82977098   -7.5598472    678.29757  0.022546788  0.022315405            6 
 2508000   0.84257966   -7.5757838    677.72633  0.022518817    0.0223089            2 
 2509000   0.85888896   -7.6205335    679.21271   0.02255921  0.022302409            2 
 2510000   0.85519788   -7.6038411    678.95611  0.022541704  0.022295888            3 
 2511000   0.83132099   -7.5865522    679.10887  0.022537796  0.022289398            3 
 2512000   0.85255543   -7.5971417    678.08063  0.022494713  0.022282889            3 
 2513000   0.86335832   -7.5999606    679.37971   0.02252884  0.022276392            3 
 2514000   0.85001579   -7.5494956    679.91739  0.022537702  0.022269984            2 
 2515000   0.83207135   -7.5881065    678.47933  0.022481091  0.022263505            4 
 2516000   0.84099598   -7.6093558    678.86248  0.022484846  0.022257052            4 
 2517000   0.84605351   -7.5550636     678.7378  0.022471785  0.022250534            2 
 2518000   0.84614864   -7.5751756    682.13648   0.02257534  0.022244099            4 
 2519000   0.85171138   -7.5769012    680.97187  0.022527851  0.022237657            2 
 2520000   0.83844211   -7.5641011    680.73055  0.022510931  0.022231236            2 
 2521000   0.84699673   -7.5998637    680.62753  0.022498596  0.022224821            2 
 2522000   0.87419338    -7.588102    680.74801  0.022493656  0.022218379            2 
 2523000   0.85867836   -7.5764431    680.81997  0.022487118  0.022211904            4 
 2524000   0.83727236   -7.6197093    679.52233  0.022435365  0.022205408            4 
 2525000   0.83429976   -7.6204007    679.00809  0.022409508  0.022198902            3 
 2526000   0.86287742   -7.5908738    680.09938  0.022436638  0.022192424            3 
 2527000   0.85663794   -7.5795174    680.24212  0.022432467  0.022185922            2 
 2528000    0.8350547   -7.6141066    679.15354  0.022387709  0.022179435            5 
 2529000   0.84693837   -7.5848201    680.70092  0.022429844  0.022172909            1 
 2530000   0.85454311   -7.5797311    679.99585  0.022397755  0.022166477            2 
 2531000   0.84207903   -7.5367084    682.38206  0.022467472   0.02216001            2 
 2532000   0.84946948   -7.6028437    680.06338  0.022382286  0.022153557            3 
 2533000   0.83029342   -7.5900637    680.84705  0.022399232  0.022147087            6 
 2534000   0.83184201   -7.6261053    681.46532  0.022410725  0.022140606            2 
 2535000   0.84311563   -7.6330323     680.7472  0.022378277  0.022134121            3 
 2536000   0.84074729   -7.5802122    681.97137   0.02240968  0.022127647            3 
 2537000   0.85802096    -7.602243    681.20427   0.02237565  0.022121185            2 
 2538000   0.84748817   -7.5897824    681.80892  0.022386686  0.022114734            2 
 2539000   0.83305235   -7.6019287    682.94223  0.022415066  0.022108296            2 
 2540000   0.83985279   -7.6309581    682.03351  0.022376427  0.022101874            3 
 2541000   0.84467561   -7.5846875    682.81488  0.022393247  0.022095486            3 
 2542000   0.84577355   -7.5541632    683.29679  0.022400236  0.022089091            2 
 2543000   0.83613032   -7.5601734    684.71846  0.022438015  0.022082737            4 
 2544000   0.84854481   -7.6025807    681.90246  0.022336952  0.022076397            3 
 2545000   0.83661904   -7.5673981     683.7007  0.022387056  0.022070067            3 
 2546000   0.82982068   -7.5962359    683.19099   0.02236158  0.022063755            5 
 2547000   0.84221957   -7.6013032    683.42632    0.0223605  0.022057418            2 
 2548000   0.82964515   -7.5934345    684.78486  0.022396156  0.022051116            3 
 2549000   0.83858367   -7.5792501    684.17014  0.022367273  0.022044842            2 
 2550000   0.84460248    -7.583284    684.62645  0.022373413  0.022038567            1 
 2551000     0.826452   -7.6274348    685.43358  0.022391009  0.022032317            5 
 2552000   0.86398945   -7.6134585    683.66897  0.022324614  0.022026015            2 
 2553000   0.85267817   -7.6074971    684.85512  0.022354587  0.022019736            2 
 2554000    0.8312553   -7.6288701     685.9523  0.022381634  0.022013441            2 
 2555000   0.84445495   -7.5921878    685.34935  0.022353208   0.02200713            2 
 2556000   0.85362418   -7.5979724     683.9379  0.022298445  0.022000826            3 
 2557000   0.83870699    -7.586327    686.71598  0.022380263  0.021994554            3 
 2558000    0.8324655   -7.6150138     683.5446  0.022268198  0.021988272            3 
 2559000   0.84173751   -7.6132971    685.10676  0.022310367  0.021982011            2 
 2560000   0.84805942   -7.6275279    685.58506  0.022317222  0.021975715            3 
 2561000   0.83383251   -7.6319843     684.1757  0.022262648  0.021969394            3 
 2562000   0.85618843   -7.5968032    685.25621  0.022289104  0.021963122            3 
 2563000   0.85889538   -7.6445105    685.35852  0.022283734  0.021956841            2 
 2564000   0.83755993   -7.6111033    685.63421  0.022284003  0.021950545            2 
 2565000   0.83548803   -7.6200877    685.10406  0.022258092  0.021944274            3 
 2566000   0.84951039    -7.608879    686.92157  0.022308443     0.021938            3 
 2567000   0.85067553   -7.5935737    686.16053  0.022275047  0.021931738            2 
 2568000   0.84690797   -7.5971734    685.95199  0.022259605  0.021925511            6 
 2569000     0.846181   -7.5985597    686.90917   0.02228199  0.021919278            2 
 2570000   0.82226336   -7.6146635    685.53204  0.022228665   0.02191298            2 
 2571000   0.82661847   -7.5902618    686.62549  0.022255461  0.021906707            3 
 2572000   0.85738677   -7.6343701    685.33915  0.022205131  0.021900404           10 
 2573000    0.8285614   -7.5752774    688.69786  0.022305281  0.021894121            2 
 2574000   0.84721139   -7.5989615     686.7844  0.022234667  0.021887881            4 
 2575000   0.84748516   -7.6019854    686.43289  0.022214657  0.021881661            4 
 2576000   0.83028077    -7.597501    684.41861  0.022140871  0.021875388            1 
 2577000   0.82865554   -7.6143442    686.59286  0.022202589  0.021869115            4 
 2578000   0.83417503   -7.6172019    687.36817  0.022219038  0.021862836            8 
 2579000   0.84897513    -7.606789     686.1677  0.022171633  0.021856583            3 
 2580000   0.82835157   -7.6034592    687.35549  0.022201405  0.021850352            4 
 2581000   0.84875683   -7.6169344    687.76142  0.022205909  0.021844089            3 
 2582000   0.83682463   -7.6156435      686.641  0.022161148  0.021837799            3 
 2583000   0.83272744   -7.6125154    687.14799  0.022168925  0.021831538            2 
 2584000   0.82755568   -7.6029207     687.7947  0.022181202  0.021825338            5 
 2585000   0.84623362    -7.622817    687.82749  0.022173678   0.02181912            4 
 2586000   0.83316849   -7.5828877    689.39733  0.022215691  0.021812889            3 
 2587000   0.84945782   -7.6169658    688.97007  0.022193341  0.021806662            2 
 2588000    0.8398939   -7.6068832    686.34984  0.022100394  0.021800396            2 
 2589000   0.83516034   -7.6127163    686.78341  0.022105813  0.021794118            4 
 2590000   0.84126871   -7.6374476    686.82532  0.022098627  0.021787894            5 
 2591000   0.84011521   -7.6195573    687.58236  0.022114446  0.021781674            3 
 2592000    0.8357373   -7.6363001    686.26313  0.022063501  0.021775392            3 
 2593000   0.84345439   -7.6232781    686.58127  0.022065216  0.021769077            1 
 2594000    0.8182579   -7.6175232    687.83988  0.022097144  0.021762755            7 
 2595000   0.85061584   -7.6300415    688.08982  0.022096655  0.021756466            2 
 2596000   0.80539833   -7.6512244    687.81638  0.022079365  0.021750196            4 
 2597000   0.83252703   -7.6465016     686.8142  0.022038705  0.021743933            2 
 2598000   0.83436469   -7.5818069     689.4989  0.022116336  0.021737676            3 
 2599000    0.8254273   -7.5755041    688.29293  0.022069159  0.021731447            5 
 2600000   0.85240553   -7.6055562     688.1307  0.022055471  0.021725204            3 
 2601000   0.83015618   -7.5865434    689.14549  0.022079505  0.021718973            3 
 2602000   0.82994052   -7.6418978    689.31951  0.022076592  0.021712734            2 
 2603000   0.83528552    -7.607982    689.14787  0.022062616  0.021706496            7 
 2604000   0.83640473   -7.5877752    689.65183  0.022070271  0.021700249            5 
 2605000   0.81795904   -7.6315767    689.91695   0.02207028  0.021694003            3 
 2606000   0.83113109    -7.655703    689.21536  0.022039376  0.021687753            3 
 2607000   0.84586758   -7.5937939    688.65738  0.022013086  0.021681487            3 
 2608000   0.83092815   -7.6263795    687.84264  0.021978612  0.021675209            2 
 2609000   0.83853902   -7.6355743    689.05857  0.022009026  0.021668894            2 
 2610000    0.8231092   -7.6162644    687.89296  0.021963377  0.021662569            3 
 2611000   0.82726225   -7.6336718    688.40121  0.021971186  0.021656261            2 
 2612000   0.81185751   -7.6228102    690.40758  0.022026786  0.021649984            2 
 2613000   0.83385279   -7.6300401    688.40673  0.021954545   0.02164367            1 
 2614000   0.84216724   -7.6532091    689.64222  0.021985534  0.021637357            3 
 2615000   0.83301863   -7.6412723    687.97119  0.021923875  0.021630977            3 
 2616000   0.84642586   -7.6471129    688.12428  0.021920371  0.021624596            4 
 2617000   0.83279053   -7.6009484    688.17859  0.021913724  0.021618244            3 
 2618000   0.81942457   -7.6337938    688.25561  0.021907805  0.021611879            2 
 2619000   0.83782076   -7.6397152    688.61799  0.021910971  0.021605498            2 
 2620000   0.82051957     -7.61871    688.66005  0.021903946   0.02159913            2 
 2621000   0.84485801   -7.6353143    690.67499  0.021959653  0.021592748            2 
 2622000   0.84645727   -7.6534618    688.17844  0.021871931  0.021586352            2 
 2623000   0.82612193    -7.632568    689.52825  0.021906476  0.021579937            3 
 2624000   0.81267504   -7.6386732    687.37877  0.021829864  0.021573528            2 
 2625000   0.85120862   -7.6342541    687.11819  0.021813276  0.021567106            3 
 2626000   0.82295942   -7.6111425    687.00459  0.021801364  0.021560744            3 
 2627000   0.83709155   -7.6460186    688.10903    0.0218281  0.021554354            2 
 2628000   0.84246564   -7.6490423    687.34606  0.021795601  0.021547954            2 
 2629000   0.82012066   -7.6634442    688.77471  0.021832595  0.021541534            3 
 2630000   0.82627954   -7.6214622    688.46843  0.021814589   0.02153514            3 
 2631000   0.81961802   -7.6173621    689.33578   0.02183377  0.021528759            2 
 2632000   0.82694764   -7.6446413    687.08272  0.021754139  0.021522368            2 
 2633000   0.82107946   -7.6630798     688.2891  0.021784058  0.021515934            3 
 2634000   0.83959979   -7.6449431    688.66678  0.021787737  0.021509545            3 
 2635000    0.8308847   -7.6315507    690.48301  0.021836907  0.021503176            4 
 2636000   0.83975569   -7.6255338    689.80525  0.021807197  0.021496819            2 
 2637000   0.83335062   -7.6463254    689.72475  0.021796383  0.021490512            1 
 2638000   0.83341088    -7.629504    689.75311  0.021789017  0.021484206            2 
 2639000   0.83003297   -7.6264813    689.85648  0.021784024   0.02147784            3 
 2640000   0.82127307   -7.6337775     688.9964  0.021748624  0.021471492            2 
 2641000   0.82481683   -7.6187998    689.75674   0.02176438  0.021465103            3 
 2642000   0.82186787   -7.6410813    690.06403  0.021765835   0.02145874            5 
 2643000   0.82787988   -7.6448523    689.94864  0.021753961  0.021452395            2 
 2644000   0.81535383   -7.6226031    688.86953  0.021711722  0.021446051            2 
 2645000    0.8102092   -7.6186703    690.46462  0.021753769  0.021439682            2 
 2646000   0.83347412   -7.6312147    691.53957  0.021779402  0.021433348            5 
 2647000   0.83844801    -7.649427    690.96486  0.021753081  0.021427034            4 
 2648000   0.82968803   -7.6061846    691.80257  0.021771229  0.021420757            3 
 2649000   0.84889426   -7.6343073    688.29565  0.021652688  0.021414455            1 
 2650000   0.83162231   -7.6272767    691.96833   0.02176001   0.02140817            3 
 2651000   0.84035676   -7.6473862    690.10443  0.021693211   0.02140186            2 
 2652000   0.85359031    -7.639259    691.77871  0.021737642  0.021395554            2 
 2653000   0.82512285   -7.6250767    691.70601  0.021727164  0.021389313            2 
 2654000   0.82971111   -7.6348848    691.92576  0.021725878  0.021383052            1 
 2655000   0.81370237   -7.6163886    690.32021  0.021667301  0.021376785            3 
 2656000   0.81768901   -7.6295138    688.85327  0.021613117  0.021370514            6 
 2657000   0.83902946   -7.6350908    688.64803  0.021598546  0.021364213            2 
 2658000    0.8059714   -7.6202385    691.63216  0.021683978  0.021357901            3 
 2659000   0.81108762   -7.6295416    692.17983  0.021692987  0.021351625            4 
 2660000   0.81640145   -7.6750895    692.74854  0.021702649  0.021345337            2 
 2661000    0.8165611   -7.6735826    689.45264  0.021591276  0.021339033            2 
 2662000   0.82660172   -7.6246508    691.28888  0.021640649  0.021332758            2 
 2663000   0.82809707   -7.6595487    691.63891  0.021643476  0.021326482            2 
 2664000   0.81830568    -7.650434    691.04375  0.021616734  0.021320242            8 
 2665000   0.81818987   -7.6300792    694.55144  0.021718307  0.021313992            3 
 2666000   0.82414051    -7.614865     692.2829   0.02163925  0.021307765            2 
 2667000   0.83772882   -7.6296733    694.53537  0.021701518  0.021301518            1 
 2668000   0.82003967   -7.6361203    693.21696  0.021652204    0.0212953            2 
 2669000   0.81687223   -7.6254106    693.31386  0.021647117  0.021289056            5 
 2670000   0.81728213   -7.6628152    690.28136  0.021544362  0.021282788            2 
 2671000   0.81220386   -7.6267874     693.5357  0.021637829  0.021276515            4 
 2672000   0.82625699   -7.6357768     692.0316  0.021582822  0.021270272            2 
 2673000   0.84073067   -7.6186591    693.67291  0.021625917  0.021264039            3 
 2674000    0.8325933   -7.6234593     693.2911  0.021605931  0.021257849            4 
 2675000   0.79127592   -7.6330161     694.7725  0.021644003  0.021251636            2 
 2676000   0.81545765   -7.6037771    694.73765   0.02163483  0.021245427            3 
 2677000   0.79712653   -7.6130015    694.08341  0.021606382   0.02123923            4 
 2678000   0.83503372   -7.6638667    693.28035  0.021573324  0.021232973            3 
 2679000   0.82221909   -7.6256979    693.13202  0.021560658  0.021226712            3 
 2680000   0.82849634   -7.6036058    694.22053  0.021586459  0.021220499            1 
 2681000   0.82539913   -7.6433611    692.69032  0.021530844  0.021214281            3 
 2682000   0.81189372   -7.6343655     694.5721  0.021581286  0.021208022            3 
 2683000   0.81087198   -7.6578746    695.05326  0.021588187  0.021201797            2 
 2684000   0.81563021   -7.6317094      693.022  0.021517076  0.021195556            5 
 2685000   0.80796021   -7.6398503    693.15552  0.021513207  0.021189331            2 
 2686000   0.82465288   -7.6599111    693.23317  0.021507606  0.021183082            4 
 2687000   0.82885789   -7.6455822    693.84241  0.021518497   0.02117686            3 
 2688000   0.82501284   -7.6593919    695.16094  0.021551368  0.021170601            2 
 2689000   0.81736805   -7.6297105    695.75448  0.021561748  0.021164338            1 
 2690000   0.82385519   -7.6523124    692.69194  0.021458858   0.02115809            2 
 2691000   0.81855997   -7.6684454    693.08173  0.021462955  0.021151828            3 
 2692000    0.8110334   -7.6625415    693.62888  0.021471919  0.021145573            3 
 2693000   0.79663231   -7.6452785     694.5477  0.021492378  0.021139317            2 
 2694000   0.82955147   -7.6912277    694.14292   0.02147188  0.021133047            3 
 2695000   0.83161106   -7.6564925    693.94929  0.021457925  0.021126822            3 
 2696000   0.81884998   -7.6476393    695.16689  0.021487602  0.021120587            4 
 2697000   0.80133147   -7.6088605    695.05955  0.021476318  0.021114366            5 
 2698000    0.8300016   -7.6269555    694.69224  0.021457013  0.021108169            2 
 2699000   0.83617459   -7.6942618    693.89282   0.02142438  0.021101946            2 
 2700000   0.82314715   -7.7083779    694.44226  0.021433403  0.021095722            3 
 2701000   0.82243763   -7.6314642    695.65787  0.021462973  0.021089521            2 
 2702000   0.81263674   -7.6562937    695.08231  0.021437278  0.021083307            2 
 2703000   0.81293055   -7.6894083    693.93043  0.021393835  0.021077086            3 
 2704000    0.8283933    -7.668145    694.63952  0.021407776  0.021070823            1 
 2705000   0.82189809   -7.6388586    695.03573  0.021412068  0.021064563            4 
 2706000   0.82264922   -7.6487199    693.95328   0.02137082  0.021058307            4 
 2707000   0.81396499   -7.6291244    695.73605  0.021417807  0.021052074            5 
 2708000   0.83747698   -7.6805663    694.88336  0.021383658  0.021045841            3 
 2709000    0.8289726   -7.6623603    696.67971  0.021431024  0.021039632            4 
 2710000   0.81622013    -7.630034    695.67743  0.021392295  0.021033453            2 
 2711000   0.81477994   -7.6996871    694.09783  0.021335849  0.021027248            2 
 2712000   0.82018425   -7.6590213    694.02672  0.021325797  0.021021029            2 
 2713000   0.80864769   -7.6866077     694.4683    0.0213315  0.021014781            3 
 2714000   0.82974136   -7.6936855    693.80419  0.021303248  0.021008518            5 
 2715000   0.83346654   -7.6779726    697.36383   0.02140466  0.021002285            3 
 2716000   0.81724952   -7.6493853    696.47587  0.021369535  0.020996095            3 
 2717000   0.81083135   -7.6387295    696.84908  0.021373116  0.020989882            1 
 2718000   0.80376082   -7.6690028    694.37715  0.021289464  0.020983676            2 
 2719000    0.8080783   -7.6662676    694.61267  0.021288852   0.02097745            2 
 2720000   0.81580878   -7.6609618    694.70714   0.02128392  0.020971244            4 
 2721000   0.81169187   -7.6600212    695.17782  0.021290513  0.020965027            5 
 2722000   0.81991123   -7.7034089    695.45514  0.021291181  0.020958769            2 
 2723000    0.8294591   -7.6583844    696.86351  0.021326463  0.020952566            3 
 2724000   0.80658444   -7.6494109    694.83593  0.021256606  0.020946376            3 
 2725000   0.81346767    -7.681364    695.79875  0.021278249  0.020940113            2 
 2726000   0.80998379   -7.6630782    695.67035  0.021266518  0.020933853            2 
 2727000   0.80711755   -7.6493307    697.39468  0.021311413  0.020927618            2 
 2728000   0.83340002   -7.6714961    695.26995  0.021238696  0.020921353            2 
 2729000   0.81028937   -7.6656735    694.87714  0.021218918  0.020915082            1 
 2730000   0.81123623    -7.669206    694.37285  0.021195752  0.020908805            2 
 2731000   0.82147942   -7.6932132    696.73747  0.021260145  0.020902531            2 
 2732000   0.80487348   -7.6931747    695.72373  0.021221441  0.020896228            2 
 2733000   0.81239887   -7.6716195    694.81002  0.021185816  0.020889982            2 
 2734000   0.82069162   -7.6677398    696.48694   0.02122918  0.020883698            3 
 2735000   0.81233777   -7.6900347    695.42049  0.021188924  0.020877416            3 
 2736000    0.8244817   -7.6605653    695.92842   0.02119665  0.020871161            2 
 2737000   0.81641989   -7.6612396    695.63973  0.021180116   0.02086485            3 
 2738000   0.81193167   -7.6755798    694.98438  0.021152434  0.020858521            3 
 2739000   0.83270704   -7.6288083    696.75407  0.021198554  0.020852252            4 
 2740000   0.81724685   -7.6653107    696.30236  0.021177079  0.020846012            4 
 2741000   0.80410735   -7.6258207    696.43226  0.021173302  0.020839757            2 
 2742000   0.82830143   -7.6811008    695.10261  0.021125171  0.020833469            3 
 2743000   0.80364853   -7.6941472    694.40043  0.021096137  0.020827169           11 
 2744000   0.80494713   -7.6981481    696.37789  0.021148503  0.020820854            3 
 2745000   0.81450376   -7.6741313    695.18029  0.021104441  0.020814543            3 
 2746000   0.81564833   -7.6627492     696.8644  0.021147864  0.020808236            2 
 2747000   0.83261925   -7.6811791    696.54971  0.021130618  0.020801951            3 
 2748000   0.82124096   -7.6717682    696.87614  0.021132828  0.020795687            3 
 2749000   0.80771018   -7.6651488    696.79635  0.021122722  0.020789442            1 
 2750000   0.81490146   -7.6902615    695.94938  0.021089375  0.020783185            4 
 2751000   0.81077704   -7.6976132    696.15534  0.021087948  0.020776901            4 
 2752000   0.81331358   -7.7003642    693.50646  0.021000075  0.020770616            1 
 2753000   0.81759782   -7.6775313    696.79996  0.021092141  0.020764298            2 
 2754000   0.81223119   -7.7112599    697.70616  0.021111903  0.020757987            1 
 2755000   0.80354999   -7.7020131    696.71057  0.021074125  0.020751708            2 
 2756000   0.80120162   -7.7038324    696.65592  0.021064826  0.020745423            4 
 2757000   0.80505193   -7.6792255    698.02467  0.021098557  0.020739138            6 
 2758000    0.8163205   -7.6879725    696.49885  0.021044805  0.020732863            3 
 2759000   0.80877537   -7.6976222    695.81591  0.021016549  0.020726562            2 
 2760000   0.84071675   -7.7034831    696.15006  0.021019023  0.020720289            8 
 2761000   0.81934219   -7.6916947    696.75789  0.021029757  0.020713995            4 
 2762000   0.81664903   -7.6764573    696.97267  0.021028623  0.020707709            2 
 2763000   0.81732657   -7.6925327    696.95272   0.02102041   0.02070141            4 
 2764000   0.80720762   -7.6986249    697.21166  0.021020612  0.020695101            2 
 2765000   0.80109684   -7.7204698    696.49937  0.020991542  0.020688765            2 
 2766000    0.8404344   -7.7274216    694.76823  0.020931798  0.020682417            4 
 2767000   0.80931041   -7.7028565    697.18629  0.020997057  0.020676116            3 
 2768000   0.80751093   -7.7143132    697.18309  0.020989375  0.020669787            5 
 2769000   0.80835421   -7.6983165    697.16228  0.020981169  0.020663462            1 
 2770000    0.8244618   -7.6945077     697.7568   0.02099148  0.020657153            3 
 2771000   0.81874509   -7.7308004    696.61185  0.020949472  0.020650846            2 
 2772000   0.80152405   -7.7003953    696.02291   0.02092421  0.020644531            1 
 2773000   0.80314403    -7.671469    696.47996  0.020930399  0.020638233            3 
 2774000   0.82296096    -7.684087    696.15707  0.020913154  0.020631951            4 
 2775000   0.80383055   -7.7050006    698.47263  0.020975154  0.020625642            2 
 2776000   0.81555627   -7.7028424    696.05953  0.020895159  0.020619314            2 
 2777000   0.82350571   -7.6889465     695.6667  0.020875846  0.020612994            3 
 2778000   0.79302679    -7.665573    698.25038  0.020945836  0.020606707            3 
 2779000   0.79526763   -7.6792461    697.39561  0.020912667  0.020600432            4 
 2780000   0.81670099   -7.7070273    698.05573  0.020924932  0.020594142            2 
 2781000   0.80265537    -7.690655    697.67857  0.020906106  0.020587845            1 
 2782000   0.81049921    -7.700162    697.17566  0.020883527  0.020581543            3 
 2783000   0.79576901   -7.6989063    696.82578  0.020865546  0.020575237            2 
 2784000   0.78907319   -7.7125215    697.24637  0.020870641  0.020568919            3 
 2785000   0.80634187   -7.6876346    697.80233  0.020879782  0.020562611            3 
 2786000   0.80748911   -7.6781439    698.95443  0.020906749  0.020556342           11 
 2787000   0.80961959   -7.6982984    696.35899  0.020821642  0.020550071            6 
 2788000   0.80822989   -7.6769337    697.92868  0.020861092  0.020543814            2 
 2789000   0.81658108   -7.6952472     698.9826  0.020885102  0.020537574            2 
 2790000   0.82287864   -7.6959383    698.76288  0.020871054  0.020531319            2 
 2791000   0.79500566   -7.7049904    697.08403  0.020813449  0.020525056            4 
 2792000   0.81122317   -7.7101667    697.72424  0.020825103   0.02051879            4 
 2793000   0.80993124   -7.7000093    698.08076  0.020828284  0.020512523            5 
 2794000   0.82086506   -7.6934067    700.19968  0.020884028  0.020506259            3 
 2795000   0.79651058   -7.7099556    699.44752   0.02085413  0.020500032            3 
 2796000   0.78812652   -7.6931343    700.12303  0.020866805   0.02049384            2 
 2797000   0.78811678   -7.7010096    699.75887  0.020848494  0.020487645            4 
 2798000   0.80804847   -7.6877737    700.07081  0.020850334   0.02048148            4 
 2799000    0.8153793   -7.7100856    700.19833  0.020846681  0.020475308            4 
 2800000   0.79585623   -7.7036017    697.37354  0.020755165  0.020469106            2 
 2801000   0.79975083   -7.6896602    699.51795  0.020811554  0.020462907            2 
 2802000   0.82139251   -7.6603065    701.43567  0.020861161  0.020456768            1 
 2803000   0.80372563   -7.6875892    700.04126  0.020812262  0.020450612            3 
 2804000   0.80755888   -7.6905734    701.36413  0.020844155  0.020444451            1 
 2805000    0.8103961   -7.6769902    699.43564  0.020779431  0.020438257            5 
 2806000   0.79633294   -7.6894722    699.58888  0.020776576  0.020432073            5 
 2807000   0.79451642   -7.6875457    701.09933  0.020814017  0.020425885            2 
 2808000    0.8099786   -7.6948334    700.57177  0.020790947  0.020419715            2 
 2809000    0.8105919   -7.6732225    701.51741    0.0208116  0.020413597            4 
 2810000   0.80481029   -7.6877857    701.70587  0.020809783  0.020407488            2 
 2811000   0.79775523    -7.676588    701.93701  0.020809232  0.020401395            2 
 2812000    0.8023533   -7.7073295    700.43813  0.020757412  0.020395222            3 
 2813000   0.80568214   -7.7157935    702.47752  0.020810449  0.020389064            2 
 2814000   0.81323375    -7.676017    701.42911  0.020772006  0.020382925            3 
 2815000   0.80351748   -7.6963705    701.55476  0.020768347  0.020376769            3 
 2816000   0.80504334   -7.7105863     700.2435  0.020722168  0.020370596            3 
 2817000   0.81087639   -7.6952057    700.78564   0.02073085  0.020364398            3 
 2818000   0.79272137   -7.6839122    699.89169  0.020697057   0.02035826            2 
 2819000   0.80776977    -7.719645    699.50271  0.020678216  0.020352071            3 
 2820000   0.80374241   -7.7283023    700.65503  0.020704936  0.020345865            2 
 2821000   0.78763064   -7.7210194    700.98618  0.020707379  0.020339686            4 
 2822000   0.80482202   -7.7223274    701.08035  0.020702821  0.020333479            3 
 2823000   0.80078845   -7.7103041    700.72036  0.020684861  0.020327267            3 
 2824000   0.78761197    -7.696093    700.03954  0.020657446    0.0203211            2 
 2825000   0.80676556    -7.683841     701.0034  0.020678566  0.020314952            2 
 2826000   0.79263673   -7.7322403    701.28117   0.02067944  0.020308802            2 
 2827000   0.81609049   -7.7172688    700.70583  0.020655165  0.020302629            4 
 2828000   0.80075893   -7.7128918    700.90812  0.020653823  0.020296498            4 
 2829000    0.8077501   -7.7142716    702.90821  0.020705438  0.020290332            4 
 2830000   0.78492017   -7.6963756    701.81156  0.020665829  0.020284181            2 
 2831000   0.80395697   -7.6904893     702.2007  0.020669984  0.020278016            4 
 2832000   0.78921003   -7.6894952     703.5759  0.020703151  0.020271899            3 
 2833000   0.79876046   -7.7136939    701.39232  0.020631613  0.020265784            1 
 2834000    0.7900764     -7.70608    702.37594  0.020653256  0.020259682            5 
 2835000   0.80657047   -7.6856751    701.94409  0.020633277  0.020253619            4 
 2836000   0.80335922   -7.6982413    702.91765  0.020654609  0.020247558            5 
 2837000   0.78366997   -7.7068677    702.64683  0.020639373  0.020241453            4 
 2838000   0.79341526   -7.7060447    702.52307  0.020628467  0.020235374            3 
 2839000   0.78084421    -7.704957    703.65334  0.020654378  0.020229299            7 
 2840000    0.8147986   -7.6869418    703.85478  0.020653016  0.020223235            8 
 2841000   0.80638777   -7.7148033    703.18482  0.020626095  0.020217153            2 
 2842000   0.78778765    -7.714855    702.21544  0.020590413  0.020211101            4 
 2843000   0.80140023   -7.7120017    704.95286  0.020663409   0.02020502            2 
 2844000   0.78918874   -7.7215487    704.31606  0.020637484  0.020198949            4 
 2845000   0.81053097   -7.6936756    703.73864  0.020613317  0.020192914            2 
 2846000   0.79660278   -7.7199768    702.80554  0.020578752  0.020186882            2 
 2847000   0.77760693   -7.7088787     703.0588  0.020578937  0.020180841            1 
 2848000    0.7958221   -7.7195633    703.93011  0.020597206  0.020174749            2 
 2849000   0.80078974   -7.7279842    701.67281   0.02052395  0.020168653            2 
 2850000   0.81195503   -7.7286092    703.14086  0.020559674  0.020162529            2 
 2851000   0.79276426   -7.7059096    703.50224  0.020563026  0.020156424            5 
 2852000   0.77707684   -7.7334744    703.87071  0.020566582  0.020150323            2 
 2853000   0.80672761   -7.7270782     701.9874  0.020504364  0.020144226            4 
 2854000   0.80168344   -7.6868168    703.77587  0.020549401  0.020138118            1 
 2855000   0.77831592   -7.7218826    703.77538  0.020542189   0.02013206            5 
 2856000   0.78514621   -7.7054888    705.16068  0.020575417  0.020126025            2 
 2857000   0.78605364   -7.6914231    706.15565  0.020597236  0.020119995            4 
 2858000   0.79738283   -7.7339255    703.40082  0.020509704  0.020113934            1 
 2859000   0.79210258   -7.7134071    705.03549  0.020550178  0.020107881            3 
 2860000   0.79119835   -7.7562282     703.6236  0.020501853  0.020101847            2 
 2861000   0.77809409   -7.7584391    705.15525    0.0205393  0.020095767            3 
 2862000   0.78761317   -7.7437746    701.83995  0.020435591  0.020089698            3 
 2863000   0.79779163   -7.7002096    704.44901  0.020504396  0.020083673            1 
 2864000    0.7746071   -7.7119163    704.00507  0.020484319   0.02007766            4 
 2865000   0.78752186    -7.691399    705.24211   0.02051315  0.020071656            2 
 2866000   0.81756928    -7.747792     705.7585  0.020521008   0.02006567            5 
 2867000   0.80330653   -7.7272709    705.17556  0.020496906  0.020059688            3 
 2868000   0.80237682   -7.6940905    704.58902  0.020472717  0.020053721            4 
 2869000   0.78483839   -7.7507786    706.21683  0.020512863  0.020047722            4 
 2870000   0.78356248   -7.7260603    704.66322  0.020460604  0.020041713            4 
 2871000    0.8061389   -7.7415797    703.93312  0.020432286   0.02003572            3 
 2872000   0.80853479   -7.7106222      704.676  0.020446727  0.020029729            8 
 2873000   0.79304277    -7.719187    706.28946   0.02048641  0.020023753            3 
 2874000   0.79026616   -7.7299125    705.04093   0.02044308  0.020017758            5 
 2875000   0.80396695   -7.6955768      705.793  0.020457768  0.020011776            4 
 2876000   0.77842596    -7.697973     705.0214  0.020428297  0.020005761            1 
 2877000   0.79543022   -7.7521604    705.12999  0.020424342  0.019999735            3 
 2878000   0.78007415   -7.7254554    706.61419  0.020460221  0.019993718            2 
 2879000   0.79629155   -7.7140823    704.62137  0.020395432  0.019987702            5 
 2880000   0.78954896   -7.7107556    705.79738  0.020422378   0.01998168            2 
 2881000   0.78966694   -7.7548119    703.61881  0.020352274   0.01997565            3 
 2882000   0.79119492   -7.7197623    706.00701  0.020414267  0.019969603            1 
 2883000   0.78757687   -7.7323798    704.03359  0.020350144  0.019963558            3 
 2884000   0.79125615   -7.7319898     706.2397  0.020406834  0.019957528            2 
 2885000   0.79039128   -7.7199279     706.7332  0.020414015  0.019951501            2 
 2886000   0.79010448   -7.7347086     705.9087  0.020383134  0.019945502            2 
 2887000   0.78644747   -7.7281487    707.19706  0.020413262   0.01993954            4 
 2888000   0.77227474   -7.7210586     707.0479   0.02040189  0.019933542            1 
 2889000   0.80225057    -7.708982    706.33583  0.020374288  0.019927564            3 
 2890000   0.79225633   -7.7593066    705.28716     0.020337  0.019921579            3 
 2891000    0.7937158   -7.7622587    704.69102  0.020312782  0.019915561            3 
 2892000   0.78235328   -7.7599441    705.75561  0.020336434  0.019909561            1 
 2893000    0.7876999   -7.7400631    706.70618  0.020356786  0.019903565            4 
 2894000   0.78827026   -7.7426523    707.21642  0.020364444  0.019897599            3 
 2895000   0.77592519   -7.7535075    706.49566  0.020336663  0.019891674            3 
 2896000   0.78929539   -7.7193003     707.5808  0.020360866  0.019885724            3 
 2897000    0.7885856   -7.7351417    706.82869  0.020332203   0.01987979            3 
 2898000   0.77720914   -7.7237378    707.49455  0.020344334  0.019873828            2 
 2899000   0.78459511    -7.713739    707.30202  0.020331782  0.019867854            5 
 2900000   0.78139998   -7.7426813    706.36717  0.020297907  0.019861845            2 
 2901000   0.78374513   -7.7211769    705.08347  0.020254035  0.019855833            3 
 2902000   0.76921815   -7.7786647    704.34546  0.020225863   0.01984979            3 
 2903000   0.79119639   -7.7366847    704.57303  0.020225429  0.019843768            2 
 2904000   0.78443595   -7.7349888    705.94672  0.020257883   0.01983774            3 
 2905000   0.79686335   -7.7525496    706.70341  0.020272616  0.019831709            2 
 2906000   0.78840602   -7.7375467    705.42991  0.020229121   0.01982571            2 
 2907000   0.78518561   -7.7284913    706.22858  0.020245057  0.019819704            2 
 2908000   0.78632495   -7.7281035    707.96877  0.020287963  0.019813715            2 
 2909000   0.79162911    -7.763704     706.8042  0.020247628  0.019807713            2 
 2910000   0.78862679   -7.7512995    707.27585  0.020254177    0.0198017            3 
 2911000   0.77235562   -7.7277264     703.8557   0.02014931  0.019795641            4 
 2912000   0.80684724    -7.736317    705.89921   0.02020087  0.019789608            4 
 2913000   0.78879517   -7.7337249    707.08062  0.020227733   0.01978356            3 
 2914000   0.77961276   -7.7375866    705.86699  0.020186084  0.019777556            3 
 2915000   0.80007746   -7.7743556    704.90607  0.020151689  0.019771537            1 
 2916000   0.78051898   -7.7525223    705.89244  0.020172967  0.019765482            1 
 2917000   0.78874786   -7.7367856    706.30579  0.020177859  0.019759432            4 
 2918000   0.78229744   -7.7334735    706.48927  0.020176184  0.019753402            4 
 2919000   0.77817609    -7.760723    707.05357  0.020185382   0.01974736            6 
 2920000   0.79310982   -7.7781714    706.02589  0.020149141  0.019741312            1 
 2921000   0.79360587   -7.7396976    707.46516  0.020183304  0.019735301            3 
 2922000   0.79147425   -7.7312593    705.81384  0.020129302  0.019729284            2 
 2923000   0.79107952   -7.7365597    708.46254  0.020197929  0.019723274            2 
 2924000   0.80217534   -7.7613306    706.36458   0.02013123  0.019717277            2 
 2925000   0.79273588   -7.7450527     708.8201  0.020194305  0.019711268            2 
 2926000   0.79189045   -7.7481387     708.5333  0.020179235  0.019705283            2 
 2927000    0.7826755   -7.7496598    707.17492  0.020133667  0.019699307            2 
 2928000   0.79148795   -7.7618541    707.57988  0.020138316   0.01969333            2 
 2929000   0.75673137   -7.7540414    706.99545  0.020114813  0.019687357            3 
 2930000   0.79856862   -7.7711737    707.29809  0.020116556   0.01968138            3 
 2931000    0.7829893   -7.7363756    708.89624   0.02015513  0.019675422            2 
 2932000   0.77283775   -7.7480769    708.54799  0.020138358  0.019669491            5 
 2933000   0.78324453   -7.7769039    707.32554  0.020096759  0.019663541            4 
 2934000   0.78280759   -7.7345241    709.36833   0.02014793  0.019657552            5 
 2935000    0.7790224   -7.7593553    706.53472  0.020060611  0.019651562            4 
 2936000   0.76775979   -7.7767004    706.37444  0.020049229  0.019645545            4 
 2937000    0.7787111    -7.774498    706.60417  0.020048921  0.019639521            3 
 2938000   0.78398558   -7.7524763    706.66763  0.020043897  0.019633501            2 
 2939000   0.78887996   -7.7449991    708.05547  0.020076428  0.019627497            5 
 2940000   0.78222992   -7.7260586    707.28787  0.020047842  0.019621508            2 
 2941000    0.7686092   -7.7380682    708.67736  0.020080397  0.019615548            4 
 2942000   0.76380593   -7.7639355    706.97103  0.020025239  0.019609588            3 
 2943000   0.78845204   -7.7812737    706.50902  0.020005352  0.019603586            2 
 2944000   0.80005956   -7.7426336    707.09168   0.02001505  0.019597573            4 
 2945000   0.77152829   -7.7447909    708.80766   0.02005681  0.019591599            4 
 2946000   0.77493773   -7.6950527    709.08376  0.020057812  0.019585658            3 
 2947000   0.76255477   -7.7296636    708.85829   0.02004463  0.019579685            2 
 2948000   0.78214174   -7.7221854    707.45088  0.019998046  0.019573706            1 
 2949000    0.7685809    -7.743296    708.24847  0.020013803  0.019567732            2 
 2950000   0.78289011   -7.7214309    709.02362  0.020028916  0.019561789            2 
 2951000   0.78793689   -7.7437232    707.12799  0.019968598  0.019555848            4 
 2952000   0.78284671   -7.7325264    706.40032  0.019941292  0.019549879            5 
 2953000   0.76673883   -7.7404717    710.02049    0.0200367  0.019543908            4 
 2954000   0.76696363   -7.7505055    707.97199  0.019972128  0.019537966            4 
 2955000   0.78368707   -7.7527111    709.73981  0.020015223  0.019531997            2 
 2956000   0.76878751   -7.7839307    709.54838  0.020003055  0.019526026            4 
 2957000    0.7893619   -7.7759129    708.70763  0.019972597   0.01952006            5 
 2958000   0.78740513   -7.7262331    709.97318  0.020001498  0.019514081            2 
 2959000   0.77631359   -7.7453511    709.64809  0.019985583   0.01950813            2 
 2960000   0.78552707   -7.7552735    708.49868  0.019946472  0.019502193            3 
 2961000    0.7792245   -7.7430248    708.38168  0.019936443  0.019496266            5 
 2962000   0.78313423   -7.7500604    709.82771  0.019970395  0.019490321            5 
 2963000    0.7765645   -7.7514321     708.2617  0.019919611    0.0194844            5 
 2964000   0.78387521   -7.7506565    708.74253   0.01992641  0.019478464            4 
 2965000    0.7924733   -7.7515896    709.04119  0.019928083  0.019472511            3 
 2966000   0.77479185   -7.7571994    708.93454  0.019918368  0.019466566            3 
 2967000   0.78253894   -7.7828878     709.4835  0.019927073  0.019460599            4 
 2968000   0.77097549   -7.7963128    707.50913  0.019864924  0.019454621            2 
 2969000   0.77269924   -7.7597797    711.04062  0.019957354  0.019448659            2 
 2970000   0.76786875   -7.7602111    708.81882  0.019888295  0.019442761            4 
 2971000    0.7707406   -7.7681156     709.3205  0.019895672  0.019436847            3 
 2972000   0.77452758    -7.740445    709.81288  0.019902784  0.019430936            4 
 2973000   0.79237577   -7.7368788    710.36039  0.019911436  0.019425032            2 
 2974000   0.78105032   -7.7802588    709.07453   0.01986871  0.019419118            3 
 2975000   0.78604376   -7.7812613     711.1922   0.01992135  0.019413188            1 
 2976000   0.75461505   -7.7663534    708.48569  0.019838869  0.019407252            5 
 2977000   0.78195896   -7.7303225     709.0043  0.019846722  0.019401323            3 
 2978000    0.7725913   -7.7639882    709.42418  0.019851807  0.019395406            1 
 2979000    0.7661531   -7.7552682    708.84066   0.01982882  0.019389477            3 
 2980000   0.78887255   -7.7496075    710.33961  0.019864083  0.019383541            2 
 2981000   0.75375901   -7.7778914    709.07152   0.01982197  0.019377596            1 
 2982000   0.78743084   -7.7596892    709.34182  0.019822877  0.019371644            4 
 2983000   0.76498061   -7.7597256    709.80754  0.019829242  0.019365735            7 
 2984000   0.75923645   -7.7869857     708.3422  0.019781675  0.019359796            3 
 2985000   0.78318517   -7.7436415    710.31124  0.019830018  0.019353854            2 
 2986000   0.78598618   -7.7771672    709.46346  0.019799717  0.019347933            3 
 2987000   0.75709623   -7.7762647    709.38559  0.019790916  0.019342005            4 
 2988000   0.77117349   -7.7947533    708.87681  0.019770103  0.019336028            4 
 2989000    0.7560141   -7.7590593    709.55967  0.019782527  0.019330057            3 
 2990000   0.77800105   -7.7766291    709.70642  0.019780001  0.019324087            1 
 2991000    0.7666207   -7.7869603    708.85792  0.019749747  0.019318124            3 
 2992000   0.76260151   -7.7906842    710.13252  0.019778647  0.019312143            1 
 2993000   0.78561023   -7.7570241    709.35254  0.019750321  0.019306209            6 
 2994000   0.76447149   -7.7602758     710.1487  0.019765885  0.019300252            2 
 2995000   0.78383276   -7.7670385    710.32314  0.019764139  0.019294314            4 
 2996000   0.78204377   -7.7573805    710.46615  0.019761519   0.01928836            3 
 2997000   0.77284556   -7.7444575    710.25343  0.019749011  0.019282437            3 
 2998000   0.76036095   -7.7724847    709.48398  0.019721036  0.019276493            4 
 2999000   0.77232032   -7.7630148    711.15452  0.019760879   0.01927059            3 
 3000000   0.75602826   -7.7388898    709.65998  0.019712777  0.019264681            4 
 3001000   0.76864597   -7.7692226    708.73139  0.019680423  0.019258748            3 
 3002000   0.76249921   -7.7341415    710.11299  0.019712219  0.019252806            2 
 3003000   0.78013903   -7.7855962    711.38968  0.019741083  0.019246868            2 
 3004000    0.7772672   -7.7871872    708.86134  0.019664374  0.019240945            4 
 3005000   0.76250021   -7.7722471    709.34469  0.019671234  0.019235012            2 
 3006000   0.78988732   -7.7629036    708.18596  0.019632567  0.019229113            2 
 3007000   0.77306946   -7.7819934    711.55655  0.019719448  0.019223193            4 
 3008000   0.77153669   -7.7567095    709.05311  0.019643537  0.019217289            3 
 3009000   0.78392418   -7.7232258    711.15154  0.019695124  0.019211386            4 
 3010000   0.78582928   -7.7702305    710.46887  0.019669681  0.019205464            2 
 3011000   0.77344494   -7.7767091    710.29712  0.019658395  0.019199546            4 
 3012000   0.76292031   -7.7887359    709.86236  0.019639839  0.019193624            2 
 3013000   0.77356382   -7.7702344    711.47381   0.01967789  0.019187703            3 
 3014000   0.75968685      -7.7688    711.48206   0.01967159  0.019181765            3 
 3015000   0.76298342   -7.7838168    711.73611  0.019672087  0.019175829            3 
 3016000   0.75245273   -7.7737507    710.43049   0.01962949  0.019169898            3 
 3017000   0.75296125   -7.7632452    709.62068  0.019600616  0.019163974            3 
 3018000   0.74271094   -7.7720663    710.93288  0.019630353  0.019158045            3 
 3019000   0.76994245    -7.790848    711.03772  0.019626745   0.01915211            1 
 3020000   0.76924019   -7.7701441    710.14445  0.019595597  0.019146187            8 
 3021000   0.76395582   -7.7717319    711.76529  0.019633821  0.019140287            2 
 3022000   0.75249695   -7.7765367    709.71031  0.019570657  0.019134384            4 
 3023000   0.77724948   -7.7820051    710.73708  0.019592488  0.019128494            3 
 3024000   0.75485644    -7.777933    712.20411  0.019626436  0.019122585            4 
 3025000   0.76825906    -7.787753    710.04259  0.019560402  0.019116708            5 
 3026000   0.77162675   -7.7621197    711.50906  0.019594323  0.019110803            4 
 3027000   0.76203709   -7.8038712    711.06187  0.019575539  0.019104893            3 
 3028000   0.75777679   -7.7988834    710.30005  0.019548108  0.019098962            5 
 3029000   0.76173669   -7.7903288    710.35023  0.019543035  0.019093033            2 
 3030000   0.76362832   -7.7863676    710.74634  0.019547479  0.019087121            5 
 3031000   0.76301923   -7.7920539      712.179  0.019580419  0.019081208            2 
 3032000   0.77281902   -7.7693746     711.3753  0.019551872  0.019075295            3 
 3033000   0.76327606   -7.8140815    710.74959  0.019528234  0.019069391            4 
 3034000   0.75873788   -7.7606704    711.78163  0.019550144  0.019063493            2 
 3035000   0.76768177   -7.7854239    711.38155  0.019532717  0.019057583            3 
 3036000   0.74605174    -7.798816    711.36818  0.019525916   0.01905167            1 
 3037000   0.75401155   -7.8085854    710.66414  0.019500168  0.019045739            2 
 3038000   0.75499132   -7.7805418    711.27733   0.01951057  0.019039829            3 
 3039000   0.74976636   -7.7682068    711.85015  0.019519857  0.019033965            3 
 3040000   0.76678512   -7.7725969    712.60735  0.019534193  0.019028088            3 
 3041000   0.76351237   -7.7717695    710.38438  0.019466853  0.019022226            2 
 3042000   0.76087314   -7.7830867    711.48492  0.019490602  0.019016361            8 
 3043000    0.7713291   -7.7897721    711.53657  0.019485611  0.019010499            4 
 3044000   0.76753713   -7.8162935    712.82018   0.01951435  0.019004627            2 
 3045000   0.75948275   -7.8007972    713.27097  0.019520278   0.01899876            4 
 3046000   0.76234042   -7.8004565    713.64858  0.019524201  0.018992882            2 
 3047000    0.7497685   -7.8055257    712.79394  0.019494419  0.018987031            2 
 3048000   0.75587752   -7.7965492    713.15596  0.019497921  0.018981175            1 
 3049000   0.77007813   -7.7796804    712.15554  0.019464183  0.018975331            2 
 3050000    0.7503906   -7.8047594    710.20615   0.01940454  0.018969487            3 
 3051000   0.76124248   -7.8108458    712.42298  0.019458729  0.018963647            3 
 3052000   0.75742338   -7.7853801    710.73582  0.019406286    0.0189578            4 
 3053000   0.76387828   -7.7724394    713.13714  0.019465475   0.01895197            5 
 3054000   0.76764969   -7.7933482    712.49549  0.019441593  0.018946154            6 
 3055000   0.76016749   -7.7706286    712.52994  0.019436168  0.018940337            2 
 3056000   0.76636601   -7.7685154     714.1829  0.019474883  0.018934526            2 
 3057000   0.75571131   -7.7592588    713.83781  0.019459105   0.01892872            5 
 3058000   0.75876284    -7.786356    712.99287  0.019429716  0.018922892            1 
 3059000   0.76940672   -7.7865489    714.09206  0.019453309  0.018917045            6 
 3060000   0.75337506   -7.7861681    711.27447   0.01937022  0.018911183            2 
 3061000   0.77855375   -7.7948495    713.08012  0.019413049  0.018905332            3 
 3062000   0.74070212   -7.7911274    713.56441  0.019419889  0.018899518            3 
 3063000   0.76781009   -7.7973935    711.60958  0.019360365  0.018893697            2 
 3064000   0.75449564   -7.7870774    711.91531  0.019362362  0.018887851            3 
 3065000   0.77156205   -7.7904786    712.43027  0.019370045  0.018881996            2 
 3066000   0.75774507   -7.8185582    710.77582   0.01931876  0.018876131            2 
 3067000   0.75592004   -7.7940922    711.79902  0.019340263  0.018870277            7 
 3068000   0.75517079   -7.8244818    712.68139  0.019357926  0.018864436            4 
 3069000   0.76110029    -7.814829    711.65674  0.019323796  0.018858577            6 
 3070000     0.778374   -7.8134056    714.08943  0.019383535  0.018852704            2 
 3071000   0.76670953   -7.8222616    711.81465  0.019315496  0.018846856            4 
 3072000    0.7510093   -7.8004862    712.58522  0.019330111  0.018841025            4 
 3073000   0.75498183   -7.8225853    714.08893  0.019364598  0.018835198            3 
 3074000   0.77501723    -7.779976    712.73085  0.019321483  0.018829381            2 
 3075000   0.75653674   -7.8145176    712.39239  0.019306027  0.018823562            2 
 3076000   0.76125153   -7.8117703     710.8086  0.019256843  0.018817687            2 
 3077000   0.75198766   -7.8201075    710.38172  0.019239024  0.018811818            2 
 3078000   0.76125686   -7.8062638    714.33893   0.01933991  0.018805947            4 
 3079000   0.74930807   -7.7924113    712.59762  0.019286501  0.018800114            2 
 3080000   0.76276102   -7.8196626    712.11983  0.019267311  0.018794286            3 
 3081000   0.74800499   -7.7801412    711.42022  0.019242135   0.01878845            3 
 3082000   0.76356124   -7.7702702     713.8137  0.019300608  0.018782608            3 
 3083000   0.75668315   -7.8149302    713.29941  0.019280447  0.018776772            5 
 3084000   0.76067767   -7.8133794    712.13522  0.019242737  0.018770906            3 
 3085000   0.75522885   -7.8169998    713.11174  0.019262878  0.018765053            3 
 3086000   0.74561451   -7.8102744    713.45678  0.019265953  0.018759186            4 
 3087000   0.74063075   -7.7933049    713.38388  0.019257744   0.01875335            2 
 3088000    0.7564907   -7.8282716    713.33963  0.019250314  0.018747485            3 
 3089000   0.75151991   -7.8204904    711.92233  0.019205847  0.018741634            3 
 3090000   0.73813306   -7.8107804    712.82652  0.019224016  0.018735781            2 
 3091000   0.78549211   -7.8089882    713.85734  0.019245588   0.01872992            4 
 3092000   0.77240236   -7.8099226     714.2998  0.019251288   0.01872406            3 
 3093000   0.76622127   -7.8408147     713.0415  0.019211162  0.018718199            5 
 3094000   0.74923849   -7.8152257    712.02282  0.019177516  0.018712356            2 
 3095000   0.76195446   -7.8208551    712.56664  0.019185962  0.018706468            3 
 3096000    0.7597423   -7.8429547    711.15631  0.019141804  0.018700608            5 
 3097000   0.75816806   -7.8373321    711.09905  0.019134083  0.018694753            2 
 3098000    0.7561694   -7.8472886    710.80994   0.01912013    0.0186889            5 
 3099000   0.75182251   -7.8383414    711.93602  0.019144241  0.018683047            2 
 3100000   0.75425727    -7.803019      712.448  0.019151828  0.018677212            3 
 3101000   0.75202846   -7.8190555    713.92399  0.019185316    0.0186714            2 
 3102000   0.75528738   -7.8059773    712.96804  0.019153451  0.018665586            3 
 3103000    0.7531708    -7.826957    715.44182  0.019213713  0.018659748            4 
 3104000   0.74924104   -7.8219882    713.50097  0.019155417  0.018653931            2 
 3105000   0.75308739   -7.8304357     712.2208   0.01911489   0.01864812            3 
 3106000   0.75068496   -7.8035794    712.50014   0.01911623  0.018642326            4 
 3107000   0.74103579   -7.8267474    714.01157  0.019150616  0.018636533            2 
 3108000   0.76922096   -7.8028713    714.32286  0.019152801  0.018630734            4 
 3109000   0.74062931   -7.8040666    712.36192   0.01909408  0.018624929            2 
 3110000   0.73853423   -7.7972321    714.84223  0.019154401  0.018619149            3 
 3111000   0.75367217   -7.8214311    713.50558  0.019112439   0.01861336            2 
 3112000   0.75673013    -7.811246    715.01168  0.019146628  0.018607549            3 
 3113000   0.74950225   -7.8057253    713.10122  0.019089336  0.018601753            2 
 3114000   0.75992235    -7.820194    714.04783  0.019108538  0.018595976            3 
 3115000   0.75336434     -7.83756    713.05649  0.019075883  0.018590173            3 
 3116000   0.75971254   -7.8267356    714.40383  0.019105794   0.01858438            5 
 3117000   0.75204772   -7.8357199    713.38507  0.019072427  0.018578595            3 
 3118000   0.75097564   -7.8197389    713.30609  0.019064199  0.018572815            4 
 3119000   0.75078064   -7.7816284    714.59081  0.019092412  0.018567052            5 
 3120000   0.74907389   -7.8252568    713.09509  0.019046343  0.018561299            4 
 3121000   0.75641647   -7.7984638    715.65145  0.019108497  0.018555542            4 
 3122000   0.74560424   -7.8402441    715.43437  0.019096583  0.018549785            5 
 3123000   0.76110336   -7.7954043    715.29376  0.019086716  0.018544037            5 
 3124000   0.75362272   -7.8107589    715.05507  0.019074239  0.018538292            3 
 3125000   0.73886062   -7.8134092    713.15963   0.01901759  0.018532538            9 
 3126000   0.74963816   -7.8263911    714.44945  0.019045891  0.018526772            7 
 3127000   0.75278148   -7.8356731    715.39372  0.019064964  0.018521013            2 
 3128000   0.72680962   -7.8370012    714.38494  0.019031994  0.018515241            5 
 3129000   0.74076459   -7.8441144    712.43483  0.018973975  0.018509461            4 
 3130000   0.73911889   -7.8207027    714.86621  0.019032647   0.01850367            2 
 3131000   0.74719431   -7.8233945     714.7141  0.019022519  0.018497878            1 
 3132000   0.75218101   -7.8296405    714.21293  0.019003111   0.01849209            3 
 3133000   0.75339365   -7.8349349    714.38061  0.019001506  0.018486298            4 
 3134000   0.75564328   -7.8314625    715.04696  0.019013161  0.018480518            2 
 3135000   0.75470501   -7.8221643    714.87465  0.019002516  0.018474749            4 
 3136000   0.75131715   -7.8231159    713.78111  0.018967398  0.018468994            3 
 3137000   0.75126899   -7.8308783    713.41776  0.018951699  0.018463245            4 
 3138000   0.77057321   -7.8305488    715.15716  0.018991851  0.018457497            3 
 3139000   0.74793726    -7.827612    713.22296  0.018934453  0.018451733            4 
 3140000   0.75878194   -7.8496915    712.23624  0.018902236  0.018445937            2 
 3141000   0.75039765   -7.8334811     714.6195  0.018959448  0.018440159            3 
 3142000   0.75432447   -7.8499191    714.46415  0.018949293  0.018434384            3 
 3143000   0.73284703   -7.8535501    714.50964   0.01894447  0.018428593            4 
 3144000   0.75184609   -7.8639128    713.77985  0.018919101  0.018422809            4 
 3145000   0.74979095   -7.8251886    713.68894  0.018910677  0.018417029           12 
 3146000   0.75086442   -7.8372945    715.30658  0.018947515  0.018411271            2 
 3147000   0.76722699   -7.8495265    714.15513  0.018911003   0.01840551            2 
 3148000   0.76084561   -7.8180603    714.40108  0.018911507  0.018399749            2 
 3149000    0.7572644   -7.8299127    714.82838  0.018916809   0.01839401            6 
 3150000   0.74722732   -7.8551365    713.67902  0.018880397  0.018388263            2 
 3151000    0.7421815   -7.8560442    715.05922  0.018910907  0.018382492            4 
 3152000    0.7585962   -7.8354767    714.55052  0.018891458   0.01837671            2 
 3153000    0.7536107   -7.8287668    714.98165  0.018896862  0.018370935            1 
 3154000    0.7450265   -7.8343863    714.27042  0.018872078  0.018365142            5 
 3155000   0.76475837   -7.8481759    714.23627  0.018865195   0.01835935            4 
 3156000   0.74861007   -7.8244263    714.71681  0.018871906  0.018353567            1 
 3157000   0.73989418   -7.8052973    716.74418  0.018919443  0.018347825            1 
 3158000   0.76401042   -7.8366472    714.34883  0.018850244  0.018342068            4 
 3159000   0.74813395   -7.8305486    715.30689   0.01886955  0.018336298            4 
 3160000   0.75018565   -7.8511558    714.76839  0.018849377  0.018330541            3 
 3161000   0.73636811    -7.835541    714.71513   0.01884201  0.018324777            3 
 3162000    0.7609508   -7.8112827    714.85931  0.018839851  0.018319021            2 
 3163000   0.75197189   -7.8371986    714.74655  0.018830924   0.01831325            3 
 3164000   0.76149773   -7.8172645     713.8903   0.01880242  0.018307498            3 
 3165000    0.7443744   -7.8339931    714.46208  0.018811534  0.018301773            2 
 3166000   0.73174343   -7.8694876    714.72277  0.018812454  0.018296023            2 
 3167000   0.73982208    -7.822684    714.22612  0.018793446  0.018290279            3 
 3168000   0.75863469   -7.8360509    714.85908  0.018804163  0.018284553            1 
 3169000   0.77452494   -7.8459446    715.02178  0.018802508  0.018278807            4 
 3170000   0.73181522   -7.8282195    716.49904  0.018835411  0.018273078            4 
 3171000   0.74155786   -7.8386225    715.69002   0.01880821   0.01826736            3 
 3172000   0.73971885   -7.8458546    715.38953  0.018794387  0.018261628            3 
 3173000   0.72991757   -7.8399302    715.08344  0.018780424    0.0182559            3 
 3174000   0.75715981   -7.8038346    715.98935  0.018798292   0.01825016            2 
 3175000   0.74993736   -7.8570173    715.62168  0.018782721  0.018244427            2 
 3176000   0.73552833   -7.8532136    715.54364   0.01877476  0.018238673            5 
 3177000   0.72087765   -7.8343255    715.19535  0.018759714   0.01823293            2 
 3178000   0.75218025   -7.8321124    715.30776  0.018756759  0.018227196            2 
 3179000   0.73304813   -7.8539977    715.37083  0.018752512  0.018221472            3 
 3180000   0.74176935   -7.8173069    715.41706  0.018747826  0.018215731            3 
 3181000   0.75163946   -7.8315426    715.59811  0.018746676  0.018210028            2 
 3182000   0.73816659   -7.8483817    714.72421  0.018717898  0.018204328            3 
 3183000    0.7412162   -7.8525921    715.33599  0.018728034    0.0181986            2 
 3184000   0.74986159    -7.862745    715.87099  0.018736154  0.018192875            3 
 3185000   0.73588082   -7.8583007    713.49756  0.018668173  0.018187142            2 
 3186000   0.73057241   -7.8499335    715.24069  0.018707907  0.018181393            6 
 3187000   0.74151512   -7.8667236    714.79244  0.018690316  0.018175671            4 
 3188000   0.72586666   -7.8677755    716.92064  0.018740084  0.018169941            5 
 3189000   0.73952018   -7.8506721    716.90042  0.018733679  0.018164238            3 
 3190000   0.74173095   -7.8424891    715.24891  0.018684663  0.018158536            2 
 3191000   0.73593715   -7.8319017    714.65383  0.018663267  0.018152855            3 
 3192000    0.7292141   -7.8326456    715.24664  0.018672897  0.018147156            3 
 3193000   0.74357381   -7.8449647    715.28773  0.018668121  0.018141452            2 
 3194000   0.71872353   -7.8584547    716.25207  0.018687437  0.018135735            3 
 3195000   0.72974036    -7.851039    715.18791  0.018653832  0.018130017            2 
 3196000    0.7256005   -7.8760101    715.66889  0.018660536  0.018124295            7 
 3197000   0.73960036   -7.8277727    715.84059  0.018659175  0.018118591            4 
 3198000   0.74434726   -7.8463522    714.64021  0.018622061  0.018112895            2 
 3199000    0.7564729   -7.8439823    715.20107   0.01863085  0.018107199            4 
 3200000   0.74551328     -7.85184    716.49774  0.018658795  0.018101522            2 
 3201000   0.74200749   -7.8398363    715.20587  0.018619334  0.018095856            2 
 3202000   0.74737433   -7.8294293    715.57256  0.018623063  0.018090165            6 
 3203000   0.74085236   -7.8613411    715.08059  0.018604449  0.018084477            2 
 3204000   0.75006166    -7.819648    717.25583  0.018655218  0.018078807            1 
 3205000   0.75354847   -7.8764971    715.93804  0.018615134  0.018073137            3 
 3206000   0.74426687   -7.8586813    715.76043  0.018604711  0.018067456            2 
 3207000   0.73462797   -7.8825676    714.34994  0.018562258  0.018061753            4 
 3208000   0.75150274    -7.844671    717.73754   0.01864447  0.018056061            3 
 3209000   0.73011063   -7.8423568     717.2289  0.018625452  0.018050388            4 
 3210000   0.73209511    -7.845787    716.81995  0.018609033   0.01804472            3 
 3211000   0.72852751   -7.8382001    717.35823  0.018617207   0.01803907            5 
 3212000   0.74345266   -7.8506542    716.31275  0.018584287  0.018033424            2 
 3213000   0.74448876    -7.862611     717.1882  0.018601209  0.018027748            2 
 3214000   0.74513105   -7.8119696    715.23467   0.01854477  0.018022077            3 
 3215000   0.74095116   -7.8753741    717.01985  0.018585273   0.01801638            4 
 3216000   0.74531224   -7.8639674    714.80189  0.018522023  0.018010693            2 
 3217000   0.74837322   -7.8545799    716.24195  0.018553568  0.018004975            1 
 3218000   0.72581659   -7.8420779    715.68227  0.018533309  0.017999272            2 
 3219000   0.73564584   -7.8620212    716.80012  0.018556491  0.017993562            2 
 3220000   0.72790418   -7.8686759    715.96359  0.018529078  0.017987864            2 
 3221000   0.72925268   -7.8497916    716.03263  0.018525112  0.017982151            4 
 3222000   0.73330596   -7.8448342    716.93644  0.018542738  0.017976465            4 
 3223000     0.731574   -7.8856714    714.69618  0.018479061  0.017970788            2 
 3224000   0.73560892   -7.8774509    714.81514  0.018476405  0.017965089            4 
 3225000   0.72285782   -7.8648809    715.88566  0.018498337  0.017959409            4 
 3226000   0.74494543   -7.8698172    717.07894  0.018523428  0.017953728            4 
 3227000   0.74581578   -7.8938942     714.6827  0.018455808  0.017948036            4 
 3228000   0.71472997   -7.8719558    717.17041  0.018514313  0.017942349            2 
 3229000   0.74523101   -7.8703037    715.75629  0.018472083  0.017936662            3 
 3230000    0.7411679   -7.8536203    716.66999  0.018489938  0.017930976            3 
 3231000   0.75523477   -7.8605325    716.74822  0.018486233  0.017925322            3 
 3232000   0.73742954   -7.8689861    717.23205  0.018492988  0.017919641            4 
 3233000   0.72620738     -7.87722    715.92124  0.018453481  0.017913966            3 
 3234000   0.75034158   -7.8682198    716.41565  0.018460515  0.017908292            5 
 3235000   0.73870457   -7.8813332    717.06738  0.018471597  0.017902622            2 
 3236000   0.74477456   -7.8467136    717.15643  0.018468182  0.017896952            3 
 3237000   0.71925586   -7.8636978    715.95446  0.018431533  0.017891292            2 
 3238000   0.73401318    -7.870672    716.76969  0.018446821  0.017885641            4 
 3239000   0.74154629   -7.8613762    717.73496  0.018465961  0.017879997            4 
 3240000   0.73538019   -7.8487198    717.56987  0.018456015  0.017874371            3 
 3241000   0.72210562   -7.8798669    716.16318  0.018414151  0.017868716            3 
 3242000   0.74500953   -7.8762318    716.17809  0.018408855   0.01786304            3 
 3243000   0.73711839   -7.8679986    717.42961  0.018435338  0.017857377            2 
 3244000    0.7389277    -7.843268    716.96433  0.018417703  0.017851733            3 
 3245000   0.72183471   -7.8576338    716.82696  0.018408499  0.017846087            1 
 3246000   0.74784609   -7.8987747    716.65956  0.018398531  0.017840432            4 
 3247000   0.73546997   -7.8806557    716.66484     0.018393  0.017834763            2 
 3248000    0.7340471   -7.8892548    717.66826  0.018413081  0.017829086            4 
 3249000   0.73550308   -7.8822879    715.33726  0.018347626  0.017823424            2 
 3250000   0.73220725   -7.8872739     717.1086    0.0183874  0.017817775            3 
 3251000   0.73707054   -7.9010479    715.76035  0.018347184   0.01781212            1 
 3252000   0.72589913   -7.8763438    717.70008  0.018391248  0.017806466            4 
 3253000   0.73311272   -7.8847162    718.81378  0.018414125  0.017800836            2 
 3254000   0.72725056   -7.8699755    717.29191  0.018369492  0.017795221            2 
 3255000   0.74792617    -7.879315    718.81655  0.018402882  0.017789592            2 
 3256000   0.73403697    -7.853227    717.80804  0.018371418  0.017783989            2 
 3257000    0.7406102   -7.8841759    716.54812  0.018333541  0.017778373            3 
 3258000   0.72724383   -7.8688296    718.23269  0.018371002  0.017772753            2 
 3259000   0.72924094   -7.8796693     716.6236   0.01832422  0.017767143            3 
 3260000    0.7393587   -7.8860714    717.89751  0.018351163  0.017761502            2 
 3261000   0.73029427   -7.8842813    716.84718  0.018318695   0.01775586            2 
 3262000   0.75729456   -7.8937874    716.67168  0.018308596  0.017750233            5 
 3263000   0.73024527   -7.8858764    717.31648  0.018319452    0.0177446            1 
 3264000   0.73382329   -7.8608286    717.99129  0.018331068  0.017738975            8 
 3265000   0.72654615   -7.8850323    718.18322  0.018330353  0.017733364            3 
 3266000   0.72595908   -7.8614969    718.39299  0.018330093   0.01772775            3 
 3267000   0.74839137   -7.8535568    718.48591  0.018326852  0.017722141            4 
 3268000   0.71436954   -7.8851234    717.73576  0.018302115  0.017716529            3 
 3269000   0.73890014   -7.8713148    717.51994  0.018291015  0.017710932            2 
 3270000   0.73073905   -7.8630352    716.51103   0.01825971  0.017705329            4 
 3271000   0.72697704   -7.8812474    718.65432  0.018308731  0.017699736            2 
 3272000   0.72773584    -7.879071    717.90745  0.018284114  0.017694157            3 
 3273000   0.73754638   -7.8775064    718.00903  0.018281114  0.017688564            5 
 3274000   0.71818659   -7.8548821    719.69985  0.018318567  0.017682982            4 
 3275000   0.73798979   -7.8879533    716.84282  0.018240275  0.017677403            3 
 3276000    0.7215614   -7.8687349    717.95931  0.018263108  0.017671811            2 
 3277000   0.74877239   -7.8796848    717.10325  0.018235766  0.017666224            6 
 3278000   0.74438718    -7.865303    717.51472  0.018240663  0.017660645            3 
 3279000   0.72769432   -7.8766566    718.60375  0.018262777  0.017655085            1 
 3280000   0.73010113   -7.8807216      717.061  0.018218013  0.017649528            5 
 3281000   0.72560534   -7.8575196    718.71375  0.018254439  0.017643968            4 
 3282000   0.70990297   -7.8767855    718.32861  0.018239097  0.017638389            6 
 3283000   0.73144728   -7.8823757    717.31713  0.018207867  0.017632824            3 
 3284000   0.72102044   -7.8651159    717.83119  0.018215367   0.01762725            4 
 3285000   0.72804928   -7.8603093    718.88537  0.018236565  0.017621702            4 
 3286000   0.72228387   -7.8977065    719.88949  0.018256479  0.017616155            3 
 3287000   0.72373932   -7.8634838    720.46848  0.018265604   0.01761061            3 
 3288000   0.71267192   -7.8836376     719.8062  0.018243263  0.017605071            4 
 3289000   0.72450284   -7.8637906    718.90388  0.018214855  0.017599525            4 
 3290000   0.71843503   -7.9202853     718.0951  0.018188832   0.01759397            3 
 3291000   0.72489554   -7.8988438    717.70853  0.018173517  0.017588391            5 
 3292000    0.7208329   -7.9087308    718.27511  0.018182339  0.017582813            4 
 3293000   0.72132215   -7.8900469    719.11925  0.018198179  0.017577258            5 
 3294000   0.72353798   -7.8685187    719.16796  0.018193887  0.017571716            4 
 3295000   0.74687618   -7.8725213    720.16668  0.018213624  0.017566196            6 
 3296000   0.73797154   -7.8965674    719.12799  0.018181836  0.017560663            4 
 3297000   0.73749423   -7.8777448    718.62909  0.018163712  0.017555151            4 
 3298000   0.70993972   -7.8857571    719.40937   0.01817792  0.017549612            2 
 3299000   0.72881355   -7.8745002    718.80153  0.018157056   0.01754408            4 
 3300000   0.72307388   -7.8896097    718.68749  0.018148674  0.017538539            3 
 3301000   0.72965649   -7.8611103    719.60554  0.018166352  0.017533005            4 
 3302000     0.729183   -7.8824181    718.65728  0.018136919  0.017527466            6 
 3303000   0.71989957    -7.907215    719.72659  0.018158406  0.017521929            6 
 3304000   0.72782729   -7.8982612    717.50843  0.018096964   0.01751637            3 
 3305000   0.72164843   -7.8704438    719.78255  0.018148829  0.017510844            5 
 3306000   0.72729389   -7.9070822    718.01753  0.018098849  0.017505313            4 
 3307000   0.71858625   -7.8887021    718.18881  0.018097692  0.017499771            5 
 3308000   0.73276787   -7.8903576    719.26283  0.018119277  0.017494242            3 
 3309000   0.73177687   -7.8796749    719.97676  0.018131781  0.017488729            3 
 3310000   0.72056543   -7.8886619    721.23063  0.018157871  0.017483207            2 
 3311000   0.71808788   -7.8973318    718.93239  0.018094543  0.017477702            2 
 3312000   0.72480474   -7.8827143    720.27038  0.018122745  0.017472196            3 
 3313000   0.73223082   -7.8598112    720.81767  0.018131041  0.017466691            3 
 3314000   0.71600765   -7.8827507    717.72873  0.018047896   0.01746118            4 
 3315000   0.73066655   -7.8984585    718.82973  0.018070129  0.017455656            9 
 3316000   0.73601408   -7.8897437    719.85489  0.018090442  0.017450131            4 
 3317000   0.70356178   -7.8992934    719.14689  0.018067201  0.017444609            6 
 3318000   0.70451225   -7.8922912    718.89878  0.018055525  0.017439094            5 
 3319000   0.71738948     -7.90925    718.72988  0.018045844  0.017433565            1 
 3320000   0.72323449   -7.8795487     719.4185  0.018057693  0.017428058            3 
 3321000   0.71734721   -7.8971074    719.56227  0.018055863  0.017422537            5 
 3322000   0.71892193    -7.886897     721.1381  0.018089958  0.017417033            4 
 3323000   0.71702861   -7.9009922    718.78282  0.018025449  0.017411532            5 
 3324000   0.71491893   -7.8832453    720.73334  0.018068926  0.017406019            1 
 3325000   0.71258649   -7.8863633    717.04382  0.017971023  0.017400513            4 
 3326000   0.71991554   -7.8799709    720.26425  0.018046308  0.017395025            5 
 3327000   0.73015836   -7.8967383    719.42124  0.018019769  0.017389532            2 
 3328000   0.72573219   -7.9239328    719.02198  0.018004356  0.017384036            3 
 3329000   0.72991171   -7.9153303     718.0893  0.017975601  0.017378524            6 
 3330000   0.71583251   -7.9034087    720.78763  0.018037728     0.017373            4 
 3331000   0.72531595   -7.9116142    720.69675   0.01803004  0.017367473            5 
 3332000   0.70267351   -7.9133497    720.25097   0.01801348  0.017361976            5 
 3333000   0.72454029   -7.9220359    720.67048  0.018018564  0.017356474            3 
 3334000   0.71320949   -7.9123986    719.41732  0.017981837  0.017350974            2 
 3335000   0.70465234   -7.9217056    720.48025  0.018003005  0.017345473            2 
 3336000   0.72031804   -7.9182542    719.89201  0.017982914  0.017339992            7 
 3337000   0.73058445   -7.9068592    719.82669  0.017975894  0.017334474            6 
 3338000   0.71814405   -7.9300951    719.98157  0.017974375  0.017328956            3 
 3339000   0.72719384   -7.9115866     718.4415  0.017930556  0.017323445            3 
 3340000    0.7244883   -7.9476266    719.39989  0.017949099  0.017317952            2 
 3341000   0.70703035   -7.9321546    719.53568  0.017947114  0.017312456            3 
 3342000   0.71215225   -7.9253568    719.91146  0.017951113  0.017306953            2 
 3343000   0.71615766   -7.9283697    720.92073  0.017970903  0.017301454            3 
 3344000    0.7399357   -7.9248073    719.36817  0.017926838  0.017295976            2 
 3345000   0.70530922    -7.914282    718.78955  0.017907064  0.017290495            2 
 3346000   0.71976225   -7.8966261    720.08816  0.017934055   0.01728501            3 
 3347000   0.71590085   -7.9245842    718.97206  0.017900908  0.017279541            1 
 3348000   0.73441029    -7.918303    719.76729  0.017915355  0.017274055            4 
 3349000   0.73160247   -7.9083399    720.32758  0.017923947  0.017268575            5 
 3350000   0.72925682   -7.9127404    720.77714   0.01792978  0.017263097            3 
 3351000   0.74216488   -7.9407719    719.18214  0.017884764  0.017257619            3 
 3352000   0.71725202   -7.9121327    719.88693   0.01789695  0.017252124            3 
 3353000   0.71350613   -7.9364262    719.69495  0.017886841  0.017246639            5 
 3354000   0.72212031   -7.9371613    719.80956  0.017884356  0.017241152            3 
 3355000   0.71772833   -7.9022638    719.39928  0.017868835  0.017235652            5 
 3356000   0.72902106   -7.8950719    721.87968  0.017925101  0.017230183            2 
 3357000   0.71299971   -7.9180595    719.29332  0.017855559  0.017224729            3 
 3358000   0.71642547    -7.955805    718.02938  0.017818875  0.017219258            3 
 3359000   0.70104094   -7.9222055    718.84267  0.017833747  0.017213776            3 
 3360000     0.705292   -7.9420692     720.7586  0.017875957  0.017208298            3 
 3361000   0.69854609   -7.9346346    720.41299  0.017862069  0.017202813            4 
 3362000   0.72540559   -7.9115613    719.52454  0.017834735  0.017197329            3 
 3363000   0.70569322   -7.9482587     721.1879  0.017870649  0.017191863            6 
 3364000    0.7128139   -7.9692492    718.97028  0.017810401  0.017186392            5 
 3365000   0.71606773   -7.9326657    719.66738  0.017822372  0.017180908            3 
 3366000   0.69874368   -7.9372957    720.43963  0.017836196  0.017175459            3 
 3367000   0.70354976   -7.9345984    720.07616  0.017821903  0.017169985            5 
 3368000   0.69737691   -7.9394168    719.99171  0.017814522  0.017164513            3 
 3369000   0.69707848   -7.9423154    719.60675  0.017799712  0.017159041            4 
 3370000   0.72056729   -7.8983556    720.56279  0.017818071  0.017153573            3 
 3371000   0.70169633     -7.90788    720.73829  0.017817124  0.017148104            3 
 3372000   0.70571309   -7.8881214    720.67458  0.017810265  0.017142655            5 
 3373000   0.71214461   -7.9368964    720.21668  0.017793672  0.017137205            3 
 3374000   0.71953682   -7.9213536    718.68309  0.017750521  0.017131754            3 
 3375000   0.70640092   -7.9298832    719.97372  0.017777129  0.017126276            3 
 3376000   0.71453084   -7.9197263    719.79375  0.017767421  0.017120823            3 
 3377000   0.70673564   -7.9282356    720.51656  0.017779996  0.017115375            2 
 3378000   0.71714999   -7.9327067     720.0058  0.017762132  0.017109929            3 
 3379000   0.72414488   -7.9297249    719.81699  0.017752219  0.017104483            6 
 3380000   0.70758625   -7.9196488    720.93418  0.017774511  0.017099048            5 
 3381000   0.71059663   -7.9247864    719.78585  0.017740951  0.017093612            5 
 3382000   0.71445974   -7.9370389    720.59108  0.017755546  0.017088189            3 
 3383000   0.70470478   -7.9217503    719.20335  0.017716114  0.017082744            3 
 3384000   0.71434477   -7.9581475    720.03175  0.017731278  0.017077306            1 
 3385000   0.69779778   -7.9287365     721.4588  0.017761172  0.017071868            4 
 3386000   0.72300903   -7.9301599    719.56928  0.017709423  0.017066432            3 
 3387000   0.69191796   -7.9419596    720.55973  0.017728563  0.017061011            4 
 3388000   0.69455426   -7.9034066    722.84568  0.017779557  0.017055606            2 
 3389000   0.68852197   -7.9202896    719.32009  0.017687619  0.017050186            4 
 3390000   0.70899843   -7.9291501    720.85062  0.017720025  0.017044763            1 
 3391000    0.7015495   -7.9010582    721.20863  0.017723598  0.017039343            7 
 3392000   0.70133679   -7.9374677    721.40078  0.017723093  0.017033935            2 
 3393000   0.69872673   -7.9339961    720.75461  0.017701999   0.01702854            3 
 3394000   0.71128711   -7.8861665    722.52392  0.017740226  0.017023174            2 
 3395000    0.7254199   -7.9333009    721.81057  0.017717491  0.017017804            3 
 3396000   0.71025903   -7.9163036    721.96145  0.017715976  0.017012432            3 
 3397000   0.72915863   -7.9327638    720.43184  0.017673237  0.017007064            5 
 3398000   0.70086395   -7.9359791    722.29997  0.017713851  0.017001697            3 
 3399000   0.71045371   -7.9108691    722.47575  0.017712949  0.016996315            1 
 3400000   0.71282087    -7.929365    722.33839  0.017704372  0.016990941            6 
 3401000   0.69288741   -7.9434672     721.6719  0.017682836  0.016985574            1 
 3402000   0.71895717   -7.9472532    722.33326  0.017693838  0.016980208            3 
 3403000   0.70573471   -7.9353115      721.701  0.017673156  0.016974834            2 
 3404000   0.70418189   -7.9298917    721.87898  0.017672321  0.016969481            4 
 3405000   0.70006677   -7.9308841    722.51484  0.017682693   0.01696412            2 
 3406000   0.71159613   -7.9274033    721.81117  0.017660285  0.016958752            4 
 3407000   0.70241282   -7.9503157     721.3147  0.017642958  0.016953379            5 
 3408000   0.71276807    -7.963656     721.7621  0.017648721  0.016948006            2 
 3409000   0.70237412   -7.9616331      721.785  0.017644104  0.016942619            2 
 3410000   0.72091006   -7.9443295    721.01962  0.017620225  0.016937227            4 
 3411000   0.71394704    -7.971251    720.66427  0.017606378  0.016931846            5 
 3412000   0.70007826   -7.9459663    721.53639  0.017622518  0.016926455            3 
 3413000   0.69177097   -7.9706985    719.64067  0.017571068  0.016921058            2 
 3414000   0.70712049   -7.9327058    720.80584  0.017594362  0.016915671            4 
 3415000   0.69980435    -7.959308    720.50692  0.017581916   0.01691028            3 
 3416000    0.7077968   -7.9569837    720.46891  0.017575842  0.016904918            3 
 3417000     0.713116   -7.9415405    722.70577   0.01762525  0.016899553            4 
 3418000   0.69921323   -7.9499733    721.68936  0.017595313  0.016894187            4 
 3419000   0.70800643   -7.9491452    720.99594  0.017573266  0.016888822            4 
 3420000   0.70196924    -7.954448    721.34223  0.017576565  0.016883457            1 
 3421000   0.69262033   -7.9708985    720.50384  0.017551005  0.016878089            2 
 3422000   0.69648962   -7.9173488    722.11754  0.017585173  0.016872721            3 
 3423000   0.71434316   -7.9209491    720.96208  0.017551906  0.016867369            3 
 3424000   0.69467062   -7.9507503    722.07246  0.017573804  0.016862033            2 
 3425000   0.69808951   -7.9628497      721.404  0.017552409  0.016856684            5 
 3426000   0.70752734    -7.930611    722.85859  0.017582667   0.01685132            3 
 3427000   0.71854127   -7.9653891    720.84244   0.01752851  0.016845968            5 
 3428000   0.70650463   -7.9839369    721.98972  0.017551286  0.016840635            3 
 3429000   0.71230507   -7.9386433    722.52878  0.017559269  0.016835297            7 
 3430000   0.72462487   -7.9404776    722.10547  0.017543865  0.016829968            4 
 3431000    0.7151962   -7.9390449    722.91506  0.017558415  0.016824626            3 
 3432000   0.70595945   -7.9542929    720.20728  0.017487551  0.016819279            2 
 3433000    0.6996333   -7.9725459     720.2178  0.017482712  0.016813933            3 
 3434000   0.69936319   -7.9297031    723.75289  0.017563407  0.016808602            5 
 3435000   0.69717264   -7.9345165    722.43792  0.017526393  0.016803295            5 
 3436000    0.6918921   -7.9653143    722.22328  0.017516087   0.01679796            2 
 3437000   0.69813013   -7.9556248    721.18306  0.017485769  0.016792647            2 
 3438000   0.71429967   -7.9493271     722.8411  0.017520872   0.01678732            2 
 3439000   0.68027002   -7.9449123    722.17493  0.017499635  0.016781998            2 
 3440000   0.69074049   -7.9405025     722.0493  0.017491504  0.016776682            2 
 3441000   0.69750239    -7.960901    720.63543   0.01745218  0.016771368            1 
 3442000   0.70453502   -7.9324848     719.5426  0.017420652  0.016766043            3 
 3443000   0.69003079   -7.9628892    721.98222   0.01747464  0.016760714            6 
 3444000   0.69085584    -7.989924    721.36495   0.01745463  0.016755377            2 
 3445000   0.71382458   -7.9536749    722.57095  0.017478736  0.016750028            3 
 3446000     0.683277   -7.9556626    722.22888  0.017465392  0.016744713            6 
 3447000   0.69821526   -7.9671291     721.5319  0.017443475  0.016739396            4 
 3448000     0.699183   -7.9711307    720.35686  0.017410017  0.016734082            3 
 3449000   0.69659281   -7.9599421    722.01861   0.01744512  0.016728764            3 
 3450000   0.70174382   -7.9513948    721.31419  0.017423048  0.016723447            7 
 3451000   0.70800295   -7.9544687    722.50056  0.017446647  0.016718143            2 
 3452000   0.68552069   -7.9516723    722.31708  0.017437164   0.01671285            3 
 3453000   0.69902945   -7.9408227    722.65942  0.017440376  0.016707543            4 
 3454000   0.69760978   -7.9656213    723.11525  0.017446324  0.016702228            3 
 3455000   0.70065169   -7.9724644    722.15132  0.017418025  0.016696913            2 
 3456000   0.69401857    -7.954563    722.21784  0.017414589  0.016691612            3 
 3457000   0.69742895   -7.9710671    720.70387  0.017373056  0.016686319            6 
 3458000   0.70742889   -7.9563842    722.61499  0.017414088  0.016681025            8 
 3459000   0.69857855   -7.9648223    722.30159  0.017401503  0.016675746            2 
 3460000   0.69343714   -7.9605185    723.06561  0.017414875  0.016670475            6 
 3461000    0.6983044   -7.9264693    723.85642  0.017428884  0.016665209            3 
 3462000   0.70304661   -7.9920948    722.06683  0.017380773  0.016659949            3 
 3463000   0.66682605   -7.9563928     722.4406  0.017384748  0.016654675            2 
 3464000   0.69405181   -7.9708075    721.79576  0.017364217  0.016649394            3 
 3465000   0.70633128   -7.9801149    722.15907  0.017367943  0.016644104            1 
 3466000   0.69540236   -7.9660729    723.76533  0.017401552  0.016638809            1 
 3467000    0.7121752   -7.9463681    723.36125   0.01738682  0.016633523            2 
 3468000    0.6871529   -7.9618182    724.32117  0.017404873  0.016628244            2 
 3469000   0.70266358   -7.9642515     723.4931  0.017379963  0.016622969            3 
 3470000    0.6880708   -7.9594419    721.85948  0.017335722  0.016617695            4 
 3471000   0.70047825   -7.9569132    722.00925  0.017334324  0.016612408            2 
 3472000   0.69248406   -7.9478676      720.871  0.017302011  0.016607128            4 
 3473000   0.70835625   -7.9715541    721.23376  0.017305734  0.016601839            7 
 3474000   0.70351302    -7.964059    721.47839   0.01730662  0.016596552            2 
 3475000   0.71184709    -7.964321    723.23241  0.017343703   0.01659126            2 
 3476000   0.67676094   -7.9634222    722.69783  0.017325897  0.016585977            2 
 3477000   0.69464603   -7.9724081    721.75314  0.017298273  0.016580685            4 
 3478000   0.69607179   -7.9735037    721.97935  0.017298719  0.016575412            1 
 3479000   0.68986192     -7.95015    722.05529  0.017295566   0.01657013            2 
 3480000   0.69996516   -7.9681182    722.49462  0.017301116  0.016564853            8 
 3481000   0.69673299   -7.9606242    721.26031  0.017266597  0.016559576            4 
 3482000   0.69967699     -7.96678    723.34145  0.017311446  0.016554301            3 
 3483000   0.69634462   -7.9496932    721.36379  0.017259159  0.016549031            5 
 3484000    0.6913158   -7.9530469    722.72302  0.017286716   0.01654377            2 
 3485000   0.69388061   -7.9773904    723.13398  0.017291583  0.016538507            2 
 3486000   0.69531892   -7.9557359    721.12346   0.01723856  0.016533241            3 
 3487000   0.70625104   -7.9754774    721.47358  0.017241984  0.016527989            1 
 3488000   0.68455657   -7.9489933    722.23285  0.017255181  0.016522729            2 
 3489000   0.69882465   -7.9516512    723.23944  0.017274277  0.016517469            2 
 3490000   0.68443316   -7.9773635    721.87908  0.017236845  0.016512192            2 
 3491000   0.69550222   -7.9769452    723.02466  0.017259254  0.016506907            4 
 3492000   0.67729388   -7.9559999    721.66891  0.017221958  0.016501632            2 
 3493000   0.69060559   -7.9724534    721.96881  0.017224182  0.016496349            2 
 3494000   0.69148591   -7.9929578    722.74843  0.017237846  0.016491055            2 
 3495000   0.69105623   -7.9583147    721.13543  0.017194455  0.016485782            3 
 3496000   0.70340956   -7.9825553    721.83513  0.017206215  0.016480501            3 
 3497000   0.67822712    -7.984117    721.19902  0.017186136  0.016475249            3 
 3498000   0.69438629   -7.9805645    723.09189  0.017226317  0.016469987            4 
 3499000   0.68025632   -7.9498065    723.66756  0.017235104   0.01646476            2 
 3500000   0.68849298   -7.9563291    723.56093  0.017227641  0.016459531            3 
 3501000   0.68916287   -7.9750412    721.57486  0.017175447    0.0164543            3 
 3502000   0.70043241   -7.9750187    721.65959  0.017172558  0.016449059            2 
 3503000     0.681997   -7.9756137    722.06154  0.017177218  0.016443832            1 
 3504000   0.68811429   -7.9789985    722.35904  0.017179391  0.016438593            2 
 3505000   0.69788076   -7.9752676    722.67468  0.017181994  0.016433346            3 
 3506000   0.69649643   -7.9883266    723.26141  0.017191039  0.016428096            3 
 3507000   0.69782266   -7.9899707    722.33915  0.017164223  0.016422838            2 
 3508000   0.68239358   -7.9748394    722.26065  0.017157465  0.016417583            2 
 3509000   0.68252637   -7.9848146    723.05777  0.017171506  0.016412337            3 
 3510000   0.69175362   -7.9672694    722.24803  0.017147389  0.016407095            4 
 3511000   0.67903615   -7.9749529    721.94954  0.017135421  0.016401859            3 
 3512000   0.68933008   -7.9514142    722.10488  0.017134228  0.016396629            2 
 3513000   0.67795857   -8.0091711    723.28388  0.017157318  0.016391388            4 
 3514000   0.69596266   -7.9752829    722.56891   0.01713548  0.016386167            5 
 3515000   0.70588685   -7.9850546     722.9883  0.017140548   0.01638093           11 
 3516000   0.67934177   -7.9830524      721.952  0.017111111  0.016375697            5 
 3517000   0.69058599   -7.9881062    721.08604  0.017085727  0.016370458            4 
 3518000   0.68204011   -7.9875078     721.2571  0.017084923  0.016365221            1 
 3519000   0.68876267   -7.9864852    721.05315  0.017075238  0.016359995            2 
 3520000   0.68170151   -7.9999245    722.52273  0.017105178  0.016354755            4 
 3521000   0.67996484   -7.9909816    722.72121  0.017105018  0.016349532            1 
 3522000   0.69628262   -7.9757713    721.95078  0.017081932  0.016344313            5 
 3523000   0.69655298   -7.9818329    723.05316  0.017103159  0.016339096            2 
 3524000   0.68691062   -8.0080305    721.89648  0.017070954  0.016333874            2 
 3525000    0.6816331   -7.9930366    722.29097  0.017075437  0.016328642            2 
 3526000   0.69243585   -7.9800806    722.91339  0.017085304  0.016323407            3 
 3527000   0.69861584   -7.9712418     722.7736  0.017077157  0.016318184            2 
 3528000   0.68092857   -7.9740451     724.0382  0.017102187  0.016312972            6 
 3529000   0.66173794   -7.9867307     724.4803  0.017107781  0.016307756            3 
 3530000    0.6862883   -7.9919057    723.29821  0.017075029  0.016302551            2 
 3531000   0.70023529   -7.9947318    721.93005  0.017037903  0.016297328            1 
 3532000   0.71021215   -7.9979143    722.48081  0.017046074  0.016292112            3 
 3533000   0.69737686   -8.0061243    721.89368  0.017027401  0.016286894            2 
 3534000   0.69315463   -7.9940605    722.49745   0.01703682  0.016281689            7 
 3535000    0.6721868   -8.0080489     722.2679  0.017026589  0.016276466            7 
 3536000   0.68264808   -7.9944433     722.1499  0.017018993   0.01627126            3 
 3537000    0.6907915    -7.982493    723.41378  0.017043959  0.016266067            5 
 3538000   0.68668045   -7.9985786    723.14166  0.017032732   0.01626087            6 
 3539000   0.67547604    -7.990803    722.30384  0.017008191  0.016255662            3 
 3540000   0.69779769   -8.0040546    722.15631  0.016999913  0.016250452            2 
 3541000   0.67821621   -7.9851593    721.67922  0.016983884  0.016245231            2 
 3542000   0.68786019   -8.0058879    721.82371  0.016982489  0.016240008            3 
 3543000   0.66872781   -8.0054037    722.39558  0.016991146  0.016234771            3 
 3544000   0.68547767   -7.9777172     722.5284  0.016989475  0.016229555            3 
 3545000   0.69617264   -7.9920478    722.35334  0.016980567  0.016224338            2 
 3546000   0.67114916   -7.9812508    722.90396  0.016988719  0.016219128            2 
 3547000     0.684667   -8.0071272    722.01923  0.016963143  0.016213916            3 
 3548000   0.68832018   -7.9818212    721.55335   0.01694742  0.016208707            2 
 3549000    0.6827822     -8.00641    721.77971   0.01694796  0.016203486            3 
 3550000   0.67334127   -8.0080558    721.36609  0.016933476  0.016198276            5 
 3551000   0.67653782   -7.9831546    723.04364  0.016968076  0.016193078            5 
 3552000   0.68745048   -8.0053712    721.17497  0.016919458  0.016187873            3 
 3553000   0.68261238   -8.0110928    721.99701  0.016933976   0.01618266            2 
 3554000   0.67914286   -7.9796105    721.88712  0.016926635  0.016177463            6 
 3555000   0.66687563   -8.0000785    722.37534  0.016933318  0.016172273            4 
 3556000   0.67960057   -8.0056137     723.1135  0.016945854   0.01616708            4 
 3557000   0.68772519    -7.992593    723.92391  0.016960077  0.016161882            4 
 3558000    0.6764027   -8.0083201    722.00597  0.016910389  0.016156701            4 
 3559000   0.68893483    -7.990703    720.51454  0.016870716  0.016151516            2 
 3560000   0.69111361   -7.9939639    723.35335  0.016932429  0.016146342            6 
 3561000   0.68945451   -7.9921254    722.50267  0.016907766   0.01614116            3 
 3562000   0.69459657   -7.9991033    722.62324   0.01690584  0.016135973            6 
 3563000   0.67846468   -7.9856126     722.7095  0.016903113  0.016130783            4 
 3564000   0.68634246   -8.0081095    722.49384  0.016893328  0.016125598            6 
 3565000   0.68398291    -7.991476    722.34622  0.016885138   0.01612041            3 
 3566000   0.68576177   -8.0028225    723.47784  0.016906848   0.01611522            2 
 3567000   0.68772496    -7.991305    720.15001  0.016824363   0.01611003            4 
 3568000   0.68018092   -7.9690607    722.46949   0.01687382  0.016104854            2 
 3569000   0.66893821   -7.9816794    722.34476   0.01686618  0.016099667            4 
 3570000   0.68382133   -8.0135657    722.48273  0.016864676  0.016094499            2 
 3571000   0.68574914   -7.9779115    722.47954  0.016859879   0.01608933            3 
 3572000   0.68959648   -8.0003636    722.96787  0.016866552  0.016084164            3 
 3573000   0.67949086   -8.0070625    722.92303  0.016860785  0.016079006            4 
 3574000   0.66942883   -7.9837316    723.18214  0.016862109  0.016073855            1 
 3575000   0.66942768   -8.0269715     721.7367  0.016823699   0.01606868            3 
 3576000   0.69423081   -7.9849541    722.24227  0.016830776  0.016063505            3 
 3577000   0.68620857    -8.010654    720.88324   0.01679441  0.016058327            2 
 3578000   0.68570437   -7.9820841    722.18059  0.016819932  0.016053155            2 
 3579000   0.68412137   -8.0014616    721.33001  0.016795427  0.016047982            3 
 3580000   0.68855164   -7.9899876    723.39911  0.016838899  0.016042797            3 
 3581000   0.67490408   -8.0055317    723.30987   0.01683212  0.016037617            3 
 3582000   0.66411855   -8.0109638    721.56444  0.016786815  0.016032431            3 
 3583000    0.6683656   -8.0112085    722.27011  0.016798542   0.01602725            3 
 3584000   0.67706935   -7.9863797    722.40363  0.016796959  0.016022079            2 
 3585000   0.68587067   -8.0111004    723.58612  0.016819761  0.016016916            2 
 3586000   0.68844112   -8.0250903    722.11799  0.016780953  0.016011734            4 
 3587000   0.69050652   -7.9978044    722.09864  0.016775826  0.016006551            6 
 3588000   0.67751991   -8.0178519    721.67986  0.016761424   0.01600138            4 
 3589000    0.6821471   -8.0364524    721.68126  0.016756786  0.015996193            3 
 3590000   0.68137781   -8.0181507    721.48313  0.016747519  0.015991011            3 
 3591000   0.67311545   -8.0338754    720.96518  0.016730836  0.015985832            3 
 3592000   0.68237798   -8.0202652    721.98963  0.016749945  0.015980654            6 
 3593000   0.67241397   -8.0139914    721.09488  0.016724531  0.015975489            2 
 3594000   0.68401852   -8.0283537    720.93361  0.016716138  0.015970315            4 
 3595000   0.68193741   -8.0206006    723.31391  0.016766665  0.015965133            6 
 3596000    0.6743723    -8.008506    721.31308  0.016715635  0.015959954            6 
 3597000   0.66345856   -8.0135773    721.84877  0.016723398  0.015954775            4 
 3598000   0.66531031   -8.0274164    723.32791  0.016753009  0.015949616            2 
 3599000   0.66232561   -7.9922225    722.20213  0.016722287  0.015944462            3 
 3600000   0.67417014   -7.9859287    721.49759  0.016701333  0.015939311            4 
 3601000   0.67730568   -8.0099051    721.44697  0.016695524  0.015934161            4 
 3602000   0.68154362   -8.0204185    722.39492   0.01671282   0.01592901            3 
 3603000   0.69550323   -7.9945801    721.84509  0.016695464  0.015923864            4 
 3604000   0.67854827   -8.0165807    721.37943  0.016680065  0.015918714            3 
 3605000    0.6731343   -8.0083389    722.18077  0.016693961  0.015913565            4 
 3606000   0.68874763   -8.0193266    722.06443  0.016686643  0.015908425            2 
 3607000    0.6877926   -8.0111429     721.3877  0.016666383  0.015903264            3 
 3608000   0.66646591   -7.9995507    722.19134  0.016680325  0.015898106            3 
 3609000   0.67131063   -8.0132282    721.81564  0.016667028  0.015892951            7 
 3610000   0.67267207   -8.0206384    722.90232  0.016687496  0.015887795            3 
 3611000   0.66333978   -7.9854373    721.44485   0.01664924  0.015882638            2 
 3612000    0.6760516   -8.0179758    721.30018  0.016641292   0.01587749            4 
 3613000   0.66271496   -8.0091645    722.11976   0.01665559  0.015872355            1 
 3614000   0.68865158   -7.9951745    721.72521  0.016641884  0.015867228            1 
 3615000    0.6728135   -8.0142072    722.98237   0.01666626    0.0158621            5 
 3616000   0.65643678   -7.9789522    723.52213   0.01667409  0.015856991            3 
 3617000   0.66845863   -7.9848611    724.01782  0.016680901  0.015851871            3 
 3618000   0.65555647   -8.0039647     722.5754  0.016643067  0.015846752            3 
 3619000   0.66755284   -8.0012222    721.98661   0.01662491  0.015841646            1 
 3620000   0.68305817   -8.0135052     721.9256  0.016618914  0.015836524            5 
 3621000   0.68996037    -7.991622    722.42719  0.016625867  0.015831393            4 
 3622000   0.66784204   -8.0187779    722.61074    0.0166255  0.015826264            3 
 3623000   0.67295947   -8.0103262    723.79482  0.016648147   0.01582114            3 
 3624000   0.67159752   -8.0286422    722.89044  0.016622757   0.01581602            3 
 3625000    0.6846923   -8.0244188    722.27461  0.016604014  0.015810893            3 
 3626000   0.68020192   -8.0232962    721.07863  0.016571949  0.015805764            2 
 3627000     0.671813   -8.0070922    723.76942  0.016629203   0.01580065            4 
 3628000   0.66737841   -8.0065704    723.22374  0.016612085  0.015795532            3 
 3629000   0.66976773   -8.0079441    722.90705  0.016600235  0.015790417            2 
 3630000   0.66841083   -8.0260827     722.0658   0.01657635  0.015785308            3 
 3631000   0.67351211   -8.0077901    722.07224  0.016571932  0.015780188            4 
 3632000   0.68656667   -8.0243675     721.3075  0.016549823  0.015775071            2 
 3633000   0.66375298   -8.0061478    722.08219  0.016563038  0.015769963            3 
 3634000   0.67429973   -7.9924895    723.15291  0.016583033   0.01576487            2 
 3635000   0.68241168    -8.001943    723.12322   0.01657779   0.01575977            2 
 3636000   0.65910293   -8.0223602    723.15195   0.01657389  0.015754671            3 
 3637000   0.67873996   -8.0128871    722.29344  0.016549662  0.015749571            3 
 3638000   0.66631655   -8.0165735    723.55818  0.016574083  0.015744472            3 
 3639000   0.66206429   -8.0188966    722.04304  0.016534832  0.015739377            6 
 3640000   0.66568011   -7.9931551    722.54064  0.016541681  0.015734283            4 
 3641000   0.67023504   -8.0009621    724.35712  0.016578713  0.015729199            2 
 3642000   0.66898093   -8.0400423    721.16001  0.016501007  0.015724107            3 
 3643000    0.6675129   -8.0118468    722.31456  0.016522888  0.015719021            5 
 3644000   0.66785993   -7.9943433    722.39322  0.016520152  0.015713941            6 
 3645000   0.66103468   -8.0111834    722.94745  0.016528291  0.015708852            3 
 3646000   0.65121146   -8.0279901    722.62192  0.016516317  0.015703756            3 
 3647000    0.6610579   -8.0367734    722.49494  0.016508887  0.015698655            3 
 3648000   0.66798566   -8.0114103    722.89006  0.016513388  0.015693569            4 
 3649000   0.67634484   -8.0444121    722.52149  0.016500445  0.015688489            3 
 3650000   0.67293312   -8.0348597     723.7202  0.016523292  0.015683415            4 
 3651000   0.66167121   -8.0305247     722.1323  0.016482523  0.015678327            3 
 3652000   0.66767647   -8.0235536    722.04057  0.016475917  0.015673237            3 
 3653000   0.66562377   -8.0526981    721.16632  0.016451463  0.015668153            5 
 3654000   0.67134429   -8.0555205    721.64177  0.016457804  0.015663056            2 
 3655000   0.66817944   -8.0365206    721.06001  0.016440037  0.015657969            4 
 3656000   0.66901006   -8.0280541    722.53066  0.016469061  0.015652878            2 
 3657000   0.67113649   -8.0341554    721.81298  0.016448204  0.015647811            8 
 3658000   0.65753861   -8.0507423    723.38368   0.01647949  0.015642735            2 
 3659000   0.67016192    -8.035586    722.66337  0.016458581  0.015637655            7 
 3660000   0.66890472   -8.0285119    721.36812  0.016424593  0.015632579            3 
 3661000   0.65306067   -8.0355977     721.2905   0.01641834   0.01562751            3 
 3662000   0.67310229   -8.0487748     721.9708  0.016429337  0.015622442            6 
 3663000   0.66903544   -8.0287036    720.79587  0.016398123  0.015617364            4 
 3664000   0.66135222   -8.0402429    721.91544   0.01641911   0.01561231            2 
 3665000   0.65366485   -8.0232408    723.50088   0.01645068  0.015607256            5 
 3666000   0.66775097   -8.0292018    723.60295  0.016448512  0.015602207            2 
 3667000   0.66390203   -8.0243059      723.338  0.016438006  0.015597149            3 
 3668000   0.67649759   -8.0323637    721.64348  0.016395026  0.015592086            7 
 3669000   0.66378493   -8.0345166     722.1386  0.016401803  0.015587046            3 
 3670000   0.66180845   -7.9971379    722.64193  0.016408763  0.015582008            4 
 3671000   0.66696469   -8.0147473    723.38019  0.016421052  0.015576978            6 
 3672000   0.66540408   -8.0367697    722.33867  0.016392944  0.015571948            4 
 3673000    0.6643425   -8.0327117    723.68243  0.016418968  0.015566913            5 
 3674000   0.65197879   -8.0257217    723.99502  0.016421589  0.015561865            3 
 3675000   0.65478797   -8.0339336    722.43944  0.016381847  0.015556827            3 
 3676000   0.65578576   -8.0411465    722.49478  0.016378645  0.015551781            7 
 3677000   0.66646009   -8.0302874    724.48051  0.016419194  0.015546739            4 
 3678000   0.66621688   -8.0387021    721.77734  0.016353483  0.015541706            2 
 3679000   0.66772511   -8.0170226    722.75588  0.016371203  0.015536662            4 
 3680000   0.67683723   -8.0181988    721.56608  0.016339812  0.015531625            3 
 3681000   0.65704053   -8.0307679    723.33848  0.016375498  0.015526584            2 
 3682000   0.65372122   -8.0210034    723.98723  0.016385733  0.015521547            2 
 3683000   0.66945292   -8.0211137    722.12759  0.016339207  0.015516505            3 
 3684000   0.65279212   -8.0546319     723.1331  0.016357517  0.015511469            2 
 3685000   0.65574037    -8.010935    721.17153  0.016308718  0.015506427            4 
 3686000   0.66307515   -8.0300987    722.31223  0.016330083  0.015501392            5 
 3687000   0.66320625   -8.0345106    721.45464  0.016306271  0.015496346            3 
 3688000   0.65478221   -8.0269806    720.90632   0.01628946  0.015491307            6 
 3689000    0.6553325   -8.0386434    722.84066   0.01632874   0.01548626            5 
 3690000   0.65988226   -8.0661896     722.8234  0.016323925  0.015481229            7 
 3691000    0.6546703   -8.0711721    721.61517  0.016292224  0.015476186            3 
 3692000   0.65742246   -8.0330732    722.17358  0.016300415  0.015471153            4 
 3693000   0.68592861   -8.0625366    720.86535  0.016266481  0.015466117            4 
 3694000   0.65786176   -8.0494967    722.57686  0.016300687  0.015461091            3 
 3695000   0.65563768    -8.048344    722.54675  0.016295597  0.015456044            2 
 3696000   0.63408745   -8.0594769    721.17241  0.016260201  0.015450992            3 
 3697000   0.65753048   -8.0408454    722.76377  0.016291673  0.015445962            3 
 3698000    0.6639948   -8.0585543      721.938  0.016268659  0.015440938            4 
 3699000   0.67236128   -8.0381366    723.43962   0.01629809  0.015435924            1 
 3700000   0.65620078    -8.036274    722.88568  0.016281209  0.015430918            2 
 3701000   0.66280879   -8.0538646    722.63046  0.016271063  0.015425899            4 
 3702000   0.67241143   -8.0071048    722.33478  0.016260012  0.015420884            2 
 3703000   0.66520001   -8.0526356    722.79261  0.016265924   0.01541587            3 
 3704000    0.6631595    -8.027184     721.8287  0.016239847  0.015410836            2 
 3705000   0.66599739   -8.0642619    720.77905  0.016211854  0.015405813            3 
 3706000   0.67261692   -8.0526408    722.11945   0.01623762  0.015400784            2 
 3707000   0.66049408   -8.0345905    723.35921   0.01626111  0.015395763            2 
 3708000    0.6715786   -8.0310482    722.38519  0.016234834  0.015390752            2 
 3709000   0.67020048   -8.0441732    721.77227  0.016216686  0.015385752            2 
 3710000   0.66914873   -8.0309873    722.04624  0.016218469  0.015380765            2 
 3711000   0.64835515   -8.0497531    724.54553  0.016270222  0.015375795            5 
 3712000    0.6609647   -8.0465894    723.06259  0.016232547   0.01537081            3 
 3713000   0.65185471   -8.0257248    724.26864  0.016255244  0.015365841            5 
 3714000   0.68012148   -8.0283494    723.01757  0.016222796  0.015360866            3 
 3715000   0.65665042   -8.0529022    723.31178  0.016225029  0.015355889            1 
 3716000   0.64145739   -8.0563779    722.76358  0.016208369  0.015350911            4 
 3717000   0.66670414   -8.0321868    723.11995  0.016211998  0.015345938            3 
 3718000   0.66850438   -8.0510723    722.81417  0.016200784  0.015340968            2 
 3719000   0.66009526   -8.0211498     723.8181  0.016218923  0.015336008           12 
 3720000   0.67934136   -8.0534748    723.81594  0.016214515  0.015331049            5 
 3721000   0.65742425   -8.0491063    722.48642  0.016180382  0.015326089            4 
 3722000     0.659255   -8.0502129    723.08313  0.016189395  0.015321141            3 
 3723000   0.64989704   -8.0513161    723.25509  0.016188895  0.015316178            3 
 3724000   0.63759074   -8.0641197    722.33624  0.016163987  0.015311204            3 
 3725000   0.65483077   -8.0432117    722.46044  0.016162426  0.015306228            3 
 3726000    0.6590654   -8.0523031    722.93966  0.016168806  0.015301257            3 
 3727000   0.65234871   -8.0511571    723.42162  0.016175244  0.015296296            5 
 3728000   0.65932313   -8.0313693    722.89564  0.016159148  0.015291331            3 
 3729000   0.65127476    -8.068096    723.19393  0.016161481  0.015286364            3 
 3730000   0.66691356   -8.0637404    723.16247  0.016156445  0.015281398            3 
 3731000   0.64744078   -8.0736986    721.28371  0.016110152  0.015276436            3 
 3732000   0.66025417   -8.0545939    722.39633  0.016130679  0.015271471            5 
 3733000   0.63785915   -8.0682499    723.40817  0.016148946  0.015266507            4 
 3734000   0.64995178    -8.070263    722.04757  0.016114256  0.015261541            4 
 3735000   0.65335909   -8.0665722    721.58622  0.016099648  0.015256576            7 
 3736000   0.66603398   -8.0658899    722.07246  0.016106184  0.015251619            8 
 3737000   0.65091712   -8.0606954     722.3519  0.016108106  0.015246668            4 
 3738000   0.65653124   -8.0863315    722.40536  0.016104988  0.015241719            3 
 3739000   0.65239757   -8.0691656    721.25989  0.016075151  0.015236756            5 
 3740000   0.66158003    -8.073232    723.08947  0.016111619  0.015231803            4 
 3741000   0.65966691   -8.0498121    722.58147  0.016095996  0.015226853            2 
 3742000   0.66381335   -8.0640365    722.76764  0.016095841  0.015221898            5 
 3743000   0.64523118   -8.0762526    723.07877  0.016098468  0.015216939            2 
 3744000   0.65432365   -8.0748729    723.50998  0.016103766  0.015211983            4 
 3745000   0.66664048   -8.0905136    723.71186  0.016103958  0.015207044            4 
 3746000   0.65289947   -8.0552444    722.86208  0.016080755  0.015202109            1 
 3747000   0.63468894   -8.0581135    722.79573  0.016074987  0.015197177            5 
 3748000   0.65290307   -8.0779959    724.02366     0.016098  0.015192245            2 
 3749000    0.6435614   -8.0544263    723.06304  0.016072353  0.015187306            2 
 3750000   0.64219069   -8.0881558    723.80088  0.016084464  0.015182368            2 
 3751000   0.65455664   -8.0667944    722.71514  0.016056055  0.015177444            3 
 3752000   0.66577284   -8.0501468    722.38449  0.016044432  0.015172525            2 
 3753000   0.65612403   -8.0722117     722.8469  0.016050424  0.015167598            3 
 3754000    0.6581333   -8.0554562    722.90942  0.016047536  0.015162674            1 
 3755000   0.66211365   -8.0787619    722.27448  0.016029172  0.015157743            7 
 3756000   0.65862937   -8.0661393    722.81291   0.01603685  0.015152807            3 
 3757000   0.63555326   -8.0692903    723.56746  0.016049318  0.015147871            4 
 3758000   0.63757258   -8.0707854    723.23591  0.016037695  0.015142946            3 
 3759000   0.66117875   -8.0998959    722.20575  0.016010591  0.015138027            3 
 3760000    0.6466155   -8.0706124    723.50207  0.016035064  0.015133103            7 
 3761000   0.63571279   -8.0676636     722.2235  0.016002471  0.015128188            3 
 3762000   0.65324823   -8.0776748    722.17033  0.015997039  0.015123271            3 
 3763000   0.66212455   -8.0554742     723.1469  0.016014414  0.015118346            4 
 3764000   0.64594376   -8.0816648    721.68256   0.01597774   0.01511343            2 
 3765000   0.64732682   -8.0884236    720.96416  0.015957595  0.015108501            3 
 3766000   0.64312604   -8.0952823    723.32393  0.016005575  0.015103586            4 
 3767000   0.64884429   -8.0732382    723.46977  0.016004552  0.015098676            2 
 3768000   0.65622988   -8.0666218    721.70869  0.015961356  0.015093768            4 
 3769000   0.65252835   -8.0680315    723.10722  0.015988043   0.01508886            2 
 3770000   0.65103684   -8.0895765    723.14159  0.015984562  0.015083949            4 
 3771000   0.66819111   -8.0543549    723.77406    0.0159943  0.015079056           13 
 3772000   0.64245507   -8.0829947     723.1825  0.015976991  0.015074161            4 
 3773000   0.64923025   -8.0879632    721.75808  0.015941295  0.015069261            3 
 3774000   0.64770517    -8.054084    723.45564  0.015974555   0.01506436            4 
 3775000   0.63362795   -8.0764464     723.0381  0.015961106  0.015059458            6 
 3776000   0.65160383   -8.0860189    722.90914  0.015954033  0.015054554            6 
 3777000   0.64278364   -8.0653312    723.64148  0.015965967  0.015049648            3 
 3778000   0.66645801   -8.0848756    723.75377  0.015964218  0.015044755            2 
 3779000   0.65097581   -8.0628927     721.4303  0.015908757   0.01503986            4 
 3780000   0.65221115   -8.1050311    721.91251  0.015915179  0.015034957            4 
 3781000    0.6424026   -8.0546256    722.33299  0.015920237  0.015030058            6 
 3782000   0.64365421    -8.071144    723.10026  0.015932934  0.015025167            4 
 3783000   0.64288744   -8.1144266     723.1727  0.015930318  0.015020271            3 
 3784000   0.63044171   -8.0787225    722.08559  0.015902167  0.015015366            3 
 3785000   0.61794943   -8.0984667    723.28515  0.015924376  0.015010471            2 
 3786000   0.64875246   -8.0936959    722.14902  0.015895162  0.015005568            4 
 3787000   0.65728496   -8.0890521    722.84709  0.015906326  0.015000662            4 
 3788000   0.65017142   -8.0752864    722.82497   0.01590164  0.014995752            4 
 3789000   0.63631234   -8.0841503    723.19989   0.01590569   0.01499085            3 
 3790000    0.6300529   -8.0947327    722.58747  0.015888027  0.014985952            6 
 3791000   0.65001986   -8.0918258    722.14214  0.015874047  0.014981067            3 
 3792000     0.635833   -8.0869501    721.34251  0.015852288  0.014976173            5 
 3793000   0.63219209   -8.0857424    723.02825  0.015885145   0.01497128            3 
 3794000   0.64985469   -8.0956335     721.7413  0.015852691  0.014966374            8 
 3795000   0.63576928   -8.0636812     721.7712   0.01584917  0.014961485            2 
 3796000   0.64966548   -8.0967994    722.72098  0.015865845  0.014956597            3 
 3797000   0.65874687   -8.0998849     722.4042  0.015854714  0.014951706            2 
 3798000   0.64331664   -8.0937252     721.9956  0.015841575  0.014946806            3 
 3799000   0.64624736   -8.0858602    722.42809  0.015846892  0.014941912            2 
 3800000   0.64320094   -8.0853739    722.45459  0.015843302  0.014937015            5 
 3801000   0.63848088   -8.0924738    721.27752  0.015813328  0.014932122            3 
 3802000   0.64366539   -8.1028152    722.71652  0.015840709  0.014927237            2 
 3803000   0.63931688   -8.0892664    721.95206  0.015819793  0.014922356            2 
 3804000   0.65519005    -8.108091    722.24494   0.01582205   0.01491748            4 
 3805000   0.63230984   -8.0984672    721.83298  0.015808869  0.014912602            3 
 3806000   0.63969583   -8.0645585    722.96199  0.015829436  0.014907736            2 
 3807000   0.65096064   -8.0960404    721.98239  0.015803835  0.014902873            4 
 3808000   0.63557166   -8.0892937    722.42925  0.015809464   0.01489802            2 
 3809000   0.64465712   -8.0954513      722.676  0.015810711  0.014893163           10 
 3810000   0.63982508   -8.0902773    722.06891  0.015793283   0.01488831            2 
 3811000   0.64061553    -8.082603    722.74484  0.015803919  0.014883459            6 
 3812000   0.63960686   -8.0708559    722.54611  0.015795429  0.014878607            4 
 3813000   0.62828564   -8.0880514    721.37814  0.015765761   0.01487375            5 
 3814000   0.64180555   -8.0701914    721.49394  0.015764157  0.014868889            2 
 3815000   0.64159466   -8.0812417    721.19401  0.015753473  0.014864033            5 
 3816000   0.63711008   -8.1124374    724.22324  0.015815497  0.014859176            4 
 3817000   0.63703861   -8.1073629    722.66693  0.015777376   0.01485432            3 
 3818000   0.63609872   -8.0807662    721.16894  0.015740548  0.014849459            2 
 3819000    0.6458133   -8.0811761    722.57149  0.015767031  0.014844603            1 
 3820000   0.65239767     -8.10609    722.59934  0.015763511  0.014839749            2 
 3821000   0.64505279   -8.0862173    721.18925  0.015728632  0.014834902            2 
 3822000    0.6376349   -8.1080275    721.63514  0.015734239  0.014830046            3 
 3823000   0.63573847   -8.0896128      722.765  0.015754752  0.014825189            6 
 3824000   0.65030331   -8.0958658    721.25229  0.015717667  0.014820336            6 
 3825000   0.63656877   -8.0932969    722.87893  0.015748996  0.014815489            2 
 3826000   0.63713851   -8.0942426    723.49205  0.015758234   0.01481064            3 
 3827000   0.63984478   -8.0841948    723.70812  0.015758822  0.014805795            2 
 3828000   0.64991563   -8.0863322    723.18331   0.01574328  0.014800957            3 
 3829000   0.64101759   -8.0929114    721.74323  0.015707827  0.014796117            2 
 3830000    0.6249027   -8.0940663    721.81137  0.015705208  0.014791278            2 
 3831000   0.64084281   -8.0885636    721.56048  0.015695651  0.014786448            2 
 3832000    0.6414061   -8.1027297    722.36858  0.015709129  0.014781628            2 
 3833000    0.6340329   -8.1057774    723.22661  0.015723685  0.014776799            2 
 3834000   0.63621914   -8.0943433    722.90994  0.015712701  0.014771956            4 
 3835000   0.63667328   -8.1198007    721.51728  0.015678342   0.01476712            2 
 3836000   0.64404231   -8.1021863    722.11925  0.015687332  0.014762286            3 
 3837000   0.65363532   -8.1084223    721.65454  0.015673151  0.014757453            2 
 3838000   0.64029657   -8.1023176    721.42334  0.015664047   0.01475261            7 
 3839000   0.63506121   -8.1017534    721.74312  0.015666908  0.014747768            2 
 3840000   0.64227554   -8.1161649    720.37022  0.015633034  0.014742924            3 
 3841000   0.64583605   -8.0733986     720.6965  0.015636043   0.01473808            2 
 3842000   0.64420669   -8.1367328    721.78721  0.015655631  0.014733238            2 
 3843000   0.64985358   -8.0988456    721.44433  0.015644122  0.014728401            1 
 3844000   0.65192156   -8.1176374    722.53328  0.015663659  0.014723561            2 
 3845000   0.64202427    -8.091076    721.66529  0.015640773  0.014718728            2 
 3846000    0.6430152   -8.1278572    720.78471  0.015617627  0.014713894            5 
 3847000   0.64745047   -8.1077218    722.12594  0.015642621  0.014709061            2 
 3848000   0.61605181   -8.0821656    724.22953  0.015684111  0.014704232            2 
 3849000    0.6510053   -8.0915519    721.58185  0.015622713  0.014699408            2 
 3850000    0.6403702   -8.0900039    720.40371  0.015593154  0.014694579            5 
 3851000   0.62829897    -8.133927    721.20398  0.015606422  0.014689749            2 
 3852000   0.63074702   -8.1159627    720.85356   0.01559479   0.01468491            3 
 3853000   0.64467406   -8.1148672    722.47308   0.01562577  0.014680069            4 
 3854000   0.64608182   -8.1227486    722.11386  0.015613948  0.014675225            4 
 3855000   0.63558486   -8.1189587    721.67451    0.0156004  0.014670386            5 
 3856000   0.63819571   -8.1265643    721.38965  0.015590198  0.014665553            4 
 3857000   0.62844978   -8.1196834    720.58917  0.015568861  0.014660726            4 
 3858000   0.63487483   -8.0754577    722.25188  0.015600741    0.0146559            4 
 3859000   0.63681877   -8.1097992     720.8108  0.015565578  0.014651077            3 
 3860000   0.61767184   -8.1189238    720.79293   0.01556116  0.014646257            7 
 3861000    0.6333584   -8.1207628    720.49655  0.015550733  0.014641435            3 
 3862000   0.62096086   -8.1081173    721.76014  0.015573972  0.014636614            2 
 3863000   0.64314387   -8.1290577     721.0195  0.015553963   0.01463179            2 
 3864000   0.63850852   -8.1228972    721.56026    0.0155616  0.014626963            2 
 3865000   0.63235516   -8.1182131    720.39608  0.015532473  0.014622142            4 
 3866000   0.63129687   -8.1111229    720.46141  0.015529863  0.014617315            3 
 3867000   0.62636033   -8.1318135    719.61273  0.015507558  0.014612495            3 
 3868000   0.63257118   -8.1097199    721.39532  0.015541954  0.014607672            2 
 3869000   0.63175057   -8.1298355     721.6921  0.015544329  0.014602858            2 
 3870000   0.64562173   -8.1223656    721.72945  0.015541117  0.014598042            2 
 3871000   0.63592587   -8.1224285    722.05977  0.015544213  0.014593236            3 
 3872000   0.62003818   -8.1059376    720.20228  0.015500221  0.014588429            2 
 3873000   0.63439658   -8.1171714    721.76163  0.015529771  0.014583627            2 
 3874000   0.63145012   -8.1247602    721.38033   0.01551756  0.014578836            3 
 3875000   0.64330006   -8.1487133    719.89598  0.015481634  0.014574027            7 
 3876000   0.63989244   -8.1167469    720.80532   0.01549719  0.014569225            4 
 3877000   0.64947283   -8.1000175    721.20041  0.015501685  0.014564424            3 
 3878000   0.64402294   -8.1287648    720.46736  0.015481936  0.014559627            4 
 3879000   0.63693415    -8.128161    719.95215  0.015466876  0.014554826            4 
 3880000   0.62507639   -8.1416575    721.02269  0.015485883   0.01455003            3 
 3881000   0.62678193   -8.1347113    722.24544  0.015508147  0.014545235            3 
 3882000   0.62861185   -8.1588468    720.61045  0.015469055  0.014540439            3 
 3883000   0.63049141   -8.1363346    721.01988  0.015473858  0.014535649            3 
 3884000   0.62558288   -8.1323256    720.80018   0.01546516  0.014530858            2 
 3885000   0.64023785   -8.1161542    721.39506   0.01547394  0.014526084            3 
 3886000   0.63255241   -8.1334595    721.77098  0.015478019  0.014521303            7 
 3887000   0.62451231   -8.1225419     722.2293  0.015483863  0.014516529            4 
 3888000   0.63105476    -8.118184    721.39946  0.015462094  0.014511764            2 
 3889000   0.63246444   -8.1287141    722.99117  0.015492225  0.014506994            2 
 3890000   0.63827812   -8.1462562    721.87748  0.015464385  0.014502226            2 
 3891000   0.62480261   -8.1293157    721.73811  0.015457425  0.014497452            4 
 3892000   0.61729373   -8.1152977     721.5642   0.01544973  0.014492696            4 
 3893000   0.63835576   -8.1287673    721.77008  0.015450169  0.014487932            4 
 3894000    0.6270094   -8.1464238     722.3847  0.015459354  0.014483176            3 
 3895000   0.65001887   -8.1246713    722.86238  0.015465605  0.014478419            7 
 3896000   0.63272853   -8.1256642    721.27669  0.015427718  0.014473661            5 
 3897000   0.64668593   -8.1085639    721.96322   0.01543844   0.01446891            3 
 3898000   0.60940552   -8.1278685    722.16963  0.015438892  0.014464154            2 
 3899000   0.61093863   -8.1405709    720.98705  0.015409657  0.014459398            6 
 3900000   0.61758055    -8.107796    721.51097  0.015416901  0.014454641            4 
 3901000   0.62403846    -8.121761    721.34827  0.015409473  0.014449873            4 
 3902000   0.62384718    -8.106179    720.52331  0.015387906  0.014445111            3 
 3903000    0.6170533   -8.1277872     722.4154  0.015424362  0.014440367            5 
 3904000   0.63342959   -8.1129113    722.99477  0.015432778  0.014435623            3 
 3905000   0.61856435   -8.1248129    722.09045  0.015409527  0.014430881            7 
 3906000   0.64067354    -8.122403    721.66173  0.015396436  0.014426133            3 
 3907000   0.61581692   -8.1365965    720.59946  0.015369837  0.014421384            1 
 3908000   0.63552501   -8.1612521    721.66394  0.015388603  0.014416631            2 
 3909000   0.62988492   -8.1439911    721.19976  0.015374771   0.01441189            3 
 3910000   0.62654217   -8.1251715    721.76045  0.015382789  0.014407159            2 
 3911000   0.62500991   -8.1177768    720.43108   0.01535053  0.014402416            2 
 3912000    0.6309033   -8.1237889    721.99281  0.015379874  0.014397678            2 
 3913000   0.62396163    -8.135415    722.43782  0.015385421  0.014392942            4 
 3914000    0.6194306   -8.1142913    721.60859  0.015363835  0.014388207            4 
 3915000   0.63970205   -8.1082827    720.55114  0.015337402  0.014383475            4 
 3916000   0.62760725   -8.1480664     720.5442  0.015333338  0.014378752            3 
 3917000   0.63527683   -8.1135577     722.4938    0.0153709  0.014374038            3 
 3918000   0.62111895   -8.1238604     722.2097  0.015360935  0.014369322            2 
 3919000   0.63983815   -8.1340554    721.04651  0.015332281  0.014364612            3 
 3920000   0.62448722   -8.1244216    722.17389  0.015352336  0.014359893            2 
 3921000   0.62203411    -8.122793    722.50054  0.015355363  0.014355172            3 
 3922000    0.6190807   -8.1335338    721.56131  0.015331491  0.014350451            1 
 3923000   0.62609578   -8.1333213    721.34196  0.015322924  0.014345725            5 
 3924000   0.61912653   -8.1373613    720.66567  0.015304657  0.014340997            2 
 3925000    0.6343927   -8.1465503    720.72324   0.01530198  0.014336266            2 
 3926000   0.62234105   -8.1480849    719.97632  0.015282228  0.014331539            3 
 3927000   0.62546074    -8.139609    720.41437  0.015287632  0.014326813            2 
 3928000   0.63113147   -8.1365608    719.85575  0.015271889  0.014322087            3 
 3929000   0.62228885   -8.1524361    721.14847   0.01529542  0.014317356            3 
 3930000   0.62459081    -8.130786     721.8259  0.015305893  0.014312634            3 
 3931000   0.63001711   -8.1256215    720.98888  0.015284255  0.014307907            2 
 3932000   0.61614505   -8.1422914    721.20033  0.015284849  0.014303177            4 
 3933000   0.63739522   -8.1452078    720.86313  0.015273818  0.014298453            2 
 3934000   0.61572657   -8.1256732    719.94777  0.015250546  0.014293725            6 
 3935000   0.62640615   -8.1507279    719.48187  0.015236804  0.014289001            5 
 3936000   0.62320862   -8.1387573    719.58692  0.015235157  0.014284274            3 
 3937000     0.622562   -8.1415191    721.20476  0.015265531  0.014279551            3 
 3938000   0.64597294   -8.1669065    720.28919   0.01524228  0.014274826            4 
 3939000   0.61316273    -8.129752    721.69643  0.015268182  0.014270102            4 
 3940000   0.61231425   -8.1348657    720.84687  0.015246338  0.014265384            4 
 3941000   0.60423376   -8.1460534    720.69234  0.015239202   0.01426066            3 
 3942000   0.59514465   -8.1761444    719.04105  0.015200428   0.01425593            4 
 3943000   0.61435912    -8.155194    720.96069  0.015237144  0.014251199            6 
 3944000   0.60729309    -8.128572    720.40278  0.015221492  0.014246475            3 
 3945000    0.6207181   -8.1435718    720.69182  0.015223739  0.014241757            3 
 3946000   0.61256585   -8.1490043    720.68867  0.015219815  0.014237044            4 
 3947000   0.63381122   -8.1589297    721.22433  0.015227268  0.014232331            2 
 3948000    0.6248932   -8.1393048    720.01065  0.015197793  0.014227618            5 
 3949000   0.62808671   -8.1435485    720.10943  0.015196029   0.01422291            2 
 3950000   0.62099694    -8.164632    720.19038   0.01519389  0.014218206            5 
 3951000   0.62541573   -8.1419846    719.73094  0.015180354  0.014213506            8 
 3952000   0.60478875   -8.1582272    720.84654  0.015200037  0.014208807            3 
 3953000   0.60980886   -8.1532846    719.88227  0.015175864  0.014204106            4 
 3954000    0.6121819   -8.1268751    719.87772   0.01517193  0.014199411            3 
 3955000   0.61013404   -8.1473662    718.96425  0.015148846  0.014194718            6 
 3956000   0.62119195   -8.1565314    720.32071  0.015173591  0.014190017            3 
 3957000     0.625754   -8.1648424    719.03245  0.015142626  0.014185312            4 
 3958000   0.62923282   -8.1470879    720.69647  0.015173835  0.014180607            3 
 3959000   0.62641102   -8.1432516    721.14875  0.015179522   0.01417591            3 
 3960000   0.62151062   -8.1301016    720.69516  0.015166144   0.01417121            3 
 3961000   0.61538891   -8.1442925    719.29386  0.015132834  0.014166504            4 
 3962000   0.62163377   -8.1473871    719.22882  0.015127646  0.014161792            5 
 3963000   0.61449613   -8.1634576    719.50919  0.015129725  0.014157084            3 
 3964000   0.61412692   -8.1668604    719.05091  0.015116274  0.014152367            4 
 3965000   0.62054576   -8.1592086    719.37318  0.015119235  0.014147658            4 
 3966000   0.63049952   -8.1671315    719.14841    0.0151107  0.014142961            3 
 3967000   0.62875562   -8.1500662    719.03505  0.015104509  0.014138252            3 
 3968000   0.60917352   -8.1480659     719.3302  0.015106901  0.014133549            9 
 3969000   0.60442629   -8.1676761     719.1833  0.015100011  0.014128842            6 
 3970000   0.62254285   -8.1591704    719.48468  0.015102533   0.01412414            8 
 3971000   0.62211623   -8.1784033    719.25094  0.015093825  0.014119434            9 
 3972000    0.6316827   -8.1801023    721.01751  0.015127088  0.014114733            2 
 3973000   0.62925863   -8.1582624    720.02903  0.015102547  0.014110038            6 
 3974000   0.61398121   -8.1870994    720.33119  0.015105083  0.014105342            5 
 3975000   0.61175373   -8.1772066    719.68984  0.015087837  0.014100644            5 
 3976000    0.6059637    -8.179885    718.36474   0.01505627  0.014095944            2 
 3977000   0.60760062   -8.1775462    720.77855  0.015103062  0.014091238            5 
 3978000   0.60787234   -8.1785334    718.81438  0.015058119  0.014086545            4 
 3979000    0.6243272   -8.1612394    718.51557  0.015048077   0.01408185            4 
 3980000   0.61981408   -8.1689734     719.6116  0.015067244  0.014077163            4 
 3981000    0.6183959   -8.1692569    719.16144  0.015054037  0.014072481            5 
 3982000   0.63578324   -8.1682283    719.87597   0.01506521  0.014067796            6 
 3983000   0.61993974    -8.180817    720.55039  0.015075538  0.014063119            5 
 3984000   0.62063969   -8.1818769    718.20855  0.015022769  0.014058432            9 
 3985000   0.63212068    -8.161709    718.61074   0.01502741  0.014053748            3 
 3986000   0.62352007   -8.1555675    719.68886  0.015046179  0.014049064            2 
 3987000   0.62281602   -8.1594882    720.09857  0.015050969  0.014044391            7 
 3988000   0.61792804   -8.1771668    718.98846  0.015023998  0.014039716            3 
 3989000   0.61167386   -8.1503762    719.65474  0.015034151  0.014035046            3 
 3990000   0.61916422   -8.1694603    719.42555  0.015025596  0.014030376            6 
 3991000   0.61841025   -8.1597143    719.32463  0.015019724  0.014025702            6 
 3992000   0.62957265   -8.1652242    719.27728  0.015014973  0.014021026            9 
 3993000   0.61890635   -8.1720106    719.72513  0.015020559   0.01401636            2 
 3994000    0.6106967   -8.1981919    718.43047  0.014989786  0.014011691            5 
 3995000   0.60411457   -8.1767141    719.41821  0.015006638  0.014007025            2 
 3996000   0.62315969   -8.1872444    721.43267  0.015044892  0.014002359            6 
 3997000   0.62190011   -8.1701017    719.85422  0.015008219  0.013997688            3 
 3998000   0.62254419   -8.1751489    718.13405   0.01496861   0.01399302            3 
 3999000   0.61460224   -8.1739592    718.76633  0.014978043  0.013988352            4 
 4000000   0.61060954   -8.1924541    717.92273  0.014956724  0.013983686            4 
 4001000   0.61453417   -8.1693128    719.18003  0.014979172  0.013979013            3 
 4002000   0.62348956   -8.1933363     718.1279  0.014953521   0.01397435            5 
 4003000   0.60629621   -8.1668879    718.85789  0.014964982  0.013969688            3 
 4004000   0.61053819   -8.1802771    719.36804  0.014971862  0.013965023            6 
 4005000   0.62137033   -8.1836194    719.43099  0.014969434  0.013960359            4 
 4006000   0.61737977   -8.1989092    719.41149  0.014965291  0.013955696            3 
 4007000   0.60023817    -8.179605    720.13516  0.014976607  0.013951036            3 
 4008000   0.60053002   -8.1890302    719.01509  0.014949582   0.01394638            6 
 4009000   0.63119345   -8.1874832    719.61811  0.014958388   0.01394173            5 
 4010000   0.58683539    -8.185585    717.94912  0.014919973  0.013937073            4 
 4011000   0.61109589   -8.1877415    718.09028  0.014919186   0.01393242            3 
 4012000    0.6250043    -8.177476     718.7239  0.014928629  0.013927782            4 
 4013000   0.62854422   -8.1919755     720.2436  0.014956467  0.013923144            3 
 4014000    0.6097314   -8.1992031    718.62592  0.014919156  0.013918505            4 
 4015000   0.62276108   -8.1827116    719.25648  0.014928528  0.013913861            6 
 4016000   0.60505667    -8.210646    718.82555  0.014915869  0.013909223            5 
 4017000    0.6150671   -8.2050352    719.08685  0.014917576   0.01390459            3 
 4018000   0.62596386   -8.1733086    719.75536  0.014927729  0.013899956            3 
 4019000   0.60894651    -8.182125    719.32855  0.014915164   0.01389533            3 
 4020000   0.61840825   -8.2055397    718.51273  0.014894543  0.013890701            2 
 4021000   0.59853158   -8.1832775    718.59021  0.014892444  0.013886072            2 
 4022000   0.61157764   -8.1873304     720.0623  0.014919242  0.013881444            6 
 4023000   0.60076703    -8.164822    720.72802  0.014929324  0.013876822            6 
 4024000    0.6097224   -8.1912822    719.21248  0.014894228  0.013872189            4 
 4025000   0.59916535   -8.1567283    718.82102  0.014882423  0.013867574            2 
 4026000   0.61734471   -8.1607115    720.35568  0.014910492  0.013862954            4 
 4027000   0.61855613   -8.1846215    719.88204  0.014896988  0.013858334            4 
 4028000   0.60173184   -8.1916607    717.85724  0.014851399  0.013853711            5 
 4029000   0.61054707   -8.1655844    717.46093  0.014839516  0.013849086            2 
 4030000   0.61750806   -8.1894564    719.99442  0.014888222   0.01384446            3 
 4031000   0.61279249   -8.1834671    718.36858  0.014850917  0.013839841            6 
 4032000   0.61207839   -8.1890236    718.54859  0.014850955  0.013835223            3 
 4033000   0.60820845    -8.188371    719.04527  0.014857535  0.013830605            3 
 4034000   0.61524174   -8.1990462    719.00584  0.014853038   0.01382598            3 
 4035000   0.61426715   -8.1887708    718.64393  0.014841882  0.013821365            6 
 4036000   0.61791142   -8.1947399    718.59914   0.01483728  0.013816755            9 
 4037000   0.60456743   -8.2053951    719.73173  0.014856984  0.013812147            3 
 4038000   0.60101554   -8.2001541    718.42548  0.014826347  0.013807538            3 
 4039000   0.61538719   -8.1968019    718.59876  0.014826252  0.013802929            2 
 4040000   0.61309034   -8.1953744    718.66143  0.014823874  0.013798323            2 
 4041000   0.61384476   -8.1992114    719.08336  0.014828907  0.013793716            3 
 4042000   0.60623279   -8.1914205    718.29603  0.014809006  0.013789112            5 
 4043000   0.60870957   -8.1994054    718.89158  0.014817619  0.013784512            5 
 4044000   0.60981119   -8.2076929    718.04953  0.014796603   0.01377991            3 
 4045000   0.59858971   -8.1984804    719.13134  0.014815231  0.013775312            3 
 4046000   0.63178847   -8.2026191    718.91352  0.014807084  0.013770713            6 
 4047000   0.61075377   -8.2090739    718.42243  0.014793313  0.013766119            4 
 4048000   0.60084147   -8.2065027    718.56229  0.014792537  0.013761524            4 
 4049000   0.61317167   -8.1857091    719.71449  0.014812598   0.01375693            5 
 4050000   0.60331044   -8.2081824    718.77254  0.014789559  0.013752333            2 
 4051000   0.60211665   -8.1922251    717.50643  0.014759862  0.013747743            5 
 4052000   0.60232082   -8.1757123    718.35777  0.014773729  0.013743147            4 
 4053000   0.59494366   -8.2011172    718.06462  0.014764056  0.013738558            6 
 4054000    0.6102916   -8.1866292    718.40054  0.014767319   0.01373397            4 
 4055000   0.59919907   -8.1993959    718.85436  0.014773004  0.013729388            5 
 4056000    0.5987932   -8.1601563    718.74583  0.014767132  0.013724815            2 
 4057000   0.61261629   -8.2113444    719.38373  0.014776595  0.013720238            6 
 4058000    0.6061271   -8.2081824      718.972  0.014764498  0.013715654            5 
 4059000   0.62618944   -8.2047714     718.6095  0.014753418  0.013711067            4 
 4060000   0.59993855   -8.1779593    719.35918  0.014765172  0.013706484            5 
 4061000   0.60522247   -8.1892073    718.83818  0.014750845  0.013701908            4 
 4062000   0.60321796    -8.169033    719.06702  0.014751908  0.013697329            2 
 4063000   0.59785472   -8.1899309    718.03833  0.014727179  0.013692755            3 
 4064000   0.58933994   -8.1967114    718.10168  0.014724854  0.013688185            4 
 4065000    0.5984713   -8.2115798    718.28293  0.014724947  0.013683612            3 
 4066000   0.59924967   -8.2003507    718.16929  0.014718997  0.013679034            4 
 4067000   0.60111736   -8.1937171    718.09157  0.014713785  0.013674469            3 
 4068000   0.59926719   -8.1923245    717.76576  0.014703494  0.013669896            4 
 4069000   0.60719023   -8.1967433    718.15792  0.014707912  0.013665327            5 
 4070000   0.62132704   -8.2124133    718.87146  0.014718908  0.013660756            5 
 4071000   0.61099445   -8.2053702    719.04384  0.014718821  0.013656192            3 
 4072000   0.59639139   -8.2011798    717.61117  0.014685887  0.013651628            2 
 4073000   0.59820622   -8.1918009    718.30855  0.014696549  0.013647066            3 
 4074000   0.60018301   -8.2077664    718.77346  0.014702452  0.013642498            4 
 4075000   0.60879259   -8.2125222    718.26969  0.014688542  0.013637933            3 
 4076000   0.60294623   -8.2139763    718.77739  0.014695318  0.013633373            3 
 4077000    0.6087771   -8.2141648    717.95472  0.014674898   0.01362882            4 
 4078000   0.60256331   -8.1966541    716.99989  0.014651788  0.013624266            6 
 4079000   0.60767325    -8.206727    717.99677  0.014668562   0.01361972            2 
 4080000    0.5925047   -8.2229344    717.84836  0.014661935  0.013615174            2 
 4081000   0.58314219   -8.2101789    716.89844  0.014638945  0.013610623            4 
 4082000   0.60435796   -8.2224864     718.6102  0.014670305  0.013606077            3 
 4083000   0.60804868   -8.2270715    718.59385  0.014666378   0.01360153            5 
 4084000   0.60036795   -8.2021918    719.20187  0.014675193  0.013596985            3 
 4085000   0.60381232   -8.2102608    718.54069  0.014658113  0.013592437            4 
 4086000   0.59905845   -8.2074307    717.97931  0.014643076  0.013587899            4 
 4087000   0.59679914   -8.2127296    717.37424  0.014627156  0.013583357            2 
 4088000   0.59025191   -8.2170363    718.00259  0.014636387  0.013578812            4 
 4089000   0.59996916   -8.2093166    718.76745  0.014648395  0.013574264            2 
 4090000   0.59838979   -8.2233041    718.58788  0.014641155  0.013569723            5 
 4091000   0.59370754   -8.2068212    718.18932  0.014629457  0.013565184            3 
 4092000   0.57787384   -8.2159685    718.23741  0.014626862  0.013560652            7 
 4093000   0.59684662   -8.2115024      718.372  0.014626028  0.013556115            4 
 4094000   0.59977275   -8.2094697     718.3333  0.014621668  0.013551586            4 
 4095000   0.59951189   -8.1987978     718.3112  0.014617648  0.013547062            3 
 4096000   0.60673578   -8.2087043    718.65132  0.014620999  0.013542534            4 
 4097000   0.58862233   -8.2227478    717.80191  0.014600153  0.013538004            5 
 4098000   0.59789504   -8.2175558    718.59946  0.014612808  0.013533481            4 
 4099000   0.60000482   -8.2116193    716.38973  0.014564319   0.01352896            3 
 4100000   0.61209725   -8.2299188    717.29528  0.014579172  0.013524437            8 
 4101000   0.60249023     -8.20929    718.97911  0.014609833  0.013519915            5 
 4102000   0.59482022   -8.2179313    719.36558  0.014614123  0.013515388            4 
 4103000   0.60163452   -8.2289905    717.51778  0.014573032  0.013510862            4 
 4104000   0.58413316   -8.2182637    717.50671  0.014569256  0.013506339            6 
 4105000    0.5976335   -8.2105727    717.69287  0.014569486  0.013501824            5 
 4106000    0.5938425   -8.2022674    719.64255  0.014605507  0.013497311            3 
 4107000   0.58794909    -8.214014     717.9381  0.014567367  0.013492795            2 
 4108000   0.58695786   -8.2102035    717.56233  0.014556198  0.013488283            4 
 4109000   0.59469638   -8.2202226    717.51671   0.01455173  0.013483763            6 
 4110000   0.59399987    -8.219775    718.56482  0.014569441  0.013479248            4 
 4111000   0.59144088   -8.2217154    716.49983  0.014524038  0.013474735            4 
 4112000   0.60113354   -8.2275796    717.80661  0.014546989  0.013470227            7 
 4113000   0.60022918   -8.2122297    717.78983  0.014543112  0.013465713            4 
 4114000   0.59384618   -8.2208517     718.1819  0.014547519  0.013461209            9 
 4115000    0.6004945   -8.2237682     717.3839  0.014527823  0.013456703            4 
 4116000    0.5985351   -8.2223927    716.62764  0.014508982  0.013452202            7 
 4117000    0.5960907   -8.2183998    718.01471  0.014533534  0.013447693            8 
 4118000   0.59658208   -8.2241924    717.61261  0.014521868   0.01344319            8 
 4119000   0.59113958   -8.2346747    716.90049  0.014503935  0.013438685            3 
 4120000   0.58638402   -8.2168658    716.41826  0.014490661  0.013434184            7 
 4121000   0.58923435   -8.2219732    716.40531  0.014486882  0.013429686            5 
 4122000   0.59921327   -8.2394861    717.51422  0.014505786  0.013425183            6 
 4123000   0.60469306   -8.2238513    717.30822  0.014498105  0.013420684            6 
 4124000   0.60887593   -8.2213845    717.85002  0.014505537  0.013416195            7 
 4125000   0.59443035   -8.2484733    717.20599   0.01448901  0.013411705            4 
 4126000   0.59337059   -8.2189146    716.05489  0.014462249  0.013407214            6 
 4127000   0.59421104   -8.2281392    717.62555   0.01449046  0.013402726            6 
 4128000   0.58267865   -8.2439267    717.00208  0.014474364   0.01339824            7 
 4129000     0.595659   -8.2031734    718.81358  0.014507419  0.013393753            6 
 4130000   0.59359196   -8.2039848    717.87104  0.014484888  0.013389271            4 
 4131000    0.5868013   -8.2165533    717.17649   0.01446737  0.013384794            9 
 4132000   0.59192628    -8.231205    716.32181  0.014446632  0.013380321            6 
 4133000   0.58759131    -8.189758    718.43682  0.014485782  0.013375844            6 
 4134000   0.61111938    -8.218791    717.78284  0.014469094  0.013371368            8 
 4135000   0.58683499   -8.2376038    717.09123  0.014451657  0.013366899            4 
 4136000   0.58312437   -8.2356278    717.28758  0.014452119  0.013362427            6 
 4137000   0.59376758   -8.2116644    717.91507  0.014461266  0.013357957            6 
 4138000   0.59094655   -8.2252822     717.9512  0.014458498  0.013353496            5 
 4139000   0.59308279   -8.2289234    718.38258  0.014463691  0.013349033            3 
 4140000   0.58114443   -8.2477054    717.06946  0.014433765  0.013344565            5 
 4141000   0.57910594   -8.2378476    716.64308  0.014421699    0.0133401            4 
 4142000   0.57538631   -8.2276067    717.76495  0.014440788  0.013335637            8 
 4143000   0.58399678   -8.2338422    717.76363  0.014437276   0.01333117            9 
 4144000   0.58596926   -8.2262813     718.2327  0.014443225  0.013326713            8 
 4145000   0.58761463   -8.2283635    717.02258  0.014415412  0.013322256            8 
 4146000   0.59338922   -8.2283218    717.64949  0.014424535  0.013317805            4 
 4147000   0.58954797   -8.2248853    718.56632  0.014439481  0.013313366            4 
 4148000   0.58663271    -8.218434    717.67946  0.014418183  0.013308919            5 
 4149000   0.56911167    -8.240092    715.80804   0.01437712  0.013304473            5 
 4150000   0.59123034   -8.2309318    717.56744  0.014408985  0.013300023            5 
 4151000   0.59338188   -8.2339011    717.20973  0.014398332  0.013295572            4 
 4152000   0.57907891   -8.2368226      717.632   0.01440334  0.013291127            6 
 4153000   0.57346842    -8.229794    717.68794  0.014400994  0.013286683            4 
 4154000   0.58287052   -8.2279239    716.99291  0.014383584  0.013282238            2 
 4155000   0.59417777   -8.2164417    718.15959  0.014403522  0.013277804            3 
 4156000   0.58309946   -8.2233918    718.09714  0.014398804   0.01327337            5 
 4157000     0.577945   -8.2090497    718.60148   0.01440545  0.013268938            4 
 4158000   0.57626373   -8.2310495    717.47649  0.014379439  0.013264508            2 
 4159000   0.58775638   -8.2124908    717.19924  0.014370426  0.013260079            5 
 4160000   0.59200625   -8.2272502     716.4947  0.014352859  0.013255645            5 
 4161000   0.59437828   -8.2413506     717.1762  0.014363058  0.013251225            4 
 4162000   0.57777743   -8.2415209    718.07869  0.014377677  0.013246794            3 
 4163000   0.57595705   -8.2399938    716.85283  0.014349684  0.013242377            3 
 4164000   0.58211977   -8.2529084     717.2765  0.014354717  0.013237954            7 
 4165000    0.5808591   -8.2442003    717.92141  0.014364174  0.013233541            4 
 4166000   0.59216922   -8.2197577    718.04402  0.014363178  0.013229121            2 
 4167000    0.5849108   -8.2355277    718.07593   0.01436037  0.013224707            3 
 4168000   0.59781457   -8.2573547     718.0928  0.014357262  0.013220293            3 
 4169000   0.56606109   -8.2350081     717.6858  0.014345682  0.013215878            5 
 4170000    0.5953953   -8.2328027    716.88815  0.014326302  0.013211462            3 
 4171000   0.58740505   -8.2298525    717.11919  0.014327483  0.013207048            6 
 4172000   0.58709231   -8.2339922    717.58222  0.014333298  0.013202636            7 
 4173000   0.58444544   -8.2363794    716.98764  0.014317989  0.013198227            5 
 4174000   0.58101622   -8.2414018    717.47686  0.014324326   0.01319382            3 
 4175000   0.58015522   -8.2341081    717.28346  0.014317035  0.013189415            4 
 4176000   0.58796416   -8.2441142    717.21119  0.014312165  0.013185005            2 
 4177000   0.59058907   -8.2390384    717.71096  0.014318709    0.0131806            3 
 4178000    0.5828647   -8.2171564    718.08681  0.014322778  0.013176204            4 
 4179000   0.58419867    -8.221593    716.99141  0.014297508  0.013171808            8 
 4180000   0.57478753   -8.2390113      717.388  0.014301994  0.013167416            3 
 4181000   0.58269521   -8.2442128    716.26551    0.0142762  0.013163017           10 
 4182000   0.58461286   -8.2437565    716.18159  0.014271114  0.013158627            4 
 4183000   0.57535147   -8.2480708    717.50366  0.014294041  0.013154237            2 
 4184000   0.57567593   -8.2605636    717.53014  0.014291152  0.013149848            7 
 4185000   0.58073056   -8.2316454    716.03329  0.014257931  0.013145456            4 
 4186000   0.58844847   -8.2577515    717.64444  0.014286599  0.013141072            5 
 4187000   0.58255716   -8.2160022    716.93813  0.014269129  0.013136686            3 
 4188000   0.58029296   -8.2225694    718.45377  0.014295881  0.013132303            4 
 4189000   0.58612702   -8.2570991    717.39122   0.01427133   0.01312792            2 
 4190000   0.57769566   -8.2224774    717.17892  0.014263702  0.013123534            3 
 4191000   0.57665643   -8.2499068    717.77925  0.014272235  0.013119153            4 
 4192000   0.58621381   -8.2430985     716.9777  0.014252896  0.013114767            3 
 4193000   0.57993112   -8.2653194    718.12025  0.014272205   0.01311038            4 
 4194000   0.58212465   -8.2449518    717.79454   0.01426233     0.013106            4 
 4195000    0.5785811   -8.2254544    716.53274  0.014233864  0.013101619            4 
 4196000   0.57939801    -8.234781     717.0363  0.014240473  0.013097247            5 
 4197000   0.57829834   -8.2354137    717.59788   0.01424823  0.013092881            2 
 4198000   0.57648915   -8.2370048    716.48082  0.014222662  0.013088514            4 
 4199000   0.58579377   -8.2419237    716.88416   0.01422728  0.013084155            7 
 4200000   0.58290246   -8.2415659    717.02217   0.01422663  0.013079791           10 
 4201000    0.5767804   -8.2738362    715.82499  0.014199496  0.013075424            5 
 4202000   0.58644661   -8.2386673    718.00429  0.014239336   0.01307106            3 
 4203000   0.57393441   -8.2409615     717.9785  0.014235437  0.013066701            4 
 4204000   0.56460203   -8.2443512    717.51606  0.014222884  0.013062342            5 
 4205000   0.58780258   -8.2565624    717.23582  0.014213948  0.013057973            3 
 4206000   0.58575996   -8.2471385    718.02513  0.014226207  0.013053615            5 
 4207000   0.57633157   -8.2299423      717.073  0.014203966  0.013049256            2 
 4208000   0.57802639   -8.2374779    716.66123  0.014192436  0.013044895            4 
 4209000   0.59024635   -8.2474946    717.66268  0.014208891  0.013040536            5 
 4210000   0.57785091   -8.2457474     716.7395  0.014187243  0.013036182            7 
 4211000   0.57424509   -8.2474468    717.51036  0.014199128  0.013031825            5 
 4212000    0.5783467   -8.2710928    716.02466  0.014166363  0.013027469            4 
 4213000   0.59541856   -8.2603005    717.54638    0.0141931  0.013023114            4 
 4214000   0.58036028   -8.2506286    716.90747  0.014177098  0.013018759            4 
 4215000   0.57225015   -8.2679852    715.64984   0.01414887  0.013014406            2 
 4216000   0.56620043   -8.2615834    715.96019  0.014151648  0.013010058            5 
 4217000    0.5728044   -8.2499314    716.00715   0.01414922  0.013005713            4 
 4218000   0.58116662   -8.2570626    716.45267  0.014154668  0.013001362            5 
 4219000   0.58816304   -8.2785631    716.98835  0.014161894  0.012997015            3 
 4220000   0.57489743   -8.2728542     715.4142  0.014127453  0.012992667            5 
 4221000   0.58119995   -8.2664012    716.37557  0.014143086  0.012988321            5 
 4222000   0.57297011    -8.265242    716.24112  0.014137082  0.012983976            6 
 4223000   0.58168747   -8.2515252    716.64274   0.01414166  0.012979636            4 
 4224000   0.57879113   -8.2548591    718.08898  0.014166844  0.012975298            3 
 4225000   0.59298123   -8.2565582     716.8068  0.014138201  0.012970963            4 
 4226000   0.57501571   -8.2559056    715.66266  0.014112294  0.012966623            4 
 4227000   0.56955095   -8.2665819    716.38528  0.014123202  0.012962289            4 
 4228000   0.57877858   -8.2729258    717.54371  0.014142694  0.012957951            5 
 4229000   0.57596097   -8.2576995    716.16507  0.014112183  0.012953616            3 
 4230000    0.5805994   -8.2560192    715.51024  0.014095946  0.012949283            5 
 4231000   0.55830405   -8.2520807     715.8509  0.014099324  0.012944948            2 
 4232000    0.5789971   -8.2788187    715.55368   0.01409014  0.012940618            6 
 4233000   0.58210865   -8.2516928    715.82399  0.014092133   0.01293628            4 
 4234000   0.56763774   -8.2584155    715.54744  0.014083362   0.01293195            3 
 4235000    0.5806064   -8.2573472    716.66998  0.014102125   0.01292762            6 
 4236000   0.58401433    -8.259207    716.41559  0.014093791  0.012923295            3 
 4237000   0.57132929   -8.2615057    716.19053  0.014086038  0.012918968            8 
 4238000   0.56619598   -8.2574872     716.5078  0.014088953  0.012914642            3 
 4239000   0.57515241   -8.2593367    716.61836  0.014087803  0.012910321            5 
 4240000   0.57282965   -8.2521175    716.30636  0.014078348  0.012906004            4 
 4241000   0.58511264   -8.2612261    716.97248  0.014088118  0.012901684            2 
 4242000    0.5723154   -8.2758771     716.7035  0.014079512  0.012897365            3 
 4243000   0.57632483   -8.2527202    716.92271    0.0140805  0.012893046            8 
 4244000   0.57109773   -8.2612732     715.3428  0.014046159  0.012888731            3 
 4245000   0.55181148   -8.2613523    715.28173  0.014041652  0.012884418            6 
 4246000   0.55491471   -8.2649427     717.1186  0.014074395  0.012880106            5 
 4247000   0.57329082   -8.2726414     715.7389  0.014044009  0.012875796            7 
 4248000   0.57146081   -8.2660751    715.45268  0.014035089   0.01287149            3 
 4249000   0.57914079   -8.2708011     716.2951  0.014048307  0.012867182            7 
 4250000   0.57122786   -8.2665807    715.72624  0.014033848  0.012862873            7 
 4251000   0.57802924    -8.246789    714.30095  0.014002606  0.012858572            7 
 4252000   0.56456499   -8.2659803    716.33361   0.01403915  0.012854269            5 
 4253000   0.56704833   -8.2680235    717.31466  0.014055072  0.012849963            3 
 4254000   0.56391519   -8.2821704    716.36393  0.014033144   0.01284566            7 
 4255000   0.57293153   -8.2615751     716.5486  0.014033463  0.012841359            7 
 4256000   0.56514938   -8.2673029    715.74628  0.014014456  0.012837058            5 
 4257000   0.56978798   -8.2655587    716.25007  0.014021026  0.012832761            6 
 4258000   0.57476921    -8.287563    717.05427  0.014033472   0.01282847            2 
 4259000   0.57182436   -8.2923277    716.40293  0.014017432  0.012824183            6 
 4260000   0.56604816   -8.2575858    716.18002  0.014009781  0.012819897            6 
 4261000   0.57413595   -8.2687202    716.75468  0.014017732  0.012815608            6 
 4262000   0.57349312   -8.2809574    714.87489  0.013977688  0.012811313            2 
 4263000   0.56662028   -8.2428355    716.27248   0.01400173  0.012807025            3 
 4264000   0.57941661   -8.2807476    714.72798  0.013968261  0.012802732            5 
 4265000   0.56048813   -8.2699554    716.17192  0.013993199  0.012798448            3 
 4266000   0.56681245     -8.28272    716.78661  0.014001926  0.012794166            6 
 4267000   0.55732426   -8.2979515    715.70279  0.013977478  0.012789876            6 
 4268000   0.57204695   -8.2606945    715.62137  0.013972613  0.012785593            6 
 4269000   0.56905746   -8.2657341    715.33918  0.013963832  0.012781311            5 
 4270000   0.58036841   -8.2754774    716.29119  0.013979141  0.012777032            5 
 4271000    0.5658232   -8.2787888    715.22478  0.013955061  0.012772755            3 
 4272000   0.57850201   -8.2671668    715.93206  0.013965591  0.012768479            3 
 4273000   0.56980985   -8.3038322    714.80045  0.013940254  0.012764194            7 
 4274000   0.58289113   -8.2857529    714.90871  0.013939103  0.012759919            5 
 4275000   0.57252334   -8.2922311    715.54069  0.013948162  0.012755646            5 
 4276000   0.58086655   -8.2914952    716.11109  0.013956016  0.012751375            5 
 4277000   0.57074759   -8.2717824    715.96092  0.013949827  0.012747103            4 
 4278000   0.56095222    -8.265763    716.34726  0.013954092  0.012742836            4 
 4279000   0.56512033   -8.2676506    716.04849  0.013945012  0.012738565            6 
 4280000   0.56515448   -8.2806727      715.422  0.013929556    0.0127343            5 
 4281000   0.57049807    -8.270009    716.82924  0.013953695  0.012730036            3 
 4282000   0.56881733   -8.2821408    714.46319   0.01390439  0.012725773            7 
 4283000   0.55856354   -8.2785332    715.95898  0.013930247  0.012721512            3 
 4284000   0.56598861   -8.2743626    716.19429  0.013931573  0.012717254            4 
 4285000   0.57062922   -8.2826028    715.16569  0.013908318  0.012712996            7 
 4286000   0.57140556   -8.2793867    715.47517   0.01391109  0.012708736            6 
 4287000   0.56464183   -8.2837006    715.74008  0.013912994  0.012704476            3 
 4288000    0.5551103   -8.2839755    715.02032  0.013895762   0.01270022            4 
 4289000   0.56602818    -8.286306    714.88041  0.013889803  0.012695967            5 
 4290000   0.56655928   -8.2685869    715.46681  0.013897957  0.012691717            5 
 4291000   0.56316286   -8.2944101     716.9675  0.013923862  0.012687471            3 
 4292000   0.55434389   -8.2808663    715.75677   0.01389711  0.012683223            5 
 4293000   0.56772214   -8.2671372    716.81042  0.013914326  0.012678986            5 
 4294000   0.56149137   -8.2827621    715.19256  0.013879688  0.012674745            3 
 4295000   0.55054883   -8.2801971    716.47881  0.013901413   0.01267051            7 
 4296000   0.56960361   -8.2790939    715.86198  0.013886212  0.012666274            3 
 4297000   0.56305614   -8.2808871    717.27902  0.013910461   0.01266204            7 
 4298000   0.55568053     -8.26443    715.81932  0.013878923  0.012657805            4 
 4299000   0.55124042   -8.2841886    715.48375   0.01386919  0.012653571            2 
 4300000   0.56790797   -8.2931631    714.98196  0.013856239  0.012649334            5 
 4301000   0.57179914   -8.2879745    716.38878  0.013880276  0.012645103            6 
 4302000   0.56438845   -8.2849217    715.25583  0.013855103  0.012640877            7 
 4303000   0.56108047   -8.2751858    716.21076  0.013870377  0.012636654            4 
 4304000    0.5660558   -8.2789767     715.2093  0.013847764  0.012632427            8 
 4305000   0.56655617   -8.2811313    715.02229  0.013840927  0.012628204            5 
 4306000   0.55441121   -8.2739516    714.83772  0.013834141  0.012623981            7 
 4307000   0.56793466   -8.3036291    715.82291  0.013849991  0.012619755            3 
 4308000   0.56672073   -8.2990567     716.1341  0.013852795  0.012615528            4 
 4309000   0.56114634   -8.2788299    716.63207  0.013859211  0.012611306            4 
 4310000   0.56212627    -8.285371    715.37913   0.01383177   0.01260708            5 
 4311000   0.55876129   -8.2875942     715.4441  0.013829817  0.012602864            3 
 4312000   0.55241575   -8.2771027    715.67894  0.013831148  0.012598649            3 
 4313000   0.55573539   -8.2682516    715.12707  0.013817279  0.012594433            3 
 4314000   0.56829157   -8.2921676    714.90512  0.013809788  0.012590224            2 
 4315000   0.56030641   -8.2850764    716.54057  0.013838172  0.012586015            2 
 4316000   0.54174199   -8.2947793     715.6987  0.013818711  0.012581808            4 
 4317000   0.55668857   -8.3017257    715.81527  0.013817761    0.0125776            3 
 4318000    0.5591871   -8.2752689    715.16974  0.013802103  0.012573394            4 
 4319000   0.56562887   -8.2982081    715.47453  0.013804787  0.012569187            4 
 4320000   0.56604925   -8.2905252    715.26819  0.013797612  0.012564982            3 
 4321000   0.55988939   -8.2935602    714.79716  0.013785334   0.01256078            3 
 4322000   0.55123404   -8.2957168    715.26389  0.013791144  0.012556579            3 
 4323000   0.55374458   -8.2797853    713.87368  0.013761155  0.012552376            2 
 4324000   0.55669721   -8.2779385    715.51139  0.013789535   0.01254818            2 
 4325000   0.55546393   -8.2828473     716.5139  0.013805663  0.012543988            4 
 4326000   0.55983812   -8.2794354    715.29506  0.013778993    0.0125398            2 
 4327000   0.57827767   -8.2940443    714.88845  0.013767977  0.012535609            2 
 4328000   0.55609632    -8.280616    714.57518  0.013758764  0.012531416            3 
 4329000    0.5549789   -8.2759255    716.04363  0.013783854  0.012527233            3 
 4330000   0.56564463   -8.2864655    715.45253  0.013769294  0.012523047            4 
 4331000   0.54709394   -8.2815183    714.37024   0.01374529  0.012518863            8 
 4332000   0.56813441   -8.3021114    714.87973  0.013751918  0.012514681            3 
 4333000   0.56321089   -8.2903196    715.05812  0.013752175  0.012510501            8 
 4334000   0.55337525   -8.2968147    715.87201  0.013764652   0.01250632            6 
 4335000   0.55895715   -8.2805515    714.70481  0.013739039  0.012502135            6 
 4336000   0.56032421   -8.2954666    716.57709  0.013771854  0.012497958            8 
 4337000    0.5558049   -8.3042233    715.06422  0.013739609  0.012493785            4 
 4338000   0.56835412   -8.2867949    716.76968  0.013769204  0.012489612           10 
 4339000   0.56849974   -8.3026389    716.19614  0.013755015  0.012485437            5 
 4340000   0.56346691   -8.3058159    714.29401  0.013715323  0.012481263            4 
 4341000    0.5583656    -8.283993    715.46789  0.013734698  0.012477092            6 
 4342000   0.55637609   -8.2900559    714.62005  0.013715263  0.012472917            5 
 4343000   0.55583669   -8.3065882    715.08634  0.013721052  0.012468744            8 
 4344000   0.54705792     -8.30562     715.2182  0.013720423  0.012464574            4 
 4345000   0.55176577   -8.2980032    714.50643  0.013703614  0.012460403            4 
 4346000   0.56010726   -8.2939305    714.91373  0.013708271  0.012456233            6 
 4347000    0.5533448    -8.308811    714.21461  0.013691715   0.01245207            7 
 4348000   0.56707233   -8.3178835    714.89581  0.013701622  0.012447902            6 
 4349000   0.56199611   -8.3052088     716.3372   0.01372609  0.012443734            6 
 4350000   0.56136462   -8.3096716    714.94873  0.013696336   0.01243957            4 
 4351000   0.55803011    -8.314352    714.67536  0.013687952  0.012435414            4 
 4352000   0.56103778   -8.2941844    715.23094  0.013695445  0.012431251            6 
 4353000   0.56668818   -8.3355925     714.1834  0.013672245  0.012427085            7 
 4354000   0.54755331   -8.3149879    714.81891  0.013681268  0.012422923            4 
 4355000   0.56198518   -8.2724619    715.28445  0.013687035  0.012418767            5 
 4356000   0.57217107   -8.2960144    714.30237  0.013665105  0.012414614            6 
 4357000   0.55054162    -8.330398    713.78571  0.013652087  0.012410457            5 
 4358000   0.54729412    -8.302426    714.30492  0.013658882  0.012406309            8 
 4359000   0.54287461   -8.2972045    714.49073  0.013659301  0.012402159            8 
 4360000   0.54975456   -8.3131545    715.79122  0.013681025  0.012398011            2 
 4361000   0.54444879   -8.3097991    714.27665  0.013648946  0.012393859            4 
 4362000   0.56135605   -8.3027663    714.18964  0.013644155  0.012389711            2 
 4363000   0.55276609   -8.3103833    714.30029  0.013643141  0.012385567            4 
 4364000   0.55099606   -8.3064138     715.7398  0.013667503  0.012381424            4 
 4365000   0.55830765   -8.3018101    714.04829  0.013632079  0.012377283            4 
 4366000   0.54808499   -8.3093206    713.51782  0.013618832  0.012373135            4 
 4367000   0.54009066   -8.3121137     714.0528  0.013625922  0.012368993            2 
 4368000   0.54305539   -8.3061934    714.62596  0.013633737  0.012364852            3 
 4369000   0.56492135   -8.3180596    715.32326  0.013643917  0.012360717            4 
 4370000   0.54843746   -8.3095468    714.52864  0.013625641  0.012356585            3 
 4371000   0.55468441   -8.3015724    714.51758  0.013622313  0.012352452            4 
 4372000   0.56459954   -8.3214468    714.50828   0.01361902  0.012348324            4 
 4373000   0.54922387   -8.3169615     716.1074  0.013646379  0.012344195            6 
 4374000   0.54356971   -8.3123738    714.50078   0.01361265  0.012340071            4 
 4375000   0.54671047   -8.3138657    713.53511  0.013591145  0.012335948            5 
 4376000   0.54348457   -8.2940171    714.49658  0.013606349  0.012331828            2 
 4377000   0.54136608   -8.3290617    714.54215  0.013604108  0.012327711            2 
 4378000   0.54673622   -8.3270169    715.71896    0.0136234  0.012323591            3 
 4379000   0.57149444   -8.2966736    713.89713  0.013585619  0.012319476           10 
 4380000   0.55446371   -8.2974152    714.55265   0.01359499  0.012315357            1 
 4381000   0.54982269   -8.3256868    712.98925  0.013562148  0.012311236            5 
 4382000   0.54399684   -8.2994136    714.73747  0.013592299  0.012307123            5 
 4383000   0.55381127   -8.3170408    714.75853  0.013589599  0.012303006            5 
 4384000   0.55777738   -8.3073687    715.96682  0.013609467  0.012298897            3 
 4385000   0.56041575   -8.3285242    714.71067  0.013582491  0.012294791            2 
 4386000   0.56052638   -8.3093364    714.43981  0.013574248  0.012290679            2 
 4387000   0.55921483   -8.2927529    713.46096   0.01355256  0.012286571            3 
 4388000   0.55916262   -8.3034752    714.68194  0.013572659  0.012282467            3 
 4389000   0.54290888   -8.3230907    714.48787  0.013565882  0.012278368            4 
 4390000   0.54344331   -8.3305404    714.18605  0.013557062  0.012274264            3 
 4391000   0.55902903   -8.3019173    713.88602  0.013548281  0.012270163            3 
 4392000   0.54914481   -8.3187103    713.83059  0.013544144  0.012266062            2 
 4393000   0.55245624   -8.3143052    713.94837  0.013543296  0.012261956            4 
 4394000   0.54581606    -8.301177    713.10036  0.013524131  0.012257857            2 
 4395000   0.54703061   -8.3462682    714.06613  0.013539365  0.012253758            4 
 4396000   0.54160268   -8.3019688    714.71127  0.013548515  0.012249666            2 
 4397000   0.54253985   -8.3133143    712.93991  0.013511862  0.012245574            4 
 4398000   0.53456845   -8.3176386    713.44676  0.013518394  0.012241486            5 
 4399000   0.56916277   -8.3232574    715.19162  0.013548375  0.012237398            3 
 4400000   0.55089248   -8.3136709    713.95625  0.013521899  0.012233309            4 
 4401000   0.54089292   -8.3164161    714.49122  0.013528956  0.012229219            3 
 4402000    0.5395883   -8.3153028    714.35384  0.013523282  0.012225131            3 
 4403000    0.5561516   -8.3334257    714.03363   0.01351415  0.012221044            2 
 4404000   0.54495444   -8.3078244    713.48881  0.013500772  0.012216963            3 
 4405000   0.56203495    -8.322497    713.28228    0.0134938  0.012212883            3 
 4406000   0.55218963    -8.319413    715.15508  0.013526159  0.012208805            3 
 4407000   0.54656169   -8.3252971    714.14238   0.01350394  0.012204729            6 
 4408000   0.54508903   -8.3141348    714.14772  0.013500978  0.012200654            4 
 4409000   0.53664942   -8.3171699    714.81662  0.013510558  0.012196588            4 
 4410000    0.5324691   -8.3104118    713.48524  0.013482336  0.012192519            2 
 4411000   0.53152467   -8.3262372    714.19164  0.013492625  0.012188455            5 
 4412000   0.54295771   -8.3342684    714.52398  0.013495844   0.01218439            4 
 4413000   0.54817533   -8.3317588    713.55252  0.013474441  0.012180327            2 
 4414000   0.55085159   -8.3287813    714.35876   0.01348661  0.012176265            3 
 4415000   0.54337966   -8.3087575    715.78462  0.013510468  0.012172201            4 
 4416000   0.55835735    -8.314145    714.50771  0.013483313  0.012168138            2 
 4417000    0.5451807   -8.3201942    715.42525  0.013497571  0.012164082            5 
 4418000   0.54089138   -8.3299587    713.79301  0.013463728  0.012160023            3 
 4419000   0.54542882   -8.3271031    713.75485  0.013459962  0.012155964            3 
 4420000   0.54324319   -8.3036586    714.06942  0.013462847  0.012151906            2 
 4421000   0.55004776   -8.3217848    714.00815  0.013458647  0.012147856            5 
 4422000   0.55037299   -8.3219235    714.64262   0.01346756  0.012143801            3 
 4423000   0.54876604   -8.3221724    713.60408  0.013444948  0.012139748            5 
 4424000   0.54575266   -8.3077157    713.86415  0.013446808  0.012135696            3 
 4425000   0.55088255   -8.3344218    713.47667  0.013436472  0.012131645            5 
 4426000   0.53872797   -8.3215162    715.48245  0.013471201  0.012127604            4 
 4427000   0.53588643   -8.3189649    714.45565   0.01344883  0.012123555            3 
 4428000   0.54382295   -8.3272137    715.36873  0.013462977  0.012119508            8 
 4429000   0.54963116   -8.3191778    714.27179  0.013439298  0.012115458            4 
 4430000   0.51921944   -8.3252614    714.10292  0.013433087  0.012111416            4 
 4431000   0.53729719   -8.3331448    714.05717  0.013429195   0.01210737            6 
 4432000   0.54085857   -8.3142928    714.41208  0.013432838  0.012103324            6 
 4433000   0.54806382   -8.3232198     713.5121   0.01341289  0.012099283            2 
 4434000   0.54346865    -8.326565    714.18004  0.013422418  0.012095247            7 
 4435000   0.54486373   -8.3274676    713.73056  0.013410946  0.012091211            6 
 4436000   0.54956711   -8.3229529    714.62895    0.0134248  0.012087177            6 
 4437000   0.53817558   -8.3188711    714.49458  0.013419251  0.012083143            5 
 4438000   0.54104855   -8.3464361    713.02452  0.013388623  0.012079107            5 
 4439000   0.52772749   -8.3289735    713.44341  0.013393471  0.012075075            3 
 4440000   0.54433339    -8.354924    713.19916   0.01338587  0.012071044            4 
 4441000   0.55082083   -8.3397763    713.67268  0.013391741  0.012067019            6 
 4442000   0.53977428   -8.3413837    713.66493  0.013388581  0.012062992            4 
 4443000   0.54644835   -8.3184753    714.88805  0.013408509  0.012058969            4 
 4444000   0.53853165   -8.3127179    714.45184  0.013397312  0.012054948            4 
 4445000   0.53952151    -8.318522    714.73142  0.013399539  0.012050931            4 
 4446000   0.54504867   -8.3228931    713.57479  0.013374846  0.012046917            2 
 4447000   0.51671286   -8.3283208    713.71615  0.013374488  0.012042895            5 
 4448000    0.5457142    -8.346175     713.8947  0.013374826  0.012038875            6 
 4449000      0.53584   -8.3298982    714.51512   0.01338344  0.012034856            4 
 4450000   0.54261716   -8.3416366    713.46802  0.013360824  0.012030838            8 
 4451000   0.53088343   -8.3320837    714.17339  0.013371029  0.012026823            4 
 4452000   0.55493728   -8.3401938    713.80535  0.013361136  0.012022807            4 
 4453000   0.55059078   -8.3231411    713.93237  0.013360513  0.012018795            8 
 4454000   0.53901143   -8.3519911    713.26245  0.013344979  0.012014783            5 
 4455000   0.53507949   -8.3429292      713.563  0.013347606  0.012010771            3 
 4456000   0.54823553   -8.3174746    714.02385  0.013353229  0.012006757            4 
 4457000   0.54520218   -8.3528293    713.03485  0.013331741  0.012002748            7 
 4458000   0.54112847   -8.3434584    713.06423    0.0133293  0.011998738            5 
 4459000   0.53639423    -8.334847    712.56881  0.013317052   0.01199473            3 
 4460000   0.54864264    -8.348607    713.07873  0.013323594  0.011990727            4 
 4461000   0.53947584   -8.3485387    714.41952  0.013345653  0.011986721            6 
 4462000   0.54650038   -8.3357958    712.23533   0.01330187  0.011982719           10 
 4463000   0.53182838   -8.3352126    713.18738  0.013316666  0.011978719            5 
 4464000   0.54257834   -8.3478165    713.11036  0.013312245  0.011974722            5 
 4465000   0.53338687   -8.3486893    712.50459  0.013297958  0.011970728            4 
 4466000   0.53905489    -8.348904    714.13985  0.013325494  0.011966738            4 
 4467000   0.53255848    -8.325015    712.27476  0.013287717  0.011962747            4 
 4468000   0.53461871   -8.3333448    713.42382  0.013306174  0.011958753            6 
 4469000    0.5279956   -8.3264468    712.50119  0.013285992  0.011954764            7 
 4470000   0.52911547   -8.3264115    713.18044  0.013295683  0.011950778            5 
 4471000   0.53795206   -8.3284298    713.40231  0.013296845  0.011946798            5 
 4472000   0.54653512   -8.3268589    713.57176  0.013297029  0.011942813            6 
 4473000   0.53432224   -8.3382893     713.4416  0.013291631  0.011938831            5 
 4474000   0.54978296   -8.3270205    713.53992  0.013290492  0.011934852            5 
 4475000   0.54902868   -8.3487953    713.61954  0.013289004  0.011930877            7 
 4476000   0.54159331   -8.3373219    713.83518   0.01329005    0.0119269            4 
 4477000   0.55050167   -8.3462515    714.04057  0.013290905  0.011922926            2 
 4478000   0.53995586   -8.3077201    714.14895  0.013289954  0.011918952            5 
 4479000   0.53583383   -8.3363154     713.6643  0.013277969  0.011914984            3 
 4480000   0.53548328   -8.3482397    713.37386  0.013269603  0.011911017            2 
 4481000   0.52614308   -8.3506432    713.09095   0.01326138   0.01190705            4 
 4482000   0.53682625   -8.3454708    712.94938  0.013255789  0.011903083            3 
 4483000   0.53862314   -8.3296663    713.18829  0.013257274   0.01189912            3 
 4484000   0.51974641   -8.3323978    713.12915  0.013253218  0.011895157            2 
 4485000   0.53765213   -8.3355295    712.81489  0.013244424  0.011891193            6 
 4486000   0.52717433   -8.3572603    712.32007  0.013232279   0.01188723            9 
 4487000   0.52590547   -8.3490455    714.01817  0.013260868  0.011883266            4 
 4488000   0.52415014   -8.3327529    712.69126  0.013233275  0.011879309            5 
 4489000     0.535653   -8.3485063    713.21349  0.013240022  0.011875352            4 
 4490000   0.55050333   -8.3337202    712.49067  0.013223657  0.011871397            4 
 4491000   0.53302338   -8.3325832    714.95021  0.013266351  0.011867445            5 
 4492000   0.53358572   -8.3564067    712.74129  0.013222419  0.011863498            7 
 4493000   0.52058718   -8.3381993    712.12744  0.013208091  0.011859548            4 
 4494000   0.53591486   -8.3445155    713.54934  0.013231519  0.011855601            3 
 4495000    0.5263304   -8.3396622      713.625  0.013229978  0.011851656            4 
 4496000    0.5445471   -8.3373771    714.56272  0.013244416  0.011847717            2 
 4497000   0.54190788    -8.338625    713.13319   0.01321498  0.011843773            5 
 4498000   0.53009083   -8.3472059    713.09162  0.013211272  0.011839836            3 
 4499000   0.52980803   -8.3405367     713.2218  0.013210747  0.011835893            7 
 4500000   0.52621647   -8.3438719    713.55753  0.013214028  0.011831956            3 
 4501000   0.53486675   -8.3431774    712.87984  0.013198546  0.011828018            6 
 4502000   0.53035575   -8.3255719    713.62694  0.013209443  0.011824087            4 
 4503000   0.54036384   -8.3446483    713.00005  0.013194908  0.011820158            4 
 4504000   0.52750892   -8.3559153    712.93976  0.013190863  0.011816226            5 
 4505000   0.52655339   -8.3360257     711.3429  0.013158396  0.011812295            6 
 4506000   0.52925611   -8.3527619    712.57725  0.013178304  0.011808367            5 
 4507000   0.53162742   -8.3437648    713.54977  0.013193362  0.011804442            5 
 4508000    0.5349079   -8.3386322    713.31067  0.013186015  0.011800514            4 
 4509000   0.53664345   -8.3583225    712.45723  0.013167318   0.01179659            5 
 4510000   0.52758233   -8.3296722    712.92399  0.013173023  0.011792666            6 
 4511000   0.52700884   -8.3450163    712.70297   0.01316602  0.011788751            4 
 4512000   0.53306812   -8.3313278    714.64827   0.01319903  0.011784833            6 
 4513000   0.52143943   -8.3475125    713.85447  0.013181447  0.011780918            7 
 4514000   0.52809952   -8.3686322    713.43997  0.013170875  0.011777004            3 
 4515000   0.52277178   -8.3589014    712.74931  0.013155211  0.011773087            5 
 4516000   0.51797223   -8.3356964    713.50978   0.01316633  0.011769172            5 
 4517000   0.53223631   -8.3423841    713.18568  0.013157436  0.011765261            4 
 4518000   0.52581382    -8.333588    712.01935  0.013133011   0.01176135            4 
 4519000   0.52003858   -8.3457927    713.83042  0.013163503  0.011757441            6 
 4520000   0.52572297   -8.3575241    713.40889  0.013152819   0.01175353            8 
 4521000   0.52532744   -8.3590608    713.22935    0.0131466  0.011749625            5 
 4522000   0.52362931   -8.3536016    712.46562  0.013129618  0.011745716            6 
 4523000   0.53154015   -8.3533489    713.39411  0.013143822  0.011741811            2 
 4524000   0.53440498   -8.3434603    712.01363  0.013115488  0.011737908            6 
 4525000   0.53147652   -8.3483179    713.11096  0.013132798  0.011734006            6 
 4526000   0.52836447   -8.3485769    712.58594   0.01312023   0.01173011            5 
 4527000   0.52690175   -8.3362994    712.65292  0.013118565  0.011726216            6 
 4528000   0.51969495   -8.3436772    712.90392  0.013120287   0.01172232            4 
 4529000   0.51772385   -8.3475245    713.33531  0.013125328  0.011718426            3 
 4530000   0.54425591   -8.3309822    713.85815  0.013132048  0.011714534            6 
 4531000   0.52950728   -8.3547961    712.87196  0.013111012  0.011710642            6 
 4532000   0.53006305   -8.3504156    712.40015  0.013099444  0.011706751            6 
 4533000   0.51331074   -8.3596205    713.70534  0.013120548  0.011702865            4 
 4534000   0.52289989   -8.3601719    713.83552  0.013120047  0.011698979            5 
 4535000   0.51938309   -8.3688426    712.77755  0.013097713  0.011695094            5 
 4536000   0.52769475   -8.3510301    712.61742  0.013091884  0.011691208            4 
 4537000   0.51757438   -8.3467899    713.77535  0.013110266  0.011687326            3 
 4538000   0.52980392   -8.3598709    712.54309  0.013084749  0.011683444            6 
 4539000   0.52861355   -8.3399337    712.61979  0.013083274  0.011679566            4 
 4540000   0.52639975   -8.3469037     712.8128  0.013083935  0.011675685            7 
 4541000   0.52112873   -8.3507715    712.60196  0.013077185  0.011671809            7 
 4542000   0.51419708   -8.3704404    712.50994  0.013072617  0.011667938            6 
 4543000   0.51293663   -8.3559297     712.7265  0.013073712  0.011664065            7 
 4544000   0.52898427   -8.3416557    713.31156  0.013081565  0.011660195            5 
 4545000   0.52160583   -8.3501097    712.21261  0.013058537  0.011656328            5 
 4546000   0.52717081   -8.3483564    713.95165  0.013087543  0.011652461            4 
 4547000    0.5263866   -8.3450243    713.58364   0.01307792  0.011648595            4 
 4548000   0.53387566    -8.349316    713.41757  0.013072002  0.011644732            7 
 4549000   0.52528059   -8.3531239    712.40291  0.013050541  0.011640867            5 
 4550000   0.52418186   -8.3505219    713.20991  0.013062453  0.011637005            6 
 4551000   0.52029263   -8.3542477    712.13845  0.013039963  0.011633144            8 
 4552000   0.51797254   -8.3454526    712.30039  0.013040063  0.011629288            6 
 4553000   0.51994983    -8.342455    714.01878   0.01306865  0.011625435            5 
 4554000   0.51452706   -8.3576631    713.90713  0.013063738  0.011621582            7 
 4555000   0.52258344   -8.3509326    713.10954  0.013046278   0.01161773            7 
 4556000   0.51401872   -8.3781225    713.63631  0.013053049  0.011613873            6 
 4557000    0.5145832   -8.3555104    712.12827  0.013022608  0.011610024            4 
 4558000   0.52251683   -8.3554653    714.43044  0.013061841  0.011606173            8 
 4559000   0.51726986    -8.359402    713.18912  0.013036286  0.011602327            2 
 4560000   0.52204425   -8.3651132    712.76877  0.013025745  0.011598484            4 
 4561000   0.52164199   -8.3478062    712.17952  0.013012123  0.011594635            8 
 4562000   0.53007359   -8.3685502    712.52674  0.013015613   0.01159079            3 
 4563000   0.51743723   -8.3574086    712.42504  0.013010904  0.011586942            4 
 4564000   0.52632358   -8.3681641    713.43507  0.013026495  0.011583097            4 
 4565000   0.52572258   -8.3671696    712.70192  0.013010258  0.011579258            3 
 4566000   0.52708537   -8.3487964    713.34697  0.013019181  0.011575421            4 
 4567000   0.51789061   -8.3803911    713.23518  0.013014291  0.011571583            8 
 4568000   0.52206027   -8.3699493    711.95808  0.012988144  0.011567749            3 
 4569000    0.5198284    -8.380353    712.52866  0.012995708  0.011563911            6 
 4570000   0.52479862   -8.3644354    711.78458  0.012979296  0.011560076            5 
 4571000   0.52371288   -8.3710554    712.68963  0.012992956  0.011556249            4 
 4572000   0.52810114   -8.3699484    711.66612  0.012971459   0.01155242            5 
 4573000   0.52024224   -8.3752446    712.91872  0.012991448  0.011548593            6 
 4574000   0.52040227   -8.3500057    713.18026  0.012993373  0.011544767            5 
 4575000   0.52334424   -8.3703459    712.04373  0.012969831   0.01154094            7 
 4576000   0.51636138   -8.3663854    712.82981  0.012981312  0.011537117            4 
 4577000   0.51239883   -8.3825741    712.72916  0.012976643  0.011533299            5 
 4578000   0.52057607   -8.3623933    713.01396  0.012978993  0.011529483            5 
 4579000   0.51241981   -8.3561199    713.56689  0.012986221  0.011525672            6 
 4580000   0.51316579   -8.3781745    711.15714   0.01293954  0.011521852            8 
 4581000    0.5208182   -8.3597423    713.81438  0.012985054  0.011518036            5 
 4582000   0.52379307   -8.3701984    712.79264  0.012963637  0.011514221            5 
 4583000   0.51659389   -8.3671287    712.12419  0.012948654  0.011510406            6 
 4584000   0.51736224   -8.3572473    712.34946  0.012949925  0.011506595            7 
 4585000   0.51463399   -8.3728238    711.98455  0.012940468  0.011502784            6 
 4586000   0.50707337   -8.3813358    712.90144  0.012954307  0.011498975            9 
 4587000   0.50779993   -8.3812089    712.67264  0.012947326  0.011495165            7 
 4588000   0.52588393   -8.3784774     712.9459  0.012949468  0.011491357            8 
 4589000   0.51461708   -8.3587284     712.3609  0.012936023  0.011487552            8 
 4590000   0.52212827   -8.3650831    712.38738  0.012933685  0.011483749            9 
 4591000   0.52383506   -8.3768491    712.68494  0.012936269  0.011479948            6 
 4592000   0.52108708    -8.368486    712.78455   0.01293526  0.011476148           10 
 4593000    0.5174895     -8.36752    713.15535  0.012939171  0.011472349            2 
 4594000   0.52983736    -8.378937    712.47783  0.012924065  0.011468554            6 
 4595000   0.50136594   -8.3803043    712.35373  0.012919001  0.011464757            7 
 4596000   0.51845398   -8.3612529    712.93816  0.012926787  0.011460962            6 
 4597000   0.52189729   -8.3701325    712.88488  0.012923009   0.01145717            3 
 4598000   0.52101112   -8.3652482     712.1715  0.012907269  0.011453382            5 
 4599000   0.51319773   -8.3691121    712.57791  0.012911827  0.011449594            4 
 4600000   0.50486596   -8.3774246    713.43656  0.012924575  0.011445806            6 
 4601000   0.51286431   -8.3644423    711.66197  0.012889625  0.011442019            6 
 4602000   0.52186155   -8.3681245     712.5435  0.012902787  0.011438242            5 
 4603000   0.51078204   -8.3868407    711.77963  0.012886154  0.011434461            7 
 4604000   0.50972006   -8.3587439    712.07684  0.012888735  0.011430678            8 
 4605000   0.52012069   -8.3684965      713.141  0.012905194  0.011426897            6 
 4606000   0.51887656   -8.3801955    712.98244  0.012899523  0.011423119            6 
 4607000    0.5131907    -8.367119    713.52205  0.012906484  0.011419338            5 
 4608000    0.5181112    -8.384954    712.30084  0.012881598  0.011415562            6 
 4609000    0.5151234   -8.3890178    712.00027  0.012873369  0.011411785            3 
 4610000   0.51594285   -8.3721018    713.32206   0.01289447  0.011408011            5 
 4611000   0.51679312   -8.3786703    711.70176   0.01286239  0.011404238            5 
 4612000   0.49842851   -8.3662013    711.72731  0.012860063  0.011400467            7 
 4613000   0.51545884   -8.3706489    712.66527  0.012874219  0.011396701            5 
 4614000   0.51592307   -8.3847362    712.69133    0.0128719  0.011392935            6 
 4615000    0.5128508    -8.376736    712.77044  0.012870539  0.011389169            6 
 4616000   0.50281908   -8.3772675    713.02224  0.012872296  0.011385404            6 
 4617000   0.51284078   -8.3888772    712.39776  0.012858237  0.011381638            3 
 4618000   0.50781485   -8.3802522    712.12454  0.012850522  0.011377881            6 
 4619000   0.52027974   -8.3651006    711.06188  0.012828568  0.011374123            4 
 4620000   0.51085832   -8.3871316    712.03204  0.012843291  0.011370366            8 
 4621000   0.51321026   -8.3740832     711.3014  0.012827335  0.011366609            6 
 4622000    0.5169736   -8.3692488    712.83893  0.012852281  0.011362857            2 
 4623000   0.49790126   -8.3748174    712.41514  0.012841862  0.011359104            7 
 4624000   0.51604806    -8.369258    712.33656  0.012837669  0.011355352            5 
 4625000   0.51370391   -8.3875071    711.91245  0.012827251  0.011351601            7 
 4626000   0.50599494     -8.39171    711.53105  0.012817608  0.011347854            9 
 4627000   0.50594538   -8.4059826    712.08265  0.012824772  0.011344102            6 
 4628000   0.51014276   -8.3682023    711.60956  0.012813482  0.011340353            6 
 4629000   0.50357508   -8.3828401    712.35432  0.012824122   0.01133661            6 
 4630000   0.50808863   -8.3733008    711.24077   0.01280131  0.011332862            2 
 4631000   0.50775424   -8.3942269    712.50876  0.012821362  0.011329124            8 
 4632000   0.51688112   -8.3776696    712.83026  0.012824379  0.011325382            7 
 4633000   0.51492742    -8.379774    711.62949  0.012800012  0.011321641            5 
 4634000   0.51202489   -8.3820382    711.87246  0.012801619  0.011317906           11 
 4635000   0.51100137   -8.3586461    712.74561  0.012814556  0.011314174            7 
 4636000    0.4957757   -8.3821773    711.64738  0.012792051  0.011310442           11 
 4637000   0.51833152   -8.3866261    712.63363  0.012807017  0.011306708            4 
 4638000   0.51015784   -8.3669959    713.08759  0.012812412  0.011302982           10 
 4639000   0.50225015   -8.3699255    711.12585   0.01277441  0.011299254            9 
 4640000   0.50862387   -8.4020151    712.19217  0.012790808  0.011295527            7 
 4641000   0.50190033   -8.3758937    711.72849  0.012779726    0.0112918            8 
 4642000   0.50146328   -8.3938323    712.42087  0.012789402  0.011288074            9 
 4643000   0.50978789   -8.3903572    712.11747  0.012781202  0.011284347            3 
 4644000   0.51289804   -8.3801429    711.95828  0.012775594   0.01128063            4 
 4645000   0.51737978   -8.3897483    712.30417  0.012779049  0.011276909            2 
 4646000   0.51574138   -8.3788775     711.9347  0.012769671  0.011273193            3 
 4647000     0.502926   -8.3731551    712.35076  0.012774384  0.011269474            4 
 4648000   0.50269833   -8.3833478      711.099  0.012749193  0.011265758            7 
 4649000   0.50520744   -8.3748489    711.62376  0.012755857  0.011262046            6 
 4650000   0.50531559   -8.3806625    711.35953  0.012748379  0.011258333            6 
 4651000   0.51587826   -8.3896917    712.57307  0.012767381  0.011254619            7 
 4652000   0.51608759   -8.3863335    711.11402    0.0127385  0.011250909            6 
 4653000   0.51075869    -8.389935    711.78733  0.012747821  0.011247203            4 
 4654000   0.51555958   -8.3811314     712.3471  0.012755105  0.011243495           17 
 4655000   0.49844229   -8.3808187    712.03776  0.012746827  0.011239786            8 
 4656000   0.51033694   -8.4067186    711.55364  0.012735425  0.011236079            8 
 4657000   0.52183824   -8.3936896    712.47703  0.012749213  0.011232374            8 
 4658000   0.51589445   -8.3899001    711.60518  0.012730878  0.011228673            3 
 4659000    0.5048093   -8.3852065    711.41249  0.012724699  0.011224971            6 
 4660000   0.50128845   -8.3970767    712.37954  0.012739262  0.011221274            6 
 4661000   0.50416538   -8.3728158    711.50691  0.012720927  0.011217576            8 
 4662000   0.50822057   -8.3981522    711.65515  0.012720848  0.011213877            7 
 4663000   0.50139339   -8.4013531      711.663  0.012718261  0.011210181            2 
 4664000   0.50732855   -8.3852854    711.98512  0.012721289  0.011206488            5 
 4665000   0.51284646   -8.3909722    711.03337  0.012701561  0.011202795            6 
 4666000   0.50879141   -8.4046096    712.25628  0.012720679    0.0111991            6 
 4667000   0.50078633   -8.3778084     710.9216  0.012694122  0.011195408            3 
 4668000   0.50151077   -8.4008993    711.81732  0.012707393  0.011191721            8 
 4669000   0.50529446   -8.3903183    711.18818  0.012693442  0.011188037            9 
 4670000   0.49903051   -8.3836433    711.59361  0.012697959  0.011184354            8 
 4671000   0.50213122   -8.3863838    711.68951  0.012696951  0.011180671            7 
 4672000   0.48845963   -8.3893246    712.58247  0.012710161  0.011176987            6 
 4673000     0.502781   -8.3957814    710.70223  0.012673911  0.011173304            7 
 4674000   0.50208837   -8.3753379    711.76908   0.01269022  0.011169626            5 
 4675000   0.50818451   -8.4101366    711.17698  0.012676951  0.011165947            7 
 4676000   0.51622286   -8.3976792    711.92198  0.012687517   0.01116227            3 
 4677000   0.50081666   -8.3848637    711.94178  0.012685158  0.011158593            5 
 4678000   0.50069035   -8.3892984    712.35964   0.01268989  0.011154918            3 
 4679000   0.50219497   -8.3954087     711.1638  0.012665879  0.011151244            8 
 4680000   0.51150942   -8.4003174    710.68221  0.012654598  0.011147572            7 
 4681000   0.49806741   -8.3969193    713.17286  0.012696234  0.011143904            7 
 4682000    0.5040417    -8.387841    711.41402  0.012662217  0.011140238            6 
 4683000   0.50105152   -8.3856918    710.78294  0.012648284  0.011136573            8 
 4684000   0.49875585   -8.3971254    711.50659  0.012658458  0.011132913            4 
 4685000   0.49187135   -8.4119137    712.01742  0.012664842  0.011129251            6 
 4686000    0.5035323    -8.384612    711.15169  0.012646744  0.011125588            6 
 4687000   0.50703003   -8.3964222    711.18836  0.012644697  0.011121928            7 
 4688000   0.49880645   -8.3987919    712.09115  0.012658048   0.01111827            7 
 4689000   0.50623807   -8.4076147    711.87973  0.012651591  0.011114611            8 
 4690000   0.50989709   -8.3927372    712.31295  0.012656591  0.011110958            5 
 4691000   0.49009792   -8.3774427    711.25089  0.012635026  0.011107303            6 
 4692000   0.51099132   -8.3885673    712.16025  0.012648484  0.011103653            5 
 4693000   0.51375614   -8.4014662    711.20374  0.012628804  0.011100003            3 
 4694000   0.48708777   -8.3981243    711.75893   0.01263597  0.011096349            5 
 4695000   0.50890377   -8.3896106    711.61291  0.012630687  0.011092695            5 
 4696000   0.51270515   -8.3950995    712.11494  0.012636906  0.011089046            7 
 4697000   0.50560022   -8.4030095    710.53911  0.012606258  0.011085401            3 
 4698000   0.49439431   -8.3944605    711.83832   0.01262662  0.011081754            2 
 4699000   0.49837346   -8.3952546    711.50841  0.012618082  0.011078109            6 
 4700000   0.49445677   -8.3951602    710.62543  0.012599742  0.011074467            6 
 4701000   0.49378594   -8.3976386    711.30263  0.012609066  0.011070827            7 
 4702000   0.49950504   -8.4092203    711.77149  0.012614694  0.011067181            7 
 4703000   0.51237738    -8.377342    711.24186  0.012602627  0.011063546            4 
 4704000   0.49305231   -8.4041579    712.41898  0.012620801  0.011059911            2 
 4705000   0.49566544   -8.4022903       711.62  0.012603967  0.011056279            4 
 4706000    0.5106789   -8.3914335    712.25624  0.012612556  0.011052647            2 
 4707000   0.49714285   -8.3928926    711.75676  0.012601033  0.011049017            7 
 4708000   0.49384788   -8.3930701    711.29383  0.012590163  0.011045389            3 
 4709000   0.50481589   -8.3946174    711.30277  0.012587647  0.011041759            2 
 4710000   0.49159357   -8.4014964    711.52148  0.012588844  0.011038129            5 
 4711000   0.49374696    -8.415133    711.23769  0.012581152  0.011034503            7 
 4712000   0.49178464   -8.4121882    711.74906  0.012587526  0.011030878            4 
 4713000   0.49657234   -8.3992967    712.20621  0.012592938  0.011027259            6 
 4714000    0.5047386   -8.4144733    712.04604  0.012587435  0.011023636            6 
 4715000   0.49407145    -8.397672    711.19548  0.012569733  0.011020017            4 
 4716000   0.49569861   -8.4065789    711.08677  0.012565146  0.011016398            7 
 4717000   0.49098066   -8.4109589    711.41394  0.012568263  0.011012779            8 
 4718000   0.48756005    -8.408528    710.71406  0.012553237  0.011009161            5 
 4719000   0.49688354   -8.4081788    712.44998  0.012581232  0.011005548            5 
 4720000   0.50110399   -8.3915079    712.49436   0.01257935  0.011001935            6 
 4721000   0.49424609   -8.4104847    711.13998  0.012552778  0.010998322            6 
 4722000   0.48329947   -8.4042253    710.34669   0.01253612  0.010994712            5 
 4723000   0.50260059   -8.3995229    711.44564  0.012552856  0.010991105            7 
 4724000   0.49777716   -8.3978301    711.81781  0.012556764  0.010987499            6 
 4725000   0.49727817   -8.4187807    711.61704  0.012550565  0.010983891            5 
 4726000   0.50497779    -8.412905     712.0953  0.012556343  0.010980289            5 
 4727000   0.50267569   -8.3980775    711.55465  0.012544155  0.010976683            4 
 4728000   0.49852981   -8.4225501    710.43805  0.012521821   0.01097308            7 
 4729000   0.49513459   -8.4159458     710.7472  0.012524621  0.010969477            6 
 4730000   0.49829585    -8.415422    710.71932  0.012521482  0.010965875            6 
 4731000    0.5039518   -8.4234619    710.52967  0.012515495  0.010962277            2 
 4732000    0.4912417   -8.4090445    711.03385  0.012521729  0.010958678            8 
 4733000   0.49292563   -8.4167128    712.61547  0.012546931  0.010955078            7 
 4734000   0.49694269   -8.4003665     711.0287  0.012516348  0.010951478           10 
 4735000   0.49288889     -8.40367      710.507  0.012504523  0.010947882            8 
 4736000   0.49322064   -8.4057769    711.42184   0.01251798  0.010944287            7 
 4737000   0.49801012   -8.4049188    710.81019  0.012504577  0.010940698            5 
 4738000   0.48963812   -8.4219894    711.74794  0.012518431  0.010937106            5 
 4739000   0.49066389    -8.403623    712.19193  0.012523597  0.010933516            8 
 4740000   0.48742818   -8.4380403    711.73302  0.012512887   0.01092993            7 
 4741000   0.49517665   -8.4219063    710.59903  0.012490315  0.010926343            9 
 4742000   0.48992582    -8.422545    712.32311   0.01251798  0.010922761            5 
 4743000   0.49576037   -8.4077738    711.04118  0.012492817  0.010919179            6 
 4744000   0.48815598    -8.423668     711.9396  0.012505965  0.010915602            9 
 4745000   0.48994538   -8.4070688    710.55608  0.012479032  0.010912024            8 
 4746000   0.48816146   -8.4240852    710.51685  0.012475714   0.01090845            4 
 4747000   0.49572466   -8.4091582    711.78618  0.012495369  0.010904874            4 
 4748000   0.48650799   -8.3969648    711.44585  0.012486764  0.010901299            6 
 4749000   0.49566337   -8.4061696      710.757  0.012472047  0.010897725            8 
 4750000   0.49214197   -8.4103584    710.81827  0.012470496  0.010894154            5 
 4751000   0.49691945   -8.4052379    710.56135  0.012463365  0.010890583            4 
 4752000   0.49034366   -8.4121673    710.59328  0.012461302  0.010887015            7 
 4753000   0.48628565   -8.4192215    710.17805    0.0124514  0.010883448            6 
 4754000   0.49270641    -8.415737    711.02508  0.012463629   0.01087988            2 
 4755000   0.51119179   -8.4229726    712.11175  0.012480052  0.010876315            5 
 4756000   0.49779874   -8.4101265    710.42599   0.01244789  0.010872754            5 
 4757000   0.48432335   -8.3896503    711.82035    0.0124697  0.010869193            2 
 4758000   0.49376109   -8.4012031    710.77655  0.012448798  0.010865636            6 
 4759000   0.47935408   -8.4135201    710.95297  0.012449271  0.010862081            7 
 4760000   0.48803091   -8.4171641    711.58367  0.012457697  0.010858526            8 
 4761000   0.49320681    -8.403258    710.20841  0.012431009   0.01085497            7 
 4762000   0.49363248   -8.4273416    711.38835  0.012449047  0.010851417            3 
 4763000   0.49073399   -8.4059329    710.80473  0.012436222  0.010847862            9 
 4764000   0.48534807   -8.4243833    710.10179  0.012421316   0.01084431            7 
 4765000   0.48523394   -8.4145296    709.57319  0.012409465  0.010840758            6 
 4766000   0.48883534   -8.4205488    710.97232  0.012431325  0.010837208            7 
 4767000   0.48936213   -8.4102041    710.76302  0.012425058  0.010833657            6 
 4768000   0.49115528   -8.4139509    711.84691  0.012441396   0.01083011            8 
 4769000   0.48901524   -8.4105588    710.79441  0.012420396  0.010826564            5 
 4770000   0.48247974   -8.4115457    710.30304  0.012409208  0.010823015            7 
 4771000   0.49037142   -8.3936988    710.89626  0.012416968  0.010819469            3 
 4772000   0.49020314   -8.4133167    710.67501  0.012410502  0.010815927            4 
 4773000   0.48745826   -8.4185049     710.7262  0.012408796  0.010812386            8 
 4774000   0.48900532   -8.4108934    711.32519  0.012416653  0.010808847            7 
 4775000   0.48451705   -8.4133436    709.67089  0.012385181   0.01080531            3 
 4776000   0.49703147   -8.4331812    710.15728  0.012391075  0.010801773            7 
 4777000    0.4930351   -8.4004361    710.58721  0.012395981  0.010798239            6 
 4778000   0.48494263   -8.4333349     710.9043  0.012398917  0.010794706            4 
 4779000   0.50084556   -8.4135775    710.81699    0.0123948  0.010791174            6 
 4780000   0.48372904   -8.4276271    710.69928  0.012390155  0.010787645            9 
 4781000   0.49257553   -8.4203116    710.27662  0.012380196  0.010784115            7 
 4782000   0.48427726   -8.4038858    709.73733  0.012368209  0.010780585            6 
 4783000   0.48443589   -8.4188281    711.61503  0.012398338  0.010777056            4 
 4784000   0.49173063   -8.4094963    711.08883  0.012386581  0.010773533            6 
 4785000   0.47948863   -8.4267131    711.05718  0.012383441   0.01077001            9 
 4786000   0.48617456   -8.4143045    711.10213  0.012381636  0.010766488            6 
 4787000    0.4864667   -8.4201206    710.80631    0.0123739  0.010762965            8 
 4788000   0.47906368   -8.4201994    711.73465  0.012387473  0.010759445            7 
 4789000   0.48869211   -8.4324798    710.39461  0.012361568  0.010755926            8 
 4790000   0.49526286   -8.4309282    710.25073  0.012356484  0.010752406            4 
 4791000   0.47920104     -8.43096    710.67895  0.012361354  0.010748891            7 
 4792000   0.49247068   -8.4179726    710.99121  0.012364204  0.010745375            6 
 4793000   0.48254543   -8.4112889    711.17276  0.012364781  0.010741859            5 
 4794000   0.48517815   -8.4003559    711.20005  0.012362676  0.010738348            6 
 4795000   0.48455755   -8.4256462    711.28456  0.012361567  0.010734835            4 
 4796000   0.47465328   -8.4154121    711.11572  0.012356056  0.010731323            3 
 4797000   0.47655062   -8.4247037    709.17599  0.012319783  0.010727813            9 
 4798000   0.48200154    -8.405683     710.4492  0.012339329  0.010724306            7 
 4799000   0.48746853   -8.4237832    709.88954  0.012327039  0.010720802            6 
 4800000   0.48120239   -8.4141381    711.09401  0.012345382  0.010717299            6 
 4801000   0.48579546   -8.4118724    710.65424  0.012335177  0.010713795            4 
 4802000   0.48195717   -8.4292086    711.28098  0.012343485  0.010710295            5 
 4803000   0.48443957   -8.4178427    710.64316  0.012329849  0.010706796            7 
 4804000    0.4903301   -8.4074492    709.34931  0.012304838  0.010703299            7 
 4805000   0.49029214   -8.4288771    711.00847  0.012331052  0.010699804            6 
 4806000    0.4740665   -8.4319055    711.02817  0.012328828  0.010696309            7 
 4807000   0.48938738   -8.4416099    710.55824  0.012318117  0.010692811            8 
 4808000    0.4861557   -8.4330038    710.28489  0.012310817  0.010689319            4 
 4809000   0.47567093   -8.4314137    710.07943  0.012304697  0.010685828            5 
 4810000   0.48746094   -8.4195794    709.62915  0.012294337  0.010682336            8 
 4811000   0.49107789   -8.4179285    710.29176  0.012303259  0.010678848            3 
 4812000   0.48878516   -8.4350084    710.29002  0.012300672  0.010675358            4 
 4813000   0.48061455   -8.4209951    710.38372  0.012299739  0.010671873            4 
 4814000   0.48166559   -8.4246207    710.52088  0.012299558  0.010668389            6 
 4815000   0.48257271    -8.433788    710.60254  0.012298417  0.010664905            7 
 4816000   0.48680412    -8.437764    709.38506  0.012274797  0.010661423            5 
 4817000     0.491985   -8.4214138    710.83103  0.012297264  0.010657943            8 
 4818000   0.48037772   -8.4105848     709.6966   0.01227509  0.010654464            9 
 4819000   0.46914299   -8.4262458    710.62403  0.012288581   0.01065099            3 
 4820000   0.47937039   -8.4279416    710.93862   0.01229147  0.010647517            9 
 4821000   0.48884326   -8.4307384    710.45001  0.012280474  0.010644045            6 
 4822000   0.48144804   -8.4261964    711.28866  0.012292421  0.010640574            3 
 4823000   0.47781053   -8.4423947    710.35143  0.012273679  0.010637102            8 
 4824000   0.47772668   -8.4272739    709.69578  0.012259808  0.010633633            3 
 4825000   0.50646516   -8.4259554    710.57299  0.012272418  0.010630166            4 
 4826000   0.46738981   -8.4396343    710.55544  0.012269572  0.010626699            6 
 4827000   0.48218607   -8.4207286    710.18171  0.012260578  0.010623237            5 
 4828000   0.48886405   -8.4419625    710.64431  0.012266023  0.010619775            6 
 4829000   0.48544934    -8.440439    709.93316  0.012251211  0.010616312            5 
 4830000   0.47881679   -8.4286921    709.35117  0.012238633   0.01061285            4 
 4831000   0.48385251   -8.4350023    710.35032  0.012253335  0.010609389            2 
 4832000    0.4798995   -8.4079712    709.71124  0.012239777  0.010605933            7 
 4833000   0.48197284   -8.4176192    709.64257  0.012236061  0.010602479            5 
 4834000   0.48244589    -8.430512    710.23415  0.012243728  0.010599024            7 
 4835000   0.47236588   -8.4277043    709.87568  0.012235017   0.01059557            4 
 4836000   0.47000293   -8.4449644    710.59798  0.012244933  0.010592119            3 
 4837000     0.478541   -8.4326319    710.66381  0.012243536  0.010588667            3 
 4838000   0.47928411   -8.4316478    708.58876  0.012205263  0.010585217            4 
 4839000   0.47429824   -8.4183129    709.53892  0.012219104  0.010581767            7 
 4840000   0.47687403   -8.4356145    710.11735  0.012226538  0.010578324            6 
 4841000   0.49039166   -8.4460197    709.96808  0.012221443  0.010574874            6 
 4842000   0.47324532   -8.4234107    710.34682  0.012225438   0.01057143            4 
 4843000   0.48635962   -8.4368714    709.59849  0.012210037  0.010567989            6 
 4844000   0.47403384   -8.4397646    710.49975  0.012223021  0.010564546            4 
 4845000   0.47914728   -8.4316136    710.04717  0.012212714  0.010561108            6 
 4846000    0.4758775   -8.4380543    710.75236   0.01222232  0.010557667            3 
 4847000   0.47009421   -8.4163977    709.58326  0.012199698  0.010554233            1 
 4848000   0.47379053    -8.438492    710.21446  0.012208032  0.010550794            9 
 4849000   0.46838786   -8.4499359     710.1901  0.012205096   0.01054736            8 
 4850000   0.46645172   -8.4369693    710.46965  0.012207382  0.010543928            4 
 4851000   0.47423062   -8.4440098    709.56593  0.012189341  0.010540495            7 
 4852000   0.47483486   -8.4237634    709.57333  0.012186956  0.010537067            4 
 4853000   0.48004608   -8.4476785    709.86696  0.012189487   0.01053364            4 
 4854000   0.48193114   -8.4443967    710.27466  0.012193975  0.010530213            2 
 4855000   0.47896789   -8.4482725    709.63765   0.01218053  0.010526789            7 
 4856000   0.47010635   -8.4155461    710.49632  0.012192757  0.010523366            5 
 4857000   0.47970453   -8.4281201    710.45985  0.012189621  0.010519944            5 
 4858000   0.48036102   -8.4360376    709.37452  0.012168494  0.010516524            8 
 4859000   0.47438845   -8.4473232    710.14713   0.01217924  0.010513102            3 
 4860000   0.47866054   -8.4572669    710.93509  0.012190245  0.010509683            8 
 4861000   0.47983787   -8.4449392    709.92014  0.012170338  0.010506262            6 
 4862000   0.46831495   -8.4459432    710.22473  0.012173055  0.010502846            6 
 4863000   0.46607798   -8.4377145    709.57473  0.012159413  0.010499428            4 
 4864000   0.47062285   -8.4405165    710.12293  0.012166306  0.010496014            5 
 4865000   0.47649251   -8.4476662    711.59308  0.012188987  0.010492601            4 
 4866000   0.46984045   -8.4440928    709.94016  0.012158175  0.010489192            3 
 4867000   0.47276756   -8.4377012    710.56362  0.012166352  0.010485779            5 
 4868000   0.48066945   -8.4325776     709.9598  0.012153516  0.010482373            6 
 4869000   0.47442855   -8.4254299    710.26609  0.012156262  0.010478967            4 
 4870000   0.47301851   -8.4458596    710.00927  0.012149372  0.010475567            5 
 4871000   0.47719998   -8.4319627    710.37405  0.012153118  0.010472165            6 
 4872000   0.46958094   -8.4312134    709.68422  0.012138824  0.010468762            8 
 4873000   0.46887435   -8.4496472    710.18494  0.012144896  0.010465365            5 
 4874000   0.46939935   -8.4321406    710.29426  0.012144273  0.010461966            5 
 4875000    0.4733024    -8.446867    709.91803  0.012135351  0.010458569            4 
 4876000    0.4724461   -8.4285524    710.25269  0.012138582  0.010455173            7 
 4877000    0.4782201   -8.4481157    709.61783  0.012125245  0.010451778            2 
 4878000   0.47173508   -8.4527357    710.80195  0.012142988  0.010448384            9 
 4879000   0.47330126   -8.4459371     710.0125  0.012127015  0.010444992            6 
 4880000    0.4691371   -8.4484442    709.63354  0.012118059  0.010441601            8 
 4881000   0.46685788   -8.4519477    708.78787  0.012101138  0.010438211            7 
 4882000   0.48039077    -8.435079    711.26955  0.012141021  0.010434824            5 
 4883000   0.47820507   -8.4430111    709.81379   0.01211369  0.010431438            7 
 4884000   0.46183561   -8.4303645     708.9271  0.012096081  0.010428054            8 
 4885000   0.47513798   -8.4399589    709.91253  0.012110415  0.010424672            4 
 4886000   0.46528183   -8.4440624    709.82793  0.012106494  0.010421289            7 
 4887000   0.46314845   -8.4528068    710.09065  0.012108496  0.010417909            7 
 4888000   0.46927755   -8.4335237    710.79237  0.012117982  0.010414527            4 
 4889000   0.47056096   -8.4583926    711.11675  0.012121033  0.010411148            2 
 4890000   0.46916802    -8.451873     709.5479  0.012091818  0.010407769            5 
 4891000   0.47632006   -8.4457673    709.26929  0.012084599  0.010404389            6 
 4892000   0.46666796   -8.4245188    710.97183  0.012111131  0.010401014            7 
 4893000   0.47734919   -8.4574967    710.31331   0.01209744  0.010397642            2 
 4894000   0.46452877   -8.4421273    709.03962  0.012073281  0.010394267            3 
 4895000   0.45455674   -8.4465666    710.52088  0.012096031  0.010390896            8 
 4896000    0.4654753   -8.4422363    709.57825  0.012077517  0.010387529            3 
 4897000   0.46603792   -8.4585779    710.28611  0.012087096  0.010384161            8 
 4898000   0.46736574   -8.4345817    710.69834  0.012091642  0.010380794            9 
 4899000   0.45975612   -8.4485038    709.60852  0.012070636  0.010377428            6 
 4900000   0.46672007   -8.4501187    710.48357  0.012083054  0.010374066            5 
 4901000   0.47257689   -8.4294199    709.77391  0.012068522  0.010370702            4 
 4902000   0.47430513   -8.4488233    709.92593  0.012068644  0.010367341            5 
 4903000   0.46500677   -8.4419667    710.37991  0.012073899  0.010363983            5 
 4904000   0.46764257   -8.4585188    710.63348  0.012075746  0.010360623            3 
 4905000   0.47029456   -8.4498407    709.99055  0.012062361  0.010357266            3 
 4906000   0.45770907   -8.4461722    709.64214  0.012053984  0.010353909            6 
 4907000   0.46329158   -8.4333641    709.37112  0.012046925  0.010350554            4 
 4908000   0.46263127   -8.4441007    709.97718  0.012054761  0.010347197            6 
 4909000    0.4556183   -8.4381009    708.99335  0.012035604  0.010343847            4 
 4910000   0.46546288   -8.4459926    709.91384  0.012048775  0.010340496            5 
 4911000   0.46144618   -8.4602288    710.01757  0.012048082  0.010337145            7 
 4912000   0.46802121   -8.4490686    708.61227  0.012021788  0.010333795            3 
 4913000   0.46510919   -8.4491041     709.7474  0.012038595  0.010330448            3 
 4914000   0.46630091   -8.4424312    710.24662  0.012044611  0.010327102            8 
 4915000    0.4636978   -8.4615238    710.13266  0.012040228  0.010323757            6 
 4916000   0.46312868   -8.4376634    709.52499  0.012027478  0.010320413            3 
 4917000   0.45931107   -8.4415662      709.381  0.012022592  0.010317072            5 
 4918000   0.46855061   -8.4477259    710.46611  0.012038534  0.010313736           11 
 4919000   0.45876837   -8.4342978    708.94919  0.012010388  0.010310399           10 
 4920000    0.4695537   -8.4709514    710.06458  0.012026839  0.010307062            7 
 4921000   0.47434207   -8.4572738    709.89061  0.012021449  0.010303727            8 
 4922000   0.46800683   -8.4507912    709.01283  0.012004145  0.010300392            4 
 4923000   0.46665947   -8.4582532    709.18438  0.012004611   0.01029706            5 
 4924000   0.45490081   -8.4527974    710.82301  0.012029905  0.010293728            6 
 4925000   0.45595192   -8.4499705    709.65984  0.012007781  0.010290398            5 
 4926000   0.45954794   -8.4697494    709.43346  0.012001513  0.010287068            7 
 4927000   0.45506113   -8.4600993    708.87565  0.011989643  0.010283738            9 
 4928000   0.46896399   -8.4324239    709.31149   0.01199458  0.010280411            6 
 4929000   0.46224887   -8.4578514    710.31111  0.012009047  0.010277087            6 
 4930000   0.46448754   -8.4444355    708.96255  0.011983816  0.010273761            6 
 4931000   0.46255337   -8.4664286    708.86204  0.011979687  0.010270438            5 
 4932000   0.46777524   -8.4553426    708.94757  0.011978703  0.010267116            7 
 4933000   0.45684113   -8.4554389    709.48152  0.011985295  0.010263793            6 
 4934000   0.46124749      -8.4487    710.07258  0.011992849  0.010260473            8 
 4935000    0.4647416   -8.4555445    709.05511  0.011973237  0.010257154            7 
 4936000   0.46205108   -8.4504835    708.89339  0.011968081  0.010253837            7 
 4937000   0.46378857   -8.4655252     709.1655   0.01197025  0.010250523            7 
 4938000   0.45855946   -8.4625622     709.3332  0.011970656  0.010247208            7 
 4939000   0.47087249   -8.4669535    709.58963  0.011972559  0.010243896            9 
 4940000   0.46486332    -8.438325    709.17539  0.011963148  0.010240583            3 
 4941000     0.459269   -8.4576908    708.32533   0.01194639  0.010237272            6 
 4942000   0.46293722    -8.457238    709.42685  0.011962546  0.010233963            3 
 4943000   0.46229425   -8.4551136    710.05959  0.011970793  0.010230655            5 
 4944000   0.45509306   -8.4590579    709.79773  0.011963958  0.010227351            5 
 4945000    0.4692775   -8.4752081    709.93928  0.011963925  0.010224046            3 
 4946000   0.45939866   -8.4474318      709.006  0.011945781  0.010220744            7 
 4947000   0.45865555   -8.4454363    708.68276  0.011937921  0.010217441            9 
 4948000   0.46071947   -8.4612239     708.6048  0.011934196  0.010214143            4 
 4949000   0.46209508   -8.4589809    709.45764  0.011946145  0.010210846            8 
 4950000   0.46743698   -8.4673954    708.36668  0.011925365  0.010207548            8 
 4951000   0.44796828   -8.4641127    709.36251  0.011939718  0.010204256            7 
 4952000   0.45982341   -8.4708339    709.28671  0.011936031   0.01020096            9 
 4953000   0.46554371   -8.4509848    709.35876  0.011934833  0.010197667            6 
 4954000   0.46572029   -8.4634529    710.12867  0.011945375  0.010194377            7 
 4955000   0.45898597   -8.4703242    709.48398  0.011932122  0.010191087            3 
 4956000   0.46511018   -8.4455614    708.54753  0.011913968  0.010187797            8 
 4957000   0.46475358   -8.4703715    709.67143  0.011930459  0.010184508            6 
 4958000   0.45248089   -8.4588662    709.83562  0.011930812  0.010181221            5 
 4959000   0.44921091   -8.4592875    710.34126  0.011936904  0.010177937            4 
 4960000   0.45883413   -8.4668184    709.61376  0.011922274  0.010174651            4 
 4961000   0.45496205   -8.4619214    708.57874  0.011902485  0.010171369            6 
 4962000   0.46147315   -8.4625666    709.45261  0.011914762  0.010168086            5 
 4963000   0.45736225   -8.4606108    708.18771  0.011891123  0.010164806            8 
 4964000   0.44087237   -8.4729231    709.13633  0.011904652  0.010161525           12 
 4965000   0.45590622   -8.4580983    709.33724  0.011905627  0.010158247            6 
 4966000   0.45286661   -8.4731359      708.561  0.011890203  0.010154969            3 
 4967000   0.45828023   -8.4667736    709.39157  0.011901744  0.010151694            3 
 4968000   0.44971122   -8.4732169    709.14941  0.011895287   0.01014842            9 
 4969000   0.44389149   -8.4618057    709.51632  0.011899046  0.010145146           11 
 4970000   0.46336847   -8.4546014    709.68542  0.011899487  0.010141875            8 
 4971000   0.45374809   -8.4460375    710.17478  0.011905297  0.010138608            6 
 4972000   0.46329868   -8.4739609     708.8951  0.011881455  0.010135341            9 
 4973000   0.45141828   -8.4551344    709.60517  0.011890964  0.010132073            3 
 4974000   0.45902919   -8.4654943    708.10522  0.011863444  0.010128807            5 
 4975000   0.45287369   -8.4712879    709.13045  0.011878232  0.010125543            6 
 4976000   0.45203477   -8.4722424    708.17399  0.011859827  0.010122279            5 
 4977000   0.44659884   -8.4598493    709.75394  0.011883898  0.010119018            6 
 4978000   0.46042324   -8.4629608    708.77792  0.011865172  0.010115762            6 
 4979000   0.46151577   -8.4781251    710.05739  0.011884204  0.010112503            5 
 4980000   0.45202994   -8.4638227    709.85887  0.011878495  0.010109246            9 
 4981000   0.45608799   -8.4688561    708.36485  0.011851115  0.010105989            9 
 4982000   0.46060888   -8.4771119    709.46027  0.011867059  0.010102733            5 
 4983000   0.45133723   -8.4571718    707.90716  0.011838704  0.010099479            6 
 4984000   0.45144447   -8.4619657    709.98671  0.011871099  0.010096228            9 
 4985000   0.45366297   -8.4580988    708.06077  0.011836522  0.010092976            5 
 4986000   0.44969819   -8.4632955    709.46577  0.011857631  0.010089725            3 
 4987000   0.44567283   -8.4721161    710.48199  0.011872234  0.010086475            2 
 4988000   0.44969829   -8.4569431     709.3568  0.011851056  0.010083228            8 
 4989000   0.45727352   -8.4708598    709.07464  0.011843967  0.010079983            6 
 4990000   0.45846563   -8.4608715    708.42323  0.011830715  0.010076738            6 
 4991000    0.4626405    -8.454976    708.84378  0.011835367  0.010073494            6 
 4992000   0.44949458   -8.4700764    708.99757  0.011835563  0.010070252            6 
 4993000   0.45740512   -8.4571814    710.13216  0.011852129  0.010067014            6 
 4994000   0.44955064   -8.4869418    709.08512  0.011832284  0.010063774            8 
 4995000   0.45289797   -8.4761878    709.45176  0.011836032  0.010060536            6 
 4996000   0.46214163   -8.4718118    710.63938  0.011853473  0.010057302            5 
 4997000   0.44468079   -8.4699767    709.32598  0.011829197  0.010054069            4 
 4998000   0.45025101   -8.4610899    708.42992   0.01181189  0.010050836            7 
 4999000   0.44577039   -8.4783558    709.78259  0.011832076  0.010047603            6 
 5000000   0.45093843   -8.4696467    708.93565  0.011815594  0.010044371           11 
 5001000   0.45418035   -8.4596847    709.03125  0.011814825  0.010041144            6 
 5002000   0.44832188   -8.4660087    709.94831  0.011827741  0.010037915           10 
 5003000   0.44137761   -8.4616568    708.91451  0.011808157   0.01003469            1 
 5004000    0.4471175   -8.4707874    709.51481  0.011815794  0.010031461            9 
 5005000   0.45200332   -8.4756293    708.83744  0.011802155  0.010028236            8 
 5006000   0.44858875    -8.476088    708.40743  0.011792639  0.010025014            8 
 5007000   0.45197216   -8.4808543    708.85655  0.011797759  0.010021793            9 
 5008000   0.45438274    -8.472166    707.49593  0.011772762  0.010018572            7 
 5009000   0.46227626   -8.4639697    709.02315   0.01179582  0.010015355            4 
 5010000    0.4476216   -8.4599879    709.28383  0.011797802  0.010012138            3 
 5011000   0.44781371   -8.4839775    709.46289  0.011798425  0.010008923            7 
 5012000    0.4574056   -8.4760183    708.45845   0.01177937  0.010005708            7 
Loop time of 11758.7 on 48 procs for 5000000 steps with 4000 atoms

Performance: 73477.224 tau/day, 425.215 timesteps/s
99.4% CPU use with 48 MPI tasks x no OpenMP threads

MPI task timing breakdown:
Section |  min time  |  avg time  |  max time  |%varavg| %total
---------------------------------------------------------------
Pair    | 745.99     | 794.9      | 853.06     |  88.3 |  6.76
Neigh   | 76.348     | 80.06      | 85.135     |  21.5 |  0.68
Comm    | 734.06     | 794.81     | 856.65     | 101.0 |  6.76
Output  | 13.842     | 13.847     | 13.943     |   0.4 |  0.12
Modify  | 9948.6     | 9967.6     | 9986.9     |   9.8 | 84.77
Other   |            | 107.5      |            |       |  0.91

Nlocal:        83.3333 ave          90 max          77 min
Histogram: 3 2 3 8 9 6 11 3 1 2
Nghost:        1992.46 ave        2017 max        1961 min
Histogram: 1 0 1 3 15 9 8 6 4 1
Neighs:        12812.9 ave       14194 max       11756 min
Histogram: 6 2 10 7 5 3 6 4 3 2
FullNghs:      25626.0 ave       27975 max       23479 min
Histogram: 3 3 3 7 9 10 7 3 1 2

Total # of neighbors = 1230049
Ave neighs/atom = 307.51225
Neighbor list builds = 268238
Dangerous builds = 2

#clear
#
#next RN
#
#jump SELF
Total wall time: 3:16:01
