
units lj                  # Use reduced LJ style units
atom_style atomic         # Uncharged point particles
atom_modify map hash      # Needed for indexing of clusters etc
                          # Used to be able to find where atoms are in relation to each other.

lattice fcc 1.0 spacing 1 1 1
Lattice spacing in x,y,z = 1.5874011 1.5874011 1.5874011
region box block 0 10 0 10 0 10 units lattice
create_box 2 box
Created orthogonal box = (0.0000000 0.0000000 0.0000000) to (15.874011 15.874011 15.874011)
  3 by 4 by 4 MPI processor grid
create_atoms 1 box
Created 4000 atoms
  using lattice units in orthogonal box = (0.0000000 0.0000000 0.0000000) to (15.874011 15.874011 15.874011)
  create_atoms CPU = 0.044 seconds
set type 1 type/fraction 2 0.36 78393
Setting atom values ...
  1453 settings made for type/fraction
mass 1 1.0
mass 2 1.0
pair_style lj/cut  3.5
pair_modify tail  yes
pair_coeff 1  1  1.0  1.0   # Intearaction between 1 and 1 set with epsilon = 1 and sigma = 1
pair_coeff 1  2  1.5  0.8
pair_coeff 2  2  0.5  0.88

write_data data.0
System init for write_data ...
Neighbor list info ...
  update every 1 steps, delay 10 steps, check yes
  max neighbors/atom: 2000, page size: 100000
  master list distance cutoff = 3.8
  ghost atom cutoff = 3.8
  binsize = 1.9, bins = 9 9 9
  1 neighbor lists, perpetual/occasional/extra = 1 0 0
  (1) pair lj/cut, perpetual
      attributes: half, newton on
      pair build: half/bin/atomonly/newton
      stencil: half/bin/3d
      bin: standard
WARNING: Not all mixed pair coeffs generated from mixing. Use write_data with 'pair ij' option to store all pair coeffs. (../write_data.cpp:312)


#############################
#   M E L T   S Y S T E M   #
#############################

velocity all create 2.4 8172548 mom yes dist gaussian # Assign velocities
                                                    # Temperature 2.4, random number seed, zero linear momentum
                                                                                # Gaussian distribution

timestep 0.002   # simulation timestep
thermo 1000       # output thermodynamic data every 1000 steps bf 100

# Define a fix  in this case with index 1 applied to all
# particles in the simulation. This fix is for simulations
# in the anisotropic NPT ensemble. Note that we use the MTK
# correction.
fix 1 all npt temp 2.4 2.4 0.1 iso 5.68 5.68 0.5 mtk yes tchain 5 pchain 5 # Use NPT ensemble
                                                                         # Set temperature and pressure and damping
                                                                         # Numbers of thermostats in chain and in barostat
run 10000          # run for 10000 steps
Per MPI rank memory allocation (min/avg/max) = 3.642 | 3.644 | 3.648 Mbytes
Step Temp E_pair E_mol TotEng Press Volume 
       0          2.4   -6.0964775            0   -2.4973775   -4.1129651         4000 
    1000     2.372165   -5.0222552            0   -1.4648972    5.4001793    4012.3071 
    2000    2.3973309   -5.0062756            0   -1.4111783    5.5802563    4005.7493 
    3000    2.4183061    -5.029114            0   -1.4025617    5.7500611    3990.0987 
    4000    2.3309346   -5.0599985            0   -1.5644706    5.8730586    3959.0619 
    5000    2.4463718   -5.0485462            0   -1.3799059    5.5234497    4001.7004 
    6000    2.3810264   -5.0169936            0   -1.4463469    5.6844064    3992.6237 
    7000    2.3991612   -5.0117657            0   -1.4139236    5.4142945    4024.9965 
    8000    2.3501452   -5.0283042            0   -1.5039678    5.8250205    3979.2393 
    9000    2.4206746   -5.0637488            0   -1.4336447    5.6864399    3977.3603 
   10000    2.4251913   -5.0369774            0      -1.4001     5.630228    3993.0506 
Loop time of 2.58138 on 48 procs for 10000 steps with 4000 atoms

Performance: 669409.070 tau/day, 3873.895 timesteps/s
99.5% CPU use with 48 MPI tasks x no OpenMP threads

MPI task timing breakdown:
Section |  min time  |  avg time  |  max time  |%varavg| %total
---------------------------------------------------------------
Pair    | 1.0848     | 1.1484     | 1.2405     |   2.7 | 44.49
Neigh   | 0.20527    | 0.21319    | 0.23142    |   0.9 |  8.26
Comm    | 0.73301    | 0.83886    | 0.91817    |   4.1 | 32.50
Output  | 0.00024398 | 0.00025019 | 0.00039534 |   0.0 |  0.01
Modify  | 0.31066    | 0.36577    | 0.40123    |   3.1 | 14.17
Other   |            | 0.01494    |            |       |  0.58

Nlocal:        83.3333 ave          93 max          73 min
Histogram: 3 0 3 7 7 7 10 5 3 3
Nghost:        1647.46 ave        1676 max        1622 min
Histogram: 1 1 9 9 7 5 6 9 0 1
Neighs:        9560.42 ave       10995 max        7744 min
Histogram: 2 0 4 3 9 11 7 6 2 4

Total # of neighbors = 458900
Ave neighs/atom = 114.72500
Neighbor list builds = 904
Dangerous builds = 202

# Equilibrate just above the melting temperature to avoid step fn in T

fix 1 all npt temp 1.25 1.25 0.1 iso 5.68 5.68 0.5 mtk yes tchain 5 pchain 5
run 2000
Per MPI rank memory allocation (min/avg/max) = 3.643 | 3.645 | 3.649 Mbytes
Step Temp E_pair E_mol TotEng Press Volume 
   10000    2.4251913   -5.0369774            0      -1.4001     5.630228    3993.0506 
   11000    1.2375292    -6.978457            0   -5.1226273    5.5805205     3188.828 
   12000    1.2520218   -7.0259508            0   -5.1483876    5.8209386    3166.0357 
Loop time of 0.58613 on 48 procs for 2000 steps with 4000 atoms

Performance: 589630.741 tau/day, 3412.215 timesteps/s
99.6% CPU use with 48 MPI tasks x no OpenMP threads

MPI task timing breakdown:
Section |  min time  |  avg time  |  max time  |%varavg| %total
---------------------------------------------------------------
Pair    | 0.26071    | 0.28187    | 0.31448    |   2.5 | 48.09
Neigh   | 0.038019   | 0.040516   | 0.044017   |   0.7 |  6.91
Comm    | 0.18159    | 0.21535    | 0.2393     |   3.1 | 36.74
Output  | 4.9825e-05 | 5.1018e-05 | 6.6849e-05 |   0.0 |  0.01
Modify  | 0.040123   | 0.043598   | 0.048371   |   1.0 |  7.44
Other   |            | 0.004742   |            |       |  0.81

Nlocal:        83.3333 ave          90 max          77 min
Histogram: 6 4 1 7 8 4 9 0 6 3
Nghost:        1922.81 ave        1950 max        1901 min
Histogram: 5 3 8 9 5 5 2 4 4 3
Neighs:        12071.5 ave       13794 max       10476 min
Histogram: 2 3 2 8 10 10 6 4 1 2

Total # of neighbors = 579434
Ave neighs/atom = 144.85850
Neighbor list builds = 143
Dangerous builds = 9

#############################
# L I N E A R  Q U E N C H  #
#############################

# Define solid atoms. This closely follows ten Wolde  Ruiz-Montero and Frenkel  Faraday Discuss  1996  104  93-110
# Compute components of the per-atom q6 vector
compute q6 all orientorder/atom degrees 1 6 components 6 nnn NULL cutoff 1.3 # compute the Q6 parameter.
                                                                             # Use all neighbours within 1.3 unit cell.

# get number of connections
compute coord_number all coord/atom orientorder q6 0.5

# An atom is solid if it has 8 or more connections (of a possible 14)
variable is_solid atom c_coord_number>=8
group solid dynamic all var is_solid    # Must be dynamic to update
dynamic group solid defined

# do clustering
compute cluster solid cluster/atom 1.3 # Create a cluster where all atoms within are solid and max 1.3 units from another member

# define chunks one chunk per cluster
compute clus_chunks solid chunk/atom c_cluster nchunk every compress yes  # Says which atoms are in which chunk

# count the size of each chunk
compute size_chunks solid property/chunk clus_chunks count


# Find the maximum entry in the vector of chunk sizes
variable max_n equal max(c_size_chunks)


# Thermo style which includes this variable
# thermo_style custom step temp pe vol v_max_n

thermo ${N}  # Print the thermo information every 100 steps
thermo 1000  

# Reset the npt fix at a lower temperature (below freezing)
fix 1  all npt temp  ${temp} ${temp}  0.1  iso  5.68  5.68  0.5  mtk yes tchain  5  pchain  5
fix 1  all npt temp  0.45 ${temp}  0.1  iso  5.68  5.68  0.5  mtk yes tchain  5  pchain  5
fix 1  all npt temp  0.45 0.45  0.1  iso  5.68  5.68  0.5  mtk yes tchain  5  pchain  5

dump dmp2 all dcd ${N} traj.dcd
dump dmp2 all dcd 1000 traj.dcd


compute msd all msd com yes
variable twopoint equal c_msd[4]/6/(step*dt+1.0e-6)
fix 9 all vector 10 c_msd[4]
variable fit equal slope(f_9)/6/(10*dt)
thermo_style custom step temp pe c_msd[4] v_twopoint v_fit v_max_n

fix 1 all npt temp 1.25 ${temp} 0.1 iso 5.68 5.68 0.5 mtk yes tchain 5 pchain 5
fix 1 all npt temp 1.25 0.45 0.1 iso 5.68 5.68 0.5 mtk yes tchain 5 pchain 5
run 5000000 # 5000000  # Run for this many steps
Neighbor list info ...
  update every 1 steps, delay 10 steps, check yes
  max neighbors/atom: 2000, page size: 100000
  master list distance cutoff = 3.8
  ghost atom cutoff = 3.8
  binsize = 1.9, bins = 8 8 8
  4 neighbor lists, perpetual/occasional/extra = 1 3 0
  (1) pair lj/cut, perpetual
      attributes: half, newton on
      pair build: half/bin/atomonly/newton
      stencil: half/bin/3d
      bin: standard
  (2) compute orientorder/atom, occasional
      attributes: full, newton on
      pair build: full/bin/atomonly
      stencil: full/bin/3d
      bin: standard
  (3) compute coord/atom, occasional
      attributes: full, newton on
      pair build: full/bin/atomonly
      stencil: full/bin/3d
      bin: standard
  (4) compute cluster/atom, occasional
      attributes: full, newton on
      pair build: full/bin/atomonly
      stencil: full/bin/3d
      bin: standard
Per MPI rank memory allocation (min/avg/max) = 9.819 | 9.824 | 9.829 Mbytes
Step Temp PotEng c_msd[4] v_twopoint v_fit v_max_n 
   12000    1.2520218   -7.0259508 8.3520648e-31 5.8000448e-33 8.3333333e+20            1 
   13000    1.2385591   -7.0161515   0.48496145 0.0031087271  0.039294962            2 
   14000    1.2401005   -7.0290792   0.96076853 0.0057188601   0.03858218            2 
   15000    1.2313094   -7.0403044    1.4468067  0.008037815  0.039733367            2 
   16000    1.2550859   -7.0138555     1.877308 0.0097776456  0.039042568            1 
   17000     1.267541   -7.0619343    2.3907717  0.011719469  0.039355303            3 
   18000    1.2483233   -7.0284652      2.88654  0.013363611  0.039544354            1 
   19000    1.2591292   -7.0446524    3.2803757  0.014387612  0.039412085            1 
   20000    1.2087766   -7.0004718    3.7437525  0.015598968  0.039020442            3 
   21000    1.2628423     -7.00059     4.165984  0.016531682   0.03862156            1 
   22000    1.2603842     -7.03017    4.5667894  0.017298444  0.038175661            1 
   23000     1.255117   -7.0455006    5.0604546   0.01833498  0.038007133            2 
   24000    1.2449476   -7.0270811     5.601093  0.019448239  0.038089936            2 
   25000     1.255328   -7.0290572    6.0205126  0.020068375  0.038106053            2 
   26000    1.2450149    -7.013077    6.5898198  0.021121217  0.038297406            1 
   27000    1.2565344   -7.0248772    7.0568924  0.021780532  0.038523111            2 
   28000    1.2603317   -7.0256577    7.4583943  0.022197602  0.038607061            3 
   29000     1.254545   -7.0276302    7.8379903   0.02252296  0.038549569            1 
   30000    1.2413931   -7.0574789     8.325968  0.023127689   0.03846337            3 
   31000    1.2496101   -7.0366931     8.796927  0.023647653  0.038394333            2 
   32000    1.2548273   -7.0486137    9.3339057  0.024307046  0.038443581            2 
   33000     1.263634   -7.0046142    9.9222597  0.025056211  0.038598721            1 
   34000    1.2585286   -7.0011683      10.3512  0.025370587  0.038737471            2 
   35000    1.2322795   -7.0034829    10.881338  0.025907948  0.038861271            1 
   36000     1.244983   -7.0445413    11.354666  0.026283949  0.038961854            2 
   37000     1.225145   -7.0317891    11.813767  0.026607582  0.039059657            3 
   38000     1.281095   -7.0326741    12.360418  0.027106179  0.039158664            1 
   39000    1.2426515   -6.9979355    12.915859  0.027597988  0.039323425            2 
   40000    1.2299799   -7.0179477    13.458602  0.028038753  0.039498718            3 
   41000    1.2481382   -7.0520491    13.933329  0.028319774  0.039645394            2 
   42000     1.231863   -6.9940856    14.443489  0.028657715  0.039748012            2 
   43000    1.2404004   -7.0264035    14.786166  0.028655359  0.039821332            1 
   44000    1.2438051   -7.0178656    15.061868  0.028526264  0.039801206            1 
   45000    1.2329203   -7.0765294    15.548568  0.028793644  0.039746915            1 
   46000    1.2328522   -7.0282919    16.121159  0.029204997  0.039712561            2 
   47000    1.2469561   -7.0564013    16.472205  0.029206038  0.039673565            1 
   48000     1.263823   -7.0506337    17.027381  0.029561425  0.039641507            1 
   49000    1.2340681   -7.0168598    17.443121  0.029665172  0.039626062            1 
   50000    1.2371048   -7.0329224    17.885714  0.029809523  0.039603745            2 
   51000    1.2469435   -7.0520925    18.102756  0.029579666  0.039521723            1 
   52000    1.2190923   -7.0429433    18.573124  0.029764622  0.039430377            2 
   53000    1.2431731   -7.0453812    19.017528  0.029901773  0.039339861            1 
   54000    1.2338875   -7.0254894    19.499298  0.030091509  0.039247099            2 
   55000    1.2389872   -7.0134988    19.851176  0.030077539  0.039149482            1 
   56000    1.2613424   -7.0393704    20.212877  0.030078686  0.039042015            1 
   57000    1.2554999   -7.0201963    20.713673  0.030283148  0.038946539            1 
   58000    1.2441647   -7.0748322    21.203416  0.030464678  0.038860425            1 
   59000    1.2454692   -7.0709743    21.716374  0.030672844  0.038802925            2 
   60000    1.2326704   -7.0550761    22.301066  0.030973702  0.038760669            1 
   61000    1.2459923   -7.0443262    22.628345  0.030913039  0.038726483            3 
   62000    1.2352762   -7.0310768    22.954841  0.030853281  0.038669824            1 
   63000    1.2555204   -7.0983054    23.264494  0.030773139  0.038594618            2 
   64000    1.2311848   -7.0566108    23.902238  0.031122705  0.038536809            1 
   65000    1.2552707   -7.0531389    24.174628  0.030993112  0.038475105            1 
   66000    1.2242134   -7.0580951    24.653072  0.031127617  0.038408944            2 
   67000     1.220862   -7.0666167    25.319372  0.031491756  0.038368461            1 
   68000    1.2498616   -7.0303326     25.64214  0.031424191  0.038325143            1 
   69000    1.2381089   -7.0271065    25.965451   0.03135924  0.038269601            1 
   70000    1.2276094   -7.0550826    26.407037  0.031436949  0.038210928            1 
   71000    1.2325039   -7.0603614     26.86169  0.031527805  0.038159172            1 
   72000    1.2273103   -7.0981254    27.069046  0.031329914  0.038093664            1 
   73000     1.249104   -7.0481319     27.69531  0.031615651  0.038041157            1 
   74000    1.2521925   -7.0175187    28.392488  0.031973522   0.03800777            2 
   75000    1.2266788   -7.0595418    28.738953   0.03193217  0.037981721            2 
   76000    1.2115799   -7.0032072    29.320577  0.032149755  0.037952726            2 
   77000    1.2222196   -7.0603902    29.653402  0.032092426  0.037921902            1 
   78000    1.2523558   -7.0328638    30.076773  0.032133305  0.037900237            1 
   79000    1.2489449    -7.045067    30.663092  0.032345034  0.037881407            3 
   80000    1.2310269   -7.0212632    31.069316   0.03236387  0.037868171            1 
   81000    1.2446837   -7.0658028    31.265128  0.032165769  0.037842381            1 
   82000    1.2358404   -7.0055019    31.777061  0.032293761  0.037810635            1 
   83000    1.2604825   -7.0638554    32.013196  0.032141763  0.037773205            1 
   84000    1.2336812    -7.042348    32.593904  0.032335222  0.037735062            2 
   85000    1.2451733   -7.0525648    32.894872  0.032249874  0.037695502            3 
   86000      1.23168   -7.0780089    33.135495  0.032108038  0.037654844            2 
   87000    1.2481498   -7.0545084    33.711893  0.032291085  0.037614802            2 
   88000    1.2369764   -7.0927538    33.960466  0.032159532   0.03756722            1 
   89000    1.2662126   -7.0456941    34.565403  0.032364609  0.037529227            1 
   90000    1.2567474   -7.0280322    35.301262  0.032686354  0.037502598            1 
   91000    1.2438831   -7.0565429    35.827784  0.032809325  0.037487574            1 
   92000    1.2320995   -7.0762122    36.155066  0.032749153  0.037472664            2 
   93000    1.2511841   -7.0715734    36.516919  0.032721253  0.037456106            1 
   94000     1.213962   -7.0864361    37.056405  0.032851423  0.037440896            1 
   95000    1.2375859   -7.0565921    37.504346  0.032898549  0.037423624            2 
   96000    1.2425562   -7.1011582    37.865925  0.032869726  0.037404002            1 
   97000    1.2206714   -7.0597962    38.286239  0.032891958  0.037389811            2 
   98000    1.2439659   -7.0721342    38.619206  0.032839461  0.037365277            1 
   99000    1.2275467   -7.0743697    38.920345  0.032761233  0.037333956            2 
  100000    1.2339726   -7.0208955    39.316871  0.032764059   0.03729706            2 
  101000    1.2362443   -7.0542803    39.717241  0.032770001  0.037265258            3 
  102000    1.2309587   -7.0812444    40.178126  0.032825266  0.037231189            1 
  103000    1.2414701   -7.0493682    40.680341  0.032912897  0.037197375            1 
  104000    1.2157803   -7.0586175     40.98124  0.032837532  0.037166127            1 
  105000    1.2410682   -7.0913332    41.457554   0.03290282  0.037143595            2 
  106000     1.227881   -7.0589724    41.925139  0.032960015  0.037113961            2 
  107000    1.2429877   -7.0950432    42.326435  0.032964513  0.037084433            2 
  108000    1.2423242   -7.0693058    42.920698  0.033117822  0.037063228            1 
  109000    1.2466893   -7.0722651    43.493842  0.033252173  0.037052236            2 
  110000    1.2142038   -7.0252359    43.784197  0.033169846   0.03704021            1 
  111000    1.2229524   -7.0700346    44.604253  0.033486676  0.037035016            1 
  112000    1.2381382   -7.0142858    44.933064  0.033432339  0.037035173            2 
  113000    1.2239301    -7.060684    45.107924   0.03326543  0.037024454            1 
  114000    1.2367588   -7.0741603    45.553001  0.033298977  0.037011838            1 
  115000    1.2581533   -7.0739245    46.026617  0.033352621  0.037002019            1 
  116000    1.2407929   -7.0326094    46.526054  0.033423889  0.036989241            1 
  117000    1.2203887   -7.0208576    46.912349  0.033413354  0.036978137            2 
  118000    1.2322732   -7.0022202    47.330094  0.033425208  0.036964664            2 
  119000    1.2550929   -7.0611408     47.71553  0.033414236   0.03694875            1 
  120000    1.2427293   -7.0609914    48.188177  0.033464011  0.036933498            1 
  121000    1.2276816   -7.0463168    48.712307  0.033548421  0.036917512            1 
  122000    1.2169303   -7.0647537    49.095423  0.033535125   0.03690477            1 
  123000    1.2353289   -7.0541192    49.546912  0.033568368  0.036897051            2 
  124000    1.2172093   -7.0438849     49.87321  0.033516942  0.036887253            1 
  125000    1.2447957    -7.093089    50.289841   0.03352656  0.036874353            1 
  126000    1.1760323    -7.047141    50.645054  0.033495406  0.036861184            2 
  127000    1.2288523   -7.0901351    50.984001  0.033454069  0.036843305            1 
  128000    1.2328584   -7.0508172    51.562507  0.033569341  0.036829977            1 
  129000    1.2132699   -7.1019218    52.089658   0.03364965  0.036821407            3 
  130000    1.2087802   -7.0645095    52.807463  0.033850938   0.03681371            3 
  131000    1.2320226   -7.0841392    53.115381   0.03378841  0.036807796            1 
  132000    1.2318579   -7.1048263    53.053189  0.033493175  0.036794362            1 
  133000    1.2441394   -7.1057448    53.499676    0.0335211  0.036774463            1 
  134000    1.2170014   -7.0477146    54.015825  0.033591931  0.036756481            1 
  135000    1.2305456   -7.1005098    54.524517  0.033657109  0.036741677            2 
  136000    1.2456984   -7.0895941     54.82384  0.033593039  0.036726666            2 
  137000    1.2459367   -7.0673945    55.404583  0.033701085  0.036712457            2 
  138000    1.2055409   -7.0427231     55.90169  0.033757059  0.036695982            1 
  139000    1.2331246   -7.0582375    56.233363  0.033713047  0.036677415            1 
  140000     1.232849   -7.0437893    56.367454  0.033552056   0.03666042            2 
  141000     1.229347   -7.0111155    57.051399  0.033718321  0.036640648            3 
  142000    1.2120738   -7.0746128    57.106822  0.033513393  0.036622189            2 
  143000    1.2199839   -7.0727696    57.631242   0.03358464  0.036603929            3 
  144000    1.2153352   -7.0584446     58.36568  0.033776435  0.036587805            3 
  145000    1.2558059   -7.0588849    58.857265  0.033826014  0.036575155            1 
  146000     1.252164     -7.07023    58.944358   0.03364404  0.036558538            2 
  147000    1.2216753   -7.1030581    59.492533  0.033725926  0.036544437            2 
  148000    1.2351927   -7.0480645    60.132575  0.033858432  0.036529827            1 
  149000    1.2516479   -7.0454168    60.439267  0.033802722  0.036517872            2 
  150000      1.25008   -7.0816255    60.667396  0.033704109  0.036503121            2 
  151000    1.2409025    -7.053127    61.046944  0.033690366  0.036489501            2 
  152000    1.2392173   -7.0293881    61.722148  0.033838897  0.036475222            1 
  153000    1.2345671   -7.0901896    61.826029  0.033674308  0.036459196            1 
  154000    1.2387859   -7.0971249     62.43443  0.033784864  0.036445117            1 
  155000    1.2239573    -7.061839    62.895194  0.033814621  0.036434685            1 
  156000    1.2280373   -7.1263946    63.029144  0.033669415  0.036423379            4 
  157000     1.222083   -7.0530279    63.759412  0.033842575  0.036410459            1 
  158000    1.2203108   -7.0723947    64.178809  0.033849582  0.036397019            3 
  159000    1.2250648   -7.0585116     64.76295  0.033942846  0.036386205            2 
  160000    1.2089747   -7.0635295    65.067297  0.033889217   0.03637731            2 
  161000    1.2259826   -7.0365578    65.576227  0.033942147  0.036367062            3 
  162000    1.2225647   -7.0536044    66.107026  0.034005672  0.036355582            2 
  163000    1.2143185   -7.1065167    66.129811  0.033808697  0.036343233            2 
  164000    1.2236711   -7.0951118    66.443626  0.033762005  0.036328911            1 
  165000    1.2254175    -7.095664    66.900862  0.033788314  0.036315278            2 
  166000    1.2264265   -7.1094403    67.458923  0.033864921  0.036303389            2 
  167000    1.2222071   -7.1483973    68.111278  0.033987664  0.036296748            1 
  168000    1.2242424   -7.0434197    68.723771  0.034089172  0.036290565            3 
  169000    1.2244834   -7.0893842    69.254729  0.034149275  0.036286599            2 
  170000    1.2284533   -7.0758156    69.419913  0.034029369   0.03628152            1 
  171000    1.2184384   -7.0262918     69.98715  0.034106798  0.036275487            4 
  172000    1.2096439   -7.1036492    70.153527  0.033989112  0.036267296            1 
  173000    1.2185176   -7.0598652    70.825319  0.034116242  0.036262192            2 
  174000    1.1935208   -7.1261579    71.109537  0.034056291  0.036256014            1 
  175000    1.2092593   -7.0811854    71.881854  0.034229454  0.036254678            2 
  176000    1.2536331   -7.0426025    72.276867  0.034222001  0.036252477            2 
  177000      1.20653   -7.0811945    72.616248   0.03418844  0.036252206            1 
  178000     1.238259   -7.0613067    73.316538  0.034324222  0.036255634            1 
  179000    1.1778807   -7.0604478    73.878026  0.034393867  0.036258215            2 
  180000    1.1962134   -7.0666504    74.494252  0.034488079  0.036263718            1 
  181000    1.1904325   -7.0783757    74.732063  0.034407027  0.036269835            2 
  182000    1.2303794   -7.0458123     75.02039  0.034349996  0.036272156            1 
  183000    1.2130059   -7.0780021    75.577866   0.03441615   0.03627246            2 
  184000    1.2267265   -7.0523059    75.849493  0.034352125  0.036272212            3 
  185000    1.2319991   -7.0973633    76.144193  0.034299186  0.036271086            1 
  186000    1.2339478   -7.1176696    76.186245  0.034133622  0.036268267            2 
  187000    1.1923742   -7.0901669    76.714209  0.034186367  0.036262367            2 
  188000    1.2345703   -7.1001579     76.67527  0.033987265  0.036253825            6 
  189000    1.2392746   -7.0885836    76.901449  0.033907164  0.036237042            1 
  190000    1.2089388    -7.090014    77.288504  0.033898467  0.036222518            2 
  191000    1.2165663   -7.0812178    77.998211  0.034030633  0.036209879            1 
  192000    1.2270993    -7.052295    78.366312  0.034013156  0.036196526            2 
  193000    1.2191893   -7.1064037    78.353126  0.033831229  0.036180894            1 
  194000    1.2407372   -7.0735237    78.833221  0.033863067  0.036162571            1 
  195000    1.2069383   -7.0842036    79.235588  0.033861362  0.036145284            4 
  196000    1.2414365   -7.0971907    79.772369  0.033916823  0.036130337            2 
  197000    1.2292915   -7.0807929    80.182449  0.033918126  0.036115014            1 
  198000     1.204053   -7.1190898     80.59088  0.033918721  0.036099178            1 
  199000    1.2311134   -7.0384598    80.810159    0.0338401  0.036082496            1 
  200000    1.2226758   -7.0687118     81.27912    0.0338663  0.036061386            1 
  201000    1.2067578   -7.0434589    81.659477  0.033855504   0.03604237            2 
  202000    1.2241846   -7.0847872    81.845893  0.033764807  0.036022285            1 
  203000    1.2247901   -7.1436301    82.058272  0.033685661  0.036001748            2 
  204000       1.2254   -7.1258208    82.194799  0.033576307  0.035978733            1 
  205000    1.2138144   -7.0870551    82.529314  0.033548501   0.03595443            6 
  206000    1.2484306    -7.094759    83.053169   0.03359756  0.035930014            2 
  207000     1.206117   -7.1098074    83.394431  0.033572637  0.035907275            2 
  208000    1.2115557   -7.0331239    84.532268  0.033867094  0.035886935            1 
  209000    1.2198306    -7.068685    84.556984  0.033714906  0.035868741            2 
  210000    1.2027933   -7.0689372    85.219341  0.033817199  0.035849641            1 
  211000    1.2123976   -7.0739801    85.418978  0.033735773  0.035833104            1 
  212000    1.2314713   -7.0929007    85.726314   0.03369745  0.035815508            3 
  213000    1.2214416    -7.126396    86.107291  0.033688298  0.035798559            2 
  214000    1.2024778   -7.0372309    86.992805  0.033875703  0.035781686            1 
  215000    1.1965983   -7.0975622    87.435748  0.033889825  0.035769099            2 
  216000    1.2325652   -7.0896879    88.055396  0.033971989  0.035756007            4 
  217000    1.2278549   -7.1194667    88.496935  0.033984998  0.035746203            2 
  218000    1.2203329   -7.1101243    88.955864  0.034004535  0.035734678            1 
  219000    1.2243214    -7.078598    89.550762  0.034075632  0.035726759            1 
  220000     1.219567   -7.0923413    89.736856  0.033991233  0.035718861            3 
  221000    1.1936971   -7.0950123    90.117194  0.033980842  0.035712716            1 
  222000    1.2206715   -7.0890673    90.420192  0.033941514  0.035702639            2 
  223000    1.2284277   -7.0874721     90.48821  0.033814727   0.03569077            1 
  224000    1.2128022   -7.0881691    90.851998  0.033799106  0.035676943            2 
  225000    1.2200864   -7.0713114     91.69567  0.033961359  0.035663842            3 
  226000    1.2178808   -7.0662661    91.815054  0.033855108  0.035649418            1 
  227000    1.2180095    -7.110367    91.994778  0.033771945  0.035633501            1 
  228000    1.1857743    -7.113698    92.380587  0.033764834   0.03561764            5 
  229000    1.2178502   -7.1352994    92.585131  0.033691823  0.035601239            1 
  230000    1.2138759   -7.1315265    92.983384  0.033689632  0.035586824            1 
  231000    1.2283894   -7.1257347    93.500339  0.033730281   0.03557506            2 
  232000    1.2105949   -7.1059278    94.481151  0.033937195  0.035563769            1 
  233000    1.2205196   -7.0788707    94.370428  0.033751941  0.035551701            3 
  234000    1.2621669   -7.1250263    94.787017   0.03375606   0.03553968            2 
  235000    1.2291386   -7.0581406    95.734261  0.033948319  0.035529784            2 
  236000    1.2097376   -7.1024277    95.854225  0.033846831  0.035518812            4 
  237000    1.2222129   -7.1213528    96.111177  0.033794366  0.035508584            1 
  238000    1.1874026    -7.103541    96.433471  0.033765221  0.035496489            2 
  239000    1.2036226   -7.1016593    96.594796  0.033680194  0.035481068            1 
  240000    1.1941886   -7.1461828    97.180258  0.033743145  0.035464622            1 
  241000    1.2148751   -7.1182028    97.387274  0.033674714  0.035448394            2 
  242000    1.2087253   -7.1192146    97.724931  0.033651836  0.035433526            1 
  243000    1.2278227   -7.1374514    97.778196  0.033531617   0.03541787            2 
  244000    1.2008777   -7.0946085    98.710254  0.033712518   0.03540195            1 
  245000     1.198182   -7.0980203    99.574988  0.033869044  0.035389172            3 
  246000    1.2155112   -7.1105649    99.437541  0.033684804  0.035376526            1 
  247000    1.1788415   -7.1226206    99.881987  0.033698376  0.035362544            2 
  248000    1.2072212   -7.0822016    100.33676  0.033715309  0.035347209            1 
  249000    1.2251376   -7.1263073    100.28219  0.033561642  0.035330848            3 
  250000    1.2252683   -7.1276623    100.93999  0.033646662  0.035316594            2 
  251000    1.2324997   -7.0740161    101.95048    0.0338481  0.035303199            1 
  252000     1.205341   -7.1003866    102.01436  0.033734907  0.035291787            2 
  253000    1.2185877    -7.104428    102.16002  0.033649544   0.03527851            2 
  254000    1.2235792   -7.1439406     102.4738  0.033620013  0.035264397            1 
  255000    1.1935099   -7.1233628    103.12124  0.033699752  0.035249869            2 
  256000    1.2491427   -7.1424577    103.30688  0.033628542  0.035237468            1 
  257000    1.2233664   -7.1164342    103.95456  0.033707705  0.035224747            3 
  258000    1.1858981     -7.14348    104.08672  0.033619742   0.03521149            1 
  259000    1.1993877   -7.0872891    104.31874  0.033564587  0.035199335            1 
  260000    1.1938362   -7.1137866    104.95318  0.033638839  0.035185639            1 
  261000    1.2188353   -7.0702528    105.25683  0.033606905  0.035172223       -1e+20 
  262000    1.1945686   -7.1103143    105.33198  0.033502537  0.035156344            1 
  263000     1.222216   -7.1306631     105.8669  0.033544645  0.035141297            1 
  264000    1.2418236    -7.090107    106.47028  0.033608043  0.035126741            1 
  265000    1.2069141   -7.0796331    106.76628  0.033574303  0.035112945            1 
  266000    1.1972516   -7.0787688    107.30008  0.033615312  0.035097916            1 
  267000    1.2545152   -7.1250292    107.45655  0.033538248  0.035084063            2 
  268000     1.193311   -7.1647497    107.27499  0.033356652  0.035068605            2 
  269000    1.2101051   -7.1453738    108.25768  0.033537075  0.035053657            1 
  270000    1.2129541   -7.0784429    109.02061  0.033648336   0.03504138            1 
  271000    1.1897819   -7.1311286    109.21792  0.033584847  0.035029729            3 
  272000    1.2022682   -7.1265156    109.92039   0.03367659  0.035018059            1 
  273000    1.1974127    -7.159225    109.85933  0.033534594  0.035005398            1 
  274000    1.2077256   -7.1024698    110.60288  0.033638347   0.03499304            1 
  275000    1.2247636   -7.0746578    111.40865  0.033760198  0.034981655            1 
  276000    1.1927429   -7.1286442     110.8954   0.03348291  0.034969439            1 
  277000    1.2209665   -7.1023224    111.60047  0.033574149  0.034956742            2 
  278000    1.1921947   -7.1276098    111.93713  0.033554294  0.034943932            2 
  279000    1.2234631   -7.1141665    112.48063  0.033596366  0.034932539            1 
  280000    1.2318617   -7.1319399    113.48268  0.033774608  0.034922966            2 
  281000    1.1729209   -7.1084887    113.34222  0.033612758  0.034914655            1 
  282000    1.2127024   -7.1449074    113.53864  0.033551609  0.034904477            1 
  283000    1.2045661   -7.1712778    113.66898  0.033471431  0.034893398            3 
  284000    1.2218207    -7.105203    114.58425   0.03362214   0.03488294            1 
  285000    1.2123796   -7.0886034    115.60415  0.033802383  0.034874545            1 
  286000    1.1937363   -7.1363071    115.41944  0.033630372   0.03486591            1 
  287000    1.1915428   -7.1026483    115.54522  0.033549715  0.034855346            1 
  288000    1.2292792    -7.098157    115.80216   0.03350757  0.034842732            1 
  289000    1.2114204    -7.101822    116.82825    0.0336875  0.034833421            1 
  290000    1.1980069   -7.1182389     116.9495  0.033606179   0.03482505            5 
  291000    1.2176162   -7.1207863    117.42798  0.033627716   0.03481546            2 
  292000    1.2184331   -7.1231288    117.68677  0.033586407  0.034805719            2 
  293000    1.2084728   -7.1196485    118.01994  0.033566535   0.03479523            2 
  294000    1.2108095   -7.1214226    118.50393   0.03358955  0.034785913            1 
  295000    1.2053463   -7.0981108    119.37587  0.033721996  0.034777743            3 
  296000    1.2288345   -7.0844623    119.73869  0.033710216  0.034769285            1 
  297000    1.2070216   -7.1392765    119.64682  0.033570938  0.034759837            2 
  298000    1.1955853    -7.118384    120.56378  0.033714703  0.034751802            2 
  299000     1.199754   -7.1500781     120.6511  0.033626282  0.034743709            2 
  300000    1.2027431   -7.1335355    121.36103  0.033711397  0.034737037            4 
  301000    1.1745794   -7.0904884    121.80767  0.033723054  0.034730431            1 
  302000    1.1977445   -7.0895502    122.81057  0.033888127  0.034725323            1 
  303000    1.1857219   -7.1037918    123.03294  0.033837442  0.034719936            4 
  304000    1.1971748   -7.0926393    123.09114  0.033742087  0.034714192            1 
  305000    1.2081265    -7.160472     122.8798  0.033573716  0.034707007            2 
  306000    1.2024443   -7.1142394    123.31397  0.033582235  0.034699928            1 
  307000    1.1775339   -7.1192765    123.80041   0.03360489  0.034692288            1 
  308000    1.1957294   -7.1346326    124.17629   0.03359748   0.03468458            1 
  309000    1.1974376   -7.1724212    124.78835  0.033653817   0.03467664            1 
  310000    1.2542476   -7.1596264    125.05693  0.033617454  0.034670004            1 
  311000    1.1999971    -7.073691    125.97224  0.033754619  0.034663801            1 
  312000     1.212738   -7.1250544    125.72916  0.033581507  0.034656882            3 
  313000     1.194514   -7.1335626    126.26183  0.033616035  0.034650629            4 
  314000    1.1961537   -7.1235642    126.65108  0.033612283  0.034644756            2 
  315000    1.2094743    -7.152698    127.39136  0.033701417   0.03463853            1 
  316000    1.1821869   -7.1373958    127.71493  0.033680097  0.034632147            1 
  317000    1.2053452   -7.1663114    127.78554  0.033592414  0.034624812            1 
  318000    1.2178151   -7.1338061    128.01229  0.033546196  0.034616095            1 
  319000    1.2233211   -7.1555922    128.16393   0.03348065  0.034607313            2 
  320000    1.2025939   -7.1313844    128.61318  0.033493016  0.034598599            1 
  321000    1.1838106   -7.1164704    129.49896  0.033618629  0.034589946            1 
  322000    1.1909466   -7.1420433    129.75488  0.033580456  0.034581456            4 
  323000    1.2179799   -7.1629897    130.02465  0.033546091  0.034572541            1 
  324000    1.2219893   -7.1600295    130.43861  0.033549024  0.034564705            1 
  325000    1.2008264    -7.108567    131.27153  0.033659368  0.034557722            1 
  326000    1.2152178   -7.1453052    131.65161  0.033653275  0.034550804            1 
  327000    1.1965759   -7.1313738    131.98941  0.033636446  0.034545106            1 
  328000    1.1909476    -7.112984    132.55809  0.033678377   0.03453932            1 
  329000    1.2124811   -7.1145574    132.59154  0.033584484  0.034534334       -1e+20 
  330000    1.2142837   -7.1226802    133.71324   0.03376597  0.034528893            2 
  331000    1.2070382   -7.1352273    133.88607  0.033707469  0.034523532            1 
  332000    1.1894658   -7.1410962    133.65704  0.033548453  0.034518887            1 
  333000    1.2131752   -7.1222854     134.4855   0.03365503  0.034514502            2 
  334000    1.2139192   -7.1234144    135.03018  0.033690164   0.03450999            1 
  335000    1.1951894   -7.1618855    135.30527  0.033658027  0.034504989            3 
  336000    1.1899018   -7.1668367    135.19446  0.033530372  0.034499284            1 
  337000    1.1909973    -7.121021    136.22438  0.033685555  0.034493971            1 
  338000    1.1938909   -7.1371711    136.36747   0.03362117  0.034487524            1 
  339000    1.1975032   -7.1425253    136.60263  0.033579801  0.034480426            2 
  340000     1.190168   -7.1017212    136.68506   0.03350124  0.034473151            1 
  341000    1.2107317   -7.1381619    136.96908  0.033472404    0.0344657            2 
  342000    1.1760984   -7.1020733     137.9534  0.033614376  0.034458152            2 
  343000    1.1773335   -7.1438684    137.82242  0.033484554  0.034451248            3 
  344000    1.1790013    -7.120804    138.27436  0.033496695  0.034444723            3 
  345000    1.1730097   -7.1737018    138.77842  0.033521356  0.034438708            1 
  346000    1.1886661   -7.1308515    139.61656   0.03362634  0.034433973            2 
  347000     1.199797   -7.1605561    139.88205  0.033593193  0.034430427            1 
  348000    1.2032931   -7.1806315    140.66378  0.033683855  0.034427198            1 
  349000    1.1842803   -7.1601246    141.22822  0.033722116   0.03442398            2 
  350000    1.2051151   -7.1624255    141.24173  0.033628983  0.034419596            1 
  351000    1.2252551   -7.1751579    141.40887  0.033572855  0.034414804            1 
  352000    1.1959523   -7.1468881    142.56505  0.033751196   0.03441138            3 
  353000     1.205892   -7.1509849    143.10971  0.033784161  0.034408367            2 
  354000    1.2094246   -7.2011915    142.96753  0.033655256  0.034406797            2 
  355000     1.227551   -7.1338508    143.51901  0.033689907   0.03440401            1 
  356000    1.1716196   -7.1540815    143.94703  0.033695466  0.034399738            2 
  357000    1.1602313   -7.0892486    144.72707  0.033783163  0.034396139            1 
  358000    1.2007391   -7.1464875    144.56889  0.033651976  0.034392604            2 
  359000    1.1965663   -7.1798926    144.06652  0.033441625   0.03438806            1 
  360000    1.2043216   -7.1814201    145.37989  0.033652751  0.034382905            2 
  361000    1.2056078   -7.1408114    145.58199  0.033606185  0.034379195            3 
  362000    1.1765614   -7.1515314    146.39219  0.033699859  0.034375887            2 
  363000    1.2190467   -7.1140248    147.12645  0.033775586  0.034373355            1 
  364000    1.1602154   -7.1855225    147.72204  0.033819149  0.034371202            2 
  365000    1.1912958   -7.2169352    147.47402  0.033669868  0.034368974            2 
  366000    1.1541726    -7.142452     149.3823  0.034012363   0.03436747            1 
  367000    1.2179124   -7.0764168    149.29277  0.033899357  0.034367151            1 
  368000    1.1972735   -7.1247694    149.39161  0.033829622  0.034367117            1 
  369000    1.1793257   -7.1557889     149.7605  0.033821251  0.034367124            1 
  370000    1.1996441   -7.1287961    149.92414  0.033766699   0.03436664            1 
  371000    1.1790647   -7.1517989    150.36884  0.033775571  0.034365348            1 
  372000    1.1732887   -7.2111039    149.95399  0.033591844  0.034363474            2 
  373000    1.2249305   -7.1473033    150.78018  0.033686367  0.034360653            2 
  374000    1.2118666   -7.2048366    151.13962  0.033676386  0.034358498            1 
  375000    1.2026753    -7.152147    151.49149  0.033664776  0.034355107            3 
  376000     1.177717   -7.1125731    151.73708  0.033629671   0.03435201            2 
  377000    1.1634459   -7.1782951    152.14656  0.033630981  0.034347776            2 
  378000    1.1902234   -7.1347114    152.46235  0.033611628  0.034343688            1 
  379000    1.1946735   -7.1428357    153.25007  0.033696145  0.034339325            1 
  380000    1.1913027   -7.1967729    152.70009  0.033486862  0.034333563            1 
  381000    1.1818361   -7.1340478    153.27237   0.03352414  0.034327656            1 
  382000    1.1617737   -7.1519171    153.61378  0.033510859  0.034321871            3 
  383000    1.1919949   -7.1681901    153.63001  0.033426896  0.034315122            1 
  384000    1.2124517   -7.2076032    154.41652  0.033510529  0.034307768            1 
  385000    1.2064632   -7.1923591    154.64276  0.033472458  0.034300527            3 
  386000    1.1758946    -7.129823    155.14553  0.033494286  0.034293981            3 
  387000    1.1551848   -7.1215484    155.34163  0.033449963  0.034287177            2 
  388000    1.2036598   -7.1780868    155.75188  0.033451863   0.03427997            2 
  389000    1.1948849   -7.1695556    155.82112  0.033380703  0.034271478            1 
  390000    1.1784961   -7.1510352    156.14596  0.033364522  0.034263563            2 
  391000    1.1817945   -7.1350619    156.88451  0.033436597   0.03425653            2 
  392000    1.1789806   -7.2092115    156.00029  0.033163326  0.034248415            3 
  393000    1.1997471   -7.1637173    157.32928  0.033360746  0.034239839            1 
  394000    1.2065938   -7.1755026    157.26279  0.033262011   0.03423138            1 
  395000    1.2005647    -7.153285    158.42276  0.033422524  0.034223998            2 
  396000    1.1700294   -7.1368851    158.25934  0.033303733  0.034216545            1 
  397000    1.1982456   -7.1957666    158.56115  0.033283197  0.034207925            1 
  398000    1.1933497   -7.1541442    159.44009  0.033383603  0.034199961            2 
  399000    1.1973001    -7.145674    159.98932  0.033414645  0.034192707            1 
  400000    1.2018959   -7.1578861    160.54427  0.033446724  0.034186011            3 
  401000    1.1742918   -7.1591228    161.03079   0.03346442  0.034179192            2 
  402000      1.17301   -7.1678358     161.0647  0.033388205  0.034173243            2 
  403000    1.2025503   -7.1785129    161.21036  0.033335475  0.034166064            2 
  404000    1.2038331   -7.1872658    161.53666  0.033320269  0.034159183            4 
  405000    1.2063949   -7.1614412    162.07229  0.033348207  0.034152132            1 
  406000    1.1965029    -7.165693    162.94907  0.033446033  0.034145265            3 
  407000    1.1871071   -7.1932832    162.43046  0.033257669   0.03413831            2 
  408000    1.1849872   -7.1663124    163.24025  0.033341554  0.034131018            1 
  409000    1.1744957   -7.1536462    163.63964   0.03334141  0.034123397            2 
  410000    1.1719724   -7.1023215     163.5435  0.033240549  0.034114885            2 
  411000    1.1920866   -7.1596303    163.28284  0.033106822  0.034106484            1 
  412000    1.1956392    -7.150502    164.38336  0.033249062   0.03409759            1 
  413000    1.1971178   -7.1810707    164.16073  0.033123633  0.034089509            3 
  414000    1.1830208   -7.1406592    165.11704  0.033236119  0.034080887            1 
  415000    1.1754885   -7.1413497    165.75137  0.033283408  0.034072726            1 
  416000    1.1634959   -7.1497501    165.84826  0.033222808  0.034064637            1 
  417000    1.1917641    -7.144545    165.78277   0.03313005  0.034056334            1 
  418000     1.156012   -7.1452762    166.44492    0.0331828  0.034048249            1 
  419000    1.1860433   -7.1886799    166.51472  0.033117485  0.034039924            3 
  420000    1.2150621   -7.1612041    167.26696   0.03318789  0.034031243            1 
  421000    1.1805105    -7.166321    167.18355  0.033092548  0.034021911            1 
  422000    1.1868477   -7.2066574    168.04022  0.033183298  0.034013364            1 
  423000    1.1870949   -7.1485373    168.97473  0.033288954   0.03400579            3 
  424000    1.1928371   -7.1843523    168.82808   0.03318162  0.033998649            2 
  425000    1.2100283   -7.1149678    170.19997  0.033372543  0.033991173            1 
  426000    1.2000386   -7.2131538    169.28722  0.033115653    0.0339847            3 
  427000    1.1536623   -7.1686172    170.20705  0.033217613  0.033977559            1 
  428000    1.1769342   -7.1590999     170.6926   0.03323454  0.033970752            2 
  429000    1.1645595   -7.1780291    170.72515  0.033163394  0.033963251            1 
  430000    1.1952569   -7.1489801    171.31137  0.033199878  0.033955695            1 
  431000    1.1867282   -7.2134162    170.94389  0.033051796  0.033947927            1 
  432000    1.1590553   -7.1492386     172.2057  0.033218693  0.033940205            3 
  433000    1.1900214    -7.201158    171.50303  0.033006743  0.033932231            2 
  434000    1.1736955   -7.1860271    172.94746  0.033208037  0.033924364            1 
  435000    1.1961964    -7.152393    172.73589  0.033091166  0.033917118            3 
  436000    1.1678672   -7.1896904    173.60822  0.033181999  0.033909397            2 
  437000    1.1629894   -7.1857287      173.856  0.033153318  0.033902195            1 
  438000    1.1633314   -7.1642404    173.98207  0.033101612  0.033894778            3 
  439000    1.1996399   -7.1774749      174.615  0.033146355  0.033887506            4 
  440000     1.168011   -7.1872022    174.31529  0.033014259  0.033879532            2 
  441000    1.1587983   -7.2117923    174.25284  0.032927597  0.033870937            3 
  442000    1.1924796    -7.182363    175.36871  0.033063481  0.033862439            1 
  443000    1.1895098   -7.2227662    175.31683  0.032979088  0.033854168            1 
  444000    1.1624351   -7.2097675    176.36778   0.03310206  0.033846694            1 
  445000    1.1626941    -7.153384    176.89235  0.033125907  0.033839813            6 
  446000    1.1511945   -7.1379172    177.55253  0.033174987  0.033833319            1 
  447000    1.1704506   -7.2339554    177.54418  0.033099213  0.033826383            1 
  448000    1.1750953   -7.1863201    177.75329  0.033064228  0.033818726            1 
  449000    1.1353266   -7.1707791    178.17091  0.033068098  0.033811416            1 
  450000    1.1562905   -7.1611613    177.80061  0.032926039  0.033803576            1 
  451000    1.1887942   -7.1684663    178.89652  0.033055528  0.033795393            1 
  452000    1.1711783   -7.1844778    178.95878  0.032993875  0.033787601            2 
  453000    1.1844107   -7.1972482    179.10701  0.032948309  0.033779233            1 
  454000    1.1987609   -7.1578932    180.00851  0.033041209  0.033770948            1 
  455000    1.1728789    -7.208545    179.58772  0.032891523  0.033762545            3 
  456000    1.1747417   -7.1410501    180.95533  0.033069321   0.03375377            2 
  457000    1.1998221   -7.1243932    181.47202  0.033091177  0.033745439            1 
  458000    1.1672117   -7.1691293    180.97045  0.032927666  0.033737074            2 
  459000    1.1789195   -7.1448642    181.33271  0.032921697  0.033728424            2 
  460000    1.1644661   -7.1905843    182.00153  0.032971292  0.033720202            1 
  461000    1.1525507    -7.184403    181.96392  0.032892973   0.03371166            2 
  462000    1.1732063   -7.2029402    182.77887  0.032968771  0.033703365            2 
  463000    1.1869159   -7.2022581    181.96288  0.032750699  0.033694792            2 
  464000    1.1638462   -7.1760433    183.44551  0.032946391  0.033686761            1 
  465000      1.19297   -7.1965577    182.79414  0.032758807  0.033678968            2 
  466000    1.1588551   -7.2204755    184.03313  0.032910073   0.03367076            1 
  467000    1.1821166   -7.1435012    184.86003  0.032987157  0.033662787            1 
  468000    1.1453992   -7.2401621    184.15059  0.032790347  0.033654678            2 
  469000     1.157192   -7.2079505    185.34765   0.03293313  0.033646272            2 
  470000    1.1727243   -7.2016538    185.22433  0.032841193  0.033638212            1 
  471000    1.1614216   -7.1455894    186.87036  0.033062697  0.033631224            2 
  472000    1.1844563   -7.1733732    186.81155  0.032982264   0.03362418            2 
  473000    1.1898005   -7.1937835     187.2778   0.03299468  0.033617591            2 
  474000    1.1711582   -7.1962069      187.104  0.032894515  0.033610364            1 
  475000    1.1723491   -7.1593151    187.65206  0.032921415  0.033603179            1 
  476000    1.1863393    -7.145125    188.41444  0.032985721  0.033595793            1 
  477000    1.1849867   -7.2161651    188.02718  0.032848913  0.033588749            3 
  478000    1.1652678   -7.1971741    188.78272   0.03291191    0.0335819            1 
  479000    1.1756572   -7.1674892    189.95751  0.033047583  0.033574713            2 
  480000    1.1832881   -7.2094011    189.74432  0.032941722  0.033567883            2 
  481000    1.1734969   -7.2006073    189.41194  0.032815651  0.033560649            1 
  482000    1.1799417    -7.211138    190.11954  0.032869907  0.033553616            3 
  483000    1.1410087   -7.1915772    190.07636  0.032794402  0.033546448            2 
  484000    1.2124706   -7.2110717    190.20982  0.032749625  0.033538643            1 
  485000    1.1527949   -7.2310666    190.30568   0.03269857  0.033530717            1 
  486000    1.1588991   -7.2045357     191.1739   0.03278016  0.033522199            2 
  487000    1.1668825   -7.1856454    191.64402  0.032793295  0.033514767       -1e+20 
  488000    1.1782005   -7.1648933    192.36607  0.032849397  0.033506666            1 
  489000     1.164567   -7.1831864      193.049  0.032898602  0.033498457            1 
  490000    1.1712692   -7.1552164    193.63712  0.032931483  0.033490687            2 
  491000    1.2074816   -7.1830886    193.64366  0.032865523   0.03348308            2 
  492000    1.1778947   -7.1897577    193.43017  0.032762562  0.033475811            1 
  493000    1.1585421   -7.1960436    194.40612  0.032861075  0.033468903            2 
  494000    1.1412731   -7.1819543    194.73255   0.03284962  0.033462227            1 
  495000    1.1901639   -7.1766931    195.01475  0.032830765  0.033455524            2 
  496000     1.155667   -7.2156845    196.30944  0.032982097  0.033448676            1 
  497000    1.1624647   -7.1823875    196.31666  0.032916945   0.03344246            1 
  498000    1.1529474   -7.1731862    196.59761   0.03289786  0.033436081            1 
  499000     1.161554   -7.1997356    197.11102  0.032917673  0.033429646            1 
  500000    1.1871516   -7.1988099    196.96617  0.032827695  0.033423489            2 
  501000    1.1540306   -7.2189659    196.67471   0.03271369  0.033416556            1 
  502000     1.172571   -7.2224563    196.68143  0.032649639  0.033408614            2 
  503000    1.1765281   -7.2327472    197.16192  0.032664333  0.033400339            1 
  504000    1.1896698   -7.1848667    198.22368   0.03277508  0.033391696            2 
  505000    1.1628972   -7.1443114     198.6456  0.032779802  0.033383911            2 
  506000    1.1388635   -7.1883937    197.77514  0.032571663  0.033375699            1 
  507000    1.1776326   -7.2018703    198.42561  0.032614334  0.033367188            2 
  508000    1.1774783   -7.2431409    198.92096  0.032631392   0.03335906            1 
  509000    1.1869764   -7.1917018    199.73608  0.032700733  0.033350279            1 
  510000    1.1894235   -7.1976093    199.75969  0.032640472  0.033341381            1 
  511000    1.1648991   -7.1936237     199.8985  0.032599234  0.033333147            2 
  512000    1.1693945   -7.2088252     200.7191  0.032669124  0.033325258            3 
  513000    1.1767422   -7.2241401    201.08155  0.032664319   0.03331818            2 
  514000    1.1669088   -7.1810166    201.84845  0.032725106  0.033310919            3 
  515000    1.1924184   -7.2061289    201.90344   0.03267046  0.033303448            2 
  516000    1.1603183   -7.2125618    202.22063   0.03265837  0.033295787            1 
  517000    1.1744938   -7.2452621    202.21349   0.03259405  0.033288106            1 
  518000    1.1655258   -7.2086116    203.09768  0.032673372  0.033279828            1 
  519000    1.1427506   -7.1510322    203.21287  0.032628912  0.033272168            2 
  520000    1.1619166   -7.2248643    203.20153  0.032564347   0.03326392            2 
  521000     1.186739   -7.2066742     203.3675  0.032528391  0.033255844            1 
  522000    1.1683356   -7.2678947    203.68128  0.032516169  0.033246792            1 
  523000    1.1626413   -7.1861606    204.04777  0.032512392  0.033237725            3 
  524000    1.1668383   -7.2271567    203.69523  0.032394279  0.033228692            3 
  525000    1.1464438   -7.2230256    204.68511  0.032489699  0.033220555            1 
  526000    1.1364548   -7.2311284    204.59727  0.032414016  0.033212644            2 
  527000    1.1434644   -7.2567723    205.80887  0.032544097  0.033204659            1 
  528000    1.1775118   -7.2243846    206.30941   0.03256146  0.033196801            1 
  529000    1.1465537   -7.2178312    206.19971  0.032482626  0.033189553            1 
  530000    1.1481272   -7.1982925    206.86631   0.03252615  0.033182076            2 
  531000    1.1763514   -7.1874835    206.90818  0.032471466  0.033174223            1 
  532000    1.1627823   -7.2412831     206.7352  0.032383334  0.033165643            1 
  533000    1.1558705   -7.2213289    207.63171  0.032462744  0.033157005            1 
  534000    1.1882404   -7.2581113    207.89146  0.032442488  0.033149336            2 
  535000     1.177577   -7.2199026    209.09833  0.032569834   0.03314152            1 
  536000    1.1812102   -7.2261719    208.99192  0.032492525  0.033134384            1 
  537000    1.1704827   -7.2316576    209.65173  0.032534409  0.033127115            2 
  538000    1.1700349    -7.184096    210.75118  0.032644234  0.033119908            3 
  539000    1.1452683   -7.2494142    210.94939  0.032614315  0.033112961            1 
  540000    1.1570036   -7.1879345    211.53668   0.03264455   0.03310682            6 
  541000    1.1600859   -7.2049023    211.87106  0.032635714  0.033100293            1 
  542000    1.1852482   -7.2328421    210.97804  0.032438198  0.033094331            1 
  543000    1.1801555   -7.2057524    212.71498  0.032645024   0.03308798            1 
  544000    1.1459551   -7.2186885    212.74075  0.032588963  0.033081787            2 
  545000    1.1831811   -7.1993752    212.87814  0.032550174  0.033074912            2 
  546000    1.1537077   -7.2103075    213.41119  0.032571916  0.033068702            1 
  547000    1.1556563   -7.2253572    213.82539  0.032575471  0.033062065            2 
  548000    1.1879452   -7.2066362    213.27285  0.032432003  0.033055328            1 
  549000    1.1334197   -7.2431987    213.36652  0.032387147  0.033047867            2 
  550000    1.1630807   -7.2163122    213.96669  0.032419195  0.033040103            5 
  551000    1.1337437   -7.2365555    214.20747  0.032396774  0.033032375            2 
  552000    1.1670901   -7.2210656    215.56105  0.032542428  0.033024436            1 
  553000    1.1726671   -7.2512628     214.6903  0.032352366  0.033016746            2 
  554000    1.1306685   -7.2038966    215.76773  0.032456037  0.033008935            2 
  555000    1.1696295   -7.2339484    215.17902  0.032309162  0.033000623            2 
  556000     1.176618   -7.2298773    216.04702  0.032381148  0.032992831            1 
  557000    1.1741733    -7.258648    215.71715  0.032273661  0.032984391            2 
  558000    1.1611206   -7.2274034    215.62187  0.032201593  0.032975611            2 
  559000     1.172637   -7.2172395    216.46838  0.032270182  0.032966313            2 
  560000    1.1738389   -7.2200365    217.10436  0.032307197  0.032957545            2 
  561000    1.1574507   -7.2299048    217.36967  0.032289018  0.032948678            2 
  562000     1.158107   -7.2225233    216.93696  0.032167402  0.032940187            1 
  563000    1.1652166   -7.2403718     217.3782  0.032175577  0.032931265            1 
  564000    1.1876035   -7.2147128     218.2413  0.032246054   0.03292273            1 
  565000     1.114661   -7.2162086    218.14392   0.03217462  0.032913825            1 
  566000    1.1775896   -7.2513143    218.22972  0.032130407  0.032904614            2 
  567000    1.1438265   -7.2393638     218.7087  0.032144136  0.032895266            2 
  568000    1.1340245   -7.1849669    219.71007  0.032234459  0.032885839            1 
  569000    1.1256359   -7.2381276    219.82142  0.032194116  0.032876855            1 
  570000     1.148751   -7.2299374    219.94442  0.032155616  0.032867748            1 
  571000    1.1707083   -7.2120179    220.19637  0.032136072  0.032859333            2 
  572000    1.1487986   -7.2259249    221.70914  0.032300282  0.032850943            4 
  573000    1.1974183   -7.1993469    221.61544  0.032230285  0.032842764            2 
  574000    1.1967017   -7.2286917    221.50651  0.032158321  0.032834309       -1e+20 
  575000    1.1460911   -7.2482124    222.06505   0.03218334  0.032825878            1 
  576000    1.1648127   -7.2405895    223.05151  0.032270184  0.032817386            1 
  577000    1.1345951   -7.2799631    222.31681  0.032108147  0.032808214            3 
  578000    1.1353871   -7.2085901     222.7346  0.032112831  0.032799029            1 
  579000    1.1641391   -7.2290705    223.26048  0.032133057  0.032790136            1 
  580000    1.1497378   -7.2419726    224.41301  0.032243248  0.032781519            2 
  581000    1.1273452   -7.2480665    223.78575  0.032097785   0.03277332            1 
  582000    1.1634057   -7.2447457    224.36023   0.03212489  0.032764645            1 
  583000    1.1593499   -7.2781163    224.27128  0.032057072  0.032756211            1 
  584000    1.1647437   -7.2174329     225.5024  0.032177854  0.032747807            1 
  585000    1.1693661   -7.2430511    225.36143  0.032102768  0.032739474            1 
  586000    1.1705657   -7.2815025    225.69983  0.032096107   0.03273183            1 
  587000    1.1955001   -7.2634851    226.59067  0.032167898  0.032723861            3 
  588000    1.1694947   -7.2279096    226.59442  0.032113722   0.03271636            3 
  589000    1.1527122   -7.2349674     226.8699  0.032098175  0.032708521            2 
  590000    1.1680498   -7.2489106    227.71275  0.032162817  0.032700225            2 
  591000    1.1431875   -7.2738734    227.50211  0.032078696  0.032692564            1 
  592000     1.163258   -7.2652462    227.88522  0.032078437  0.032684447            3 
  593000    1.1647819   -7.2146512    227.98173  0.032037905  0.032675978            2 
  594000    1.1252809   -7.2298694     228.8228  0.032101964  0.032667725            2 
  595000    1.1316805   -7.2680482    228.60407  0.032017377  0.032659279            1 
  596000    1.1517241    -7.225009    229.08124  0.032030374  0.032650904            2 
  597000    1.1337817   -7.1620742    230.17398  0.032129254   0.03264248            2 
  598000    1.1763082   -7.2383802    230.66764  0.032144321  0.032634164            1 
  599000    1.1739785   -7.2762406    229.60997  0.031943512  0.032626099            1 
  600000    1.1481282   -7.2153249    230.68845  0.032040063  0.032617826            1 
  601000     1.170344   -7.2709308    230.78448  0.032000067  0.032609691            1 
  602000    1.1411556   -7.2264233    232.30333  0.032157161  0.032601263            1 
  603000    1.1603429   -7.2405063    231.85241  0.032041516  0.032593332            2 
  604000     1.136872   -7.2195808    232.40002   0.03206402  0.032585789            1 
  605000    1.1855751   -7.2157496    233.53104   0.03216681  0.032578457            1 
  606000     1.120653   -7.2431623    232.50428  0.031972535  0.032570726            2 
  607000    1.1503769   -7.2244483    233.15412  0.032009078  0.032562919            3 
  608000    1.1595536   -7.2297831    233.76331  0.032039928  0.032555065            2 
  609000    1.1667493   -7.2510482    233.20154  0.031910447  0.032547018            2 
  610000    1.1515518   -7.2354543    234.19116  0.031993328  0.032539129            1 
  611000    1.1309398   -7.2355617    235.02005  0.032054017  0.032531187            1 
  612000     1.162721   -7.2473177    235.64762  0.032087094  0.032523888            1 
  613000    1.1439907   -7.2175682    235.42306  0.032004222  0.032516615            6 
  614000    1.1422893   -7.2678759    236.31249  0.032072813  0.032509173            1 
  615000    1.1909478   -7.2101832     236.4321   0.03203687   0.03250226            5 
  616000     1.152808   -7.2398575    236.80875  0.032035816  0.032495455            1 
  617000    1.1403406   -7.2373537    237.04431  0.032015709  0.032488268            1 
  618000    1.1681176   -7.2113217    237.92379  0.032082496  0.032481335            1 
  619000    1.1476195   -7.1974253    237.57399  0.031983575  0.032474141            1 
  620000    1.1564679   -7.2283933    238.17142  0.032012287     0.032467            1 
  621000    1.1639991   -7.2289557    238.70419  0.032032232  0.032460123            1 
  622000    1.1508486    -7.272064     238.3582  0.031934379  0.032453235            5 
  623000    1.1504034   -7.2804451    238.53354  0.031906573  0.032446459            3 
  624000    1.1746253   -7.2077379    239.63562   0.03200262  0.032439265            1 
  625000    1.1782242     -7.25392    239.50709  0.031934278   0.03243185            2 
  626000    1.1509809   -7.2699423    239.83416  0.031926805  0.032424494            3 
  627000    1.1509791   -7.2626924    239.95917    0.0318925  0.032417238            4 
  628000    1.1668488    -7.300807    240.86121  0.031961413  0.032409846            4 
  629000    1.1747818   -7.2361194    240.78768  0.031900858  0.032402536            1 
  630000     1.172977   -7.2259344    241.38232  0.031928878  0.032395308            2 
  631000    1.1832919   -7.2685295    241.31772  0.031869747  0.032388181            1 
  632000     1.152547   -7.2623548    242.58399  0.031986285   0.03238075            4 
  633000    1.1581562   -7.2446279    242.14555  0.031878034  0.032373415            1 
  634000    1.1569058   -7.2569366    242.93027  0.031930898  0.032366108            1 
  635000    1.1755393   -7.2781106    242.30879  0.031799054  0.032358728            3 
  636000    1.1385475   -7.2552277    243.39283  0.031891094  0.032351433            1 
  637000    1.1387409   -7.2435882    243.73816  0.031886206  0.032344081            3 
  638000    1.1382628   -7.2146994    243.79547  0.031843713  0.032336537            1 
  639000    1.1497619   -7.2475618    243.69546  0.031780837  0.032328749            1 
  640000    1.1618277   -7.2333155     243.7736  0.031741355   0.03232023            2 
  641000    1.1499185   -7.2911096    242.73432  0.031556724  0.032311276            2 
  642000    1.1318623   -7.2889545     243.5824  0.031617653  0.032302364            2 
  643000    1.1318042   -7.3062511     244.0233  0.031625623  0.032293167            1 
  644000    1.1387858   -7.2823147    244.23518  0.031603931  0.032284351            3 
  645000     1.142914   -7.2626476    244.67006  0.031611119  0.032275464       -1e+20 
  646000    1.1340962   -7.2667866    245.68169  0.031692685  0.032266987            2 
  647000    1.1487313   -7.2362185    245.46291  0.031615522  0.032258509            1 
  648000    1.1917581   -7.2392435    246.30369  0.031674858  0.032250357            2 
  649000    1.1407877   -7.2496824    246.93199  0.031706727  0.032242002            1 
  650000    1.1768376    -7.236419    246.99491  0.031666014  0.032233452            2 
  651000    1.1362603   -7.2395637    247.44228  0.031674639  0.032225277            3 
  652000    1.1532292   -7.2651402    246.80792   0.03154498  0.032216767            2 
  653000    1.1496911   -7.2723757    247.02505  0.031524381  0.032207577            1 
  654000    1.1239398   -7.2420685     247.4677  0.031532581  0.032198288            1 
  655000    1.1627358   -7.2587799    248.07792  0.031562076  0.032189431            2 
  656000    1.1311002   -7.2304672     249.5126  0.031696215  0.032180618            2 
  657000    1.1496131    -7.295084    248.20474  0.031482082   0.03217175            1 
  658000    1.1552224   -7.2495662    249.38013  0.031583097  0.032162779            1 
  659000    1.1252141    -7.270471    249.32611   0.03152834  0.032153991            2 
  660000    1.1611593     -7.30838    249.15865  0.031459425  0.032145151            1 
  661000    1.1456223   -7.2873987    249.68128  0.031477721  0.032136076            3 
  662000    1.1494006   -7.2898378    249.60679  0.031420795  0.032126876            2 
  663000    1.1433571   -7.2861046    250.52231  0.031488475   0.03211768            1 
  664000    1.1301398   -7.2470579    251.07902  0.031510921  0.032108937            1 
  665000    1.1592086   -7.2044582    251.13948  0.031471112  0.032099971            1 
  666000    1.1396076   -7.2226916    251.93409  0.031523285  0.032091605            1 
  667000     1.141585   -7.2923624    251.30627  0.031397585  0.032083073            2 
  668000     1.143376    -7.265904    252.64811  0.031517977  0.032074301            2 
  669000    1.1379301    -7.266483    252.84129  0.031494929  0.032064967            1 
  670000    1.1317689   -7.2304815    253.10262  0.031480426  0.032055562            1 
  671000    1.1326592   -7.2650234    253.28348  0.031455972  0.032046194            1 
  672000    1.1515143   -7.2746545    252.86296  0.031357013  0.032036873            1 
  673000    1.1426812   -7.2689477    253.38624  0.031375216  0.032027465            1 
  674000     1.161153   -7.2134186    253.58606  0.031353371  0.032018046            1 
  675000    1.1556845   -7.2824863    253.34568  0.031277244  0.032008402            3 
  676000    1.1305561   -7.2586536    254.69311  0.031397079  0.031998681            1 
  677000    1.1642331   -7.2569654    254.59168  0.031338217   0.03198915            1 
  678000     1.161549   -7.2437644    255.34026  0.031384004  0.031979864            1 
  679000    1.1530786   -7.2618944       255.51  0.031358616  0.031970744            3 
  680000    1.1629966    -7.319995    255.02339  0.031252867  0.031961478            1 
  681000    1.1315192   -7.2133568     257.0108  0.031450172  0.031952262            1 
  682000    1.1762572   -7.2858919    256.38624  0.031327742  0.031943057            1 
  683000    1.1500748   -7.2731415    256.32481  0.031274379  0.031933831            2 
  684000    1.1179586   -7.2502592    258.01383  0.031434434  0.031924744            2 
  685000    1.1258088   -7.2535135    258.51876   0.03144997  0.031915961            1 
  686000    1.1416424   -7.2190156    258.89287  0.031449572  0.031906862            1 
  687000    1.1468925   -7.2653895    258.44678  0.031349683  0.031897941            2 
  688000    1.1408265   -7.2568153    258.52029   0.03131302  0.031888952            2 
  689000    1.1552847   -7.2846836    258.99132  0.031324543  0.031879851            1 
  690000    1.1497318   -7.2432076    258.58343  0.031229883  0.031870736            2 
  691000    1.1589191   -7.2730248    258.78222  0.031208662   0.03186137            1 
  692000    1.1295882    -7.296554    259.68025  0.031271707  0.031852118            2 
  693000    1.1243748   -7.2945047    259.63835  0.031221543  0.031842658            1 
  694000    1.1705804   -7.3059595    259.67291  0.031180705  0.031832838            2 
  695000    1.1117711   -7.2548841    260.05762  0.031181969  0.031823545            2 
  696000    1.1301925   -7.2676329     260.4257  0.031181238  0.031814205            1 
  697000    1.1345572   -7.2660931    259.72282  0.031052466  0.031804874            1 
  698000    1.1178769   -7.2435432    261.29309  0.031195451  0.031795443            2 
  699000    1.1622504   -7.2791802    261.07322  0.031124609  0.031785484            4 
  700000    1.1533948    -7.262898    261.70836  0.031155757  0.031775509            4 
  701000    1.1284173   -7.2500044    262.42383  0.031196366   0.03176587            2 
  702000    1.1641708   -7.2371616    262.28485  0.031135429  0.031756072            1 
  703000    1.1670476   -7.2573634    262.28921  0.031091656  0.031745988            2 
  704000    1.1554193   -7.2558433    262.53494  0.031076579  0.031735874            3 
  705000    1.1497713   -7.3165334    261.56577   0.03091794  0.031725175            2 
  706000    1.1480139   -7.2524571    262.14445  0.030942451  0.031714345            2 
  707000    1.1586371   -7.2647982    262.90194   0.03098797  0.031703915            2 
  708000    1.1094991   -7.2409844    263.16089  0.030974681  0.031693259            2 
  709000    1.1532753   -7.2534042    263.60335  0.030982998  0.031682519            1 
  710000    1.1404262   -7.3030137    263.72579  0.030953731  0.031672118            3 
  711000    1.1095367   -7.2773096    264.67351  0.031021274  0.031662095            2 
  712000    1.1332277   -7.2892582    264.56205  0.030964659  0.031651807            2 
  713000    1.1297474   -7.3122652    264.37484   0.03089935  0.031641338            2 
  714000    1.1276387   -7.3004844    265.41859  0.030977894  0.031630992            1 
  715000    1.1475967   -7.2935208    265.26887  0.030917117  0.031620924            2 
  716000    1.1207319   -7.2681193    265.55617  0.030907376  0.031610324            2 
  717000    1.1351065   -7.2833703    265.42158  0.030848626   0.03160017            1 
  718000    1.1279885   -7.2882683    266.24551  0.030901289  0.031589898            2 
  719000    1.1395169   -7.2841618    266.59964  0.030899356  0.031579454            2 
  720000    1.1416942   -7.2976737    266.24502  0.030815395  0.031569115            2 
  721000    1.1456048   -7.2954975    266.28186  0.030776914  0.031558782            2 
  722000    1.1353856   -7.2918961    267.21295  0.030841753  0.031548632            1 
  723000    1.1198873   -7.2770993    267.94621  0.030883611  0.031538676            1 
  724000    1.1176837   -7.2503904    269.02876  0.030965557  0.031528844            3 
  725000    1.1386021   -7.2560836    268.69856  0.030884892  0.031518853            1 
  726000    1.1502988   -7.2813138    269.06333   0.03088422  0.031509001            1 
  727000    1.1353746    -7.307627    269.22713  0.030860514  0.031499159            2 
  728000    1.1397162   -7.3253039    269.50282  0.030849682  0.031489126            1 
  729000    1.1251046   -7.2878555    269.50026  0.030807071  0.031479283            1 
  730000    1.1215905    -7.312812    270.04728  0.030827315  0.031469475            1 
  731000    1.1141748   -7.2624926    270.80865   0.03087194  0.031459795            2 
  732000    1.1655476   -7.3067941    271.05102  0.030857356  0.031450255            3 
  733000     1.137585   -7.3355623    270.64404  0.030768991  0.031440316            2 
  734000    1.1346887   -7.2456181    272.09944  0.030892308  0.031430661            1 
  735000    1.1339784   -7.3049356    271.72506   0.03080783  0.031420849            1 
  736000    1.1545026   -7.2699089    272.67575  0.030873613  0.031411203            1 
  737000    1.1142407   -7.2266609    273.72799  0.030950699  0.031401838            2 
  738000    1.1267866   -7.2977752    272.81113  0.030805232  0.031392498            1 
  739000    1.1464719   -7.2891969    273.10031  0.030796156  0.031382751            1 
  740000    1.1482047   -7.3117688    273.47675  0.030796932  0.031372936            2 
  741000    1.1443666   -7.2718376    273.47296  0.030754943   0.03136306            2 
  742000    1.1248151   -7.2921433     273.7273   0.03074206  0.031353156            2 
  743000    1.1479773   -7.3116122    273.17684  0.030638945   0.03134287            1 
  744000    1.1100029   -7.3121401    273.61952  0.030647348  0.031332571            1 
  745000     1.162143   -7.2782021    274.57429  0.030713008   0.03132199            2 
  746000    1.1384199   -7.2907022     273.7196  0.030576363   0.03131169            2 
  747000    1.1286462   -7.3017193    273.75789  0.030539702  0.031301498            2 
  748000    1.1321753   -7.3184999     274.9113  0.030627373  0.031291343            2 
  749000    1.1372408   -7.3188069    274.93255  0.030588846  0.031281543       -1e+20 
  750000    1.1508448   -7.3026027    275.13865  0.030570961  0.031271569            2 
  751000    1.1330742   -7.2986734    275.91056  0.030615908  0.031261586            1 
  752000    1.1304541   -7.3454237    275.18521  0.030494815  0.031251503            2 
  753000    1.1235362   -7.2471448    277.32714  0.030691362   0.03124141            2 
  754000    1.1333868   -7.3091111     276.9541  0.030609427  0.031231703            2 
  755000    1.1216022   -7.2730551    277.89289  0.030672504  0.031222501            1 
  756000    1.1275719   -7.2970853    278.63935  0.030714214  0.031212811            1 
  757000    1.1636257   -7.2870585    279.03941   0.03071768   0.03120393            2 
  758000    1.1200592   -7.2917712    279.56355   0.03073478  0.031195337            4 
  759000    1.1370645   -7.2802739    279.90668  0.030731959  0.031186876            3 
  760000    1.1536849    -7.323381      280.415  0.030747259  0.031178191            3 
  761000    1.1150251    -7.295654    280.38495  0.030703564  0.031169548            2 
  762000    1.1273824   -7.3070358     280.4561  0.030671052  0.031160902            3 
  763000    1.1231454    -7.301203    280.91537  0.030681015   0.03115296            1 
  764000    1.1500925   -7.3727651    281.34372  0.030687578   0.03114463            2 
  765000    1.1317493   -7.3000835    282.54175  0.030777968  0.031136302            2 
  766000    1.1361173   -7.3334337    281.87906  0.030665694  0.031127898            1 
  767000     1.132362   -7.2890477    282.35548  0.030677475  0.031119683            2 
  768000    1.1128727    -7.319016    282.51814   0.03065518  0.031111592            2 
  769000    1.1275882   -7.3196514    283.27072   0.03069687  0.031103234            3 
  770000    1.1446637   -7.3162953    284.12245  0.030749183  0.031094902            3 
  771000    1.1264744   -7.2822933     284.0253  0.030698801  0.031086657            3 
  772000    1.1293493   -7.3080337    283.22212  0.030572336  0.031078248            1 
  773000    1.1219702   -7.2942126    284.82177  0.030705236  0.031069759            1 
  774000    1.1577937   -7.2771253    284.94809  0.030679165  0.031061392            2 
  775000    1.1316601   -7.2928617    284.90927  0.030635405  0.031052926            2 
  776000    1.1266279   -7.3040132    285.45147  0.030654152  0.031044697            1 
  777000    1.1143898   -7.3138121    284.65586  0.030529371   0.03103618            1 
  778000    1.1316981   -7.2991614    285.80344  0.030613051  0.031027341            1 
  779000    1.1325245   -7.2960446     286.0762  0.030602931  0.031019142            1 
  780000    1.1475329   -7.2740434    287.10612   0.03067373  0.031010863            1 
  781000    1.1203471   -7.2311168    287.22203  0.030646824  0.031002793            2 
  782000    1.0903699   -7.2603172    287.26856  0.030612592  0.030995002            3 
  783000    1.1133508   -7.2865392    287.30975  0.030577878  0.030986835            1 
  784000    1.1144791   -7.3165352    288.49073  0.030664406  0.030978571            2 
  785000     1.132173   -7.2949172    288.37482  0.030613038  0.030970328            1 
  786000    1.1105566   -7.2902891    288.31916  0.030568189  0.030962433            2 
  787000    1.1207943   -7.2577195    289.83986  0.030690371  0.030954703            2 
  788000    1.1274493   -7.3461032    290.11285  0.030680293  0.030946824            2 
  789000    1.1141016    -7.313052    290.02466  0.030632094  0.030939036            1 
  790000    1.1411848   -7.2880099    290.03792  0.030594717  0.030931191            6 
  791000    1.1353502   -7.3290572    290.51595    0.0306064  0.030923245            3 
  792000    1.1418464   -7.2982655    290.68753   0.03058581  0.030915592            2 
  793000    1.1137354   -7.3248939    290.78378  0.030557354  0.030907856            1 
  794000    1.1124247   -7.2816484     291.6169  0.030606308  0.030900091       -1e+20 
  795000    1.1232133   -7.2833042    292.48346  0.030658644  0.030892115            2 
  796000    1.1333385   -7.3302351    290.94555  0.030459124  0.030884112            1 
  797000    1.1394084   -7.3156585    291.71962  0.030501842  0.030876051            1 
  798000    1.1104191   -7.2924997    293.01313  0.030598698   0.03086807            3 
  799000    1.1525278   -7.2866243    293.50102  0.030611287  0.030860487            2 
  800000     1.119376   -7.2850999    292.60398  0.030479581  0.030852443            2 
  801000    1.1394283    -7.331336    294.19286  0.030606831  0.030844322            3 
  802000    1.1371516   -7.2994401    292.87975  0.030432227  0.030836327            1 
  803000    1.1308737   -7.3297778    293.32117  0.030440138  0.030828328            2 
  804000    1.1346934   -7.3259032    292.81521  0.030349835  0.030819874            1 
  805000    1.0998227   -7.3170638    294.42079  0.030478342  0.030811549            2 
  806000    1.1199538   -7.2943587    295.46241  0.030548222  0.030803518            4 
  807000    1.1103631   -7.3096578    294.56304  0.030417497  0.030795517            1 
  808000    1.0964323   -7.3251091    295.18596  0.030444096  0.030787675            2 
  809000    1.1002738   -7.3163417    295.55614  0.030444597  0.030780046            1 
  810000    1.1133627   -7.2933126    294.48136  0.030296436  0.030772008            1 
  811000    1.1566733    -7.296452    296.18089  0.030433713  0.030763798            2 
  812000    1.0952415   -7.3426865    295.72167  0.030349104  0.030755761            1 
  813000    1.1144038   -7.3231795    296.53657  0.030395302  0.030747475            2 
  814000    1.1016094   -7.3156674    296.33495  0.030337321  0.030739382            2 
  815000    1.1179651   -7.2737771      297.806  0.030450511  0.030731176            1 
  816000    1.1129797   -7.3344797    296.77332  0.030307733   0.03072319            2 
  817000    1.1286323   -7.3504974     296.8687  0.030280365  0.030715082            1 
  818000     1.119352   -7.3038166    297.44315  0.030301869  0.030706748            1 
  819000    1.1099515    -7.330733     298.4095  0.030363197   0.03069853            1 
  820000    1.1053003   -7.3449609     298.1672  0.030301545    0.0306902            2 
  821000    1.1059136   -7.2921643    299.05843  0.030355098  0.030682054            1 
  822000    1.1422465   -7.2758239     300.3897  0.030453133  0.030674278       -1e+20 
  823000     1.121237   -7.3125012    299.16304  0.030291924  0.030666729            6 
  824000     1.131797   -7.2720478    300.65639  0.030406188  0.030659157            2 
  825000    1.1245543   -7.3407662    299.79664  0.030282488  0.030651616            2 
  826000    1.1361554   -7.3304584    300.07027  0.030273434  0.030643747            1 
  827000    1.0861828   -7.3206767     301.0111  0.030331631  0.030635612            1 
  828000    1.1249708   -7.2666412    300.73963  0.030267676  0.030627598            1 
  829000     1.138003   -7.3058419    301.44786  0.030302358  0.030619714            1 
  830000     1.125756   -7.3178109    300.65872  0.030186619  0.030611959            1 
  831000    1.1116115   -7.3088204    302.08081  0.030292902  0.030603953            1 
  832000    1.1206731   -7.3146551    302.80298  0.030328824  0.030595753            3 
  833000    1.1029524   -7.3120376    302.82096  0.030294213  0.030587853            2 
  834000    1.1024731   -7.3269851    303.70003  0.030345726  0.030580287            2 
  835000     1.143155   -7.2832997    304.10541  0.030349842  0.030573021            2 
  836000    1.1222121    -7.289831    304.62163  0.030364995  0.030565527            2 
  837000    1.1133783   -7.3431209    303.49725  0.030216771  0.030557924            1 
  838000    1.0941327   -7.3730953     304.4756  0.030278003  0.030550237            2 
  839000    1.1065807   -7.3131421    305.73589  0.030367093  0.030542776            3 
  840000    1.1167509   -7.3304497    304.22407   0.03018096  0.030535334            1 
  841000    1.1145846   -7.3683009    304.60958  0.030183272  0.030527715            2 
  842000    1.1314201   -7.3491018    305.91778  0.030276898  0.030519761            1 
  843000    1.1119629   -7.3542633     305.4136  0.030191142  0.030512136            3 
  844000    1.1255076   -7.3406886    306.39627  0.030252397  0.030504483            1 
  845000    1.1233314   -7.3304859    306.48446  0.030225292  0.030496746            1 
  846000    1.1305233   -7.3550011    305.50108  0.030092699  0.030488865            2 
  847000    1.1092325    -7.337411    308.13109  0.030315928  0.030481055            1 
  848000     1.131174   -7.3121732    307.17361  0.030186086  0.030473442            2 
  849000    1.1240196   -7.3504247    306.89919  0.030123595  0.030465551            1 
  850000    1.1241404   -7.3038293    307.85326  0.030181692  0.030457786            2 
  851000    1.1353589   -7.3670704    308.18067  0.030178288  0.030450214            5 
  852000    1.0933313   -7.3465606    307.85889  0.030111393  0.030442574            2 
  853000    1.1254279   -7.3283011    308.96298  0.030183956  0.030435019            1 
  854000    1.1161802   -7.3386344    309.34616  0.030186003  0.030427231            1 
  855000    1.0868818    -7.328326      309.586  0.030174074  0.030419444            1 
  856000    1.1228152   -7.3568944    308.76071   0.03005848  0.030411841            2 
  857000    1.1485519   -7.3389326    310.24096  0.030167343  0.030404323            1 
  858000    1.1028647   -7.3297177    309.48823  0.030059074  0.030396679            1 
  859000    1.1367536   -7.3527782    309.94502  0.030068395  0.030388895            2 
  860000    1.1314043   -7.3626351    310.75906  0.030112312  0.030381161            2 
  861000    1.1140153   -7.3181485    311.36579  0.030136062  0.030373525            1 
  862000    1.1075913   -7.3068076    310.87242  0.030053405  0.030366134            1 
  863000    1.1199219   -7.3575683    310.96958  0.030027963   0.03035885            1 
  864000     1.100104   -7.3546826    311.24671  0.030019937   0.03035117            1 
  865000    1.1024165   -7.3723144    311.94513  0.030052518  0.030343355            1 
  866000     1.107194   -7.3341431    312.33363  0.030055199  0.030335228            1 
  867000    1.1208227    -7.364423    311.80781  0.029969993  0.030327172            2 
  868000    1.0928562   -7.3863545    312.44089  0.029996245  0.030319368            2 
  869000    1.1297212   -7.3412879    313.32733  0.030046733  0.030311699            1 
  870000    1.1261799   -7.3223557    314.27835   0.03010329  0.030304126            3 
  871000     1.098591   -7.3284767    314.31392  0.030072132  0.030296414            2 
  872000    1.1200077   -7.3386802    314.50291  0.030055706  0.030288669            2 
  873000    1.1105032   -7.3039884     315.5696    0.0301231  0.030281064            1 
  874000      1.11808   -7.3421575    314.69775  0.030005506  0.030273878            3 
  875000    1.1080749   -7.3349685    314.77194   0.02997828  0.030266219            4 
  876000    1.0870235   -7.3252083    315.23266  0.029987887  0.030258818            4 
  877000    1.1255751   -7.3029681    317.27454  0.030147714  0.030251381            3 
  878000    1.0981602   -7.3419482    315.73811   0.02996755  0.030243716            3 
  879000    1.1144926   -7.3077546     316.6997  0.030024621  0.030236131            1 
  880000    1.1145625   -7.3526005    316.79551  0.029999575  0.030229064            1 
  881000     1.094111   -7.3298378    315.90333  0.029881132  0.030221538            1 
  882000    1.1459202   -7.3237469    318.50822   0.03009337  0.030214314            1 
  883000     1.073605   -7.3350217    317.71201  0.029984146   0.03020707            2 
  884000    1.1233527   -7.3345876    318.09305  0.029986147   0.03019963            2 
  885000    1.1201728   -7.3376736    318.36333  0.029977714  0.030192499            2 
  886000    1.0835913   -7.3758102    317.65445  0.029877205   0.03018507            1 
  887000    1.0988396   -7.3252122    319.45199  0.030012401  0.030177722            1 
  888000    1.1167121   -7.3423276    319.31273  0.029965534  0.030170376            1 
  889000    1.1277106   -7.3143702    320.19715  0.030014731  0.030163061            2 
  890000    1.1167204   -7.3670171    320.28768  0.029989483  0.030155843            1 
  891000    1.1092259   -7.3378545    319.17585  0.029851838  0.030148355            1 
  892000    1.1088197   -7.3389436    320.42997  0.029935535  0.030140912            4 
  893000    1.1188587   -7.3498012    320.70754  0.029927916  0.030133536            1 
  894000    1.1066899   -7.3302035    321.86938  0.030002738  0.030126221            1 
  895000    1.1099791   -7.3461988    321.12943   0.02990032  0.030119082            1 
  896000    1.1194585   -7.3576149    321.92398  0.029940847  0.030111906            1 
  897000    1.1162405   -7.3987353    320.53099  0.029778056  0.030104488            4 
  898000    1.1302191   -7.3635724    321.90196   0.02987212  0.030096733            2 
  899000    1.0936257   -7.3510499    321.82504  0.029831762  0.030089388            1 
  900000    1.1236905   -7.3595836    322.63748  0.029873841  0.030081976            4 
  901000    1.0985064    -7.329457    323.37416   0.02990882  0.030074566            4 
  902000    1.1099667   -7.3921404    322.03475  0.029751917  0.030066956            2 
  903000     1.104712   -7.3244373    324.30228  0.029928228  0.030059389            4 
  904000     1.111169   -7.3482724    324.33119  0.029897787  0.030052201            1 
  905000    1.1204019   -7.3938026    323.22307  0.029762714  0.030044832            1 
  906000    1.1029898   -7.3827549    323.85177   0.02978769  0.030037264       -1e+20 
  907000    1.1014515   -7.3390331    324.83355  0.029845053  0.030029939            2 
  908000    1.1047398    -7.320432     325.5909   0.02988169  0.030022912            1 
  909000    1.1114757   -7.3507401    326.60994  0.029942239  0.030016052            1 
  910000    1.1196983   -7.3896506    325.04132  0.029765689  0.030009205            3 
  911000    1.1220463   -7.3217333    325.90314  0.029811849  0.030002112            2 
  912000    1.0914614   -7.3394848    326.36693  0.029821539   0.02999501            2 
  913000    1.1326044   -7.3430571    327.24038    0.0298686  0.029987904            2 
  914000    1.0878754   -7.3426279    326.47613  0.029766241  0.029980885            3 
  915000    1.0947921   -7.3574144    326.77585  0.029761006  0.029973789            3 
  916000    1.1096232   -7.3453749    327.95968  0.029836215  0.029966941            2 
  917000    1.0750601   -7.3715956    327.42924  0.029755475  0.029959769            3 
  918000    1.1218392   -7.3348505    327.94176  0.029769586  0.029952469            1 
  919000     1.113345   -7.3747894    328.34296  0.029773572  0.029945243            3 
  920000    1.0860293   -7.3469971    328.55647   0.02976055   0.02993781            1 
  921000    1.0790233   -7.4208525    327.58651  0.029640473  0.029930408            1 
  922000    1.1084215   -7.3377751    329.41278   0.02977339  0.029922901            1 
  923000    1.1091505   -7.3249273    329.97207  0.029791627  0.029915886            1 
  924000    1.1247733   -7.3462101    330.22207  0.029781933   0.02990866            1 
  925000    1.1065482   -7.3757274     329.7399  0.029706298  0.029901235            1 
  926000    1.1102955   -7.3763769    330.18112  0.029713924  0.029894021            3 
  927000    1.1206864   -7.3641693    330.33158  0.029695396  0.029886732            2 
  928000    1.1109059   -7.3682579    330.31574  0.029661974  0.029879254            2 
  929000    1.1289756   -7.3563337    331.44112  0.029730994   0.02987196            1 
  930000    1.1065496   -7.3895212    330.49542  0.029614285  0.029864711            2 
  931000    1.1423294   -7.3736147    331.04882   0.02963201  0.029857411            2 
  932000    1.1122103   -7.3323608    332.15687  0.029699291  0.029850209            2 
  933000      1.10384   -7.3895078    331.90465  0.029644931  0.029842778            6 
  934000    1.1002645   -7.3062777    331.82418  0.029606012  0.029835481            1 
  935000    1.0802601   -7.3366255    331.90541  0.029581587   0.02982812            1 
  936000    1.1169671   -7.3307755    332.50853  0.029603679  0.029820769            1 
  937000    1.0728602   -7.3516408    333.24586  0.029637661  0.029813383            2 
  938000    1.1054737   -7.3697908     332.9039  0.029575684  0.029806226            1 
  939000    1.0970448   -7.3850205    333.58605  0.029604726  0.029798977            3 
  940000    1.0770619    -7.326863    335.50913  0.029743717    0.0297921            1 
  941000    1.1191267   -7.3103604    336.29457  0.029781665  0.029785528            2 
  942000    1.1045608   -7.3528178    335.13706  0.029647652  0.029778984            1 
  943000     1.101753   -7.3405934    336.19881   0.02971004  0.029772585            1 
  944000    1.0794398    -7.335437    336.84522   0.02973563  0.029766249            1 
  945000     1.066788   -7.3894067    336.41843  0.029666528  0.029759686            3 
  946000    1.1081466   -7.3768244     336.8086  0.029669539  0.029753199            1 
  947000    1.1158296   -7.3447461    338.50067  0.029787106  0.029747075            1 
  948000    1.1192387   -7.3661128    338.49472  0.029755162  0.029740629            3 
  949000    1.1102114   -7.3773878    338.66811  0.029739033  0.029734402            3 
  950000    1.0926696   -7.3712616    337.96351  0.029645922  0.029728326            3 
  951000    1.0700897   -7.3291815    339.13099  0.029717052  0.029722295            1 
  952000    1.1216773   -7.3850457    338.25769  0.029609392  0.029715744            4 
  953000    1.1148228   -7.3726575    338.09734    0.0295643  0.029708905            2 
  954000    1.1000872   -7.3980488    338.14397  0.029537383  0.029701999            2 
  955000    1.0972391    -7.349674    338.18541   0.02951007  0.029694998            1 
  956000    1.1015309   -7.3570532    338.73294   0.02952693  0.029688076            3 
  957000    1.0922632    -7.400817    338.76064  0.029498488  0.029680946            1 
  958000    1.1092568   -7.3470516    339.72229  0.029551347  0.029674051            1 
  959000    1.0940213   -7.3665852    339.67656  0.029516559  0.029667063            3 
  960000    1.0877244   -7.3879381    339.66392  0.029484715  0.029660065            1 
  961000    1.1018136   -7.4064813    340.02554  0.029485392  0.029653363            2 
  962000    1.1125913   -7.3812926    341.19527   0.02955607  0.029646934            1 
  963000    1.0858848   -7.3333689    341.20753  0.029526439  0.029640364            1 
  964000    1.0845509   -7.3269718    342.40495  0.029599322  0.029633887            3 
  965000    1.1229837   -7.3681882    341.55977  0.029495662  0.029627144            1 
  966000      1.07988   -7.3247773    342.82787  0.029574523  0.029620516            2 
  967000    1.1005259   -7.3209679    342.64613  0.029528277  0.029613909            2 
  968000     1.092863   -7.4117676    342.43203  0.029479341   0.02960726            3 
  969000    1.0769782   -7.3917823    343.08439  0.029505021  0.029600412            3 
  970000    1.0740515   -7.3826825    343.26773  0.029490355  0.029593813            3 
  971000    1.1088778   -7.4147521    342.48851  0.029393109  0.029587085            2 
  972000    1.0987454   -7.4020607    343.63829  0.029461445  0.029580308            2 
  973000    1.0978865    -7.359116     344.6406  0.029517009  0.029573778            2 
  974000    1.1053992   -7.3881486    345.09221  0.029525343  0.029567179            1 
  975000    1.1105619   -7.3509367    345.31856  0.029514407  0.029561115            4 
  976000    1.1054535   -7.3495844    346.69044  0.029601301  0.029554823            2 
  977000    1.1095975     -7.38123    347.00004  0.029597411  0.029548701            2 
  978000    1.0779896   -7.3972181    347.13067  0.029578278  0.029542827            3 
  979000    1.0961624   -7.3475965    347.76077    0.0296017  0.029537204            3 
  980000    1.0991007   -7.3694652    347.66331  0.029563207  0.029531294            2 
  981000    1.0664693   -7.3447095    347.77941  0.029542933  0.029525311            2 
  982000    1.0814089   -7.3102966    348.96525   0.02961348  0.029519385            3 
  983000    1.0883084   -7.4138541    347.01704  0.029418196  0.029513332            1 
  984000    1.1017103   -7.3838795    347.91124  0.029464028  0.029507216            1 
  985000    1.0949173   -7.3871752    348.33996  0.029470386   0.02950111            2 
  986000    1.0687484   -7.3622877    348.77801   0.02947752  0.029495233            2 
  987000    1.0906821   -7.3533771    350.01901  0.029552433  0.029489175            1 
  988000    1.0951777   -7.3928628     349.4448  0.029474089  0.029482967            1 
  989000     1.113104   -7.3783313    349.42423  0.029442554  0.029476648            4 
  990000    1.0783622    -7.352468    350.22341  0.029480085  0.029470349            2 
  991000    1.0966617   -7.3774917    349.21268  0.029365344  0.029464057            1 
  992000    1.0935412   -7.3397564    350.40637  0.029436019  0.029457763            3 
  993000    1.0914164   -7.3486844    350.27399  0.029395266  0.029451556            2 
  994000    1.1049575   -7.3886688    349.67703  0.029315646  0.029444858            2 
  995000    1.0727979   -7.3371841    351.16941  0.029411174  0.029438152            1 
  996000    1.1055756   -7.3722913    350.64789  0.029338009  0.029431407            2 
  997000    1.0746203   -7.4341252     349.9313  0.029248688  0.029424768            2 
  998000    1.0764923   -7.3958412    351.46981  0.029347846  0.029418186            4 
  999000    1.1213148   -7.3434651     351.9765  0.029360736  0.029411557            1 
 1000000    1.1021593   -7.3461803    353.02458  0.029418715  0.029404999            2 
 1001000    1.1124345   -7.4160407    352.73139  0.029364917  0.029398484            1 
 1002000    1.1138107   -7.3837892     353.7687  0.029421881  0.029392391            2 
 1003000    1.0598035   -7.3964861    353.25257  0.029349665  0.029386141            1 
 1004000    1.1054726   -7.3831312    353.52494  0.029343039  0.029379654            2 
 1005000    1.0677015   -7.3595126    353.78745  0.029335609   0.02937323            1 
 1006000    1.0776852   -7.3478034    354.19749  0.029340415  0.029367001            5 
 1007000    1.0957288   -7.3951541    354.70269  0.029353086  0.029360378       -1e+20 
 1008000    1.0794695   -7.3776959    354.27572  0.029288667  0.029353885            2 
 1009000     1.077264   -7.3735313    355.78615  0.029384387  0.029347483            1 
 1010000    1.0652311   -7.4136967    354.25563  0.029229012  0.029341069            2 
 1011000    1.0917592   -7.3792777    356.09345  0.029351587  0.029334644            1 
 1012000    1.0715808     -7.41392    354.33089  0.029177445  0.029328257            1 
 1013000    1.1111339    -7.339836    357.62112  0.029419309  0.029322023            1 
 1014000    1.0783016   -7.3962784    357.71526  0.029398032  0.029315902            1 
 1015000    1.0750952   -7.3755575    356.61385  0.029278642   0.02930991            1 
 1016000    1.0937294    -7.385635    357.45333  0.029318678  0.029303749            1 
 1017000    1.0957776   -7.3824005     357.6259   0.02930399  0.029297666            2 
 1018000    1.0560577   -7.4144269    357.42829  0.029259029  0.029291457            1 
 1019000    1.0702202   -7.4061241    357.94188  0.029272316  0.029285172            2 
 1020000      1.09584   -7.3993384    358.76453  0.029310827  0.029278772            1 
 1021000    1.0667701   -7.3917727    358.09013  0.029227076  0.029272452            2 
 1022000    1.0756817   -7.3959583    358.23511  0.029210299  0.029266379            1 
 1023000    1.0905463    -7.381568    358.89456  0.029235465  0.029260072            1 
 1024000     1.092154   -7.3975714    358.43247  0.029169309  0.029253688            3 
 1025000    1.0973208   -7.3995395    359.75034  0.029247995  0.029247301            1 
 1026000    1.0725144   -7.3825118    358.67973  0.029132531  0.029240815            1 
 1027000    1.0725502   -7.4204571      359.283  0.029153116  0.029234242            2 
 1028000    1.0688353   -7.3889096    360.61583  0.029232801  0.029227715            2 
 1029000    1.0552455   -7.3803218    361.38283  0.029266507  0.029221292            1 
 1030000    1.0717505   -7.3867842      359.754  0.029106311  0.029215016            1 
 1031000      1.08953   -7.3977811    360.36102  0.029127144  0.029208552            2 
 1032000    1.0624614   -7.3766825    361.68773   0.02920605  0.029202036            2 
 1033000    1.1042132   -7.3904853    361.29219  0.029145869  0.029195557            3 
 1034000     1.074915   -7.3919565    360.85109  0.029082132  0.029189207            1 
 1035000    1.0845409   -7.3913586    362.13704  0.029157572  0.029182862            2 
 1036000     1.097922   -7.3915344    362.78325  0.029181406  0.029176439            2 
 1037000    1.1025627   -7.3740563    361.89439  0.029081838  0.029170077            3 
 1038000    1.1081739   -7.3966633    363.28525  0.029165483  0.029164015            2 
 1039000    1.0836557   -7.3895884    362.79276  0.029097911  0.029157733            2 
 1040000    1.0728809    -7.374373    362.84916  0.029074452  0.029151425            1 
 1041000    1.0889256   -7.3683098    364.06108  0.029143539  0.029145157            2 
 1042000    1.0689305   -7.4307252    363.47949  0.029069057  0.029138824            1 
 1043000    1.0821842   -7.3763144    364.57571  0.029128772  0.029132677            1 
 1044000    1.0880164   -7.4185315    362.95946   0.02897186  0.029126328            1 
 1045000    1.0739324   -7.4458769    364.26332  0.029048112  0.029119711            2 
 1046000    1.0825144   -7.4077519    364.64082  0.029050416  0.029113079            2 
 1047000    1.0855825   -7.3697407     366.0187  0.029132339  0.029106607            2 
 1048000    1.0589164   -7.3662353    366.02099  0.029104723  0.029100233            1 
 1049000    1.0998643   -7.4331309    365.13706  0.029006757  0.029093591            2 
 1050000    1.0807693    -7.352242    366.45208  0.029083499  0.029086974            1 
 1051000    1.0993359   -7.3695098    365.49952  0.028980298  0.029080406            3 
 1052000     1.075152   -7.4023924    366.21553  0.029009469  0.029073538            4 
 1053000    1.0663653   -7.4256071    365.30576  0.028909921  0.029066579            1 
 1054000    1.0678179   -7.4396787    364.99422   0.02885786  0.029059593            2 
 1055000      1.10386   -7.3822995    366.28827  0.028932723  0.029052622            1 
 1056000    1.0901227    -7.413854    367.21234  0.028978247    0.0290457            1 
 1057000    1.0798154   -7.3872309    365.95741  0.028851893  0.029038681            2 
 1058000    1.0648965    -7.393695    367.00363  0.028907028   0.02903155            3 
 1059000    1.0691352   -7.4129482    366.88533  0.028870422  0.029024357            1 
 1060000    1.0856063   -7.3782771    367.60353  0.028899648  0.029017098            1 
 1061000    1.0487022   -7.4151267    367.12647  0.028834941  0.029009959            3 
 1062000    1.0661222   -7.4261642    367.87477  0.028866507  0.029002881            2 
 1063000    1.0961447   -7.3949076    368.60877  0.028896893  0.028996071            2 
 1064000    1.0942866   -7.4128286    368.64356  0.028872459  0.028989182            2 
 1065000    1.0728386   -7.4197469    368.22578  0.028812659  0.028982376            1 
 1066000    1.0766086   -7.3876558    369.53878  0.028888272  0.028975424            4 
 1067000    1.0650597   -7.4228459    367.80376  0.028725692    0.0289684            1 
 1068000    1.0776772   -7.4258465    368.67763  0.028766981  0.028961205            2 
 1069000    1.0840377   -7.3991368    369.13889  0.028776029  0.028954159            1 
 1070000    1.0857441    -7.410411    369.73237  0.028795356  0.028947242            2 
 1071000    1.0757504   -7.4349116    369.73737  0.028768858  0.028940087            2 
 1072000    1.0638195   -7.4199475     370.1124  0.028771175  0.028932857            2 
 1073000     1.090258   -7.4605628    370.56764  0.028779717  0.028925821            3 
 1074000    1.0473588   -7.4213296     370.2716  0.028729951  0.028918846            1 
 1075000    1.0734001   -7.4059102    370.83733   0.02874708  0.028911872            2 
 1076000    1.0904702   -7.4144106    371.03918  0.028735996  0.028904914            3 
 1077000    1.1158921   -7.4082194    372.26676  0.028804299  0.028897813            1 
 1078000     1.066235   -7.3882975    372.55508  0.028799867  0.028890834            5 
 1079000    1.0421415   -7.4042828    372.50611  0.028769394  0.028883867            1 
 1080000    1.1022631   -7.4041336    372.22845  0.028721331  0.028876919            1 
 1081000    1.0865844   -7.4150824    372.35351  0.028704402  0.028869823            1 
 1082000    1.0680624    -7.403691    373.09483  0.028734968   0.02886264            2 
 1083000    1.0786503   -7.3963894    372.98262  0.028699801  0.028855482            2 
 1084000     1.081409   -7.3878645    374.29056  0.028773874  0.028848348            1 
 1085000     1.077814   -7.4161192    373.27835  0.028669612  0.028841188            3 
 1086000    1.0708583   -7.3700391    374.54459  0.028740377  0.028834049            1 
 1087000    1.0635963    -7.437289    373.04832  0.028599227  0.028826966            1 
 1088000    1.0392995   -7.4379944    373.05175  0.028573204  0.028819656            1 
 1089000    1.0603136   -7.4332852    373.00563  0.028543437  0.028812353            2 
 1090000    1.0709112   -7.4087764    375.15001  0.028681193   0.02880501            2 
 1091000    1.0814785   -7.4009879    375.52824  0.028683795  0.028797864            2 
 1092000    1.0893715   -7.4174586    375.42553  0.028649689  0.028790893            1 
 1093000    1.0991694   -7.4104348    375.83419  0.028654634  0.028784018            1 
 1094000    1.0833835     -7.38869     377.2043  0.028732808  0.028777267            1 
 1095000    1.1074443    -7.399775    376.81354  0.028676829  0.028770562            1 
 1096000    1.0533265   -7.4028059    376.14098  0.028599527  0.028763693            1 
 1097000    1.0680193   -7.4391103    376.82132  0.028625138   0.02875662            2 
 1098000    1.0922334   -7.3980989    377.64523  0.028661599  0.028749759            1 
 1099000    1.0671881   -7.4024247    377.85355  0.028651316  0.028742956            3 
 1100000    1.0799419   -7.4363171    376.76767  0.028543005   0.02873588            2 
 1101000    1.0613233   -7.4231846    378.15322  0.028621951  0.028728785            1 
 1102000    1.0718687   -7.4567443    376.53053  0.028473271  0.028721746            3 
 1103000    1.0664676   -7.4348544    376.90247  0.028475557   0.02871445            2 
 1104000    1.0835577   -7.4041397    378.65139  0.028581778  0.028707211            2 
 1105000    1.0909936   -7.4405292    378.38784  0.028536036  0.028700044            3 
 1106000    1.0824021   -7.3971381    379.82973  0.028618877  0.028692935            1 
 1107000    1.0614487   -7.4254582    379.28958  0.028552362  0.028685818            1 
 1108000    1.0721121   -7.4134293    380.68214  0.028631328  0.028678929            2 
 1109000    1.0595707   -7.4726423    379.16139  0.028491237  0.028671897            2 
 1110000     1.052892   -7.4169474    380.20303  0.028543771  0.028664951            1 
 1111000    1.0628593   -7.4479029    379.63964  0.028475821  0.028658034            1 
 1112000    1.0852654    -7.390932    380.92932  0.028546861  0.028650997            3 
 1113000    1.0852095   -7.4570711    382.37898  0.028629753  0.028644002            2 
 1114000    1.0771496   -7.3897413    381.47607  0.028536511  0.028636918            2 
 1115000    1.0752174   -7.4026794    382.56689  0.028592443  0.028630092            1 
 1116000    1.0682267   -7.4220334    381.33808  0.028475065  0.028623309            1 
 1117000    1.0650053   -7.4531247    381.80842  0.028484663  0.028616161            1 
 1118000     1.077826   -7.4295791    382.32071   0.02849737  0.028609196            3 
 1119000    1.0884464   -7.4270539    381.41043  0.028404113  0.028602284            2 
 1120000    1.0742582   -7.3922511    382.42443  0.028454199  0.028595239            3 
 1121000    1.0696544   -7.4377077     382.5907  0.028441176  0.028588114            1 
 1122000    1.0648335   -7.3953124    382.84772  0.028434917  0.028581052            1 
 1123000    1.0688297   -7.4592878    382.37923  0.028374832  0.028573828            2 
 1124000    1.0747886   -7.3719568    383.28302  0.028416594  0.028566919            1 
 1125000    1.0634693   -7.4379932    383.17121  0.028383053  0.028559689            1 
 1126000    1.0609339   -7.4250441    383.39271  0.028374239  0.028552338            1 
 1127000     1.059551   -7.4229562    383.05384  0.028324005  0.028545123            1 
 1128000    1.0806118   -7.4270598    384.17582  0.028381784  0.028538004            1 
 1129000    1.0734004   -7.4233743    383.36861  0.028297063  0.028530835            1 
 1130000    1.0669138   -7.4047274    384.58093  0.028361425  0.028523822            1 
 1131000    1.0989345   -7.4058277    384.70931  0.028345808  0.028516774            1 
 1132000    1.0563322   -7.4180837    385.82722  0.028403064  0.028509788            2 
 1133000    1.0839306   -7.4459221    384.84709  0.028305906  0.028502599            2 
 1134000     1.074808   -7.4610659    385.66069  0.028340733  0.028495561            1 
 1135000    1.0474441   -7.4389862    386.25107   0.02835911  0.028488377            2 
 1136000    1.0875513   -7.4368491    385.89187  0.028307795  0.028481134            1 
 1137000    1.0578953   -7.4544047    384.68399  0.028194371  0.028473705            3 
 1138000    1.0739898   -7.4568958    385.17297  0.028205402  0.028466287            1 
 1139000    1.0550473   -7.4455023     387.1765  0.028327224  0.028458927            2 
 1140000    1.0622512    -7.421164    387.39862  0.028318613  0.028451616            4 
 1141000    1.0711506   -7.4548024    386.66709  0.028240366   0.02844418            3 
 1142000    1.0393253   -7.4124095    387.14839  0.028250758  0.028436651            2 
 1143000    1.0672879   -7.4054525    387.18989  0.028229067  0.028429166            2 
 1144000    1.0716043   -7.3876812     387.9597  0.028260468  0.028421816            1 
 1145000    1.0635715   -7.4325418    387.41991    0.0281965  0.028414283            2 
 1146000    1.0754644   -7.4078622    388.74311  0.028268115  0.028406943            2 
 1147000     1.074425   -7.4049709    389.92352   0.02832923  0.028399781            2 
 1148000    1.0629283   -7.4466943     389.4561  0.028270623  0.028392712            2 
 1149000     1.084659   -7.4808498    389.10091  0.028220258  0.028385483            1 
 1150000    1.0475551   -7.3896508    390.47442  0.028295248  0.028378171            1 
 1151000    1.0689715   -7.4291345    388.57866   0.02813341   0.02837091            2 
 1152000    1.0788532   -7.4454042    389.92646  0.028206486  0.028363579            3 
 1153000    1.0668293   -7.4209453    390.17506   0.02819999  0.028356144            2 
 1154000    1.0708881   -7.4627604     388.4377  0.028050094  0.028348674            2 
 1155000    1.0902329   -7.4655517    389.91774  0.028132593  0.028341348            2 
 1156000    1.0855315   -7.4787985    389.36833  0.028068651  0.028333872            2 
 1157000    1.0703815   -7.4542273    389.54295  0.028056969  0.028326426            1 
 1158000    1.0695276   -7.3949333    391.91797  0.028203654  0.028318898            1 
 1159000    1.0652272   -7.4943409    391.43961  0.028144924  0.028311305            3 
 1160000    1.0884405   -7.4342526    391.81496  0.028147626  0.028303615            1 
 1161000    1.0372282   -7.4558427     390.8691  0.028055491  0.028295984            2 
 1162000    1.0585922   -7.4699823    390.44976  0.028001273  0.028288275            3 
 1163000    1.0656444    -7.427457    392.55683  0.028128177  0.028280356            2 
 1164000    1.0628116   -7.4415228    391.12593   0.02800157  0.028272666            5 
 1165000    1.0548907   -7.4169053    391.89285  0.028032393  0.028265085            1 
 1166000    1.0616867   -7.4356816    391.80059  0.028001758  0.028257536            1 
 1167000    1.0892892   -7.4082856    393.90769  0.028128227  0.028249887            1 
 1168000    1.0463502   -7.4296087    392.60761  0.028011388  0.028242329            2 
 1169000    1.0736324   -7.4459754    392.04748  0.027947497  0.028234641            3 
 1170000    1.0522523   -7.4825363    392.49234  0.027955295  0.028226897            1 
 1171000    1.0532389   -7.4337543    392.89878  0.027960346  0.028219273            1 
 1172000    1.0562177   -7.4429283    393.76332   0.02799796  0.028211679            1 
 1173000    1.0733474   -7.4190917    393.23277    0.0279364  0.028204052            1 
 1174000    1.0735918   -7.4705122    394.31397   0.02798935  0.028196305            3 
 1175000    1.0556442   -7.4848321    393.52231  0.027909384  0.028188368            2 
 1176000    1.0690344   -7.4309279    393.61155  0.027891975  0.028180449            2 
 1177000    1.0552588   -7.4173746    394.55983  0.027935417  0.028172616            4 
 1178000    1.0594112   -7.4562172    394.85954  0.027932905  0.028164879            2 
 1179000    1.0665917   -7.4526936    394.13799  0.027858213   0.02815692            1 
 1180000    1.0721344   -7.4712608    395.27431  0.027914852  0.028148957            1 
 1181000    1.0782411   -7.4814935    395.01566  0.027872965  0.028141073            1 
 1182000     1.033123   -7.3999532    396.10866  0.027926443  0.028133455            1 
 1183000    1.0536547   -7.4407923    395.91817  0.027889418  0.028125851            2 
 1184000    1.0679174    -7.428605    395.04405  0.027804339   0.02811815            3 
 1185000    1.0521517   -7.4362144    397.45516  0.027950433  0.028110571            2 
 1186000    1.0523551   -7.4431637     396.8182  0.027882111  0.028102777            1 
 1187000    1.0761705   -7.4791529    396.12459  0.027809927  0.028094956            2 
 1188000    1.0602787   -7.4810324    397.05593  0.027851847  0.028087262            2 
 1189000    1.0251289   -7.4707135     396.8379  0.027813141  0.028079716            2 
 1190000    1.0382249    -7.444688    398.81207  0.027928016  0.028072452            1 
 1191000    1.0729708   -7.4675642    397.97884  0.027846267  0.028064965            2 
 1192000    1.0578998   -7.4383114     397.5324  0.027791694  0.028057347            2 
 1193000     1.054841   -7.4703654    398.90506  0.027864282  0.028049955            4 
 1194000    1.0683547   -7.4500646    398.69013  0.027825944   0.02804224            1 
 1195000     1.079869   -7.4497128    399.18079  0.027836875  0.028034748            2 
 1196000    1.0526631   -7.4818596    399.19681  0.027814716   0.02802714            1 
 1197000    1.0566001   -7.4815667    398.86471  0.027768359  0.028019483            2 
 1198000     1.052305   -7.4840459    399.61625  0.027797458  0.028011546            1 
 1199000     1.038975   -7.4436475    398.95827  0.027728543  0.028003651            2 
 1200000    1.0642105   -7.5031011     399.5609  0.027747285   0.02799592            5 
 1201000    1.0542494   -7.4469266    399.64046  0.027729702  0.027988276            5 
 1202000    1.0582742   -7.5087997    400.06809  0.027736279  0.027980672            1 
 1203000    1.0406182   -7.4437281    400.52598  0.027744942  0.027973049            3 
 1204000    1.0596167   -7.4696701    401.20786  0.027769093   0.02796551            2 
 1205000    1.0746504   -7.4770148    400.39168  0.027689604  0.027957858            3 
 1206000    1.0707408    -7.455549    401.11557  0.027716664   0.02795017            3 
 1207000    1.0588451   -7.4842989    402.48543  0.027788279  0.027942613            2 
 1208000      1.07012   -7.4962416    401.81874  0.027719284   0.02793508            2 
 1209000    1.0773344    -7.491868    401.53633  0.027676891  0.027927592            2 
 1210000    1.0491756   -7.4601222     402.1858  0.027698746  0.027920015            1 
 1211000    1.0573823   -7.4360957    403.75534   0.02778388  0.027912773            1 
 1212000    1.0626284   -7.4703112    402.89866  0.027702053  0.027905389            2 
 1213000    1.0945601   -7.4695338     403.6993   0.02773422  0.027898109            2 
 1214000     1.050306   -7.5134092    403.08794  0.027669409  0.027890673            3 
 1215000    1.0529774   -7.4736234    403.34381  0.027664185  0.027883216            1 
 1216000    1.0509484   -7.4595888    404.77486  0.027739505  0.027875678            2 
 1217000    1.0754936   -7.4580767    404.51689  0.027699048  0.027868286            2 
 1218000     1.070224    -7.414972    405.70411  0.027757533  0.027861088            1 
 1219000    1.0291206    -7.463113    404.41637   0.02764673  0.027853698            3 
 1220000    1.0355781   -7.4785424    406.31074  0.027753466  0.027846463            3 
 1221000    1.0641796   -7.4446823    406.31291  0.027730884  0.027839113            3 
 1222000    1.0686156   -7.4908283    405.74936   0.02766976  0.027831761            3 
 1223000    1.0609997   -7.4907566    404.39364  0.027554759  0.027824508            1 
 1224000    1.0445349     -7.51405    406.32005  0.027663402  0.027817157            2 
 1225000    1.0582326   -7.4820921    406.10714  0.027626336  0.027809804            2 
 1226000    1.0471393   -7.4978205    406.46939  0.027628425  0.027802531            2 
 1227000    1.0827962   -7.4438591    407.48449   0.02767485  0.027795232            1 
 1228000    1.0561167   -7.4969591    407.49145  0.027652786  0.027787856            2 
 1229000    1.0512397   -7.4942831    406.75821  0.027580567  0.027780584            1 
 1230000    1.0625967   -7.4625588    408.55025  0.027679556  0.027773358            2 
 1231000    1.0409994   -7.4438794    407.74454  0.027602528  0.027766198            1 
 1232000    1.0431602   -7.4696365     407.5551  0.027567309  0.027758941            3 
 1233000    1.0537391   -7.4690793    408.38384  0.027600962   0.02775171            1 
 1234000    1.0379518   -7.4709075    408.63344  0.027595451  0.027744547            2 
 1235000    1.0439467   -7.4399898    409.95841   0.02766251  0.027737575            3 
 1236000    1.0441797   -7.4514481    409.83743  0.027631973  0.027730538            2 
 1237000     1.051686   -7.4588827    409.44088  0.027582921  0.027723528            3 
 1238000    1.0744559   -7.4958345    410.31677  0.027619599  0.027716526            1 
 1239000    1.0660663   -7.4430212    410.83201  0.027631962  0.027709485            1 
 1240000    1.0397739   -7.4502742    410.61721  0.027595243  0.027702652            6 
 1241000    1.0570088   -7.4713626    410.34238  0.027554552  0.027695747            2 
 1242000    1.0673669   -7.4678159    410.99571  0.027576202  0.027688733            2 
 1243000    1.0461339   -7.4683644    410.74166  0.027536984  0.027681747            2 
 1244000    1.0616763    -7.445138    412.49068  0.027632012  0.027674776            2 
 1245000     1.041419   -7.4828413     412.8765  0.027635643  0.027667868            1 
 1246000    1.0724946   -7.4388916    411.83194  0.027543602  0.027660943            2 
 1247000    1.0336062   -7.4778046    411.59432  0.027505635  0.027653785            2 
 1248000    1.0456308   -7.4649409    413.35294  0.027601024  0.027646687            2 
 1249000    1.0620471   -7.4655669    413.39516  0.027581743  0.027639756            4 
 1250000    1.0438736   -7.4315486    414.01426  0.027600951  0.027632885            3 
 1251000    1.0616985   -7.4556526    413.99028   0.02757729  0.027625852            1 
 1252000    1.0384356   -7.4816619    412.47235   0.02745423  0.027618696            4 
 1253000    1.0352159   -7.4695864     413.8424  0.027523437  0.027611593            1 
 1254000    1.0484962   -7.4863383    413.98741  0.027511125  0.027604401            1 
 1255000    1.0521169   -7.4430979     414.3988   0.02751652  0.027597334            2 
 1256000    1.0737807   -7.5059846      413.977  0.027466627  0.027590257            2 
 1257000    1.0353622   -7.5000235    414.18504  0.027458568  0.027582984            3 
 1258000    1.0423152   -7.4978089    413.98223  0.027423306  0.027575874            1 
 1259000    1.0409776   -7.4639983    414.83798  0.027458166  0.027568715            1 
 1260000    1.0535448   -7.4672859    414.15057  0.027390911  0.027561572            1 
 1261000    1.0649666   -7.4596236    415.99102  0.027490815  0.027554423            3 
 1262000    1.0546421   -7.4624589    413.60976  0.027311791  0.027547415            1 
 1263000    1.0604102    -7.496764     415.2821  0.027400508  0.027540214            1 
 1264000     1.035426   -7.4743408    416.24279  0.027442167  0.027533217            2 
 1265000     1.068467   -7.4606206    417.55727  0.027507067  0.027526375            1 
 1266000    1.0409745   -7.4766986     416.0991  0.027389356  0.027519273            2 
 1267000    1.0648869    -7.474399    416.85895  0.027417715  0.027512002            5 
 1268000    1.0644139   -7.4624361    417.20214  0.027418648   0.02750481            2 
 1269000    1.0468512    -7.507318    415.77822  0.027303534   0.02749761            2 
 1270000     1.039218   -7.4502026    418.47347  0.027458889  0.027490464            2 
 1271000     1.071944   -7.4812553    417.77126  0.027391245  0.027483397            1 
 1272000    1.0338791   -7.5157803    417.69106  0.027364456  0.027476266            2 
 1273000    1.0236119   -7.5192218    417.37143  0.027322036  0.027469102            2 
 1274000    1.0389517   -7.5109428    417.21563    0.0272904  0.027461832            6 
 1275000    1.0651934   -7.4953714     417.4004  0.027281072  0.027454725            3 
 1276000    1.0310433   -7.4880058    419.14341  0.027373525  0.027447674            3 
 1277000    1.0445653    -7.519646    419.51287  0.027376199  0.027440729            2 
 1278000    1.0445702   -7.4568629    421.47525  0.027482736  0.027433843            1 
 1279000    1.0606475   -7.4847751    420.53301  0.027399857  0.027427157            1 
 1280000    1.0538132   -7.5354588    421.36765  0.027432789  0.027420327            2 
 1281000     1.008735    -7.437339    421.98171  0.027451321   0.02741365            2 
 1282000    1.0355152   -7.4585817    421.80327   0.02741831  0.027406958            2 
 1283000     1.043462   -7.4838547    421.99626  0.027409474  0.027400136            2 
 1284000    1.0315014   -7.4800078    421.60597  0.027362797  0.027393392            2 
 1285000     1.052618   -7.5195747    421.34428  0.027324532  0.027386718            4 
 1286000    1.0594221   -7.5057729     420.9756  0.027279394  0.027379897            1 
 1287000    1.0360357   -7.4777467    421.18177  0.027271547  0.027373193            4 
 1288000    1.0305277   -7.4882129    421.89743  0.027296676  0.027366384            1 
 1289000    1.0607817   -7.4605908     422.7015  0.027327483  0.027359545            3 
 1290000    1.0517027    -7.481428    422.36174   0.02728435  0.027352747            2 
 1291000     1.035367   -7.4755088    423.98014  0.027367683  0.027345863            2 
 1292000    1.0375955   -7.4620179    423.95706  0.027345011  0.027339045            1 
 1293000    1.0521868   -7.4941169     422.0823  0.027203036  0.027332205            2 
 1294000    1.0586393    -7.457562    423.58602  0.027278852  0.027325216            2 
 1295000    1.0519225   -7.4732309    423.18319  0.027231865   0.02731832            2 
 1296000    1.0590234   -7.5052818    422.72847  0.027181615  0.027311532            1 
 1297000    1.0367539   -7.4747696    423.97342  0.027240647  0.027304769       -1e+20 
 1298000     1.031061   -7.4957997    425.30918  0.027305417  0.027297885            2 
 1299000    1.0449934   -7.4832867    423.45175  0.027165239  0.027291147            2 
 1300000    1.0293315   -7.4487998    425.88951   0.02730061  0.027284448            1 
 1301000    1.0385253   -7.5157163     424.9689  0.027220657  0.027277607            1 
 1302000    1.0458451   -7.4699132    426.42691  0.027293069   0.02727078            5 
 1303000    1.0630389   -7.4788773    425.67196   0.02722384  0.027263947            2 
 1304000     1.035591   -7.4797689    425.35794  0.027182895  0.027257042            1 
 1305000    1.0393511   -7.4669949    426.84788  0.027257208  0.027250095            4 
 1306000     1.046921   -7.4714644    425.21128  0.027131909  0.027243097            4 
 1307000    1.0394437   -7.5305343    425.68703  0.027141484  0.027235932            1 
 1308000    1.0356464   -7.5227589    425.38417  0.027101438  0.027228777            1 
 1309000    1.0487711   -7.4724313    427.02047  0.027184904  0.027221718            2 
 1310000    1.0295955   -7.4820443    426.17049  0.027110082  0.027214667            2 
 1311000    1.0438742    -7.521129    425.52834  0.027048585  0.027207489            1 
 1312000    1.0283495   -7.4825744    427.35618  0.027144066  0.027200308            2 
 1313000    1.0475215   -7.5115313    425.48827   0.02700484  0.027193265            2 
 1314000    1.0516737   -7.5069874    426.64766  0.027057817  0.027186237            3 
 1315000    1.0432708   -7.5186939    428.59048   0.02716036   0.02717912            1 
 1316000    1.0401499   -7.4643241    428.51402  0.027134879  0.027172182            2 
 1317000    1.0278557   -7.5112301    428.92082  0.027140016  0.027165343            2 
 1318000    1.0452906   -7.4894448    428.25129  0.027077092  0.027158354            3 
 1319000    1.0446287    -7.522117    427.84216  0.027030715  0.027151268            3 
 1320000    1.0319942   -7.4547101    428.76667  0.027068603  0.027144115            3 
 1321000    1.0144039   -7.4989622    428.59332  0.027037176  0.027136914            2 
 1322000    1.0474911   -7.5067829    428.40312  0.027004735  0.027129787            2 
 1323000    1.0213161   -7.4855838    429.36558  0.027044947  0.027122921            2 
 1324000    1.0375037   -7.4729328    430.29736  0.027083167  0.027116018            3 
 1325000    1.0443138   -7.4985358    428.87975  0.026973569  0.027108926            1 
 1326000    1.0633884   -7.5394133     429.3716  0.026984138  0.027101869            1 
 1327000    1.0424568   -7.5063161    428.81052  0.026928568  0.027094749            2 
 1328000    1.0804019    -7.474965    430.81569  0.027034117  0.027087703            1 
 1329000    1.0242425   -7.4929095    431.60975  0.027063566  0.027080791            2 
 1330000    1.0456752   -7.4891425    431.13156  0.027013256  0.027073845            1 
 1331000    1.0323555   -7.4872795    429.74754  0.026906308   0.02706692            1 
 1332000    1.0536884   -7.4926429    432.35263  0.027049088  0.027060024            6 
 1333000    1.0404923   -7.4899149    431.75438  0.026991396  0.027053177            2 
 1334000    1.0570266   -7.4939074    433.52127  0.027081539  0.027046117            3 
 1335000    1.0391606   -7.5101794    432.05005  0.026969416  0.027039116            3 
 1336000    1.0017263   -7.5321005    431.50885  0.026915472  0.027031965            2 
 1337000    1.0546019   -7.4926666    432.60845  0.026963877   0.02702487            2 
 1338000    1.0259942   -7.5065412     432.3546  0.026927915  0.027017848            1 
 1339000    1.0764633   -7.5469484    432.36657  0.026908549  0.027010804            1 
 1340000    1.0412909   -7.5169004    433.02641  0.026929503  0.027003708            1 
 1341000    1.0410936   -7.5342248    431.55202  0.026817799  0.026996506            2 
 1342000    1.0345912   -7.5023078    433.81859  0.026938561  0.026989313            1 
 1343000    1.0327546   -7.5369518    432.99015  0.026867098  0.026982123            2 
 1344000    1.0335228   -7.5208442    432.73212  0.026831109  0.026974901            3 
 1345000    1.0293005   -7.5269782    433.14855  0.026836961  0.026967801            1 
 1346000    1.0304067   -7.5540437    433.41052  0.026833242  0.026960633            1 
 1347000    1.0397479   -7.4978047    433.51997  0.026820092  0.026953435            2 
 1348000    1.0062214   -7.5129799    434.05281  0.026833136  0.026946301            1 
 1349000    1.0336734   -7.4920064    434.62451  0.026848561  0.026939187            2 
 1350000    1.0366718   -7.5382079    433.91079  0.026784616  0.026932138            3 
 1351000    1.0170454   -7.5127375    435.08712   0.02683735  0.026924931            1 
 1352000    1.0356119   -7.4902715    435.63293  0.026851142  0.026917763            1 
 1353000    1.0297073   -7.5237932    434.96982  0.026790455  0.026910633            3 
 1354000    1.0176881    -7.495154    435.57988  0.026808215  0.026903612            1 
 1355000    1.0598109   -7.5387277    435.22247   0.02676645  0.026896448            2 
 1356000    1.0289143   -7.5148562    436.19937  0.026806746  0.026889453            1 
 1357000    1.0460035   -7.5097407    436.91735  0.026831082   0.02688254            2 
 1358000    1.0267746   -7.4990418    438.08647  0.026883067  0.026875525            1 
 1359000     1.058108   -7.5383947     436.6054  0.026772467  0.026868545            3 
 1360000    1.0356765   -7.5182158    437.59314  0.026813305  0.026861502            3 
 1361000    1.0485115    -7.488519    437.86689  0.026810366  0.026854668            2 
 1362000    1.0396878   -7.5036399    438.27166  0.026815447  0.026847841            8 
 1363000    1.0213935   -7.5111544    437.98774  0.026778414  0.026840868            2 
 1364000    1.0201348   -7.5291501    438.91419  0.026815383  0.026833926            1 
 1365000    1.0303184    -7.512945    438.69393  0.026782291  0.026826893            3 
 1366000    1.0109461   -7.5402347    437.12677   0.02666708  0.026819785            2 
 1367000    1.0412526   -7.5491376    438.00828  0.026701309   0.02681273            3 
 1368000    1.0155528   -7.5396336    438.49259  0.026711293  0.026805576            2 
 1369000    1.0076856   -7.5447137    438.53853  0.026694578  0.026798608            2 
 1370000    1.0412871   -7.5337055    438.57408  0.026677256  0.026791491            2 
 1371000    1.0414918   -7.4912774    437.70066  0.026604708  0.026784243            1 
 1372000    1.0222816   -7.5112979    439.19672  0.026676186  0.026777227            2 
 1373000    1.0105966   -7.5189314    439.67298  0.026685663  0.026770169            1 
 1374000    1.0335921   -7.4699726    441.61477  0.026784011  0.026763252            1 
 1375000    1.0243501   -7.5200221     440.4934   0.02669657  0.026756032            4 
 1376000    1.0289746   -7.5401723     437.4771  0.026494495  0.026748716            3 
 1377000    1.0733039   -7.5333912    439.77454  0.026614291  0.026741459            4 
 1378000    1.0326575   -7.5437924    438.96992  0.026546319  0.026734364            2 
 1379000    1.0399495    -7.525887    440.87543  0.026642218  0.026727155            6 
 1380000    1.0253736   -7.5035337     441.1745  0.026640972  0.026720116            2 
 1381000    1.0258639   -7.5151974    440.94563   0.02660787   0.02671309            1 
 1382000    1.0472864   -7.5119303    441.78328  0.026639127  0.026705921            2 
 1383000    1.0457131   -7.5345695    440.05091   0.02651548  0.026698688            4 
 1384000     1.018987   -7.5277529    440.91604  0.026548413  0.026691612            2 
 1385000     1.039289   -7.5206257    442.15485  0.026603782  0.026684607            2 
 1386000    1.0082903   -7.4976674    443.58608  0.026670639  0.026677586            1 
 1387000    1.0446131   -7.5164598    441.87259  0.026548461  0.026670552            2 
 1388000    1.0260884   -7.5072127    443.45617   0.02662441  0.026663493            4 
 1389000    1.0288591   -7.5199809    443.73822  0.026622163  0.026656491            3 
 1390000    1.0255845   -7.4979357    444.17263  0.026629055   0.02664954            1 
 1391000     1.036619   -7.5491452    443.04737  0.026542498  0.026642708            2 
 1392000    1.0166432   -7.5351069    442.85723  0.026512047  0.026635714            4 
 1393000    1.0099895   -7.5231672    443.38776  0.026524752  0.026628661            1 
 1394000    1.0597985   -7.5247173    446.16778  0.026671914  0.026621708            3 
 1395000    1.0243038   -7.5218002    444.60338  0.026559342   0.02661461            6 
 1396000    1.0058219   -7.5301381    444.22428  0.026517686  0.026607357            2 
 1397000    1.0169018   -7.4668806    444.85209  0.026536154  0.026600249            1 
 1398000    1.0295968   -7.5126851    444.20703  0.026478721  0.026593217            2 
 1399000    1.0261286   -7.5365939    442.94695  0.026384736  0.026585984            2 
 1400000    1.0178041   -7.5656952    445.13348  0.026496041  0.026578784            1 
 1401000    1.0516762   -7.5624708    444.61545  0.026446315  0.026571666       -1e+20 
 1402000    1.0352413   -7.4910658    445.42073  0.026475317  0.026564649            1 
 1403000    1.0373759   -7.5015059    447.35312  0.026571224  0.026557574            2 
 1404000    1.0092353   -7.4956218     446.1192   0.02647906  0.026550621            2 
 1405000    1.0372228   -7.5146234    446.94943  0.026509456   0.02654353            2 
 1406000    1.0282678   -7.5335169    447.09302  0.026499112  0.026536512            3 
 1407000    1.0403587   -7.5555986    446.35483  0.026436557  0.026529387            2 
 1408000    1.0401686   -7.5681091    447.47661  0.026484174  0.026522394            4 
 1409000    1.0282984   -7.5141771    447.30896  0.026455462  0.026515568            4 
 1410000    1.0158088   -7.5641412    447.72998  0.026461583  0.026508685            2 
 1411000    1.0268601   -7.5400639    447.08588  0.026404788  0.026501722            3 
 1412000    1.0287967   -7.5813736     448.3513  0.026460771  0.026494799            1 
 1413000    1.0332052   -7.4690135    448.69969  0.026462591  0.026487874            2 
 1414000    1.0355364   -7.5468999    448.19679  0.026414238  0.026480973            3 
 1415000    1.0275483   -7.5161633    449.56154  0.026475945  0.026474045            1 
 1416000    1.0190151   -7.5333488     447.3991  0.026329985  0.026466997            2 
 1417000    1.0310255   -7.5727912    447.41535  0.026312359  0.026459934            1 
 1418000    1.0197651   -7.5450389    449.99651  0.026445493   0.02645294            2 
 1419000    1.0262394   -7.5266742    449.87717  0.026419848  0.026446086            2 
 1420000    1.0364389    -7.547601    449.78608  0.026395897  0.026439248            4 
 1421000     1.006858   -7.5738488    449.99698  0.026389689  0.026432376            1 
 1422000    1.0166141   -7.5689468    450.90005  0.026424053  0.026425474            2 
 1423000    1.0145785   -7.5491407    450.10951  0.026359189  0.026418579            1 
 1424000    1.0118109   -7.5430954    452.40856   0.02647522  0.026411803            2 
 1425000    1.0209662   -7.5405111     450.9095  0.026368977  0.026405036            2 
 1426000    1.0453181   -7.5173639    454.06988  0.026535173  0.026398383            3 
 1427000    1.0344817   -7.5475461    451.88566  0.026389024   0.02639176            1 
 1428000    1.0253678   -7.5695744    451.91346  0.026372167  0.026384948            2 
 1429000    1.0162212   -7.5443776    451.82443  0.026348521  0.026378185            2 
 1430000    1.0195493   -7.5483553     452.4178  0.026364673  0.026371344            2 
 1431000    1.0297145   -7.5292571    452.97898   0.02637893  0.026364606            1 
 1432000    1.0378123   -7.5331633    454.86833  0.026470457  0.026357763            3 
 1433000    1.0345033   -7.5451044    453.23488  0.026356994   0.02635108            1 
 1434000      1.03436   -7.5627071    453.02963  0.026326687  0.026344249            2 
 1435000   0.99146753   -7.5241797    452.89761  0.026300674  0.026337441            3 
 1436000    1.0317689    -7.554546    453.72242  0.026330224  0.026330656            1 
 1437000    1.0436383   -7.5559705    453.55845  0.026302392  0.026323883            5 
 1438000    1.0262499   -7.5565792    454.41334  0.026333643  0.026317194            3 
 1439000    1.0181867   -7.5240007     454.3736  0.026313041  0.026310497            2 
 1440000     1.022009   -7.5139309    454.90156  0.026325322  0.026303794            4 
 1441000    1.0118543   -7.5752069    454.51335  0.026284602  0.026297086            1 
 1442000    1.0526445   -7.5288086    455.93536  0.026348553  0.026290428            1 
 1443000     1.032537   -7.5421339    454.18563  0.026229247  0.026283731            2 
 1444000    1.0298533    -7.525483    455.72737  0.026300056  0.026276851            1 
 1445000    1.0129293   -7.5244707    454.83604  0.026230452  0.026269975            1 
 1446000    1.0292429   -7.5701404    455.82377  0.026269235  0.026263199            2 
 1447000    1.0197155   -7.5720745    455.63123  0.026239993  0.026256328            2 
 1448000    1.0278436   -7.5579427    455.38836  0.026207894  0.026249489            2 
 1449000    1.0157237   -7.5693041    455.17851  0.026177738  0.026242643            2 
 1450000    1.0198621   -7.5245655    457.30753  0.026282042  0.026235876            1 
 1451000   0.99754239   -7.5595639    457.35813  0.026266835  0.026229367            2 
 1452000    1.0362374   -7.5837389    456.80114  0.026216778  0.026222768            1 
 1453000    1.0310338   -7.5441141    456.79048  0.026198124  0.026216055            1 
 1454000    1.0283176   -7.5699637    456.63507  0.026171199  0.026209437            3 
 1455000     1.014021   -7.5554445    458.19079  0.026242313   0.02620271            1 
 1456000   0.99515656   -7.5434991    457.18583  0.026166771  0.026196026            2 
 1457000   0.99688426    -7.568686    457.45748  0.026164349  0.026189197            2 
 1458000    1.0123898   -7.5057653    458.21571  0.026189741  0.026182497            1 
 1459000    1.0103054   -7.5471726    458.44184  0.026184706   0.02617588            1 
 1460000    1.0093317   -7.5629647     459.4533  0.026224503  0.026169379            3 
 1461000    1.0386014    -7.554674    458.46574  0.026150225   0.02616279            2 
 1462000     1.022041   -7.5444884    459.91863  0.026215152  0.026156107            2 
 1463000    1.0058519   -7.5480651     458.5988  0.026122055  0.026149431            1 
 1464000      1.02339   -7.5517432    459.18083  0.026137342  0.026142844            2 
 1465000    1.0377526   -7.5513247    458.47784  0.026079513  0.026136182            4 
 1466000    1.0013534    -7.556893    459.64462  0.026128048  0.026129508            2 
 1467000    1.0225398    -7.563438    461.20524  0.026198889    0.0261228            1 
 1468000    1.0240702   -7.5295256    460.26082  0.026127431  0.026116062            5 
 1469000     1.020799    -7.579322    460.13037  0.026102244  0.026109418            2 
 1470000    1.0191939   -7.6053228    459.86561  0.026069479  0.026102575            1 
 1471000     1.016067   -7.5959957    460.06786  0.026063214  0.026095739            2 
 1472000    1.0302106   -7.5613655    460.27417  0.026057188  0.026088881            2 
 1473000    1.0228371   -7.5486297    460.20841  0.026035778  0.026082151            1 
 1474000    1.0204917   -7.5861192    459.49768  0.025977933   0.02607532            1 
 1475000    1.0024795   -7.5249598    461.88375  0.026095127  0.026068467            2 
 1476000    1.0150979   -7.5879173    460.79758  0.026016123  0.026061632            2 
 1477000    1.0155134    -7.575777    461.59184  0.026043322  0.026054641            1 
 1478000    1.0182826   -7.5638324    460.58775  0.025969088  0.026047702            2 
 1479000    1.0271773   -7.5589709    460.57929  0.025951053   0.02604071            5 
 1480000    1.0118218   -7.5776323    461.80958  0.026002792  0.026033824            6 
 1481000    1.0419375   -7.5607755    461.62722  0.025974973  0.026026836            1 
 1482000    1.0130206   -7.5630276    462.31169  0.025995934   0.02601986            2 
 1483000     1.017486   -7.5506988    461.96261  0.025958789   0.02601292            1 
 1484000    1.0253486   -7.5953985    462.51421  0.025972271  0.026006028            1 
 1485000    1.0104707   -7.5788519    463.02839  0.025983636  0.025999159            1 
 1486000    1.0256927   -7.5530788    463.09795  0.025970051  0.025992232            1 
 1487000    1.0140573   -7.5704257    463.90085  0.025997582  0.025985363            2 
 1488000   0.99464263   -7.5296136    464.01853  0.025986701  0.025978519            2 
 1489000    1.0105387    -7.573251    462.79679  0.025900872  0.025971579            3 
 1490000     1.023365   -7.5603069    463.70979  0.025934552  0.025964669            1 
 1491000   0.99507925   -7.5613734     463.7287  0.025918215  0.025957723            1 
 1492000    1.0221416   -7.5794255    463.51953  0.025889161   0.02595078            1 
 1493000    1.0223799   -7.5572054    464.31122  0.025916009  0.025943828            1 
 1494000    1.0323215   -7.5404233    465.65265  0.025973486  0.025936896            1 
 1495000    1.0067283   -7.5780975    464.05381   0.02586699   0.02593002            1 
 1496000    1.0267372   -7.5944046    463.41185   0.02581394  0.025923004            1 
 1497000    1.0234249   -7.5969747    464.74724  0.025871033  0.025916166            1 
 1498000    1.0252709   -7.5868618    463.69287  0.025795108  0.025909272            2 
 1499000    1.0162774   -7.6060422    464.88862  0.025844375  0.025902255            3 
 1500000    1.0013151   -7.5865537    464.57947  0.025809971  0.025895262            2 
 1501000    1.0146757   -7.6042644     465.1295  0.025823312  0.025888295            1 
 1502000    1.0247421   -7.5606869    466.39453  0.025876306  0.025881452            2 
 1503000    1.0085217   -7.6189956    464.89013  0.025775678   0.02587449            2 
 1504000    1.0121214   -7.6159089     466.0715  0.025823997  0.025867485            1 
 1505000    1.0043236   -7.5872663    466.09697  0.025808249   0.02586052            2 
 1506000    1.0157387   -7.5939094    465.72093  0.025770304  0.025853428            2 
 1507000    1.0226722   -7.5896133    466.35341  0.025788178  0.025846402            1 
 1508000    1.0006862   -7.6108335    466.38352  0.025772741  0.025839387            1 
 1509000    1.0045705   -7.6103463     465.7618  0.025721328  0.025832401            4 
 1510000     1.023211   -7.5948584     467.0136  0.025773378    0.0258254            3 
 1511000    1.0145114   -7.6413652    465.15223  0.025653663  0.025818386            2 
 1512000    1.0066636   -7.5760505    467.84498  0.025785107  0.025811456            2 
 1513000    1.0016042   -7.5959189    467.92329  0.025772378  0.025804499            2 
 1514000    1.0166254   -7.5070367     468.3888  0.025780977  0.025797599            1 
 1515000    1.0115002   -7.5759968    468.63154  0.025777313   0.02579071            3 
 1516000    1.0088114   -7.5641991    469.36365  0.025800552  0.025783794            1 
 1517000    1.0138774   -7.5883734    467.71023  0.025692718  0.025776855            2 
 1518000   0.99559795   -7.5713797    467.82256  0.025681959  0.025769925            2 
 1519000   0.99979533   -7.5763695    468.42052  0.025697856  0.025762961            1 
 1520000   0.98764346   -7.5521169    469.47765  0.025738906  0.025756121            1 
 1521000    1.0170403   -7.5610498    470.34355  0.025769425  0.025749442            1 
 1522000    1.0143229   -7.6013933    468.68235  0.025661539  0.025742651            1 
 1523000   0.99303159   -7.5962678    470.61637  0.025750513  0.025735849            2 
 1524000    1.0114378   -7.5301436    472.10454   0.02581499  0.025729215            1 
 1525000    1.0376344   -7.5814071    472.12258  0.025799048  0.025722629            2 
 1526000     1.010604   -7.5725477    472.14616   0.02578343  0.025715906            2 
 1527000    0.9982569   -7.5854841    470.72694  0.025689093  0.025709228            2 
 1528000    1.0304153   -7.5585901    472.44137  0.025765782    0.0257025            1 
 1529000     1.022169   -7.6074367    469.90183  0.025610521  0.025695838            1 
 1530000    1.0077367   -7.5845003    473.82503  0.025807463  0.025689167            1 
 1531000   0.99803554   -7.5729084    472.28694  0.025706887  0.025682565            1 
 1532000    1.0031336   -7.5711331    472.84369  0.025720392  0.025675929            2 
 1533000   0.99238352   -7.5694768    472.74337  0.025698161  0.025669292            2 
 1534000    1.0100213   -7.5787956    473.53297  0.025724303  0.025662758            1 
 1535000    1.0041183   -7.5913331    474.06019  0.025736167  0.025656099            2 
 1536000   0.98999778   -7.5653616     474.8665  0.025763157  0.025649562            1 
 1537000    1.0110303   -7.5601814    474.21115  0.025710863  0.025643146            1 
 1538000    1.0141481   -7.5318063    474.72181  0.025721814  0.025636795            2 
 1539000   0.97802434   -7.5819581    474.08655  0.025670704  0.025630481            1 
 1540000    1.0231476   -7.5810913    474.40881  0.025671472  0.025624059            3 
 1541000   0.97268972    -7.586327    474.45433  0.025657275  0.025617602            2 
 1542000   0.98375089   -7.5507735    475.78156  0.025712363  0.025611151            1 
 1543000    1.0112745   -7.5940689    475.11928  0.025659931  0.025604695            1 
 1544000    1.0055635   -7.5641856    475.37753   0.02565725  0.025598019            2 
 1545000    1.0159521   -7.5806158    475.86371  0.025666867  0.025591441            4 
 1546000    1.0007638   -7.5545894    476.09082  0.025662507  0.025584873            3 
 1547000    1.0045777   -7.6128584    475.31435  0.025604091  0.025578432            2 
 1548000   0.99563167   -7.5671133    475.78681  0.025612985  0.025571813            4 
 1549000    1.0216428   -7.6110216    476.22807  0.025620189  0.025565178            3 
 1550000    1.0087352   -7.5482718    476.50741  0.025618678   0.02555871            1 
 1551000    0.9959051   -7.5959157    475.50636  0.025548375  0.025552147            3 
 1552000    1.0333946   -7.6183124    475.99129  0.025557952  0.025545555            4 
 1553000    1.0128236   -7.5919307      476.179  0.025551567  0.025539065            3 
 1554000    1.0092141   -7.5603962    475.83986  0.025516938   0.02553253            3 
 1555000   0.99194968   -7.6222714    476.10252  0.025514604  0.025525812            3 
 1556000    1.0154501   -7.5981455    477.00799  0.025546701  0.025519071            1 
 1557000    1.0015829   -7.5889883    477.62592  0.025563365  0.025512475            2 
 1558000    1.0012147   -7.5907407    477.44468  0.025537264  0.025505817            2 
 1559000    1.0282375   -7.6354127    477.33392  0.025514963  0.025499136            2 
 1560000    1.0161846   -7.5954158    478.10805   0.02553996  0.025492527            2 
 1561000    1.0155046   -7.5858993    476.77826  0.025452609  0.025485906            1 
 1562000   0.99795872   -7.5832177     477.2255  0.025460174  0.025479135            3 
 1563000   0.99182472    -7.614377    477.94571  0.025482283  0.025472457            1 
 1564000    1.0024251   -7.5863481    477.58333  0.025446682  0.025465707            2 
 1565000    1.0095099    -7.623516    478.61717  0.025485472  0.025458977            1 
 1566000    1.0332203    -7.592206    477.56641  0.025413283  0.025452147            1 
 1567000   0.98450923   -7.6026833    477.64023  0.025400991  0.025445442            1 
 1568000   0.99035382   -7.6112993    478.81478  0.025447214   0.02543869            2 
 1569000    1.0026597   -7.5921978     478.2066  0.025398694  0.025431974            2 
 1570000    1.0161698     -7.56982    478.57256   0.02540194  0.025425234            3 
 1571000    1.0106835   -7.6248993    478.68395   0.02539168  0.025418442            2 
 1572000   0.99756586   -7.6180026    478.66908  0.025374739   0.02541166            2 
 1573000   0.99539202   -7.5440108    481.64935  0.025516494   0.02540504            1 
 1574000   0.97660873   -7.5825752    480.86566  0.025458792  0.025398395            1 
 1575000   0.97662674   -7.5934792    480.17601  0.025406138  0.025391609            4 
 1576000   0.99461621   -7.5753585    481.23756  0.025446149  0.025384848            1 
 1577000    1.0151911   -7.6418543    479.45602  0.025335871  0.025378171            1 
 1578000   0.98247717   -7.6492135    480.03741  0.025350518  0.025371403            1 
 1579000   0.99271518   -7.6055279     480.3588  0.025351425  0.025364682            1 
 1580000    1.0157228    -7.606228    481.63148  0.025402504   0.02535802            1 
 1581000    1.0066575     -7.63093    481.19377  0.025363365  0.025351366            3 
 1582000    1.0127777   -7.5839922    482.81359  0.025432658  0.025344758            1 
 1583000    1.0055812   -7.6206019     481.5948  0.025352432  0.025338213            2 
 1584000    1.0160788   -7.5690473    484.02292  0.025464169  0.025331767            2 
 1585000    1.0238404   -7.6105742    482.17844  0.025351127  0.025325264            2 
 1586000   0.98505171   -7.6084459    484.66069  0.025465568  0.025318686            1 
 1587000    1.0246168   -7.6138637    482.96329  0.025360391  0.025312169            2 
 1588000   0.98432792   -7.6157249    483.42409  0.025368602  0.025305672            1 
 1589000   0.99538672   -7.5625597    484.27173  0.025397091  0.025299106            2 
 1590000    1.0002146   -7.5912872    484.91254  0.025414704  0.025292715            2 
 1591000   0.98716356   -7.6069054    484.73955  0.025389668  0.025286228            1 
 1592000    1.0200903   -7.6090174    484.73056  0.025373249  0.025279803            3 
 1593000   0.98913962   -7.6187262    485.25943  0.025384988  0.025273391            3 
 1594000    1.0034127   -7.5939341    484.44848  0.025326667   0.02526693            2 
 1595000    1.0229588   -7.6241862    484.84578  0.025331546  0.025260371            2 
 1596000   0.99494538   -7.5700391    486.58014  0.025406231  0.025253862            3 
 1597000    1.0002036   -7.6032704    485.00559   0.02530816  0.025247384            4 
 1598000    1.0092308   -7.5934604    485.69855   0.02532846  0.025240979            1 
 1599000   0.99397698   -7.6191811    486.04113  0.025330474  0.025234594            2 
 1600000   0.97533594   -7.5886218    486.71019  0.025349489  0.025228197            4 
 1601000   0.97784766   -7.6610496    485.11094  0.025250413  0.025221689            2 
 1602000   0.98224445   -7.5783317    487.03224  0.025334594  0.025215274            3 
 1603000   0.98346016   -7.6241929     485.1887  0.025222952  0.025208922            3 
 1604000    1.0048409   -7.6414408    486.00483  0.025249628  0.025202406            2 
 1605000   0.99655655   -7.6288269    485.77789  0.025222113  0.025195902            3 
 1606000   0.99029019   -7.5957553    487.53681  0.025297676  0.025189376            2 
 1607000   0.97874211   -7.6510142    484.44208  0.025121452  0.025182696            1 
 1608000   0.99626994   -7.6431574    487.32153  0.025255055   0.02517615            1 
 1609000   0.98656084   -7.5840692    488.52905  0.025301898  0.025169755            7 
 1610000    1.0000774   -7.6312936    487.72798  0.025244719  0.025163443            1 
 1611000   0.99711231   -7.6117457    488.32595  0.025259981  0.025157145            1 
 1612000   0.98981145   -7.6232465    489.64992  0.025312754  0.025150879            2 
 1613000    1.0235539   -7.5854023    489.46648  0.025287584   0.02514464            1 
 1614000    1.0078759   -7.6094204    488.85872  0.025240537   0.02513832            2 
 1615000   0.99076163   -7.5982477    488.86223  0.025225089  0.025131974            2 
 1616000    1.0094102   -7.6376279    488.31076  0.025181042  0.025125629            2 
 1617000    1.0035313   -7.6394194    488.76297  0.025188774  0.025119276            1 
 1618000    1.0054235   -7.6256915    487.98284  0.025133026  0.025112876            2 
 1619000    0.9962432   -7.6451198     488.2517  0.025131341  0.025106462            2 
 1620000   0.98742157   -7.6012118    489.09405  0.025159159  0.025100094            2 
 1621000   0.98227409     -7.63707    489.23072  0.025150664  0.025093722            3 
 1622000   0.99764303    -7.621942    490.89192  0.025220506  0.025087303            1 
 1623000    0.9986332   -7.6172324    488.61579  0.025088098   0.02508084            2 
 1624000    1.0033814   -7.6309481    489.19781  0.025102515  0.025074281            2 
 1625000   0.99003348   -7.6042422    489.87675  0.025121884  0.025067753            1 
 1626000   0.98604873   -7.5984891    491.34541  0.025181704  0.025061232            1 
 1627000   0.98806672    -7.609153    491.75045  0.025186973  0.025054868            3 
 1628000    0.9957954   -7.6614778    489.63351   0.02506314  0.025048393            2 
 1629000   0.96932225   -7.6521772    490.64252  0.025099372   0.02504192            2 
 1630000   0.97059983   -7.6291238     490.4269   0.02507295  0.025035341            1 
 1631000   0.98968371   -7.6217836    492.39636  0.025158204  0.025028903            1 
 1632000    1.0027059   -7.6028529    492.84011  0.025165447  0.025022491            1 
 1633000    1.0115717   -7.6676045    491.09002  0.025060728  0.025016086            1 
 1634000    0.9966128   -7.5961827    492.58593  0.025121682  0.025009619            2 
 1635000   0.98148938   -7.6390894    493.48635  0.025152209  0.025003262            3 
 1636000   0.99790924   -7.6250604    492.24317  0.025073511  0.024996917            2 
 1637000   0.98180543   -7.6064323    493.07733  0.025100658  0.024990668            1 
 1638000   0.98035335   -7.5892039    494.83834  0.025174926  0.024984345            1 
 1639000    1.0027873    -7.663942    493.05668  0.025068979  0.024978098            2 
 1640000    1.0128642   -7.6104681    494.17939  0.025110742  0.024971849            5 
 1641000   0.97312866   -7.6087411    495.15616  0.025145042   0.02496549            3 
 1642000    1.0015132   -7.6442052    493.39636  0.025040416  0.024959135            1 
 1643000    0.9979275    -7.638985    493.85328  0.025048351  0.024952801            1 
 1644000   0.97444956   -7.6511757    493.86992  0.025033958  0.024946533            1 
 1645000   0.99150228   -7.6315089    494.65648  0.025058586  0.024940274            1 
 1646000    1.0028136   -7.6396071    492.79539  0.024949139  0.024934028            2 
 1647000   0.98530516   -7.6201875    496.12745  0.025102583  0.024927609            3 
 1648000   0.99234073   -7.6336578    494.83916  0.025022207  0.024921284            4 
 1649000   0.98941905   -7.6373469    494.24196  0.024976853  0.024915022            3 
 1650000   0.97320022   -7.6248836    496.48513  0.025075007  0.024908775            2 
 1651000    1.0082596   -7.6311197    495.29701  0.024999849  0.024902576            5 
 1652000   0.98217677   -7.6432099    495.20923  0.024980288  0.024896311            2 
 1653000   0.99741724    -7.627318    495.39887  0.024974736  0.024890048            1 
 1654000   0.97133165   -7.6390625     495.8431  0.024982018  0.024883803            2 
 1655000   0.98032971   -7.6246374    496.89401  0.025019839   0.02487759            3 
 1656000   0.98088726   -7.6297559    497.47474  0.025033954  0.024871324            1 
 1657000   0.98199808   -7.6355308    497.32796  0.025011464  0.024865108            1 
 1658000   0.97831092   -7.6339401    497.60218  0.025010162  0.024858866            1 
 1659000   0.97864681   -7.6464816    498.19962  0.025025096  0.024852644            3 
 1660000   0.97501401   -7.6489732    497.32595  0.024966162  0.024846426            3 
 1661000    0.9850912   -7.6425642     499.2491  0.025047617  0.024840293            2 
 1662000    0.9822021   -7.6671853    496.73768  0.024906623  0.024834125            1 
 1663000   0.97534509    -7.628464    497.93716  0.024951752  0.024827864            1 
 1664000   0.99131342   -7.6818151    498.18856  0.024949347  0.024821683            1 
 1665000    1.0053276   -7.6410583    497.06212  0.024877984  0.024815405            1 
 1666000   0.97213864   -7.6066445    498.99486  0.024959727  0.024809193            1 
 1667000   0.95292266   -7.6342621    499.20304  0.024955161  0.024803112            2 
 1668000   0.98386506   -7.6376503    499.58993  0.024959529  0.024797074            2 
 1669000   0.99961245   -7.6319979    500.33811  0.024981931  0.024791086            2 
 1670000   0.97035193   -7.6389036    499.26636  0.024913491  0.024784971            2 
 1671000   0.98128387   -7.5955346    500.65603  0.024967885  0.024778857            1 
 1672000   0.98199368   -7.6547842    500.02911  0.024921706  0.024772793            5 
 1673000   0.98661871   -7.6374913    500.31209  0.024920905  0.024766726            1 
 1674000   0.99656181   -7.6588217    499.80255  0.024880652  0.024760603            2 
 1675000   0.99011721   -7.6306529    499.81223   0.02486628  0.024754379            2 
 1676000   0.99540614   -7.6465195    501.67987  0.024944305  0.024748271            2 
 1677000   0.96840304   -7.6317741    500.61403  0.024876467  0.024742079            2 
 1678000    1.0096913   -7.6342966    500.46106  0.024854046  0.024735865            5 
 1679000    0.9653614   -7.6678934    499.31519   0.02478237  0.024729571            3 
 1680000   0.99300691   -7.6460309    499.76867  0.024790113  0.024723387            1 
 1681000   0.98199557   -7.6902222    500.92945   0.02483291  0.024717158            2 
 1682000    0.9927587   -7.6466832     503.3486     0.024938  0.024710944            1 
 1683000   0.97275798   -7.6639671    501.79853  0.024846432  0.024704709            6 
 1684000   0.97520155     -7.66458    501.92949  0.024838158   0.02469842            1 
 1685000    1.0064491   -7.6552596    502.25061  0.024839298  0.024692175            3 
 1686000    1.0107241   -7.6754308    500.73393  0.024749601  0.024685832            1 
 1687000   0.96971169   -7.6332303    503.22963  0.024858211   0.02467956            2 
 1688000    1.0037864   -7.6523518    502.75232  0.024819921  0.024673411            2 
 1689000   0.97945066   -7.6369961    503.00555   0.02481772  0.024667304            2 
 1690000   0.98341363   -7.6598828    503.30735  0.024817917  0.024661161            2 
 1691000   0.96794192   -7.6395815    503.46239  0.024810881  0.024655047            2 
 1692000   0.98181066   -7.6433017    504.57848  0.024851186  0.024648965            1 
 1693000   0.96603343   -7.6560091    503.91361  0.024803781  0.024642743            1 
 1694000    1.0116777   -7.6546598    503.41112   0.02476442  0.024636496            3 
 1695000   0.97717021   -7.6651515    506.68335  0.024910686  0.024630395            4 
 1696000   0.96789462    -7.621863    505.19489  0.024822862  0.024624422            1 
 1697000   0.96937203   -7.6301281    505.73398  0.024834707  0.024618389            2 
 1698000    0.9630846   -7.6500626    505.45072   0.02480618  0.024612334            1 
 1699000   0.99314155   -7.6998557    504.57889  0.024748818  0.024606304            1 
 1700000   0.98062957   -7.6618095    505.99086  0.024803474  0.024600308            2 
 1701000   0.96820711    -7.622053    506.82159   0.02482959  0.024594371            2 
 1702000   0.98338115   -7.6741459    505.57979    0.0247542  0.024588459            2 
 1703000   0.98386096   -7.6743337    506.58391    0.0247888  0.024582507            4 
 1704000   0.99689607   -7.6494514    507.94218  0.024840678  0.024576558            1 
 1705000   0.95969184   -7.6724329    506.77207  0.024768918  0.024570641            6 
 1706000   0.95556252   -7.6236531    508.06576  0.024817593   0.02456472            3 
 1707000    0.9748729    -7.638509    507.45973  0.024773468  0.024558886            1 
 1708000     1.006063   -7.6238116    507.67047  0.024769246  0.024552959            3 
 1709000   0.99365158   -7.6286815    508.85313  0.024812421  0.024546944            2 
 1710000   0.98981684   -7.6732565    507.27944   0.02472122  0.024540922            2 
 1711000   0.97507696   -7.6841499    506.47451  0.024667568  0.024534766            1 
 1712000   0.96333072   -7.7029543    507.13176  0.024685152  0.024528648            1 
 1713000   0.95497161   -7.6970823    507.62493  0.024694733  0.024522534            2 
 1714000   0.99575603   -7.5991834    510.53129   0.02482163  0.024516513            3 
 1715000    1.0015237   -7.6282129    509.82832  0.024772999  0.024510525            2 
 1716000    0.9765457   -7.6539878    508.43318  0.024690811   0.02450459            2 
 1717000   0.97627122   -7.6708515    510.14096  0.024759317  0.024498644            4 
 1718000   0.99907572    -7.685774     507.7827  0.024630515  0.024492598            1 
 1719000   0.98588304   -7.6604798    510.10066  0.024728556   0.02448649            2 
 1720000    0.9567134   -7.6865545    508.31498  0.024627664  0.024480432            2 
 1721000   0.96816935   -7.6388008    509.46503  0.024669041  0.024474359            2 
 1722000   0.98208519   -7.6526383    510.28647  0.024694467  0.024468433            2 
 1723000    0.9878054   -7.6525817    510.58433  0.024694541  0.024462438            3 
 1724000   0.98285145   -7.6231805    510.55971  0.024679027  0.024456383            1 
 1725000   0.96301854   -7.7145234    506.84595  0.024485311  0.024450252            1 
 1726000   0.94765205   -7.6751334    508.88613  0.024569628     0.024444            1 
 1727000   0.96003828    -7.652893    508.51375  0.024537432    0.0244378            3 
 1728000   0.98083477   -7.6479675    510.16301  0.024602769   0.02443163            2 
 1729000   0.99799374   -7.6770366    509.61308  0.024562034  0.024425421            3 
 1730000    0.9742614   -7.6408405    511.31345  0.024629742  0.024419158            1 
 1731000   0.95961207   -7.6370816    510.20721  0.024562258  0.024412955            3 
 1732000   0.95305315   -7.6605505    509.66081  0.024521787  0.024406691            4 
 1733000   0.98472207    -7.692989    510.33804  0.024540202  0.024400554            1 
 1734000   0.97838082   -7.6222323    511.47739  0.024580805  0.024394406            1 
 1735000   0.97804784   -7.6872154    509.91106  0.024491405  0.024388136            2 
 1736000   0.95718373   -7.6613249     510.1836   0.02449038  0.024381906            3 
 1737000   0.96903573   -7.6332183    511.69296  0.024548693  0.024375706            3 
 1738000   0.97302467   -7.6728424    509.76966   0.02444235  0.024369495            1 
 1739000   0.96356728   -7.6875452    510.98558  0.024486562  0.024363213            1 
 1740000   0.96575172   -7.6239326    511.33497  0.024489223  0.024356905            1 
 1741000    0.9792151   -7.6599129    512.44607   0.02452834  0.024350654            1 
 1742000   0.97639018    -7.693309    511.68828  0.024478008  0.024344384            2 
 1743000   0.98183733   -7.6545646    511.96274  0.024477086  0.024338166            3 
 1744000   0.98180527      -7.6869    510.49088  0.024392722  0.024331772            3 
 1745000   0.95789555   -7.6897578    511.10983  0.024408301  0.024325347            2 
 1746000    1.0043475    -7.679815    511.55815  0.024415719  0.024318918            2 
 1747000   0.95965372   -7.6906112    510.60762  0.024356403  0.024312471            1 
 1748000   0.98164143   -7.6450053    511.84469  0.024401444  0.024306026            2 
 1749000   0.98986068   -7.6423829    512.70797  0.024428624  0.024299717            1 
 1750000   0.97548305   -7.6475875    513.15316  0.024435865   0.02429333            1 
 1751000   0.97760519   -7.6464564    513.34311   0.02443095  0.024287079            1 
 1752000   0.98259934   -7.6714255    511.68804  0.024338282  0.024280767            3 
 1753000    0.9495262   -7.6788563     512.7053  0.024372756  0.024274429            1 
 1754000   0.98524765   -7.6606818    513.34955  0.024389469  0.024268138            1 
 1755000   0.98669599   -7.6567766    514.26731   0.02441915  0.024261947            1 
 1756000   0.96214984   -7.6559001    514.15343   0.02439984  0.024255767            2 
 1757000   0.99604556   -7.6815822    514.11906  0.024384323  0.024249654            1 
 1758000   0.96449802    -7.663982    512.80498  0.024308162  0.024243455            3 
 1759000   0.97291593   -7.6515201    514.19759  0.024360318   0.02423733            1 
 1760000   0.98697914   -7.7028754    513.66839   0.02432142  0.024231112            1 
 1761000   0.97514469   -7.6661318    515.87663  0.024412106  0.024224818            2 
 1762000   0.97393581   -7.6611846    514.97866  0.024355782  0.024218623            1 
 1763000   0.93962139   -7.6464434    514.04456  0.024297815  0.024212376            3 
 1764000   0.96071945   -7.6723177    515.25013  0.024340992  0.024206236            2 
 1765000   0.97240919   -7.7070451    513.45467   0.02424243  0.024199932            2 
 1766000   0.96271405   -7.7012429    514.42843  0.024274652   0.02419345            1 
 1767000   0.96538274   -7.7216889    512.86592  0.024187225  0.024186973            4 
 1768000   0.96331037   -7.6917088    514.73612  0.024261695  0.024180559            1 
 1769000   0.94761872   -7.7005848    514.60487  0.024241797  0.024174168            2 
 1770000   0.97563618   -7.7059372    514.42333  0.024219554  0.024167749            2 
 1771000   0.95834668   -7.7077723    513.25115  0.024150722  0.024161233            2 
 1772000   0.97941693    -7.690971    514.17468  0.024180525  0.024154709            1 
 1773000   0.96380242   -7.6813805    514.81166  0.024196826  0.024148233            1 
 1774000   0.95849997   -7.6848611    515.32603  0.024207348  0.024141782            2 
 1775000   0.97360012   -7.6811515    514.87577  0.024172571   0.02413532            2 
 1776000   0.94912945   -7.6570758    517.04432  0.024260713  0.024128911            2 
 1777000   0.95896845   -7.6987019    516.30607   0.02421244  0.024122554            4 
 1778000   0.96111397   -7.7289407    514.83356  0.024129807  0.024116108            2 
 1779000   0.98493956    -7.717347    515.88428  0.024165462  0.024109661            2 
 1780000   0.99796175   -7.6669169     517.7885  0.024241035  0.024103296            2 
 1781000   0.96352502   -7.6587884    516.58565  0.024171142  0.024096979            2 
 1782000   0.96733083   -7.6548257    517.70141  0.024209755  0.024090654            3 
 1783000   0.95484517   -7.6600367     517.4988  0.024186708  0.024084318            1 
 1784000   0.97978014   -7.7414764    516.23167  0.024113961  0.024077987            5 
 1785000   0.94544795   -7.6767692    517.04121  0.024138245  0.024071496            2 
 1786000   0.98131503   -7.7060424    516.00677  0.024076464  0.024065007            2 
 1787000   0.95915791   -7.7172349    517.00972  0.024109761  0.024058493            2 
 1788000   0.94831225   -7.6929176    518.42703  0.024162334  0.024052054            2 
 1789000    0.9653478   -7.6879283    517.47985  0.024104707  0.024045661            2 
 1790000   0.96810672   -7.6820445    519.37095  0.024179281  0.024039303            2 
 1791000   0.97037228   -7.6832579     518.6658  0.024132971  0.024032879            3 
 1792000   0.99337289   -7.6752198    519.01993  0.024135971  0.024026416            1 
 1793000   0.97654729   -7.6888378    517.96138  0.024073312  0.024020049            2 
 1794000   0.97501513   -7.7152936    519.56011  0.024134156  0.024013746            2 
 1795000   0.98315677   -7.6727907    518.35944   0.02406497  0.024007309            2 
 1796000   0.96576857    -7.655878    519.85688  0.024121051   0.02400093            2 
 1797000   0.97901254    -7.665667    517.76888    0.0240108  0.023994428            3 
 1798000   0.97542358   -7.7063315    519.23706  0.024065492  0.023987912            2 
 1799000   0.96915158   -7.6902656    518.41975  0.024014256  0.023981386            1 
 1800000    0.9494077   -7.6910379    518.82708  0.024019772  0.023974735            7 
 1801000   0.95635156   -7.7106957    516.30847  0.023889898  0.023968125            1 
 1802000    0.9642659   -7.7059987    518.06345  0.023957799  0.023961444            2 
 1803000   0.96936963   -7.7022355     516.9698  0.023893964  0.023954746            2 
 1804000   0.94337059   -7.7369777    517.97982  0.023927375  0.023947993            2 
 1805000   0.96405994   -7.7357104    517.24394  0.023880145  0.023941216            4 
 1806000   0.95832233    -7.742621    518.21388  0.023911678  0.023934482            2 
 1807000   0.96390629   -7.7185992    517.83387   0.02388092  0.023927728            5 
 1808000    0.9710104   -7.7117802    519.17527  0.023929539  0.023921001            1 
 1809000   0.97223424    -7.695837    519.73101  0.023941911  0.023914301            3 
 1810000   0.95999449   -7.6566904    518.86962  0.023889025  0.023907612            1 
 1811000   0.95672548   -7.6741489    520.01833  0.023928692  0.023901027            1 
 1812000   0.96653545   -7.6704569    520.49897  0.023937591  0.023894436            1 
 1813000   0.95813913   -7.6843815     519.5908  0.023882644  0.023887857            1 
 1814000   0.93733344   -7.7058429    518.74397  0.023830576  0.023881211            1 
 1815000    0.9537427   -7.6742641    520.11282  0.023880295  0.023874621            2 
 1816000   0.95537603   -7.7066079    520.53563  0.023886547  0.023867975            2 
 1817000   0.96694176   -7.7305124     518.7213   0.02379019  0.023861356            2 
 1818000   0.94214053   -7.6616251    520.87571  0.023875858  0.023854765            1 
 1819000   0.93671991   -7.7046514    520.63106  0.023851524  0.023848154            2 
 1820000   0.97086732     -7.71325    521.63941  0.023884588  0.023841545            2 
 1821000   0.96591879   -7.6946878    522.24218  0.023899056  0.023834928            3 
 1822000   0.97855805   -7.7018321    521.43046  0.023848814  0.023828366            2 
 1823000   0.96219855   -7.6999016    521.77103    0.0238513  0.023821771            1 
 1824000    0.9454458   -7.6626232    522.04944  0.023850943   0.02381515            3 
 1825000   0.95187006    -7.710345    521.52491  0.023813923   0.02380855            4 
 1826000   0.97907419   -7.7026733    520.74386  0.023765236  0.023801969            1 
 1827000   0.95473923   -7.6477615    521.95952  0.023807678  0.023795286            1 
 1828000    0.9573658   -7.7338294    521.29996  0.023764586  0.023788686            1 
 1829000   0.96838218   -7.7084179    521.23935  0.023748831  0.023782077            1 
 1830000   0.97736123   -7.7182855    521.61327  0.023752881  0.023775447            1 
 1831000    0.9650619   -7.7229032    520.93867  0.023709206  0.023768784            1 
 1832000   0.95232137   -7.7035325     521.3909  0.023716835  0.023762008            2 
 1833000   0.95453551    -7.741129    522.03411  0.023733138  0.023755283            3 
 1834000   0.96133268    -7.713316    522.34068  0.023734128  0.023748487            2 
 1835000   0.94776234   -7.7162629    522.47547  0.023727315  0.023741721            2 
 1836000   0.96614766   -7.7260584    523.59692  0.023765292  0.023735016            3 
 1837000   0.93913739   -7.6823347    523.98323   0.02376988  0.023728364            2 
 1838000    0.9521818   -7.7168547     522.9757  0.023711267  0.023721743            3 
 1839000   0.93774019   -7.7036146    524.32892  0.023759694  0.023715195            1 
 1840000   0.95255993   -7.7110924    524.48207  0.023753717  0.023708661            2 
 1841000     0.942907   -7.7045393    523.55135  0.023698685  0.023702119            3 
 1842000   0.96158805   -7.7153012     523.3199  0.023675348   0.02369556            1 
 1843000   0.97589273   -7.7267689    524.55028  0.023718135  0.023688969            2 
 1844000   0.95100574   -7.7142308    522.72759  0.023622903  0.023682352            1 
 1845000   0.96373902   -7.6908955    524.54986  0.023692406  0.023675743            2 
 1846000   0.92952121   -7.7151669    524.70193  0.023686436  0.023669072            1 
 1847000   0.95444447   -7.6981453    524.10738  0.023646787  0.023662476            6 
 1848000   0.97822548   -7.6943225     525.0288  0.023675541  0.023655834            1 
 1849000   0.93122167    -7.679039    525.06506  0.023664371  0.023649218            3 
 1850000   0.93266613   -7.7143678    525.00683  0.023648956  0.023642568            5 
 1851000   0.96307838    -7.678923    525.48567  0.023657738  0.023635874            3 
 1852000   0.95822799   -7.7301114    525.23544  0.023633704  0.023629254            1 
 1853000   0.96755585   -7.7186442    526.31222  0.023669375  0.023622531            2 
 1854000   0.95007888   -7.7442308    523.78626  0.023543072  0.023615863            3 
 1855000   0.95354527   -7.6924412    525.06193  0.023587688  0.023609181            4 
 1856000   0.95369463   -7.7251302    525.29523  0.023585454  0.023602461            2 
 1857000   0.98005638   -7.7082995    525.50002  0.023581943  0.023595778            2 
 1858000   0.95052084   -7.7262963    525.99556  0.023591476  0.023589109            4 
 1859000   0.96568559   -7.7229422    526.28618  0.023591814  0.023582477            3 
 1860000   0.93892997   -7.6879494    526.60957  0.023593619  0.023575897            3 
 1861000   0.95517992   -7.6792096    528.14539  0.023649713  0.023569348            3 
 1862000   0.94421304   -7.6483384    527.87276   0.02362481  0.023562908            2 
 1863000   0.96448909   -7.6786431      528.673  0.023647925  0.023556442            2 
 1864000    0.9690217   -7.7353956     527.0611  0.023563175  0.023549907            2 
 1865000   0.95086448   -7.7372323    527.28103  0.023560368  0.023543323            2 
 1866000   0.99316815   -7.6657242    528.96517  0.023622953  0.023536756            3 
 1867000    0.9559264   -7.7155535    526.98076  0.023521727  0.023530253            2 
 1868000   0.95679558   -7.7281511     528.5334    0.0235784  0.023523639            2 
 1869000   0.96097276   -7.6974461    527.88244  0.023536759  0.023517167            1 
 1870000   0.93506026   -7.6939425    528.71903  0.023561454  0.023510664            1 
 1871000   0.92701377   -7.7089164    527.81069  0.023508404  0.023504181            2 
 1872000   0.95306003   -7.7133282    528.18804  0.023512644  0.023497732            2 
 1873000   0.95773503   -7.7292534    528.65144  0.023520708  0.023491267            2 
 1874000   0.93893829   -7.7250416    530.35033  0.023583704  0.023484775            2 
 1875000    0.9411684   -7.7553621    529.95312  0.023553472  0.023478297            5 
 1876000    0.9501303   -7.7234261    529.01516  0.023499252  0.023471764            2 
 1877000   0.95722434     -7.71361    529.80551  0.023521822   0.02346519            3 
 1878000   0.93818437   -7.7118743    529.33095  0.023488239  0.023458629            1 
 1879000   0.95915929   -7.7046036    529.01883  0.023461896  0.023452043            1 
 1880000   0.98288182   -7.7266946    531.08985  0.023541217  0.023445561            5 
 1881000   0.94926926   -7.7445267    530.14328  0.023486766   0.02343905            3 
 1882000   0.93615604   -7.7406514    528.45736  0.023399635  0.023432393            2 
 1883000   0.95932254   -7.7153955    529.67185  0.023440956  0.023425786            1 
 1884000   0.94702129   -7.7488236    530.78308  0.023477666  0.023419233            1 
 1885000   0.94934119   -7.7090903    530.51776  0.023453482  0.023412712            2 
 1886000   0.96011159   -7.7000292    530.14776  0.023424698  0.023406254            1 
 1887000   0.96119647   -7.7068432    532.20179  0.023502994  0.023399891            5 
 1888000   0.94041562   -7.7279186    532.22363  0.023491509  0.023393462            2 
 1889000   0.93281617   -7.7458641    533.49248  0.023535049  0.023387046            1 
 1890000   0.95481314    -7.749874    531.61038  0.023439611  0.023380709            2 
 1891000   0.95979703   -7.7034479    533.61367  0.023515497  0.023374369            1 
 1892000   0.95859981   -7.7281709    532.60675  0.023458719   0.02336806            1 
 1893000   0.94622557   -7.7182081    533.59922  0.023490017  0.023361788            6 
 1894000   0.96628245   -7.7160398    533.81976  0.023487318  0.023355632            2 
 1895000    0.9603089   -7.7558797    534.15295  0.023489576   0.02334937            2 
 1896000   0.92593263   -7.7748385    531.13303  0.023344455  0.023343062            1 
 1897000   0.94370194   -7.7242995    534.41598  0.023476365  0.023336787            1 
 1898000   0.94002397    -7.692949    534.63167  0.023473466  0.023330471            1 
 1899000   0.96050833   -7.6981957    535.56752  0.023502173  0.023324239            9 
 1900000   0.94981806   -7.7323515    533.82201  0.023413246  0.023318058            3 
 1901000    0.9729404   -7.7680142    533.00709  0.023365206    0.0233117            2 
 1902000   0.96636343   -7.7537893    533.44953  0.023372307  0.023305362            3 
 1903000   0.94359819   -7.7580603    534.10884  0.023388896  0.023299026            2 
 1904000    0.9472062    -7.746455    535.39137  0.023432746  0.023292712            1 
 1905000   0.93478765   -7.7572507     535.2541   0.02341444  0.023286399            1 
 1906000   0.93649161   -7.7398703    534.81162  0.023382809  0.023280103            2 
 1907000   0.96828102    -7.742578    536.10305  0.023426982  0.023273811            1 
 1908000   0.94446771    -7.741664    534.79481  0.023357565  0.023267523            1 
 1909000   0.93881149   -7.6793875    535.16877  0.023361654  0.023261279            3 
 1910000   0.91523419   -7.7204689    535.44287  0.023361382  0.023254955            2 
 1911000   0.94999156   -7.7293872    537.54706  0.023440915  0.023248697            2 
 1912000   0.95434034   -7.7270723    536.48971  0.023382571  0.023242414            1 
 1913000   0.93284409   -7.7292536    535.72943  0.023337229  0.023236145            2 
 1914000   0.94969588   -7.7235816    537.47853   0.02340119  0.023229933            1 
 1915000    0.9561797   -7.7489467    535.92791  0.023321493  0.023223666            3 
 1916000   0.94034438   -7.7022753    537.89981  0.023395086  0.023217415            2 
 1917000   0.94451373   -7.7652232    537.86429  0.023381338  0.023211191            2 
 1918000   0.95834783   -7.7504887    536.57977  0.023313337  0.023204901            2 
 1919000   0.93534246   -7.7333479    537.87316  0.023357354  0.023198582            2 
 1920000   0.92994325   -7.7534257    537.30432    0.0233205  0.023192313            2 
 1921000   0.92417313   -7.7526799     537.3758  0.023311461  0.023186012            1 
 1922000   0.94754384   -7.7273557    537.90767  0.023322393   0.02317967            2 
 1923000   0.92283947   -7.7264396    536.78482  0.023261606  0.023173341            2 
 1924000   0.97413781   -7.7340758    537.56143  0.023283153  0.023166975            1 
 1925000   0.92693107   -7.7454611    536.34539  0.023218415  0.023160509            1 
 1926000   0.93328365   -7.7319976     538.2116  0.023287106  0.023154083            2 
 1927000   0.93031401    -7.749859    537.47966  0.023243369  0.023147694            1 
 1928000   0.93298737   -7.7422958    537.37097  0.023226615  0.023141357            3 
 1929000   0.94136103   -7.7194009    536.87962  0.023193348  0.023134898            2 
 1930000   0.92821257   -7.7737177    536.64797  0.023171329  0.023128464            2 
 1931000    0.9574557   -7.7255714    537.38884  0.023191301  0.023121996            4 
 1932000   0.93386664   -7.8047536    536.24748  0.023130067  0.023115621            1 
 1933000   0.93306789   -7.7554192    537.65926  0.023178965  0.023109229            1 
 1934000   0.92951744    -7.746695    537.73482  0.023170235  0.023102843            2 
 1935000   0.97822048   -7.7614276    537.11401  0.023131525  0.023096437            2 
 1936000   0.92575325    -7.740642    538.25167  0.023168546  0.023089994            2 
 1937000   0.91732505   -7.7635343    538.99033  0.023188364  0.023083516            3 
 1938000    0.9250409   -7.7641963    537.49287  0.023112009  0.023077072            1 
 1939000   0.94278206   -7.7780493    538.59968  0.023147657  0.023070652            4 
 1940000   0.93410641   -7.7400427     538.5272  0.023132612  0.023064197            3 
 1941000   0.93481155   -7.7750693    537.05478  0.023057478  0.023057729            1 
 1942000   0.93303722   -7.7559808    537.80857  0.023077951  0.023051204            2 
 1943000   0.92980401   -7.7447829    538.88567  0.023112269  0.023044716            1 
 1944000   0.93925762   -7.7601547    537.99219  0.023062079  0.023038248            2 
 1945000   0.93823974   -7.7294024    539.29191  0.023105909  0.023031804            1 
 1946000   0.93391287   -7.7562093     538.7115   0.02306918  0.023025389            1 
 1947000   0.94192553   -7.7531181    540.96808  0.023153915  0.023018979            2 
 1948000   0.94856473   -7.7324624    540.82099  0.023135737   0.02301255            3 
 1949000   0.94601161   -7.7192905     540.5683  0.023113062  0.023006123            3 
 1950000   0.91429336   -7.7463842    539.03877  0.023035845  0.022999754            1 
 1951000   0.96048435   -7.7347166    541.63665  0.023135001  0.022993391            4 
 1952000   0.94831242   -7.8005386    538.88966  0.023005877   0.02298696            5 
 1953000   0.93703719   -7.7388789    542.18453  0.023134687  0.022980563            3 
 1954000   0.94081019   -7.7387957    541.07013  0.023075321  0.022974223            3 
 1955000   0.94661047    -7.733738    540.67589  0.023046713  0.022967922            2 
 1956000   0.92495807    -7.748032    540.69587  0.023035782  0.022961595            3 
 1957000   0.91925365   -7.7797649    541.07854  0.023040306  0.022955142            1 
 1958000   0.93932354   -7.7577547    539.80618  0.022974386  0.022948748            1 
 1959000   0.94451453   -7.7419915    541.56498  0.023037476  0.022942382            2 
 1960000   0.93739255   -7.7508135    541.81446  0.023036329  0.022935982            4 
 1961000   0.95701794   -7.7513611    541.18062  0.022997647  0.022929562            1 
 1962000   0.95454385   -7.7101855    542.58479  0.023045565  0.022923202            2 
 1963000   0.94224049   -7.7577484    540.51926  0.022946139  0.022916837            1 
 1964000    0.9074847   -7.7451909    541.73659  0.022986108   0.02291043            4 
 1965000   0.94472249   -7.7520391     543.5744   0.02305235  0.022904047            3 
 1966000   0.94887504   -7.7496129    542.19409  0.022982116  0.022897714            1 
 1967000   0.91289841   -7.7505255    543.21369  0.023013628  0.022891426            1 
 1968000   0.92681583   -7.7247143    543.22193  0.023002284  0.022885125            1 
 1969000   0.94081936   -7.7331187       544.56  0.023047232  0.022878909            3 
 1970000   0.95233641   -7.7345882    543.28035  0.022981402  0.022872666            2 
 1971000   0.96359186   -7.7724567    543.52933  0.022980269  0.022866463            2 
 1972000   0.93154619   -7.7348458    544.88933  0.023026087  0.022860209            2 
 1973000   0.92564624   -7.7671693    544.85492  0.023012963  0.022853993            2 
 1974000   0.92806398   -7.7499812    545.71169  0.023037474  0.022847807            2 
 1975000   0.92804098   -7.7420992    543.50738  0.022932801  0.022841579            1 
 1976000    0.9388057   -7.7599712    545.70915   0.02301405  0.022835381            4 
 1977000    0.9285867   -7.7852291    544.00558  0.022930601  0.022829125            4 
 1978000   0.90893783   -7.7697808    545.45578  0.022980105  0.022822806            1 
 1979000    0.9294892   -7.7438491    544.68859  0.022936188  0.022816499            3 
 1980000   0.93272287   -7.7785127    543.43057  0.022871657  0.022810142            2 
 1981000   0.94341343   -7.7850085    543.61433  0.022867842  0.022803768            1 
 1982000    0.9250764   -7.7778874    544.90477   0.02291056  0.022797454            2 
 1983000   0.91633508   -7.7823709    544.38653  0.022877229  0.022791155            3 
 1984000   0.93938708   -7.7519864    545.81187  0.022925566   0.02278487            1 
 1985000   0.91153923   -7.7749563    545.13135  0.022885447  0.022778576            2 
 1986000   0.94330955   -7.7820647    545.05821  0.022870855  0.022772291            2 
 1987000   0.92768896   -7.7795692    545.20305  0.022865419  0.022765973            2 
 1988000   0.94078767   -7.8076868    544.20417  0.022812046  0.022759584            1 
 1989000   0.93908739   -7.7366486    545.87122  0.022870422  0.022753262            2 
 1990000   0.92427657   -7.7700738    545.60533  0.022847794  0.022746938            2 
 1991000   0.93779116   -7.7891723    545.92988  0.022849903   0.02274066            2 
 1992000   0.93056479   -7.7639884    546.01619  0.022842043  0.022734381            3 
 1993000   0.92337744   -7.7855722    547.66944  0.022899709  0.022728119            3 
 1994000   0.92236866   -7.8246472    547.06531  0.022862977  0.022721784            3 
 1995000   0.93327728   -7.7785893    547.34812   0.02286333  0.022715514            3 
 1996000   0.95238903   -7.8032643    547.17039  0.022844455  0.022709353            1 
 1997000   0.93166345   -7.7736984    547.94898  0.022865506  0.022703108            3 
 1998000   0.91216282   -7.7630526    548.52387  0.022878039  0.022696905            2 
 1999000   0.93725933   -7.7367813    547.96495  0.022843295  0.022690733            1 
 2000000   0.94301017   -7.7757746      547.904  0.022829333  0.022684524            2 
 2001000   0.92539557   -7.7884851    546.99388  0.022780022  0.022678305            3 
 2002000   0.93435984   -7.8034309    546.92752  0.022765881  0.022672044            2 
 2003000   0.92427877   -7.7797859    547.57451  0.022781432  0.022665728            1 
 2004000   0.93922171    -7.796513    548.39218  0.022804066  0.022659467            2 
 2005000   0.93347428   -7.7986898    548.72307  0.022806445  0.022653209            1 
 2006000   0.92004555   -7.7785028    548.38191  0.022780904  0.022646988            2 
 2007000   0.92672835   -7.7649234    548.62489  0.022779642   0.02264075            3 
 2008000   0.94398483   -7.7696968    549.53477  0.022806058  0.022634483            1 
 2009000   0.93357701    -7.790985    548.27382  0.022742401  0.022628236            1 
 2010000   0.91156768   -7.7992036    549.36072  0.022776149  0.022621999            3 
 2011000    0.9558187   -7.7810872    548.07511  0.022711549  0.022615731            1 
 2012000   0.95524323   -7.8259401     548.7652  0.022728844  0.022609484            2 
 2013000    0.9172456   -7.7937974    548.16868  0.022692858  0.022603216            4 
 2014000   0.93228867   -7.7863673    549.35541  0.022730694  0.022597024            1 
 2015000   0.92123144   -7.7703806    549.57394  0.022728451  0.022590809            1 
 2016000   0.92893886   -7.8179501    548.85773  0.022687572  0.022584553            2 
 2017000   0.94345478   -7.7633349    550.39252  0.022739734  0.022578341            2 
 2018000   0.93804518    -7.783419    550.98162  0.022752792  0.022572169            4 
 2019000   0.91467617   -7.7777372    550.98012  0.022741461  0.022565956            2 
 2020000   0.93617401   -7.7730264    550.85776  0.022725155  0.022559775            3 
 2021000   0.94546136   -7.7454068    551.29555  0.022731962  0.022553573            3 
 2022000   0.91872835   -7.7639125    549.45942  0.022645047  0.022547369            2 
 2023000   0.91717688   -7.7948187    551.20794   0.02270588  0.022541189            2 
 2024000   0.91185782   -7.7982136      550.118  0.022649786  0.022534928            2 
 2025000   0.92569632   -7.8407047    550.33615  0.022647578  0.022528666            1 
 2026000   0.92605218    -7.757281    550.10756  0.022626997  0.022522427            4 
 2027000    0.9237623    -7.772809    550.95136  0.022650525  0.022516298            1 
 2028000   0.92687891   -7.8053161    550.96524  0.022639926  0.022510091            3 
 2029000   0.93705843   -7.7909555     551.4096  0.022647018  0.022503885            2 
 2030000    0.9126825     -7.75241    551.67252  0.022646655  0.022497726            2 
 2031000   0.93043087   -7.7283075    551.60028  0.022632541  0.022491597            2 
 2032000   0.92554363   -7.7957607    551.23187  0.022606294  0.022485426            3 
 2033000   0.93303847   -7.8018434    551.09332  0.022589495  0.022479175            3 
 2034000   0.93186125   -7.7696539    553.49915  0.022676956  0.022472898            1 
 2035000   0.94662595   -7.7624171    552.31614  0.022617369  0.022466682            1 
 2036000   0.92993874   -7.8241034     551.4181  0.022569503   0.02246047            2 
 2037000   0.91896714   -7.7916382    553.83442  0.022657275  0.022454234            2 
 2038000   0.91855996   -7.7868308    552.48913  0.022591148  0.022448006            2 
 2039000   0.93082222   -7.7883034    551.71156   0.02254829  0.022441765            6 
 2040000   0.92338163   -7.8077113    551.05307  0.022510338  0.022435514            1 
 2041000    0.9381622   -7.7864659    553.50751  0.022599523  0.022429267            2 
 2042000   0.93324554   -7.7516516    554.37308  0.022623779  0.022423111            2 
 2043000    0.9008096    -7.767775    552.69331  0.022544188  0.022416944            1 
 2044000   0.91599025   -7.7987102    552.83382  0.022538887  0.022410789            2 
 2045000   0.93219366   -7.7886615    553.71079  0.022563602   0.02240455            2 
 2046000   0.94769254   -7.8044331    551.15141   0.02244833  0.022398304            1 
 2047000   0.93817767   -7.7510526    554.24608  0.022563348  0.022392123            3 
 2048000   0.90941718   -7.8115392     554.2344  0.022551856  0.022385917            2 
 2049000   0.90934702   -7.7863292    553.17805  0.022497887  0.022379657            2 
 2050000   0.92209843   -7.7929588    554.30563  0.022532749  0.022373443            1 
 2051000   0.95079098   -7.8007586    553.45348   0.02248714  0.022367226            2 
 2052000   0.94245293   -7.7926274    554.38953  0.022514194  0.022360969            2 
 2053000   0.92943517   -7.7811349    552.99913   0.02244679  0.022354645            2 
 2054000   0.93453995   -7.7323239    553.73901   0.02246588   0.02234839            1 
 2055000   0.92409943   -7.8074112    554.15518  0.022471824  0.022342104            2 
 2056000   0.93502103   -7.7934993    553.70049  0.022442465  0.022335861            1 
 2057000   0.91600154   -7.8174436     553.8158  0.022436226  0.022329573            1 
 2058000   0.93070195   -7.8125251    555.07125   0.02247616  0.022323305            2 
 2059000   0.93127913    -7.796842    553.41793   0.02239833  0.022317067            2 
 2060000     0.931002   -7.8152885     555.0454  0.022453293  0.022310751            2 
 2061000   0.95623974   -7.7990961    553.98724  0.022399613  0.022304466            1 
 2062000   0.91928156   -7.8254133    554.28434  0.022400758   0.02229819            2 
 2063000    0.9057422   -7.8337768    554.83183  0.022412014  0.022291902            1 
 2064000   0.91277802   -7.8016206    555.19319  0.022415746  0.022285637            1 
 2065000   0.91108669   -7.8292046    554.52226  0.022377815  0.022279365            2 
 2066000   0.93689438   -7.8007208    555.61918  0.022411229  0.022273025            4 
 2067000   0.90705573   -7.8194381     554.9039  0.022371549  0.022266765            1 
 2068000   0.92672393   -7.7741969    555.90995  0.022401271  0.022260566            1 
 2069000   0.93297922   -7.7873077    556.68025   0.02242147  0.022254388            3 
 2070000   0.91777986   -7.7992535    558.25571  0.022474062   0.02224824            1 
 2071000   0.90050414   -7.7868966    557.13074  0.022417944  0.022242153            2 
 2072000   0.92150109   -7.7998657    557.59498  0.022425796  0.022236019            1 
 2073000   0.93726388   -7.7765529    557.00928  0.022391433  0.022229884            3 
 2074000   0.91889226   -7.7975562    557.63053  0.022405598  0.022223741            2 
 2075000   0.93428821   -7.7985008    555.89715  0.022325187  0.022217567            2 
 2076000   0.91313028   -7.8124995    556.05986  0.022320964  0.022211323            3 
 2077000   0.91979636   -7.7938939    557.29658  0.022359837  0.022205104            2 
 2078000   0.92524274   -7.7778234    556.01948  0.022297862  0.022198871            4 
 2079000   0.91980707   -7.8056023    558.26717  0.022377231  0.022192667            4 
 2080000   0.89640188   -7.7819381    556.39887  0.022291621  0.022186453            2 
 2081000   0.91109707   -7.8534617    556.06704  0.022267621  0.022180165            2 
 2082000   0.89678352   -7.8151209    557.15038  0.022300287  0.022173872            2 
 2083000   0.91940631   -7.8087768    556.65533  0.022269776  0.022167571            4 
 2084000   0.91780389   -7.8267582    556.04985  0.022234879  0.022161255            1 
 2085000   0.92554018   -7.7979652    557.31577  0.022274811   0.02215496            1 
 2086000   0.93356874   -7.8007056    557.56041  0.022273906  0.022148633            1 
 2087000     0.943634   -7.8041562     555.8484  0.022194873  0.022142315            1 
 2088000   0.93243445    -7.811924    557.25623  0.022240431  0.022135965            2 
 2089000   0.89635623   -7.8138286    556.10457  0.022183843  0.022129598            3 
 2090000   0.91790845   -7.7966348    558.75993  0.022279104  0.022123234            3 
 2091000   0.91133845   -7.8165487    557.39777  0.022214163  0.022116866            2 
 2092000   0.90441366   -7.7999953    558.29695  0.022239362  0.022110498            2 
 2093000   0.93224384   -7.7981144    558.85671  0.022251023  0.022104206            3 
 2094000   0.92568622   -7.8147333    556.95913  0.022164881  0.022097881            1 
 2095000   0.91582397   -7.8110132    558.54985  0.022217576  0.022091576            3 
 2096000   0.91762054   -7.8113495    558.21836  0.022193796   0.02208532            6 
 2097000   0.93257098   -7.8126634    559.06615  0.022216903  0.022079001            3 
 2098000   0.90470544     -7.85235    557.91918  0.022160755   0.02207258            4 
 2099000   0.92734269   -7.7864232    558.52573  0.022174279   0.02206619            1 
 2100000   0.94708485   -7.8341386    558.64551  0.022168473   0.02205983            2 
 2101000   0.90126086   -7.8342299    557.75127  0.022122452  0.022053433            2 
 2102000    0.9177311   -7.8403007    557.31896  0.022094789  0.022047051            3 
 2103000    0.9084952   -7.7937192    560.37835  0.022205514  0.022040709            5 
 2104000   0.88450051   -7.8162949    559.16021  0.022146713  0.022034415            2 
 2105000   0.90883649   -7.7964512     560.6114  0.022193642  0.022028158            2 
 2106000   0.90943045   -7.8147323    559.92205  0.022155827  0.022021874            2 
 2107000   0.92594902   -7.8294791    558.85443  0.022103086  0.022015601            2 
 2108000   0.92525918   -7.7921017    559.32537  0.022111218  0.022009338            2 
 2109000   0.92421642    -7.807085    559.56584  0.022110236  0.022003029            4 
 2110000   0.90382589   -7.8055605    559.25876  0.022087629  0.021996758            1 
 2111000   0.91790772   -7.7897592    559.93556  0.022103883  0.021990477            3 
 2112000    0.9180072   -7.7808402     560.3306  0.022109004  0.021984204            1 
 2113000   0.92778482   -7.8032675    560.43748  0.022102756   0.02197789            1 
 2114000   0.92915666   -7.7912165    560.67449  0.022101644  0.021971555            3 
 2115000   0.89675601   -7.7977102    560.20475  0.022072685  0.021965295            3 
 2116000   0.92200222   -7.8072817    561.14001  0.022099087  0.021959019            1 
 2117000   0.95223639   -7.8023443    561.20781  0.022091317  0.021952759            2 
 2118000   0.89373777   -7.8231022    560.33312  0.022046471  0.021946519            1 
 2119000   0.87697328   -7.8114358    562.83636  0.022134512  0.021940237            3 
 2120000   0.90950688    -7.833357    560.32256  0.022025258  0.021934009            3 
 2121000   0.90033659   -7.8426231    560.70119   0.02202975  0.021927761            2 
 2122000   0.90130539   -7.8145386    562.51529   0.02209061  0.021921548            3 
 2123000   0.90674385   -7.8266833    561.13638  0.022026078  0.021915303            3 
 2124000   0.90628212   -7.7853433    562.42793  0.022066381  0.021909032            2 
 2125000   0.88622303   -7.7924057     562.0221  0.022040082  0.021902757            4 
 2126000   0.91101271   -7.8028366    560.48226  0.021969358  0.021896504            3 
 2127000   0.92147566   -7.8347031    561.79406  0.022010424   0.02189014            1 
 2128000   0.94657129   -7.8086397    561.44852  0.021986549  0.021883811            2 
 2129000   0.91114743   -7.8192069    562.43037  0.022014653  0.021877451            1 
 2130000   0.90853128   -7.8373944    560.90624  0.021944689  0.021871112            2 
 2131000   0.91709459   -7.8088139    561.78374  0.021968706  0.021864789            1 
 2132000   0.90014519   -7.8062706    561.19815  0.021935513  0.021858457            2 
 2133000   0.92003869   -7.8446179    560.58954  0.021901451  0.021852108            3 
 2134000   0.91968645   -7.8426655    561.60341   0.02193078  0.021845742            3 
 2135000   0.90766909   -7.8290738    561.94075  0.021933675  0.021839411            1 
 2136000   0.90109744   -7.7934312    562.73615  0.021954438   0.02183311            2 
 2137000   0.90914127   -7.8387694    561.63008  0.021901032  0.021826831            2 
 2138000   0.92193553   -7.8430495    560.67889  0.021853714  0.021820527            3 
 2139000   0.91123439   -7.8228526    563.96349  0.021971462  0.021814299            2 
 2140000    0.9303872   -7.8479407    561.63997  0.021870715  0.021808095            1 
 2141000   0.90558602   -7.8344419    563.43867   0.02193051  0.021801886            1 
 2142000   0.90192566   -7.8022602    564.41377  0.021958207  0.021795692            1 
 2143000    0.9082097   -7.7920185     564.3784  0.021946586  0.021789459            1 
 2144000   0.91632154   -7.8493351     564.0878  0.021925054  0.021783239            2 
 2145000   0.92094336   -7.7854407    564.89111  0.021946041  0.021777109            4 
 2146000   0.91046554   -7.8296893    564.36326  0.021915318  0.021770881            2 
 2147000   0.89261787   -7.8109947    563.64656  0.021877292  0.021764663            4 
 2148000   0.90822594   -7.8472158    564.79203  0.021911547  0.021758506            2 
 2149000   0.92028504   -7.8298308    565.42522  0.021925904  0.021752381            2 
 2150000   0.90127175   -7.8454064     565.2752  0.021909891  0.021746195            4 
 2151000   0.88426699   -7.8723555    563.46358   0.02182952  0.021739935            1 
 2152000   0.91368647   -7.8016597    565.15879  0.021885021  0.021733793            1 
 2153000    0.9271523    -7.824599    563.74836  0.021820265  0.021727604            2 
 2154000   0.90104919   -7.8065606    565.35422  0.021872262  0.021721426            4 
 2155000   0.90981439   -7.8015878    566.52371  0.021907336  0.021715236            2 
 2156000   0.89343462   -7.8462149    565.24968  0.021847931  0.021709009            1 
 2157000   0.90369803   -7.8824411    564.10247  0.021793481  0.021702739            2 
 2158000   0.90870687   -7.8116154     564.1445  0.021785005   0.02169646            1 
 2159000   0.90214583    -7.831158    566.05589  0.021848691  0.021690238            2 
 2160000   0.90325704   -7.8221804    567.42656  0.021891457  0.021684103            2 
 2161000   0.92766428    -7.847501    566.05296  0.021828357  0.021677934            3 
 2162000    0.9251689   -7.8730657    566.59682  0.021839224  0.021671778            2 
 2163000   0.90139844   -7.8474306    565.83447  0.021799756  0.021665594            1 
 2164000   0.88809574   -7.8463114    566.64413  0.021820862  0.021659422            5 
 2165000   0.89096131   -7.8136684    567.02514  0.021825448  0.021653245            2 
 2166000   0.89829371   -7.8923777    565.73234  0.021765633  0.021647028            2 
 2167000   0.91400764   -7.8442695    565.39957  0.021742792  0.021640815            2 
 2168000   0.89725214   -7.8089869    567.18518  0.021801398   0.02163463            2 
 2169000   0.90369149   -7.8208059    566.67502  0.021771747  0.021628448            4 
 2170000   0.89248571   -7.8664522    568.03119  0.021813794  0.021622256            2 
 2171000   0.90911632   -7.8698422    565.89467  0.021721736  0.021616052            1 
 2172000   0.89493988   -7.8504473    566.74963  0.021744538  0.021609878            3 
 2173000   0.90663859   -7.8596438    567.43335  0.021760751  0.021603662            1 
 2174000   0.91056053     -7.85976    568.09864  0.021776244   0.02159741            3 
 2175000   0.90826248   -7.8237261    568.33659  0.021775348  0.021591179            1 
 2176000   0.90941362   -7.8256911    567.22581  0.021722802  0.021584963            3 
 2177000   0.90718194   -7.8627286    566.11955  0.021670477  0.021578713            4 
 2178000   0.91054666   -7.8466796    566.70366  0.021682877  0.021572485            3 
 2179000   0.90802592   -7.8505191    567.17641  0.021691005  0.021566276            1 
 2180000   0.89946313   -7.8535193    566.88225  0.021669811  0.021559994            2 
 2181000   0.89731009   -7.8411044    567.45466  0.021681746  0.021553756            1 
 2182000    0.8962665   -7.8495761    567.64349  0.021679021  0.021547532            5 
 2183000   0.91904856   -7.8598448    567.94505  0.021680602  0.021541292            1 
 2184000    0.8958367    -7.849599    566.35376  0.021609957  0.021535081            1 
 2185000    0.9158676   -7.8178492    567.41675  0.021640608   0.02152887            3 
 2186000   0.89832658   -7.8062452    569.85452   0.02172364  0.021522664            2 
 2187000    0.9043135   -7.8612181    569.14662  0.021686733  0.021516471            2 
 2188000   0.90855198    -7.827223    569.93187  0.021706729  0.021510327            1 
 2189000   0.92251346   -7.8512214     568.2338  0.021632168  0.021504139            3 
 2190000   0.90158099   -7.8424267    569.17663  0.021658167  0.021497936            2 
 2191000    0.9132555   -7.8574022    568.90397  0.021637912   0.02149172            2 
 2192000   0.90310479    -7.853063    568.98245  0.021631024  0.021485521            4 
 2193000   0.92242917   -7.8518806    569.91394  0.021656557  0.021479349            2 
 2194000   0.90395571   -7.8630525    570.10985  0.021654127  0.021473201            5 
 2195000   0.90288612   -7.8204636    569.05536  0.021604228  0.021467076            2 
 2196000   0.87877803   -7.8339789    569.12034  0.021596856  0.021460902            2 
 2197000   0.91770192   -7.8508083    570.45879  0.021637794  0.021454759            2 
 2198000   0.89479763   -7.8545477    570.70646  0.021637339  0.021448642            3 
 2199000   0.90700139   -7.8601785    570.48508   0.02161911  0.021442468            2 
 2200000   0.89791061   -7.8451866    571.69959  0.021655288  0.021436326            1 
 2201000    0.8910207   -7.8680875    570.66798   0.02160639  0.021430206            1 
 2202000    0.8943872   -7.8021892    572.08801  0.021650318  0.021424074            1 
 2203000   0.89285003   -7.8400934    570.36224  0.021575209  0.021418012            2 
 2204000   0.89506804   -7.8474094    570.69441   0.02157798  0.021411879            1 
 2205000   0.89380915   -7.8803026    570.55822  0.021563047  0.021405724            4 
 2206000   0.90168717   -7.8436842    571.61737  0.021593282  0.021399592            1 
 2207000   0.90238632   -7.9040555    569.64572  0.021509051  0.021393426            1 
 2208000   0.90175038   -7.8550595    571.47074  0.021568189  0.021387308            1 
 2209000   0.91727779   -7.8601523    572.33563  0.021591053  0.021381216            3 
 2210000   0.91061402   -7.8751707    573.72288  0.021633593  0.021375107            2 
 2211000   0.89616758   -7.8318481    571.42479  0.021537192  0.021369027            1 
 2212000   0.90112131   -7.8362864    571.49563  0.021530125  0.021362961            1 
 2213000    0.9038463   -7.8744806    572.48448  0.021557632  0.021356849            4 
 2214000   0.90274529   -7.8758138    572.02829  0.021530725  0.021350797            3 
 2215000   0.89896794   -7.8458666    572.61232  0.021542977  0.021344694            2 
 2216000   0.89915308    -7.841566    571.79755  0.021502615  0.021338603            1 
 2217000   0.91281722   -7.8441829    572.81179   0.02153104  0.021332572            1 
 2218000   0.89831178   -7.8498495    572.12421  0.021495499  0.021326547            2 
 2219000   0.89185503   -7.8730611    572.71132  0.021507861  0.021320448            1 
 2220000   0.89871036   -7.8638787    572.78619  0.021500983  0.021314307            6 
 2221000   0.89074579   -7.8511833    571.81604  0.021454902  0.021308195            4 
 2222000   0.89433416   -7.8634632    571.64784  0.021438938  0.021302137            2 
 2223000   0.88303847   -7.8528302    573.23921  0.021488949  0.021296051            2 
 2224000   0.88923946   -7.8452891    574.95316  0.021543509  0.021289991            2 
 2225000   0.89414227   -7.8522092    573.49817  0.021479332  0.021283922            1 
 2226000   0.89317548   -7.8562567    573.08608  0.021454256  0.021277817            1 
 2227000   0.89224939   -7.8734508    573.09672   0.02144502  0.021271678            1 
 2228000   0.88764461   -7.9090863    571.28699  0.021367706  0.021265518            2 
 2229000   0.89104339   -7.8924693    572.46695  0.021402234  0.021259342            2 
 2230000   0.86850347   -7.8977162    571.98954  0.021374796  0.021253166            5 
 2231000   0.89278718   -7.8858311    571.15809  0.021334158  0.021246994            3 
 2232000   0.89457013   -7.8527845    573.10914  0.021397444  0.021240796            2 
 2233000   0.90805903   -7.8578171    572.62642  0.021369847  0.021234633            1 
 2234000   0.89355207   -7.8810307    572.07001  0.021339526  0.021228423            3 
 2235000   0.86892236   -7.8783551    573.43337  0.021380812  0.021222256            1 
 2236000   0.90012532   -7.8383771    574.95526  0.021427969  0.021216123            2 
 2237000   0.88874832   -7.8754928    574.12148   0.02138733   0.02120999            2 
 2238000   0.89949892   -7.8347223    574.48974  0.021391486  0.021203878            3 
 2239000   0.87795822    -7.865021    574.59318  0.021385781  0.021197753            5 
 2240000   0.89071918   -7.8684569    574.57878  0.021375699  0.021191629            3 
 2241000   0.89663924   -7.8609943    575.68816  0.021407413  0.021185488            7 
 2242000   0.88799961   -7.8580754    574.50955  0.021354057  0.021179396            2 
 2243000   0.88270181   -7.8448971     575.8836  0.021395586  0.021173314            1 
 2244000   0.89519268   -7.8721326    575.65346  0.021377505  0.021167154            1 
 2245000   0.87969929   -7.8941515    575.91699  0.021377765  0.021161011            2 
 2246000   0.89806944    -7.875752    573.63639   0.02128363  0.021154861            2 
 2247000    0.8774473   -7.9070959     574.4353  0.021303787    0.0211487            4 
 2248000   0.90270784   -7.8916608    575.89028  0.021348246  0.021142542            2 
 2249000   0.88986597   -7.8844111     573.7277  0.021258622  0.021136356            2 
 2250000   0.93258905   -7.8716812    574.82476  0.021289806  0.021130163            1 
 2251000   0.88723573   -7.9112383    573.41656  0.021228216  0.021124008            1 
 2252000   0.88390584   -7.8990522    574.13037  0.021245203  0.021117799            6 
 2253000   0.88209558   -7.8976764    574.68621  0.021256333  0.021111536            3 
 2254000   0.89169517    -7.914303    573.66549  0.021209165  0.021105279            1 
 2255000   0.89382143   -7.9104362    573.06372  0.021177521  0.021099052            2 
 2256000   0.89977862   -7.8844039    574.49444  0.021220982  0.021092859            1 
 2257000   0.88107287   -7.8962109    573.78132   0.02118525  0.021086621            2 
 2258000   0.90147737   -7.8598838    575.34843  0.021233703  0.021080378            1 
 2259000   0.89685924   -7.8890613    575.28014  0.021221785  0.021074164            3 
 2260000   0.87380654   -7.8940196    573.63723  0.021151815  0.021067883            4 
 2261000   0.92102571   -7.8643764     576.6896  0.021254961  0.021061693            9 
 2262000   0.88058994   -7.9101367    575.34716  0.021196108  0.021055491            2 
 2263000   0.87582242   -7.8965074    576.48513  0.021228647  0.021049234            2 
 2264000   0.87639771   -7.9034511    575.59995  0.021186688  0.021042941            2 
 2265000    0.9095098   -7.8512609    575.90865  0.021188692  0.021036738            2 
 2266000   0.88148415   -7.8992806    575.50485  0.021164492  0.021030538            2 
 2267000   0.87901198    -7.866972    575.44361  0.021152905  0.021024343            1 
 2268000    0.8714757   -7.8621815    576.48755  0.021181935  0.021018166            2 
 2269000   0.87636764   -7.8897142    576.00252  0.021154786  0.021011998            2 
 2270000   0.87776056   -7.8578232    576.45734  0.021162164  0.021005823            2 
 2271000   0.87136013    -7.884751    576.53808  0.021155808  0.020999589            1 
 2272000   0.88650585   -7.8963605     577.3845  0.021177542  0.020993407            4 
 2273000   0.88852549   -7.8375329    576.82455  0.021147696  0.020987258            1 
 2274000    0.9108891   -7.8788146    575.96165  0.021106774  0.020981085            3 
 2275000   0.88187024   -7.8920355    576.11181  0.021102997  0.020974943            4 
 2276000   0.87866172   -7.8929457    577.27274  0.021136231  0.020968758            1 
 2277000   0.87681606   -7.8761784    578.70229  0.021179267  0.020962633            2 
 2278000   0.90253647   -7.8448884      578.251  0.021153461  0.020956507            1 
 2279000   0.89041703   -7.8930245    577.51292   0.02111719  0.020950345            1 
 2280000   0.89971994   -7.8704264    576.61313  0.021075041  0.020944193            3 
 2281000   0.89490205    -7.882794    577.16998  0.021086146  0.020938058            3 
 2282000   0.88891156   -7.8876725    578.84141  0.021137942  0.020931926            2 
 2283000   0.87626814   -7.8971787    578.19208  0.021104982  0.020925821       -1e+20 
 2284000   0.88125529   -7.8951168    577.80578  0.021081647  0.020919654            1 
 2285000   0.88838869   -7.8719655    579.98301  0.021151824  0.020913544            6 
 2286000   0.88893957   -7.9224035    576.67694  0.021022052  0.020907448            1 
 2287000   0.88324909   -7.8964264    577.77144  0.021052742  0.020901313            2 
 2288000   0.86678518   -7.8618988    578.72176  0.021078153   0.02089523            2 
 2289000   0.86618252    -7.887314    579.96977  0.021114379   0.02088913            2 
 2290000   0.87571192   -7.8836803    577.87311  0.021028861  0.020883049            5 
 2291000   0.91253661   -7.8808224    579.29328   0.02107134  0.020876952            3 
 2292000   0.88479604   -7.8629273    579.56078  0.021071872  0.020870858            4 
 2293000   0.87914837   -7.8976637    578.74925   0.02103319  0.020864804            5 
 2294000   0.89865575   -7.9246397    579.08336  0.021036158   0.02085876            4 
 2295000   0.87311514   -7.9080204    579.33459  0.021036114  0.020852632            3 
 2296000   0.89330553   -7.8648599    580.34729  0.021063708   0.02084657            2 
 2297000   0.88812217   -7.8657744    580.88414  0.021074015  0.020840473            3 
 2298000   0.89250298    -7.884586     578.8082  0.020989563   0.02083439            2 
 2299000   0.87894833   -7.8947828    580.05818  0.021025742  0.020828346            2 
 2300000   0.87328622   -7.9012028     579.6364  0.021001319  0.020822292            1 
 2301000   0.88856395   -7.8664267    580.56604   0.02102586  0.020816275            2 
 2302000   0.89551937   -7.9231161    578.90152   0.02095647  0.020810191            1 
 2303000   0.88013074   -7.8952489    579.56532  0.020971389  0.020804141            2 
 2304000   0.86275296   -7.8926323    579.92115  0.020975157  0.020798065            3 
 2305000   0.89472191   -7.9236491    580.34606  0.020981419   0.02079201            1 
 2306000   0.86289006   -7.9137986    581.01004  0.020996315  0.020785956            1 
 2307000   0.89516711    -7.888118    581.28034  0.020996978  0.020779906            3 
 2308000   0.87923697   -7.9136816     580.1636  0.020947559    0.0207739            1 
 2309000   0.87370617   -7.8839685    582.50807    0.0210231  0.020767896            3 
 2310000   0.87788715   -7.8999981    581.01899  0.020960281   0.02076191            2 
 2311000   0.88857694   -7.8926092     581.4636  0.020967244  0.020755949            1 
 2312000   0.89946349   -7.9121351    581.45547  0.020957882   0.02074991            3 
 2313000   0.86957962   -7.9441955    580.07123  0.020898949  0.020743821            2 
 2314000   0.87718379   -7.9286941    580.44587  0.020903409  0.020737743            3 
 2315000   0.87410714   -7.9061437    581.37186  0.020927713  0.020731705            2 
 2316000   0.88352962   -7.9237825    580.28231  0.020879473  0.020725624            3 
 2317000   0.88492109   -7.8833901    582.01481  0.020932772  0.020719594            4 
 2318000   0.88061625   -7.9120829    581.48087  0.020904547  0.020713537            2 
 2319000   0.87660728   -7.9193488    580.82864  0.020872094  0.020707473            2 
 2320000   0.89005042   -7.9174521    582.77573  0.020933036  0.020701426            2 
 2321000   0.87421815   -7.9162153    581.25624  0.020869461  0.020695367            1 
 2322000   0.89155779   -7.9117451     581.6027  0.020872908  0.020689292            2 
 2323000   0.89377143   -7.9033209    582.92984  0.020911531  0.020683264            2 
 2324000   0.86502991   -7.9120432    581.66534  0.020857191  0.020677222            1 
 2325000   0.88468507   -7.9384265    580.77987  0.020816483  0.020671154            4 
 2326000   0.86760884   -7.8935578    583.63558  0.020909844  0.020665105            2 
 2327000   0.89698593   -7.8935443    582.62598  0.020864703  0.020659105            2 
 2328000   0.88223982   -7.8940282    584.27819  0.020914884  0.020653126            4 
 2329000   0.90074986   -7.9256921    584.21557  0.020903663  0.020647097            4 
 2330000   0.87259244   -7.8899354    582.24953  0.020824375  0.020641078            3 
 2331000   0.89686958   -7.9194686    583.02362  0.020843115  0.020635071            1 
 2332000   0.85868303   -7.9082929    584.32276  0.020880602  0.020629055            2 
 2333000   0.89074905    -7.905665     583.4548  0.020840649  0.020623009            3 
 2334000   0.87514279   -7.9201235    584.75129   0.02087801  0.020617017            1 
 2335000    0.8818885   -7.9237998    583.01889  0.020807241  0.020611039            2 
 2336000   0.86261765   -7.8993461    584.22951  0.020841521  0.020605036            3 
 2337000   0.87911307   -7.9248463    584.48494  0.020841711  0.020599024            1 
 2338000   0.86815859   -7.9145364    583.48065     0.020797   0.02059301            6 
 2339000   0.88115693   -7.9146523    583.88751  0.020802605  0.020586989            2 
 2340000   0.87297986    -7.945833    583.32087  0.020773535  0.020580978            1 
 2341000   0.88146227   -7.9176532    583.03371  0.020754439  0.020574953            1 
 2342000   0.88001767   -7.9103867    584.83544  0.020809687  0.020568968            3 
 2343000   0.89787359   -7.9088835    583.93371  0.020768733  0.020562981            2 
 2344000   0.89191161   -7.9415335    584.51553  0.020780558  0.020556995            5 
 2345000   0.89710804   -7.9344415     585.7335  0.020814979  0.020551063            3 
 2346000   0.87736112   -7.8623683    586.43632  0.020831071  0.020545136            3 
 2347000   0.86517936   -7.8974234    585.79354  0.020799373  0.020539301            2 
 2348000   0.85256431   -7.9172857    585.95168  0.020796127  0.020533436            1 
 2349000   0.88448379   -7.8955588     587.4885  0.020841794  0.020527585            1 
 2350000   0.89313875   -7.9460344    585.21386  0.020752265  0.020521743            2 
 2351000   0.87882639   -7.8955714    586.29047  0.020781599  0.020515883            3 
 2352000   0.88877904   -7.8897021    585.95586  0.020760908  0.020510052            1 
 2353000   0.87546943    -7.897197    585.48068  0.020735256  0.020504183            2 
 2354000    0.8782333   -7.9199113    587.28246  0.020790232  0.020498314            1 
 2355000   0.88456101   -7.9228574    586.72716  0.020761754  0.020492466            2 
 2356000   0.87238544   -7.8745264    587.46838  0.020779159  0.020486631            2 
 2357000   0.85753496   -7.9436562    585.31982  0.020694379  0.020480754            4 
 2358000   0.86233627   -7.8857302    588.01425  0.020780826  0.020474912            3 
 2359000    0.8778817   -7.9087904    586.83326  0.020730298   0.02046907            2 
 2360000     0.857031   -7.9230564    586.15709  0.020697637  0.020463247            2 
 2361000   0.87320863   -7.8981537    587.60881   0.02074011  0.020457451            2 
 2362000   0.87494369   -7.9323267    586.67834  0.020698502   0.02045161            7 
 2363000   0.88281426   -7.8943608    587.76469  0.020728054  0.020445745            1 
 2364000   0.85807518   -7.9177298    587.16454  0.020698129  0.020439935            1 
 2365000   0.88160542   -7.9145546    587.47798  0.020700422  0.020434112            1 
 2366000   0.86123323   -7.9146647    588.61965  0.020731884  0.020428246            1 
 2367000   0.83482113   -7.9520209    586.90164  0.020662641  0.020422361            3 
 2368000   0.86869615   -7.9054292    586.64499  0.020644883  0.020416476            1 
 2369000   0.84241795   -7.9063239    587.81665  0.020677383  0.020410672            2 
 2370000   0.84885053   -7.9486732    587.61889  0.020661705  0.020404826            1 
 2371000   0.86608929    -7.916852    587.84776  0.020661035  0.020398983            3 
 2372000   0.88579924   -7.9590607    588.12443  0.020662044  0.020393114            2 
 2373000   0.89000383   -7.9329975    587.00358  0.020613976  0.020387225            2 
 2374000   0.87166921   -7.9071688    588.25152  0.020649099  0.020381379            1 
 2375000   0.87609537   -7.9519393    588.49037  0.020648785  0.020375524            4 
 2376000   0.87133431   -7.9215976    589.39007  0.020671649  0.020369689            2 
 2377000   0.86380795   -7.9294249    588.37444  0.020627347  0.020363832            6 
 2378000   0.84867247   -7.9135703    588.79435  0.020633388  0.020357982            2 
 2379000   0.88674473   -7.8997808    588.93971  0.020629806  0.020352164            2 
 2380000   0.87198788   -7.8988044    591.45761    0.0207093  0.020346418            1 
 2381000    0.8677952    -7.930491    589.55246  0.020633924  0.020340666            4 
 2382000   0.87690752   -7.9256254    589.95552  0.020639362  0.020334838            1 
 2383000      0.88942   -7.9368009    589.29848  0.020607724  0.020329042            1 
 2384000   0.88840397   -7.9479311    589.82283  0.020617409  0.020323215            1 
 2385000   0.86928068   -7.9471983    589.11511  0.020584036  0.020317335            2 
 2386000   0.88269055   -7.9254184    587.81493  0.020529999  0.020311524            2 
 2387000   0.86530413   -7.9553192    589.55013  0.020581976  0.020305699            3 
 2388000   0.87943788   -7.9203807    590.70561   0.02061368  0.020299887            4 
 2389000    0.8630361   -7.8986291    588.87749  0.020541283  0.020294073            4 
 2390000   0.85920714   -7.9074273    589.17513  0.020543066  0.020288261            1 
 2391000   0.85281317   -7.9602387    590.17788  0.020569423  0.020282409            1 
 2392000   0.87012997   -7.9532859    589.80547  0.020547849  0.020276561            2 
 2393000   0.88507755   -7.9344474    590.78304  0.020573305  0.020270722            1 
 2394000   0.86746524   -7.9408659    590.82267  0.020566091  0.020264876            1 
 2395000   0.87437894   -7.9537769    589.27531  0.020503664  0.020258986            2 
 2396000   0.86882801   -7.9661345    589.00645  0.020485756  0.020253109            1 
 2397000   0.85423181   -7.9315551    591.29961  0.020556933  0.020247274            3 
 2398000   0.86542862    -7.942863    589.65268  0.020491127  0.020241443            1 
 2399000   0.86267706   -7.9742419    589.72443  0.020485078  0.020235613            3 
 2400000   0.85757151   -7.9658336    589.69902   0.02047566  0.020229737            3 
 2401000   0.87933371   -7.9277799    592.31956  0.020558086  0.020223931            5 
 2402000   0.86314189   -7.9394614     589.9145  0.020466087  0.020218132            1 
 2403000   0.87295982   -7.9210669    592.67847  0.020553422  0.020212366            2 
 2404000   0.88714458   -7.9268945    591.48793  0.020503603  0.020206603            2 
 2405000   0.85682717   -7.8905157    592.46917  0.020529077  0.020200852            2 
 2406000    0.8667716   -7.9292493    591.47563  0.020486133  0.020195116            1 
 2407000   0.85995529   -7.9410745    591.43864  0.020476341  0.020189365            1 
 2408000   0.86727374   -7.9550213    590.43241  0.020433015  0.020183556            4 
 2409000   0.84968659   -7.9151427    592.91764  0.020510504  0.020177734            2 
 2410000   0.86351383   -7.9496091     591.8088  0.020463652  0.020171932            2 
 2411000   0.86006948   -7.9657061    594.00029   0.02053091  0.020166148            1 
 2412000   0.87480219   -7.9347078    589.59781  0.020370295  0.020160299            2 
 2413000    0.8633537   -7.9201548    590.52919  0.020394018  0.020154428            5 
 2414000   0.86390454   -7.9206701    591.26116  0.020410838  0.020148541            2 
 2415000   0.87502565   -7.9274061    591.77609  0.020420155  0.020142707            1 
 2416000   0.87130661   -7.9443646    592.43309  0.020434364  0.020136869            1 
 2417000   0.86991288   -7.9365867    591.05506  0.020378398  0.020131021            1 
 2418000    0.8551216   -7.9107481      592.116  0.020406534  0.020125185            2 
 2419000   0.85257485   -7.9538296    591.04732  0.020361283  0.020119319            3 
 2420000   0.85596687   -7.9969851    590.79621  0.020344222  0.020113409            3 
 2421000   0.87197984   -7.9650315    590.79915   0.02033592  0.020107522            1 
 2422000   0.86595171   -7.9628406    591.45586  0.020350119  0.020101635            1 
 2423000   0.88047463   -7.9767113    590.25822   0.02030053  0.020095733            2 
 2424000   0.88506123   -7.9470617    591.36951   0.02033036  0.020089856            2 
 2425000   0.86326675   -7.9399069    592.55695  0.020362782  0.020083964            3 
 2426000   0.86502296   -7.9557355    591.80378  0.020328517  0.020078089            3 
 2427000   0.85682258   -7.9584672    592.61954  0.020348151  0.020072251            2 
 2428000   0.86825647   -7.9387145    592.77321  0.020345044  0.020066412            2 
 2429000   0.88476731    -7.891268    592.81363  0.020338055  0.020060606            4 
 2430000   0.86159139   -7.9298575    592.77962  0.020328519  0.020054806            2 
 2431000   0.84334202   -7.9461659     592.2408  0.020301686  0.020048986            2 
 2432000   0.86437108   -7.9681451    592.43105  0.020299858   0.02004309            5 
 2433000   0.85962492    -7.964198    593.22484  0.020318703  0.020037202            3 
 2434000   0.86689221   -7.9643073    592.48771  0.020285117  0.020031347            2 
 2435000   0.86601341   -7.9785568    591.28999  0.020235797  0.020025448            2 
 2436000   0.88116671   -7.9773114    592.99706  0.020285887    0.0200195            2 
 2437000   0.84967828   -7.9842773    591.91157  0.020240445  0.020013584            2 
 2438000   0.87770807   -7.9606341    592.81834  0.020263137  0.020007684            3 
 2439000   0.86670149   -7.9491834    593.87734  0.020291012  0.020001834            3 
 2440000   0.87032289   -7.9196839    593.77159  0.020279084  0.019995998            2 
 2441000   0.86528231   -7.9215552    595.02233  0.020313476  0.019990157            2 
 2442000   0.85136189   -7.9436847    593.74486  0.020261564  0.019984329            3 
 2443000   0.85853114    -7.947897    593.87384   0.02025767  0.019978539            3 
 2444000    0.8705198   -7.9071306    594.57628  0.020273332  0.019972747            1 
 2445000   0.86803135   -7.9305122    594.26709  0.020254502  0.019966913            4 
 2446000   0.85381714   -7.9354062    593.98253  0.020236527  0.019961066            1 
 2447000   0.83396975    -7.966444    593.36831  0.020207339  0.019955251            2 
 2448000   0.85988399    -7.914163    593.53456  0.020204744    0.0199494            3 
 2449000    0.8752568   -7.9308176    594.67541  0.020235314  0.019943568            2 
 2450000   0.85949817   -7.9267129     593.9853  0.020203582  0.019937707            3 
 2451000   0.84336684   -7.9097058    594.28746  0.020205612  0.019931874            1 
 2452000   0.83355757   -7.9410583    593.80303  0.020180908  0.019926035            6 
 2453000   0.87986221   -7.9809035    593.69236  0.020168921  0.019920164            1 
 2454000   0.86620085   -7.9570642    595.41232  0.020219109  0.019914292            2 
 2455000   0.85109809    -7.988613    592.93299  0.020126714  0.019908412            3 
 2456000   0.85695798   -7.9766168     594.2164  0.020162066  0.019902498            3 
 2457000   0.86094812   -7.9308277    595.55546  0.020199276  0.019896643            1 
 2458000    0.8666584   -7.9547299    594.10328  0.020141825  0.019890815            1 
 2459000   0.84330581   -7.9524469    594.07227  0.020132584  0.019884973            1 
 2460000   0.85598983    -7.939204     594.5473  0.020140491  0.019879154            1 
 2461000   0.87768586   -7.9629746    594.90446  0.020144401  0.019873329            2 
 2462000   0.85328362   -7.9644866    594.34724  0.020117359  0.019867505            2 
 2463000   0.85014083   -7.9907743    593.35767   0.02007571  0.019861655            3 
 2464000   0.83573547   -7.9849982    593.05888  0.020057457  0.019855793            2 
 2465000   0.84103513   -7.9637603    595.26172   0.02012379  0.019849934            3 
 2466000   0.85417284   -8.0070413    595.53469  0.020124854  0.019844068            2 
 2467000   0.86460597   -7.9862453     595.0509  0.020100355  0.019838191            2 
 2468000   0.83649781   -7.9616177    594.90241  0.020087197  0.019832343            2 
 2469000   0.86824192   -7.9637115    595.29755  0.020092397  0.019826476            2 
 2470000   0.84369016     -7.97142    594.67441  0.020063239  0.019820639            6 
 2471000   0.86317289   -7.9339418    597.25909  0.020142287  0.019814823            2 
 2472000   0.85556974   -7.9392396    595.36891  0.020070419  0.019809028            2 
 2473000   0.86857246   -7.9654026    596.57982  0.020103108  0.019803238            2 
 2474000   0.85177837   -7.9876553    595.69724  0.020065253  0.019797344            3 
 2475000   0.84281629   -7.9816648    595.39036  0.020046813  0.019791438            3 
 2476000   0.83646686   -7.9758889     594.8414  0.020020241  0.019785581            2 
 2477000   0.82780186   -7.9866963    593.61977  0.019971059  0.019779675            1 
 2478000   0.86231505   -7.9901009    596.18701  0.020049334  0.019773798            3 
 2479000   0.86381888    -7.946927    596.66514  0.020057319  0.019767956            2 
 2480000   0.87298822   -8.0253562    594.88224  0.019989322  0.019762088            4 
 2481000   0.83900903   -7.9559371    594.52553  0.019969284  0.019756171            2 
 2482000   0.85347949   -7.9822969    594.76884  0.019969408  0.019750235            2 
 2483000   0.83807896   -7.9754538    596.14756  0.020007637  0.019744336            2 
 2484000   0.86835543   -7.9776855    596.60582  0.020014956  0.019738457            3 
 2485000   0.86199038   -7.9539374    596.54297  0.020004794    0.0197326            2 
 2486000   0.84613344   -7.9809385    597.33201  0.020023197  0.019726757            2 
 2487000   0.87360874   -7.9944009    595.62871  0.019958072  0.019720938            2 
 2488000   0.84114576   -7.9744173    596.91182  0.019993027  0.019715136            2 
 2489000   0.85428343   -7.9745555    596.40506  0.019968028  0.019709299            2 
 2490000   0.85820937   -7.9603777    595.58819   0.01993267  0.019703466            4 
 2491000   0.84437717   -8.0269385    596.48113  0.019954541   0.01969761            3 
 2492000   0.87609752   -7.9799947     596.3986  0.019943773  0.019691768            1 
 2493000   0.85927455   -7.9785261    596.48963  0.019938816  0.019685916            1 
 2494000   0.87782377   -8.0035658    596.68344  0.019937297  0.019680017            2 
 2495000   0.84262425    -7.987158    596.70746  0.019930109  0.019674189            1 
 2496000   0.85919834   -7.9862395    597.07577  0.019934421  0.019668355            2 
 2497000   0.84125564   -7.9636743     595.3687  0.019869467  0.019662508            1 
 2498000   0.84161735   -7.9733063    597.66144  0.019937998  0.019656648            2 
 2499000   0.82534906   -7.9876027    597.66427  0.019930114  0.019650795            1 
 2500000   0.85127517   -7.9719731    598.83786  0.019961262   0.01964496            2 
 2501000   0.86643254    -7.965746    598.26213  0.019934097   0.01963913            2 
 2502000   0.84448819   -7.9667475     597.1568  0.019889315  0.019633298            2 
 2503000   0.86717447   -7.9646658     597.0667  0.019878369  0.019627462            3 
 2504000   0.86570992     -7.96386    598.31256  0.019911893  0.019621652            4 
 2505000   0.86159001   -8.0060467    597.51897  0.019877544  0.019615782            2 
 2506000   0.84608948   -7.9776043    598.40681  0.019899136  0.019609912            2 
 2507000   0.84113728    -7.982439    597.20818  0.019851355  0.019604046            2 
 2508000   0.83531221   -8.0030229    597.96487  0.019868583  0.019598195            1 
 2509000   0.84185155   -7.9862072    597.76652  0.019854076    0.0195924            1 
 2510000   0.86136804   -7.9926581    598.89674   0.01988369  0.019586569            1 
 2511000   0.86624782   -7.9970151    598.33787  0.019857224  0.019580769            1 
 2512000   0.85685884   -7.9743068    597.89865  0.019834748   0.01957493            2 
 2513000   0.86291595   -8.0337815     595.7304  0.019754954  0.019569059            1 
 2514000   0.85041485   -8.0224969    596.42519  0.019770127   0.01956317            3 
 2515000   0.85057288   -7.9737617    598.91302  0.019844699  0.019557324            4 
 2516000   0.85617661   -8.0148148    598.16348  0.019811986  0.019551498            2 
 2517000   0.84215442   -8.0014825    598.73475  0.019823028  0.019545634            2 
 2518000   0.84032756   -7.9610909    599.25286  0.019832303  0.019539785            3 
 2519000   0.85951968   -7.9813529    598.18454  0.019789088  0.019533963            4 
 2520000   0.86461125   -8.0197594    597.17496  0.019747849  0.019528126            1 
 2521000   0.83345677   -8.0391951    597.85574   0.01976252  0.019522303            1 
 2522000   0.85273178   -8.0134623    599.54355  0.019810453  0.019516452            1 
 2523000   0.82611112   -7.9997019    598.45644  0.019766694  0.019510626            1 
 2524000    0.8547956    -7.984512    598.81628  0.019770744  0.019504763            2 
 2525000   0.84548155    -7.996601    598.68859  0.019758699  0.019498919            3 
 2526000   0.85412126   -7.9754658    598.71479  0.019751741  0.019493113            3 
 2527000   0.84796717     -7.97176    599.89099  0.019782713  0.019487288            5 
 2528000   0.83740447   -8.0034325     598.0142  0.019713021  0.019481418            2 
 2529000   0.84771982    -7.992167    600.00804  0.019770925  0.019475596            2 
 2530000   0.84395912   -8.0106416    599.87698  0.019758794  0.019469756            3 
 2531000   0.84621122   -8.0369279    598.35276  0.019700802  0.019463881            2 
 2532000   0.86764339    -8.017287    599.08352  0.019717072  0.019458009            4 
 2533000   0.84393303   -7.9871409    600.52959  0.019756862  0.019452171            1 
 2534000   0.86037393    -7.998209    599.53619  0.019716397  0.019446366            1 
 2535000   0.85217405   -7.9975336    599.90348  0.019720693   0.01944057            3 
 2536000   0.84735574   -8.0066278    600.72976  0.019740068   0.01943477            1 
 2537000   0.84965685   -7.9838794    598.72357   0.01966639  0.019428971            5 
 2538000   0.84218382    -7.982589    601.39116  0.019746229  0.019423174            1 
 2539000   0.85720543   -8.0008651    600.48945  0.019708857  0.019417343            3 
 2540000   0.83964753   -8.0069131    598.78608  0.019645213   0.01941155            2 
 2541000   0.84181741   -7.9809355    600.50275   0.01969378  0.019405732            2 
 2542000   0.84699798   -8.0178336    599.93574  0.019667445  0.019399914            1 
 2543000    0.8486221   -8.0569306    600.01918  0.019662445  0.019394051            1 
 2544000   0.85458155   -8.0144141    599.31536  0.019631661  0.019388174            1 
 2545000   0.83366525   -7.9936539    599.79653  0.019639703  0.019382308            1 
 2546000    0.8517158   -8.0204983    600.47998  0.019654359  0.019376445            2 
 2547000   0.84534009   -7.9866879    600.40692  0.019644252  0.019370589            2 
 2548000    0.8377455   -8.0102142    598.91515  0.019587754  0.019364746            1 
 2549000   0.84907351   -7.9917034     598.7375  0.019574261  0.019358893            2 
 2550000   0.84942902   -7.9849949        600.9  0.019637255  0.019353044            2 
 2551000    0.8431798   -7.9929618    599.67619  0.019589579  0.019347206            2 
 2552000   0.85525885   -8.0040929    600.23024  0.019599995  0.019341387            1 
 2553000   0.83407142   -8.0082745    601.14332  0.019622122   0.01933554            3 
 2554000   0.85145251   -8.0117071    600.09292  0.019580166  0.019329722            3 
 2555000   0.85176859   -7.9458071    601.16151  0.019607355  0.019323924            2 
 2556000    0.8580194   -7.9923233    600.79684  0.019587795  0.019318134            1 
 2557000   0.83785987   -7.9990033    601.97513  0.019618535  0.019312353            3 
 2558000   0.85315299   -7.9986779    601.47759  0.019594657  0.019306559            2 
 2559000   0.84213347   -8.0278012    602.22441   0.01961132  0.019300762            2 
 2560000   0.85297878   -7.9981763    599.61082  0.019518581  0.019294956            2 
 2561000   0.82272881   -8.0135799     601.1456  0.019560901  0.019289154            2 
 2562000   0.83064658   -7.9936456    600.21023  0.019522841  0.019283351            2 
 2563000   0.85200566    -8.004203    600.89669  0.019537544  0.019277498            4 
 2564000   0.83301708   -7.9924021    600.05817  0.019502671  0.019271669            3 
 2565000   0.83128765   -8.0200149    600.99436  0.019525483  0.019265837            3 
 2566000   0.84798518   -8.0079037    601.82255   0.01954477   0.01925999            2 
 2567000   0.82414532   -8.0135669    601.39567  0.019523298   0.01925419            1 
 2568000   0.84614937   -8.0017193    602.77388  0.019560419   0.01924838            2 
 2569000   0.84498503   -8.0090775    602.14563  0.019532426  0.019242598            3 
 2570000   0.84579206   -8.0269545    598.96047  0.019421546  0.019236785            3 
 2571000    0.8439313   -8.0075191    602.24926   0.01952059  0.019230951            2 
 2572000    0.8472992   -8.0329359    601.86697  0.019500615   0.01922513            2 
 2573000   0.83880311    -8.013522    603.06782  0.019531928  0.019219309            2 
 2574000   0.82119551   -8.0358177    602.00325  0.019489875  0.019213526            2 
 2575000   0.83290768   -8.0208578    601.32431  0.019460334  0.019207755            2 
 2576000    0.8339901   -8.0129404    602.68699  0.019496862  0.019202014            2 
 2577000   0.84164415   -8.0190912    601.43008  0.019448651  0.019196233            2 
 2578000   0.83722038   -7.9795353    604.22536  0.019531464  0.019190473            2 
 2579000    0.8399707   -7.9870134    603.32581  0.019494824  0.019184722            2 
 2580000   0.85546102   -7.9770435    603.08347   0.01947944  0.019178988            3 
 2581000   0.83557853   -7.9925591    604.05799  0.019503358  0.019173251            1 
 2582000   0.84074299   -8.0025014     603.2559  0.019469917  0.019167536            1 
 2583000   0.84108415   -7.9672508    606.20118    0.0195574  0.019161786            2 
 2584000   0.83777446   -7.9953698    603.03605  0.019447757   0.01915602            7 
 2585000   0.84265479   -7.9856856    602.08123  0.019409453  0.019150275            3 
 2586000   0.84959726   -8.0210981    602.29219  0.019408746  0.019144511            2 
 2587000   0.84123528   -7.9984552    602.75045  0.019416005  0.019138756            1 
 2588000   0.84177425   -8.0001637    603.39496  0.019429256  0.019133003            3 
 2589000    0.8371659   -7.9965534    603.41124  0.019422275  0.019127294            5 
 2590000   0.84478174   -8.0280701    602.99913  0.019401517  0.019121528            2 
 2591000   0.83597312   -7.9876331    602.32381  0.019372308   0.01911578            2 
 2592000   0.83052832   -8.0401429     602.2558  0.019362648  0.019110021            2 
 2593000   0.86509709    -8.009233    601.30411  0.019324596  0.019104226            1 
 2594000   0.84850009   -8.0067714    603.05982  0.019373548  0.019098422            2 
 2595000   0.83861484   -8.0173035    603.45403  0.019378742   0.01909262            2 
 2596000   0.83413728   -8.0519216    601.56894  0.019310765  0.019086811            3 
 2597000   0.84256599   -8.0149406    603.43157  0.019363097  0.019081034            3 
 2598000   0.83489188   -8.0280993    603.69405  0.019364064  0.019075244            3 
 2599000   0.83558186   -8.0066764      602.908   0.01933141  0.019069499            3 
 2600000   0.83037207   -8.0106806     606.1338  0.019427365  0.019063766            3 
 2601000   0.83759194   -8.0107504    603.32627  0.019329946  0.019058038            1 
 2602000   0.83963937   -7.9971499    603.71466  0.019334956  0.019052298            3 
 2603000   0.83764072   -7.9793729    605.88263  0.019396934  0.019046619            1 
 2604000   0.83693392   -8.0293109    603.96549  0.019328133  0.019040913            2 
 2605000    0.8306238   -7.9850601    605.08743  0.019356604    0.0190352            3 
 2606000   0.83868965   -8.0172519      603.943   0.01931258  0.019029486            2 
 2607000   0.84833763   -8.0331278    605.54701  0.019356444  0.019023775            3 
 2608000   0.85685726   -8.0397079    604.60232  0.019318837  0.019018032            1 
 2609000   0.83068572   -7.9980329    606.71145  0.019378799  0.019012298            2 
 2610000   0.81992783   -8.0592116    603.59524  0.019271879  0.019006606            2 
 2611000    0.8384062   -8.0515272    606.53424    0.0193583  0.019000876            1 
 2612000   0.84900641   -8.0194312    604.73787  0.019293577  0.018995159            1 
 2613000    0.8340215   -8.0122239    604.74545  0.019286435  0.018989461            7 
 2614000   0.83321507   -8.0430631    605.26862  0.019295735  0.018983747            1 
 2615000   0.83596289    -8.015096    605.77817  0.019304594   0.01897803            1 
 2616000   0.84046058   -8.0081556    605.66927  0.019293746  0.018972348            2 
 2617000   0.84827953   -8.0187103    604.96727   0.01926402  0.018966647            5 
 2618000   0.83856043   -8.0353148    605.11057  0.019261223  0.018960945            2 
 2619000   0.83520643    -8.026621    603.96176  0.019217315   0.01895523            3 
 2620000   0.83556688   -8.0252299    605.09762  0.019246107  0.018949524            3 
 2621000   0.83080772   -8.0451565    604.93786  0.019233685  0.018943824            4 
 2622000   0.82612855    -8.027546    605.17051  0.019233744  0.018938105            2 
 2623000   0.83426284   -8.0627615     605.1618  0.019226134  0.018932377            1 
 2624000   0.84025397   -8.0143722    607.43721   0.01929107  0.018926676            4 
 2625000   0.84772246   -8.0232382    606.52191  0.019254664  0.018920974            6 
 2626000   0.81730992   -8.0140569     606.2217  0.019237805  0.018915297            1 
 2627000    0.8383633   -8.0272697    607.49396   0.01927084  0.018909618            1 
 2628000   0.84081622   -8.0341383    606.40959  0.019229122    0.0189039            2 
 2629000   0.82379271   -8.0264304    606.72267  0.019231732  0.018898185            3 
 2630000   0.84174732   -8.0613243    605.77144  0.019194279  0.018892462            3 
 2631000   0.81771792   -8.0272522    603.59937  0.019118186   0.01888674            2 
 2632000   0.81189541   -8.0448822    605.42593  0.019168754  0.018880985            2 
 2633000   0.83532769   -8.0474506    605.79796  0.019173249  0.018875243            2 
 2634000   0.85021372   -8.0732266    605.12451  0.019144663  0.018869496            1 
 2635000   0.83031445   -8.0711717    605.44849  0.019147644  0.018863737            3 
 2636000   0.83425756   -8.0544301    605.86827   0.01915365  0.018857983            2 
 2637000   0.83765118   -8.0481528    605.10546  0.019122281   0.01885222            5 
 2638000   0.84850284   -8.0655725     605.8981  0.019140071  0.018846468            5 
 2639000   0.80809817   -8.0462065    606.17932  0.019141699  0.018840723            4 
 2640000   0.82100078   -8.0328823    605.95965  0.019127514  0.018834991            2 
 2641000   0.82186706   -8.0445765    606.10412   0.01912483  0.018829269            3 
 2642000   0.83242209   -8.0393898    607.09495  0.019148844  0.018823556            3 
 2643000   0.81266263   -8.0461585     604.7413  0.019067389  0.018817835            3 
 2644000   0.83876959   -8.0205068    606.15286  0.019104667  0.018812113            6 
 2645000   0.81953328   -8.0399335    605.93234  0.019090496  0.018806403            2 
 2646000   0.82660972   -8.0513871    606.25456  0.019093429  0.018800718            2 
 2647000    0.8157508   -8.0491968    606.67016    0.0190993  0.018795016            1 
 2648000   0.82888985   -8.0294088    607.61616  0.019121858  0.018789322            1 
 2649000   0.82757604   -8.0094904    607.21142  0.019101907  0.018783639            2 
 2650000   0.82897585   -8.0135003    605.94447  0.019054858  0.018777929            3 
 2651000   0.82747992   -8.0832901    606.14567  0.019053994  0.018772207            2 
 2652000   0.84083799   -8.0626364    606.97461  0.019072857  0.018766451            2 
 2653000   0.81625543   -8.0531411    606.59439  0.019053725  0.018760726            2 
 2654000   0.81989742   -8.0366723    606.67967  0.019049223  0.018754987            2 
 2655000    0.8085935   -8.0569596    605.31146  0.018999104  0.018749242            3 
 2656000   0.83065307   -8.0634979    608.01095  0.019076649   0.01874348            8 
 2657000   0.81966376   -8.0478403    606.74481  0.019029758   0.01873777            3 
 2658000   0.81559539   -8.0565222    607.49713  0.019046185  0.018732023            3 
 2659000   0.83047935   -8.0275766    608.23656  0.019062196  0.018726317            2 
 2660000    0.8321027   -8.0467924    606.39482  0.018997331  0.018720598            2 
 2661000   0.81153135   -8.0763194    606.54507  0.018994898  0.018714847            3 
 2662000    0.8175207   -8.0645297    606.15891  0.018975673  0.018709068            2 
 2663000   0.82553484   -8.0600607    606.76851  0.018987624  0.018703323            3 
 2664000   0.82815729   -8.0360348     606.5261  0.018972913  0.018697594            1 
 2665000   0.82899694   -8.0304214    608.51782  0.019028074  0.018691848            2 
 2666000   0.84695322   -8.0182815    607.09236   0.01897638  0.018686112            2 
 2667000   0.81364551   -8.0480044    606.21577  0.018941875  0.018680398            1 
 2668000   0.83549556   -8.0782163    605.65205  0.018917168  0.018674661            1 
 2669000    0.8218406   -8.0719268    606.65461  0.018941383  0.018668921            2 
 2670000   0.81571352   -8.0611072    607.42486  0.018958329   0.01866316            2 
 2671000   0.80960668   -8.0732239    608.48417  0.018984281   0.01865743            2 
 2672000   0.81030029   -8.0119774    606.77792  0.018923962  0.018651719            3 
 2673000   0.81004824   -8.0655543    607.54612  0.018940832  0.018646013            2 
 2674000   0.83328076   -8.0466937    607.09768  0.018919773  0.018640255            1 
 2675000   0.83344839   -8.0851231    607.43872  0.018923325  0.018634509            4 
 2676000   0.83035993   -8.0594764    608.81024  0.018958963  0.018628779            1 
 2677000   0.83027033   -8.0415423    608.34295  0.018937335  0.018623091            2 
 2678000    0.8111785   -8.0031939    608.92031   0.01894823  0.018617397            2 
 2679000   0.80235561   -8.0640151      607.935  0.018910508  0.018611699            2 
 2680000   0.82991483   -8.0443218    608.41837  0.018918482  0.018605984            4 
 2681000   0.80800206   -8.0581207    609.13377  0.018933662  0.018600271            3 
 2682000   0.82662444    -8.080289    608.61941  0.018910621  0.018594541            2 
 2683000   0.82230025   -8.0529392    608.43601  0.018897876  0.018588822            1 
 2684000   0.82760081   -8.0656146    608.09742  0.018880322  0.018583108            3 
 2685000   0.81964366    -8.055309    608.26007  0.018878339  0.018577363            2 
 2686000   0.81816648    -8.049923    608.93604  0.018892282  0.018571615            3 
 2687000   0.83253996   -8.0585459    607.99162  0.018855961   0.01856593            2 
 2688000    0.7996134   -8.0490968     607.9192  0.018846701  0.018560225            2 
 2689000   0.81745073   -8.0823071    607.97687   0.01884148  0.018554497            6 
 2690000   0.81461823   -8.0541613    607.93326  0.018833124  0.018548814            1 
 2691000   0.84333554   -8.0800524    607.93472  0.018826171  0.018543084            1 
 2692000   0.83827823   -8.0579061    608.80388  0.018846084    0.0185374            2 
 2693000   0.82323135   -8.0809803    608.49876  0.018829644  0.018531717            2 
 2694000   0.79326736   -8.0742059    607.52344  0.018792484  0.018525992            9 
 2695000   0.82827497   -8.0251343    609.70086  0.018852841   0.01852031            2 
 2696000   0.81421413   -8.0423504    608.98503  0.018823721  0.018514655            2 
 2697000   0.83437346   -8.0395489     610.2604  0.018856149  0.018509032            3 
 2698000   0.81365097   -8.0492664    609.50553  0.018825844   0.01850339            4 
 2699000   0.82782302   -8.0617016    609.95384  0.018832711   0.01849774            2 
 2700000   0.83468245   -8.0550129    608.69343  0.018786834  0.018492069            5 
 2701000   0.85694242   -8.0597268    608.54272  0.018775229  0.018486396            4 
 2702000   0.81956027    -8.094106    610.04297   0.01881455  0.018480694            1 
 2703000   0.81549885   -8.0725694    609.11605  0.018779013  0.018474979            3 
 2704000   0.81400437   -8.0881723    607.97982  0.018737051  0.018469258            4 
 2705000   0.81074808   -8.0873409    608.10603  0.018734012  0.018463522            2 
 2706000   0.81245052   -8.0435627    610.72404  0.018807712  0.018457839            1 
 2707000   0.81234943   -8.0628123    609.58485  0.018765695  0.018452143            2 
 2708000   0.83407063   -8.0530603    609.16829  0.018745947  0.018446435            2 
 2709000   0.80436504   -8.0759842    608.72167  0.018725288  0.018440703            2 
 2710000   0.82660337   -8.1010954     608.7346  0.018718776  0.018434951            2 
 2711000   0.82672729   -8.0649769    609.27205  0.018728392  0.018429211            1 
 2712000   0.80684831   -8.0779345    610.02248  0.018744545  0.018423464            3 
 2713000    0.8194999   -8.0565784    610.49991  0.018752301  0.018417726            1 
 2714000   0.81491814   -8.0809037    609.52519  0.018715463  0.018412018            1 
 2715000   0.82320092   -8.1090491    609.09296  0.018695303  0.018406296            6 
 2716000   0.81573266   -8.0989508    609.50162  0.018700958  0.018400555            1 
 2717000   0.81136114    -8.082925    608.38632  0.018659868  0.018394808            2 
 2718000   0.81900536   -8.0888472    609.43269  0.018685084  0.018389072            4 
 2719000   0.81647727   -8.0800991    609.39145  0.018676948  0.018383324            1 
 2720000   0.83029532   -8.0463221    610.73801  0.018711336  0.018377649            2 
 2721000   0.83916902   -8.0506254    610.49332  0.018696965  0.018371987            4 
 2722000   0.81101677   -8.0582319    611.32948  0.018715696  0.018366333            3 
 2723000   0.80376846   -8.0860498    610.21385   0.01867468  0.018360673            2 
 2724000   0.82147359   -8.0543995    611.11588   0.01869542  0.018355022            3 
 2725000   0.81602239   -8.0809382    609.76084   0.01864712  0.018349339            2 
 2726000   0.80213764   -8.0725928    611.78471  0.018702149  0.018343667            3 
 2727000   0.83917712   -8.0928269     609.7883  0.018634284  0.018337972            2 
 2728000   0.82596455   -8.0767441    610.02745  0.018634758  0.018332242            3 
 2729000   0.82652813   -8.0741005    608.65249  0.018585944  0.018326563            1 
 2730000   0.79300409   -8.1031234    610.33904  0.018630618  0.018320901            4 
 2731000   0.82127014   -8.1027048    610.79198  0.018637617  0.018315251            2 
 2732000   0.82051913   -8.0701932     610.8814  0.018633523  0.018309601            4 
 2733000   0.80748471   -8.0577281    610.35676  0.018610708  0.018303945            2 
 2734000   0.81440586   -8.0806108    610.54576  0.018609661  0.018298309            1 
 2735000   0.81288157   -8.0850206    610.71952  0.018608151  0.018292647            3 
 2736000   0.81812636   -8.0626027    610.25635  0.018587243  0.018286989            2 
 2737000    0.8116504   -8.0850747    610.27234  0.018580938  0.018281368            2 
 2738000   0.79963051   -8.0897358    610.62151  0.018584779   0.01827572            7 
 2739000   0.80627464   -8.0881806    609.85058  0.018554539  0.018270064            3 
 2740000   0.81159175    -8.115001    610.39884  0.018564442  0.018264404            4 
 2741000   0.79520228   -8.0718202    611.51202  0.018591512  0.018258777            2 
 2742000   0.81938304   -8.0481734    612.19093  0.018605365  0.018253188            1 
 2743000   0.83779765   -8.0917087    611.89478  0.018589585  0.018247603            3 
 2744000   0.82200767   -8.0410332    612.31949  0.018595709  0.018241993            2 
 2745000    0.8147348   -8.0837568    611.36537  0.018559969  0.018236394            1 
 2746000   0.82255746   -8.0640186    611.12478  0.018545909  0.018230783            2 
 2747000   0.80694924   -8.0545962    612.79715   0.01858989  0.018225168            3 
 2748000   0.82609669   -8.0925862    611.70201  0.018549915  0.018219593            1 
 2749000   0.80506088   -8.0978174    611.40738  0.018534236  0.018213946            3 
 2750000   0.79939714   -8.0737561    610.76013  0.018507883  0.018208317            1 
 2751000   0.80449261    -8.065831    612.17243  0.018543936  0.018202678            2 
 2752000   0.81394233   -8.0807331    610.88321  0.018498159  0.018197036            2 
 2753000    0.7999965   -8.0955028    612.50858   0.01854064  0.018191362            2 
 2754000   0.81783414   -8.0919305    611.42208  0.018501031  0.018185671            2 
 2755000   0.79792116   -8.0907027     609.6196  0.018439794  0.018179993            4 
 2756000   0.80503592   -8.1013839    613.28027  0.018543791  0.018174327            3 
 2757000   0.81421222   -8.0736022    611.31892  0.018477781  0.018168634            2 
 2758000   0.80003719   -8.1016861    611.27778  0.018469839  0.018162959            2 
 2759000   0.81619979   -8.1220553    611.58585  0.018472449  0.018157283            2 
 2760000   0.81885698   -8.0738981    611.15133  0.018452637  0.018151596            2 
 2761000   0.81280858   -8.0861682    610.64072  0.018430542  0.018145941            2 
 2762000   0.80031916   -8.0679563    611.61501  0.018453265  0.018140318            5 
 2763000   0.82008893   -8.0484429    614.05803  0.018520269  0.018134703            2 
 2764000   0.79554878    -8.058596    613.47582  0.018496015  0.018129106            2 
 2765000   0.79661556   -8.0723288    612.99796  0.018474923  0.018123494            3 
 2766000   0.82246199   -8.0781008    612.09474  0.018441032  0.018117886            1 
 2767000   0.80737769   -8.0527419     612.1077  0.018434758  0.018112281            5 
 2768000   0.79754873   -8.0596254    613.90386  0.018482173  0.018106669            3 
 2769000    0.8168661   -8.0358398    615.44585  0.018521905  0.018101095            2 
 2770000   0.80347867   -8.0761509     612.6248  0.018430349  0.018095522            2 
 2771000   0.80133233   -8.0790331    613.03473  0.018436026  0.018089917            1 
 2772000   0.79703564   -8.0729468    611.87728  0.018394579  0.018084296            2 
 2773000   0.80415569   -8.1290835    610.22772  0.018338374   0.01807861            1 
 2774000   0.79750429   -8.0961422    613.11537   0.01841851  0.018072964            1 
 2775000   0.81728206   -8.0801746    613.38472  0.018419962  0.018067305            2 
 2776000   0.79591307    -8.100255    612.57739  0.018389091  0.018061652            3 
 2777000   0.81153392   -8.1019598    611.29276  0.018343919  0.018056022            4 
 2778000   0.82337149   -8.1004801    612.54626  0.018374918  0.018050389            2 
 2779000   0.80229086   -8.1150782    613.24244  0.018389182   0.01804475            1 
 2780000   0.81151464   -8.1067513    613.64202  0.018394545  0.018039122            2 
 2781000   0.79393673   -8.1033665    612.27558  0.018346985  0.018033476            2 
 2782000   0.80144353   -8.1086442    611.81902  0.018326714  0.018027828            1 
 2783000   0.81071469    -8.133302    612.08204  0.018328005  0.018022168            1 
 2784000   0.80624547   -8.0944601    612.87787  0.018345243  0.018016531            4 
 2785000   0.78619587   -8.0900795    612.06901  0.018314453   0.01801091            3 
 2786000   0.80165857   -8.1000077    613.05682  0.018337426    0.0180053            7 
 2787000   0.81368394   -8.0615664    613.46635  0.018343091  0.017999672            2 
 2788000   0.80059015   -8.1052774    613.26318  0.018330439  0.017994046            2 
 2789000   0.80157525   -8.1148523    613.68353  0.018336427  0.017988425            2 
 2790000   0.82038936   -8.1111283    612.89697  0.018306361  0.017982773            2 
 2791000   0.78146711    -8.112707    612.66374  0.018292838  0.017977141            1 
 2792000   0.79751326   -8.0801152     613.5404  0.018312452  0.017971517            1 
 2793000    0.8079633   -8.0934033    613.16947  0.018294828  0.017965886            3 
 2794000   0.79849741   -8.1088317    613.58362  0.018300633  0.017960283            1 
 2795000   0.83212827   -8.0803617    613.65965  0.018296352  0.017954649            1 
 2796000   0.79981683   -8.1197068    611.29088  0.018219208   0.01794899            1 
 2797000   0.82057762    -8.127048    611.86925  0.018229926  0.017943314            2 
 2798000   0.79280943   -8.0976438     612.6164  0.018245664   0.01793767            4 
 2799000   0.79646852   -8.0975243    613.30107  0.018259529  0.017931981            3 
 2800000   0.80266519   -8.1088064    612.81896  0.018238659  0.017926294            2 
 2801000   0.79360006   -8.1567173    611.44789  0.018191357  0.017920599            3 
 2802000   0.79332379   -8.0940039    613.35877  0.018241695  0.017914923            4 
 2803000    0.8041372   -8.0900358    614.51911  0.018269685   0.01790929            2 
 2804000   0.79296784   -8.1281668    612.29285  0.018197006  0.017903624            3 
 2805000   0.81807197   -8.1352735    612.11847  0.018185338  0.017897957            2 
 2806000   0.79143015   -8.1040648    613.22518  0.018211724  0.017892301            1 
 2807000   0.80682561   -8.1158433    612.72244  0.018190311    0.0178866            1 
 2808000   0.79244449   -8.1358558    612.10451  0.018165495  0.017880886            1 
 2809000   0.81060862   -8.1151355    612.79841  0.018179613  0.017875189            2 
 2810000   0.79774565   -8.1122895    611.78714  0.018143153  0.017869517            1 
 2811000   0.80373684   -8.1033762    613.75668  0.018195087  0.017863828            2 
 2812000   0.80581405   -8.1012562    613.01215  0.018166553  0.017858164            1 
 2813000   0.80028028   -8.1194239    612.45579  0.018143613  0.017852488            2 
 2814000   0.79592195   -8.1038073    614.38265  0.018194227  0.017846824            1 
 2815000   0.80974686   -8.1105436    612.90615  0.018144054  0.017841142            4 
 2816000    0.8181524   -8.1256867    613.11756  0.018143867  0.017835462            2 
 2817000   0.80649237    -8.117172    612.38187  0.018115663   0.01782977            1 
 2818000   0.81631062    -8.104819    613.62881  0.018146109  0.017824129            2 
 2819000   0.80049293    -8.111474    612.84199  0.018116412  0.017818459            2 
 2820000   0.81073109    -8.087971    613.76824  0.018137359  0.017812805            1 
 2821000   0.79815814    -8.106703    613.94863  0.018136259  0.017807143            3 
 2822000   0.80550219   -8.1148001    614.13799  0.018135424   0.01780151            1 
 2823000   0.79995761   -8.1294928     612.7007  0.018086572  0.017795868            1 
 2824000   0.81470734   -8.1043464    614.57067  0.018135348   0.01779019            2 
 2825000   0.80177505   -8.1625464    613.19152  0.018088245  0.017784523            5 
 2826000   0.79588201   -8.1406466    612.57839  0.018063765  0.017778865            2 
 2827000   0.81457308   -8.1301922    613.22192  0.018076345  0.017773213            2 
 2828000    0.8084543    -8.150493     612.4197  0.018046314  0.017767503            1 
 2829000   0.79754279   -8.1630467    612.83588  0.018052194  0.017761789            2 
 2830000    0.7747274   -8.1797232    612.37154  0.018032142  0.017756063            1 
 2831000   0.82270485    -8.147018    611.83244  0.018009903  0.017750369            2 
 2832000   0.81319822   -8.1538671    612.06659  0.018010434  0.017744677            2 
 2833000   0.79821824    -8.147267    613.14049  0.018035666  0.017738994            2 
 2834000   0.79570266   -8.1488954    613.65031  0.018044293  0.017733299            2 
 2835000   0.79493128   -8.1408289    613.31215  0.018027988  0.017727615            2 
 2836000   0.80351343   -8.1112224    613.27187  0.018020448  0.017721953            1 
 2837000   0.78848473   -8.1341105    613.21567  0.018012445  0.017716309            1 
 2838000   0.79112332     -8.16057    612.19685  0.017976182  0.017710664            1 
 2839000   0.79643717   -8.1475411    613.73777  0.018015081  0.017705002            1 
 2840000   0.79944108   -8.1298974    614.97592  0.018045068  0.017699365            2 
 2841000    0.8129408   -8.1191247    613.85945  0.018005968  0.017693747            2 
 2842000   0.81059932    -8.152559    613.53657  0.017990164  0.017688118            2 
 2843000   0.79318055   -8.0994236    613.80273  0.017991638  0.017682472            2 
 2844000   0.78770033   -8.1389926    613.52555   0.01797719  0.017676862            2 
 2845000   0.77804897   -8.1254388    614.26768  0.017992609  0.017671225            8 
 2846000   0.79485371    -8.128096    615.43366  0.018020428  0.017665604            2 
 2847000   0.79536873   -8.1248448    615.05493  0.018003013  0.017659933            4 
 2848000   0.80131488   -8.1338299    613.95427  0.017964486  0.017654298            2 
 2849000   0.78896003   -8.1258867    614.41137  0.017971551  0.017648671            2 
 2850000   0.80101948   -8.1226402     614.9274  0.017980333  0.017643052            2 
 2851000   0.78534231   -8.1230649      615.195  0.017981848  0.017637461            3 
 2852000   0.78823554   -8.1185739    613.27644  0.017919485  0.017631856            3 
 2853000   0.78224381   -8.1280287    615.03512  0.017964573  0.017626245            1 
 2854000   0.78809507   -8.1342784    615.21584  0.017963555  0.017620637            3 
 2855000   0.78928806   -8.1360449    616.03068  0.017981047  0.017615039            1 
 2856000   0.80225506   -8.1666518    613.73787  0.017907851  0.017609409            2 
 2857000   0.77782719   -8.1331534    614.80335  0.017932661  0.017603797            3 
 2858000   0.78171524   -8.1315483    614.55843  0.017919245  0.017598188            2 
 2859000   0.80257834   -8.1188408    614.20123  0.017902566  0.017592563            3 
 2860000   0.79722362   -8.1255342    614.23359  0.017897249  0.017586952            2 
 2861000   0.79043984   -8.1130004    615.15149  0.017917729  0.017581334            4 
 2862000   0.79810394   -8.1482717    613.61646  0.017866773  0.017575699            1 
 2863000   0.78065412   -8.1317927    613.26166  0.017850205  0.017570057       -1e+20 
 2864000   0.77920174   -8.1440274    613.21101  0.017842499  0.017564425            1 
 2865000   0.79506397   -8.1231594    613.58823  0.017847243  0.017558773            1 
 2866000   0.78897902   -8.1407183    615.15109  0.017886459   0.01755313            1 
 2867000   0.79762919   -8.1198628    615.58326  0.017892782  0.017547508            2 
 2868000   0.77981348   -8.1247578    613.91413  0.017838044  0.017541879            5 
 2869000   0.77908163    -8.125775    613.73268  0.017826556  0.017536242            2 
 2870000   0.79876548   -8.1442628    614.40541  0.017839878   0.01753059            3 
 2871000   0.79080225   -8.1512127    613.50145  0.017807426  0.017524929            2 
 2872000   0.80405411   -8.1299126    614.34676  0.017825753  0.017519274            1 
 2873000   0.80679406   -8.1282701    615.75948  0.017860525  0.017513657            2 
 2874000   0.81247211   -8.1456468     614.4108  0.017815205  0.017508019            3 
 2875000     0.805349   -8.1712974    614.02418  0.017797802  0.017502352            2 
 2876000   0.76919234   -8.1157539    614.52726  0.017806191  0.017496716            2 
 2877000   0.77615528   -8.1294864    613.99955  0.017784717  0.017491086            2 
 2878000    0.8066193   -8.1436584    614.59818   0.01779587  0.017485475            3 
 2879000   0.79333577   -8.1170075    616.36824  0.017840924   0.01747988            3 
 2880000   0.79896436   -8.1699383    614.58055  0.017783002  0.017474264            3 
 2881000   0.78170437    -8.156647    614.10139   0.01776297  0.017468631            2 
 2882000   0.80507145   -8.1279021    614.24888  0.017761071  0.017462978            2 
 2883000   0.79473069   -8.1126676    615.92522  0.017803365  0.017457342            2 
 2884000   0.78710098   -8.1444776      614.259  0.017749046  0.017451677            1 
 2885000   0.80926235   -8.1575232    614.32541  0.017744813  0.017446047            2 
 2886000   0.77336745   -8.1342289    616.08386  0.017789439   0.01744043            4 
 2887000   0.76771437   -8.1459568    615.34959  0.017762083  0.017434801            2 
 2888000   0.79951732   -8.1474141    615.10991  0.017749016  0.017429174            2 
 2889000   0.77683831   -8.1443211    616.16568  0.017773327  0.017423552            2 
 2890000   0.79474597   -8.1567166    615.47216  0.017747179  0.017417912            2 
 2891000   0.79615503   -8.1302588    617.04478  0.017786371  0.017412292            2 
 2892000   0.79465974   -8.1612539    614.51249  0.017707253  0.017406649            2 
 2893000   0.77751897   -8.1465718    617.05531  0.017774378  0.017401012            2 
 2894000   0.79042329   -8.1445654    614.76938  0.017702413  0.017395385            1 
 2895000    0.7881993   -8.1465503     615.0516  0.017704421  0.017389719            1 
 2896000   0.77774534   -8.1478954    614.04402  0.017669315  0.017384058            2 
 2897000   0.80489781   -8.1688057    614.48013   0.01767576  0.017378385            1 
 2898000   0.79095952   -8.1641396    614.55183  0.017671723  0.017372711            3 
 2899000   0.78083374   -8.1354875    613.98863  0.017649437  0.017367043            1 
 2900000   0.78660285   -8.1585586    613.91127  0.017641128  0.017361397            1 
 2901000   0.77534984   -8.1266602    615.25598  0.017673675  0.017355768            2 
 2902000   0.78543022    -8.168189    614.95294  0.017658883  0.017350115            3 
 2903000   0.77998322   -8.1613267    615.64711  0.017672727  0.017344459            2 
 2904000   0.79898219   -8.1429301    616.16234  0.017681426  0.017338812            1 
 2905000   0.79350391   -8.1833758    614.37479  0.017624062   0.01733315            1 
 2906000   0.79216097   -8.1592412     615.9485  0.017663125  0.017327463            2 
 2907000   0.78009077   -8.1429577    616.24907  0.017665665  0.017321823            2 
 2908000   0.79238642   -8.1480103    615.56877  0.017640096  0.017316192            3 
 2909000   0.80596648   -8.1375701    615.95377   0.01764506  0.017310596            2 
 2910000   0.78096023   -8.1598244    616.04438  0.017641592  0.017304994            1 
 2911000   0.77686038    -8.157513    615.31707  0.017614711  0.017299389            3 
 2912000   0.78643086    -8.145012    616.19517   0.01763379  0.017293778            2 
 2913000   0.78198655   -8.1162742    616.02907  0.017622985  0.017288179            3 
 2914000    0.7954727   -8.1653928    615.78548  0.017609971  0.017282583            1 
 2915000   0.78905728   -8.1225684    617.43723   0.01765115  0.017277002            2 
 2916000   0.78496652   -8.1369734    618.03212  0.017662098   0.01727141            1 
 2917000   0.77905151    -8.176135    615.27688  0.017577331   0.01726582            2 
 2918000   0.80016691   -8.1774995    616.24006  0.017598814  0.017260222            2 
 2919000    0.7692632   -8.1413567    615.34277  0.017567168  0.017254635            1 
 2920000    0.7848537   -8.1538836    616.97072  0.017607612   0.01724903            2 
 2921000    0.7784597   -8.1687129    616.35796  0.017584102  0.017243435            2 
 2922000   0.78568386   -8.1726646    615.43769  0.017551839  0.017237833            4 
 2923000    0.7784705   -8.1691802    615.84733  0.017557513  0.017232224            3 
 2924000   0.79239719   -8.1711113    615.66309  0.017546258   0.01722663            3 
 2925000    0.7748857   -8.1721813    617.35414  0.017588437  0.017221058            1 
 2926000   0.78187997   -8.1835869    615.89623  0.017540904  0.017215468            1 
 2927000   0.78044276    -8.157637     617.4451  0.017579009  0.017209902            2 
 2928000   0.77199184   -8.1678764    617.69315  0.017580065  0.017204355            2 
 2929000   0.77935696   -8.1077496    617.39984  0.017565718  0.017198778            1 
 2930000   0.78775789   -8.1327637    616.96431  0.017547335  0.017193224            3 
 2931000   0.77400658   -8.1498975    617.12622  0.017545952  0.017187668            2 
 2932000   0.79194942   -8.1684535    614.33673  0.017460685  0.017182077            2 
 2933000   0.77274798   -8.1471778     616.7545  0.017523426  0.017176516            2 
 2934000   0.77050823   -8.1808375    615.82976  0.017491188  0.017170942            2 
 2935000   0.78114095   -8.1726135    617.06333  0.017520253  0.017165367            2 
 2936000   0.77653132   -8.1573341    615.67628  0.017474917  0.017159772            1 
 2937000    0.7799117   -8.1630544    616.09008  0.017480708  0.017154185            2 
 2938000   0.78055258   -8.1760804     616.4227  0.017484193  0.017148592            2 
 2939000   0.77803867   -8.1824709    616.25962   0.01747362  0.017143008            5 
 2940000    0.7755062   -8.1779001     614.5149  0.017418223  0.017137417            2 
 2941000   0.78142009   -8.1720261    616.65999  0.017473082  0.017131829            3 
 2942000   0.76913376   -8.1748409    618.12914  0.017508756  0.017126231            1 
 2943000   0.78884114   -8.1984431    615.76702  0.017435922  0.017120638            5 
 2944000   0.79082586   -8.1773291    616.74938  0.017457806  0.017115046            5 
 2945000   0.77710004   -8.1896244     615.8668  0.017426904  0.017109434            3 
 2946000   0.76811097   -8.1684867    616.98651  0.017452662  0.017103824            2 
 2947000    0.7814876   -8.1771181    616.82929  0.017442294  0.017098241            4 
 2948000   0.79363473   -8.1778071    616.89882  0.017438343  0.017092649            4 
 2949000   0.76795173   -8.1841899    617.47498  0.017448711  0.017087062            2 
 2950000   0.78419742   -8.1675084    617.17995  0.017434462  0.017081501            2 
 2951000    0.7887111   -8.1973324    616.37607  0.017405853  0.017075928            1 
 2952000   0.78373001   -8.1638433    616.98479  0.017417141  0.017070383            3 
 2953000   0.76192212   -8.1388074    618.35461  0.017449899  0.017064855            3 
 2954000   0.76318419   -8.1691374    618.68274  0.017453248  0.017059296            4 
 2955000   0.77945812   -8.1516357    616.28313  0.017379671  0.017053725            4 
 2956000   0.76802511   -8.1704841    616.70826  0.017385777  0.017048166            4 
 2957000   0.78186162   -8.1878129    616.85646  0.017384073  0.017042609            2 
 2958000    0.7840822   -8.1742734    616.78896  0.017376295  0.017037044            1 
 2959000   0.76187161   -8.1847417    615.35521  0.017330044  0.017031476            2 
 2960000   0.76119953   -8.1781298    616.18176  0.017347459   0.01702591            2 
 2961000   0.77967264   -8.2021984    616.19928  0.017342094  0.017020333            5 
 2962000   0.78758999   -8.1963622    616.31673  0.017339543  0.017014774            4 
 2963000   0.76459511   -8.2067907    616.56639  0.017340713  0.017009206            3 
 2964000   0.78541915   -8.1755937    616.49776  0.017332933  0.017003612            2 
 2965000   0.75476491   -8.2136845     616.9712  0.017340394  0.016998028            2 
 2966000   0.76335429   -8.2109422    615.97549  0.017306571  0.016992432            2 
 2967000   0.79044354   -8.1785572    616.00133  0.017301464  0.016986848            2 
 2968000   0.78421258   -8.1822805    615.77502  0.017289281   0.01698125            3 
 2969000    0.7754053   -8.1813443    617.21547  0.017323888   0.01697568            3 
 2970000   0.77636175   -8.2058691    617.20918  0.017317878  0.016970106            2 
 2971000   0.77456253    -8.167846     617.3953   0.01731727  0.016964509            3 
 2972000   0.79486677   -8.2075476    616.29231  0.017280516  0.016958924            2 
 2973000   0.77615036    -8.165675    618.48895  0.017336275   0.01695336            2 
 2974000   0.78930088   -8.1870051    617.61087  0.017305841  0.016947805            1 
 2975000   0.75926206   -8.2111504    616.95528   0.01728166  0.016942229            2 
 2976000   0.76315701   -8.1775388    617.70359  0.017296808  0.016936661            1 
 2977000   0.75709811   -8.2078539    616.58871  0.017259789  0.016931113            4 
 2978000   0.77305325   -8.2099212    617.11749   0.01726879  0.016925521            3 
 2979000   0.75112653   -8.2253181    616.68476  0.017250888  0.016919926            3 
 2980000   0.78028804   -8.1737411    618.66288  0.017300416  0.016914353            6 
 2981000   0.77999036   -8.1905343    616.99071  0.017247867  0.016908764            2 
 2982000   0.76608773   -8.1993565    617.45025  0.017254925    0.0169032            3 
 2983000   0.78327765   -8.1904086     617.6405  0.017254456  0.016897654            1 
 2984000   0.78311037   -8.2051634    616.54121  0.017217974  0.016892109            2 
 2985000   0.78558793   -8.2001904    616.68097  0.017216107  0.016886536            2 
 2986000    0.7644844   -8.1947932    615.37461  0.017173884  0.016880934            4 
 2987000   0.78445394   -8.2055636    617.71912  0.017233543   0.01687536            2 
 2988000   0.77960768   -8.1911332    618.41591  0.017247209  0.016869772            1 
 2989000   0.78708416   -8.2005732    618.43265  0.017241905   0.01686421            4 
 2990000   0.76407361   -8.1872617    616.87543  0.017192738   0.01685866            4 
 2991000   0.77150175   -8.2147448    616.04523  0.017163859  0.016853096            1 
 2992000   0.78148384   -8.2314275    616.77131  0.017178345  0.016847518            2 
 2993000   0.78493897   -8.2036548    617.14807  0.017183096  0.016841925            5 
 2994000   0.77431831   -8.2485441    615.94595  0.017143897  0.016836326            2 
 2995000   0.78132389   -8.2248526    617.10534  0.017170432   0.01683073            8 
 2996000   0.77398999   -8.1771966    616.02003  0.017134514   0.01682514            2 
 2997000   0.76838303   -8.2062027    617.63285  0.017173642  0.016819576            3 
 2998000   0.77815696   -8.2055196    617.41896  0.017161968  0.016814025            4 
 2999000   0.78174997   -8.2015152    618.73777  0.017192891  0.016808455            2 
 3000000   0.77356888    -8.206661    616.07765  0.017113268  0.016802887            3 
 3001000   0.76851826   -8.2106453    617.82407  0.017156061  0.016797314            9 
 3002000   0.78979926   -8.1699357    617.63504  0.017145099  0.016791765            2 
 3003000   0.75946871   -8.1966189    617.87587  0.017146072  0.016786236            2 
 3004000   0.78372781   -8.1841545    617.81145  0.017138578  0.016780699            6 
 3005000   0.77819556   -8.1735165    618.42356  0.017149849  0.016775187            3 
 3006000   0.76436397   -8.2164624    618.11435  0.017135572  0.016769662            2 
 3007000   0.76775987   -8.2018451    619.13345  0.017158116  0.016764175            2 
 3008000    0.7820495   -8.2055247    617.84694   0.01711677    0.0167587            3 
 3009000   0.77695808   -8.1919725    617.99309  0.017115129  0.016753214            4 
 3010000     0.751111   -8.1769138    618.85868  0.017133407  0.016747745            3 
 3011000     0.766995   -8.1738955    619.02964  0.017132449  0.016742294            4 
 3012000   0.77896857   -8.1931384    619.09796  0.017128651  0.016736848            4 
 3013000   0.76521695   -8.1782613    619.35749  0.017130144  0.016731418            1 
 3014000   0.75149069   -8.1657089    619.80391  0.017136804  0.016725977            2 
 3015000   0.78313004   -8.1914587    619.85719  0.017132592  0.016720519            3 
 3016000   0.77004094   -8.2054789    620.34649  0.017140431  0.016715054            4 
 3017000   0.77280612   -8.1934317      618.652  0.017087946  0.016709574            2 
 3018000   0.76028989   -8.1901803    620.52341  0.017133958  0.016704102            2 
 3019000   0.76451221   -8.2018752     617.9399   0.01705697   0.01669864            4 
 3020000   0.78631297   -8.1927398    618.99456  0.017080424  0.016693182            2 
 3021000   0.76965933   -8.1715573    618.69043  0.017066381  0.016687721            1 
 3022000   0.76732997   -8.1851325    619.07934  0.017071458  0.016682249            1 
 3023000   0.77253999   -8.2156925    619.34745  0.017073201  0.016676756            1 
 3024000     0.767589   -8.2236288    618.57904   0.01704638  0.016671256            2 
 3025000   0.75804804   -8.2000796    617.88414  0.017021602  0.016665748            5 
 3026000    0.7808515   -8.1879254    620.12623  0.017077722  0.016660267            2 
 3027000   0.75265953    -8.211253     617.4023   0.01699709  0.016654822            1 
 3028000   0.78041466   -8.2128997    620.06105  0.017064648  0.016649368            2 
 3029000   0.76423959    -8.207465    619.34073  0.017039197  0.016643907            2 
 3030000    0.7601697   -8.1929144    618.90481  0.017021584  0.016638448            3 
 3031000   0.76257384   -8.2297824    618.65862    0.0170092  0.016632963            2 
 3032000   0.76192266   -8.2476191    618.11553  0.016988664  0.016627473            2 
 3033000   0.75639002   -8.2377645     617.8409  0.016975516  0.016621973            1 
 3034000   0.75430151   -8.2073159    619.59106  0.017017992  0.016616454            2 
 3035000   0.76551974   -8.1847858    619.23091  0.017002496  0.016610981            2 
 3036000   0.76766321   -8.2401571    618.60845   0.01697981   0.01660551            3 
 3037000   0.76196427   -8.2357694    617.79041  0.016951773  0.016600037            2 
 3038000   0.76671541   -8.2364027     618.4611   0.01696459  0.016594564            1 
 3039000   0.77784421   -8.2375426    618.46096  0.016959004  0.016589077            2 
 3040000     0.757172   -8.2147329    618.21215  0.016946605  0.016583605            2 
 3041000   0.77268394   -8.2176157    619.95549  0.016988805  0.016578142            1 
 3042000   0.77285223   -8.2189984    619.58044  0.016972946  0.016572684            2 
 3043000   0.75224939   -8.2111422    619.85877  0.016974991  0.016567242            2 
 3044000   0.77291717     -8.22643    621.07631  0.017002746  0.016561802            4 
 3045000   0.76026549   -8.2242197    618.13002   0.01691653  0.016556352            7 
 3046000   0.77182644   -8.2190252     619.5669  0.016950287  0.016550886            2 
 3047000   0.75543383   -8.2571813    618.92039  0.016927043  0.016545419            3 
 3048000   0.74834516   -8.2559016    619.23785  0.016930169  0.016539964            2 
 3049000   0.75697816   -8.2282349    617.45383  0.016875856  0.016534479            2 
 3050000    0.7718872   -8.2739956    619.02418  0.016913229  0.016529013            2 
 3051000   0.76495073   -8.2487584    618.31011  0.016888182  0.016523553            3 
 3052000   0.77302136    -8.230709    618.28975  0.016882092  0.016518097            1 
 3053000   0.76984881   -8.2549557    618.26608  0.016875917  0.016512637            5 
 3054000   0.76822391   -8.2706975    618.16013    0.0168675   0.01650716            4 
 3055000   0.75984571   -8.2494124    618.88869  0.016881852  0.016501703            1 
 3056000   0.73853307   -8.2248922    619.47865  0.016892415  0.016496273            2 
 3057000   0.74394846   -8.2267318    619.05433  0.016875323  0.016490864            2 
 3058000   0.75981189   -8.2245783    619.27318  0.016875768  0.016485454            2 
 3059000   0.76022006   -8.2153572    621.23865  0.016923794  0.016480056            2 
 3060000   0.76918046   -8.2004154    621.05492   0.01691326   0.01647466            2 
 3061000   0.76033901   -8.2295777    620.18174  0.016883963  0.016469258            3 
 3062000   0.75379334   -8.2007077    621.84585  0.016923738  0.016463846            1 
 3063000   0.76073147   -8.2218465    621.52139  0.016909386  0.016458437            1 
 3064000   0.75115101   -8.2450369    620.09439  0.016865056  0.016453037            3 
 3065000    0.7824931   -8.2374739    620.49691  0.016870498   0.01644762            4 
 3066000   0.75538645   -8.2190758    621.42575  0.016890241   0.01644222            1 
 3067000   0.76635858   -8.2351937    618.71737  0.016811145  0.016436803            1 
 3068000   0.75043938   -8.2467474    618.66448  0.016804229  0.016431363            3 
 3069000   0.76253459   -8.2403053    618.74371  0.016800905  0.016425936            2 
 3070000   0.76698333   -8.2253917     619.2734   0.01680981  0.016420517            3 
 3071000   0.76674361    -8.215982    619.76569  0.016817695  0.016415105            1 
 3072000   0.74833347   -8.2326978    620.32918  0.016827506  0.016409691            1 
 3073000   0.77001691   -8.2474273    618.70645  0.016778025  0.016404282            3 
 3074000   0.76688934   -8.2308281    619.87968  0.016804372  0.016398864            2 
 3075000   0.77500999   -8.2272733    620.06446  0.016803915  0.016393456            3 
 3076000    0.7576445   -8.2304573    620.23397  0.016803044  0.016388037            2 
 3077000   0.76583976   -8.2200921     620.4367  0.016803074   0.01638264            2 
 3078000   0.74648816   -8.2336724    620.12236  0.016789104  0.016377247            2 
 3079000   0.75988139    -8.237682     620.7764  0.016801353  0.016371842            1 
 3080000   0.75181883   -8.2314677    620.02735  0.016775632  0.016366448            2 
 3081000   0.76907597   -8.2288626    619.87494  0.016766065  0.016361029            2 
 3082000   0.76070476   -8.2434287    619.42681  0.016748508  0.016355615            2 
 3083000   0.75671689   -8.2584853    618.86025  0.016727761  0.016350192            1 
 3084000   0.77678136   -8.2241659    619.96923  0.016752303  0.016344786            2 
 3085000   0.77677826   -8.2428046    619.16994  0.016725282  0.016339384            2 
 3086000   0.76561661   -8.2395776    620.96487  0.016768332  0.016333968            1 
 3087000   0.74783088   -8.2363408    620.98497  0.016763443  0.016328587            2 
 3088000   0.77051227   -8.2715092    618.63195  0.016694515  0.016323201            1 
 3089000   0.75855209   -8.2394422    619.16306  0.016703439  0.016317811            2 
 3090000   0.75296889   -8.2377965     620.1327  0.016724183  0.016312415            1 
 3091000    0.7584941   -8.2558876    620.63629  0.016732349  0.016306986            2 
 3092000   0.74693008    -8.271629    620.39205  0.016720355  0.016301585            2 
 3093000   0.75387044   -8.2330501    619.55911  0.016692508  0.016296168            2 
 3094000   0.75735526   -8.2337746    620.76778  0.016719667  0.016290768            3 
 3095000    0.7454639   -8.2705311    620.49815  0.016707005  0.016285348            3 
 3096000   0.74602424   -8.2710063     619.2083   0.01666689   0.01627995            2 
 3097000   0.76432686    -8.234673    619.33676  0.016664965  0.016274561            4 
 3098000   0.75683814   -8.2508495    619.70043  0.016669368   0.01626916            2 
 3099000   0.76463035   -8.2645282    617.87917  0.016615015  0.016263753            6 
 3100000   0.76216051   -8.2488144    620.68333  0.016685036  0.016258338            2 
 3101000   0.76294088   -8.2453313    619.64875  0.016651853  0.016252929            2 
 3102000   0.74940104   -8.2411745    619.27235  0.016636373  0.016247526            2 
 3103000   0.74715365   -8.2418205    621.12563  0.016680783  0.016242128            1 
 3104000   0.76487871   -8.2453692    621.23438  0.016678329  0.016236739            2 
 3105000   0.75344911    -8.241131    621.60699  0.016682957  0.016231356            2 
 3106000   0.74523206   -8.2600166    619.60581  0.016623895  0.016225969            2 
 3107000   0.74573509   -8.2430778    620.32599   0.01663786  0.016220591            3 
 3108000   0.74146257   -8.2324957    620.81865  0.016645717  0.016215195            2 
 3109000   0.76295514   -8.2627743    620.93078  0.016643368  0.016209803            3 
 3110000   0.73522115   -8.2825272    619.91881  0.016610901  0.016204395            2 
 3111000   0.74888203   -8.2632357     620.6236   0.01662444  0.016198996            2 
 3112000    0.7478725   -8.2507877     618.9251  0.016573616  0.016193607            2 
 3113000   0.73806922   -8.2750714    619.99328  0.016596886  0.016188226            4 
 3114000   0.75763933   -8.2979909     619.4247  0.016576341  0.016182852            2 
 3115000    0.7593043   -8.2668067    621.05516  0.016614638  0.016177451            2 
 3116000   0.76746974    -8.276451    619.69101  0.016572823  0.016172054            2 
 3117000   0.76471812   -8.2590621    619.69626  0.016567647  0.016166655            2 
 3118000   0.74198089   -8.2542791    619.82873  0.016565874  0.016161263            2 
 3119000   0.73590476   -8.2312705    620.57379  0.016580469  0.016155876            1 
 3120000   0.74601207   -8.2478427    620.68213  0.016578048  0.016150504            4 
 3121000   0.76488469    -8.250934    620.55319  0.016569294  0.016145126            3 
 3122000   0.74952363   -8.2349078    620.96023  0.016574851  0.016139754            3 
 3123000   0.74164052   -8.2618631    619.88366  0.016540817  0.016134351            1 
 3124000   0.75249184   -8.2518442    620.73168  0.016558143  0.016128962            2 
 3125000   0.77086308     -8.27241    618.97919  0.016506112  0.016123571            2 
 3126000   0.72927619   -8.2809604    619.43549  0.016512996   0.01611818            1 
 3127000   0.74382048   -8.2388387    622.14318  0.016579874  0.016112805            2 
 3128000   0.76439396   -8.2574473    620.51158  0.016531106  0.016107439            1 
 3129000   0.76540211   -8.2490063    621.52268  0.016552751  0.016102069            2 
 3130000   0.74685001   -8.2286716    620.41312  0.016517921  0.016096702            4 
 3131000   0.76401008   -8.2408207     621.9632  0.016553902  0.016091332            6 
 3132000   0.75092982    -8.246408    619.10634  0.016472604  0.016085985            2 
 3133000    0.7561273    -8.246254     620.1099  0.016494039  0.016080631            3 
 3134000   0.75834514   -8.2718385    621.24099  0.016518852  0.016075273            2 
 3135000   0.76356992   -8.2364359     622.0937  0.016536249  0.016069913            3 
 3136000   0.74879586   -8.2791198     619.4993  0.016462035   0.01606456            4 
 3137000   0.75347706   -8.2815978    620.71442  0.016489067  0.016059192            3 
 3138000   0.75221699   -8.2595068    621.17235  0.016495973  0.016053837            1 
 3139000   0.75339318      -8.2763    620.50996  0.016473133  0.016048496            2 
 3140000   0.75595102   -8.2677382    620.63101  0.016471099   0.01604314            1 
 3141000   0.74198435   -8.2316053     622.0989    0.0165048  0.016037778            2 
 3142000   0.73162261   -8.2523708    621.63632  0.016487278  0.016032445            2 
 3143000   0.73995717   -8.2534009    620.96649  0.016464272    0.0160271            1 
 3144000   0.75161062   -8.2700325    620.81085   0.01645491  0.016021748            2 
 3145000   0.74833067   -8.2585057    622.31817  0.016489618  0.016016379            2 
 3146000   0.75967051   -8.2730387    619.92494  0.016420983  0.016011014            2 
 3147000   0.72723703   -8.2558441    619.35782  0.016400747  0.016005658            2 
 3148000   0.75074764   -8.2615673    620.66076  0.016430029  0.016000316            3 
 3149000   0.74591014   -8.2721228    621.39002   0.01644411  0.015994997            4 
 3150000   0.77187354   -8.2561495    622.02754  0.016455755  0.015989643            2 
 3151000   0.74189762   -8.2614637    621.97075  0.016449031  0.015984312            2 
 3152000   0.75947044   -8.2718442    620.27413  0.016398956  0.015978973            1 
 3153000   0.75791455   -8.2613724    620.52638  0.016400422  0.015973624            2 
 3154000   0.76278179   -8.2616569    619.85202  0.016377405  0.015968282            4 
 3155000   0.74519584   -8.2527559    620.32164  0.016384618  0.015962932            4 
 3156000   0.75530361   -8.2709283    621.96245  0.016422752  0.015957575            2 
 3157000   0.72395682   -8.2575477    620.02822  0.016366493  0.015952198            1 
 3158000   0.74920476   -8.2471926    622.24637  0.016419843  0.015946848            1 
 3159000   0.74640948   -8.2529809    621.05977  0.016383343  0.015941533            2 
 3160000   0.75001999   -8.2747483    622.10297  0.016405669  0.015936219            2 
 3161000   0.75235548   -8.2751226    620.24694  0.016351549  0.015930892            3 
 3162000   0.75426559   -8.2472662    620.59457  0.016355539   0.01592557            3 
 3163000   0.75527991    -8.266687    622.82529  0.016409139   0.01592024            4 
 3164000   0.73314481   -8.2537474    622.61603  0.016398442  0.015914947            2 
 3165000   0.76498863   -8.2466559    622.87215  0.016400004  0.015909655            3 
 3166000    0.7295396   -8.2632944    621.91294  0.016369576  0.015904361            7 
 3167000   0.73606884   -8.2518663    621.41031  0.016351182  0.015899058            3 
 3168000   0.75204637   -8.2863235    620.87162   0.01633185  0.015893756            2 
 3169000   0.74339835   -8.2693338    621.51471  0.016343608  0.015888428            3 
 3170000   0.74804978   -8.2839953    622.00576  0.016351361  0.015883102            2 
 3171000   0.74241297   -8.2624532    621.21217  0.016325349  0.015877793            3 
 3172000     0.742347   -8.2377045    622.92495  0.016365199   0.01587251            1 
 3173000   0.75160687   -8.2590624    621.53942  0.016323653  0.015867239            3 
 3174000   0.75488516   -8.2383144    623.17655  0.016361493   0.01586197            2 
 3175000   0.71473975   -8.2640468    622.47364  0.016337891  0.015856696            1 
 3176000   0.73701898   -8.2611423     621.4582  0.016306103  0.015851415            1 
 3177000   0.73655958   -8.2443617    622.03923  0.016316211  0.015846119            1 
 3178000   0.72799671   -8.2716768    621.82674  0.016305505  0.015840824            3 
 3179000   0.74536609   -8.2911861    622.15019  0.016308855  0.015835544            3 
 3180000   0.73084459    -8.268628    620.97519  0.016272935  0.015830249            2 
 3181000      0.75637    -8.273416    621.94746   0.01629329  0.015824949            3 
 3182000   0.74288063   -8.2934775    619.28764  0.016218511  0.015819651            2 
 3183000   0.75034264   -8.2927147    621.11391  0.016261229  0.015814375            6 
 3184000   0.73411527   -8.2630643     622.0012  0.016279345  0.015809121            2 
 3185000   0.71526102   -8.2259547    623.02966  0.016301142  0.015803865            4 
 3186000   0.75605111   -8.2642474    623.53953  0.016309362  0.015798607            3 
 3187000   0.71971002   -8.2862636    623.05758  0.016291643  0.015793358            1 
 3188000   0.73692282   -8.2648798     622.0045  0.016259005  0.015788067            3 
 3189000   0.74350299    -8.275904    622.06882  0.016255587  0.015782795            1 
 3190000   0.74925864   -8.2657029    621.62997  0.016239028  0.015777516            2 
 3191000   0.75004758   -8.2812619    623.07152  0.016271585  0.015772254            4 
 3192000   0.73433694   -8.2796556    622.78628   0.01625904  0.015767017            1 
 3193000   0.73111405   -8.2591713    621.41803  0.016218239  0.015761763            5 
 3194000   0.75157576   -8.2862856    620.44174  0.016187689  0.015756502            2 
 3195000   0.75309772    -8.245214    622.65807   0.01624043  0.015751229            2 
 3196000   0.74631239   -8.3011209    622.05027    0.0162195  0.015745955            2 
 3197000   0.72646642   -8.2868046    621.55246  0.016201451  0.015740685            5 
 3198000   0.75344668   -8.2716878    622.10297   0.01621073  0.015735424            2 
 3199000   0.74119795   -8.2812081    622.64472  0.016219775  0.015730164            3 
 3200000   0.73081863   -8.3023031    621.74539  0.016191286  0.015724894            1 
 3201000   0.73588123   -8.2908334    622.19552  0.016197947  0.015719626            2 
 3202000   0.74800858   -8.2875868     621.9112  0.016185488  0.015714357            2 
 3203000   0.73385772   -8.3030895    622.02487  0.016183392  0.015709083            1 
 3204000   0.75046095   -8.3070284    621.54152   0.01616577  0.015703806            3 
 3205000   0.73698602   -8.2841393    622.01781   0.01617311  0.015698516            2 
 3206000   0.74405882   -8.3238372    620.70471  0.016133934  0.015693242            4 
 3207000   0.75763966    -8.272961     621.7722  0.016156642  0.015687973            1 
 3208000     0.748202   -8.2589494    622.04067  0.016158579  0.015682716            5 
 3209000   0.74744178   -8.2785965    620.70562  0.016118874  0.015677461            1 
 3210000   0.74519667   -8.3002204    622.25207     0.016154  0.015672196            2 
 3211000   0.73227841   -8.2822027    621.77832  0.016136674  0.015666941            1 
 3212000   0.72498659   -8.2993513    620.55688   0.01609996  0.015661693            5 
 3213000    0.7371539   -8.2979512    623.16095  0.016162489  0.015656433            3 
 3214000   0.72736168   -8.3064168    622.67545  0.016144873  0.015651178            1 
 3215000   0.73440698   -8.2807013    621.41945  0.016107295  0.015645916            2 
 3216000   0.76288029   -8.3145169    620.23416  0.016071573  0.015640651            1 
 3217000   0.74140339   -8.2998048    621.04838  0.016087669  0.015635387            4 
 3218000   0.71816657   -8.2848813    621.01895  0.016081908  0.015630123            1 
 3219000   0.73492617   -8.2803647    622.71646  0.016120857  0.015624858            1 
 3220000   0.72308782   -8.3150741    621.32583  0.016079861  0.015619577            2 
 3221000   0.72822219   -8.3103743    622.11894  0.016095388  0.015614315            4 
 3222000   0.73355388   -8.2739504    621.69153  0.016079338  0.015609046            3 
 3223000   0.72448394   -8.2986304    621.37308  0.016066116  0.015603772            6 
 3224000     0.739602   -8.3216849    621.41441    0.0160622  0.015598504            3 
 3225000   0.72812206   -8.2980372    620.25971  0.016027383  0.015593234            2 
 3226000   0.74187706   -8.3026626    622.52178  0.016080848  0.015587973            1 
 3227000    0.7435666   -8.3262383    622.26897  0.016069336  0.015582714            2 
 3228000   0.73045626      -8.3318    621.90372  0.016054929  0.015577454            2 
 3229000   0.73558883   -8.3059309    622.57285  0.016067225  0.015572188            5 
 3230000   0.73600878   -8.2892156    622.52818  0.016061099  0.015566917            2 
 3231000   0.74619716   -8.3254127    621.71839  0.016035242  0.015561651            4 
 3232000   0.73650826   -8.3168022    621.49908  0.016024626  0.015556367            1 
 3233000   0.73985286   -8.3212335    620.77535  0.016001014  0.015551087            2 
 3234000   0.73806238   -8.3254907    620.57036  0.015990784  0.015545815            5 
 3235000   0.72262537    -8.322303    621.93876  0.016021091  0.015540536            5 
 3236000   0.72745413   -8.2943442    621.57328  0.016006729  0.015535275            2 
 3237000   0.74034245   -8.2944822    620.84337  0.015982993  0.015530011            4 
 3238000   0.73373483   -8.3105409    621.39573  0.015992272  0.015524742            5 
 3239000   0.75361023   -8.3423277    620.30783  0.015959345  0.015519472            3 
 3240000   0.73815711   -8.3323917    621.48601  0.015984722  0.015514198            2 
 3241000   0.73238034   -8.3079967     622.2054  0.015998287  0.015508917            3 
 3242000   0.73238845   -8.3469296    620.95641  0.015961248  0.015503651            4 
 3243000    0.7324972   -8.3051579    621.80568   0.01597815  0.015498397            8 
 3244000   0.72343366   -8.2970529    621.34914  0.015961496  0.015493156            2 
 3245000   0.72131933   -8.3348875    621.43597  0.015958808  0.015487912            3 
 3246000   0.74918903    -8.327627    621.16054   0.01594682  0.015482664            3 
 3247000   0.71953499   -8.2851243    622.86274  0.015985595  0.015477411            3 
 3248000   0.71787768   -8.3388655    621.37878    0.0159426   0.01547217            2 
 3249000   0.72504731   -8.2981906    622.97881  0.015978732  0.015466944            1 
 3250000   0.72088059   -8.3206236    621.64583  0.015939637  0.015461722            2 
 3251000   0.73037824   -8.3178595    621.49045  0.015930751  0.015456501            2 
 3252000   0.75280201   -8.3421969    619.57301  0.015876717   0.01545128            2 
 3253000   0.73173226   -8.3351548    622.53013   0.01594759   0.01544606            3 
 3254000    0.7393184   -8.2779708    623.45777  0.015966446  0.015440846            6 
 3255000    0.7240533   -8.2963246    622.00236   0.01592428  0.015435641            2 
 3256000   0.75265528   -8.3165636    621.41856  0.015904447  0.015430444            2 
 3257000   0.73135503   -8.3098974    623.63543  0.015956285  0.015425256            2 
 3258000   0.74109331   -8.3029113    622.52213  0.015922911  0.015420059            2 
 3259000   0.74581395   -8.3060223     621.9235  0.015902718   0.01541485            1 
 3260000   0.72358709   -8.2952109    622.97953  0.015924835  0.015409658            3 
 3261000   0.72386706   -8.3250854    623.00842   0.01592069  0.015404455            2 
 3262000   0.72515817   -8.3089386    622.04188  0.015891117  0.015399234            2 
 3263000   0.72731701   -8.3200083    621.21522  0.015865135  0.015394009            2 
 3264000   0.73291567   -8.2973986    622.06399  0.015881944  0.015388789            2 
 3265000   0.73070223   -8.3218302    622.97063   0.01590022  0.015383581            1 
 3266000   0.73676012   -8.2946484    623.28078  0.015903265  0.015378371            2 
 3267000    0.7280909   -8.3269083    621.09033  0.015842524  0.015373168            3 
 3268000   0.70724688   -8.3365423    622.02785  0.015861583  0.015367952            6 
 3269000   0.73122561   -8.3228086    621.15965  0.015834599  0.015362749            1 
 3270000   0.73041042   -8.3162354    622.81698  0.015871992   0.01535755            3 
 3271000    0.7281925   -8.3091345     621.5522  0.015834918  0.015352353            2 
 3272000   0.73459937   -8.3285402    621.13051  0.015819339  0.015347152            1 
 3273000   0.74328263   -8.3253863     620.4977  0.015798393  0.015341941            3 
 3274000   0.74000233   -8.3290632    622.70415  0.015849729  0.015336726            1 
 3275000   0.73840948   -8.3317155    621.66973  0.015818568  0.015331524            2 
 3276000    0.7242881   -8.3235549    620.53544  0.015784886  0.015326314            4 
 3277000   0.72312943   -8.3264571    622.89785  0.015840145   0.01532111            3 
 3278000   0.72475977    -8.338926    621.34835  0.015795921  0.015315899            1 
 3279000   0.72006079   -8.3305594     621.4959  0.015794854  0.015310679            2 
 3280000   0.72165795   -8.3490841    621.01735   0.01577788   0.01530547            2 
 3281000   0.72525017   -8.3095678    621.59066  0.015787632   0.01530027            5 
 3282000   0.73761448   -8.3274338    621.23665  0.015773833  0.015295076            2 
 3283000   0.71454395   -8.3176612    622.86995  0.015810487  0.015289885            1 
 3284000   0.72009083   -8.3419195     622.7533  0.015802713  0.015284693            1 
 3285000   0.74076106   -8.3173723    622.80317  0.015799167  0.015279515            3 
 3286000    0.7289737   -8.3578923    621.28815  0.015755938  0.015274332            2 
 3287000   0.73282385   -8.3145245     623.1534  0.015798433   0.01526916            2 
 3288000   0.73089634   -8.3050693    623.60264  0.015805014  0.015263993            3 
 3289000   0.72649571   -8.2912308    623.58721  0.015799818   0.01525884            1 
 3290000    0.7385417   -8.3210842    622.73198  0.015773353  0.015253682            1 
 3291000   0.73321817   -8.3198692    622.75246  0.015769079  0.015248493            1 
 3292000   0.71143165    -8.323726    622.15834  0.015749249  0.015243314            1 
 3293000    0.7233653   -8.3200256    622.98301  0.015765336  0.015238135            2 
 3294000   0.72875429   -8.3352047    622.11026  0.015738471  0.015232954            1 
 3295000   0.72111196   -8.3459404    622.83498  0.015752023   0.01522777            3 
 3296000   0.74370181   -8.3364115    622.58829  0.015741007   0.01522259            1 
 3297000   0.73034672   -8.3145276    622.86167  0.015743142  0.015217416            5 
 3298000   0.71686745    -8.322104    623.22288  0.015747496   0.01521225            2 
 3299000   0.71834091   -8.3515504     622.0079  0.015712031  0.015207078            2 
 3300000   0.72798384   -8.3562916    622.28072   0.01571416  0.015201923            3 
 3301000   0.71686777   -8.3511807    623.53454  0.015741052  0.015196765            1 
 3302000   0.70999434   -8.3267595    621.20818  0.015677574  0.015191591            1 
 3303000     0.709964   -8.3271482    621.73382  0.015686089  0.015186421            6 
 3304000   0.72266043   -8.3907228    622.26644  0.015694775  0.015181242            4 
 3305000   0.71104342    -8.356078    621.93161  0.015681584  0.015176062            2 
 3306000   0.73511454   -8.3610939    621.00511  0.015653486  0.015170877            1 
 3307000   0.71641628   -8.3787403    622.78152  0.015693517  0.015165687            2 
 3308000   0.71774314   -8.3625043    622.24521  0.015675262  0.015160482            2 
 3309000   0.73758827   -8.3637831    621.45466  0.015650616  0.015155274            2 
 3310000   0.72588297   -8.3453748    620.90312  0.015632002   0.01515008            3 
 3311000   0.71797156   -8.3791499    621.99794  0.015654836  0.015144895            3 
 3312000   0.71042376   -8.3443946    622.03455   0.01565103  0.015139713            4 
 3313000   0.71542776   -8.3365711    622.03009  0.015646194  0.015134551            2 
 3314000   0.73786482   -8.3655083    621.71685  0.015633596  0.015129404            1 
 3315000   0.72719748   -8.3452916    622.59529  0.015650963  0.015124253            4 
 3316000   0.71279006   -8.3535261    623.29176  0.015663746  0.015119103            1 
 3317000   0.71763857   -8.3168579    622.58476  0.015641261  0.015113977            1 
 3318000   0.71920381   -8.3204827    622.56313  0.015636004  0.015108838            2 
 3319000   0.71090076   -8.3408133     622.4993   0.01562969  0.015103718            4 
 3320000   0.70277634   -8.3339098    621.32972  0.015595626  0.015098604            1 
 3321000   0.71951817   -8.3509305     622.4639  0.015619389  0.015093474            4 
 3322000   0.71945025   -8.3405578    622.81125  0.015623401  0.015088356            2 
 3323000   0.71330469   -8.3447238    622.61866  0.015613869  0.015083242            1 
 3324000   0.72144178    -8.329529     622.5416   0.01560724  0.015078136            3 
 3325000   0.73022914   -8.3579332    621.28412  0.015571031  0.015073006            3 
 3326000   0.72875046   -8.3570044    622.84973  0.015605576  0.015067881            3 
 3327000   0.72662981   -8.3548832    623.63799  0.015620629  0.015062754            1 
 3328000   0.72932763   -8.3535643    622.99394  0.015599808  0.015057631            4 
 3329000   0.71278092    -8.379507    620.92918  0.015543436  0.015052507            2 
 3330000   0.72404781   -8.3294924    622.26611  0.015572225  0.015047378            2 
 3331000   0.72009031   -8.3437465    623.76763  0.015605114  0.015042267            1 
 3332000   0.73071485   -8.3561165    621.93697  0.015554646  0.015037156            1 
 3333000    0.7257498   -8.3584763    623.10335  0.015579142  0.015032041            3 
 3334000   0.72316068   -8.3687476     621.9038  0.015544486  0.015026909            3 
 3335000   0.71393381   -8.3398458    622.61681  0.015557641  0.015021785            2 
 3336000   0.71788238    -8.364809     623.2158  0.015567941  0.015016669            3 
 3337000   0.72828676   -8.3306133    622.80909  0.015553119  0.015011571            3 
 3338000   0.72693842   -8.3410348    623.14191  0.015556768  0.015006477            2 
 3339000   0.71702317   -8.3595379    622.98292  0.015548141  0.015001367            3 
 3340000   0.73382073   -8.3497196    622.62638   0.01553459  0.014996254            4 
 3341000   0.71846668   -8.3416054    623.63902  0.015555199  0.014991148            6 
 3342000   0.71635708   -8.3505596    621.51406  0.015497558  0.014986018            2 
 3343000   0.72675496   -8.3810917    621.75094  0.015498827  0.014980884            4 
 3344000   0.71481736   -8.3595126    622.35234  0.015509179  0.014975757            7 
 3345000   0.71796218   -8.3662739    623.88174  0.015542644  0.014970652            4 
 3346000   0.72117118   -8.3703542    622.47544  0.015502975  0.014965536            3 
 3347000   0.73342466    -8.371815    621.93906  0.015484988  0.014960441            2 
 3348000   0.71907279   -8.3677583    621.59526  0.015471806  0.014955324            1 
 3349000   0.72619154   -8.3417582    623.40552  0.015512231  0.014950214            2 
 3350000   0.71054438   -8.3674273    622.42755  0.015483272  0.014945092            4 
 3351000   0.72543101   -8.3743907    621.94841  0.015466737  0.014939976            5 
 3352000   0.71427508    -8.345374    623.38217  0.015497767  0.014934869            2 
 3353000   0.72336533   -8.3502011    621.86149  0.015455351  0.014929773            3 
 3354000   0.71353273   -8.3607615    623.11076  0.015481782  0.014924684            3 
 3355000   0.72341303   -8.3611008    622.62475  0.015465096  0.014919588            2 
 3356000   0.71337999   -8.3479336    622.78729  0.015464524  0.014914499            1 
 3357000   0.70210088   -8.3552156    622.61348  0.015455602  0.014909416            1 
 3358000   0.71178379   -8.3614158    623.55592  0.015474387  0.014904333            2 
 3359000   0.71474374   -8.3701184    622.64444  0.015447168  0.014899273            1 
 3360000   0.71652777    -8.338189     622.9216  0.015449444  0.014894208            3 
 3361000   0.72143356   -8.3410576    624.52169  0.015484521  0.014889151            2 
 3362000   0.72213002   -8.3622927    622.80534  0.015437372  0.014884102            3 
 3363000     0.727287   -8.3552023     623.4621  0.015449056  0.014879042            2 
 3364000   0.71721908   -8.3321383    624.35426  0.015466564  0.014873989            3 
 3365000   0.70824301   -8.3921998    622.32175  0.015411633  0.014868922            2 
 3366000   0.71092008   -8.3737685    621.51111  0.015386985  0.014863852            1 
 3367000   0.71736898   -8.3661092    622.52291  0.015407457  0.014858796            2 
 3368000   0.71033052   -8.3544329    623.72616  0.015432654  0.014853742            2 
 3369000    0.7035836    -8.357742    623.15986  0.015414066  0.014848694            3 
 3370000   0.71233379    -8.343588    623.53272  0.015418712  0.014843651            2 
 3371000   0.72156075   -8.3662135    623.00693   0.01540114    0.0148386            3 
 3372000   0.72829865   -8.3508086    624.77571  0.015440285  0.014833562            3 
 3373000   0.72384771   -8.3452395    624.79564    0.0154362  0.014828539            4 
 3374000   0.73125334   -8.3803742    623.51151  0.015399909  0.014823508            2 
 3375000   0.71882856   -8.3608118    622.73305  0.015376125  0.014818462            1 
 3376000   0.70911359    -8.364025    623.32364  0.015386148  0.014813417            1 
 3377000   0.69751922   -8.3490956    623.40169  0.015383518  0.014808374            2 
 3378000   0.69498117   -8.3721435    622.61886  0.015359652  0.014803332            1 
 3379000   0.70591827   -8.3811295    623.81368  0.015384573  0.014798293            2 
 3380000   0.69653892   -8.3691044    622.64498  0.015351208  0.014793252            1 
 3381000   0.69735796   -8.3624422    624.64391  0.015395936  0.014788228            3 
 3382000   0.71213931   -8.3683054    622.80626  0.015346103  0.014783212            3 
 3383000   0.69757972   -8.3599901    624.11736  0.015373863  0.014778188            1 
 3384000   0.68109592   -8.3555114    623.19979  0.015346724  0.014773165            1 
 3385000   0.71210457   -8.3547676    623.66693  0.015353691  0.014768132            1 
 3386000   0.72238397   -8.3740158    622.44714  0.015319136  0.014763088            2 
 3387000   0.70693705    -8.363257     622.2806  0.015310516  0.014758046            6 
 3388000   0.68787702   -8.3624331    623.88461   0.01534545  0.014753011            5 
 3389000   0.71113425   -8.3806161    623.89604  0.015341203  0.014747991            7 
 3390000   0.71381315   -8.3725433    622.85804  0.015311161  0.014742976            1 
 3391000   0.71333062   -8.3499907     622.4785  0.015297319  0.014737967            3 
 3392000   0.69447696   -8.3679362    622.09972  0.015283503  0.014732942            2 
 3393000   0.69561782    -8.362581    622.54778  0.015290003  0.014727922            1 
 3394000   0.72288291   -8.3661407    623.40103  0.015306448  0.014722915            1 
 3395000   0.70537677   -8.3523333    621.55295  0.015256577  0.014717894            3 
 3396000   0.70542326   -8.3764602    623.20798  0.015292697  0.014712871            2 
 3397000   0.71950434   -8.3683932    623.56035  0.015296839  0.014707857            3 
 3398000   0.70753637   -8.3583575    621.87062  0.015250898  0.014702843            1 
 3399000   0.70944133   -8.3607133    622.05266  0.015250874  0.014697806            1 
 3400000   0.69806927   -8.3621036    621.88448  0.015242267  0.014692783            3 
 3401000   0.70321775    -8.390537    622.44677  0.015251563  0.014687755            1 
 3402000   0.69655646   -8.3652059    622.41435  0.015246285  0.014682721            1 
 3403000    0.6893447   -8.3926011    621.94504  0.015230312  0.014677686            3 
 3404000   0.71692212   -8.3987604    622.59276  0.015241695  0.014672646            2 
 3405000   0.72125446   -8.3806449    623.07699   0.01524907  0.014667612            2 
 3406000   0.71499529   -8.3724511    622.29312  0.015225414  0.014662586            3 
 3407000   0.69235842   -8.3726511    622.16208   0.01521774  0.014657574            1 
 3408000   0.69401327   -8.3821293    622.55349  0.015222846  0.014652559            2 
 3409000   0.69709737   -8.3853687    623.51474  0.015241878  0.014647538            2 
 3410000   0.71572385   -8.3666705    624.59435  0.015263791  0.014642517            1 
 3411000   0.69590847   -8.3678979     623.1357  0.015223681  0.014637511            1 
 3412000   0.69364641   -8.3816569    621.36214  0.015175902  0.014632484            3 
 3413000   0.70869312   -8.3856176    623.25446   0.01521766  0.014627478            2 
 3414000   0.71186074   -8.3818079    623.31717  0.015214733  0.014622457            3 
 3415000   0.70614534   -8.3797332    623.06012  0.015204005   0.01461744            2 
 3416000   0.70969486   -8.3787289    623.35784  0.015206817  0.014612424            1 
 3417000    0.7034541   -8.3819856    624.22985  0.015223633  0.014607425            2 
 3418000   0.69544013    -8.355581    622.42029  0.015175061  0.014602435            3 
 3419000   0.70139339    -8.361762    623.44233  0.015195533  0.014597438            3 
 3420000   0.68971152   -8.3597159    624.08081  0.015206647  0.014592448            2 
 3421000   0.70596955   -8.3911263    622.65123  0.015167379  0.014587456            2 
 3422000   0.70195143   -8.3881793     622.9961  0.015171345  0.014582448            2 
 3423000   0.70326563   -8.3795747    623.75247  0.015185326   0.01457744            1 
 3424000    0.7304336   -8.4101365    621.77289  0.015132713  0.014572417            4 
 3425000    0.7064864   -8.3897208    621.53651  0.015122543  0.014567404            3 
 3426000   0.69204758   -8.3676326    622.91682  0.015151703  0.014562394            3 
 3427000   0.70140471   -8.4306036    621.72719  0.015118354   0.01455739            4 
 3428000   0.71219882   -8.3819622    620.99312  0.015096099   0.01455237            2 
 3429000   0.70173424   -8.3820308    623.42291  0.015150746  0.014547341            1 
 3430000   0.69616578   -8.3770805    621.46886  0.015098855  0.014542327            3 
 3431000   0.72336772    -8.397954    621.84827  0.015103669  0.014537313            4 
 3432000   0.68751142   -8.3928419    621.83534  0.015098954  0.014532303            2 
 3433000   0.69982447   -8.3787929    622.10912  0.015101202  0.014527294            2 
 3434000   0.70397533   -8.3948589    622.90282  0.015116065   0.01452229            1 
 3435000   0.67320654   -8.4026291    621.89982  0.015087332  0.014517288            3 
 3436000   0.70881476   -8.3762886    622.78111  0.015104315  0.014512283            1 
 3437000     0.703698   -8.3896584    622.61969  0.015096007   0.01450729            5 
 3438000   0.72319431    -8.370615    622.71758  0.015093988  0.014502295            2 
 3439000   0.71706679   -8.4021957    622.70388  0.015089267  0.014497303            2 
 3440000    0.6930244   -8.3885852    623.75057  0.015110237  0.014492326            2 
 3441000   0.69040142   -8.4136559    621.89333  0.015060867  0.014487338            5 
 3442000   0.70102791   -8.3707342    622.70072  0.015076039  0.014482348            5 
 3443000   0.69891123   -8.3853469    623.77843  0.015097745   0.01447737            2 
 3444000   0.72406889   -8.3855034    622.67715  0.015066714  0.014472399            2 
 3445000   0.71012921   -8.3980215    622.71981  0.015063372  0.014467422            2 
 3446000   0.68953516   -8.3925168    623.26488  0.015072182  0.014462447            3 
 3447000   0.70038493   -8.4060313    622.06262  0.015038744  0.014457456            2 
 3448000   0.70452338   -8.3947604    622.83556  0.015053064  0.014452466            2 
 3449000   0.70694704   -8.4037288    621.50692  0.015016597  0.014447491            2 
 3450000   0.70223483    -8.403079    622.10143  0.015026605  0.014442509            2 
 3451000   0.70052499   -8.4027477    620.91493  0.014993599  0.014437529            2 
 3452000   0.71330595   -8.4135781    621.48778  0.015003085   0.01443256            3 
 3453000   0.71290294    -8.405948     622.4368  0.015021643  0.014427579            2 
 3454000   0.69655348   -8.4109238    622.82339  0.015026621  0.014422584            2 
 3455000   0.70897564   -8.4419511    620.41259  0.014964124   0.01441758            4 
 3456000   0.68089042   -8.4107322    621.05284  0.014975232  0.014412576            6 
 3457000   0.69448196   -8.4221932    621.93868  0.014992254   0.01440758            3 
 3458000   0.68720299   -8.3885121    622.88525   0.01501073  0.014402588            2 
 3459000   0.71058453   -8.3952671    623.33967  0.015017338  0.014397609            3 
 3460000   0.68623288   -8.4171971    622.16117  0.014984614  0.014392628            3 
 3461000   0.69513853   -8.3896883    622.21081   0.01498148  0.014387645            1 
 3462000   0.68818502   -8.4327877    622.13128  0.014975238  0.014382657            2 
 3463000   0.70572067   -8.4238073    623.01653  0.014992216  0.014377674            3 
 3464000   0.69761337   -8.4341301    622.04027  0.014964402  0.014372692            4 
 3465000   0.69192916    -8.417518    622.78758  0.014978056  0.014367708            2 
 3466000    0.7135338   -8.4274674    621.87348  0.014951757  0.014362725            2 
 3467000   0.70067017   -8.4029096    621.99854   0.01495045  0.014357741            2 
 3468000   0.68226872   -8.4199522    621.52274  0.014934706  0.014352747            4 
 3469000   0.69416865   -8.4062733    621.33955  0.014926001  0.014347766            2 
 3470000   0.69687792   -8.4359239    622.01762  0.014937983  0.014342786            1 
 3471000   0.69965724   -8.4217207    621.48544  0.014920903  0.014337814            4 
 3472000   0.69193925   -8.4375047    622.82601  0.014948781  0.014332834            1 
 3473000   0.69262869   -8.4059067    622.50719  0.014936827  0.014327872            2 
 3474000   0.69942081   -8.4038334     621.9666   0.01491956  0.014322909            1 
 3475000    0.7059408   -8.4015369    623.20486  0.014944961   0.01431795            2 
 3476000   0.69137039   -8.4170388    623.07433  0.014937532  0.014312993            2 
 3477000   0.71171578   -8.4177619    622.14643  0.014910997  0.014308045            2 
 3478000   0.71548171   -8.4006482    621.79023  0.014898175  0.014303096            4 
 3479000    0.7055377   -8.4321282    621.12311  0.014877913  0.014298134            5 
 3480000   0.70208612   -8.4216551    622.68228  0.014910974  0.014293179            4 
 3481000   0.69508531    -8.433759    622.23737   0.01489604  0.014288225            2 
 3482000   0.69735323   -8.4295206    621.53548  0.014874964  0.014283269            2 
 3483000   0.70664162   -8.4511313    622.07496    0.0148836  0.014278315            2 
 3484000   0.69355758   -8.4249611     623.3673   0.01491024  0.014273365            1 
 3485000   0.69285786   -8.4291889     623.5199   0.01490961  0.014268411            1 
 3486000   0.68876464   -8.4073062    621.97368  0.014868371  0.014263472            1 
 3487000   0.69573199    -8.452367    622.54939  0.014877865  0.014258529            2 
 3488000   0.70194167   -8.4387553    622.26404  0.014866782  0.014253593            2 
 3489000   0.69440744   -8.4170925    621.80318  0.014851514  0.014248649            2 
 3490000   0.69890675   -8.4086165    623.21675  0.014881011    0.0142437            4 
 3491000   0.71671936   -8.4250992    621.55943  0.014837187  0.014238758            3 
 3492000   0.69111009   -8.4454923    621.94829  0.014842218  0.014233818            3 
 3493000   0.70661016   -8.4019074    621.53834  0.014828188  0.014228881            4 
 3494000   0.68819933   -8.4080992    621.89854  0.014832535  0.014223958            2 
 3495000    0.6884795   -8.4201581    620.42669  0.014793197  0.014219029            3 
 3496000   0.67635999   -8.4231024    621.80045  0.014821712  0.014214107            1 
 3497000   0.69109934   -8.4221058     621.7191  0.014815535  0.014209174            1 
 3498000   0.68863516   -8.4149941     621.5086  0.014806285  0.014204237            1 
 3499000   0.70422764   -8.4136803    620.95628  0.014788899  0.014199292            2 
 3500000   0.70513681   -8.4390004    621.56059  0.014799062  0.014194364            4 
 3501000   0.69044577   -8.4324154    622.53364  0.014817996  0.014189445            2 
 3502000   0.68468885   -8.3947921    622.84305  0.014821127  0.014184536            2 
 3503000   0.69122334   -8.4374294    621.90085  0.014794482  0.014179629            3 
 3504000   0.67802301   -8.4182037    622.36643  0.014801332  0.014174716            1 
 3505000   0.69054501   -8.4099014    623.22069   0.01481742  0.014169803            4 
 3506000    0.6973717   -8.4149517    623.06049  0.014809386  0.014164893            1 
 3507000   0.69958371   -8.4168674    623.20278  0.014808544   0.01415999            2 
 3508000   0.69179587   -8.4391208    621.65356  0.014767521  0.014155075            2 
 3509000   0.69346418   -8.4414089     621.7041  0.014764513  0.014150166            3 
 3510000   0.69867263   -8.4376138    622.12468  0.014770292   0.01414527            1 
 3511000   0.69036385   -8.4289706    621.07226  0.014741106  0.014140374            1 
 3512000   0.68723841   -8.4228913    622.38734  0.014768113  0.014135476            2 
 3513000   0.70424984   -8.4278427    623.08583  0.014780478  0.014130576            2 
 3514000   0.68779515   -8.4312543     623.0107   0.01477449  0.014125671            1 
 3515000   0.68891085   -8.4109475    621.57237  0.014736187  0.014120772            2 
 3516000   0.69900245   -8.4262558    622.51531  0.014754345  0.014115886            2 
 3517000    0.6846369   -8.4434533    621.39856  0.014723689   0.01411099            2 
 3518000   0.68422903   -8.4333688    622.59165  0.014747765  0.014106102            1 
 3519000   0.69002194   -8.4389329    623.19888  0.014757954  0.014101221            2 
 3520000   0.69116238   -8.4204185    623.05116  0.014750264  0.014096342            2 
 3521000   0.68155322   -8.4354716    622.84456  0.014741185  0.014091452            2 
 3522000   0.67127056   -8.4228667    622.13617  0.014720239  0.014086572            6 
 3523000   0.68050132   -8.4461233    621.14342  0.014692578   0.01408168            1 
 3524000   0.68350766   -8.4275522    622.40413  0.014718221  0.014076799            1 
 3525000   0.67915254   -8.4298615    621.55852  0.014694055  0.014071919            1 
 3526000   0.67984442   -8.4331069    620.83412  0.014672767  0.014067029            2 
 3527000   0.69346468   -8.4456822    621.26587  0.014678808  0.014062144            2 
 3528000    0.6994696   -8.4341434    622.90769  0.014713428  0.014057268            2 
 3529000   0.67406984   -8.4407186    621.62001  0.014678852  0.014052394            2 
 3530000   0.69167946   -8.4277592    622.44963  0.014694278  0.014047526            1 
 3531000   0.68301976   -8.4278966    623.03629  0.014703962  0.014042659            3 
 3532000     0.686418   -8.4512607     621.0166  0.014652147  0.014037787            1 
 3533000   0.69302042   -8.4528312    621.47956   0.01465892  0.014032902            2 
 3534000   0.69725848    -8.439922    622.03707  0.014667918  0.014028026            6 
 3535000   0.68497427   -8.4733843    622.38333  0.014671931  0.014023146            2 
 3536000   0.68642191   -8.4457198    621.58544  0.014648978  0.014018275            4 
 3537000   0.68205123   -8.4480843    622.41244  0.014664321  0.014013401            3 
 3538000    0.6708476   -8.4191811    622.29135  0.014657324  0.014008523            2 
 3539000   0.68901823   -8.4454038    621.61567  0.014637272  0.014003655            3 
 3540000   0.68003197   -8.4478617    622.81028  0.014661259  0.013998776            2 
 3541000   0.67470605   -8.4578241    622.25934  0.014644153  0.013993894            1 
 3542000   0.68498196   -8.4510226    622.14726  0.014637381  0.013989011            1 
 3543000   0.68997765   -8.4635585    621.65466  0.014621664   0.01398413            1 
 3544000    0.6837201   -8.4368811    621.31439  0.014609537  0.013979251            1 
 3545000   0.67425384    -8.453164     622.1584  0.014625256  0.013974386            1 
 3546000   0.69621178   -8.4434263    621.50816  0.014605851  0.013969517            3 
 3547000   0.68457621   -8.4250813    623.25759  0.014642834  0.013964655            1 
 3548000   0.68576859   -8.4331812     622.6731  0.014624979  0.013959787            1 
 3549000    0.6830979   -8.4332227    623.19646  0.014633147  0.013954922            2 
 3550000   0.69710469   -8.4626736    622.68781  0.014617085   0.01395007            1 
 3551000   0.69341631   -8.4678858    621.62902  0.014588121   0.01394521            1 
 3552000   0.67972731    -8.412153    622.61867  0.014607232  0.013940353            1 
 3553000   0.67754174    -8.433601    621.10817  0.014567693  0.013935493            3 
 3554000   0.68106918    -8.456456    621.61384  0.014575451  0.013930625            3 
 3555000   0.67050494   -8.4605285    621.73047  0.014574085  0.013925757            3 
 3556000   0.69002311   -8.4516311    621.64739   0.01456804  0.013920905            2 
 3557000   0.67146731   -8.4703223    620.52868  0.014537735  0.013916045            2 
 3558000    0.6919222   -8.4530827    621.14953   0.01454819  0.013911187            3 
 3559000   0.67601006    -8.479121    620.90923  0.014538476  0.013906324            1 
 3560000   0.68941229   -8.4407076    621.74036  0.014553847  0.013901471            1 
 3561000   0.69733187   -8.4423876    622.65904  0.014571259  0.013896615            1 
 3562000   0.68086384     -8.42797    622.00579  0.014551885  0.013891758            2 
 3563000   0.68887091   -8.4707348    620.39271  0.014510074  0.013886892            2 
 3564000   0.67617012   -8.4585984    620.01266  0.014497116  0.013882025            2 
 3565000    0.6893844   -8.4689905    622.44547  0.014549918  0.013877162            3 
 3566000   0.67513581   -8.4687797     621.2227  0.014517263    0.0138723            2 
 3567000    0.6716424   -8.4808233     620.3521  0.014492853  0.013867438            2 
 3568000   0.68154219   -8.4548482    621.69071  0.014520056  0.013862584            2 
 3569000   0.67081358   -8.4689013     622.2263  0.014528493  0.013857738            1 
 3570000   0.69242662   -8.4651284    621.86176  0.014515914  0.013852889            3 
 3571000   0.67400649   -8.4721108    620.64287  0.014483405  0.013848042            1 
 3572000   0.68019723   -8.4803936    620.68915   0.01448043  0.013843188            2 
 3573000   0.68759079   -8.4630874    622.43076  0.014516997  0.013838334            2 
 3574000   0.68453454   -8.4702092    623.05683  0.014527533  0.013833499            2 
 3575000   0.66450471   -8.4753715    620.99206  0.014475339  0.013828661            2 
 3576000     0.697395   -8.4759848    620.89095  0.014468935  0.013823816            1 
 3577000   0.67499052   -8.5102864    621.28292  0.014474022  0.013818976            1 
 3578000    0.6777096   -8.4924684    619.99101  0.014439888   0.01381412            3 
 3579000   0.68061202   -8.4670091    621.42026  0.014469132  0.013809276            2 
 3580000   0.67618796   -8.4778517    620.41321  0.014441648  0.013804434            1 
 3581000     0.680184   -8.4932319    621.01654  0.014451655  0.013799585            2 
 3582000   0.67991792   -8.4804759    620.22629  0.014429236  0.013794751            1 
 3583000   0.67294964   -8.4755757    621.39102  0.014452298  0.013789911            2 
 3584000   0.68911281   -8.4821543    620.80269  0.014434586  0.013785073            1 
 3585000   0.66942598   -8.4769422    620.46018  0.014422598  0.013780236            2 
 3586000   0.69137127   -8.4793586    620.34378  0.014415871  0.013775403            2 
 3587000   0.68353899   -8.4657821    620.51314  0.014415787  0.013770574            1 
 3588000   0.67118542   -8.4864149    622.26296   0.01445241  0.013765755            3 
 3589000    0.6801087   -8.4812497    620.54348  0.014408458  0.013760937            2 
 3590000   0.68909147   -8.4675149    622.22342  0.014443441  0.013756123            1 
 3591000   0.66051709   -8.4819328    622.60116  0.014448184  0.013751313            1 
 3592000   0.68154728   -8.4782876    621.79681  0.014425501    0.0137465            1 
 3593000   0.66606849   -8.4968225     620.8567  0.014399682   0.01374168            2 
 3594000   0.66590283   -8.4504829    621.15866  0.014402677  0.013736856            2 
 3595000    0.6856464   -8.4934663    620.98322  0.014394604  0.013732045            3 
 3596000   0.68910806   -8.4727982    621.82041  0.014410002  0.013727239            3 
 3597000   0.67060893   -8.4518483    622.56239  0.014423186  0.013722445            2 
 3598000   0.66863347   -8.4606769    621.17268   0.01438699  0.013717652            5 
 3599000   0.67063534   -8.4750262    621.33594  0.014386773  0.013712862            1 
 3600000   0.68125147    -8.466972    621.07161  0.014376658  0.013708071            2 
 3601000   0.67485666   -8.4754027    622.18895  0.014398522  0.013703288            1 
 3602000   0.66844565   -8.4620343    621.51268  0.014378879  0.013698508            1 
 3603000   0.66850654   -8.4627751    621.70171  0.014379261  0.013693722            2 
 3604000   0.66800726   -8.4715305    621.06761  0.014360609  0.013688931            2 
 3605000   0.66348194   -8.4688561    621.76372  0.014372716   0.01368414            2 
 3606000   0.68424121   -8.4727203    620.90098  0.014348793   0.01367935            1 
 3607000   0.67755271   -8.4665274    621.93971  0.014368813  0.013674562            2 
 3608000   0.68100402   -8.4756328    621.07802  0.014344928  0.013669774            1 
 3609000   0.68145061    -8.439574    621.37642  0.014347844   0.01366498            2 
 3610000   0.66732562   -8.4812726    620.66516  0.014327451  0.013660193            1 
 3611000   0.65656652   -8.4575393    621.15032  0.014334679  0.013655416            2 
 3612000   0.67682685   -8.4533165    621.73011  0.014344087  0.013650645            4 
 3613000   0.67029251   -8.4566704    622.19766  0.014350901  0.013645866            3 
 3614000   0.67285917   -8.4634508    621.61748  0.014333552  0.013641091            3 
 3615000   0.66300225   -8.4805916    621.20712  0.014320127  0.013636318            2 
 3616000   0.66531474   -8.4778023    621.65717  0.014326539  0.013631545            1 
 3617000   0.66230164   -8.4894001    620.34485  0.014292343  0.013626771            1 
 3618000   0.68166373   -8.4885976    620.34732   0.01428845  0.013622007            2 
 3619000   0.67503221   -8.4515816    620.99365  0.014299384  0.013617231            3 
 3620000   0.67330582   -8.4561067    622.55686  0.014331419  0.013612466            4 
 3621000   0.65689574   -8.4776887    621.90675    0.0143125  0.013607708            2 
 3622000   0.66230644   -8.4743056     621.1382  0.014290866   0.01360295            3 
 3623000   0.66196935   -8.4751911    620.62285  0.014275068  0.013598198            2 
 3624000   0.67935965   -8.4891544    621.11857  0.014282528  0.013593435            3 
 3625000   0.68362237   -8.4767718    622.66387  0.014314112  0.013588679            2 
 3626000   0.67668805   -8.4672239    621.79481  0.014290191  0.013583923            2 
 3627000   0.67800231    -8.459656    621.45683  0.014278486  0.013579172            2 
 3628000   0.67039028   -8.4834446     621.5823  0.014277432  0.013574425            2 
 3629000   0.68645994   -8.4765634    620.63003  0.014251631  0.013569676            2 
 3630000   0.67395075   -8.4589599    622.76017  0.014296606  0.013564933            2 
 3631000   0.66751027   -8.4828196    620.62064  0.014243566  0.013560187            2 
 3632000   0.67145629   -8.4747062    622.19252   0.01427571  0.013555448            1 
 3633000   0.68301582     -8.46479    621.24192  0.014249975  0.013550711            1 
 3634000   0.68227637   -8.4680056    621.42152  0.014250172  0.013545982            1 
 3635000   0.67873952   -8.4691405    622.02011  0.014259975  0.013541253            4 
 3636000   0.66257867   -8.4826357    621.07714  0.014234441  0.013536527            1 
 3637000   0.66638322    -8.492621     621.6921  0.014244618  0.013531807            1 
 3638000   0.67055458   -8.4799938    621.84473  0.014244198  0.013527083            1 
 3639000   0.67598974   -8.4567415    623.62397  0.014281029  0.013522359            1 
 3640000   0.67090063   -8.4770006    621.50474  0.014228588   0.01351764            2 
 3641000   0.66104431   -8.4612074    621.09342  0.014215266  0.013512908            2 
 3642000   0.67207661   -8.4962143    622.27408  0.014238378  0.013508182            2 
 3643000   0.65983112   -8.4912878    621.95512  0.014227174   0.01350346            2 
 3644000   0.66150773   -8.4645187    620.60007  0.014192281  0.013498751            2 
 3645000   0.66913832   -8.4685307    621.18384  0.014201734   0.01349403            1 
 3646000   0.66393057   -8.4490078    622.18887   0.01422081  0.013489311            2 
 3647000   0.67078835   -8.4793414    621.49227  0.014200993  0.013484594            2 
 3648000   0.66359982   -8.4590065    621.52867  0.014197932  0.013479883            3 
 3649000    0.6657122   -8.4894247    620.55824  0.014171879  0.013475178            2 
 3650000   0.66440561   -8.4746432     622.3174   0.01420816  0.013470476            1 
 3651000   0.67530929   -8.4927784    620.93724  0.014172766  0.013465775            1 
 3652000   0.66325861   -8.4875575    622.18171  0.014197282  0.013461071            7 
 3653000   0.67081836   -8.4677116    620.55906   0.01415638  0.013456365            3 
 3654000   0.66327908   -8.4642046    621.37095  0.014171022  0.013451661            1 
 3655000   0.66226642   -8.4564222     621.1862  0.014162932  0.013446963            2 
 3656000   0.66973084   -8.4690128    622.63883  0.014192169  0.013442255            6 
 3657000   0.64635784   -8.4552829    622.71237  0.014189964  0.013437556            5 
 3658000   0.66713645   -8.4669489    621.29952  0.014153898  0.013432859            2 
 3659000   0.65480707    -8.481905    621.68197   0.01415874  0.013428167            3 
 3660000   0.65436705   -8.4913535    620.98815  0.014139075  0.013423468            2 
 3661000   0.65980922   -8.4913453    620.91588  0.014133567  0.013418774            4 
 3662000   0.65906623   -8.5109562    621.77219  0.014149194  0.013414076            2 
 3663000   0.67630251   -8.4898717     623.0561   0.01417454  0.013409387            6 
 3664000   0.66729931   -8.4951531    621.95008  0.014145517  0.013404694            6 
 3665000   0.66924605    -8.468476    621.35354  0.014128093  0.013400005            5 
 3666000   0.67462522   -8.4917537    621.67439  0.014131533  0.013395317            2 
 3667000   0.65684292   -8.4690895    620.49911   0.01410097  0.013390631            2 
 3668000   0.65802772    -8.500022    621.35143   0.01411649  0.013385944            1 
 3669000   0.66755957   -8.4743352    621.05041  0.014105806   0.01338125            3 
 3670000   0.66621064   -8.4773899    621.13885   0.01410397  0.013376571            2 
 3671000    0.6640039   -8.4771029    622.34898  0.014127599  0.013371894            1 
 3672000   0.66779069   -8.5122028    620.80492   0.01408871  0.013367217            3 
 3673000   0.66554497   -8.4832109     621.2269  0.014094448  0.013362539            3 
 3674000   0.66271496   -8.4761957    620.78585  0.014080608  0.013357862            2 
 3675000   0.66871995   -8.4763985    621.09028   0.01408368  0.013353177            2 
 3676000   0.67094482   -8.5173436    619.77594  0.014050053  0.013348491            2 
 3677000    0.6712119   -8.5231928    621.21825   0.01407892   0.01334381            1 
 3678000   0.65591152   -8.5149781      621.662  0.014085146  0.013339132            4 
 3679000   0.66509086   -8.4933502    621.48997  0.014077421  0.013334455            3 
 3680000    0.6803866   -8.5210522     621.0258  0.014063084  0.013329773            2 
 3681000    0.6602383   -8.5147496    620.43537  0.014045897  0.013325084            2 
 3682000   0.65450771   -8.4919772    621.93323  0.014075983  0.013320404            2 
 3683000   0.66033262   -8.5045958    621.24148  0.014056509  0.013315723            1 
 3684000   0.67026114   -8.5244004    619.69622  0.014017739  0.013311042            3 
 3685000   0.66706399   -8.5041454     622.0447  0.014067044  0.013306348            3 
 3686000   0.66869883    -8.502478    620.33697  0.014024619  0.013301677            3 
 3687000   0.64946978    -8.523264    620.57671  0.014026234  0.013296999            1 
 3688000   0.65292304   -8.5023616    620.14305  0.014012632  0.013292325            1 
 3689000   0.64448574    -8.504023    621.07225  0.014029824  0.013287646            2 
 3690000   0.66379182   -8.5075377    620.60389  0.014015445  0.013282979            3 
 3691000    0.6554582   -8.5182857    619.72985  0.013991914  0.013278307            2 
 3692000   0.65198052   -8.4914233    620.52041  0.014005968  0.013273627            2 
 3693000   0.67299636   -8.5212122    619.95916  0.013989511  0.013268966            2 
 3694000   0.66395159   -8.4988347    620.47334  0.013997323  0.013264307            4 
 3695000   0.66022799   -8.4925855    620.54174  0.013995078  0.013259642            1 
 3696000   0.66499891   -8.4943322    621.00161   0.01400166  0.013254984            1 
 3697000   0.65568349   -8.5061925    620.06437  0.013976746  0.013250335            2 
 3698000   0.65844625   -8.5009524    620.66165  0.013986426  0.013245683            3 
 3699000   0.66440941   -8.5241054    620.35253  0.013975681   0.01324103            3 
 3700000   0.65483618    -8.482183    621.75751  0.014003548  0.013236381            1 
 3701000   0.66815309   -8.5153547    620.26583  0.013966176   0.01323174            5 
 3702000   0.65262621   -8.5159006    620.72048  0.013972638   0.01322709            2 
 3703000   0.65823346    -8.512428    621.02277  0.013975668   0.01322245            2 
 3704000   0.65910564   -8.5442588    619.75768  0.013943432  0.013217807            4 
 3705000   0.67571065   -8.4949728    620.51882  0.013956788  0.013213181            3 
 3706000   0.64653126   -8.5314126    620.96621  0.013963083  0.013208553            3 
 3707000   0.65821612   -8.5129863    621.10137  0.013962354  0.013203923            4 
 3708000   0.65421962   -8.4975826    622.53434  0.013990793  0.013199296            1 
 3709000   0.64728673   -8.5062092    621.11248  0.013955075  0.013194669            8 
 3710000   0.66650943   -8.5115133    620.07304  0.013927966  0.013190043            3 
 3711000   0.67162882   -8.4823338    620.71952   0.01393873   0.01318542            1 
 3712000    0.6613431   -8.5045653    621.02697  0.013941877  0.013180802            3 
 3713000   0.65963275   -8.5054446    620.18204  0.013919159  0.013176169            3 
 3714000   0.65190467   -8.5086886    620.88767  0.013931244  0.013171535            5 
 3715000    0.6628628   -8.5177151    620.41854   0.01391697  0.013166898            2 
 3716000   0.65943185     -8.50345    620.32808  0.013911197  0.013162274            1 
 3717000    0.6628906   -8.5198314    620.84928  0.013919139  0.013157656            3 
 3718000   0.66396119   -8.5266297     621.5925  0.013932054  0.013153034            2 
 3719000   0.66082221   -8.5203646     620.4455  0.013902606  0.013148416            2 
 3720000   0.67326957   -8.5110276    620.07799  0.013890636  0.013143801            2 
 3721000   0.64468892   -8.5239265    620.64514  0.013899604  0.013139185            1 
 3722000   0.66204152   -8.4966935    620.97155  0.013903178  0.013134577            3 
 3723000   0.64057277    -8.524402    621.18809  0.013904291  0.013129963            4 
 3724000   0.65903931   -8.5368223    620.14552  0.013877227  0.013125355            2 
 3725000   0.65635768   -8.5280825    620.31946  0.013877393  0.013120752            4 
 3726000   0.66960758   -8.5163258    621.85578  0.013908029  0.013116154            5 
 3727000    0.6558364   -8.5061337    620.66381  0.013877645  0.013111558            2 
 3728000   0.63481792   -8.4932632    621.75762  0.013898373  0.013106959            4 
 3729000   0.65487437   -8.5260976    619.78665    0.0138506   0.01310236            3 
 3730000   0.65549744   -8.5169129    620.26593  0.013857594  0.013097765            5 
 3731000   0.65805607   -8.5152354    621.77031  0.013887481  0.013093177            1 
 3732000   0.65485942   -8.5099345    620.26459  0.013850138  0.013088585            3 
 3733000   0.65245569   -8.5148909    621.22253  0.013867813  0.013084005            2 
 3734000   0.64865148    -8.491268    621.02691  0.013859733   0.01307943            3 
 3735000   0.65687217   -8.4978743    622.07939  0.013879505  0.013074857            2 
 3736000   0.67148368   -8.5184808    621.66019  0.013866439  0.013070279            6 
 3737000   0.64711109   -8.5135924    621.88813  0.013867811  0.013065716            3 
 3738000   0.66277361   -8.4889133    621.03288  0.013845035  0.013061143            3 
 3739000   0.65653823   -8.5026343    621.37218  0.013848894  0.013056566            3 
 3740000   0.65565308   -8.4970065    620.62707  0.013828589  0.013051989            4 
 3741000   0.66740306   -8.5007569    621.26674  0.013839141  0.013047413            2 
 3742000   0.64830179   -8.5062787    620.04483  0.013808232  0.013042835            3 
 3743000   0.63978638   -8.5303304    620.30421  0.013810317  0.013038256            4 
 3744000   0.65101602   -8.5079761    620.76722  0.013816934  0.013033676            6 
 3745000   0.65484965   -8.4878612    620.65411  0.013810728  0.013029104            4 
 3746000   0.63590604   -8.5178795    620.47654  0.013803091   0.01302453            3 
 3747000   0.65818994   -8.5142488    621.16406  0.013814698  0.013019964            4 
 3748000   0.66477338   -8.5042601    620.54718  0.013797296  0.013015394            3 
 3749000   0.64155683   -8.5087996    621.50345  0.013814872  0.013010821            2 
 3750000   0.64260119   -8.5194868    621.45896  0.013810199  0.013006253            9 
 3751000   0.64575903   -8.4929642    620.73227  0.013790373  0.013001687            3 
 3752000   0.65891425   -8.5129707    621.47738  0.013803247   0.01299712            4 
 3753000    0.6514257   -8.5002797    621.71581  0.013804863  0.012992555            4 
 3754000   0.64144316   -8.5094305    621.16567  0.013788973   0.01298799            2 
 3755000   0.64436496   -8.5071349    621.48398  0.013792365  0.012983425            3 
 3756000   0.64773091   -8.5095633    622.03685   0.01380096  0.012978873            4 
 3757000   0.65681801    -8.517798      620.962  0.013773445  0.012974323            2 
 3758000   0.65444592   -8.4990837    620.49172  0.013759352  0.012969783            1 
 3759000    0.6342896   -8.5123143    620.80472   0.01376263  0.012965232            3 
 3760000   0.66413818    -8.526349    620.40306  0.013750068  0.012960672            2 
 3761000   0.64494858   -8.5136188     621.8363  0.013778168  0.012956121            2 
 3762000   0.65479444   -8.5483645    620.36199  0.013741848  0.012951569            3 
 3763000   0.65863778   -8.5153408    619.73237  0.013724253  0.012947016            2 
 3764000   0.64600107   -8.5128845    619.00238  0.013704445  0.012942462            5 
 3765000   0.66087246   -8.5148949    622.24009  0.013772468  0.012937922            5 
 3766000   0.64852941   -8.5181821    619.78363  0.013714455  0.012933386            2 
 3767000   0.65186717   -8.5330422    621.11729  0.013740317  0.012928849            2 
 3768000   0.63755172   -8.5087742    621.05224  0.013735232  0.012924323            5 
 3769000   0.65070434   -8.5123925    622.31102  0.013759419  0.012919794            1 
 3770000   0.64528044   -8.5396655    619.01211  0.013682849  0.012915265            1 
 3771000   0.65448557   -8.5118903     620.2729  0.013707083  0.012910732            3 
 3772000   0.64540954   -8.5292421    619.92624   0.01369579  0.012906196            2 
 3773000   0.65020121    -8.545976    619.60411  0.013685045  0.012901653            2 
 3774000   0.65023953   -8.5300045     620.6594  0.013704721  0.012897117            2 
 3775000   0.63090169    -8.543207    619.79995  0.013682118  0.012892584            4 
 3776000   0.64661322   -8.5349986    620.49651  0.013693867  0.012888045            2 
 3777000   0.65233528   -8.5320914    620.65054   0.01369364  0.012883508            3 
 3778000   0.63293307   -8.5072238     619.9474  0.013674506  0.012878973            4 
 3779000   0.65968039   -8.5287625    621.30099  0.013700736  0.012874449            4 
 3780000   0.63830076   -8.5311121    620.34209  0.013675972  0.012869914            3 
 3781000   0.65045147   -8.5233112    621.40617  0.013695807  0.012865392            2 
 3782000   0.64107688   -8.4976967    621.78284  0.013700486  0.012860868            2 
 3783000   0.65118365   -8.5405966     620.6887  0.013672762  0.012856358            3 
 3784000   0.63472996   -8.5528718    621.39412  0.013684684  0.012851846            6 
 3785000   0.65331716   -8.5194263    620.82826   0.01366861  0.012847332            3 
 3786000   0.64636938   -8.5269507    621.38777  0.013677315  0.012842821            2 
 3787000   0.65136643   -8.5208793    620.64989  0.013657466  0.012838306            5 
 3788000   0.65600752   -8.5197596    620.34673  0.013647191  0.012833788            3 
 3789000   0.65595308   -8.5314833    620.96117  0.013657103   0.01282928            1 
 3790000   0.64511272   -8.5357209    620.30363  0.013639042  0.012824765            3 
 3791000   0.64989627   -8.5459669    620.87968  0.013648107  0.012820253            3 
 3792000   0.63040833   -8.5446764    619.23291  0.013608318  0.012815749            2 
 3793000   0.64045593   -8.5183627    621.06492   0.01364498   0.01281124            5 
 3794000   0.64586122   -8.5078856    620.90942  0.013637968   0.01280674            3 
 3795000   0.65196572   -8.5092677    620.64164  0.013628495  0.012802251            2 
 3796000   0.64434086   -8.5235693     620.9949  0.013632659   0.01279776            1 
 3797000   0.65086367   -8.5347405    619.56239  0.013597629  0.012793269            4 
 3798000   0.64216027    -8.519948    620.11838  0.013606248   0.01278877            3 
 3799000   0.63241539   -8.5387303    618.99863  0.013578105  0.012784277            2 
 3800000   0.64253693   -8.5117345    620.83348  0.013614769   0.01277978            1 
 3801000   0.65434761   -8.5358254    621.44995  0.013624703  0.012775294            7 
 3802000   0.64978969   -8.5435359     620.5631  0.013601681  0.012770806            2 
 3803000   0.62378485   -8.5486718    620.71674  0.013601471  0.012766318            3 
 3804000   0.65186781   -8.5312598    619.39326  0.013568902  0.012761819            4 
 3805000   0.63955727   -8.5314979    620.74194  0.013594874  0.012757325            1 
 3806000     0.640388   -8.5537001    618.75438  0.013547784   0.01275283            1 
 3807000   0.64425241   -8.5425737     619.4541  0.013559542  0.012748333            6 
 3808000   0.65493987   -8.5384526    620.17187  0.013571688  0.012743845            2 
 3809000    0.6522244   -8.5352181    619.61937  0.013556038  0.012739354            3 
 3810000   0.65280019   -8.5270177    620.81743  0.013578684  0.012734864            4 
 3811000   0.64730462   -8.5485405    620.36391  0.013565204  0.012730374            2 
 3812000   0.65950547   -8.5580317    619.64938  0.013546025  0.012725879            2 
 3813000   0.65085508   -8.5700946    618.93721  0.013526908  0.012721386            3 
 3814000   0.64274389   -8.5652689     620.2221  0.013551436  0.012716896            2 
 3815000   0.64152191   -8.5460334    621.20174  0.013569282  0.012712409            3 
 3816000   0.65330109   -8.5512433    619.54213  0.013529484  0.012707925            4 
 3817000   0.66021064   -8.5613068    618.97323  0.013513519  0.012703436            3 
 3818000   0.64439644   -8.5549248     618.9259  0.013508947  0.012698957            1 
 3819000   0.63984192   -8.5684381    620.29688  0.013535325  0.012694469            6 
 3820000   0.63871892   -8.5562213     620.5159   0.01353656  0.012689984            1 
 3821000   0.63410056   -8.5580943    619.98377  0.013521412  0.012685507            1 
 3822000   0.64195743    -8.577749    619.14545  0.013499595  0.012681024            2 
 3823000   0.64475738   -8.5544349    618.88456  0.013490377  0.012676547            6 
 3824000   0.64198729   -8.5316038    620.13912  0.013514189  0.012672078            6 
 3825000   0.63925906   -8.5646736    620.07722  0.013509308  0.012667609           10 
 3826000   0.64573173   -8.5593484    620.61792  0.013517554  0.012663146            3 
 3827000   0.64584988   -8.5368991    619.67601  0.013493511  0.012658684            3 
 3828000   0.64498386   -8.5519044    619.34093  0.013482692  0.012654224            4 
 3829000    0.6481257   -8.5557151    619.02049  0.013472197  0.012649755            2 
 3830000   0.63568742   -8.5452249    619.44913  0.013478005  0.012645289            4 
 3831000   0.64430311   -8.5445717    619.66584  0.013479201  0.012640821            3 
 3832000   0.64364105   -8.5585137    619.65499  0.013475448  0.012636348            5 
 3833000   0.63889039   -8.5540513    620.06789  0.013480909   0.01263187            2 
 3834000   0.64529075    -8.539807    620.07906  0.013477636  0.012627399            4 
 3835000   0.63342932   -8.5675648    618.94083  0.013449388  0.012622931            2 
 3836000   0.64868149   -8.5638874     618.8044  0.013442918  0.012618456            7 
 3837000   0.63666038   -8.5793623    620.63956  0.013479271  0.012613988            2 
 3838000    0.6295063   -8.5658906    619.64475  0.013454159  0.012609522            2 
 3839000    0.6313552   -8.5693259     618.9822  0.013436273   0.01260507            5 
 3840000   0.63857208   -8.5585563    619.82666  0.013451099  0.012600607            3 
 3841000   0.63415364   -8.5577594    619.82892  0.013447647  0.012596145            2 
 3842000   0.63329137   -8.5558271    619.25169  0.013431626  0.012591684            1 
 3843000   0.62900305   -8.5511605    619.11532  0.013425174  0.012587221            3 
 3844000   0.63569622   -8.5667217    619.45931  0.013429139  0.012582766            3 
 3845000    0.6379994   -8.5659919    618.80058  0.013411369  0.012578314            2 
 3846000   0.64024767   -8.5793963    618.92907  0.013410666  0.012573864            3 
 3847000   0.63712526   -8.5811104    619.89601  0.013428126  0.012569414            4 
 3848000   0.62945067   -8.5512117    619.88227  0.013424339  0.012564978            6 
 3849000   0.64067334   -8.5827443    620.60668  0.013436535  0.012560531            5 
 3850000   0.63199601   -8.5833587    619.11804  0.013400823  0.012556082            2 
 3851000   0.65068655   -8.5457491    619.74389  0.013410887  0.012551638            5 
 3852000   0.62772423    -8.564794    618.79515   0.01338688  0.012547194            3 
 3853000   0.63883105   -8.5847135    619.57336  0.013400237  0.012542746            4 
 3854000   0.63333998    -8.556689    618.47032   0.01337291  0.012538308            4 
 3855000   0.64431779   -8.5874773    618.85799  0.013377821  0.012533866            3 
 3856000    0.6428804   -8.5518547    619.50966  0.013388435  0.012529432            4 
 3857000   0.63245349   -8.5801801    618.64104  0.013366197  0.012524997            3 
 3858000   0.64691317   -8.5678167    618.86191  0.013367503  0.012520567            3 
 3859000   0.64683352   -8.5637211    619.65977  0.013381268  0.012516141            4 
 3860000   0.65168177   -8.5552471    620.29324  0.013391478   0.01251173            5 
 3861000   0.63271404   -8.5572175    618.41229  0.013347412  0.012507314            1 
 3862000   0.63646104   -8.5709613    618.20944  0.013339579  0.012502896            3 
 3863000   0.62894916   -8.5484343    620.01345  0.013375042  0.012498475            2 
 3864000   0.65526408   -8.5591721    619.75272  0.013365958  0.012494065            3 
 3865000    0.6207101   -8.5725448    618.54047  0.013336362  0.012489651            5 
 3866000   0.63096043   -8.5861989    619.12016  0.013345408  0.012485236            2 
 3867000   0.63408583    -8.550032    619.88656  0.013358473  0.012480824            1 
 3868000   0.61774607   -8.5753024    619.06188  0.013337252  0.012476409            1 
 3869000   0.63015539   -8.5802218    618.80277  0.013328224  0.012471992            2 
 3870000   0.62768074   -8.5674962    618.14322  0.013310578  0.012467578            1 
 3871000   0.62382667   -8.5768635    618.87942  0.013322987  0.012463167            2 
 3872000    0.6296305   -8.5521814    619.18791  0.013326186  0.012458757            1 
 3873000    0.6068728   -8.5753295    619.03307  0.013319414  0.012454349            3 
 3874000   0.64036442   -8.5572476    619.26196  0.013320899  0.012449942            1 
 3875000   0.63039325   -8.5671426    620.05909  0.013334604  0.012445543            5 
 3876000   0.62732135   -8.5503389    619.94519  0.013328715  0.012441155            1 
 3877000   0.64471378   -8.5805865    618.28154  0.013289518  0.012436759            6 
 3878000   0.62100081   -8.5754098    619.44515  0.013311096  0.012432363            5 
 3879000   0.63732271   -8.5729412    618.92978  0.013296592  0.012427973            4 
 3880000   0.63627956   -8.5622974    620.44256  0.013325656   0.01242359            2 
 3881000   0.64323288   -8.5689386    619.47978   0.01330155   0.01241921            4 
 3882000   0.63523078   -8.5677675    619.11563  0.013290306  0.012414832            3 
 3883000   0.63977316   -8.5758714     620.7961  0.013322948  0.012410463            7 
 3884000   0.62986852   -8.5614222    619.29596  0.013287332  0.012406085            2 
 3885000    0.6303214   -8.5636676    619.36632  0.013285421  0.012401711            1 
 3886000   0.63586799    -8.567258    618.53886  0.013264257  0.012397335            4 
 3887000   0.62819314   -8.5747996    618.25389  0.013254736  0.012392958            1 
 3888000   0.61658872   -8.5577972    619.39248   0.01327573  0.012388575            5 
 3889000   0.63293291   -8.5600232    619.45887  0.013273739  0.012384203            9 
 3890000   0.63166583   -8.5736272     618.2933  0.013245358  0.012379822            3 
 3891000   0.62926338   -8.5788652     620.1247  0.013281177  0.012375446           12 
 3892000   0.63361968   -8.5824627    619.66005  0.013267815  0.012371077           13 
 3893000   0.62487906   -8.5738278    618.42232  0.013237912  0.012366708            6 
 3894000   0.62175667   -8.5997271    618.56613   0.01323759   0.01236234            5 
 3895000   0.62106746   -8.5741174    618.58611  0.013234619  0.012357972            3 
 3896000   0.63411108    -8.569367    618.01867  0.013219085  0.012353602            2 
 3897000   0.61887915   -8.5822884     618.7819  0.013232014  0.012349237            2 
 3898000   0.62633202   -8.5599707    619.61726  0.013246478   0.01234487            3 
 3899000   0.62696007   -8.5814367     618.6544  0.013222502  0.012340497            2 
 3900000   0.62991235    -8.597082    617.77228  0.013200262  0.012336123            2 
 3901000   0.63639621   -8.5660931     619.6842  0.013237721  0.012331765            5 
 3902000   0.62232481   -8.5943258     618.0597  0.013199635  0.012327407            2 
 3903000   0.63119813    -8.590784    618.30822  0.013201559  0.012323035            2 
 3904000   0.62672456   -8.5808404    618.74438  0.013207488  0.012318677            3 
 3905000    0.6278923   -8.5986762    618.50885  0.013199079  0.012314316            4 
 3906000   0.63956735    -8.598665    619.52393  0.013217356  0.012309959            2 
 3907000   0.63515688   -8.5976668    619.16976  0.013206419  0.012305606            6 
 3908000   0.61744952   -8.6064489     618.0241   0.01317861  0.012301251            4 
 3909000   0.62035469   -8.5998082    618.62124  0.013187969  0.012296895            7 
 3910000   0.63030307    -8.604726    619.32189  0.013199529   0.01229254            2 
 3911000   0.62948971   -8.5870123    618.18297  0.013171886   0.01228819            8 
 3912000   0.62846933   -8.5756085    618.57484  0.013176867  0.012283842            8 
 3913000    0.6386088   -8.5863697    617.82968   0.01315763    0.0122795            4 
 3914000   0.62747935   -8.5759525     618.7967  0.013174857  0.012275155           10 
 3915000    0.6276558   -8.5844502     619.6432  0.013189511  0.012270816            2 
 3916000   0.62564844   -8.5689495    619.39931  0.013180952  0.012266481            2 
 3917000   0.62253469   -8.5783453    620.19309  0.013194475  0.012262145            3 
 3918000   0.62473409   -8.5701041    619.09298  0.013167708  0.012257809           12 
 3919000   0.62750898   -8.5582341    619.04789   0.01316339  0.012253475            6 
 3920000   0.61718619   -8.5831819    618.33939   0.01314497  0.012249146            2 
 3921000    0.6255268    -8.578644    618.00144  0.013134435  0.012244823            1 
 3922000   0.62272923   -8.5844725     619.8069  0.013169448  0.012240497            2 
 3923000   0.61846567   -8.5786991    618.13826  0.013130645  0.012236162            1 
 3924000   0.62584228   -8.5789914    618.17781  0.013128139  0.012231835            4 
 3925000   0.62721889    -8.605441    617.10012  0.013101913  0.012227511            5 
 3926000   0.62915555   -8.5870148    619.81335  0.013156167  0.012223189            9 
 3927000   0.62915623    -8.575324    618.73301  0.013129892   0.01221887            2 
 3928000   0.62719621     -8.57907     618.4923  0.013121442  0.012214553            2 
 3929000   0.61480812   -8.5940146    619.09287  0.013130841  0.012210234            2 
 3930000   0.61929842    -8.587441    619.42148  0.013134467  0.012205925            2 
 3931000   0.63883888   -8.6095604    619.60994  0.013135121  0.012201607            2 
 3932000   0.62017725   -8.5786238    619.16314  0.013122311  0.012197289            3 
 3933000   0.62019252   -8.6134938    616.95301  0.013072146  0.012192973            1 
 3934000   0.62714966   -8.6062948    619.28434  0.013118207  0.012188657            6 
 3935000   0.61544395   -8.5941091     618.9735  0.013108291  0.012184346           13 
 3936000   0.60828924   -8.6110022    617.98333  0.013083997  0.012180038            2 
 3937000   0.62027775   -8.5996103    619.08857  0.013104068  0.012175733            2 
 3938000   0.61682132   -8.5839031    618.52232  0.013088757  0.012171433            4 
 3939000   0.61292458   -8.6002307    618.26641   0.01308002  0.012167134            1 
 3940000   0.61906303   -8.5885582    618.87616  0.013089597  0.012162836            1 
 3941000   0.61021923   -8.5827119    618.82011  0.013085091  0.012158539            3 
 3942000   0.62435455   -8.6006679    617.47727  0.013053384  0.012154236            1 
 3943000   0.63471116   -8.6045234    618.47916  0.013071248  0.012149942            1 
 3944000   0.61654552   -8.6071248    618.65944  0.013071743  0.012145645            2 
 3945000   0.62668345   -8.5891983    618.37005  0.013062316  0.012141358            3 
 3946000   0.62639252   -8.6042043    618.20922  0.013055609  0.012137064            4 
 3947000   0.62818786    -8.575818    619.45279  0.013078557  0.012132778            2 
 3948000   0.61713159   -8.5783748    618.06986  0.013046054  0.012128495            2 
 3949000   0.62001115   -8.5886827    618.97208  0.013061789   0.01212421            1 
 3950000   0.60471876   -8.5975135    618.71872  0.013053137  0.012119925            2 
 3951000   0.62056932   -8.5980354    618.74722  0.013050435  0.012115645            1 
 3952000   0.62507594   -8.6123376    618.33604  0.013038462  0.012111361            2 
 3953000   0.61488587   -8.6091674    618.24843  0.013033317  0.012107086            3 
 3954000   0.60936903   -8.5953308    619.22093  0.013050517  0.012102809            1 
 3955000     0.617621   -8.5956533    618.96473  0.013041819  0.012098527            3 
 3956000   0.62830838   -8.6026268    618.51171  0.013028979  0.012094254            2 
 3957000   0.62897131   -8.5982205     619.1091  0.013038268   0.01208999            2 
 3958000   0.60651241   -8.5959723    617.64401  0.013004127  0.012085727            2 
 3959000   0.60579597   -8.6050142    618.03674  0.013009109  0.012081457            3 
 3960000   0.61537425   -8.5920017    618.67819  0.013019322  0.012077193            6 
 3961000   0.61628561   -8.5818315    618.93017  0.013021336  0.012072929            1 
 3962000   0.62181622    -8.592954    618.89722  0.013017357  0.012068669            1 
 3963000   0.60597392   -8.6152067    618.26117  0.013000698   0.01206441            1 
 3964000   0.61748922   -8.6148265     618.3287  0.012998838  0.012060148            2 
 3965000   0.61774468   -8.5875277      619.341  0.013016835   0.01205589            1 
 3966000   0.63063376   -8.6186591    619.19534  0.013010492  0.012051634            1 
 3967000   0.60639708   -8.6065692    617.59265  0.012973545  0.012047383            2 
 3968000   0.59694331   -8.5930691    618.26451  0.012984386   0.01204313            4 
 3969000   0.60201476    -8.605861    617.38859  0.012962723  0.012038873            2 
 3970000   0.62093628   -8.6079235    618.98592  0.012992987  0.012034615            3 
 3971000   0.61778228   -8.6190586    618.25403  0.012974356  0.012030365            3 
 3972000   0.62103267   -8.5931812    618.93991   0.01298548  0.012026111            3 
 3973000   0.61118116   -8.6098357    618.15651   0.01296578   0.01202186            3 
 3974000   0.63190893   -8.6309835    617.75772  0.012954154   0.01201762            1 
 3975000   0.61181307    -8.614571    617.84415  0.012952708  0.012013367            2 
 3976000   0.60706336   -8.6184181    618.41413  0.012961396  0.012009123            5 
 3977000   0.62366762   -8.6107167    618.88882  0.012968084  0.012004877            2 
 3978000   0.61607907   -8.6118448    617.46371   0.01293497   0.01200063            4 
 3979000   0.60328244   -8.6143223    618.51446  0.012953725  0.011996393            2 
 3980000   0.61358685   -8.6030331    617.50687  0.012929373  0.011992162            3 
 3981000   0.61639147   -8.5905288    618.58465  0.012948686  0.011987934            1 
 3982000   0.61672942   -8.6176813    617.76425  0.012928266  0.011983703            1 
 3983000   0.60675538   -8.6408348    618.50195  0.012940454  0.011979472            3 
 3984000   0.61110238   -8.5848786    618.75795  0.012942561  0.011975243            2 
 3985000   0.60085837   -8.6252085    617.73469  0.012917915  0.011971016            6 
 3986000   0.60198715   -8.6235405    618.83359  0.012937648  0.011966785            2 
 3987000   0.62107537   -8.6240682    617.79727  0.012912743  0.011962562            3 
 3988000   0.61585287   -8.6207138    618.05631  0.012914918  0.011958336            2 
 3989000    0.6050487   -8.6033791    618.29328  0.012916631  0.011954112            2 
 3990000   0.61170672   -8.6120707     618.2904  0.012913333  0.011949891            1 
 3991000   0.62052058    -8.628579    617.45036  0.012892557  0.011945669            2 
 3992000   0.62819155   -8.6054446    618.63226     0.012914  0.011941448            2 
 3993000   0.61451653   -8.6352638    618.21189  0.012901993  0.011937231            2 
 3994000   0.61859563   -8.6201488     617.9646  0.012893603  0.011933011            2 
 3995000   0.61338964   -8.5997265    618.64843   0.01290464  0.011928797            2 
 3996000   0.61189948   -8.6126881    618.99346  0.012908606  0.011924584            5 
 3997000   0.59697419   -8.6132267    619.53818  0.012916733   0.01192038            3 
 3998000   0.60385214    -8.629775    617.79877  0.012877246  0.011916171            1 
 3999000   0.59318904    -8.603946     618.9213  0.012897418  0.011911969            1 
 4000000   0.60922477   -8.6319691     618.8353  0.012892402  0.011907769            4 
 4001000   0.61426123   -8.6329979    617.71405  0.012865826  0.011903566            1 
 4002000   0.60777926   -8.6163257    617.46633  0.012857453   0.01189935            1 
 4003000   0.61643991   -8.6394054    617.54207  0.012855818  0.011895144            2 
 4004000   0.60019428   -8.6291612    617.37861  0.012849205  0.011890939            2 
 4005000   0.60997769   -8.6202979    617.47579  0.012848019  0.011886733            2 
 4006000   0.60900094   -8.6265976    619.10908  0.012878788  0.011882528            4 
 4007000   0.60937634   -8.6450438    618.38109  0.012860434  0.011878331            1 
 4008000   0.61527471   -8.6112672    617.73331  0.012843757  0.011874134            2 
 4009000   0.60542815   -8.6240369    617.14175  0.012828256  0.011869939            2 
 4010000   0.60768499   -8.6207242    617.15057   0.01282524  0.011865745            2 
 4011000   0.60868079   -8.6179831     618.5839  0.012851822  0.011861556            2 
 4012000   0.60308218   -8.6194114    618.18712  0.012840377  0.011857365            4 
 4013000   0.59079442   -8.6311115    617.40442  0.012820924  0.011853175            5 
 4014000   0.60187916   -8.6267673    617.73712  0.012824637  0.011848987            1 
 4015000    0.6014794   -8.6380656    617.76562  0.012822034  0.011844797            4 
 4016000   0.60485661   -8.6364398     617.8572  0.012820742  0.011840606            5 
 4017000   0.60491059   -8.6180596    617.66336  0.012813529  0.011836421            1 
 4018000   0.59980244   -8.6125883     617.3683   0.01280422  0.011832239            3 
 4019000   0.62173261   -8.6039201    617.22396  0.012798042  0.011828054            2 
 4020000   0.61138086   -8.6204084    618.28031  0.012816756  0.011823871            1 
 4021000   0.61028633   -8.6291165    617.91515  0.012806001  0.011819689            1 
 4022000   0.61329783   -8.6365356    618.14231  0.012807523  0.011815507            2 
 4023000   0.61298442   -8.6282489    617.05625  0.012781843   0.01181133            2 
 4024000   0.60340659   -8.6135138    616.53252  0.012767821  0.011807151            1 
 4025000   0.61141589     -8.62504    618.01818  0.012795407  0.011802974            1 
 4026000   0.60083366   -8.6322482    617.14467  0.012774149  0.011798804            2 
 4027000   0.60908411   -8.6295703    618.25245  0.012793901  0.011794633            4 
 4028000   0.60874554   -8.6128175    617.27565  0.012770516  0.011790462            2 
 4029000   0.60060617   -8.6270042     617.9141  0.012780551  0.011786292            1 
 4030000   0.60058788   -8.6382388     617.3536   0.01276579  0.011782128            2 
 4031000    0.5974818   -8.6475116      617.391  0.012763396  0.011777959            2 
 4032000   0.59735092   -8.6285738    617.09745  0.012754164  0.011773794            4 
 4033000   0.59957841   -8.6272031    617.37907   0.01275682  0.011769634            1 
 4034000   0.58817657   -8.6382901     617.7143  0.012760583  0.011765475            2 
 4035000   0.61686368   -8.6324374    618.36232  0.012770804  0.011761315            1 
 4036000   0.61303272   -8.6407204    617.80768  0.012756188  0.011757159            2 
 4037000   0.60538193   -8.6175353    617.36155  0.012743819  0.011753005            1 
 4038000   0.59624163   -8.6195402      617.932  0.012752435  0.011748855            4 
 4039000   0.59810558   -8.6442357    617.99431  0.012750564  0.011744707            1 
 4040000    0.6023316   -8.6319543    618.05284  0.012748615  0.011740553            1 
 4041000   0.60591377    -8.637041     617.6208   0.01273655  0.011736396            4 
 4042000   0.60753336   -8.6284212    615.95545  0.012699065  0.011732249            3 
 4043000    0.6099163   -8.6335736    616.59647  0.012709137  0.011728108            3 
 4044000   0.60350886    -8.638286    617.93971  0.012733673  0.011723965            2 
 4045000   0.59550345   -8.6383591    616.97267  0.012710603  0.011719823            3 
 4046000   0.61440173    -8.625806    618.20018  0.012732744   0.01171568            2 
 4047000    0.6063261   -8.6397588    617.66545  0.012718587  0.011711539            1 
 4048000   0.59228954   -8.6318159    618.08308  0.012724042  0.011707404            2 
 4049000   0.60083704   -8.6341933    617.34459  0.012705701  0.011703269            1 
 4050000   0.60659641   -8.6493785    616.87938  0.012692991  0.011699142            2 
 4051000   0.59170154   -8.6450459    618.50246  0.012723247  0.011695011            1 
 4052000   0.60850957   -8.6463969    617.20064  0.012693333  0.011690887            2 
 4053000   0.61314244   -8.6184534    616.69799  0.012679867  0.011686761            2 
 4054000   0.61004874    -8.612071    617.18719  0.012686795  0.011682638            3 
 4055000   0.60210924   -8.6648921    617.41639  0.012688376  0.011678515            2 
 4056000    0.6001512   -8.6492666    617.62122  0.012689456  0.011674397            2 
 4057000   0.59841891   -8.6417443    616.30649  0.012659323  0.011670278            2 
 4058000   0.61125791   -8.6559849    617.62059  0.012683189  0.011666162            1 
 4059000   0.59615089   -8.6519737    617.70513    0.0126818  0.011662048            2 
 4060000    0.5844035     -8.63265    617.60266  0.012676574  0.011657928            1 
 4061000   0.59302494   -8.6499269    618.08408  0.012683331   0.01165381            1 
 4062000   0.59230751   -8.6264119    618.65642   0.01269195  0.011649697            1 
 4063000   0.60292216   -8.6422489    617.04606  0.012655797  0.011645583            2 
 4064000   0.60287309   -8.6423719    617.89667  0.012670125  0.011641481            3 
 4065000   0.60419742   -8.6678063    617.91281  0.012667339  0.011637369            2 
 4066000   0.60163468   -8.6271079    617.25852  0.012650814  0.011633264            1 
 4067000    0.5986137   -8.6658203    617.66461  0.012656024   0.01162916            2 
 4068000   0.58482888    -8.626397    618.60317   0.01267214  0.011625061            1 
 4069000   0.61005712   -8.6368541    616.73345  0.012630733  0.011620962            2 
 4070000   0.60296722   -8.6142318    616.86674  0.012630359  0.011616864            1 
 4071000   0.58357517    -8.645136     617.0615  0.012631243   0.01161277            6 
 4072000   0.61376279   -8.6225623    617.27767  0.012632565  0.011608676            2 
 4073000   0.60307674    -8.624819      618.061  0.012645491  0.011604586            1 
 4074000   0.62080171   -8.6313869    617.06562  0.012622026  0.011600491            1 
 4075000   0.60625563   -8.6379688    617.50523  0.012627919  0.011596394            3 
 4076000   0.60071647   -8.6471161    618.10075  0.012636996  0.011592303            1 
 4077000   0.59182767   -8.6331513     617.0667  0.012612761  0.011588217            3 
 4078000   0.59787323   -8.6463546    617.86886   0.01262606  0.011584132            2 
 4079000   0.59428452    -8.648421    616.99874  0.012605188  0.011580045            2 
 4080000   0.59398686   -8.6383766    617.01567  0.012602444  0.011575958            1 
 4081000    0.5963757   -8.6278491    618.22584  0.012624068  0.011571872            1 
 4082000   0.60585163   -8.6372235    616.49738  0.012585689  0.011567795            1 
 4083000   0.60040148   -8.6325123    616.70398  0.012586823  0.011563712            1 
 4084000   0.59476486   -8.6446324     617.4573  0.012599112  0.011559633            2 
 4085000   0.60600767   -8.6445701    616.59679  0.012578474  0.011555559            3 
 4086000   0.59737812   -8.6530443    617.48165  0.012593442  0.011551485            1 
 4087000   0.60021203   -8.6544843    618.03614  0.012601667  0.011547409            1 
 4088000   0.60483319    -8.646038     617.1475  0.012580469  0.011543338            2 
 4089000   0.61199489   -8.6425887    616.73787  0.012569044  0.011539265            1 
 4090000   0.59869973   -8.6385637    616.58291  0.012562814  0.011535192            3 
 4091000   0.60269896   -8.6270457    616.32511  0.012554492  0.011531126            4 
 4092000   0.59839483   -8.6516955    617.18209  0.012568876   0.01152706            1 
 4093000   0.60279071   -8.6243568    617.76895  0.012577754  0.011522993            1 
 4094000   0.59953691   -8.6418027    617.90472  0.012577445  0.011518931            3 
 4095000   0.61030739   -8.6479573    615.71989  0.012529912  0.011514867            2 
 4096000   0.60205595   -8.6566884    615.96708  0.012531882  0.011510805            1 
 4097000   0.58727322   -8.6457095    615.81445  0.012525719  0.011506738            1 
 4098000    0.5916112   -8.6432792    618.31347   0.01257348  0.011502677            2 
 4099000   0.60404377   -8.6567075    616.35737  0.012530645  0.011498613            2 
 4100000   0.59900335   -8.6489787    616.86846  0.012537977  0.011494551            3 
 4101000   0.59382752   -8.6423703    616.95252  0.012536628  0.011490489            2 
 4102000   0.57966146    -8.650552    616.48511  0.012524076  0.011486429            1 
 4103000   0.59149215   -8.6407882     616.5587  0.012522518  0.011482378            2 
 4104000   0.60248591   -8.6353314    615.66467  0.012501313  0.011478325            2 
 4105000   0.59829068   -8.6646926    616.30713   0.01251131  0.011474276            4 
 4106000   0.58678122   -8.6628787    617.24792  0.012527357  0.011470227            2 
 4107000   0.59096652   -8.6489454    616.50891  0.012509312  0.011466178            2 
 4108000   0.59514678   -8.6541444    617.21986  0.012520688  0.011462133            2 
 4109000   0.57954342   -8.6638916     616.5221   0.01250349  0.011458083            3 
 4110000   0.59334131   -8.6655748    617.02454  0.012510635  0.011454033            2 
 4111000   0.60900528   -8.6593604    616.66865  0.012500378  0.011449989            1 
 4112000   0.59962024   -8.6531963    616.29345  0.012489734  0.011445942            3 
 4113000   0.60986885    -8.657424    617.11593  0.012503362  0.011441896            3 
 4114000   0.59541321   -8.6619402    616.89739  0.012495896  0.011437857            6 
 4115000   0.59880892   -8.6662976    616.33329  0.012481436  0.011433826            4 
 4116000   0.58906545   -8.6604973    616.53667  0.012482521   0.01142979            1 
 4117000   0.58751637   -8.6546364    617.00056  0.012488879   0.01142576            2 
 4118000   0.58297947   -8.6602638    616.56862  0.012477105  0.011421729            4 
 4119000   0.58953319   -8.6482343    617.38476  0.012490588    0.0114177            2 
 4120000   0.58677126   -8.6752213    615.86361  0.012456788  0.011413665            3 
 4121000   0.58823499   -8.6576244     616.9815  0.012476371  0.011409636            1 
 4122000   0.58487819   -8.6571555    615.98531  0.012453204  0.011405608            3 
 4123000   0.58275532   -8.6534394    616.80307  0.012466713   0.01140158            2 
 4124000   0.58368374   -8.6822464    615.35511  0.012434431  0.011397551            4 
 4125000   0.60462447   -8.6631368    617.27193   0.01247014  0.011393526            1 
 4126000   0.59808302   -8.6752688    616.68567  0.012455277  0.011389506            1 
 4127000   0.58844069   -8.6493137    617.48272  0.012468353  0.011385485            2 
 4128000   0.58539357   -8.6310795    617.17578  0.012459136  0.011381469            2 
 4129000   0.59995473    -8.674749    615.77806  0.012427909  0.011377451            4 
 4130000   0.58957545   -8.6893176    616.87828    0.0124471  0.011373439            1 
 4131000   0.59398208   -8.6745901    617.36676  0.012453941  0.011369431            3 
 4132000   0.59691919    -8.677069    616.50765  0.012433601  0.011365421            3 
 4133000   0.59618071   -8.6611444    616.34355  0.012427284  0.011361409            1 
 4134000   0.58028714   -8.6602316    615.84818  0.012414292    0.0113574            2 
 4135000   0.58647323   -8.6399363     616.3291  0.012420981  0.011353393            2 
 4136000   0.60033615    -8.674575    617.33341  0.012438213  0.011349387            1 
 4137000   0.60420606   -8.6659135    616.98625  0.012428214  0.011345384            4 
 4138000   0.59406233   -8.6788411    615.97432  0.012404832  0.011341382            2 
 4139000   0.58439091   -8.6601508    615.93924  0.012401128  0.011337382            3 
 4140000   0.58447228    -8.676283    616.15286  0.012402433  0.011333379            2 
 4141000   0.60106307   -8.6566202    616.85001  0.012413467  0.011329378            2 
 4142000   0.59271996    -8.667713    616.22105  0.012397816  0.011325383            3 
 4143000   0.59901288   -8.6628159    616.96812   0.01240985  0.011321389            5 
 4144000   0.58649685   -8.6757127    616.19906   0.01239139  0.011317393            4 
 4145000   0.58425832   -8.6659146    615.23936  0.012369106  0.011313403            2 
 4146000   0.58938995   -8.6774771    616.58469  0.012393164  0.011309413            2 
 4147000   0.59587025   -8.7038315    616.79068  0.012394315  0.011305427            4 
 4148000   0.57965328   -8.6636204     616.4423  0.012384328  0.011301436            1 
 4149000   0.60062437   -8.6782047    616.28057  0.012378094   0.01129745            2 
 4150000   0.58704215   -8.6691818    616.96713  0.012388898  0.011293466            1 
 4151000   0.57815826   -8.6781409    617.07951   0.01238817  0.011289483            1 
 4152000   0.57624389   -8.6678776    616.36972   0.01237094  0.011285501            1 
 4153000   0.58181026   -8.6653744    616.60174  0.012372617  0.011281526            1 
 4154000   0.57849849   -8.6848438    615.84959   0.01235455   0.01127755            1 
 4155000   0.58616596   -8.6677232     615.7764  0.012350108  0.011273572            4 
 4156000   0.58753176   -8.6715762    616.36081  0.012358855  0.011269596            3 
 4157000   0.59123917   -8.6844503    615.49223   0.01233847  0.011265622            3 
 4158000   0.58825691   -8.6685147    616.07374  0.012347157  0.011261653            4 
 4159000   0.58859979    -8.670124    616.60362  0.012354805  0.011257685            2 
 4160000   0.58735733   -8.6764102    616.67947  0.012353355  0.011253716            2 
 4161000   0.57957278   -8.6780712    617.06374  0.012358082  0.011249744            2 
 4162000   0.58049116    -8.676606    615.65497  0.012326906  0.011245774            3 
 4163000   0.59352787   -8.6557531    616.10003  0.012332853  0.011241804            2 
 4164000   0.58940463   -8.6664844    616.22523  0.012332397  0.011237836            1 
 4165000   0.57707962   -8.6857567    615.33967  0.012311718  0.011233872            2 
 4166000   0.58640581   -8.6709629    616.69473  0.012335868  0.011229916            3 
 4167000   0.58318731   -8.6849999    616.31944  0.012325403  0.011225962            1 
 4168000   0.58879084   -8.6776916    616.25664   0.01232119  0.011222004            2 
 4169000   0.57792108   -8.6554114    615.84379  0.012309982   0.01121805            2 
 4170000   0.60126724   -8.6840346    615.82755  0.012306706  0.011214096            4 
 4171000   0.58836807   -8.6904436    616.24073   0.01231201  0.011210144            2 
 4172000   0.57630688   -8.7034684    615.37777  0.012291822  0.011206191            4 
 4173000    0.5837651   -8.6889903    615.56917  0.012292698  0.011202236            3 
 4174000    0.5893385   -8.6836004    615.78448  0.012294052  0.011198285            1 
 4175000   0.58645181    -8.679511    616.52875  0.012305963  0.011194336            3 
 4176000   0.58576832    -8.709892    616.00259  0.012292516  0.011190388            3 
 4177000   0.59236852   -8.6766922    615.17219  0.012273007   0.01118644            2 
 4178000   0.57828542   -8.6967876    615.24005  0.012271423  0.011182498            2 
 4179000   0.57653724   -8.6916321    616.32744   0.01229017  0.011178553            2 
 4180000   0.58628812   -8.6927106    616.01879  0.012281076  0.011174607            1 
 4181000   0.57736202   -8.6800856    615.56954  0.012269185  0.011170668            1 
 4182000   0.58232093   -8.6585561    616.73812  0.012289537  0.011166731            2 
 4183000   0.57358039   -8.6758763    615.97665  0.012271429    0.0111628            2 
 4184000    0.5754529   -8.6753968    615.42339  0.012257477  0.011158866            2 
 4185000   0.57719492   -8.6801045    614.94592   0.01224504  0.011154935            2 
 4186000    0.5777712   -8.6788879    615.34337  0.012250027  0.011151002            2 
 4187000   0.58984695   -8.6843894    615.18001   0.01224385  0.011147071            2 
 4188000   0.59242657   -8.6820169    615.65518  0.012250382  0.011143139            2 
 4189000   0.58265867    -8.693648    616.24654  0.012259221  0.011139207            3 
 4190000   0.57312857   -8.6871193    616.62641  0.012263851   0.01113528            3 
 4191000   0.58726897   -8.7032967    615.06914   0.01222996  0.011131351            2 
 4192000   0.57682653   -8.6731595    615.16338  0.012228916   0.01112742            1 
 4193000   0.57529947   -8.6887194     615.1792  0.012226314  0.011123497            2 
 4194000   0.58276632   -8.6884463    616.19607  0.012243603  0.011119575            4 
 4195000   0.57896243   -8.6656639    615.41413  0.012225151  0.011115655            3 
 4196000    0.5755092   -8.6921849    615.62544  0.012226435  0.011111741            4 
 4197000   0.57621071   -8.6857375    616.01026  0.012231162  0.011107824            4 
 4198000   0.58181355   -8.6963275    616.43161  0.012236613  0.011103898            2 
 4199000   0.57127384   -8.7064321    616.36884  0.012232453  0.011099983            3 
 4200000   0.57917863   -8.6906182    615.40278  0.012210373  0.011096067            3 
 4201000   0.59221699   -8.6847287    615.51155  0.012209624   0.01109215            3 
 4202000   0.58936436   -8.6819472    615.76079  0.012211661  0.011088239            1 
 4203000   0.58596195   -8.7094759    615.39594  0.012201522  0.011084328            5 
 4204000   0.57011402   -8.7138567    614.94961  0.012189772  0.011080409            2 
 4205000   0.57598698   -8.6892035    614.88434  0.012185579  0.011076496            2 
 4206000   0.56829841    -8.702149    614.47304  0.012174533  0.011072584            3 
 4207000   0.56654609   -8.7011855    615.67454  0.012195439  0.011068675            2 
 4208000    0.5908631   -8.6875404    614.38943  0.012167091  0.011064773            4 
 4209000   0.58181692   -8.7138854    615.10789  0.012178425  0.011060874            1 
 4210000   0.57168453   -8.7144022    616.27693  0.012198672  0.011056969            4 
 4211000   0.56570439    -8.684255    616.55603  0.012201299  0.011053069            2 
 4212000   0.57920284   -8.7087273    615.50132  0.012177535  0.011049169            2 
 4213000   0.58919243   -8.7125417    614.31157  0.012151111  0.011045267            3 
 4214000   0.57619268   -8.7015802    615.04117  0.012162656  0.011041371            2 
 4215000    0.5662968   -8.6967858     616.2006  0.012182693  0.011037472            3 
 4216000   0.57645067   -8.7373706    615.06805  0.012157417  0.011033577            1 
 4217000   0.58051171   -8.7017369    615.73939  0.012167801  0.011029687            2 
 4218000   0.57718227   -8.7048007    614.95486  0.012149416  0.011025795            6 
 4219000   0.57966079   -8.6989624    615.64199  0.012160109  0.011021903            3 
 4220000     0.569593   -8.7282498    616.69585  0.012178038  0.011018011            2 
 4221000   0.59219792   -8.6940415    614.22858  0.012126443  0.011014124            3 
 4222000   0.58676768   -8.6866307    615.26945  0.012144115  0.011010237            2 
 4223000   0.56854137   -8.7034457    614.89858  0.012133921  0.011006355            3 
 4224000    0.5792023   -8.7265078    614.34303  0.012120088  0.011002473            1 
 4225000   0.58494669   -8.7135205    615.30621  0.012136217  0.010998588            2 
 4226000   0.58986249   -8.6864311    615.30094  0.012133242  0.010994708            2 
 4227000   0.56631924   -8.7104299    615.33059  0.012130956  0.010990833            2 
 4228000    0.5886276   -8.7018858    615.63595  0.012134105  0.010986953            3 
 4229000   0.58810664   -8.7073983    614.78108   0.01211439  0.010983077            2 
 4230000   0.58148023   -8.6958042    615.52709  0.012126223  0.010979198            2 
 4231000   0.58684899    -8.698922    615.42871   0.01212142  0.010975327            2 
 4232000   0.59187979   -8.7033494    614.72897  0.012104776  0.010971453            4 
 4233000   0.56914071   -8.7180752    615.54486  0.012117979  0.010967582            2 
 4234000   0.57580165   -8.7186112    614.85582  0.012101555  0.010963712            2 
 4235000    0.5731408   -8.7176293     614.6948  0.012095529  0.010959838            2 
 4236000   0.58847349   -8.7062485    615.59174  0.012110319  0.010955974            1 
 4237000   0.57321745   -8.7391909    615.04951  0.012096796   0.01095211            3 
 4238000   0.57360049   -8.7033152    615.95883  0.012111822  0.010948247            3 
 4239000    0.5757907   -8.7134075    614.64413   0.01208312  0.010944389            2 
 4240000   0.56868587   -8.6972904    614.93196  0.012085927  0.010940535            1 
 4241000   0.57266378   -8.7031311    616.07987  0.012105633  0.010936682            2 
 4242000   0.56603011   -8.7033056     615.6035  0.012093421  0.010932828            1 
 4243000   0.58164585   -8.7132315    615.19303  0.012082509  0.010928974            2 
 4244000   0.58150037   -8.7056746    616.29718  0.012101343  0.010925122            1 
 4245000   0.56327916   -8.7104167     614.8811  0.012070693  0.010921269            2 
 4246000   0.56509878   -8.7104258     615.5805  0.012081577  0.010917422            2 
 4247000   0.55820655   -8.7060513    614.68283  0.012061118  0.010913572            2 
 4248000   0.57504863   -8.7117151    613.84897  0.012041921  0.010909725            2 
 4249000   0.57040314   -8.7205222    615.65286  0.012074466  0.010905884            2 
 4250000   0.57021534    -8.695251    615.15937  0.012061948  0.010902045            4 
 4251000   0.56771782   -8.7165413     615.9103  0.012073832  0.010898205            2 
 4252000   0.55956735   -8.7148678    615.50887  0.012063125  0.010894372            1 
 4253000   0.57649952   -8.7058194     615.4017  0.012058188  0.010890539            2 
 4254000   0.56855914   -8.7292182     615.0901   0.01204925  0.010886705            3 
 4255000   0.57114464   -8.6936555    614.62847  0.012037377   0.01088287            2 
 4256000    0.5634608   -8.6977591     613.6722  0.012015825  0.010879035            4 
 4257000   0.56948528   -8.7231571     614.9396  0.012037812  0.010875205            1 
 4258000   0.56759382   -8.7125395    615.03677  0.012036887  0.010871377            1 
 4259000   0.55913974   -8.7207122    615.56571   0.01204441  0.010867555            3 
 4260000   0.57294772   -8.7223807    615.02843  0.012031073  0.010863727            2 
 4261000    0.5711583   -8.7141519    615.17941  0.012031202  0.010859907            3 
 4262000   0.58114406   -8.7189453    614.51411  0.012015371  0.010856085            5 
 4263000   0.57010683   -8.7089913    614.91448  0.012020378  0.010852263            1 
 4264000   0.56638662   -8.7154477    615.12897  0.012021751  0.010848447            2 
 4265000   0.57522479   -8.7321116    615.25805  0.012021455  0.010844629            3 
 4266000   0.55923595    -8.712402    616.57173  0.012044299  0.010840815            3 
 4267000   0.56650883   -8.7230517    615.35718  0.012017756  0.010837003            3 
 4268000   0.56437827   -8.7135502    613.59087  0.011980453  0.010833186            2 
 4269000   0.57199648   -8.7194436    613.95411  0.011984737  0.010829375            4 
 4270000   0.56292793   -8.7069781    614.03928  0.011983592  0.010825568            4 
 4271000   0.56660652   -8.7148795    615.95099  0.012018087  0.010821753            2 
 4272000   0.56265415   -8.7300724    614.83874  0.011993577  0.010817944            2 
 4273000   0.57783322   -8.6947254    613.72984  0.011969144  0.010814136            4 
 4274000   0.57099181   -8.7149413    615.02461  0.011991589  0.010810332            4 
 4275000   0.56627111   -8.7169237    614.72436  0.011982931   0.01080653            2 
 4276000   0.56761405   -8.7345275    614.86789  0.011982926  0.010802728            3 
 4277000   0.56252948   -8.7226798    613.94107  0.011962066  0.010798927            4 
 4278000   0.56315074    -8.718114    614.07521  0.011961883  0.010795129            1 
 4279000   0.56892839   -8.7106994    614.92292  0.011975596  0.010791333            3 
 4280000   0.57616422   -8.7208182      614.463  0.011963844  0.010787541            2 
 4281000   0.56964158   -8.7274847    613.68253  0.011945856  0.010783745            1 
 4282000   0.56634543   -8.7242245    612.91583  0.011928145  0.010779952            7 
 4283000   0.56304349   -8.7314089    614.11893  0.011948769  0.010776158            4 
 4284000   0.56367158   -8.7236899    614.46834  0.011952777   0.01077237            2 
 4285000   0.56584547    -8.729429    614.23068  0.011945365  0.010768577            6 
 4286000   0.55908491   -8.7185094     614.3287  0.011944484  0.010764787            4 
 4287000   0.57735847   -8.7273732    615.20253  0.011958684     0.010761            2 
 4288000   0.55597667   -8.7306931    615.09428  0.011953791  0.010757218            2 
 4289000   0.57201686   -8.7129137    613.71713  0.011924247  0.010753438            2 
 4290000   0.54819267   -8.7303839    615.23755  0.011951001  0.010749658            2 
 4291000   0.57555334   -8.7257696    613.52533  0.011914964  0.010745876            2 
 4292000   0.55962039   -8.7197097    614.29754  0.011927181    0.0107421            4 
 4293000   0.57738325   -8.7280852    615.65422  0.011950738  0.010738322            4 
 4294000   0.56786171   -8.7331475    614.05197   0.01191686  0.010734548            2 
 4295000   0.57036153   -8.7273735    614.84399  0.011929453  0.010730778            2 
 4296000   0.56443947   -8.7156656    614.45762  0.011919181   0.01072701            3 
 4297000   0.55799309   -8.7299851    615.63138   0.01193917  0.010723239            4 
 4298000   0.56683153   -8.7106503    614.45714  0.011913625  0.010719474            5 
 4299000   0.57098854   -8.7266233    614.49011  0.011911493  0.010715704            4 
 4300000    0.5723153   -8.7233645    615.74126   0.01193297  0.010711939            2 
 4301000   0.55526066   -8.7102246     614.6942  0.011909908  0.010708179            1 
 4302000   0.56059523   -8.7233749    613.45622  0.011883159  0.010704416            2 
 4303000    0.5662469   -8.7458025    614.23276  0.011895437  0.010700652            3 
 4304000   0.56616408   -8.7121498    614.89075  0.011905413  0.010696896            4 
 4305000   0.56201228   -8.7257864    615.21158  0.011908858  0.010693142            2 
 4306000   0.56116551   -8.7365175    614.35259  0.011889468  0.010689389            2 
 4307000   0.55973967   -8.7337544    614.19924   0.01188374  0.010685639            4 
 4308000   0.55551181   -8.7302964    613.95269  0.011876213  0.010681885            2 
 4309000   0.56854039   -8.7074845    614.50905  0.011884216   0.01067814            4 
 4310000   0.54998068   -8.7195314     614.5725  0.011882686   0.01067439            2 
 4311000   0.56566055   -8.7217953    614.57152   0.01187991   0.01067064            6 
 4312000   0.56142583   -8.7295447    613.89243  0.011864031  0.010666891            2 
 4313000   0.57319246   -8.7288665    614.31975  0.011869537  0.010663146            1 
 4314000   0.54995164   -8.7325883    614.55426  0.011871316  0.010659402            2 
 4315000   0.56345322   -8.7227197    614.15663  0.011860885  0.010655659            2 
 4316000   0.56811365   -8.7336576    615.13254   0.01187698   0.01065192            3 
 4317000   0.56209292   -8.7297234    614.81949  0.011868186   0.01064818            2 
 4318000   0.55836836   -8.7383718     614.2665  0.011854765  0.010644442            2 
 4319000    0.5816996   -8.7177629    614.96718  0.011865539  0.010640709            2 
 4320000    0.5625505   -8.7232373    615.01557  0.011863726  0.010636978            4 
 4321000   0.56671074   -8.7152783    614.22095  0.011845656  0.010633248            1 
 4322000   0.56292678   -8.7152552    614.45811  0.011847488  0.010629517            2 
 4323000   0.55051689   -8.7384534    614.28749  0.011841458  0.010625788            1 
 4324000   0.57120973   -8.7328929    614.84811  0.011849524  0.010622057            5 
 4325000   0.55738892   -8.7389877    615.21026  0.011853762  0.010618335            2 
 4326000   0.55056051   -8.7357132    614.82858   0.01184367  0.010614611            3 
 4327000   0.55994821   -8.7510054    613.38432  0.011813118  0.010610886            2 
 4328000   0.57427383   -8.7408489    613.73173  0.011817077  0.010607165            1 
 4329000   0.56120668   -8.7301865    614.24362  0.011824202  0.010603446            3 
 4330000   0.55648202   -8.7196157    614.83868  0.011832923  0.010599729            2 
 4331000   0.56397788   -8.7430666    614.23461  0.011818568  0.010596011            2 
 4332000   0.54984761   -8.7407756    614.13403  0.011813905  0.010592297            3 
 4333000   0.55376524   -8.7369412     613.6762  0.011802373  0.010588586            1 
 4334000   0.54860585   -8.7398225    614.29929  0.011811631   0.01058487            3 
 4335000   0.56460323   -8.7307664    614.47939  0.011812368   0.01058116            2 
 4336000   0.55203495   -8.7409522    614.03074  0.011801021  0.010577453            3 
 4337000   0.56106416   -8.7307141    614.89163  0.011814842  0.010573745            2 
 4338000   0.54210508   -8.7426862    614.24571   0.01179971  0.010570041            3 
 4339000   0.56046332   -8.7297417    613.95981    0.0117915  0.010566337            2 
 4340000   0.56650883   -8.7328611     613.9188  0.011787995  0.010562634            3 
 4341000   0.55279872   -8.7415191    614.87162  0.011803571  0.010558936            3 
 4342000   0.57138639   -8.7464803    614.14381  0.011786884  0.010555239            4 
 4343000   0.55518993   -8.7447332    614.11938  0.011783701  0.010551542            3 
 4344000   0.55568134   -8.7436033    614.18143  0.011782179  0.010547843            4 
 4345000   0.56192722   -8.7369084    615.42978   0.01180341  0.010544147            2 
 4346000   0.53802646   -8.7424903    614.56184  0.011784051  0.010540452            3 
 4347000    0.5594626   -8.7496099    614.29365  0.011776199  0.010536759            2 
 4348000   0.55165714   -8.7550157    614.03186  0.011768473  0.010533069            2 
 4349000   0.55108355   -8.7488516    614.00873  0.011765324  0.010529383            3 
 4350000   0.55724723     -8.73729    613.75059  0.011757674  0.010525699            2 
 4351000   0.55741957   -8.7661946    613.96471  0.011759073  0.010522016            2 
 4352000   0.55866217   -8.7497551     614.3939  0.011764589  0.010518333            3 
 4353000    0.5598727   -8.7450452    613.42972  0.011743428  0.010514651            4 
 4354000   0.56546587   -8.7438983    614.69592  0.011764966  0.010510971            1 
 4355000   0.56309543   -8.7235711    614.14549  0.011751731  0.010507292            3 
 4356000   0.54558013   -8.7437937    613.66283    0.0117398   0.01050361            5 
 4357000   0.55838028   -8.7523209    614.21982  0.011747759  0.010499932            2 
 4358000   0.55052326   -8.7464043    613.92769  0.011739477  0.010496262            2 
 4359000   0.54950784   -8.7383861    613.85243  0.011735345   0.01049259            4 
 4360000    0.5511944    -8.742432    613.20201  0.011720222  0.010488918            3 
 4361000   0.54433386   -8.7282859    614.14915  0.011735633  0.010485248            1 
 4362000    0.5523706   -8.7410555    613.50744  0.011720683  0.010481578            3 
 4363000    0.5534975   -8.7512909    613.67515    0.0117212  0.010477916            2 
 4364000   0.54967984    -8.736621    614.01315  0.011724969  0.010474251            2 
 4365000   0.56011347   -8.7535793    613.45505  0.011711627  0.010470587            2 
 4366000   0.55204019   -8.7264577     615.2109  0.011742459  0.010466926            4 
 4367000   0.54426156   -8.7479098     613.9015  0.011714783  0.010463268            1 
 4368000   0.55371231   -8.7449493    613.79667  0.011710101  0.010459607            3 
 4369000   0.56445421    -8.734901    613.60543  0.011703773  0.010455942            1 
 4370000   0.55216363   -8.7491141    614.22516  0.011712913  0.010452284            2 
 4371000   0.55692268   -8.7569471    613.05977  0.011688015  0.010448626            1 
 4372000   0.54466728   -8.7344481     614.2832  0.011708661   0.01044497            1 
 4373000   0.56262106   -8.7537377    613.50687   0.01169119  0.010441313            2 
 4374000   0.55009154   -8.7434299    614.33706  0.011704334  0.010437663            3 
 4375000   0.55385596   -8.7404127    614.59684  0.011706606   0.01043401            3 
 4376000   0.55744844   -8.7503572    614.19958  0.011696366  0.010430359            4 
 4377000   0.54222025   -8.7580955    613.75918  0.011685309  0.010426711            4 
 4378000   0.55164176   -8.7477859    613.63733  0.011680321  0.010423063            2 
 4379000   0.56347738   -8.7487878    613.02019  0.011665909   0.01041942            1 
 4380000    0.5422751   -8.7357405    612.66933   0.01165657  0.010415775            2 
 4381000   0.54446777   -8.7185701    614.21515  0.011683313  0.010412135            1 
 4382000   0.54896248   -8.7501259    614.13436  0.011679111  0.010408494            3 
 4383000   0.54990995   -8.7602676    613.01226  0.011655112  0.010404854            3 
 4384000   0.54475302   -8.7356633      614.335  0.011677596  0.010401216            3 
 4385000   0.54504696   -8.7496003    612.64229  0.011642765   0.01039758            2 
 4386000   0.55122877   -8.7395196    613.29935  0.011652594  0.010393943            3 
 4387000   0.54416794   -8.7482681    614.21541  0.011667339  0.010390308            3 
 4388000   0.55085019   -8.7362444     613.7234  0.011655336  0.010386674            2 
 4389000   0.54914603   -8.7511351    614.12555  0.011660316  0.010383047            2 
 4390000   0.53771075   -8.7782185    613.56059  0.011646936  0.010379416            1 
 4391000    0.5436637   -8.7721499    613.12382  0.011635994  0.010375787            3 
 4392000   0.54892141   -8.7470437     613.0344  0.011631648  0.010372162            2 
 4393000   0.54233501   -8.7605123    613.67602  0.011641172  0.010368539            2 
 4394000   0.54541272   -8.7759299    613.83631  0.011641563  0.010364916            3 
 4395000    0.5607785   -8.7453583    614.30729  0.011647844  0.010361291            3 
 4396000   0.55623157   -8.7382705    613.16188  0.011623481  0.010357676            3 
 4397000   0.55285329   -8.7611376    613.87127  0.011634282  0.010354059            3 
 4398000   0.54173014   -8.7558244    613.88421  0.011631882  0.010350448            3 
 4399000   0.55153987   -8.7455237    613.25505  0.011617319  0.010346836            3 
 4400000   0.55273341   -8.7415359     613.7005  0.011623116  0.010343225            2 
 4401000   0.53506338   -8.7594255    612.87388  0.011604822  0.010339613            2 
 4402000   0.54814357   -8.7670778    613.59691  0.011615874  0.010335999            3 
 4403000   0.53788212   -8.7490077    614.03435  0.011621515   0.01033239            3 
 4404000   0.55295697   -8.7547576    612.63805  0.011592455  0.010328782            2 
 4405000   0.53547573   -8.7539974    613.19846  0.011600425  0.010325175            2 
 4406000   0.54303488   -8.7703223    613.32844   0.01160025  0.010321568            2 
 4407000   0.54399926   -8.7657769    613.07925  0.011592906  0.010317963            3 
 4408000   0.55214748   -8.7510124     615.3136  0.011632517  0.010314363            5 
 4409000   0.54657238    -8.757025    614.66961  0.011617706  0.010310765            3 
 4410000   0.55142101   -8.7586046    612.98502  0.011583239  0.010307169            3 
 4411000   0.54987967   -8.7618897    613.08181  0.011582442  0.010303573            2 
 4412000   0.55694554   -8.7731542    613.96982  0.011596589  0.010299978            4 
 4413000   0.53411485   -8.7647677    612.50395   0.01156628   0.01029638            2 
 4414000   0.54157259   -8.7585326    613.66332  0.011585548  0.010292788            1 
 4415000   0.55072318   -8.7426751    614.32547  0.011595422    0.0102892            5 
 4416000   0.55069539   -8.7488169    613.45796  0.011576426  0.010285613            3 
 4417000   0.54253384   -8.7597408    613.37413  0.011572223  0.010282026            2 
 4418000   0.54325924   -8.7263537    614.24897  0.011586105  0.010278444            1 
 4419000   0.53934798   -8.7348215    613.62276  0.011571675  0.010274859            1 
 4420000   0.54259388   -8.7619508    612.62364  0.011550219   0.01027128            2 
 4421000   0.55330703    -8.771263    613.20682  0.011558599  0.010267703            5 
 4422000   0.54584216   -8.7711771    613.56923  0.011562815  0.010264121            2 
 4423000   0.54278168   -8.7591174    614.29737   0.01157392  0.010260542            4 
 4424000   0.54799472   -8.7497829    613.52868  0.011556824  0.010256963            3 
 4425000   0.54680037   -8.7648466    614.17679  0.011566418  0.010253387            2 
 4426000   0.55468885    -8.765522    613.34142  0.011548076  0.010249818            3 
 4427000   0.54790518   -8.7631807    612.43943  0.011528489   0.01024625            1 
 4428000   0.53883425   -8.7337746     614.6124   0.01156678  0.010242679            2 
 4429000   0.54758378   -8.7687867    612.83527  0.011530731  0.010239113            2 
 4430000    0.5408209   -8.7548215    613.20202  0.011535027  0.010235543            3 
 4431000   0.54762128   -8.7498396    613.94963  0.011546484   0.01023198            2 
 4432000   0.53934869   -8.7572636    613.51791  0.011535761  0.010228417            1 
 4433000    0.5393846    -8.752108    613.53256  0.011533434  0.010224856            2 
 4434000   0.53325787   -8.7885716    613.19406  0.011524471  0.010221294            5 
 4435000   0.54100128   -8.7678744    613.42543   0.01152622  0.010217735            3 
 4436000   0.53959203   -8.7608918    613.27274  0.011520753  0.010214171            2 
 4437000   0.54415981   -8.7506489    613.10058  0.011514923  0.010210615            2 
 4438000   0.54303002   -8.7631244    612.91863  0.011508912   0.01020706            2 
 4439000   0.53796271    -8.762282    612.85115  0.011505053  0.010203502            1 
 4440000   0.54960867   -8.7623852    612.87183   0.01150285  0.010199949            2 
 4441000   0.54429242   -8.7405976    613.93382  0.011520187  0.010196396            3 
 4442000   0.55966775   -8.7772911    613.27077  0.011505155  0.010192849            3 
 4443000   0.53273417   -8.7630536    614.66021  0.011528626  0.010189302            3 
 4444000   0.54122999   -8.7741329    612.71151   0.01148949  0.010185756            1 
 4445000   0.54042658   -8.7683254    611.77922  0.011469427  0.010182212            2 
 4446000   0.53790344   -8.7619473    613.24212  0.011494267  0.010178669            4 
 4447000   0.53634998   -8.7677004    613.74626  0.011501129  0.010175125            4 
 4448000   0.53797267   -8.7700586    614.27638  0.011508475  0.010171584            2 
 4449000   0.52767982   -8.7731919    614.16413  0.011503786  0.010168044            2 
 4450000   0.55299425   -8.7758296    613.23256  0.011483756  0.010164507            3 
 4451000    0.5357972   -8.7823599    613.93975  0.011494416  0.010160967            2 
 4452000    0.5443834   -8.7646368    613.18092   0.01147763  0.010157432            3 
 4453000   0.53738483   -8.7879313    613.17263  0.011474898    0.0101539            3 
 4454000   0.54320718   -8.7508339     613.3623   0.01147587  0.010150373            2 
 4455000   0.53886877   -8.7659392    612.55387  0.011458172  0.010146844            2 
 4456000     0.533734   -8.7717893    612.20222  0.011449024  0.010143316            3 
 4457000   0.53847977   -8.7559581    612.27926  0.011447896  0.010139789            3 
 4458000   0.53882831   -8.7467822    612.66905  0.011452614  0.010136264            1 
 4459000    0.5335307   -8.7616681    613.60809  0.011467595  0.010132743            3 
 4460000   0.53763321    -8.767808    612.92387   0.01145224  0.010129225            4 
 4461000   0.53427777   -8.7603634    614.37822   0.01147684  0.010125705            2 
 4462000   0.53389468   -8.7480401    613.56023  0.011458991   0.01012219            2 
 4463000   0.53457444   -8.7693181    613.03314  0.011446582  0.010118675            2 
 4464000    0.5327861   -8.7730351    612.60395  0.011436006  0.010115157            3 
 4465000   0.53642158   -8.7648396    612.48146  0.011431158  0.010111647            2 
 4466000   0.54919712   -8.7766779    613.36056  0.011445002  0.010108132            5 
 4467000   0.52935489   -8.7677904    613.73713  0.011449465  0.010104621            4 
 4468000   0.54093307   -8.7828198    613.26889  0.011438169  0.010101114            3 
 4469000     0.530933   -8.7761159      613.774  0.011445029  0.010097607            3 
 4470000    0.5343166   -8.7723275    612.91218  0.011426402  0.010094101            3 
 4471000   0.55228756   -8.7741017    613.60141  0.011436692  0.010090598            1 
 4472000   0.54281217   -8.7660295    612.56182  0.011414763  0.010087095            4 
 4473000   0.53646926   -8.7553545    613.83364  0.011435905  0.010083595            3 
 4474000   0.53470519   -8.7718067    612.72861  0.011412767  0.010080095            2 
 4475000   0.54336256   -8.7757073    612.48982  0.011405769  0.010076598            3 
 4476000   0.53276837   -8.7724086    613.93695  0.011430164  0.010073096            4 
 4477000   0.53300619   -8.7741965    612.40093   0.01139902  0.010069598            2 
 4478000   0.52923309   -8.7672309    612.25097  0.011393683  0.010066102            1 
 4479000   0.53238872   -8.7877944    613.18723  0.011408559  0.010062606            1 
 4480000   0.52251904   -8.7712481    612.70519  0.011397046  0.010059113            2 
 4481000   0.54462916   -8.7686465    612.66262  0.011393711   0.01005562            1 
 4482000   0.52468205    -8.757366    611.60366   0.01137148  0.010052129            1 
 4483000   0.54336475   -8.7779718    612.78305  0.011390866   0.01004864            1 
 4484000   0.52227421   -8.7901509    612.20309  0.011377548  0.010045152            2 
 4485000    0.5446528   -8.7594943    613.67356  0.011402333  0.010041668            3 
 4486000   0.53615485   -8.7767485    612.56358  0.011379172  0.010038186            2 
 4487000    0.5309535   -8.7797305    612.37502  0.011373134  0.010034703            2 
 4488000   0.54294119   -8.7734539    613.16133    0.0113852  0.010031219            2 
 4489000   0.53561568   -8.7736031    613.18363  0.011383078  0.010027737            2 
 4490000   0.54882032   -8.7577846    612.27278  0.011363637  0.010024261            3 
 4491000   0.52982707   -8.7837983    612.20195  0.011359793  0.010020784            2 
 4492000   0.53407318   -8.7799423    612.95576  0.011371248  0.010017306            3 
 4493000   0.53585639   -8.7786451    612.47679  0.011359834  0.010013829            2 
 4494000   0.53715926   -8.7986791    612.45557  0.011356912  0.010010356            2 
 4495000   0.53793167   -8.7898009    612.24746  0.011350528  0.010006882            2 
 4496000   0.53732383   -8.7940377    613.18387  0.011365359  0.010003413            2 
 4497000    0.5335367   -8.7785388    612.54321   0.01135096 0.0099999413            1 
 4498000   0.51878783   -8.7785704    612.62158  0.011349888 0.0099964706            1 
 4499000   0.53312708   -8.7772986    612.10303  0.011337761 0.0099930081            1 
 4500000   0.53901993   -8.7842642    613.15969  0.011354809 0.0099895419            2 
 4501000   0.53979425   -8.7772998    612.80736  0.011345763  0.009986075            2 
 4502000   0.53831412   -8.7821801    612.74574  0.011342102 0.0099826118            1 
 4503000   0.53355901   -8.7899005    612.49072  0.011334864 0.0099791483            2 
 4504000   0.52513217   -8.8031984    612.17842  0.011326569  0.009975687            3 
 4505000   0.52220619   -8.8034042    612.08649  0.011322355 0.0099722269            1 
 4506000    0.5350178   -8.7923024    613.27844  0.011341886 0.0099687664            1 
 4507000   0.51861267   -8.7893366    612.73111  0.011329249 0.0099653084            2 
 4508000   0.53869287   -8.7856478    612.33884  0.011319485 0.0099618541            3 
 4509000   0.53954609    -8.787721    612.53854  0.011320665 0.0099584028            1 
 4510000   0.51832757    -8.773824    612.58926  0.011319092 0.0099549476            2 
 4511000    0.5332994   -8.7880093    614.04761  0.011343523 0.0099514984            2 
 4512000   0.51117681    -8.779615    612.36937  0.011310013 0.0099480469            1 
 4513000   0.52821459   -8.7957383    613.02949  0.011319697 0.0099445982            4 
 4514000   0.53720919   -8.7925837    612.53354  0.011308033 0.0099411525            2 
 4515000    0.5243677   -8.7624143    612.94744  0.011313168 0.0099377086            2 
 4516000   0.52859097   -8.8057489    612.17284  0.011296369 0.0099342654            3 
 4517000   0.52526215   -8.7819077    612.95509    0.0113083 0.0099308248            2 
 4518000   0.51728571   -8.7944324    613.21764   0.01131064 0.0099273864            2 
 4519000   0.53296858   -8.7703525    612.25445  0.011290375 0.0099239477            2 
 4520000   0.52767347   -8.7857194    612.96143  0.011300911 0.0099205132            3 
 4521000   0.52653617   -8.7918152    612.16975  0.011283819 0.0099170766            5 
 4522000   0.52180802   -8.7776762    611.66118  0.011271952 0.0099136447            5 
 4523000    0.5392368   -8.7924235    612.63769  0.011287451 0.0099102125            2 
 4524000   0.51511714   -8.7764254    613.61957  0.011303043 0.0099067806            2 
 4525000   0.52307887   -8.7885191    612.73029  0.011284167 0.0099033486            4 
 4526000   0.52722065   -8.7923088    612.84125  0.011283717 0.0098999149            1 
 4527000    0.5297658   -8.7937021    613.48623  0.011293097  0.009896488            1 
 4528000   0.52855459   -8.7749858    612.88285  0.011279499 0.0098930668            2 
 4529000   0.52325696   -8.7924283    612.38083  0.011267771 0.0098896449            2 
 4530000    0.5293058   -8.7823122    612.83618   0.01127366 0.0098862237            1 
 4531000   0.53245411   -8.7930005    613.20505  0.011277956 0.0098828004            4 
 4532000   0.52877426   -8.7899331    612.38643  0.011260415 0.0098793834            2 
 4533000   0.52011113   -8.8053629    612.73021  0.011264251 0.0098759656            5 
 4534000   0.53364401   -8.7820374     613.1956  0.011270321 0.0098725479            2 
 4535000   0.51773078    -8.799405    611.23555  0.011231818 0.0098691316            3 
 4536000    0.5183296    -8.783003    613.22447  0.011265882 0.0098657139            1 
 4537000   0.51784374   -8.8080335    612.38252  0.011247934 0.0098623021            1 
 4538000    0.5308183   -8.7861309    612.86681  0.011254349 0.0098588913            2 
 4539000   0.52508256   -8.8000511    613.22883  0.011258516 0.0098554812            1 
 4540000   0.52323719   -8.7962597    613.18765   0.01125528 0.0098520734            5 
 4541000   0.52887826   -8.7858298    612.49576  0.011240104 0.0098486639            2 
 4542000   0.52398006   -8.7938892    612.40903  0.011236038 0.0098452583            1 
 4543000    0.5318279   -8.7998102    612.12848  0.011228419 0.0098418554            1 
 4544000   0.51214216   -8.8122165    612.86242  0.011239408 0.0098384512            1 
 4545000   0.51323837   -8.7725376    612.01858  0.011221463 0.0098350515            2 
 4546000   0.51426604   -8.7852158    613.03297  0.011237589 0.0098316518            2 
 4547000   0.52573632   -8.7980358    613.02439  0.011234961 0.0098282565            3 
 4548000   0.52181763    -8.787631    612.22738  0.011217887 0.0098248632            2 
 4549000   0.52469706   -8.7827892     613.4836  0.011238433 0.0098214687            2 
 4550000   0.51633848   -8.8106002    612.73663  0.011222283 0.0098180776            2 
 4551000     0.523317   -8.7847824    612.43015  0.011214205 0.0098146861            3 
 4552000   0.50984629   -8.8010269    612.09416   0.01120559 0.0098112937            2 
 4553000   0.51140909   -8.7945633    613.10606   0.01122165 0.0098079051            3 
 4554000   0.52050245   -8.7925567    611.67391  0.011192979 0.0098045196            3 
 4555000   0.52497609   -8.7915575       611.81  0.011193011 0.0098011308            3 
 4556000   0.52217096   -8.7828537    613.10842  0.011214304 0.0097977462            2 
 4557000    0.5242935   -8.7928134       613.07   0.01121114  0.009794365            2 
 4558000   0.51930043   -8.7879433    613.05372  0.011208383 0.0097909838            4 
 4559000   0.52736654   -8.8060693     612.4034  0.011194037 0.0097875997            3 
 4560000   0.52262301   -8.8020707    612.53107  0.011193916 0.0097842206            2 
 4561000   0.52599546   -8.8043169    611.94047  0.011180671 0.0097808448            3 
 4562000   0.51615662   -8.8030017    612.76048  0.011193199 0.0097774681            4 
 4563000   0.51020823   -8.8021833    612.44764  0.011185033  0.009774092            4 
 4564000   0.52572097    -8.803575    611.61456  0.011167371 0.0097707211            2 
 4565000   0.53134985   -8.7973379    612.49389  0.011180976 0.0097673497            1 
 4566000     0.511234   -8.8013271    612.06187  0.011170643 0.0097639779            3 
 4567000   0.52146205   -8.8117511    613.04769  0.011186185 0.0097606102            3 
 4568000    0.5340563   -8.8102809    612.06351  0.011165782  0.009757244            4 
 4569000   0.52580216   -8.7976141    612.26328  0.011166982 0.0097538775            2 
 4570000   0.53291349   -8.7982033    612.40371  0.011167099  0.009750515            2 
 4571000    0.5207027    -8.797139    612.27973  0.011162396 0.0097471504            2 
 4572000   0.53060789    -8.800724    612.53964  0.011164692 0.0097437895            2 
 4573000   0.51270071   -8.8021505    612.52047  0.011161901 0.0097404308            3 
 4574000   0.52011413   -8.7772128    612.17548  0.011153175 0.0097370733            2 
 4575000   0.52289488   -8.8008581    613.09051  0.011167405 0.0097337193            1 
 4576000   0.51847616   -8.8088628    612.97045  0.011162778 0.0097303649            3 
 4577000   0.50675983   -8.7987125     611.9012  0.011140871 0.0097270081            2 
 4578000   0.51379301   -8.8041039    612.12336  0.011142481 0.0097236539            3 
 4579000   0.52195787   -8.8158908    612.44882  0.011145971 0.0097203027            2 
 4580000    0.5359017   -8.8022998    612.82636  0.011150407 0.0097169522            4 
 4581000   0.52177814   -8.8059202    613.00971  0.011151308 0.0097136058            2 
 4582000   0.52137074   -8.8261041    611.51588  0.011121706 0.0097102566            2 
 4583000   0.52799077   -8.8107842    611.60257  0.011120855 0.0097069069            2 
 4584000    0.5169268   -8.7938982    612.35228  0.011132059 0.0097035603            3 
 4585000   0.51514319   -8.8137006    611.25048  0.011109605 0.0097002178            5 
 4586000   0.50331576   -8.8059319    612.18588   0.01112418 0.0096968766            1 
 4587000     0.514908   -8.8148801    612.41015  0.011125829 0.0096935343            5 
 4588000   0.52174355    -8.806454    612.28809  0.011121187 0.0096901992            3 
 4589000   0.51344723   -8.7915184    611.74763  0.011108949 0.0096868635            3 
 4590000   0.51675982   -8.8298995    611.67436  0.011105199 0.0096835269            1 
 4591000   0.50741815   -8.7889339     611.3957  0.011097722  0.009680192            2 
 4592000   0.51752915   -8.8092306    612.18612  0.011109649 0.0096768559            3 
 4593000   0.51586113    -8.786069    611.61404  0.011096851 0.0096735225            3 
 4594000   0.50942193   -8.8021103    612.51797  0.011110832 0.0096701936            3 
 4595000   0.51178873   -8.8149194    611.64849  0.011092646 0.0096668655            1 
 4596000   0.52630581   -8.7970503    611.38778  0.011085505 0.0096635377            2 
 4597000   0.51829343   -8.8024741    612.16949  0.011097264 0.0096602117            3 
 4598000   0.52087105   -8.8068082    611.85568  0.011089163 0.0096568894            2 
 4599000   0.52704147   -8.8064178    612.18745  0.011092764  0.009653568            2 
 4600000   0.51445891   -8.8149545    611.86931  0.011084589 0.0096502466            2 
 4601000   0.51354482   -8.7974314    612.08272  0.011086045 0.0096469231            1 
 4602000   0.52969233   -8.8013248    611.64737  0.011075753 0.0096436032            2 
 4603000     0.508315   -8.8009981    611.73693  0.011074968 0.0096402841            4 
 4604000   0.50571183   -8.8072032    612.76072  0.011091093 0.0096369705            2 
 4605000   0.53620826   -8.8155528    612.11417  0.011076985 0.0096336528            2 
 4606000   0.51521161   -8.8064959    611.49833  0.011063438 0.0096303427            1 
 4607000   0.52108596   -8.7897367    611.43592  0.011059907 0.0096270301            1 
 4608000   0.51347379   -8.8012961    612.04234  0.011068474 0.0096237222            5 
 4609000   0.51778769   -8.8137332    611.78483  0.011061417 0.0096204128            2 
 4610000   0.53528608   -8.8015674    612.80961  0.011077542 0.0096171022            1 
 4611000   0.51827475   -8.8032085    612.85136  0.011075894 0.0096137965            2 
 4612000   0.51183381   -8.7963904    611.93036  0.011056851 0.0096104921            1 
 4613000   0.51821802   -8.8106591    611.84459  0.011052905 0.0096071892            3 
 4614000   0.51966337   -8.8036127    612.08085  0.011054776 0.0096038864            2 
 4615000   0.52637274   -8.7838555     612.0963   0.01105266 0.0096005887            1 
 4616000   0.52152121   -8.8202496    612.37298   0.01105526   0.00959729            2 
 4617000   0.51402226   -8.8103404    611.90278  0.011044379 0.0095939942            3 
 4618000   0.52217847   -8.8082726    612.01719  0.011044052  0.009590696            1 
 4619000   0.52332809   -8.8098401    611.81162  0.011037952 0.0095873998            2 
 4620000   0.51270378   -8.8062705    611.18293  0.011024223 0.0095841064            2 
 4621000   0.51860155   -8.8130437    612.20679  0.011040301 0.0095808149            2 
 4622000   0.52282313   -8.8183012    612.65476   0.01104599 0.0095775262            2 
 4623000   0.50784399   -8.8080526    612.99398  0.011049715 0.0095742429            3 
 4624000   0.51990114   -8.8159883    611.69987  0.011024003 0.0095709575            3 
 4625000   0.50812673   -8.8082272    611.44039  0.011016944 0.0095676709            2 
 4626000   0.52584578   -8.8106778     612.1457  0.011027268  0.009564388            3 
 4627000    0.5066265   -8.8168828    612.27189  0.011027157  0.009561103            3 
 4628000   0.50392583   -8.8125639    612.14261  0.011022447 0.0095578192            1 
 4629000   0.51634477   -8.8300246    612.16535  0.011020475 0.0095545367            3 
 4630000   0.51034751    -8.797732    611.01145  0.010997326 0.0095512593            3 
 4631000   0.51613537   -8.8184149      612.441  0.011020676 0.0095479796            2 
 4632000   0.50984763    -8.812574    611.41495  0.010999837 0.0095447027            1 
 4633000   0.51878334   -8.8015236    612.16851  0.011011017 0.0095414297            2 
 4634000   0.50757025   -8.8057547    611.40008  0.010994822 0.0095381553            1 
 4635000   0.51726899   -8.8276104    612.24353  0.011007615 0.0095348806            3 
 4636000   0.50983273   -8.8111904    611.62089  0.010994048 0.0095316097            3 
 4637000   0.49778945   -8.8260563    611.29735  0.010985863 0.0095283354            2 
 4638000   0.50513115    -8.806765    611.40155  0.010985366 0.0095250692            2 
 4639000   0.51453669   -8.8026659    611.58742  0.010986337 0.0095217984            2 
 4640000   0.51208135   -8.8220847    612.00725   0.01099151 0.0095185294            4 
 4641000   0.51060993   -8.8223268    612.53816  0.010998674 0.0095152628            1 
 4642000   0.51067657   -8.8144272    611.92969  0.010985381 0.0095119952            5 
 4643000   0.51066084   -8.8316864    611.39957  0.010973501 0.0095087332            1 
 4644000   0.51239963   -8.8157492    610.82872  0.010960894 0.0095054677            5 
 4645000    0.5005856   -8.8292864    612.25696  0.010984158 0.0095022111            3 
 4646000   0.52193309   -8.8241547    611.14805  0.010961904 0.0094989546            3 
 4647000   0.51291579   -8.8047919    611.12991  0.010959219 0.0094956983            4 
 4648000   0.52281978    -8.814009    610.45991  0.010944849 0.0094924444            4 
 4649000   0.50723663   -8.8176484    612.07102  0.010971374 0.0094891887            1 
 4650000   0.50386187   -8.8280741    611.07188  0.010951109 0.0094859362            3 
 4651000   0.50201659   -8.8084521    610.72223   0.01094249 0.0094826828            4 
 4652000    0.5112232   -8.8133572    611.68563  0.010957395 0.0094794317            3 
 4653000   0.51544721   -8.8065858    610.98203  0.010942439 0.0094761797            1 
 4654000   0.51029157   -8.8114681    611.55275  0.010950307 0.0094729334            3 
 4655000   0.51476748   -8.8166666    611.15405  0.010940817 0.0094696867            2 
 4656000   0.50263295   -8.8051409    611.48858  0.010944455 0.0094664388            5 
 4657000     0.511822   -8.8327266    610.57757  0.010925803 0.0094631914            3 
 4658000   0.49922291    -8.845255     611.4379  0.010938849  0.009459947            2 
 4659000   0.51255493   -8.8290365    611.03551  0.010929304 0.0094567036            2 
 4660000   0.49799814   -8.8156735    611.17978  0.010929538 0.0094534602            3 
 4661000   0.50901685   -8.8167042    610.62107  0.010917204 0.0094502192            4 
 4662000   0.50014599   -8.8178904    611.81426  0.010936191 0.0094469827            3 
 4663000   0.49738517   -8.8132154    611.91972   0.01093573 0.0094437429            3 
 4664000    0.5046126   -8.8130874    612.86166  0.010950216 0.0094405079            4 
 4665000   0.49635317   -8.8258866    612.68447  0.010944703 0.0094372739            3 
 4666000    0.4987706   -8.8225793    611.88293  0.010928042 0.0094340384            2 
 4667000   0.50543976   -8.8294502    611.25819  0.010914545  0.009430803            3 
 4668000   0.49052909   -8.8216031    610.67816  0.010901852 0.0094275748            2 
 4669000   0.49940955   -8.8020922    611.82059  0.010919908 0.0094243448            5 
 4670000   0.51414423   -8.8167345    610.44216  0.010892972 0.0094211179            7 
 4671000   0.50570368   -8.8303439    611.28062  0.010905599  0.009417891            2 
 4672000   0.50981682   -8.8311007    611.39798  0.010905358 0.0094146617            2 
 4673000   0.50265188    -8.803384    611.77849   0.01090981 0.0094114378            3 
 4674000   0.50390725    -8.825459    611.52202  0.010902903 0.0094082154            3 
 4675000    0.5064437   -8.8278025    612.28321  0.010914139 0.0094049939            2 
 4676000   0.51063908   -8.8257512    611.56722  0.010899045 0.0094017732            2 
 4677000   0.50453069   -8.8224363    611.78698   0.01090063 0.0093985564            2 
 4678000   0.50208365   -8.8347644    611.04719  0.010885122 0.0093953396            4 
 4679000   0.52697486   -8.8241621    612.26374  0.010904462 0.0093921252            4 
 4680000   0.50745641   -8.8332282    611.76227  0.010893203 0.0093889132            2 
 4681000   0.50679195   -8.8317936    610.02635  0.010859972 0.0093857022            1 
 4682000   0.50591916   -8.8162582    610.56103  0.010867169 0.0093824895            2 
 4683000   0.50810466   -8.8269497    611.24359  0.010876995 0.0093792796            2 
 4684000   0.49511712   -8.8339142    611.18812  0.010873686  0.009376072            2 
 4685000   0.48654847   -8.8352971    611.58769  0.010878472 0.0093728668            2 
 4686000   0.51261347   -8.8254742    612.14565  0.010886073 0.0093696628            2 
 4687000   0.50224765   -8.8328606    611.03208  0.010863951 0.0093664581            1 
 4688000   0.49794928   -8.8293843     611.6303  0.010872268 0.0093632553            3 
 4689000   0.49935152    -8.842387    610.75404  0.010854376 0.0093600505            2 
 4690000   0.50937667   -8.8496529    612.65228   0.01088579 0.0093568527            3 
 4691000   0.50975871   -8.8179099    610.86791  0.010851771 0.0093536517            3 
 4692000   0.51008004   -8.8307046    610.68577  0.010846224 0.0093504556            3 
 4693000   0.50901881   -8.8322666    610.74064  0.010844887 0.0093472585            3 
 4694000   0.49045203   -8.8299678    610.69474  0.010841761 0.0093440627            2 
 4695000   0.51093208   -8.8147422    611.77181   0.01085857 0.0093408717            2 
 4696000   0.50180081   -8.8250554    611.24412  0.010846893 0.0093376775            2 
 4697000   0.50165595    -8.828639    611.51795  0.010849442 0.0093344858            3 
 4698000   0.50130494   -8.8311696    611.28713  0.010843038 0.0093312943            3 
 4699000   0.50249792   -8.8408149    611.66776  0.010847481  0.009328106            4 
 4700000   0.49621952   -8.8286848    610.36988  0.010822161 0.0093249185            2 
 4701000   0.49767445   -8.8360865    611.43165  0.010838681 0.0093217341            3 
 4702000   0.50200178    -8.830615    611.82084  0.010843273 0.0093185477            2 
 4703000   0.50058928   -8.8496479    610.71208  0.010821321 0.0093153639            2 
 4704000    0.4954726   -8.8335999    611.57906   0.01083438 0.0093121849            2 
 4705000   0.49191653   -8.8328106    610.73693  0.010817161 0.0093090041            3 
 4706000   0.50495601   -8.8505613    611.62009  0.010830502 0.0093058259            2 
 4707000   0.49551413   -8.8469451    611.63923   0.01082854 0.0093026485            1 
 4708000   0.50483416   -8.8319353    611.63589   0.01082618 0.0092994699            1 
 4709000   0.50126219   -8.8211912    610.99191  0.010812485 0.0092962955            2 
 4710000   0.51423841   -8.8273559    609.69157  0.010787183 0.0092931225            3 
 4711000   0.50503025   -8.8452952    610.72886  0.010803242 0.0092899503            1 
 4712000   0.49412091   -8.8419374    611.52372  0.010815006 0.0092867796            2 
 4713000   0.49823249    -8.838714    610.96498  0.010802832  0.009283609            3 
 4714000   0.49434162   -8.8496084    611.24426  0.010805478  0.009280441            2 
 4715000   0.48842807   -8.8352749    610.37753  0.010787867 0.0092772721            1 
 4716000    0.4880311   -8.8250709    610.66435  0.010790648 0.0092741074            3 
 4717000   0.49972647   -8.8520757    610.24401  0.010780934 0.0092709428            3 
 4718000   0.48977343   -8.8444982     610.6643  0.010786073 0.0092677793            3 
 4719000   0.49236541   -8.8364583    611.28468  0.010794743 0.0092646166            2 
 4720000   0.49086856   -8.8316432    610.73962  0.010782832 0.0092614545            3 
 4721000   0.50187632   -8.8410283    611.12147  0.010787289 0.0092582924            2 
 4722000   0.50544614   -8.8498189    610.44545  0.010773074  0.009255135            1 
 4723000   0.48879228   -8.8388921    611.37372  0.010787171 0.0092519781            1 
 4724000   0.49395307    -8.850265    610.84475  0.010775556 0.0092488216            1 
 4725000   0.49503626   -8.8397062    611.51537  0.010785104 0.0092456686            2 
 4726000   0.49187847   -8.8475025    610.04021   0.01075681 0.0092425157            2 
 4727000   0.49891556   -8.8468275    610.76601   0.01076733 0.0092393645            3 
 4728000   0.49361871   -8.8294751    610.64718  0.010762958  0.009236213            1 
 4729000   0.48692957   -8.8352055    611.63021  0.010778005 0.0092330658            2 
 4730000   0.50223022   -8.8343951    610.41869  0.010754381 0.0092299184            2 
 4731000   0.50430918   -8.8467186    610.87951  0.010760225 0.0092267711            2 
 4732000   0.50232564   -8.8594282      611.172  0.010763102 0.0092236267            1 
 4733000   0.49819239   -8.8364751    610.41281  0.010747461 0.0092204824            2 
 4734000    0.4960406    -8.845632    611.41999  0.010762921 0.0092173411            2 
 4735000   0.49840774   -8.8507672     610.2737  0.010740473 0.0092141991            3 
 4736000   0.49813153    -8.849238    610.44178  0.010741163 0.0092110604            2 
 4737000   0.49339464   -8.8469197    610.82025  0.010745554 0.0092079209            1 
 4738000   0.49357427   -8.8490366    611.04883  0.010747306 0.0092047844            3 
 4739000   0.49797834   -8.8318105    610.39294  0.010733505 0.0092016484            2 
 4740000   0.49653241   -8.8376938    611.11605  0.010743953 0.0091985155            4 
 4741000   0.50280633   -8.8553383    611.45443  0.010747635 0.0091953811            2 
 4742000   0.49289923   -8.8322996    610.86674   0.01073504 0.0091922489            1 
 4743000   0.49754121   -8.8353631    611.48437  0.010743629 0.0091891188            3 
 4744000   0.49769777   -8.8487546    609.46338  0.010705863 0.0091859914            2 
 4745000   0.49716541   -8.8398944    610.18162  0.010716221 0.0091828623            4 
 4746000   0.48881329   -8.8537671     610.3041  0.010716113 0.0091797353            4 
 4747000   0.49170356   -8.8631985    610.15426  0.010711226 0.0091766069            2 
 4748000   0.49346793   -8.8471449    610.12039  0.010708375 0.0091734831            2 
 4749000   0.49015938   -8.8591917     610.3274  0.010709753 0.0091703617            2 
 4750000   0.49636619   -8.8515702    611.24836  0.010723655 0.0091672411            2 
 4751000   0.48487808   -8.8404875    610.51728  0.010708575 0.0091641258            3 
 4752000   0.49664836   -8.8502232     611.0764  0.010716127 0.0091610121            1 
 4753000   0.49738564   -8.8257849    609.93912  0.010693932 0.0091578992            1 
 4754000   0.48395209   -8.8603015    610.70596  0.010705125 0.0091547875            2 
 4755000   0.49267876   -8.8350151    611.58316  0.010718247 0.0091516765            2 
 4756000   0.47477113    -8.852214    611.73524  0.010718658 0.0091485672            2 
 4757000   0.49235918   -8.8282492    610.51871  0.010695093 0.0091454566            6 
 4758000   0.49508258   -8.8338371    610.11836  0.010685834 0.0091423489            3 
 4759000   0.49165515   -8.8351223    610.70338  0.010693832 0.0091392397            3 
 4760000   0.49512453   -8.8356493    610.27184  0.010684031 0.0091361363            2 
 4761000   0.50684689   -8.8512694    610.80767  0.010691166 0.0091330331            3 
 4762000   0.48235312   -8.8491635    611.02252   0.01069268 0.0091299314            2 
 4763000   0.48833956   -8.8314528    611.29528  0.010695207  0.009126827            3 
 4764000   0.49395064   -8.8515342    610.19168  0.010673658 0.0091237254            2 
 4765000   0.48527101    -8.851331    610.81463  0.010682313 0.0091206247            2 
 4766000   0.49824212   -8.8583217      610.228  0.010669814 0.0091175264            4 
 4767000   0.48433356   -8.8609766    610.30746  0.010668965 0.0091144286            3 
 4768000   0.49376276   -8.8587235    610.93513  0.010677697 0.0091113343            3 
 4769000   0.47571809    -8.859469    611.08338  0.010678049 0.0091082401            2 
 4770000   0.49113986   -8.8487594    610.62366  0.010667779 0.0091051475            2 
 4771000   0.47422717   -8.8440877    611.38782   0.01067889 0.0091020588            3 
 4772000   0.48971499   -8.8427431    609.90373  0.010650736 0.0090989671            2 
 4773000   0.48722008   -8.8411744    610.54232  0.010659654 0.0090958801            2 
 4774000   0.49260982   -8.8490088    611.26757   0.01067008 0.0090927934            2 
 4775000   0.48518297    -8.850455    610.57718  0.010655797 0.0090897095            4 
 4776000   0.48802034    -8.846744    609.51183  0.010634977 0.0090866235            2 
 4777000   0.49084419    -8.856427    610.41181  0.010648451  0.009083541            4 
 4778000    0.4905043   -8.8646332    611.17925  0.010659607 0.0090804606            2 
 4779000   0.49402591   -8.8480336    610.92069  0.010652868 0.0090773807            3 
 4780000   0.48910049   -8.8430422    611.13024  0.010654293 0.0090743019            2 
 4781000   0.48516507   -8.8334189    610.61873  0.010643149 0.0090712225            3 
 4782000   0.50317868   -8.8430061     611.4209  0.010654902 0.0090681479            1 
 4783000   0.48161234   -8.8555497    610.66245   0.01063946 0.0090650731            2 
 4784000    0.4795445   -8.8544463    611.06404  0.010644232 0.0090619988            4 
 4785000   0.48794583   -8.8647969    611.12749  0.010643112 0.0090589275            3 
 4786000   0.48326055   -8.8584998    609.76605  0.010617183 0.0090558565            1 
 4787000    0.4863988   -8.8489039    610.97726   0.01063605   0.00905279            3 
 4788000   0.49479594   -8.8656562    610.44188  0.010624511 0.0090497222            1 
 4789000   0.48792145    -8.853924    610.18008  0.010617736  0.009046655            1 
 4790000   0.49040517   -8.8464892    610.68337  0.010624276 0.0090435923            1 
 4791000   0.49141564   -8.8558785    611.56833  0.010637451 0.0090405291            2 
 4792000   0.48533445   -8.8479554    610.08945  0.010609513 0.0090374667            3 
 4793000   0.48395361   -8.8542651    609.93157  0.010604555 0.0090344063            3 
 4794000   0.48857556   -8.8632865     610.4848  0.010611959 0.0090313474            3 
 4795000   0.48129151    -8.843195    610.41584  0.010608548  0.009028288            1 
 4796000   0.48650316   -8.8441769    611.50187  0.010625206 0.0090252296            3 
 4797000   0.48678697   -8.8581748    610.80391  0.010610866 0.0090221738            3 
 4798000   0.47792195   -8.8690464    610.89105  0.010610168  0.009019117            3 
 4799000   0.48490858   -8.8513889     609.9022  0.010590786 0.0090160628            3 
 4800000   0.48170518   -8.8527793    610.67619  0.010602017 0.0090130097            3 
 4801000   0.48966645   -8.8644005    611.28638    0.0106104  0.009009956            3 
 4802000   0.48076826   -8.8536431     610.3648  0.010592198 0.0090069069            2 
 4803000   0.47955839    -8.840324    610.53109  0.010592878 0.0090038585            1 
 4804000   0.48770192   -8.8594762    610.84896  0.010596186 0.0090008093            3 
 4805000   0.49172257    -8.850859    610.11791  0.010581303 0.0089977603            2 
 4806000   0.47960196   -8.8673251    610.39502  0.010583906  0.008994712            4 
 4807000   0.47422902   -8.8635399    609.12163  0.010559629 0.0089916643            2 
 4808000    0.4801851   -8.8706456    610.51945   0.01058166 0.0089886197            2 
 4809000   0.47472187   -8.8609627    611.13218  0.010590077  0.008985578            2 
 4810000   0.48115714    -8.870951    610.75805  0.010581394 0.0089825347            3 
 4811000   0.48330078   -8.8745422    610.38013  0.010572648 0.0089794963            4 
 4812000   0.48586541   -8.8566817    610.45908  0.010571818 0.0089764587            2 
 4813000   0.47669756   -8.8599177     610.1173  0.010563704 0.0089734218            4 
 4814000   0.48371177   -8.8457112    610.17011  0.010562424 0.0089703852            3 
 4815000   0.48119071   -8.8571916    610.49174  0.010565797 0.0089673518            2 
 4816000   0.47774675   -8.8494367    609.73991  0.010550594 0.0089643187            6 
 4817000   0.47635212   -8.8543784    609.02592  0.010536051 0.0089612865            2 
 4818000   0.48761102   -8.8665778    610.91492  0.010566537 0.0089582563            3 
 4819000    0.4877443   -8.8591328    609.87872  0.010546426  0.008955225            2 
 4820000   0.48622213   -8.8778333     610.1558  0.010549028 0.0089521983            3 
 4821000   0.48092472    -8.848537    609.70093  0.010538978 0.0089491735            1 
 4822000   0.48201078   -8.8664845    611.29121  0.010564275  0.008946146            2 
 4823000   0.48028541   -8.8562964    609.61936  0.010533198 0.0089431215            4 
 4824000   0.48004488   -8.8485532    610.20767  0.010541177 0.0089400953            2 
 4825000   0.46727677   -8.8494806    609.97023  0.010534892 0.0089370758            3 
 4826000   0.48350675    -8.868217    610.58064  0.010543249 0.0089340532            2 
 4827000   0.47704529   -8.8502672    610.70649  0.010543237 0.0089310373            3 
 4828000   0.48128307   -8.8643245     610.0231  0.010529258 0.0089280186            4 
 4829000   0.47795263   -8.8662131    609.06019  0.010510461     0.008925            2 
 4830000   0.48591194   -8.8697393    609.84718  0.010521863 0.0089219852            4 
 4831000    0.4816167   -8.8595176    609.88023  0.010520255  0.008918968            4 
 4832000   0.47318595   -8.8474364    610.25431  0.010524529 0.0089159524            2 
 4833000   0.47584734   -8.8557168    611.13742  0.010537579 0.0089129426            4 
 4834000   0.47859477    -8.869192    609.94621  0.010514864 0.0089099337            4 
 4835000   0.48817193   -8.8570833    609.64082  0.010507425 0.0089069275            3 
 4836000   0.47235377   -8.8621987    609.84103  0.010508703 0.0089039215            1 
 4837000   0.46562427   -8.8698888     610.5862  0.010519368 0.0089009164            3 
 4838000   0.48434877   -8.8802408    609.75979  0.010502959 0.0088979137            1 
 4839000   0.47235539   -8.8698644    609.93746  0.010503848 0.0088949107            1 
 4840000    0.4746902   -8.8483484     610.2628   0.01050728 0.0088919072            2 
 4841000   0.47709194   -8.8628265    609.56035  0.010493017 0.0088889036            1 
 4842000   0.47777913   -8.8752171    609.59618  0.010491467 0.0088859034            4 
 4843000   0.46912512   -8.8824276    609.90571  0.010494626 0.0088829031            2 
 4844000    0.4808995   -8.8615146    609.34593   0.01048283 0.0088799007            2 
 4845000    0.4877513   -8.8754945     609.2898  0.010479701 0.0088769014            2 
 4846000   0.47391342   -8.8717119    610.06227  0.010490822 0.0088739035            3 
 4847000   0.48016002   -8.8663937    609.59615  0.010480644 0.0088709059            2 
 4848000   0.47594845   -8.8639745     609.9296  0.010484213 0.0088679107            5 
 4849000   0.48448653   -8.8781646    609.13831  0.010468452 0.0088649165            2 
 4850000   0.48722001   -8.8676598    609.95501  0.010480327 0.0088619254            2 
 4851000   0.48021404   -8.8574576    610.01713  0.010479233 0.0088589341            5 
 4852000   0.47899926   -8.8596019     610.3267   0.01048239 0.0088559424            4 
 4853000   0.46648428   -8.8620479    609.67443   0.01046903 0.0088529541            6 
 4854000   0.47854879   -8.8519512    609.43466  0.010462757 0.0088499655            2 
 4855000   0.47137634   -8.8778285    610.00473  0.010470387 0.0088469771            2 
 4856000    0.4842926   -8.8784386    609.46012  0.010458885 0.0088439908            3 
 4857000   0.47730126   -8.8629923    609.84163  0.010463277 0.0088410055            3 
 4858000    0.4808071    -8.894572    609.94009  0.010462812 0.0088380206            2 
 4859000   0.46706554   -8.8689057    609.98049  0.010461352 0.0088350372            4 
 4860000   0.47420538   -8.8692365    609.65556  0.010453628 0.0088320566            2 
 4861000   0.47931434   -8.8759634    608.92234  0.010438907 0.0088290785            3 
 4862000   0.47288095   -8.8713451    609.56786  0.010447824 0.0088260985            2 
 4863000   0.47600218   -8.8819405    609.58816  0.010446024 0.0088231222            2 
 4864000   0.47026879   -8.8657729    609.68421  0.010445522 0.0088201465            4 
 4865000   0.46937905   -8.8851628    609.98082  0.010448455 0.0088171718            3 
 4866000   0.47568678    -8.876283    609.49086  0.010437917 0.0088141981            2 
 4867000   0.47789968   -8.8904578    608.80598  0.010424046 0.0088112233            3 
 4868000   0.47673809   -8.8739982    610.41022  0.010449367 0.0088082517            2 
 4869000   0.47456138   -8.8738044    609.59674  0.010433298 0.0088052812            2 
 4870000   0.47283484   -8.8724316    609.88232  0.010436042 0.0088023131            2 
 4871000   0.47350477    -8.880907    610.25697  0.010440309 0.0087993455            2 
 4872000   0.47344771   -8.8676665    609.21414  0.010420329 0.0087963811            3 
 4873000   0.47582893   -8.8706829    608.98404  0.010414256 0.0087934172            4 
 4874000    0.4708811   -8.8775667     609.7575  0.010425344 0.0087904537            3 
 4875000   0.47535672   -8.8693895    609.35437  0.010416314 0.0087874928            2 
 4876000   0.47224639   -8.8676131    610.03157  0.010425752 0.0087845323            2 
 4877000   0.46607908   -8.8565518    609.23897  0.010410071 0.0087815754            3 
 4878000   0.46837133   -8.8722002    609.82757  0.010417992 0.0087786189            4 
 4879000   0.46205565   -8.8718875    609.57206  0.010411492 0.0087756623            3 
 4880000    0.4835359   -8.8709639    609.47165  0.010407644 0.0087727074            2 
 4881000   0.47830766   -8.8799947    609.24275  0.010401604 0.0087697544            6 
 4882000    0.4605128   -8.8803042    610.45717  0.010420203 0.0087668027            3 
 4883000   0.46884739   -8.8962655    608.29125  0.010381105  0.008763851            4 
 4884000     0.465295    -8.876041      609.195    0.0103944 0.0087609016            3 
 4885000   0.47632074   -8.8798125    610.47137  0.010414046  0.008757953            1 
 4886000   0.47156086   -8.8862252    610.10249  0.010405623  0.008755006            5 
 4887000   0.46169519   -8.8830509    608.48244  0.010375869 0.0087520579            2 
 4888000   0.46729812   -8.8840771    609.79745  0.010396165 0.0087491103            5 
 4889000    0.4842696   -8.8929493    609.70136  0.010392401 0.0087461661            2 
 4890000   0.47734376   -8.8935991    609.18195  0.010381424 0.0087432234            2 
 4891000   0.47014879   -8.8850273    609.15007  0.010378758  0.008740282            2 
 4892000   0.47155456    -8.888317    609.10302  0.010375835 0.0087373423            2 
 4893000   0.46379582   -8.8963928    609.55635  0.010381435  0.008734403            2 
 4894000   0.46485323    -8.882864    610.12759  0.010389041 0.0087314629            4 
 4895000   0.46441532   -8.8922324    609.95152  0.010383921  0.008728526            1 
 4896000   0.46611343   -8.8797168     608.4923  0.010356963  0.008725589            4 
 4897000   0.47726037   -8.8953343    609.81328  0.010377328 0.0087226529            1 
 4898000   0.48019601   -8.8757195     608.3009  0.010349478 0.0087197191            3 
 4899000   0.46875444   -8.8923017    609.52159  0.010368129 0.0087167851            2 
 4900000   0.46551381   -8.8763615    608.66189  0.010351393 0.0087138568            4 
 4901000   0.47238323   -8.8797633    609.87364  0.010369884 0.0087109262            3 
 4902000   0.46042408   -8.8781825    608.57623  0.010345713 0.0087079994            2 
 4903000   0.45973174   -8.8701578     609.2013  0.010354227 0.0087050724            4 
 4904000   0.46424355   -8.8768805    609.79091  0.010362135 0.0087021434            3 
 4905000   0.47011112   -8.8776487    609.57548  0.010356362 0.0086992192            6 
 4906000   0.46946088   -8.8805412    609.09035  0.010346011 0.0086962964            3 
 4907000   0.46182702   -8.8940238    609.10757  0.010344195 0.0086933724            3 
 4908000   0.47456963   -8.8949843    609.39346  0.010346941 0.0086904529            4 
 4909000   0.46930749   -8.8866925    608.80193  0.010334792 0.0086875332            4 
 4910000   0.46153579   -8.8730305    609.15207   0.01033863  0.008684614            4 
 4911000   0.47054571   -8.8833681    610.15854  0.010353603 0.0086816961            2 
 4912000   0.45903963   -8.8892418    609.60184  0.010342051 0.0086787823            2 
 4913000   0.45974704    -8.890878    609.20984  0.010333297 0.0086758701            3 
 4914000   0.46647999   -8.8924065    609.84851  0.010342025  0.008672956            4 
 4915000   0.45430741   -8.8894512     610.1382  0.010344832 0.0086700453            8 
 4916000   0.45706808   -8.8891872    609.32744  0.010328984 0.0086671358            5 
 4917000   0.46445911   -8.8724878    609.06961  0.010322514 0.0086642283            2 
 4918000   0.46717325   -8.9027245    609.58453   0.01032914 0.0086613216            3 
 4919000   0.46888696    -8.894854    609.11574  0.010319098 0.0086584144            2 
 4920000   0.46187603   -8.8879017    608.52698  0.010307029 0.0086555087            4 
 4921000    0.4594239   -8.8945404    609.22765    0.0103168 0.0086526053            3 
 4922000   0.46631522   -8.8919997    608.71582  0.010306038 0.0086497027            4 
 4923000   0.45655727   -8.8858682    608.96354  0.010308138 0.0086467999            4 
 4924000   0.46688407   -8.8920163    609.47792  0.010314749 0.0086439004            3 
 4925000   0.46926907    -8.889165    609.15327  0.010307162 0.0086409999            1 
 4926000   0.47241111   -8.8880596    609.07253  0.010303704 0.0086381025            2 
 4927000    0.4634113   -8.8856483    609.54086  0.010309534 0.0086352062            2 
 4928000   0.47387763   -8.8980686    609.41176  0.010305258 0.0086323116            4 
 4929000   0.47375017   -8.9061215    608.41135  0.010286254 0.0086294174            3 
 4930000   0.46570399   -8.8892649    608.47416  0.010285229 0.0086265262            2 
 4931000   0.46059659    -8.912495    609.14845  0.010294539 0.0086236323            1 
 4932000   0.45659045   -8.8930442    608.77992  0.010286225 0.0086207407            4 
 4933000   0.46865874   -8.8967609     609.2422  0.010291949 0.0086178513            3 
 4934000   0.45839378   -8.8962687    609.58165  0.010295596 0.0086149632            3 
 4935000   0.45774521   -8.9055987    608.98092  0.010283366 0.0086120751            2 
 4936000   0.45941464   -8.8901759    608.91847  0.010280228 0.0086091872            3 
 4937000   0.46653317   -8.9019784    610.01325  0.010296625 0.0086063014            2 
 4938000   0.45266963   -8.8804697    609.06273  0.010278499 0.0086034161            2 
 4939000   0.46722975   -8.9074938    609.63824  0.010286128 0.0086005346            3 
 4940000    0.4530291   -8.8910721    609.32008  0.010278679 0.0085976521            2 
 4941000   0.46767365    -8.883032    608.89841  0.010269487  0.008594774            2 
 4942000   0.46150022   -8.8930099    609.01098  0.010269307 0.0085918949            3 
 4943000   0.45273574   -8.8915049     608.8879  0.010265154 0.0085890168            4 
 4944000   0.46170757   -8.8969863    608.88938  0.010263103 0.0085861378            1 
 4945000   0.46203081   -8.9080264    608.39183  0.010252643 0.0085832597            4 
 4946000   0.46075393   -8.8879778    609.70246  0.010272652 0.0085803845            5 
 4947000   0.46980933   -8.8990033    608.70205  0.010253724 0.0085775133            3 
 4948000    0.4445874   -8.9124622    609.02271  0.010257052 0.0085746423            3 
 4949000   0.46084469   -8.8982859    608.96641  0.010254031 0.0085717713            4 
 4950000   0.46761789   -8.8705467    608.87146  0.010250361 0.0085689042            4 
 4951000   0.46389936     -8.88154    609.34127  0.010256199 0.0085660367            4 
 4952000   0.46163138    -8.906377    609.44081  0.010255802 0.0085631695            2 
 4953000   0.46085635   -8.8747118    608.71255  0.010241479 0.0085603026            3 
 4954000   0.46149672   -8.9122586    610.05829  0.010262049 0.0085574383            2 
 4955000   0.45720666   -8.9092625     608.8384  0.010239462 0.0085545751            2 
 4956000   0.46236951   -8.8954417    609.55823  0.010249499  0.008551712            3 
 4957000   0.45465852   -8.9210884    609.04388  0.010238785 0.0085488505            4 
 4958000   0.45613987   -8.9060135    608.99336  0.010235871 0.0085459905            3 
 4959000   0.46325594   -8.9158084    609.29161  0.010238818 0.0085431336            2 
 4960000   0.46507908   -8.8995035    608.52984  0.010223956 0.0085402758            3 
 4961000    0.4547055   -8.9054189    608.50831  0.010221533 0.0085374204            2 
 4962000   0.45073221   -8.8914304    608.86934  0.010225536  0.008534565            3 
 4963000   0.46111638   -8.8944051    608.66149  0.010219986 0.0085317118            2 
 4964000   0.45582618   -8.9080996    608.09046  0.010208341  0.008528859            3 
 4965000   0.45895864    -8.914088    608.99356  0.010221443 0.0085260075            5 
 4966000   0.45518196   -8.8836937      608.711  0.010214643 0.0085231581            2 
 4967000   0.46433279   -8.8843264    609.33915  0.010223125 0.0085203103            4 
 4968000   0.45535389   -8.8928297    608.45804  0.010206288 0.0085174629            3 
 4969000   0.46122496   -8.9075964    609.45651  0.010220979 0.0085146163            3 
 4970000   0.47362543   -8.8989308    608.48947  0.010202707 0.0085117717            2 
 4971000   0.45287195   -8.9110426    609.59053  0.010219113 0.0085089269            4 
 4972000   0.46070414   -8.9128302    608.97567  0.010206752  0.008506085            2 
 4973000   0.46570485   -8.9011219    609.04254   0.01020582 0.0085032416            2 
 4974000   0.45915369   -8.8962987    609.00906  0.010203208 0.0085004031            1 
 4975000   0.45572508   -8.8932106    608.35553   0.01019021  0.008497565            4 
 4976000   0.46176532   -8.9162699     608.5568  0.010191533 0.0084947264            3 
 4977000   0.46089355   -8.9019455    609.28842  0.010201735 0.0084918911            3 
 4978000   0.45569422   -8.9071485    608.54127  0.010187178 0.0084890572            3 
 4979000   0.45842044   -8.8933461    608.96399  0.010192207 0.0084862262            4 
 4980000   0.46372157   -8.9045602    608.52874  0.010182877 0.0084833936            1 
 4981000   0.45216453   -8.8988096    608.74906  0.010184519 0.0084805634            5 
 4982000   0.45307274   -8.9011575    608.52092  0.010178659 0.0084777346            5 
 4983000   0.45530458   -8.9036471    609.43406  0.010191887 0.0084749067            2 
 4984000   0.45287533   -8.9048723    607.97948  0.010165521 0.0084720805            3 
 4985000   0.44925645   -8.9047924    608.30172  0.010168869  0.008469255            4 
 4986000   0.46108208   -8.9129706    609.46309   0.01018624  0.008466429            4 
 4987000   0.46422671   -8.9004276    609.27777    0.0101811 0.0084636054            2 
 4988000   0.45872286   -8.9113715     608.2245  0.010161463 0.0084607845            2 
 4989000   0.45409469   -8.9139884     608.9189  0.010171025 0.0084579633            4 
 4990000   0.44350671   -8.9095735    608.29033  0.010158489 0.0084551434            5 
 4991000   0.45686123   -8.9097353     608.8128  0.010165177  0.008452326            2 
 4992000   0.45327509   -8.9160675    609.74583  0.010178716 0.0084495106            3 
 4993000   0.46118617   -8.9053294    609.02483  0.010164644 0.0084466931            3 
 4994000   0.45477079   -8.8976126    608.85602  0.010159792 0.0084438786            2 
 4995000    0.4466869   -8.9222001     608.7285  0.010155631 0.0084410643            3 
 4996000   0.45497739   -8.8972692    608.02353  0.010141839 0.0084382542            3 
 4997000   0.45215775   -8.9151632    608.43013   0.01014659 0.0084354459            3 
 4998000   0.45026948   -8.9116567    609.09321  0.010155616 0.0084326372            2 
 4999000   0.45139024   -8.8956018    608.90732  0.010150485 0.0084298299            3 
 5000000   0.44931368   -8.8979879    608.41923  0.010140321 0.0084270226            3 
 5001000   0.45631264   -8.9147024     608.6134  0.010141528 0.0084242154            3 
 5002000    0.4612326   -8.9090207    608.57644  0.010138885 0.0084214087            3 
 5003000   0.44304364    -8.906193    608.34615  0.010133023 0.0084186046            2 
 5004000   0.44961267    -8.911817    607.89704  0.010123519 0.0084158009            2 
 5005000   0.45035222   -8.9038227    609.16713  0.010142643 0.0084129981            5 
 5006000   0.45179809   -8.9039086    609.15765  0.010140459 0.0084101987            3 
 5007000   0.46045711   -8.9152912    608.93346  0.010134702 0.0084073988            3 
 5008000    0.4564832   -8.9116509    608.18156  0.010120167 0.0084046016            3 
 5009000   0.44747618   -8.9181099    607.84342  0.010112521 0.0084018037            4 
 5010000   0.45288933   -8.9067333    608.04155  0.010113798 0.0083990089            1 
 5011000   0.44731553   -8.9048235    608.48772    0.0101192 0.0083962156            3 
 5012000   0.44166614   -8.9158798    608.24805  0.010113196 0.0083934231            1 
Loop time of 12313.2 on 48 procs for 5000000 steps with 4000 atoms

Performance: 70168.844 tau/day, 406.070 timesteps/s
99.4% CPU use with 48 MPI tasks x no OpenMP threads

MPI task timing breakdown:
Section |  min time  |  avg time  |  max time  |%varavg| %total
---------------------------------------------------------------
Pair    | 805.18     | 863.82     | 939.08     | 119.3 |  7.02
Neigh   | 80.233     | 83.661     | 87.209     |  20.6 |  0.68
Comm    | 776.03     | 852.15     | 924.5      | 119.8 |  6.92
Output  | 13.717     | 13.723     | 13.803     |   0.3 |  0.11
Modify  | 10363      | 10383      | 10402      |  10.9 | 84.33
Other   |            | 116.7      |            |       |  0.95

Nlocal:        83.3333 ave          90 max          69 min
Histogram: 1 0 0 0 3 9 10 13 7 5
Nghost:        2137.52 ave        2155 max        2120 min
Histogram: 2 6 6 3 4 8 9 2 3 5
Neighs:        14122.5 ave       15433 max       11297 min
Histogram: 1 0 1 0 5 4 13 13 5 6
FullNghs:      28245.3 ave       30602 max       23448 min
Histogram: 1 0 0 0 4 9 12 13 6 3

Total # of neighbors = 1355775
Ave neighs/atom = 338.94375
Neighbor list builds = 267170
Dangerous builds = 0

#clear
#
#next RN
#
#jump SELF
Total wall time: 3:25:16
