
units lj                  # Use reduced LJ style units
atom_style atomic         # Uncharged point particles
atom_modify map hash      # Needed for indexing of clusters etc
                          # Used to be able to find where atoms are in relation to each other.

lattice fcc 1.0 spacing 1 1 1
Lattice spacing in x,y,z = 1.5874011 1.5874011 1.5874011
region box block 0 10 0 10 0 10 units lattice
create_box 2 box
Created orthogonal box = (0.0000000 0.0000000 0.0000000) to (15.874011 15.874011 15.874011)
  3 by 4 by 4 MPI processor grid
create_atoms 1 box
Created 4000 atoms
  using lattice units in orthogonal box = (0.0000000 0.0000000 0.0000000) to (15.874011 15.874011 15.874011)
  create_atoms CPU = 0.026 seconds
set type 1 type/fraction 2 0.98 78393
Setting atom values ...
  3920 settings made for type/fraction
mass 1 1.0
mass 2 1.0
pair_style lj/cut  3.5
pair_modify tail  yes
pair_coeff 1  1  1.0  1.0   # Intearaction between 1 and 1 set with epsilon = 1 and sigma = 1
pair_coeff 1  2  1.5  0.8
pair_coeff 2  2  0.5  0.88

write_data data.0
System init for write_data ...
Neighbor list info ...
  update every 1 steps, delay 10 steps, check yes
  max neighbors/atom: 2000, page size: 100000
  master list distance cutoff = 3.8
  ghost atom cutoff = 3.8
  binsize = 1.9, bins = 9 9 9
  1 neighbor lists, perpetual/occasional/extra = 1 0 0
  (1) pair lj/cut, perpetual
      attributes: half, newton on
      pair build: half/bin/atomonly/newton
      stencil: half/bin/3d
      bin: standard
WARNING: Not all mixed pair coeffs generated from mixing. Use write_data with 'pair ij' option to store all pair coeffs. (../write_data.cpp:312)


#############################
#   M E L T   S Y S T E M   #
#############################

velocity all create 2.4 5833274 mom yes dist gaussian # Assign velocities
                                                    # Temperature 2.4, random number seed, zero linear momentum
                                                                                # Gaussian distribution

timestep 0.002   # simulation timestep
thermo 1000       # output thermodynamic data every 1000 steps bf 100

# Define a fix  in this case with index 1 applied to all
# particles in the simulation. This fix is for simulations
# in the anisotropic NPT ensemble. Note that we use the MTK
# correction.
fix 1 all npt temp 2.4 2.4 0.1 iso 5.68 5.68 0.5 mtk yes tchain 5 pchain 5 # Use NPT ensemble
                                                                         # Set temperature and pressure and damping
                                                                         # Numbers of thermostats in chain and in barostat
run 10000          # run for 10000 steps
Per MPI rank memory allocation (min/avg/max) = 3.642 | 3.644 | 3.648 Mbytes
Step Temp E_pair E_mol TotEng Press Volume 
       0          2.4   -2.7962588            0   0.80284124   -1.8826162         4000 
    1000    2.4177637   -1.5499345            0    2.0758044    5.7498327    4234.4818 
    2000    2.3757051   -1.5671875            0    1.9954792    5.7051297    4220.1788 
    3000    2.4165465   -1.5810957            0    2.0428178    5.7879989    4197.8482 
    4000    2.4257024   -1.5844373            0    2.0532067    5.9379219    4166.5181 
    5000    2.4209644   -1.5718601            0    2.0586787    5.5661431    4258.9632 
    6000     2.390209   -1.5954086            0    1.9890086    5.8100153    4178.6999 
    7000    2.3912054   -1.5699238            0    2.0159877    5.8163999    4196.4594 
    8000    2.3224218   -1.5676807            0    1.9150811    5.7393577    4203.5082 
    9000    2.4245764   -1.6250951            0    2.0108603    5.5902106    4189.3013 
   10000    2.4318423   -1.6168461            0    2.0300053    5.4076833    4244.8476 
Loop time of 2.37439 on 48 procs for 10000 steps with 4000 atoms

Performance: 727766.835 tau/day, 4211.614 timesteps/s
99.6% CPU use with 48 MPI tasks x no OpenMP threads

MPI task timing breakdown:
Section |  min time  |  avg time  |  max time  |%varavg| %total
---------------------------------------------------------------
Pair    | 1.0355     | 1.1041     | 1.1887     |   3.1 | 46.50
Neigh   | 0.20522    | 0.21015    | 0.21657    |   0.6 |  8.85
Comm    | 0.73237    | 0.81046    | 0.87748    |   3.8 | 34.13
Output  | 0.00024032 | 0.00024603 | 0.00032519 |   0.0 |  0.01
Modify  | 0.20566    | 0.23448    | 0.25486    |   3.0 |  9.88
Other   |            | 0.01493    |            |       |  0.63

Nlocal:        83.3333 ave          93 max          75 min
Histogram: 3 5 6 11 3 4 5 2 7 2
Nghost:        1579.77 ave        1603 max        1559 min
Histogram: 5 5 6 5 3 6 7 3 5 3
Neighs:        8995.73 ave       10458 max        7803 min
Histogram: 3 6 7 7 4 6 5 5 3 2

Total # of neighbors = 431795
Ave neighs/atom = 107.94875
Neighbor list builds = 906
Dangerous builds = 209

# Equilibrate just above the melting temperature to avoid step fn in T

fix 1 all npt temp 1.25 1.25 0.1 iso 5.68 5.68 0.5 mtk yes tchain 5 pchain 5
run 2000
Per MPI rank memory allocation (min/avg/max) = 3.643 | 3.645 | 3.649 Mbytes
Step Temp E_pair E_mol TotEng Press Volume 
   10000    2.4318423   -1.6168461            0    2.0300053    5.4076833    4244.8476 
   11000    1.2516384   -2.4227541            0   -0.5457659    5.5851944    3305.8427 
   12000    1.2308222   -2.4120852            0  -0.56631346    5.6263875    3310.2759 
Loop time of 0.576033 on 48 procs for 2000 steps with 4000 atoms

Performance: 599965.340 tau/day, 3472.022 timesteps/s
99.6% CPU use with 48 MPI tasks x no OpenMP threads

MPI task timing breakdown:
Section |  min time  |  avg time  |  max time  |%varavg| %total
---------------------------------------------------------------
Pair    | 0.2619     | 0.2776     | 0.29749    |   1.6 | 48.19
Neigh   | 0.038628   | 0.040667   | 0.044637   |   0.4 |  7.06
Comm    | 0.18722    | 0.20844    | 0.22718    |   2.1 | 36.19
Output  | 5.2507e-05 | 5.4542e-05 | 6.9707e-05 |   0.0 |  0.01
Modify  | 0.039597   | 0.044553   | 0.048237   |   1.3 |  7.73
Other   |            | 0.004716   |            |       |  0.82

Nlocal:        83.3333 ave          89 max          75 min
Histogram: 4 1 1 4 2 10 7 10 4 5
Nghost:        1863.54 ave        1882 max        1846 min
Histogram: 3 6 4 6 5 5 9 3 5 2
Neighs:        11531.9 ave       12707 max        9959 min
Histogram: 2 1 3 4 7 5 10 8 6 2

Total # of neighbors = 553532
Ave neighs/atom = 138.38300
Neighbor list builds = 144
Dangerous builds = 11

#############################
# L I N E A R  Q U E N C H  #
#############################

# Define solid atoms. This closely follows ten Wolde  Ruiz-Montero and Frenkel  Faraday Discuss  1996  104  93-110
# Compute components of the per-atom q6 vector
compute q6 all orientorder/atom degrees 1 6 components 6 nnn NULL cutoff 1.3 # compute the Q6 parameter.
                                                                             # Use all neighbours within 1.3 unit cell.

# get number of connections
compute coord_number all coord/atom orientorder q6 0.5

# An atom is solid if it has 8 or more connections (of a possible 14)
variable is_solid atom c_coord_number>=8
group solid dynamic all var is_solid    # Must be dynamic to update
dynamic group solid defined

# do clustering
compute cluster solid cluster/atom 1.3 # Create a cluster where all atoms within are solid and max 1.3 units from another member

# define chunks one chunk per cluster
compute clus_chunks solid chunk/atom c_cluster nchunk every compress yes  # Says which atoms are in which chunk

# count the size of each chunk
compute size_chunks solid property/chunk clus_chunks count


# Find the maximum entry in the vector of chunk sizes
variable max_n equal max(c_size_chunks)


# Thermo style which includes this variable
# thermo_style custom step temp pe vol v_max_n

thermo ${N}  # Print the thermo information every 100 steps
thermo 1000  

# Reset the npt fix at a lower temperature (below freezing)
fix 1  all npt temp  ${temp} ${temp}  0.1  iso  5.68  5.68  0.5  mtk yes tchain  5  pchain  5
fix 1  all npt temp  0.45 ${temp}  0.1  iso  5.68  5.68  0.5  mtk yes tchain  5  pchain  5
fix 1  all npt temp  0.45 0.45  0.1  iso  5.68  5.68  0.5  mtk yes tchain  5  pchain  5

dump dmp2 all dcd ${N} traj.dcd
dump dmp2 all dcd 1000 traj.dcd


compute msd all msd com yes
variable twopoint equal c_msd[4]/6/(step*dt+1.0e-6)
fix 9 all vector 10 c_msd[4]
variable fit equal slope(f_9)/6/(10*dt)
thermo_style custom step temp pe c_msd[4] v_twopoint v_fit v_max_n

fix 1 all npt temp 1.25 ${temp} 0.1 iso 5.68 5.68 0.5 mtk yes tchain 5 pchain 5
fix 1 all npt temp 1.25 0.45 0.1 iso 5.68 5.68 0.5 mtk yes tchain 5 pchain 5
run 5000000 # 5000000  # Run for this many steps
Neighbor list info ...
  update every 1 steps, delay 10 steps, check yes
  max neighbors/atom: 2000, page size: 100000
  master list distance cutoff = 3.8
  ghost atom cutoff = 3.8
  binsize = 1.9, bins = 8 8 8
  4 neighbor lists, perpetual/occasional/extra = 1 3 0
  (1) pair lj/cut, perpetual
      attributes: half, newton on
      pair build: half/bin/atomonly/newton
      stencil: half/bin/3d
      bin: standard
  (2) compute orientorder/atom, occasional
      attributes: full, newton on
      pair build: full/bin/atomonly
      stencil: full/bin/3d
      bin: standard
  (3) compute coord/atom, occasional
      attributes: full, newton on
      pair build: full/bin/atomonly
      stencil: full/bin/3d
      bin: standard
  (4) compute cluster/atom, occasional
      attributes: full, newton on
      pair build: full/bin/atomonly
      stencil: full/bin/3d
      bin: standard
Per MPI rank memory allocation (min/avg/max) = 9.811 | 9.817 | 9.822 Mbytes
Step Temp PotEng c_msd[4] v_twopoint v_fit v_max_n 
   12000    1.2308222   -2.4120852 9.1417146e-30 6.3484127e-32 8.3333333e+20            1 
   13000    1.2202989   -2.4375786    1.1744569 0.0075285696   0.10020369            1 
   14000    1.2349752   -2.4282295     2.461836  0.014653785    0.1040811            1 
   15000    1.2423645   -2.4476127    3.6952272  0.020529039   0.10464495            1 
   16000    1.2485277   -2.4546401     4.944787  0.025754098   0.10454211            3 
   17000    1.2564594   -2.4569029    6.2406212  0.030591279    0.1049459            2 
   18000    1.2566604   -2.4365816    7.6419311   0.03537931   0.10654664            1 
   19000    1.2758602   -2.4410275    9.0747564  0.039801562   0.10759598            1 
   20000    1.2858605   -2.4185105    10.440775  0.043503229   0.10929947            1 
   21000     1.265164   -2.4503209    11.815466  0.046886767   0.11026893            3 
   22000    1.2579788   -2.4378088    13.135125  0.049754259    0.1108785            2 
   23000    1.2628085   -2.4074659    14.500547  0.052538211     0.111269            1 
   24000    1.2411133    -2.410343    15.971683   0.05545723   0.11155571            1 
   25000    1.2395594   -2.4575568    17.393064  0.057976879   0.11200211            2 
   26000    1.2424064   -2.4193586    18.804446  0.060270659   0.11254791            1 
   27000    1.2324769    -2.425114    20.157874  0.062215658   0.11308257            1 
   28000    1.2416623    -2.450974     21.48323  0.063938183   0.11328748            1 
   29000    1.2515601   -2.4205018    22.811754  0.065551016   0.11336389            2 
   30000    1.2561875    -2.436476    24.204202  0.067233894   0.11338375            3 
   31000    1.2568459   -2.4359037    25.753334  0.069229391    0.1135318            1 
   32000     1.228062    -2.403117    26.987892  0.070280967   0.11379131            3 
   33000    1.2407747   -2.4241802    28.667086   0.07239163   0.11406633            1 
   34000    1.2269433   -2.4157119     29.82897  0.073110221   0.11439011            1 
   35000     1.256113   -2.4158494    31.080843  0.074002007   0.11459787            1 
   36000    1.2409706   -2.4077618     32.52022  0.075278286   0.11468195            2 
   37000    1.2169391    -2.447368    33.973602   0.07651712   0.11465809            1 
   38000    1.2548947   -2.4202166    35.287916   0.07738578     0.114493            1 
   39000    1.2613594   -2.4421679    36.386588  0.077749119   0.11438424            1 
   40000    1.2342684   -2.4432804    37.677134  0.078494028   0.11425241            1 
   41000    1.2367707   -2.4635966    38.915465  0.079096473   0.11402984            2 
   42000     1.243523   -2.4307708    40.351675  0.080062847   0.11389848            2 
   43000    1.2134938   -2.4464243    41.443804  0.080317449   0.11376548            2 
   44000     1.225157    -2.426823    42.919941  0.081287767   0.11359246            1 
   45000    1.2075543   -2.4199999    44.496492  0.082400911   0.11352295            2 
   46000    1.2367232   -2.4521429     45.75543  0.082890272   0.11344555            3 
   47000    1.2478439   -2.4362909    47.145393  0.083591121   0.11336363            1 
   48000    1.2371191   -2.4299196    48.353499  0.083947047   0.11324374            1 
   49000     1.248625   -2.4344722    49.644154  0.084428833   0.11315964            1 
   50000    1.2511024   -2.4255602    51.177337   0.08529556    0.1130513            1 
   51000    1.2434058   -2.4268888     52.03355  0.085022139   0.11290339            1 
   52000    1.2444753   -2.4377646    53.632036  0.085948774   0.11278706            1 
   53000    1.2561568   -2.4304642    54.977789  0.086443064   0.11269611            1 
   54000    1.2511243   -2.4331396    56.548946  0.087266891   0.11264367            2 
   55000    1.2602104   -2.4615172    57.547668  0.087193435    0.1125838            1 
   56000    1.2403009   -2.4361172    59.194208  0.088086618   0.11254339            1 
   57000    1.2469805   -2.4588131    60.536645  0.088503866   0.11255372            2 
   58000    1.2240216    -2.452049    62.246412    0.0894345   0.11257903            1 
   59000    1.2846472   -2.4362365    63.332289  0.089452384   0.11258054            2 
   60000    1.2579797    -2.432757    64.875241  0.090104501   0.11261571            1 
   61000    1.2767108   -2.4657829    66.110893  0.090315426   0.11264186            1 
   62000    1.2310623   -2.4434813     67.90099  0.091264771   0.11271745            1 
   63000    1.2644605   -2.4068614    69.125624   0.09143601   0.11278186            5 
   64000      1.24476   -2.4504832    70.462227   0.09174769   0.11281964            3 
   65000     1.262237   -2.4520614    71.611164  0.091809184   0.11282305            1 
   66000    1.2429189    -2.442365    73.304446  0.092556119   0.11285531            3 
   67000     1.220876   -2.4548154    74.446078  0.092594624   0.11288015            2 
   68000    1.2533132   -2.4323759    75.473782   0.09249238   0.11288643            1 
   69000    1.2509601   -2.4469649    76.818845  0.092776383   0.11289232            1 
   70000    1.2451703    -2.428156    78.122412  0.093002871   0.11287621            3 
   71000    1.2369096   -2.4622418    79.404654   0.09319795   0.11284276            1 
   72000    1.2589582   -2.4589667    80.559465  0.093240121    0.1128066            1 
   73000    1.2203246   -2.4406311    82.082831  0.093701861   0.11274741            1 
   74000    1.2405424    -2.475031    82.853902  0.093303943   0.11268203            1 
   75000    1.2425583   -2.4346741    84.487341  0.093874823   0.11262101            2 
   76000     1.261421   -2.4389871    85.407097  0.093648132   0.11254365            2 
   77000    1.2333839   -2.4721955    87.005024  0.094161281   0.11249675            1 
   78000    1.2437082   -2.4175981    88.576083  0.094632567   0.11245849            1 
   79000    1.2496244   -2.4372181    90.083722  0.095025022   0.11240893            2 
   80000    1.2395118   -2.4561727    91.138103  0.094935524   0.11237519            1 
   81000    1.2650176   -2.4834807    92.259835  0.094917525   0.11232874            1 
   82000    1.2345327   -2.4775703    93.691698   0.09521514   0.11227497            1 
   83000    1.2221311   -2.4501091    95.383012  0.095766075   0.11222824            2 
   84000    1.2560816   -2.4302873    96.128153   0.09536523   0.11216591            5 
   85000    1.2388573   -2.4958773    97.272605  0.095365298   0.11209668            4 
   86000    1.2314379   -2.4190381    98.825869    0.0957615   0.11202535       -1e+20 
   87000    1.2448041    -2.453464    100.34456  0.096115483   0.11196325            1 
   88000    1.2422353   -2.4335517    101.79318  0.096395054   0.11191523            1 
   89000    1.2199544   -2.5041022    102.69883  0.096159951    0.1118802            2 
   90000    1.2303391   -2.4547182     104.0013  0.096297498   0.11183575            2 
   91000    1.2443169   -2.4504194    105.44159  0.096558233   0.11177787            1 
   92000    1.2200746   -2.4177495     106.7033  0.096651543   0.11172127            2 
   93000    1.2177723   -2.4511893    107.31724  0.096162405   0.11165373            1 
   94000    1.2459251   -2.4565159    108.98942  0.096621829   0.11157638            1 
   95000    1.2511768   -2.4851372    110.18519  0.096653677   0.11150815            1 
   96000    1.2455634   -2.4468722    112.16841  0.097368415   0.11144103            1 
   97000    1.2313432   -2.4697998    112.97213  0.097055096   0.11137097            1 
   98000    1.2428551   -2.4668133    114.19347  0.097103286   0.11129416            1 
   99000    1.2259452   -2.4632294    114.95272  0.096761553    0.1112234            1 
  100000    1.2460821   -2.4579604    116.20672  0.096838932   0.11113023            3 
  101000    1.2402233   -2.4441021    116.55082   0.09616404   0.11101536            4 
  102000    1.2698186   -2.4970309    118.32247   0.09666868   0.11090724            1 
  103000    1.2438046   -2.4486314    119.93576  0.097035407   0.11079744            1 
  104000    1.2249226   -2.4640336     120.4583   0.09652107   0.11068801            4 
  105000    1.2371057   -2.4479281    121.47058  0.096405225   0.11058088            3 
  106000     1.284701    -2.493714      122.706  0.096466984   0.11045142            2 
  107000    1.2251293   -2.4510536    123.95299  0.096536597    0.1103174            2 
  108000    1.2431801   -2.4754331    124.94223  0.096406037   0.11019162       -1e+20 
  109000    1.2136644   -2.4560911    127.06265  0.097142702   0.11006625            3 
  110000    1.2108907   -2.4695174     128.8215  0.097592044   0.10996536            1 
  111000    1.2332426   -2.4712419    129.72568  0.097391652   0.10988119            2 
  112000    1.2339505   -2.4786354    131.66151  0.097962432   0.10981702            1 
  113000    1.2178796    -2.476056    133.06122  0.098127741   0.10977562            1 
  114000    1.2365773   -2.4752335    134.16997  0.098077464   0.10974884            2 
  115000    1.2760603     -2.43233     135.6792  0.098318257   0.10970794            1 
  116000    1.2056569   -2.4711727    136.56311  0.098105684   0.10966999            1 
  117000    1.2326761   -2.4651643    138.74062  0.098818103   0.10963868            1 
  118000    1.2341632   -2.4868795    139.46668  0.098493417   0.10961315            2 
  119000    1.2370935   -2.4543078    140.96161  0.098712612   0.10960399            1 
  120000     1.224398   -2.4431715    141.70362  0.098405289   0.10957904            2 
  121000    1.2543012   -2.4894277    143.96031  0.099146219   0.10955089            1 
  122000     1.230896   -2.4380642    145.01495   0.09905393    0.1095172            3 
  123000    1.2157143    -2.473957    145.61062  0.098652179   0.10947762            2 
  124000     1.235832   -2.4666666    145.96505   0.09809479   0.10942894            2 
  125000    1.2414346   -2.4724422    147.91624  0.098610825   0.10937476            1 
  126000     1.203027    -2.458054    149.05861  0.098583739   0.10932878            1 
  127000    1.2268068   -2.4567399    149.84924  0.098326275   0.10928961            2 
  128000    1.2315009   -2.4372531    151.92261   0.09890795   0.10924571            1 
  129000    1.2333716   -2.4343784    153.40829  0.099100962   0.10920235            2 
  130000    1.2454291   -2.4772662    154.09562  0.098779243   0.10915523            1 
  131000    1.2193786    -2.458632    155.64771  0.099012535   0.10911221            1 
  132000    1.2186589   -2.4722001    157.01588  0.099126189   0.10907663            1 
  133000     1.219523   -2.4660031    158.88337  0.099550986   0.10904748            1 
  134000    1.2619719   -2.4728863    160.30511  0.099692233   0.10902507            2 
  135000    1.2496963   -2.4853676    161.83418  0.099897645   0.10900259            1 
  136000    1.2338125   -2.4897272    162.04314  0.099291141   0.10896885            2 
  137000    1.2439493    -2.474023    163.67373  0.099558229   0.10894502            3 
  138000    1.2553859    -2.461742    164.85916  0.099552632   0.10891015            1 
  139000    1.2537063   -2.4811654    165.34624  0.099128441   0.10887144            2 
  140000    1.2194255   -2.4386872    167.33451  0.099603875    0.1088261            1 
  141000    1.2405705   -2.4455377    168.27595  0.099453872   0.10878007            2 
  142000    1.2419789   -2.4779018    168.09387  0.098646636   0.10872765            5 
  143000    1.2225589   -2.4767529    170.32775  0.099258597   0.10866794            1 
  144000    1.2460184   -2.4546689    171.58574  0.099297302   0.10862614            1 
  145000    1.2260021   -2.4824556    172.58014  0.099183989   0.10858085            1 
  146000    1.2256851   -2.4852222    173.34867  0.098943302    0.1085296            2 
  147000    1.2413056   -2.4581071    175.57447  0.099532013   0.10848039            2 
  148000    1.1918077   -2.4907945    177.45348  0.099917499   0.10842999            2 
  149000    1.2492122   -2.4680854    177.89465  0.099493651   0.10838272            2 
  150000      1.26652   -2.4459749      179.217  0.099565002   0.10833378            2 
  151000    1.2366033   -2.4610619    180.79397  0.099775919   0.10828886            1 
  152000    1.2517781   -2.4493474    183.07847   0.10037197   0.10826169            1 
  153000     1.233655   -2.4393397    183.67633   0.10004157   0.10824127            1 
  154000    1.2088888   -2.4669283     185.2844   0.10026212   0.10821447            1 
  155000    1.2231869   -2.4415356    187.92969   0.10103747    0.1082084            1 
  156000    1.2421635   -2.4441083    188.77729   0.10084257   0.10820596            2 
  157000    1.2034127   -2.4654229    190.99422   0.10137698   0.10820488            1 
  158000    1.2307993   -2.4885612      189.324  0.099854428   0.10820034            4 
  159000     1.232717   -2.4296226    192.68422   0.10098754   0.10819781            1 
  160000    1.1983963   -2.4629627    194.58424   0.10134596   0.10819421            1 
  161000    1.2293726   -2.4699417    194.09555   0.10046353   0.10819344            3 
  162000    1.2015781    -2.489926    196.29581   0.10097521   0.10819317            3 
  163000    1.2357383   -2.4937631     197.4662   0.10095409   0.10818983            3 
  164000    1.2382328   -2.4663827    198.69474   0.10096278   0.10818756            1 
  165000    1.2186264   -2.4827351    200.79498   0.10141161   0.10818265            1 
  166000    1.2281888   -2.4848586    200.54254   0.10067396   0.10817972            1 
  167000    1.2198399   -2.4852709    202.44638   0.10102115   0.10816677            1 
  168000    1.2345063   -2.4690738    204.47324   0.10142522   0.10817205            1 
  169000    1.2213044   -2.4914826    204.59143   0.10088335   0.10815406            1 
  170000    1.2519854   -2.4723327    207.07424   0.10150698   0.10814677            2 
  171000    1.2233511   -2.4715424    206.75406   0.10075734   0.10814255            1 
  172000    1.2092255    -2.443058    209.15507   0.10133482   0.10814175            2 
  173000    1.2160391   -2.4385154    211.17976   0.10172435    0.1081366            1 
  174000    1.2324426   -2.4546009    211.62375   0.10135237   0.10812437            1 
  175000    1.2333477   -2.4658064    211.73467   0.10082603   0.10810826            1 
  176000    1.2190862    -2.437546    213.07504    0.1008878   0.10809162            1 
  177000    1.2265914   -2.4512382    214.41697   0.10094961   0.10807184            2 
  178000    1.1925321   -2.4677684    216.20044   0.10121744   0.10805279            1 
  179000    1.2438675   -2.4467336    217.30743   0.10116733   0.10803005       -1e+20 
  180000     1.209931   -2.4648551    218.39181   0.10110732   0.10800805            2 
  181000    1.2110126   -2.4371497    219.00177   0.10082954   0.10798147            1 
  182000    1.2133423   -2.4844402    219.95137   0.10071034   0.10795458            4 
  183000    1.2069386   -2.4857692    222.68516    0.1014049   0.10794249       -1e+20 
  184000    1.2303189   -2.4450022    223.51487   0.10122956   0.10791509            1 
  185000    1.2157189   -2.4892247    224.72766   0.10122867   0.10789117            1 
  186000    1.1960832   -2.4399554    225.75181   0.10114328   0.10786678            1 
  187000    1.2334959   -2.4560586    227.24404    0.1012674   0.10784814            1 
  188000     1.212109   -2.4863734    228.66638   0.10135921   0.10783306            2 
  189000    1.1878972   -2.4442264    230.83902   0.10178087   0.10783293            2 
  190000    1.2454641   -2.4701068    232.98476    0.1021863   0.10783073            2 
  191000     1.233198   -2.4675282     232.6714   0.10151457   0.10783159            2 
  192000    1.2249206   -2.4478498    234.31921   0.10170105   0.10781949            2 
  193000    1.2226172   -2.4376535    235.80231   0.10181447   0.10781193            1 
  194000    1.2284472   -2.4705999    236.90092   0.10176156   0.10780534            1 
  195000    1.2341105   -2.4860166    238.19337   0.10179204   0.10779745            2 
  196000    1.1769553   -2.4647312    238.54153   0.10142072   0.10778766            1 
  197000    1.2181653   -2.4641942    238.82129   0.10102423   0.10776987            2 
  198000    1.2137837   -2.4565587    240.53936    0.1012371    0.1077411            1 
  199000    1.2180725   -2.4726244    241.54968   0.10115146    0.1077151            1 
  200000    1.2072669   -2.4410854    242.86031    0.1011918   0.10768163            2 
  201000    1.2521413   -2.4813191    242.85335   0.10068547   0.10765416            1 
  202000    1.2296163   -2.4318123    245.60662   0.10132286   0.10762707            1 
  203000    1.2248455   -2.4903249    245.13517    0.1006302   0.10760622            2 
  204000    1.2384595      -2.4766    249.02295   0.10172506   0.10758509            1 
  205000    1.2153876   -2.4712414    249.44266   0.10139946   0.10756364            1 
  206000    1.2366823   -2.4905831    250.34131   0.10127076   0.10753989            1 
  207000    1.2188684    -2.438057    251.31967   0.10117539   0.10751206            1 
  208000    1.2292176   -2.4635269    254.21598   0.10184935   0.10749446            2 
  209000    1.2199276   -2.4756022    254.89942   0.10163454    0.1074755            3 
  210000    1.2287241   -2.4804487    255.24459   0.10128754    0.1074572            1 
  211000    1.2022758   -2.4572153    256.45625   0.10128604    0.1074312            1 
  212000    1.2275371   -2.4805721    257.73678   0.10131163   0.10740753            6 
  213000    1.2115366   -2.4876761    259.93451   0.10169582   0.10738105       -1e+20 
  214000    1.2243849   -2.4713906    261.15778   0.10169696   0.10735685            3 
  215000    1.2334219   -2.4766865    262.13617   0.10160317   0.10734266            1 
  216000    1.2174887   -2.4682275    262.38921   0.10123041   0.10733081            1 
  217000    1.2345791    -2.451462    265.20023    0.1018434   0.10731384            2 
  218000    1.1988325   -2.4690726    266.68118   0.10194235   0.10730283            1 
  219000    1.2219739   -2.4534004    267.48823   0.10178395   0.10729167            1 
  220000    1.2173145    -2.449284    270.16981   0.10233705   0.10728543            2 
  221000    1.2062194   -2.4777486    271.13582   0.10223824   0.10728644            1 
  222000    1.2033042   -2.4732555    272.79936   0.10240216   0.10728479            2 
  223000    1.2299512   -2.4662835    272.81119   0.10194738   0.10727421            1 
  224000    1.2061043   -2.4854671    274.68754    0.1021903    0.1072616            1 
  225000    1.1962388   -2.4572692     275.7375     0.102125   0.10724852            1 
  226000    1.2035947   -2.4619876    276.45937    0.1019393   0.10722982            1 
  227000    1.2076141   -2.4739849    277.76501   0.10196953   0.10721201            1 
  228000    1.2224622   -2.4917541    278.30466   0.10171954   0.10719786            1 
  229000    1.2339555   -2.4500726    279.99122   0.10188909   0.10718226            1 
  230000    1.2177684   -2.4869381    280.61274   0.10167128   0.10716848            2 
  231000    1.1974684   -2.4512499    283.89055   0.10241362   0.10716205            1 
  232000    1.2234103   -2.4865017    285.85415    0.1026775    0.1071558            1 
  233000    1.2349735   -2.4829437    286.69038    0.1025359   0.10715777            1 
  234000    1.1982717   -2.4783218    286.94188   0.10218728   0.10716666            1 
  235000    1.1950678   -2.4770277    290.09463   0.10287044   0.10717416            2 
  236000    1.2070899   -2.4689752     290.1825   0.10246557    0.1071818            2 
  237000    1.1992093   -2.4820308    293.01576   0.10302945   0.10718727            1 
  238000    1.2441849   -2.4644097    294.28998   0.10304271   0.10719842            1 
  239000    1.2031377   -2.4798283    294.65611   0.10273923   0.10720396            2 
  240000    1.2292134   -2.4817763    295.53744   0.10261717   0.10721119            1 
  241000    1.2053393   -2.4720244    296.30539   0.10245691   0.10720956            4 
  242000      1.20984   -2.5002345    296.74175    0.1021838   0.10720585            2 
  243000     1.198016   -2.4656338    299.86251   0.10283351   0.10720252            2 
  244000    1.2226962   -2.4946053    300.36855   0.10258489   0.10720696            2 
  245000    1.2314902   -2.5027762    302.86011   0.10301364   0.10721425            2 
  246000    1.2073789   -2.4725047    305.09692   0.10335261   0.10722196            1 
  247000    1.2003643   -2.4810883    304.90739   0.10287024     0.107232            2 
  248000    1.2066576   -2.4592333    306.01261   0.10282682   0.10723637            1 
  249000    1.1782891    -2.470928    307.70954   0.10298177    0.1072351            3 
  250000    1.2071648   -2.5043785    307.51758   0.10250586   0.10723517            2 
  251000    1.2157401   -2.5002315    309.90436   0.10288989   0.10723366            2 
  252000    1.2237012   -2.4838208    312.65649    0.1033917   0.10723482            2 
  253000    1.1999434   -2.4578617    311.78241   0.10269513    0.1072357            1 
  254000    1.1961343   -2.4796715    312.49272   0.10252386   0.10723692            1 
  255000    1.2216246   -2.4781298    314.46717   0.10276705   0.10724029            1 
  256000    1.2235461   -2.4903189    315.83662    0.1028114    0.1072362            2 
  257000    1.2076477   -2.4860411    316.99312   0.10278636   0.10722608            2 
  258000    1.2195933   -2.4854552    317.13741   0.10243456   0.10721637            1 
  259000     1.214448   -2.4637527     317.5854    0.1021832   0.10720274            1 
  260000    1.1973147   -2.4885885    319.23388   0.10231855   0.10718983            2 
  261000    1.2181469   -2.4776738    320.55621   0.10234873   0.10717523            1 
  262000    1.1896127   -2.4499798    320.77491   0.10202764   0.10715488            1 
  263000    1.2210072   -2.4753799    321.58498   0.10189638   0.10713332            1 
  264000    1.2249226    -2.500245    322.48593    0.1017948   0.10711298            1 
  265000    1.2181208   -2.5107857    323.34838   0.10168188   0.10709155            1 
  266000    1.2049409   -2.5126581    326.35748   0.10224232    0.1070709            1 
  267000    1.2208062   -2.4688088    328.77551   0.10261408   0.10705608            1 
  268000    1.2346589   -2.4784445    330.45242   0.10275262   0.10704515            2 
  269000    1.2667139   -2.4583362    330.21701   0.10229771   0.10703635            1 
  270000    1.2277515   -2.5011083    330.18419    0.1019087   0.10702621            2 
  271000    1.1941973   -2.4615325    333.94409   0.10268884   0.10701361            1 
  272000    1.2097398   -2.4613364    335.34195   0.10273957   0.10700027            2 
  273000    1.1987091   -2.4890589    335.11693   0.10229455   0.10698641            1 
  274000    1.1936294   -2.4883265    336.52813    0.1023504   0.10697655            1 
  275000     1.194489   -2.4701895    338.77031   0.10265767   0.10696369            2 
  276000    1.2055545    -2.487275    338.98785   0.10235141    0.1069506            2 
  277000    1.2305927   -2.4883895    339.27965   0.10206969   0.10693022            2 
  278000     1.200965   -2.4896435    339.98041   0.10191259   0.10691042            1 
  279000    1.2064273    -2.458638    342.80761   0.10239176   0.10688958            1 
  280000    1.2217255   -2.4844868    343.03499   0.10209375   0.10687111            1 
  281000    1.1993015   -2.4874765    343.88859   0.10198357   0.10685453            2 
  282000    1.2121699   -2.4914458    345.73066   0.10216627   0.10683812            2 
  283000    1.1894592   -2.4872606    347.91459   0.10244835   0.10682366            1 
  284000    1.2058644   -2.4470037    351.09218   0.10302001   0.10681258            2 
  285000    1.2262594   -2.5110442    349.31574    0.1021391   0.10679971            2 
  286000    1.2087499   -2.4856182    351.47828   0.10241208   0.10678941            4 
  287000    1.1836334   -2.4665459    354.06496   0.10280632   0.10677581            2 
  288000    1.1903829   -2.4664942    353.79132   0.10237017   0.10676523            3 
  289000     1.183151   -2.4689391    355.49289    0.1025066   0.10675837            1 
  290000    1.2160949   -2.4750241    356.86844    0.1025484   0.10674769            1 
  291000    1.2245531   -2.4766205    357.07307    0.1022546   0.10673388            2 
  292000    1.1657658   -2.5031955    359.09229   0.10248068   0.10671866            1 
  293000    1.2070706   -2.4880478    359.56343   0.10226491   0.10670383            1 
  294000    1.1815992   -2.5020053    359.78155    0.1019789   0.10668584            1 
  295000    1.1872997    -2.490992    361.89908   0.10223138   0.10666623            3 
  296000    1.2042186   -2.4546095    362.16409   0.10196061   0.10664617            1 
  297000    1.2223873   -2.4935224    365.00071   0.10241322   0.10662574            1 
  298000    1.1939768   -2.5047371    363.38563   0.10161791   0.10660259            2 
  299000    1.1872343   -2.4829723    367.69015   0.10247775   0.10658467            1 
  300000    1.2098094   -2.4984978    367.63222   0.10212006   0.10656353            3 
  301000    1.1890733   -2.4678647    368.81365   0.10210788   0.10654058            2 
  302000     1.192786   -2.4919247    369.26999   0.10189569   0.10651371            1 
  303000    1.2445436   -2.5085981    370.98533   0.10203117   0.10648739            3 
  304000    1.1780336   -2.4869811    373.12453   0.10228194   0.10646216            2 
  305000    1.2197485   -2.4970274    374.01775   0.10219064   0.10643871            1 
  306000     1.216896   -2.4655051    373.70111   0.10177045    0.1064132            1 
  307000    1.1752143    -2.497909     374.4405   0.10163966   0.10638594            1 
  308000    1.2199859    -2.474302    377.45209   0.10212448      0.10636            1 
  309000    1.1966406   -2.4956654    378.16183   0.10198539    0.1063338            5 
  310000    1.1904827   -2.4916394    379.58245   0.10203829   0.10630906            2 
  311000    1.2299284   -2.4761067    381.42117   0.10220289   0.10628721            2 
  312000    1.2115183   -2.4945114    383.47145   0.10242293   0.10626673            1 
  313000    1.2157817   -2.4719466    383.02458   0.10197672   0.10624879            2 
  314000    1.1951337   -2.5015293    384.83722   0.10213302   0.10623254            3 
  315000    1.2139915   -2.4727343    388.55007   0.10279102   0.10621628            2 
  316000     1.221689   -2.4930161     389.1253   0.10261743   0.10620094            2 
  317000    1.2039192   -2.4863446    387.90133   0.10197196   0.10618147            1 
  318000    1.2075677   -2.4963604    388.26205   0.10174582   0.10615862            1 
  319000    1.1929425   -2.4924526    388.95401   0.10160763   0.10613984            2 
  320000    1.2047898   -2.4713061     391.5079   0.10195518   0.10612156            3 
  321000    1.2101656   -2.4916454    392.16089   0.10180709   0.10610215            1 
  322000    1.1899003   -2.4924893    394.11678    0.1019971    0.1060802            1 
  323000    1.1945855   -2.4857474    395.26194   0.10197676   0.10605962            1 
  324000    1.2242133    -2.485286    396.70643   0.10203355   0.10603838            1 
  325000    1.1878975   -2.4865999    398.05224   0.10206468   0.10601609            1 
  326000     1.192771   -2.4635766    398.91138   0.10197121   0.10599815            3 
  327000    1.1951479   -2.4941346    400.57545   0.10208345   0.10598718            3 
  328000    1.1724454   -2.4895563    400.39418   0.10172616   0.10597367            1 
  329000     1.198618   -2.4932092    404.18628   0.10237748   0.10595444            2 
  330000    1.1816096   -2.4695734    404.51368   0.10214992   0.10593703            2 
  331000    1.1707346   -2.4900917    404.93953   0.10194852   0.10591425            2 
  332000    1.1821111   -2.4942211     406.4018   0.10200848   0.10589301            1 
  333000    1.2086617   -2.5064694    405.06302   0.10136712   0.10587084            4 
  334000    1.1796326   -2.4609918    406.66975   0.10146451   0.10584623            1 
  335000    1.1947851   -2.4853655    407.11514   0.10127242   0.10582071            3 
  336000    1.1985462   -2.5036327    410.90231   0.10191029   0.10579458            1 
  337000    1.1982494   -2.4906682    412.39543   0.10197711   0.10577288            1 
  338000    1.2176131   -2.4913609    413.60474   0.10197355   0.10575106            3 
  339000    1.2299401   -2.4764492    414.74064   0.10195198   0.10572905            1 
  340000    1.2021437   -2.4956381    417.71797   0.10238186   0.10570877            3 
  341000    1.1957139   -2.4931949    414.32566    0.1012526   0.10568631            1 
  342000    1.2233631   -2.4433549    417.71794   0.10178312   0.10566683            1 
  343000    1.1801347    -2.485338    417.27022    0.1013776   0.10563954            1 
  344000    1.1818008   -2.4923099    420.61754   0.10189378   0.10561535            2 
  345000    1.2007185    -2.469914    420.87617   0.10166091   0.10559494            1 
  346000     1.190219   -2.4978764    421.95882   0.10162785    0.1055736            2 
  347000    1.1817185    -2.470898    423.17962   0.10162815   0.10555004            1 
  348000    1.1964405   -2.5162584    424.48638   0.10164904   0.10552771            2 
  349000    1.2100337   -2.4866588    427.74186   0.10213511   0.10550665            3 
  350000    1.2149916   -2.5049879    428.37169   0.10199326   0.10548855            2 
  351000    1.2090721   -2.5030729    429.14838   0.10188708   0.10546757            4 
  352000    1.2038467   -2.4766661    431.10979   0.10206198   0.10544764            2 
  353000    1.2045511   -2.4640346    431.89355   0.10195787   0.10543398            1 
  354000     1.198833   -2.4873599     432.4147   0.10179254   0.10541816            1 
  355000    1.2019721   -2.4950921    435.49087    0.1022279   0.10540057            3 
  356000    1.1789663   -2.4883359    434.72084    0.1017605   0.10538184            2 
  357000    1.1741034   -2.4893687    434.91641   0.10152111   0.10536407            2 
  358000    1.2081827   -2.4967178    437.16933   0.10176195   0.10534312            2 
  359000    1.2149712   -2.5074497    437.41084   0.10153455   0.10532358            1 
  360000    1.1789818   -2.4964846    439.80822   0.10180746   0.10530335            4 
  361000    1.1782136   -2.4948744    438.96915   0.10133175   0.10527928            1 
  362000    1.2137808   -2.5139421    440.84265   0.10148311   0.10525583            1 
  363000    1.1713312   -2.4748112    441.14792   0.10127363   0.10522792            1 
  364000    1.1839674   -2.5222037    443.00842   0.10142134   0.10520579            1 
  365000    1.2095319   -2.4785615    445.99273   0.10182482    0.1051838            3 
  366000     1.182906   -2.4867262    444.89606   0.10129692   0.10516245            2 
  367000    1.2094205   -2.5211841    448.28617   0.10179068   0.10513996            3 
  368000    1.2044546    -2.470131    449.89924   0.10187936   0.10512196            1 
  369000    1.1840575   -2.5010346    449.95022   0.10161477   0.10510393            1 
  370000    1.1873686   -2.5084861    453.13964   0.10205848   0.10508498       -1e+20 
  371000    1.1878716   -2.4708247    453.57669   0.10188156   0.10506915            2 
  372000     1.183828   -2.4795648     453.7629    0.1016494   0.10505177            2 
  373000    1.1746501   -2.5062091    455.69317   0.10180813   0.10503642            1 
  374000    1.1960777   -2.5161831    454.98201   0.10137745   0.10502099            1 
  375000    1.1849604   -2.4867915    458.54411   0.10189869   0.10500294            1 
  376000     1.198997   -2.4870309    458.83905   0.10169305    0.1049891            2 
  377000    1.1791864   -2.4809159    462.26553   0.10218071   0.10497308            2 
  378000    1.1897649   -2.4842134     460.3869   0.10149623   0.10495611            3 
  379000    1.1887534   -2.4945795     463.5702   0.10192836   0.10494278            1 
  380000    1.1858757   -2.5132711    463.73126   0.10169545   0.10492773            4 
  381000    1.1978506   -2.5025686     464.8524   0.10167375   0.10491157            3 
  382000    1.1505218    -2.505481    466.67289   0.10180473   0.10489676            1 
  383000    1.1866345   -2.5046759    466.56071   0.10151452   0.10488081            1 
  384000    1.1516853   -2.4939591    472.06041   0.10244366   0.10486573            2 
  385000     1.233304   -2.4944846    468.96563   0.10150771   0.10485277            1 
  386000    1.1753877    -2.511405    471.40118   0.10177055   0.10483696            2 
  387000    1.2009782   -2.5275524     471.1278   0.10144871   0.10482216            2 
  388000     1.178081   -2.4741875     473.6287   0.10172438    0.1048036            1 
  389000    1.1891522   -2.5070561    474.92609   0.10174081   0.10478699            2 
  390000    1.2099555   -2.5048105    477.59471   0.10205015   0.10477043            2 
  391000    1.1727197   -2.4936035     476.8798   0.10163679   0.10475098            1 
  392000    1.1803636   -2.5234012     477.9648   0.10160816    0.1047339            3 
  393000      1.19075   -2.4861331    481.39584   0.10207715   0.10471978            1 
  394000    1.1385435   -2.5161026    478.64678   0.10123663   0.10470374            1 
  395000      1.19093   -2.4882203    483.49732   0.10200365   0.10468796            1 
  396000    1.1667008   -2.4781265    484.50518   0.10195816   0.10467602            1 
  397000    1.1918147    -2.531826    484.66062   0.10173397   0.10466354            1 
  398000    1.1630296   -2.5031142     486.7875   0.10192368   0.10464981            1 
  399000    1.2144084   -2.5134001     485.0442   0.10130413   0.10463076            1 
  400000    1.2016384   -2.5061171    487.44659   0.10155137   0.10461408            2 
  401000    1.1671529   -2.5189454    489.44015   0.10171242   0.10459708            3 
  402000    1.1959973   -2.4995052    489.49525   0.10147082   0.10458197            6 
  403000    1.1952497   -2.5211535    490.93428    0.1015166   0.10456737            1 
  404000    1.1913408   -2.4986475      493.341   0.10176176   0.10455417            1 
  405000    1.2125743   -2.4977031    493.35749   0.10151389   0.10454076            1 
  406000    1.1757356   -2.4958381    494.42168   0.10148228   0.10452464            1 
  407000    1.1528809   -2.5081474    497.14481    0.1017905   0.10451144            3 
  408000    1.2016101   -2.5103402    497.04649   0.10152093   0.10449619            1 
  409000         1.18   -2.4947087    499.59272   0.10179151   0.10447977            1 
  410000    1.1880901   -2.4920864    500.58499   0.10174492   0.10446251            1 
  411000    1.1784505   -2.4796713    499.48877    0.1012751    0.1044418            2 
  412000    1.1773575   -2.4983453    498.94538   0.10091937   0.10442408            2 
  413000     1.217709    -2.496089    504.46523   0.10178879   0.10440668            2 
  414000    1.2004095   -2.5194109    505.16588   0.10168395   0.10439165            1 
  415000    1.1904925   -2.5112214    505.89566   0.10158547   0.10437653            2 
  416000    1.1695883   -2.4939365    507.26841   0.10161627   0.10436239            2 
  417000     1.167728   -2.5405206    506.87531   0.10129403   0.10434887            2 
  418000    1.2066437   -2.5038905    508.59627   0.10139479     0.104335            2 
  419000    1.1655758   -2.4865551    512.02172   0.10183407    0.1043245            1 
  420000    1.1372629   -2.4895367    512.44235   0.10167507   0.10431189            2 
  421000    1.1810276   -2.5120113    513.71185   0.10168485   0.10429849            1 
  422000    1.1842243   -2.5277483    514.43742   0.10158717   0.10428405            2 
  423000    1.1786667   -2.5008056    513.91603   0.10124429   0.10426916            2 
  424000    1.1650142   -2.5103277    516.93021   0.10159792   0.10425419            2 
  425000    1.1761484   -2.5132129    518.82179   0.10172976   0.10423854            1 
  426000    1.2129364   -2.4938796    517.23148   0.10117987   0.10422361            2 
  427000    1.1748864   -2.5243285    520.93227   0.10166516   0.10421099            2 
  428000    1.2009377   -2.5069339    521.68825   0.10157481   0.10419873            2 
  429000     1.215216   -2.4916968    523.25942   0.10164324   0.10418653            3 
  430000    1.1741722   -2.5119687    525.74279   0.10188814   0.10417614            1 
  431000    1.1936981   -2.5346291    525.26306   0.10155898   0.10416311            1 
  432000    1.1960403   -2.5278449    524.51079   0.10117878    0.1041492            1 
  433000     1.188997   -2.5172342    527.32834   0.10148736   0.10413543            1 
  434000    1.1688765   -2.4947982    531.31635   0.10201927   0.10412214            1 
  435000    1.2032799   -2.5311602    532.37133   0.10198684   0.10410852            2 
  436000    1.1792965   -2.5202354    527.96587   0.10091091   0.10409513            1 
  437000    1.1649814   -2.5022271    532.33197   0.10151258     0.104083            1 
  438000    1.1611224   -2.5031943    532.36679   0.10128744   0.10406884            1 
  439000    1.1817146   -2.4869258    532.02366   0.10099158   0.10405277            2 
  440000    1.1874081   -2.5151381    532.65334   0.10088131   0.10403607            1 
  441000    1.1658837   -2.5090421    536.08324   0.10130069   0.10401813            2 
  442000    1.2035476   -2.5148876     535.5051    0.1009625   0.10400142            1 
  443000    1.1732715   -2.4934718    539.17355   0.10142467   0.10398411            1 
  444000    1.1786946   -2.5078745    537.99455   0.10097495   0.10396684            1 
  445000    1.1894361   -2.5566574    538.79807   0.10089851   0.10394849            2 
  446000    1.1775118   -2.5236712    541.49316   0.10117585   0.10392864            1 
  447000    1.1890638   -2.5494852    541.52872   0.10095614   0.10390781            3 
  448000    1.1884317   -2.4950247    542.83321   0.10097344   0.10389027            1 
  449000    1.1813048   -2.5086476    545.75987   0.10129174   0.10387093            2 
  450000    1.1908425   -2.4865474    546.87824   0.10127375   0.10385069            1 
  451000    1.1803198   -2.5049683    543.96465   0.10051084   0.10383061            1 
  452000    1.2154313   -2.5167597    547.39457   0.10092083   0.10380867            2 
  453000    1.2172281    -2.505997    550.60359   0.10128837   0.10378518            1 
  454000    1.1837424   -2.5140399    548.63921    0.1007047   0.10376404            1 
  455000    1.1865678   -2.4956069    553.12067   0.10130415   0.10374226            1 
  456000    1.1742279   -2.5216008    552.98784   0.10105772   0.10371885            2 
  457000      1.19535   -2.5162745    552.00794    0.1006579   0.10369721            2 
  458000    1.1671466    -2.510595    552.54847   0.10053648   0.10367329            1 
  459000    1.1708131   -2.5264314    552.06561   0.10022978    0.1036503            1 
  460000    1.1641377   -2.5125219    557.75929   0.10104335    0.1036263            3 
  461000    1.2015555   -2.4974565    559.82473   0.10119753   0.10360533            2 
  462000    1.1929132   -2.4827848    561.06808   0.10120276   0.10358505            1 
  463000    1.1760292   -2.5314286    555.41132  0.099966039   0.10356363            3 
  464000    1.1683024    -2.525687    562.25256   0.10097927   0.10354188            2 
  465000    1.1733549    -2.492299    562.86501   0.10087186   0.10351939            2 
  466000    1.1796761    -2.522131    562.38839   0.10057017   0.10349677            1 
  467000    1.1516085   -2.4895458    561.56765   0.10020836   0.10347212            1 
  468000     1.182304   -2.4779753    564.02069   0.10043103   0.10344701            1 
  469000    1.1743389   -2.5280746     562.8752   0.10001336   0.10341901            2 
  470000    1.1724652   -2.4946099    563.68623  0.099944367   0.10338989            1 
  471000    1.1390845   -2.5048702    564.84236  0.099936724   0.10336188            1 
  472000    1.1568441   -2.5184351    565.89456  0.099910762   0.10333471            1 
  473000    1.1755455    -2.522247    568.28096   0.10011997   0.10330786            1 
  474000    1.1840179   -2.5424034    569.31598   0.10009071    0.1032814            3 
  475000    1.1804724   -2.5287943    571.63003   0.10028597   0.10325782            3 
  476000    1.1885725   -2.4869085    572.55278   0.10023683   0.10323338            2 
  477000    1.1841013   -2.5387248    571.68542   0.09987516   0.10320635            3 
  478000    1.1771008   -2.5267687    570.42735  0.099446887   0.10317453            2 
  479000    1.1728675   -2.5319447    573.63173  0.099796752   0.10314469            1 
  480000    1.1590124   -2.5378963    573.97048  0.099647652   0.10311645            2 
  481000    1.1559064   -2.5091643    574.83632  0.099590492   0.10308751            1 
  482000    1.1784465   -2.5079676    577.84237  0.099903591   0.10305973            2 
  483000    1.1802654   -2.5337343     579.6128   0.10000221   0.10303436            2 
  484000     1.174447   -2.5104416    578.50499  0.099604853   0.10300564            3 
  485000    1.1558918   -2.5024941    578.60199   0.09941615   0.10297531            1 
  486000    1.1764842   -2.5487025    579.16324  0.099307825   0.10294446            2 
  487000    1.1854598   -2.5042817    582.31907   0.09964392   0.10291477            1 
  488000     1.179393   -2.5040503    584.67362  0.099841807   0.10288512            3 
  489000    1.1703089   -2.5374104     582.6865  0.099298995    0.1028563            2 
  490000    1.1797764    -2.503944    586.65113  0.099770601   0.10282834            2 
  491000    1.1573047   -2.5363059    587.06757  0.099638081   0.10280292            2 
  492000    1.1854483   -2.5227215    586.26119  0.099298981   0.10277746            1 
  493000    1.1695446   -2.5269167    590.59937   0.09983086   0.10275009            1 
  494000    1.1792425   -2.5141156    591.45564  0.099773219   0.10272575            2 
  495000    1.1438738   -2.5245489    591.43729  0.099568568   0.10269982            3 
  496000    1.1318902   -2.5247366    594.02137  0.099801977    0.1026735            1 
  497000    1.1837844   -2.5006996    594.36449  0.099658701   0.10264638            1 
  498000    1.1751849   -2.5148084    598.32686   0.10012163   0.10262172            3 
  499000    1.1679163     -2.52853    595.92451  0.099519791   0.10259678            1 
  500000    1.1711386   -2.4857679    599.12423  0.099854038   0.10257038            1 
  501000    1.1748986   -2.5153983    601.20159   0.10000026   0.10254721            1 
  502000    1.1989684   -2.5138471    601.71722  0.099886656   0.10252311            1 
  503000    1.1867038   -2.5250064    601.96927  0.099729832   0.10250157            1 
  504000    1.1747665   -2.5095823    605.14559   0.10005714    0.1024777            1 
  505000    1.1790095   -2.5134329    605.92572  0.099987743   0.10245473            1 
  506000    1.1598075   -2.4997897    607.79861   0.10009859   0.10243233            2 
  507000      1.17238   -2.5169635    607.41923  0.099838794   0.10240947            1 
  508000    1.1698661   -2.5013705    607.87255  0.099716625   0.10238815            2 
  509000    1.1442648   -2.5206924    607.69945  0.099492379   0.10236738            1 
  510000    1.1734898   -2.5063891     611.3297  0.099890474   0.10234794            2 
  511000    1.1562036   -2.4967226    613.03146  0.099972514    0.1023277            3 
  512000    1.1559916   -2.5345368    611.77688  0.099573059   0.10230606            1 
  513000    1.1922799   -2.4903968    613.89608   0.09972321   0.10228417            1 
  514000    1.1722628   -2.5438514    614.22679  0.099582813   0.10226339            2 
  515000    1.1289501   -2.5049549    616.60766  0.099774703   0.10224172            1 
  516000    1.1683549   -2.5344797    617.01881  0.099647741   0.10222075            1 
  517000    1.1791057    -2.535887    618.46903  0.099688754   0.10219887            2 
  518000    1.1740526   -2.5450757    616.23057  0.099136192   0.10217673            4 
  519000    1.1510883   -2.5246396    620.62178  0.099650254   0.10215194            4 
  520000    1.1615526   -2.5424412    618.90421  0.099183368   0.10213007            1 
  521000    1.1640286   -2.5270206    620.23078   0.09920518   0.10210653            3 
  522000    1.1804711   -2.5174652    621.58208  0.099230856   0.10208089            3 
  523000    1.1838155   -2.5372851    619.80423  0.098757844   0.10205407            3 
  524000    1.1491289   -2.5114496    621.80519  0.098887594   0.10202769            2 
  525000    1.1741253    -2.517403    624.32668  0.099099473   0.10199889            2 
  526000    1.1785153   -2.5151216     621.9775  0.098538894    0.1019697            4 
  527000    1.1505077   -2.5387731       625.01  0.098831435   0.10194146            2 
  528000    1.1659111   -2.4895215    627.11176  0.098975973   0.10191234            2 
  529000    1.1687545   -2.5111363    627.42428  0.098838103   0.10188465            1 
  530000    1.1405017   -2.5403329    629.61665  0.098996328   0.10185657            6 
  531000    1.1987106   -2.5329888    628.55717  0.098643624   0.10182889            1 
  532000    1.1767984   -2.5007821    633.68747  0.099261821   0.10180198            1 
  533000    1.1632977   -2.5262546    633.96348  0.099118742   0.10177541            2 
  534000    1.1603928   -2.5223573    634.22124  0.098973352   0.10174855            1 
  535000    1.1943489    -2.525151    634.07657   0.09876582   0.10172188            2 
  536000    1.1735155   -2.5441757     634.3919  0.098630582   0.10169427            3 
  537000    1.1980068   -2.5337594    637.04105  0.098858015   0.10166709            1 
  538000    1.1624192   -2.5318063    639.09328  0.098992144   0.10164052            3 
  539000    1.1735303   -2.4933126    639.81864   0.09892063   0.10161542            1 
  540000    1.1729333   -2.5153158    642.83682  0.099203213   0.10159114            1 
  541000    1.1675255   -2.5444099    641.84669  0.098867327   0.10156712            1 
  542000    1.1456898   -2.5498544    646.57598   0.09941205   0.10154594            2 
  543000    1.1404959    -2.493036    646.84182   0.09926977   0.10152606            1 
  544000    1.1650466   -2.5256474    645.91332  0.098945055   0.10150617            1 
  545000    1.1604056   -2.5283728    646.88975  0.098912805   0.10148481            2 
  546000    1.1477174   -2.5072406    649.21359  0.099086323   0.10146082            3 
  547000    1.1577268   -2.5278518    650.89244  0.099160944   0.10143786            1 
  548000    1.1540909    -2.508272    650.00147  0.098844505   0.10141434            6 
  549000    1.1595108   -2.5344086    651.52086  0.098895092   0.10138823            2 
  550000    1.1538446   -2.5102764    651.67175  0.098738144   0.10136319            1 
  551000    1.1463519   -2.5163215    654.21703  0.098943894   0.10133853            1 
  552000    1.1763359   -2.5396856    654.29119  0.098775844   0.10131378            4 
  553000    1.1522453   -2.5266589    654.87576  0.098685317   0.10128754            1 
  554000    1.1633372   -2.5203164    655.78688  0.098644236   0.10126244            1 
  555000    1.1567183   -2.5000751    657.03307  0.098653614   0.10123739            1 
  556000    1.1870179   -2.5147317     660.0106  0.098922452   0.10121276            4 
  557000    1.1706883   -2.5214977    660.45201  0.098810892   0.10118724            4 
  558000    1.1691373   -2.5243188    659.97832   0.09856307   0.10116224            3 
  559000    1.1691647   -2.5430906    658.88219  0.098223343   0.10113509            1 
  560000    1.1555044   -2.5501712    658.20501  0.097947174   0.10110729            2 
  561000    1.1558117   -2.5185887    661.67854  0.098288553   0.10108113            2 
  562000    1.2016979   -2.5401207     662.1066  0.098177134   0.10105632            2 
  563000    1.1412303   -2.4912231    665.57126   0.09851558    0.1010309            1 
  564000    1.1567297   -2.5230257    662.59105  0.097900569   0.10100695            3 
  565000    1.1604567   -2.4988548    669.01894  0.098675359   0.10098107            2 
  566000    1.1915153   -2.5235959    669.66106  0.098595563   0.10095662            2 
  567000    1.1904449   -2.5196783    672.37699  0.098820839    0.1009317            1 
  568000    1.1295512   -2.5432921     671.4894  0.098516638   0.10090771            2 
  569000    1.1958669   -2.5536073    671.39645  0.098329884   0.10088274            1 
  570000    1.1436037   -2.5313887    670.51657  0.098028738   0.10085772            1 
  571000    1.1753844   -2.5264922    675.27086  0.098550913   0.10083266            1 
  572000    1.1474067   -2.5245253    674.02864  0.098197645   0.10080751            2 
  573000    1.1514417   -2.5614229    674.23368  0.098056091   0.10078209            4 
  574000    1.1474752   -2.5172717    676.51413  0.098216337   0.10075744            1 
  575000     1.163888   -2.5379644    678.55602  0.098341452   0.10073298            1 
  576000    1.1503907   -2.5214426    680.48897  0.098450371   0.10070996            2 
  577000    1.1704777   -2.5152915    680.35946  0.098261043   0.10068834            1 
  578000    1.1620265   -2.5434221    683.55294  0.098551462   0.10066482            2 
  579000    1.1583196    -2.536246    685.22803  0.098622342   0.10064317            2 
  580000    1.1560373   -2.5020373    684.34618    0.0983256    0.1006221            2 
  581000    1.1591592   -2.5375075    689.07613  0.098834786   0.10060129            2 
  582000    1.1637715   -2.5368428    687.92921  0.098500746   0.10058006            3 
  583000    1.1455251    -2.532513    687.78897  0.098311744   0.10055773            3 
  584000     1.171591   -2.5309963    693.59946  0.098972525   0.10053635            1 
  585000    1.1533427   -2.5428671    692.34346  0.098624424   0.10051588            2 
  586000     1.187866   -2.5062091     692.8554  0.098528924   0.10049685            1 
  587000    1.1555955   -2.5248428    693.95558   0.09851726   0.10047697            2 
  588000    1.1723099   -2.5433688    693.74796  0.098320289   0.10045687            4 
  589000    1.1664421   -2.5258754    697.77032  0.098722456   0.10043768            2 
  590000    1.1640447   -2.5207441    695.72516  0.098266265   0.10041698            2 
  591000    1.1614102    -2.503126    699.32466  0.098607539   0.10039703            1 
  592000    1.1579045    -2.533683    697.21991  0.098144695   0.10037663            1 
  593000    1.1431325    -2.562556    699.13501  0.098248315   0.10035463            2 
  594000    1.1540478   -2.5525383    699.40003  0.098120093   0.10033212            3 
  595000    1.1767784   -2.5568219    701.60965  0.098264657    0.1003086            2 
  596000     1.164349   -2.5561181    700.63967   0.09796416   0.10028612            1 
  597000    1.1587767   -2.5324497     702.4824  0.098057286   0.10026317            4 
  598000    1.1759769   -2.5487431    703.08198  0.097976865   0.10023996            3 
  599000    1.1528362   -2.5468497    704.96484  0.098075241   0.10021863            2 
  600000    1.1466129   -2.5478378    704.56975  0.097856909   0.10019684            1 
  601000    1.1362725   -2.5271669    708.50115  0.098239206   0.10017598            1 
  602000    1.1358123   -2.5244652    708.60016  0.098089723   0.10015415            2 
  603000    1.1479667   -2.5720832    709.99777  0.098120201   0.10013305            3 
  604000    1.1315708   -2.5408039    713.42217  0.098430211   0.10011297            1 
  605000    1.1701669   -2.5152235    713.12605  0.098226728   0.10009465            1 
  606000    1.1404819   -2.5156208    716.60863  0.098543541   0.10007541            1 
  607000     1.167496   -2.5044023    713.56163  0.097962881   0.10005634            1 
  608000     1.166972   -2.5602417     714.4874  0.097928646   0.10003613            1 
  609000    1.1467702   -2.5149822    722.63538  0.098882783   0.10001502            2 
  610000    1.1478896   -2.5206588    719.17993  0.098248624  0.099995834            2 
  611000    1.1369007   -2.5351781    721.44769  0.098397121  0.099974924            2 
  612000    1.1771227   -2.5357929    718.23054  0.097798276   0.09995421            3 
  613000    1.1367273   -2.5368053    722.57965  0.098229969  0.099933656            2 
  614000    1.1788571   -2.5546363    717.82082  0.097424106  0.099913402            3 
  615000    1.1414766   -2.5307259    724.14531  0.098122671  0.099891116            1 
  616000    1.1396291   -2.5342141    725.27368  0.098116029  0.099871525            2 
  617000     1.157734   -2.5305846    726.01753  0.098057473  0.099854314            4 
  618000    1.1432756   -2.5221447    727.40397  0.098085757  0.099835452            1 
  619000    1.1687834   -2.5686248    732.97992  0.098677965  0.099816087            2 
  620000    1.1334562   -2.5211504    729.94109  0.098110362  0.099798267            2 
  621000    1.1340231   -2.5685762     732.2733  0.098265338  0.099780657            2 
  622000    1.1601255   -2.5270659     734.9267  0.098462849  0.099764156            4 
  623000    1.1346521   -2.5110838    735.03705  0.098319563  0.099748834            3 
  624000    1.1400128   -2.5613591    733.08427  0.097901211  0.099733361            1 
  625000    1.1490365   -2.5297648    738.34416  0.098445888  0.099717099            4 
  626000    1.1430097   -2.5183534    739.94174  0.098501297  0.099700905            1 
  627000    1.1770769   -2.5254502    738.76215   0.09818742   0.09968563            1 
  628000     1.137594   -2.5680465    738.72352  0.098025945  0.099669693            2 
  629000    1.1770387   -2.5309249    739.85772  0.098020366  0.099653797            2 
  630000    1.1569431   -2.5692791      741.558  0.098089683  0.099637364            1 
  631000    1.1261965   -2.5484811    744.69475  0.098348488  0.099620678            1 
  632000    1.1384472   -2.5449859    743.48514  0.098033378   0.09960425            1 
  633000    1.1780155   -2.5727801    744.99589  0.098077395   0.09959048            2 
  634000    1.1480048   -2.5405083    744.92699  0.097913643  0.099575023            2 
  635000    1.1566272   -2.5031558    748.22761    0.0981926  0.099560312            1 
  636000    1.1829604   -2.5317071     748.0033  0.098008818  0.099544443            1 
  637000    1.1371689   -2.5349179    750.64749  0.098200875  0.099528291            2 
  638000    1.1380799   -2.5271204    755.98963  0.098744726  0.099513493            1 
  639000    1.1378129   -2.5144367    751.98578  0.098068046  0.099498053            2 
  640000    1.1521088   -2.5382087    752.28805  0.097954174  0.099481968            1 
  641000     1.152528   -2.5557871    750.50734  0.097569857  0.099464157            2 
  642000    1.1657452   -2.5465793    755.06749  0.098009799  0.099446254            2 
  643000    1.1506085   -2.5495232    756.84366  0.098087566  0.099427548            3 
  644000    1.1418289   -2.5456087     753.2185  0.097466162  0.099407356            3 
  645000     1.129175   -2.5352892    753.51379  0.097353203  0.099386491            3 
  646000    1.1371295   -2.5408957    759.08333  0.097920966  0.099365448            1 
  647000    1.1694754   -2.5381001    755.89836  0.097359397   0.09934484            1 
  648000    1.1543732   -2.5588057    759.57128  0.097681492  0.099325231       -1e+20 
  649000    1.1531891   -2.5531562    757.51652  0.097267145  0.099305905            1 
  650000    1.1349807   -2.5439321    764.58098  0.098023202  0.099287128            2 
  651000    1.1387574   -2.5368639    766.28164  0.098090327  0.099269181            1 
  652000    1.1554924   -2.5353177    763.84827  0.097628868  0.099252419            1 
  653000    1.1370971   -2.5309977    766.90458  0.097869394  0.099234766            3 
  654000    1.1485776   -2.5679284    764.65032  0.097432508   0.09921479            3 
  655000    1.1542562   -2.5259074     768.6667  0.097794745  0.099195405            1 
  656000    1.1575309   -2.5257963    769.70948  0.097778135  0.099177331            1 
  657000    1.1377463    -2.528193    768.55576  0.097482974  0.099159158            1 
  658000    1.1469738   -2.5303433    774.26906  0.098058392  0.099140265            1 
  659000    1.1493072   -2.5429435    769.84972  0.097350749  0.099122047            2 
  660000    1.1493728   -2.5374894    771.99387  0.097473974  0.099101751            1 
  661000    1.1583245   -2.5490584    775.76726  0.097802226  0.099084017            1 
  662000    1.1398447    -2.537427     777.3238  0.097850429  0.099066718            1 
  663000    1.1490422   -2.5346454    774.06078  0.097292707  0.099050056            1 
  664000    1.1318518   -2.5608059    778.35705  0.097685373   0.09903333            2 
  665000     1.136473   -2.5162059    780.86661  0.097852958  0.099017573            1 
  666000    1.1587522   -2.5805804    776.81894  0.097199567  0.099000574            3 
  667000      1.17328   -2.5477334    779.34828   0.09736985   0.09898551            1 
  668000    1.1201794   -2.5335766    782.99822  0.097679418  0.098968575            2 
  669000    1.1347562   -2.5373794    785.71976  0.097872417  0.098952869            4 
  670000    1.1422587   -2.5434081    787.71216   0.09797415  0.098937325            1 
  671000    1.1559761   -2.5485337    787.34063  0.097781995  0.098922039            2 
  672000    1.1353093   -2.5520269     784.9913  0.097345152  0.098906112            1 
  673000    1.1166248   -2.5292629    791.26589   0.09797745  0.098889938            1 
  674000    1.1512284   -2.5131408    789.89986  0.097663187  0.098875235            1 
  675000    1.1263066   -2.5249928    792.43617  0.097831626    0.0988607            1 
  676000     1.146028   -2.5433126    793.81797  0.097857245  0.098846648            2 
  677000    1.1470146   -2.5264661    797.01861  0.098106673  0.098833548            1 
  678000    1.1468285   -2.5541145    794.35983   0.09763518  0.098820068            1 
  679000    1.1419348   -2.5591656    796.32628  0.097732729  0.098806704            3 
  680000    1.1651548   -2.5402795    797.16793  0.097692149  0.098794753            1 
  681000    1.1411691   -2.5530026    800.91914  0.098007727  0.098782255            2 
  682000    1.1332158   -2.5448739    799.58965   0.09770157  0.098770227            2 
  683000    1.1275496   -2.5538455    801.92034  0.097842892   0.09875691            1 
  684000    1.1312417   -2.5090354    801.99197  0.097708573  0.098742504            1 
  685000    1.1270451   -2.5435833    804.08651  0.097820743  0.098731071            2 
  686000    1.1699506    -2.564207    803.75065  0.097637348  0.098717967            2 
  687000    1.1645788   -2.5492041    805.23041  0.097674722  0.098706551            1 
  688000     1.172609   -2.5730324    807.60893  0.097820849  0.098694048            1 
  689000    1.1386357   -2.5383739    810.09435  0.097979481  0.098681835            1 
  690000     1.152473    -2.545829    809.59462  0.097777127  0.098668623            1 
  691000    1.1034762   -2.5563549    808.68983  0.097526511  0.098654695            1 
  692000    1.1487158   -2.5457854    806.19412  0.097085033  0.098640179            2 
  693000    1.1429427   -2.5758177    811.37394  0.097567814  0.098624557            2 
  694000    1.1201459   -2.5693273    813.21184  0.097647915  0.098611247            1 
  695000    1.1441337   -2.5482383    812.75945  0.097453171  0.098598432            2 
  696000    1.1516221   -2.5436379    818.36015  0.097983734  0.098585304            2 
  697000    1.1236794   -2.5800294    813.88551  0.097308168  0.098571016            2 
  698000    1.1632676   -2.5199484    818.80873  0.097756534  0.098557357            1 
  699000    1.1397547   -2.5251325    818.65294  0.097598109  0.098543567            2 
  700000    1.1374537   -2.5322569    819.86094  0.097602493  0.098531204            3 
  701000    1.1453771   -2.5380659    822.96645  0.097832436  0.098516891            3 
  702000    1.1339003   -2.5403864    822.24261  0.097607147  0.098503267            2 
  703000    1.1375864   -2.5615126    822.76931  0.097530739  0.098489322            1 
  704000    1.1410784   -2.5510106     819.0024  0.096946307  0.098472508            1 
  705000    1.1318846   -2.5527862    823.72219  0.097366689  0.098457318            4 
  706000     1.134985   -2.5403453    826.18265  0.097519198  0.098442017            1 
  707000    1.1470981   -2.5629775    823.78006  0.097098074  0.098426194            3 
  708000    1.1116618    -2.535622     825.5823  0.097173058  0.098409071            4 
  709000    1.1461911    -2.540322    826.70058   0.09716744   0.09839237            1 
  710000    1.1151443   -2.5294151    828.12935   0.09719828  0.098377541            4 
  711000    1.1236021   -2.5719962    827.86503  0.097030594  0.098361625            2 
  712000    1.1335298   -2.5423024    831.57812    0.0973289  0.098344753            2 
  713000    1.1263076   -2.5323883    829.71861   0.09697506  0.098328627            2 
  714000     1.126843   -2.5635543    829.09541  0.096766505  0.098313106            1 
  715000    1.1409068   -2.5403111     832.4788  0.097025501  0.098296925            1 
  716000    1.1264857   -2.5472106    833.34494  0.096990798   0.09828096            2 
  717000    1.1205981   -2.5482534    837.92109  0.097387389   0.09826432            3 
  718000    1.1420301    -2.562742    837.77017  0.097234235  0.098250571            2 
  719000     1.129838   -2.5538019    842.10233  0.097601105  0.098237116            2 
  720000    1.1300766   -2.5397888    837.63178  0.096948123  0.098222898            1 
  721000    1.1369906   -2.5884647    835.57831  0.096576319  0.098207163            1 
  722000    1.1340771   -2.5293482     845.5192  0.097589935   0.09819289            2 
  723000    1.1426393   -2.5721154    842.68352  0.097128114  0.098179494            1 
  724000    1.1332112    -2.567681    844.10644  0.097157739  0.098166524            2 
  725000    1.1322147   -2.5638767    846.28701  0.097274369  0.098153281            1 
  726000    1.1293387   -2.5827605    847.44314  0.097273087  0.098140048            2 
  727000    1.1620663   -2.5200973    848.58888  0.097270618  0.098127074            1 
  728000    1.1471028   -2.5769536    848.92325   0.09717528  0.098116233            2 
  729000     1.136273   -2.5345367    849.00014   0.09705077  0.098103891            2 
  730000    1.1341777   -2.5484686    850.63308  0.097104233   0.09809148            1 
  731000    1.1488974   -2.5578911    856.48653  0.097638683  0.098078407            1 
  732000    1.1512071   -2.5447127    854.03509  0.097226216  0.098065623            3 
  733000    1.1201259   -2.5485011    851.05009  0.096754216  0.098052186            1 
  734000    1.0957561   -2.5628969    853.97314  0.096954262  0.098038409            1 
  735000    1.1224274   -2.5460604    856.11716  0.097065437  0.098024569            2 
  736000    1.1427787   -2.5746722    853.92634  0.096685501  0.098010298            4 
  737000    1.1410027   -2.5465205    856.77532  0.096876449  0.097995761            1 
  738000    1.1221786   -2.5648293    859.66439  0.097071408  0.097980809            2 
  739000    1.1134528   -2.5577708    864.35072  0.097468507  0.097965896            2 
  740000    1.1455831   -2.5455499    860.51861  0.096905249   0.09795098            1 
  741000    1.1178905   -2.5705438    860.10148  0.096727562  0.097935259            2 
  742000    1.1489445   -2.5475131    860.35541   0.09662572  0.097919479            2 
  743000    1.1286145   -2.5481008    864.93344  0.097009134  0.097905033            1 
  744000    1.1061317   -2.5593621    865.95095  0.096992714  0.097890774            2 
  745000    1.1267885   -2.5725365     867.2139  0.097003792  0.097876214            1 
  746000     1.127841   -2.5585212    865.34419  0.096664901  0.097861624            3 
  747000    1.1699977   -2.5804596    863.95006  0.096379971  0.097846821            1 
  748000      1.15361    -2.559967    868.61198  0.096770497   0.09783296            2 
  749000    1.1220541   -2.5572995    872.17788  0.097038037  0.097820143            2 
  750000    1.1316252   -2.5610437    871.62879  0.096847644  0.097807783            1 
  751000     1.129059   -2.5466347    868.78419  0.096403039  0.097794377            2 
  752000    1.1436339   -2.5618456    873.07647  0.096750496  0.097780127            4 
  753000    1.1374964   -2.5719998    877.13675  0.097071353  0.097764939            2 
  754000    1.1223226   -2.5532506    872.16023  0.096392598  0.097749182            2 
  755000    1.1293449   -2.5406092    879.78372  0.097106371  0.097734197            2 
  756000    1.1029032   -2.6096216    872.79551  0.096207618  0.097719137            1 
  757000    1.1279359   -2.5389999    876.12283  0.096446811  0.097702299            3 
  758000    1.1545121   -2.5532816    879.47507  0.096688112  0.097685304            2 
  759000    1.1541228   -2.5334741    881.07922  0.096736849   0.09766881            2 
  760000    1.1201295   -2.5395531    882.06142  0.096717261  0.097654417            3 
  761000     1.116551   -2.5568458    885.90233  0.097010767  0.097639769            2 
  762000    1.1366412   -2.5600396       878.93  0.096120954  0.097623857            2 
  763000    1.1267004   -2.5385503    884.14639    0.0965647  0.097608039            1 
  764000    1.1200433   -2.5673035    886.66642  0.096713179  0.097593856            2 
  765000    1.1109111   -2.5662564    892.20692  0.097190296  0.097580327            1 
  766000    1.1319408   -2.5475085    889.36316  0.096754043  0.097567307            1 
  767000    1.1473585   -2.5326605    892.80759  0.097002128  0.097554963            3 
  768000    1.1031807   -2.5587802    890.59864  0.096636137  0.097541197            1 
  769000    1.1147781   -2.6032734    887.44852  0.096169107  0.097527349            1 
  770000    1.1533465   -2.5550874    888.48894  0.096156811  0.097511791            3 
  771000    1.1188756    -2.562143    891.58722  0.096366971  0.097496257            2 
  772000    1.1245832   -2.5596074    896.21995  0.096742222  0.097482349            1 
  773000    1.1095765   -2.5647479    895.58961  0.096549117  0.097467771            3 
  774000    1.1309278   -2.5699959    896.18103  0.096488052  0.097453213            1 
  775000    1.1304274   -2.5679184    900.57316  0.096835823  0.097439728            2 
  776000    1.1304362   -2.5673148    897.44374  0.096374972  0.097425574            2 
  777000    1.1327837   -2.5672737     898.3889  0.096352306  0.097411256            2 
  778000    1.1446985   -2.5707439    905.31867  0.096970723  0.097396796            2 
  779000    1.1109748   -2.5562341    908.28366  0.097163421   0.09738254            1 
  780000    1.1344272   -2.6035724    902.18892  0.096387705  0.097369924            2 
  781000    1.1502377   -2.5866115    904.42968   0.09650338  0.097356739            2 
  782000    1.1266497    -2.560286    905.22679  0.096464918  0.097343464            2 
  783000     1.111705   -2.5458902    909.81383  0.096829909  0.097330553            1 
  784000    1.1565757   -2.5549568    906.40516  0.096344085  0.097317518            1 
  785000    1.1272508   -2.5718817    909.27721  0.096526243  0.097304646            1 
  786000    1.1004282   -2.5687718    913.70362  0.096872733  0.097291411            2 
  787000    1.1284377   -2.5769086    910.01007  0.096358542    0.0972787            2 
  788000    1.1464361    -2.570379    913.25464  0.096579382  0.097266882            3 
  789000    1.1480996   -2.5549125    914.37041  0.096574821  0.097253915            1 
  790000    1.1332274   -2.5508394    915.33888  0.096554734   0.09724181            1 
  791000     1.143911   -2.5870705    910.88957  0.095963924  0.097229199            1 
  792000    1.1339993   -2.5622266     920.5138  0.096855408  0.097217036            2 
  793000    1.1330052   -2.5574981    919.45365  0.096621863  0.097205135            1 
  794000    1.1205502   -2.5306044    920.57282  0.096617634  0.097192996            2 
  795000    1.1093642   -2.5524419    925.67296  0.097030709  0.097182641            2 
  796000    1.1295788   -2.5536455    924.13447  0.096747745  0.097171181            3 
  797000    1.1334191   -2.5470979    921.31889  0.096331963  0.097159235            1 
  798000    1.1030897   -2.6061452    922.55162  0.096339977  0.097146948            2 
  799000    1.1101383   -2.5751934    926.77496  0.096659883  0.097135423            2 
  800000    1.1257663   -2.5982797    926.68492  0.096529679  0.097123828            2 
  801000    1.1294587   -2.5751795    931.55058  0.096915375  0.097112951            2 
  802000     1.136256   -2.5624382    933.13116  0.096958765  0.097101534            2 
  803000    1.1076322   -2.5612269    932.04709  0.096725517  0.097091314            2 
  804000    1.1038473   -2.5635629    925.02425  0.095877307  0.097080472            2 
  805000    1.1206102   -2.5804013    934.75713  0.096765748   0.09707029            3 
  806000    1.1070888    -2.563054    936.38228  0.096813718  0.097060175            1 
  807000    1.1399631    -2.559647    934.56587  0.096506182  0.097051064            1 
  808000    1.1446058   -2.5510879    938.64028   0.09680696  0.097041541            1 
  809000    1.1091827   -2.5770543    933.92829  0.096201925  0.097031882            3 
  810000    1.1389443   -2.6003627    938.93118  0.096597858  0.097021383            2 
  811000    1.0924308   -2.5766794    944.68406  0.097069879  0.097012077            1 
  812000    1.1264859   -2.5904224    939.11233  0.096378523  0.097002895            1 
  813000    1.1107216   -2.5788871    943.54692  0.096714526  0.096994656            2 
  814000    1.1118824   -2.5497466    943.94976  0.096636953  0.096986639            2 
  815000    1.0995034   -2.6027642    947.03864  0.096834216  0.096976915            3 
  816000    1.1119868   -2.5967183      946.026  0.096612133   0.09696775            2 
  817000    1.1127303   -2.5804394    953.72576  0.097279249  0.096959944            4 
  818000    1.1378995   -2.5778525    952.30167  0.097015247  0.096953214            2 
  819000    1.0939169   -2.5699748    946.90861  0.096348047  0.096945569            1 
  820000    1.1179811   -2.5511806    953.16865  0.096866733  0.096937052            2 
  821000    1.1045443   -2.5703744    953.97957  0.096831057  0.096929226            2 
  822000    1.1378176    -2.604299    952.37367  0.096550453  0.096921457            3 
  823000    1.1189756   -2.5727887    955.89111  0.096789299  0.096913646            3 
  824000    1.1317766   -2.5544058    957.10245  0.096794342  0.096906026            5 
  825000    1.1076909   -2.5647686    958.98934   0.09686761  0.096898869            3 
  826000     1.152295   -2.5779721    961.46448  0.097000049  0.096890679            1 
  827000    1.1248611   -2.5779138    960.86966   0.09682282  0.096882045            2 
  828000    1.1124264   -2.5610278    965.67381  0.097189393  0.096874136            1 
  829000    1.1244523   -2.5661733    968.27194  0.097333327  0.096867157            1 
  830000    1.1215453   -2.5643283    961.44732  0.096530855  0.096860458            3 
  831000     1.116322   -2.5756507    961.67495   0.09643752   0.09685333            2 
  832000    1.1131895   -2.5298486    967.47012  0.096902055  0.096847263            3 
  833000    1.1072339   -2.5915496    968.97899  0.096936674  0.096839353            1 
  834000     1.122134   -2.5597206    971.28366  0.097050725  0.096831439            2 
  835000    1.1060761   -2.6000466    966.09297  0.096416464  0.096824167            3 
  836000    1.1005735   -2.5903627     972.6266  0.096952412  0.096816455            1 
  837000    1.1278864   -2.5628698    972.16459   0.09679058  0.096810449            3 
  838000    1.1093978   -2.5803999    977.70687   0.09722622   0.09680348            1 
  839000    1.1331146   -2.5856563     972.5516  0.096598291  0.096797197            1 
  840000    1.0933328   -2.5637912    978.53972  0.097077353   0.09679087            1 
  841000    1.1383774   -2.5721292    981.18112  0.097223655  0.096784968            2 
  842000    1.1337277   -2.5914397    977.09612  0.096703892  0.096780057            2 
  843000    1.1182173   -2.5791142    979.30177  0.096807214  0.096773053            2 
  844000    1.1102979   -2.5742509    979.36885  0.096699136  0.096767283            2 
  845000    1.1169449   -2.5315498    986.76939  0.097314535  0.096761521            2 
  846000    1.0946762   -2.6025248    985.31978  0.097056716  0.096757178            2 
  847000    1.1268719   -2.5675429    986.57244  0.097065372   0.09675049            1 
  848000    1.1175123   -2.5707954    991.33422   0.09741885  0.096745686            2 
  849000    1.1142658    -2.635201    984.85918  0.096668549  0.096738925            1 
  850000    1.1142238   -2.6054466    986.73492  0.096738717  0.096732003            2 
  851000    1.1380818    -2.572949    989.51002   0.09689679  0.096725951            3 
  852000    1.0971592   -2.5860228    986.76566  0.096514638  0.096719587            2 
  853000    1.1106832   -2.5912089    993.15475  0.097025669  0.096712539            4 
  854000    1.1237516   -2.5783372    996.27004  0.097216046  0.096705972            1 
  855000    1.1368778   -2.5483012    995.05969  0.096984376  0.096699959            1 
  856000     1.108073   -2.5482699    994.27705  0.096794884  0.096694354            1 
  857000    1.0878089   -2.6039231    992.79608  0.096537931  0.096688075            1 
  858000    1.1135309   -2.5507603    997.30584  0.096863426  0.096682018            1 
  859000    1.0991539   -2.5686091     998.4728  0.096863873  0.096675416            1 
  860000    1.1475529   -2.5758667    998.92066  0.096794638  0.096669188            2 
  861000    1.1228243    -2.592003    997.17432  0.096513194  0.096661611            2 
  862000    1.1182723   -2.5923482     997.2262  0.096406245   0.09665468            2 
  863000    1.1164733   -2.5674102    1003.8715  0.096936216   0.09664841            3 
  864000    1.1141787   -2.5895652     999.4813  0.096400588  0.096641907            2 
  865000    1.1193463   -2.5671875    1007.0574  0.097019022  0.096635333            1 
  866000    1.1053281    -2.582429    1008.2555  0.097022277  0.096629994            3 
  867000    1.1215539   -2.5865365    1002.7215  0.096378464  0.096623489            2 
  868000    1.0946384   -2.5754706    1010.0701  0.096972938  0.096617812            4 
  869000    1.0764254   -2.5804253    1009.9104  0.096846032  0.096611925            1 
  870000    1.0913318   -2.5850606    1011.5524   0.09689199  0.096605801            2 
  871000    1.1327035   -2.6080847     1007.854  0.096426907   0.09659924            2 
  872000      1.11426   -2.5570525    1013.7994  0.096884502   0.09659319            4 
  873000    1.1131651   -2.5893734    1008.7616  0.096292634  0.096587437            2 
  874000    1.1163505   -2.5935641    1018.1075  0.097073557  0.096581972            3 
  875000    1.1173179   -2.6092816    1016.9019  0.096847802  0.096576519            2 
  876000    1.1014195   -2.5760452    1014.3951  0.096498772  0.096570094            2 
  877000    1.1249466   -2.5424486    1019.4382  0.096867941  0.096563515            2 
  878000    1.1157419    -2.577288    1019.5468  0.096767919   0.09655833            1 
  879000    1.0972288   -2.5713628    1017.8462   0.09649661  0.096552096            2 
  880000    1.1194765   -2.5836883    1018.2727  0.096427342  0.096544833            6 
  881000    1.0985039   -2.5869441    1022.1235   0.09668213  0.096538482            2 
  882000    1.0841649     -2.59031     1021.711  0.096533537  0.096531461            1 
  883000     1.114062    -2.581723    1019.5611  0.096221319   0.09652459            4 
  884000    1.1336955   -2.6111004    1025.7368  0.096694642  0.096516974            3 
  885000    1.1288261   -2.6129068    1021.3177  0.096169274  0.096508857            5 
  886000     1.128934   -2.6009241    1022.7784  0.096198124  0.096501776            4 
  887000    1.1200661   -2.5792845    1022.4553  0.096059312  0.096493668            2 
  888000    1.1302239   -2.5891449    1026.5733  0.096337588  0.096485094            1 
  889000    1.0929207   -2.5613061    1030.8705  0.096632029  0.096477736            1 
  890000    1.0992826   -2.5932326    1029.8619  0.096429014  0.096469857            4 
  891000    1.0878695   -2.5861969    1034.5326  0.096757634  0.096463122            2 
  892000    1.1239977   -2.5893856    1030.4506  0.096267803  0.096455967            1 
  893000    1.1283006   -2.5882372    1030.0008  0.096118028  0.096449404            1 
  894000    1.1211033   -2.6033145    1030.5046  0.096057476   0.09644294            2 
  895000    1.1102396   -2.5463812    1035.5393  0.096418927  0.096435031            3 
  896000    1.0916983   -2.6106039    1032.9564  0.096071091  0.096428646            1 
  897000    1.0890802   -2.5966663     1037.907  0.096423917  0.096421838            1 
  898000    1.0966903    -2.573672    1039.1358  0.096430568  0.096414497            1 
  899000    1.1201827   -2.5664028    1042.9103  0.096673182  0.096407013            4 
  900000    1.1213499   -2.6093383    1041.4345  0.096429122   0.09639906            1 
  901000    1.1214009    -2.577008    1038.7781  0.096076404  0.096390206            2 
  902000    1.1139372   -2.5967271    1042.0267  0.096270023   0.09638119            1 
  903000    1.1239636   -2.5909422     1038.619  0.095848932  0.096372339            1 
  904000    1.1179681   -2.5852598    1038.0392  0.095689451  0.096362826            3 
  905000    1.1008426   -2.6058039    1037.6083  0.095544044  0.096353452            2 
  906000    1.0986493   -2.5851665       1047.6  0.096357615   0.09634368            1 
  907000     1.122874     -2.61884    1045.7248  0.096079087  0.096333357            1 
  908000    1.1108896   -2.5896386    1044.0312  0.095817841    0.0963241            1 
  909000    1.1024171   -2.5993345    1047.3719  0.096018693  0.096316048            5 
  910000      1.09686   -2.6022277    1043.6104  0.095568722  0.096307017            3 
  911000    1.1035524   -2.5973567    1046.0304  0.095685185  0.096298796            1 
  912000    1.1092757   -2.5947742     1049.352  0.095883773  0.096289119            4 
  913000    1.0841658   -2.5762751    1045.8177  0.095456161    0.0962793            1 
  914000    1.1069079   -2.5758501    1051.4941  0.095869268  0.096268876            1 
  915000    1.1053401   -2.6011403    1055.6882  0.096146466  0.096258335            1 
  916000    1.1224567   -2.6137784    1048.0434  0.095346013  0.096247467            2 
  917000    1.0950976   -2.5796637    1053.5983  0.095746848  0.096236502            3 
  918000    1.1144134   -2.5624087    1053.4314  0.095627399  0.096225279            2 
  919000    1.0859777   -2.5801343     1053.969  0.095572087  0.096212767            1 
  920000    1.1119554   -2.5802508    1058.0373   0.09583671  0.096200624            2 
  921000    1.0642302   -2.5740577    1058.8584  0.095806949  0.096187815            5 
  922000    1.0986522   -2.5764465    1056.5113  0.095490896  0.096176697            2 
  923000    1.0886455   -2.5813708    1056.4619  0.095382983  0.096164198            1 
  924000    1.0915922   -2.5903068    1055.8742  0.095226751  0.096152103            5 
  925000    1.1021862   -2.5712445    1063.1644  0.095780576  0.096139333            2 
  926000    1.0823147   -2.6102002    1059.9431  0.095387251  0.096127603            1 
  927000    1.1025722   -2.5798738    1063.0982  0.095567977  0.096115444            2 
  928000    1.0976613   -2.5705176    1063.7016  0.095519185  0.096104052            1 
  929000    1.1069389   -2.6149074    1060.5825  0.095136574   0.09609244            4 
  930000     1.074429   -2.6052065    1065.8307  0.095504539  0.096080626            1 
  931000    1.0945983   -2.5849831     1063.304  0.095175801   0.09606876            2 
  932000    1.1008131   -2.5711906    1069.0134  0.095584178  0.096057209            1 
  933000    1.1376348   -2.5819437    1069.6196   0.09553587  0.096046047            3 
  934000    1.1060596   -2.5810718    1070.1799  0.095483573  0.096033611            4 
  935000    1.0758064   -2.6075602    1066.8768  0.095087062  0.096021255            2 
  936000    1.1171248   -2.5808842    1067.2567  0.095019291   0.09600855            2 
  937000    1.1124034   -2.6195607    1070.2919  0.095187821  0.095995103            1 
  938000    1.0945532    -2.610616    1072.2981  0.095264576  0.095981748            5 
  939000      1.08854    -2.607588    1073.2665   0.09524907  0.095968818            2 
  940000    1.0938223   -2.6284982    1071.5548  0.094995997    0.0959565            1 
  941000    1.0980375   -2.6107736    1073.2759  0.095047456  0.095943327            1 
  942000    1.0982162    -2.610493    1076.9223  0.095269137  0.095930385            1 
  943000    1.0869877   -2.6033962    1075.1949  0.095015453  0.095917474            1 
  944000    1.1005078   -2.5924602    1079.0944   0.09525904  0.095904361            2 
  945000    1.0888653   -2.6137123    1076.9759   0.09497142  0.095890803            6 
  946000    1.0998342   -2.6054223    1076.9087  0.094865109  0.095877176            2 
  947000    1.1013829   -2.6332567    1083.3392  0.095330795  0.095862916            2 
  948000    1.1069605   -2.5939727    1078.8754  0.094837853  0.095848153            9 
  949000    1.0979557   -2.5851032    1081.0459  0.094928512  0.095835326            1 
  950000    1.1230378   -2.6094756    1078.8942  0.094639846   0.09582185            2 
  951000    1.0928004   -2.5891205    1079.6322  0.094604999   0.09580698            1 
  952000    1.0807601   -2.5868974    1083.5496  0.094848529   0.09579313            3 
  953000    1.1061501    -2.612217    1085.5864  0.094927104  0.095779026            1 
  954000    1.1107734   -2.6066676    1081.3523  0.094457752  0.095765184            1 
  955000    1.0899356   -2.5943214    1087.8378  0.094924766  0.095750618            2 
  956000    1.0866283   -2.6003908    1089.3691  0.094958953  0.095736841            1 
  957000     1.088665   -2.5720817     1087.132  0.094664925  0.095721931            2 
  958000    1.0969289   -2.5904324    1088.1819  0.094657439  0.095707819            1 
  959000    1.0883411   -2.6001378    1088.5036  0.094586688  0.095692944            2 
  960000    1.0945197   -2.5974379    1091.9002  0.094783001  0.095679447            1 
  961000    1.1089478   -2.6068217    1093.5374   0.09482634  0.095665104            2 
  962000    1.1126348   -2.5633918    1090.0163  0.094422755   0.09565105            4 
  963000    1.0840395   -2.5870923    1093.5934  0.094634251  0.095636769            1 
  964000    1.1073755   -2.6310257    1092.4513  0.094437356  0.095622102            2 
  965000    1.0926756   -2.5677383    1098.2545  0.094840629  0.095607783            3 
  966000    1.1024452   -2.6132959    1095.0197  0.094463393  0.095593716            4 
  967000    1.0861399   -2.6082351      1096.25  0.094471732  0.095579152            4 
  968000     1.103169   -2.6007455    1099.5042   0.09465429  0.095564381            2 
  969000    1.1006896   -2.6134991    1097.9323  0.094421426  0.095550493            2 
  970000    1.0812527   -2.5924384    1101.3668  0.094619138  0.095536628            2 
  971000    1.1055661   -2.5902177    1101.3252  0.094518126  0.095523447            4 
  972000    1.1005667   -2.6150595    1106.5241  0.094866603  0.095511148            2 
  973000    1.0969717   -2.6082427    1109.3109  0.095007786  0.095498533            2 
  974000    1.0854185   -2.5943971    1111.9023  0.095131953  0.095486292            3 
  975000    1.0995172   -2.5653214    1104.5964  0.094409946  0.095472851            1 
  976000    1.0718933   -2.6159762    1103.3619  0.094207813  0.095459237            1 
  977000    1.0927934   -2.6082843    1105.2067  0.094268741  0.095445708            1 
  978000     1.095376   -2.5812527    1108.2319  0.094430117  0.095431647            3 
  979000    1.0988029   -2.6123357    1108.9129  0.094391636  0.095418348            2 
  980000    1.0870404    -2.607515    1108.6764  0.094275202  0.095405442            4 
  981000    1.1112663   -2.6010305    1107.0437  0.094040409  0.095391467            1 
  982000    1.0869293   -2.6152746    1114.0685  0.094540777   0.09537741            4 
  983000    1.0781571   -2.5787607    1115.0853  0.094530795  0.095364255            2 
  984000    1.0900878     -2.59078    1110.9981  0.094088593  0.095350058            2 
  985000     1.080186   -2.5773218    1115.3538  0.094361577  0.095336518            1 
  986000    1.0548402   -2.6038977    1115.0729  0.094242134  0.095321432            2 
  987000    1.0783708   -2.5980153     1115.189  0.094156448  0.095306566            2 
  988000    1.0791751   -2.5971106    1114.8226  0.094030242  0.095291535            2 
  989000    1.1136636   -2.5850306    1119.6615  0.094342895  0.095275637            2 
  990000    1.0958349   -2.6022592    1120.7738  0.094341226  0.095260814            2 
  991000    1.1194906   -2.6098261    1122.2531  0.094370428  0.095245501            3 
  992000    1.1069059   -2.6128804    1118.7233   0.09397877  0.095230546            2 
  993000    1.0933184   -2.6335128    1120.0073  0.093991882  0.095215153            1 
  994000    1.0863107   -2.5671035    1124.3831  0.094264177  0.095199653            1 
  995000    1.1065316   -2.6066358    1120.9715  0.093883711  0.095183674            3 
  996000    1.1043855   -2.6086921    1118.6314  0.093593654  0.095166778            3 
  997000    1.0806156   -2.6041767    1124.6283  0.094001025  0.095150548            3 
  998000    1.0738738   -2.6063887     1125.221  0.093956328  0.095133881            3 
  999000     1.088189   -2.6070041    1122.2198  0.093611927  0.095116682            2 
 1000000    1.1029783   -2.6184816    1123.8882  0.093657353  0.095099819            3 
 1001000    1.1071118   -2.5959518    1122.2369  0.093426317  0.095082919            3 
 1002000    1.1006574   -2.6031501    1128.6525  0.093866643  0.095066067            4 
 1003000    1.1035659   -2.6152883    1124.1775  0.093401253  0.095049138            2 
 1004000    1.0854684   -2.5730905    1129.5592   0.09375491  0.095031418            2 
 1005000    1.0938696   -2.6198642    1122.5476  0.093080234  0.095013168            3 
 1006000    1.1138204   -2.6061046    1128.2182  0.093457441  0.094996019            1 
 1007000    1.0831348   -2.6104244    1128.6994   0.09340445  0.094978351            2 
 1008000    1.0886338   -2.6171819    1130.6186  0.093470455  0.094960122            1 
 1009000    1.1194226   -2.6029837    1130.2196   0.09334486  0.094942273            1 
 1010000    1.0797562   -2.6240084    1132.6978  0.093456912  0.094924988            3 
 1011000    1.1114315   -2.5831399    1131.5909  0.093273233  0.094907747            2 
 1012000    1.0787611   -2.6106072    1132.8228  0.093282511  0.094888981            1 
 1013000    1.0901784   -2.6234734    1134.5046  0.093328775  0.094870404            2 
 1014000     1.088133   -2.6064915    1134.8039   0.09326133  0.094852708            1 
 1015000    1.0859707   -2.6089972    1136.2717  0.093289956  0.094834737            2 
 1016000    1.0880264   -2.5919239    1135.6389  0.093146232  0.094816411            1 
 1017000    1.1271584   -2.5967187    1141.4567  0.093531361  0.094799035            1 
 1018000    1.0929504   -2.6224589    1136.3545  0.093021812   0.09478143            2 
 1019000     1.084867    -2.604516    1141.4099  0.093343959  0.094762712            3 
 1020000    1.0775651   -2.6234741    1139.8899  0.093128258  0.094744723            3 
 1021000    1.0962131   -2.6267748     1138.433  0.092918137  0.094727312            2 
 1022000    1.0830532   -2.6358184    1143.2512  0.093220091  0.094709099            2 
 1023000    1.0954732   -2.5895356    1145.2173  0.093289128  0.094691402            1 
 1024000    1.1015184   -2.5999871    1148.5205  0.093466837  0.094674062            2 
 1025000    1.0817147   -2.5965605    1150.6939  0.093552349  0.094656463            2 
 1026000    1.0862214   -2.6008258    1145.1532  0.093011144  0.094639514            3 
 1027000     1.085809   -2.6088895     1145.139  0.092919428  0.094621877            2 
 1028000    1.1051395   -2.6056839    1150.5719  0.093269444  0.094604308            1 
 1029000    1.0915088   -2.6111111    1153.2091  0.093392383  0.094587522            1 
 1030000    1.0667668   -2.6316529    1150.1617  0.093055151  0.094570571            2 
 1031000    1.0910455   -2.6403637    1150.0021  0.092951996  0.094553439            1 
 1032000    1.0735406   -2.5950275    1153.5967  0.093152192  0.094537764            2 
 1033000    1.0812039   -2.6308518    1152.4859  0.092972398  0.094521979            1 
 1034000    1.0808724    -2.600621    1159.3644  0.093436849  0.094505672            1 
 1035000    1.0565145   -2.6246427    1160.3829  0.093428578  0.094488924            3 
 1036000    1.0860649   -2.5855893    1158.0654  0.093151981   0.09447172            1 
 1037000     1.089106   -2.6026759    1159.1895  0.093152487  0.094455379            2 
 1038000    1.0829252   -2.6366883    1156.9149  0.092880131  0.094437976            1 
 1039000    1.0606978   -2.6146391    1157.2131  0.092814652  0.094420731            1 
 1040000    1.0945582   -2.6159534    1159.8575  0.092937299  0.094403648            2 
 1041000    1.0963475   -2.6028785    1163.5979  0.093147445  0.094388146            1 
 1042000    1.0868805    -2.630013    1166.4066  0.093282678  0.094371289            2 
 1043000    1.0623388   -2.6155705    1169.3291  0.093426742  0.094355213            1 
 1044000    1.0681699   -2.6314507     1168.127  0.093241302  0.094338952            2 
 1045000     1.083514   -2.6031172     1166.202  0.092998561  0.094323089            2 
 1046000    1.0840847   -2.5878771    1173.9082    0.0935236  0.094306282            2 
 1047000    1.0753354   -2.6328584    1172.8513  0.093350154  0.094289442            2 
 1048000    1.0800873   -2.6250256    1168.1274  0.092885446  0.094272551            2 
 1049000    1.0623207   -2.5875343    1174.9205  0.093336553  0.094256616            2 
 1050000    1.0931645   -2.6200143    1170.3947  0.092888471  0.094239957            2 
 1051000    1.1022199   -2.6120684    1173.3545  0.093034771  0.094223171            3 
 1052000    1.0693398   -2.6045432    1177.5429  0.093278115   0.09420668            3 
 1053000    1.0860703   -2.6021662    1175.0146  0.092989439  0.094190333            4 
 1054000    1.0843427   -2.6220849    1170.2526  0.092524718  0.094173115            2 
 1055000    1.0996261   -2.6077879    1172.6046  0.092622799  0.094155771            1 
 1056000    1.0725109   -2.6242218    1170.6869  0.092383752  0.094139138            4 
 1057000    1.0807738   -2.6099358    1178.6851  0.092926927  0.094121954            2 
 1058000    1.0757098   -2.6216831    1180.9514  0.093017593  0.094105247            2 
 1059000    1.0920002   -2.5988916    1181.8674  0.093001843  0.094088047            3 
 1060000    1.0648439    -2.631812    1179.6877  0.092742743   0.09407049            1 
 1061000    1.0860352   -2.6091269    1180.2869  0.092702395  0.094052836            2 
 1062000    1.0718015    -2.602041    1179.7566  0.092573495  0.094035506            2 
 1063000    1.0895498   -2.6081506    1176.6722   0.09224461  0.094017489            4 
 1064000    1.0646289   -2.6071493    1181.9786  0.092573513  0.093999395            3 
 1065000    1.0792422    -2.621516    1183.3285  0.092592217  0.093981258            1 
 1066000    1.0805954   -2.6139491    1182.3173  0.092426308  0.093963168            2 
 1067000     1.071711   -2.6119486    1184.3515  0.092498557  0.093944857            1 
 1068000    1.0831529   -2.6150253    1182.6025  0.092275477  0.093926098            2 
 1069000     1.086721   -2.6507208    1185.7252  0.092432585  0.093908513            3 
 1070000    1.0816371   -2.6478826     1190.908  0.092749841  0.093890706            2 
 1071000    1.0887739   -2.6001539    1189.7718   0.09257484  0.093873312            1 
 1072000    1.0697064    -2.628044    1187.5779  0.092317936  0.093856019            2 
 1073000     1.076295   -2.6080995     1193.661  0.092704337   0.09383799            4 
 1074000    1.0889424   -2.5990437     1192.646  0.092539263  0.093820738            1 
 1075000    1.0784109   -2.6271167    1190.1542  0.092260014  0.093803265            2 
 1076000    1.1012808   -2.6248784     1188.146  0.092018745  0.093785188            1 
 1077000    1.0963408   -2.6150634    1193.9864  0.092385204  0.093766879            1 
 1078000    1.0598192   -2.5964222    1192.8317  0.092210245   0.09374916            3 
 1079000    1.0872239   -2.6069258    1195.1272  0.092302068  0.093731059            2 
 1080000    1.0717129   -2.6096393    1192.4528  0.092010249  0.093713362            2 
 1081000    1.0507344   -2.6491944    1195.1904   0.09213617  0.093694813            3 
 1082000    1.0760982     -2.60835    1195.2266  0.092053804  0.093676163            3 
 1083000    1.0891024   -2.6304003    1191.7667  0.091702577   0.09365642            2 
 1084000    1.0827392   -2.6443475    1196.4854  0.091980732  0.093636889            1 
 1085000    1.0850511   -2.6043162    1199.9951  0.092165519  0.093617404            2 
 1086000    1.0823676   -2.6177292    1194.7064  0.091674832  0.093598139            2 
 1087000    1.0593876   -2.6348362    1199.4885  0.091957108   0.09357905            2 
 1088000    1.0565189   -2.6185655     1197.279  0.091703354   0.09355995            2 
 1089000    1.0926683   -2.6154284    1202.9894  0.092056124  0.093541154            1 
 1090000    1.0764734   -2.6090745    1197.4279  0.091546477  0.093522325            2 
 1091000     1.075524    -2.632209    1202.3655  0.091839714  0.093502338            3 
 1092000    1.0824916   -2.6335019    1201.5052  0.091689957  0.093483075            3 
 1093000    1.0592639   -2.6263931    1203.9754  0.091794405  0.093463707            2 
 1094000    1.0539592   -2.5773378    1206.1575  0.091876716  0.093444321            2 
 1095000    1.0872897   -2.6108304    1209.6632  0.092059608  0.093426238            2 
 1096000    1.0851406   -2.6319857    1209.9363   0.09199637  0.093407838            3 
 1097000    1.0742161   -2.6287585    1207.5783  0.091733389  0.093388965            1 
 1098000    1.1057499   -2.6204015     1207.221  0.091622725  0.093370517            2 
 1099000    1.1065535   -2.6205609    1212.5984  0.091947101  0.093352559            1 
 1100000    1.0806011   -2.6358551    1207.2597  0.091459065  0.093334747            1 
 1101000     1.079725   -2.6250179     1216.811  0.092098922  0.093316975            1 
 1102000    1.0579556   -2.6485778    1212.7991  0.091711968  0.093299156            3 
 1103000    1.0840339   -2.6193478    1214.6091  0.091765571  0.093280374            2 
 1104000    1.0547481   -2.6186061    1215.6105  0.091758042  0.093261453            6 
 1105000    1.0591913   -2.6284643    1212.2909  0.091424655   0.09324242            1 
 1106000    1.0795882   -2.6325795    1215.3384  0.091571609  0.093223693            1 
 1107000    1.0792743   -2.6227773     1218.112  0.091697685  0.093204869            2 
 1108000    1.0883018   -2.6047202    1221.5745  0.091875338  0.093186148            1 
 1109000     1.076287   -2.6202849    1222.7995  0.091884544  0.093167265            2 
 1110000    1.0469905   -2.6279409    1215.0518  0.091220104  0.093148053            3 
 1111000    1.0775189   -2.6350283     1213.578  0.091027454    0.0931288            1 
 1112000    1.0666468   -2.6408378    1218.1184   0.09128585  0.093109251            2 
 1113000    1.0726707   -2.6105592    1220.4084  0.091375292  0.093089566            1 
 1114000    1.0822724   -2.6210959    1218.6898  0.091164703  0.093068923            4 
 1115000    1.0777648   -2.6230205    1224.0012   0.09147991  0.093048993            2 
 1116000    1.0764596   -2.6081813    1226.4495  0.091580755  0.093029465            2 
 1117000    1.0515713   -2.6067533    1227.0325  0.091542267  0.093009078            1 
 1118000    1.0777905   -2.6091802    1225.9296  0.091378174  0.092989265            3 
 1119000    1.0533618   -2.6001703     1229.515  0.091563523  0.092969556            3 
 1120000    1.0534135   -2.6241896    1219.8038   0.09075921  0.092949524            2 
 1121000    1.0624807   -2.6097281    1226.7902  0.091197608  0.092928983            2 
 1122000    1.0666353   -2.6456965    1228.7785  0.091263997  0.092908462            1 
 1123000    1.0810876   -2.6197929    1222.9106  0.090747299  0.092888634            3 
 1124000    1.0898377   -2.6139107    1227.3945  0.090998997  0.092868758            1 
 1125000    1.0709945   -2.6308764    1231.1959  0.091199698   0.09284856            2 
 1126000    1.0840436    -2.621219    1227.9298  0.090876985  0.092828889            1 
 1127000    1.0712207   -2.6259034    1226.3394  0.090678746  0.092808451            2 
 1128000     1.061318   -2.6471581    1232.8836  0.091081828  0.092788772            1 
 1129000    1.0591793   -2.6406089    1234.6445   0.09113113  0.092769063            3 
 1130000    1.0760827   -2.6372539    1237.8344  0.091285726  0.092750002            2 
 1131000    1.0780741   -2.6497315    1236.0074  0.091070393  0.092730496            2 
 1132000     1.090254   -2.6101706    1238.5879  0.091179913  0.092711296            1 
 1133000    1.0984675   -2.6230111     1243.614  0.091469107  0.092692994            2 
 1134000    1.0619601   -2.6622833    1239.9596  0.091119901  0.092673698            1 
 1135000    1.0604484    -2.625019    1234.3233   0.09062579  0.092653874            4 
 1136000    1.0578206    -2.616231    1246.8542  0.091465244  0.092634423            3 
 1137000    1.0531346   -2.6180714    1240.2476  0.090900588  0.092615402            1 
 1138000    1.0471992   -2.6289042    1242.4447    0.0909816  0.092595933            1 
 1139000    1.0806241   -2.6409314    1243.1658   0.09095448  0.092576574            3 
 1140000    1.0552296   -2.6450241    1243.9133  0.090929334  0.092556705            2 
 1141000    1.0800133   -2.6409298    1243.0282  0.090784999  0.092536896            1 
 1142000    1.0517055   -2.6171363    1246.9055  0.090988433   0.09251711            3 
 1143000    1.0810983   -2.6650414    1245.7372   0.09082365    0.0924979            1 
 1144000     1.081175      -2.6449    1247.4266  0.090867325  0.092479254            2 
 1145000    1.0675047   -2.6368174    1254.7574  0.091321496  0.092460181            2 
 1146000    1.0806636    -2.659497    1249.9296  0.090890752  0.092440784            2 
 1147000    1.0787882   -2.6437804    1244.3192  0.090403894   0.09242144            3 
 1148000    1.0772327   -2.6619801    1251.3195  0.090833296  0.092402245            1 
 1149000    1.0685049   -2.6357234    1257.0714  0.091171409  0.092382621            2 
 1150000    1.0603332   -2.6077123     1252.415   0.09075471  0.092362953            3 
 1151000    1.0595111   -2.6447431    1251.4047  0.090602718  0.092342914            2 
 1152000     1.080013   -2.6405745    1251.3012  0.090516581  0.092323077            1 
 1153000    1.0639423    -2.599299    1260.5077  0.091103474  0.092304015            1 
 1154000    1.0647916   -2.6287024    1253.2322  0.090499151  0.092284573            4 
 1155000    1.0641801   -2.6106496     1259.127  0.090846107  0.092264864            2 
 1156000    1.0742528   -2.6158713    1254.1786  0.090410799  0.092245525            1 
 1157000    1.0732572   -2.6206422    1257.3612  0.090561883  0.092226206            5 
 1158000    1.0658463   -2.6323226    1256.9412  0.090453451  0.092206773            1 
 1159000    1.0618292   -2.6354218     1256.686  0.090357063  0.092187146            2 
 1160000    1.0594383   -2.6665814    1264.9622  0.090873721  0.092168159            1 
 1161000    1.0626781   -2.6388226    1261.4996  0.090546916  0.092148912            1 
 1162000    1.0583106   -2.6343947    1264.0101  0.090649033  0.092129432            1 
 1163000    1.0358367   -2.6444346     1263.284   0.09051906  0.092109954            1 
 1164000    1.0830739   -2.6163323    1268.8804  0.090841955    0.0920906            3 
 1165000    1.0777134   -2.6461023    1264.7254  0.090466765  0.092071696            3 
 1166000    1.0727976   -2.6302111    1263.9441  0.090333337  0.092053307            1 
 1167000     1.059703   -2.6281277    1271.8966  0.090823807  0.092034169            3 
 1168000     1.073755   -2.6406187    1271.5181  0.090719043  0.092015345            2 
 1169000    1.0667846   -2.6510453    1270.1071  0.090540854  0.091996651            1 
 1170000    1.0554927   -2.6173962    1267.1621  0.090253714  0.091977824            1 
 1171000    1.0726904   -2.6323652    1274.4871  0.090697914  0.091959021            3 
 1172000     1.065628   -2.6535794    1267.8211  0.090146551  0.091939936            2 
 1173000    1.0619904   -2.6694255    1267.5294  0.090048974   0.09192063            4 
 1174000    1.0803978   -2.6299785    1280.0917  0.090863979   0.09190176            1 
 1175000    1.0552849   -2.6201448    1276.3811  0.090523479  0.091882793            1 
 1176000    1.0725486   -2.6337058    1275.7192  0.090399601  0.091864383            6 
 1177000    1.0514766   -2.6148464    1277.8914  0.090476594  0.091845823            2 
 1178000    1.0648613   -2.6277193    1283.6338  0.090806012   0.09182794            1 
 1179000    1.0596746    -2.641456     1275.973  0.090187521   0.09180892            1 
 1180000    1.0457121   -2.6367014    1276.9886  0.090182814  0.091789545            2 
 1181000     1.053484   -2.6444283    1276.8825   0.09009896  0.091770776            1 
 1182000    1.0845281   -2.6229615     1281.799  0.090369357  0.091752539            2 
 1183000    1.0378899   -2.6173251    1288.2279  0.090745837  0.091733527            3 
 1184000    1.0609354   -2.6114089    1281.2412  0.090177453  0.091715044            2 
 1185000    1.0555064   -2.6396016     1281.761  0.090137901  0.091696331            1 
 1186000    1.0871702   -2.6268882    1285.1584  0.090300619   0.09167694            2 
 1187000    1.0622103   -2.6490376    1286.4781  0.090317193  0.091658507            2 
 1188000    1.0655472   -2.6474418    1285.4231  0.090167163  0.091639021            3 
 1189000    1.0736268   -2.6273961    1286.0016  0.090131876  0.091619911            4 
 1190000    1.0599612   -2.6408263     1290.995  0.090405809  0.091600924            3 
 1191000     1.064436   -2.6416241    1290.1945  0.090273894  0.091582129            2 
 1192000     1.065233   -2.6435925    1287.0522   0.08997848  0.091562996            1 
 1193000    1.0867446    -2.620758    1296.2123  0.090542907  0.091544924            3 
 1194000    1.0435725   -2.6535565    1290.3556  0.090058321  0.091527183            2 
 1195000    1.0585395   -2.6159068    1293.0154   0.09016844  0.091509546            2 
 1196000     1.044723   -2.6466335    1296.0965  0.090307727  0.091491422            2 
 1197000    1.0796139   -2.6344686    1297.1274   0.09030405   0.09147366            2 
 1198000    1.0601749   -2.6516577    1295.8599  0.090140503  0.091455325            3 
 1199000    1.0509892   -2.6618649    1293.0828  0.089872313  0.091437282            2 
 1200000    1.0708205   -2.6400099    1300.2464  0.090294885  0.091418774            2 
 1201000     1.050878   -2.6530944    1300.1902  0.090215805  0.091401408            3 
 1202000    1.0515159   -2.6474353    1302.5734  0.090305976  0.091384239            3 
 1203000    1.0439528   -2.6233042    1298.1682  0.089925755  0.091366444            1 
 1204000    1.0592636   -2.6606716    1299.8481  0.089967336  0.091348927            2 
 1205000    1.0565197   -2.6237465    1300.5395  0.089940489  0.091331766            2 
 1206000    1.0628345   -2.6445606    1306.1112  0.090250913  0.091314213            3 
 1207000    1.0665719   -2.6373466    1307.9616  0.090303891  0.091297219            3 
 1208000    1.0864026   -2.6568775    1308.8386  0.090289641  0.091280258            1 
 1209000    1.0523004   -2.6551174    1308.8858  0.090218211   0.09126366            2 
 1210000    1.0523748   -2.6202475     1314.846   0.09055413  0.091246689            2 
 1211000    1.0402931   -2.6453787    1308.7813  0.090062024  0.091229607            1 
 1212000    1.0593285   -2.6600856    1314.2804  0.090365811  0.091212556            1 
 1213000    1.0251597    -2.639033    1316.6436  0.090453666   0.09119563            1 
 1214000    1.0783929   -2.6558604    1308.9799  0.089853097   0.09117819            3 
 1215000    1.0524918   -2.6274161    1312.5381  0.090023192  0.091161171            1 
 1216000    1.0515574   -2.6409913    1318.0918  0.090329754  0.091143381            2 
 1217000    1.0391861   -2.6418286    1309.8585  0.089691759  0.091125739            6 
 1218000    1.0756893   -2.6280198    1309.5138  0.089594541  0.091107774            2 
 1219000    1.0763974   -2.6438512    1316.5279  0.090000539  0.091089849            4 
 1220000    1.0438646   -2.6596026    1316.7995  0.089945318  0.091072108            6 
 1221000    1.0684749   -2.6451965    1316.2086  0.089831327  0.091053961            2 
 1222000    1.0613055   -2.6374675    1315.3666  0.089700393  0.091035862            1 
 1223000    1.0689325    -2.682387     1318.732  0.089856367  0.091017803            1 
 1224000    1.0742231   -2.6574611    1319.0395  0.089803885  0.090999661            7 
 1225000    1.0443858   -2.6554449    1319.1677  0.089739297  0.090981073            1 
 1226000    1.0462595   -2.6359872    1320.5656  0.089761117  0.090963561            4 
 1227000    1.0531842   -2.6283997    1319.0911  0.089587822  0.090945576            1 
 1228000    1.0494595   -2.6407412    1319.7318  0.089558348   0.09092697            1 
 1229000    1.0350932   -2.6469005    1323.6363  0.089750225   0.09090873            3 
 1230000    1.0363529   -2.6259808    1327.8236  0.089960949  0.090890909            1 
 1231000    1.0742409   -2.6410172    1326.2007  0.089778008  0.090872831            2 
 1232000     1.066033   -2.6358422    1331.1062  0.090036942  0.090855171            1 
 1233000    1.0231382   -2.6647923    1326.2029  0.089632528  0.090837126            1 
 1234000    1.0611843   -2.6434867    1325.2454  0.089495235  0.090819231            3 
 1235000    1.0510047   -2.6407959    1323.8232  0.089326801  0.090801191            1 
 1236000     1.053872    -2.630748    1327.7838  0.089521562  0.090783619            2 
 1237000     1.063708   -2.6417519    1329.8595  0.089589025  0.090765096            1 
 1238000    1.0572171   -2.6668909    1327.0697  0.089328874  0.090746745            2 
 1239000    1.0617004   -2.6622148    1327.8227  0.089307421  0.090727812            3 
 1240000    1.0552337   -2.6283415    1330.3398  0.089404554  0.090709212            2 
 1241000     1.066568   -2.6380525    1325.9582  0.089038289   0.09069027            3 
 1242000     1.046655   -2.6583315    1325.9336  0.088964949  0.090671404            2 
 1243000    1.0727392   -2.6541439    1333.8839  0.089426381  0.090653334            4 
 1244000     1.053858   -2.6704703    1333.7091  0.089342783  0.090634911            2 
 1245000    1.0391224   -2.6634749    1332.9814  0.089222316   0.09061649            2 
 1246000    1.0333013   -2.6151559    1334.3478  0.089242096  0.090598026            1 
 1247000    1.0427754   -2.6241055    1339.8164  0.089535978  0.090579641            3 
 1248000    1.0316613   -2.6653051     1335.561  0.089180091  0.090561331            3 
 1249000    1.0640689   -2.6598915    1332.0989  0.088877696  0.090542527            4 
 1250000    1.0392438   -2.6353624    1339.0602  0.089270682  0.090524152            4 
 1251000    1.0277689   -2.6381126    1335.6707  0.088973536  0.090504916            2 
 1252000    1.0316795   -2.6378044    1339.3469  0.089147156  0.090486001            1 
 1253000     1.059268   -2.6294853    1337.7515  0.088969904  0.090466569            2 
 1254000    1.0476463   -2.6523774    1341.8668  0.089172438   0.09044695            2 
 1255000    1.0436898   -2.6396248    1343.3834  0.089202085  0.090427851            3 
 1256000    1.0564325   -2.6442163    1345.9734  0.089302908  0.090408951            1 
 1257000    1.0694676   -2.6553741     1337.359  0.088660766  0.090389547            1 
 1258000    1.0325773   -2.6455221    1344.1267    0.0890386  0.090370378            3 
 1259000    1.0630477   -2.6634139    1341.9948  0.088826767  0.090351029            3 
 1260000    1.0473152   -2.6669318     1340.215  0.088638559  0.090331194            1 
 1261000    1.0590392   -2.6588221    1344.3909  0.088844228  0.090311718            3 
 1262000    1.0560407   -2.6293974    1341.8526  0.088606219  0.090291201            2 
 1263000    1.0609733    -2.628017    1346.3374  0.088831972  0.090270935            3 
 1264000    1.0219176   -2.6447998    1337.7906  0.088198221  0.090251388            2 
 1265000    1.0551397   -2.6619949    1352.6274  0.089105889  0.090231503            3 
 1266000     1.056873   -2.6854632    1343.3966  0.088427899  0.090211555            1 
 1267000    1.0511769   -2.6328506    1350.5002  0.088825324  0.090191733            2 
 1268000    1.0553154   -2.6277887    1357.1878  0.089194781  0.090172409            2 
 1269000     1.029061   -2.6631285     1350.001  0.088652545  0.090153044            3 
 1270000    1.0583456   -2.6719594     1349.028  0.088518896  0.090133731            3 
 1271000    1.0513138   -2.6438685    1350.6124  0.088553135  0.090114173            1 
 1272000    1.0284077   -2.6623697    1351.1735  0.088520277  0.090094925            2 
 1273000    1.0430459   -2.6433266    1356.3861   0.08879197  0.090076394            4 
 1274000    1.0148877   -2.6472635    1351.7368  0.088418156    0.0900569            2 
 1275000    1.0473402   -2.6587993     1361.669  0.088997972   0.09003755            2 
 1276000    1.0361838   -2.6598789    1357.1643  0.088634033   0.09001852            2 
 1277000    1.0419813   -2.6669932    1356.9256  0.088549049  0.089999494            2 
 1278000    1.0642767   -2.6444293    1357.6471  0.088526805  0.089980596            3 
 1279000    1.0245165   -2.6670267    1361.1008  0.088682613  0.089960802            1 
 1280000    1.0418218   -2.6217521    1361.8598  0.088662745  0.089941372            3 
 1281000    1.0620393   -2.6517958    1357.4543   0.08830694  0.089921685            3 
 1282000    1.0447943   -2.6383598    1360.6991  0.088448977  0.089901622            1 
 1283000    1.0433354   -2.6615519    1356.4857  0.088106371  0.089882075            4 
 1284000    1.0076803   -2.6631112    1356.4257   0.08803386   0.08986159            2 
 1285000    1.0313461   -2.6564574    1361.3283  0.088283286  0.089841721            2 
 1286000    1.0414377   -2.6777806    1364.8453  0.088442544  0.089821805            1 
 1287000    1.0341378   -2.6487092    1362.1745  0.088200888  0.089802058            2 
 1288000    1.0665475   -2.6477543    1367.9813  0.088508107  0.089782471            1 
 1289000    1.0502629   -2.6799183    1366.2722  0.088328948  0.089763313            3 
 1290000    1.0287936   -2.6701325    1364.8771  0.088170354  0.089744311            3 
 1291000    1.0495408   -2.6515999    1371.0181  0.088498457  0.089725307            2 
 1292000    1.0318588   -2.6529621    1369.3703  0.088323678  0.089706465            3 
 1293000    1.0348232   -2.6583698    1374.4958  0.088585705  0.089687547            3 
 1294000    1.0546107   -2.6536207    1374.1041  0.088492023  0.089668629            2 
 1295000    1.0339721   -2.6726404    1368.5495  0.088066246  0.089649918            1 
 1296000    1.0399108   -2.6616491      1373.85  0.088339123  0.089630963            2 
 1297000    1.0414596   -2.6637608    1379.5034  0.088634248  0.089612579            2 
 1298000    1.0319323   -2.6652027    1383.0754  0.088795286  0.089593939            1 
 1299000    1.0410235   -2.6503597    1376.8923  0.088330271  0.089575061            2 
 1300000    1.0274143    -2.676186    1375.1096  0.088148051  0.089556306            2 
 1301000    1.0214304   -2.6644961    1376.2251  0.088151748  0.089537433            3 
 1302000    1.0582487   -2.6796463    1378.8292  0.088250714  0.089518481            1 
 1303000     1.048206   -2.6447223     1374.197  0.087886736  0.089500023            1 
 1304000    1.0310771   -2.6756805    1378.4134  0.088088793  0.089481545            2 
 1305000    1.0406534   -2.6682703    1384.9497   0.08843868  0.089462278            1 
 1306000     1.022761   -2.6465156    1380.4332  0.088082774  0.089443177            5 
 1307000    1.0469496   -2.6419783    1382.1011   0.08812172  0.089424104            2 
 1308000    1.0247355   -2.6536401    1381.9403  0.088044105  0.089405323            3 
 1309000     1.019899   -2.6783257    1384.6516  0.088149454  0.089386152            2 
 1310000    1.0595346   -2.6736241    1384.2705  0.088057918  0.089366935            3 
 1311000     1.030481   -2.6270889    1388.3599  0.088250693  0.089347331            2 
 1312000    1.0657711   -2.6582708    1381.9015  0.087773215  0.089328583            1 
 1313000    1.0407694   -2.6596493    1384.4213  0.087866293  0.089309526            3 
 1314000    1.0243153   -2.6432722    1391.1515  0.088226251  0.089290751            3 
 1315000    1.0477341   -2.6607797    1386.7769  0.087881931  0.089271624            2 
 1316000     1.056411   -2.6445812    1387.5687  0.087865294  0.089253006            1 
 1317000    1.0491101   -2.6388893    1391.8647  0.088070408   0.08923433            2 
 1318000    1.0329404   -2.6525459    1391.0348   0.08795111  0.089215335            4 
 1319000    1.0533789   -2.6297825    1396.7001   0.08824236  0.089196599            4 
 1320000    1.0163897   -2.6797401    1392.5017  0.087910458  0.089177333            1 
 1321000    1.0339865   -2.6923386    1387.2289  0.087511284  0.089157479            2 
 1322000    1.0390955   -2.6687478    1390.5801  0.087656334  0.089138436            1 
 1323000    1.0398924   -2.6373058    1395.2449  0.087883905  0.089119778            3 
 1324000    1.0385147   -2.6362882     1392.751  0.087660561  0.089100463            3 
 1325000    1.0409626   -2.6629505    1396.2195  0.087812547  0.089081302            2 
 1326000    1.0499726   -2.6864772    1391.9332  0.087476946  0.089062031            1 
 1327000    1.0321462     -2.65456    1393.0148  0.087478949  0.089043011            7 
 1328000    1.0288078   -2.6479642    1398.5969   0.08776336  0.089023205            1 
 1329000    1.0257011   -2.6829371    1402.8665  0.087965043  0.089004127            2 
 1330000    1.0258521   -2.6650232    1397.5824  0.087567819  0.088985208            3 
 1331000    1.0490431   -2.6650085    1399.0475  0.087593759  0.088965963            1 
 1332000    1.0362849   -2.6671289    1400.3693  0.087610689   0.08894715            1 
 1333000    1.0316026   -2.6532393    1406.7151  0.087941678  0.088928066            1 
 1334000    1.0466872   -2.6903043    1410.4084  0.088106475  0.088909718            5 
 1335000    1.0416538   -2.6570185    1401.1922  0.087465183  0.088891597            1 
 1336000    1.0358027   -2.6611228    1400.0029  0.087325528  0.088873497            3 
 1337000    1.0448398   -2.6578437    1402.7755  0.087433028  0.088854949            3 
 1338000    1.0251971   -2.6582382    1409.0111  0.087756048  0.088836451            1 
 1339000    1.0270362    -2.687809    1412.2331  0.087891029  0.088818071            1 
 1340000    1.0514609   -2.6760883    1408.6564  0.087603013  0.088799628            3 
 1341000    1.0647431   -2.6653105     1411.111  0.087690217  0.088781099            2 
 1342000    1.0474144   -2.6820816    1410.3306  0.087576414  0.088763128            2 
 1343000    1.0147705   -2.6622916    1414.5047  0.087770211  0.088744598            6 
 1344000    1.0466826   -2.6743853    1413.9345  0.087669552  0.088726036            3 
 1345000    1.0267088   -2.6822846    1415.8002  0.087719965  0.088707969            5 
 1346000    1.0290144   -2.6636364    1410.2557  0.087311522   0.08868942            3 
 1347000    1.0373706     -2.65406    1411.0671    0.0872969  0.088670433            1 
 1348000    1.0256859   -2.6663774    1409.4944  0.087134919  0.088651415            4 
 1349000    1.0362339   -2.6527496    1419.6218  0.087695936  0.088632315            2 
 1350000    1.0345547   -2.6880959    1416.8985  0.087462868  0.088613488            2 
 1351000    1.0288503   -2.6523045    1412.1492  0.087105183  0.088595049            3 
 1352000    1.0495587   -2.6818599    1415.6638  0.087257382  0.088576517            3 
 1353000    1.0368571   -2.6386009    1421.0248  0.087523082  0.088558553            2 
 1354000    1.0414444   -2.6754216    1417.1791  0.087221758  0.088540259            2 
 1355000    1.0282451   -2.6589377    1422.3281  0.087474053   0.08852206            3 
 1356000     1.035337   -2.6559148    1421.4688  0.087356734  0.088503964            3 
 1357000    1.0417757   -2.6725943    1427.3951  0.087656293  0.088486047            2 
 1358000    1.0437294   -2.6854267     1421.389  0.087223186  0.088468002            1 
 1359000    1.0273139   -2.6818447    1428.0875  0.087569754   0.08844986            2 
 1360000    1.0456034   -2.6607718    1427.0344  0.087440832  0.088431501            2 
 1361000    1.0533593   -2.6623298    1426.8582  0.087365795  0.088413391            2 
 1362000    1.0186568    -2.662534    1429.3102  0.087451675   0.08839503            2 
 1363000    1.0494196   -2.6799543    1424.0726  0.087067293  0.088376662            2 
 1364000    1.0453044    -2.659095    1424.9441  0.087056699   0.08835821            2 
 1365000     1.032884   -2.6561859    1433.8576  0.087537094  0.088339915            1 
 1366000     1.036324   -2.6846055    1427.1476  0.087063667  0.088321867            3 
 1367000    1.0216961   -2.6614809    1432.6948  0.087338136  0.088303841            1 
 1368000    1.0252981   -2.7179791    1433.5061  0.087323713  0.088285238            2 
 1369000   0.99522105   -2.7028874    1426.2638  0.086819078  0.088267013            1 
 1370000    1.0433344   -2.6827186    1434.9725  0.087285434  0.088248989            3 
 1371000    1.0110415   -2.6720326     1439.698  0.087508996  0.088230724            2 
 1372000    1.0503258    -2.671234    1435.9353   0.08721667  0.088212973            3 
 1373000    1.0061595   -2.6752568    1435.8146  0.087145825  0.088195097            2 
 1374000    1.0183803   -2.6507788    1439.2592  0.087291314  0.088177093            1 
 1375000    1.0294873   -2.6756673    1435.6008  0.087006107  0.088158838            4 
 1376000    1.0262671    -2.669862     1440.732  0.087253634  0.088140878            2 
 1377000    1.0168911   -2.6646867    1439.1969  0.087097368  0.088123153            2 
 1378000    1.0243406   -2.6654448    1440.0285  0.087084452  0.088105089            1 
 1379000    1.0073769    -2.662618    1446.9861  0.087441752  0.088087673            2 
 1380000    1.0328354   -2.6666548     1436.476  0.086743723  0.088070326            2 
 1381000    1.0258881   -2.6779483    1436.5345  0.086684435  0.088052289            4 
 1382000    1.0444158   -2.6722947    1443.4899  0.087041118  0.088033755            1 
 1383000    1.0226488   -2.6667425    1444.2063   0.08702135  0.088015396            3 
 1384000    1.0261463   -2.6710151    1440.6348  0.086743423  0.087997292            3 
 1385000    1.0198407   -2.6560969    1443.0084  0.086823612  0.087978747            1 
 1386000    1.0078533   -2.6773573    1449.1784  0.087131936  0.087960577            3 
 1387000    1.0162746   -2.6836837     1448.363   0.08702013  0.087942665            2 
 1388000    1.0156649   -2.6749427    1451.2463  0.087130541  0.087924498            1 
 1389000    1.0467611    -2.671577    1446.4366  0.086779252  0.087906147            2 
 1390000    1.0366405   -2.6883119     1448.952  0.086867629  0.087888098            2 
 1391000    1.0229334   -2.6593391    1450.7623  0.086913629  0.087870273            2 
 1392000    1.0354885   -2.6825973    1446.8575  0.086617426  0.087852115            4 
 1393000    1.0361051   -2.6872367    1447.6158  0.086600607  0.087833913            5 
 1394000    1.0343534   -2.6851417    1456.0084  0.087040197  0.087815353            2 
 1395000    1.0333807   -2.6740646    1454.7582  0.086903117  0.087796812            1 
 1396000    1.0288465   -2.6771834    1450.7772  0.086603223  0.087778246            2 
 1397000    1.0111159   -2.6688017    1453.5857  0.086708763  0.087759406            1 
 1398000    1.0183888   -2.6642078    1449.4331  0.086399209   0.08774068            4 
 1399000    1.0190418   -2.6903493    1447.4248  0.086217823  0.087721822            2 
 1400000    1.0225635   -2.6850141    1448.8456  0.086240808  0.087702889            3 
 1401000    1.0130166   -2.6637233    1452.8686  0.086418546  0.087684292            1 
 1402000    1.0213104   -2.6915311    1458.9427  0.086717947  0.087665451            1 
 1403000    1.0184784   -2.6511237     1459.754  0.086704322  0.087646012            2 
 1404000    1.0193969   -2.6809688    1457.4692  0.086506959  0.087627373            2 
 1405000    1.0346461    -2.685212    1457.8263  0.086466568  0.087608084            1 
 1406000    1.0315702    -2.680373     1462.669  0.086692093  0.087588778            2 
 1407000    1.0171841   -2.6742396    1454.5042  0.086146895  0.087569801            2 
 1408000    1.0289488   -2.6768965    1467.7681  0.086870742  0.087551434            3 
 1409000    1.0280673   -2.6566705     1455.379  0.086076354  0.087532849            2 
 1410000   0.99992715   -2.7019973    1460.0759  0.086292903   0.08751416            1 
 1411000    1.0263285   -2.6937796    1461.3365  0.086306198  0.087495225            3 
 1412000    1.0277476   -2.6794903    1461.1813  0.086235911  0.087476324            2 
 1413000    1.0232169   -2.6453447    1468.4615   0.08660424  0.087457729            3 
 1414000    1.0093449    -2.688177    1466.0851   0.08640294  0.087439325            3 
 1415000    1.0383002   -2.6660787    1461.5001  0.086071855  0.087420948            2 
 1416000     1.029043   -2.6929612    1464.8134  0.086206061  0.087402793            1 
 1417000     1.019882   -2.6817405    1467.9798  0.086331442  0.087384118            2 
 1418000    1.0324459   -2.6849671     1466.868  0.086205218  0.087365843            1 
 1419000    1.0273714   -2.7065055    1471.6676  0.086426332  0.087346662            2 
 1420000    1.0252755   -2.6749539    1471.7359  0.086369478  0.087327911            1 
 1421000    1.0249972   -2.6912011    1468.3895   0.08611245  0.087309053            1 
 1422000    1.0294837   -2.6839015     1473.506  0.086351733  0.087290471            3 
 1423000    1.0248979    -2.696554    1469.9482  0.086082703  0.087271486            4 
 1424000    1.0410929   -2.6718834    1468.0231  0.085909592  0.087252553            1 
 1425000    1.0368122   -2.6725943    1468.1441   0.08585638  0.087233491            3 
 1426000    1.0394697   -2.6575174     1473.243  0.086094147  0.087215839            1 
 1427000    1.0277831   -2.6909844    1476.2185  0.086207577  0.087197061            2 
 1428000    1.0082538   -2.6793758    1473.7419   0.08600268  0.087178797            2 
 1429000    1.0288561   -2.6590727    1479.2803  0.086265474  0.087161026            3 
 1430000    1.0117906   -2.6929475    1475.3991  0.085978968  0.087143356            3 
 1431000    1.0173521   -2.6603468    1477.3342  0.086031576  0.087125361            3 
 1432000    1.0264498   -2.6868436    1477.0835  0.085956905  0.087107439            3 
 1433000    1.0208006   -2.7178548    1479.5049  0.086037738  0.087088948            2 
 1434000    1.0608752   -2.6296864    1489.4539  0.086555899  0.087070898            2 
 1435000    1.0073637   -2.6753748     1482.688  0.086102669  0.087052939            2 
 1436000    1.0294215   -2.6774055    1481.4952  0.085973489  0.087035106            1 
 1437000    1.0419739   -2.6818625    1486.1327  0.086182598   0.08701752            1 
 1438000    1.0437084   -2.6930355    1486.5769  0.086148406  0.086999492            3 
 1439000   0.99698178   -2.7212908    1487.0042  0.086113284  0.086981643            2 
 1440000    1.0372169   -2.6865437    1485.9565   0.08599285  0.086963521            2 
 1441000    1.0152034   -2.6719006    1493.0487  0.086343318  0.086946009            3 
 1442000    1.0099993   -2.6770942    1489.0386  0.086051698  0.086928568            3 
 1443000    1.0252394   -2.6883693    1486.2688  0.085832108   0.08691094            2 
 1444000    1.0384224   -2.6776171    1486.0023  0.085757286  0.086892449            2 
 1445000    1.0238143   -2.6857732    1494.6088   0.08619428  0.086874609            2 
 1446000   0.99695723   -2.6695593    1488.4195  0.085777981  0.086856809            3 
 1447000    0.9976374   -2.6982256    1488.4902  0.085722773  0.086838543            1 
 1448000    1.0044747   -2.6833943    1497.9044  0.086205363  0.086820814            3 
 1449000    1.0186604   -2.6770998    1488.3762  0.085597897  0.086802846            3 
 1450000     1.012506   -2.6807764    1494.1354   0.08586985  0.086785009            4 
 1451000    1.0193579   -2.7116355    1494.7071  0.085843507  0.086766974            3 
 1452000    1.0300783   -2.7016287    1491.6002   0.08560607  0.086749482            1 
 1453000    1.0004845   -2.6808212    1498.2547  0.085928806  0.086731573            3 
 1454000    1.0221332   -2.6721302    1501.2647   0.08604222  0.086713743            4 
 1455000   0.99938321   -2.6760976    1501.7093  0.086008549  0.086696243            1 
 1456000    1.0256105   -2.7093725    1495.9135  0.085617763   0.08667895            3 
 1457000   0.99057949   -2.6725372    1502.1839  0.085917632   0.08666058            2 
 1458000    1.0147798   -2.6709551    1499.6025  0.085711162  0.086642381            1 
 1459000    1.0148552   -2.7027388    1509.4641  0.086215678   0.08662447            1 
 1460000     1.006031   -2.6662412    1501.2288  0.085686577  0.086606724            2 
 1461000    1.0035856   -2.6729548    1508.8843  0.086064587  0.086589108            1 
 1462000    1.0263017    -2.703364    1494.6728  0.085195669  0.086571125            1 
 1463000    0.9998339    -2.701859    1498.4957   0.08535519  0.086553471            2 
 1464000    1.0277748   -2.6762953    1503.5377  0.085583884  0.086535524            1 
 1465000    1.0165161   -2.7005753    1508.0812  0.085783912  0.086518191            2 
 1466000    1.0008832   -2.6737851    1505.0705   0.08555426  0.086500468            5 
 1467000    1.0288809   -2.6991806    1508.7363  0.085704173  0.086482713            2 
 1468000    1.0131659   -2.6955235    1503.0019  0.085320272  0.086464666            2 
 1469000    1.0076843   -2.7128564     1506.263  0.085447183  0.086446748            2 
 1470000    1.0204326   -2.6799838    1507.4395  0.085455751  0.086428804            2 
 1471000    1.0035084   -2.7047004    1505.8117  0.085305445  0.086411315            2 
 1472000    1.0193305   -2.6854585    1504.7875   0.08518951  0.086393696            5 
 1473000    1.0261098    -2.692794    1508.8149  0.085359523  0.086375937            3 
 1474000    1.0419048   -2.6879722     1512.151   0.08549022  0.086357838            2 
 1475000    1.0250331   -2.6908124    1511.7009   0.08540683  0.086339945            3 
 1476000   0.99353333   -2.6966036    1507.7082  0.085123545  0.086321555            4 
 1477000    1.0184662     -2.69343    1505.6407   0.08494926   0.08630315            1 
 1478000    1.0029692   -2.6745108    1513.8882  0.085356799  0.086284591            2 
 1479000   0.99490622   -2.6961037    1510.8543  0.085128143  0.086266214            2 
 1480000     1.019329   -2.6834017    1511.0245  0.085080209  0.086247525            3 
 1481000    1.0051273   -2.7065836    1513.7632  0.085176862  0.086229293            1 
 1482000    1.0014394   -2.6890651      1517.71  0.085341321  0.086211585            2 
 1483000    1.0187567   -2.7039904    1517.7296  0.085284872  0.086193357            1 
 1484000   0.98298307   -2.6997942    1518.1114  0.085248843  0.086175285            1 
 1485000    1.0007096   -2.7041626    1519.4815  0.085268323  0.086157052            3 
 1486000    0.9843264   -2.6776627    1519.0999   0.08518954  0.086139273            2 
 1487000    1.0153805   -2.6645634    1521.1782  0.085248723  0.086121175            1 
 1488000    1.0211697   -2.6830275    1520.0528  0.085128406  0.086103841            3 
 1489000    1.0387269   -2.7200914    1523.7159  0.085276241  0.086085807            2 
 1490000    1.0177823   -2.6966643    1519.6804  0.084993312  0.086067956            2 
 1491000     1.008482   -2.6983033    1525.4612  0.085259402  0.086050229            2 
 1492000    1.0168683   -2.7068463    1527.1649  0.085297414  0.086032272            5 
 1493000    1.0149576   -2.6908844    1526.7526  0.085217271  0.086014615            2 
 1494000   0.98887299   -2.6678505    1527.9706  0.085228169  0.085997012            2 
 1495000    1.0083014   -2.6971914     1524.301  0.084966612  0.085979208            3 
 1496000   0.99304421   -2.7088956    1526.6742  0.085042012  0.085961437            2 
 1497000    1.0047359    -2.696862    1525.2655  0.084906785  0.085943763            2 
 1498000    1.0090535   -2.6878994    1528.6884   0.08504052  0.085926239            1 
 1499000    1.0135773   -2.7017675    1531.0746  0.085116445  0.085908401            2 
 1500000    1.0169862   -2.7146032    1535.9857  0.085332541   0.08589048            3 
 1501000    1.0129176   -2.7032179    1526.1387  0.084728996  0.085872787            3 
 1502000    1.0229398   -2.7220276     1530.127  0.084893865  0.085855115            3 
 1503000    1.0103275   -2.6932904    1535.1599  0.085116431  0.085837595            2 
 1504000   0.98572441   -2.6971604    1532.4146  0.084907722  0.085819656            3 
 1505000    1.0118333   -2.7001672    1533.7058  0.084922799  0.085801768            3 
 1506000    1.0294203   -2.6897896     1534.074  0.084886789  0.085783858            1 
 1507000   0.99270375    -2.702817    1536.2789  0.084952381  0.085765796            3 
 1508000    1.0148158   -2.7002611    1537.3189   0.08495352  0.085748305            2 
 1509000    1.0075813   -2.7033337    1536.4083  0.084846932   0.08573048            2 
 1510000    1.0129096   -2.6837657    1538.5707  0.084910084  0.085713469            2 
 1511000   0.99288766   -2.7052762    1534.4486  0.084626548  0.085695436            4 
 1512000   0.99192486   -2.7093955     1536.212  0.084667769  0.085677557            2 
 1513000   0.99045223   -2.6760813    1534.8443  0.084536478  0.085659462            6 
 1514000    1.0221935   -2.6865192    1542.3974  0.084896377  0.085641087            1 
 1515000    1.0052531   -2.6832902    1536.9309  0.084539654  0.085622756            2 
 1516000    1.0065211   -2.6959877    1541.5305  0.084736725  0.085604962            1 
 1517000     1.013975   -2.7016304    1548.6447  0.085071671  0.085587307            2 
 1518000    1.0348375   -2.6587456    1549.8561   0.08508213  0.085569688            3 
 1519000   0.99167832   -2.7065094    1541.4109  0.084562812  0.085552119            2 
 1520000    1.0201551   -2.7199666    1542.0158  0.084540342  0.085534101            1 
 1521000    1.0076884   -2.7035019    1543.5623  0.084569487  0.085516125            3 
 1522000    1.0290397   -2.6910743    1542.3291  0.084446404   0.08549838            6 
 1523000    1.0006863   -2.7273824    1538.8455  0.084200343   0.08547986            1 
 1524000    1.0149976   -2.6985203    1552.6255  0.084898597  0.085461196            2 
 1525000    1.0140569   -2.7107813    1545.7679   0.08446819  0.085443362            2 
 1526000    1.0302401   -2.7128274    1550.7081  0.084682618   0.08542513            3 
 1527000    1.0219144   -2.6978789    1541.0622  0.084100754  0.085406463            3 
 1528000   0.99763447   -2.7063862    1542.7988  0.084140425  0.085387819            3 
 1529000    1.0204101   -2.6882591    1547.7794  0.084356848   0.08536875            1 
 1530000    1.0223562   -2.7179721     1547.125  0.084266067   0.08535014            2 
 1531000   0.99925304   -2.6750072    1543.9827  0.084039989  0.085331231            2 
 1532000    1.0115429   -2.7170682    1548.5624  0.084234245  0.085312505            3 
 1533000    1.0290695   -2.7104125    1553.1856  0.084430617  0.085293724            3 
 1534000    1.0156777   -2.7252674    1550.3354  0.084220739  0.085275371            2 
 1535000    1.0071823   -2.7225065    1552.6173  0.084289755  0.085257051            1 
 1536000    1.0020192   -2.6868656    1556.3146   0.08443547  0.085238252            4 
 1537000    1.0311702   -2.6885201    1547.6129  0.083908746  0.085219888            2 
 1538000   0.99982967   -2.6990575    1555.7672  0.084296013   0.08520123            3 
 1539000    1.0200704   -2.6896763    1555.8665  0.084246615  0.085182675            3 
 1540000    0.9784148   -2.7047166    1552.1825  0.083992559  0.085164275            2 
 1541000    1.0211891   -2.6754248    1558.8021  0.084296025  0.085145696            2 
 1542000    0.9899272   -2.7092735    1550.4156  0.083788134  0.085126548            3 
 1543000   0.98071967   -2.6990721    1557.4571  0.084114123  0.085107718            1 
 1544000    1.0106865   -2.7027331    1554.9331   0.08392342  0.085088503            2 
 1545000   0.99605636   -2.6927995     1555.302  0.083888999  0.085069003            4 
 1546000    1.0199988   -2.7018056    1556.4436   0.08389627  0.085050187            3 
 1547000    1.0071671   -2.6908327    1556.3883  0.083839057  0.085031242            3 
 1548000    1.0207874   -2.7132863    1560.8097  0.084022917  0.085012525            3 
 1549000   0.98076666   -2.7136317    1556.6869  0.083746872  0.084993559            3 
 1550000    1.0117243   -2.7187926     1554.376  0.083568604  0.084974904            2 
 1551000   0.98762789   -2.6909513    1565.9663  0.084137452  0.084956763            4 
 1552000    1.0184624   -2.7108095    1568.2903  0.084208028  0.084938763            3 
 1553000    1.0061315   -2.6889049    1564.7183  0.083962133   0.08492023            3 
 1554000   0.99367955   -2.6980126    1566.5337  0.084005454  0.084901903            3 
 1555000   0.99289631   -2.6901915    1567.5392  0.084005314  0.084883316            2 
 1556000    1.0039246   -2.6999623    1568.8478  0.084021413  0.084865487            2 
 1557000    1.0009777   -2.7041282    1569.1223  0.083982139  0.084847597            2 
 1558000    1.0003718    -2.694529    1568.3784  0.083888448  0.084829064            3 
 1559000    1.0052324   -2.6670233    1567.3681  0.083780632  0.084810601            3 
 1560000   0.99859721   -2.7380503    1571.4729  0.083946201  0.084792056            3 
 1561000    1.0072287   -2.7187955    1573.2638  0.083988033  0.084773592            1 
 1562000    1.0019785   -2.7139976    1565.1629  0.083502078  0.084755162            3 
 1563000    1.0298196   -2.7091213    1575.6661  0.084008641  0.084736216            2 
 1564000   0.98878785   -2.7165096    1574.9284   0.08391562  0.084717969            2 
 1565000   0.99599829   -2.7131956    1574.6123  0.083845168  0.084699425            6 
 1566000   0.99631375   -2.7074315    1565.4165  0.083302283  0.084681309            4 
 1567000    1.0107789     -2.71658    1578.4222  0.083940769  0.084662866            2 
 1568000    1.0054415   -2.7092894    1574.2085  0.083663291  0.084644569            2 
 1569000    1.0070326   -2.7186681    1575.3106  0.083668505  0.084626511            2 
 1570000   0.99068718   -2.6866984     1582.894  0.084017728  0.084608265            1 
 1571000    1.0172092   -2.7104799    1579.3287  0.083775125  0.084590174            2 
 1572000     1.008234   -2.7140774    1577.5682  0.083628511  0.084571754            1 
 1573000    1.0037291   -2.7250725    1571.0958  0.083232453  0.084552889            1 
 1574000   0.98543362   -2.7242624    1575.7413  0.083425521  0.084534343            2 
 1575000    1.0099795   -2.7134996    1581.3021  0.083666779  0.084516181            3 
 1576000    1.0053592   -2.7046079    1578.2672  0.083453215   0.08449782            5 
 1577000    1.0055597   -2.7026047    1581.6752  0.083580382  0.084479482            3 
 1578000    1.0146509   -2.7428996    1579.7573  0.083426136  0.084460909            2 
 1579000    1.0014677   -2.7150388    1584.9447  0.083647072  0.084442517            1 
 1580000    1.0051918   -2.7161786    1582.8317  0.083482687  0.084423876            2 
 1581000   0.98162733   -2.6988897    1583.7249  0.083476959    0.0844052            2 
 1582000   0.98877471   -2.7164439    1581.3835  0.083300858  0.084386728            2 
 1583000   0.99972142   -2.7098213    1585.7903  0.083480222  0.084368142            1 
 1584000   0.96872675   -2.7135812     1586.488  0.083464226  0.084349516            2 
 1585000    1.0029081   -2.7113024    1581.1149  0.083129067  0.084330638            2 
 1586000     0.972495   -2.7165894    1586.4412  0.083356515  0.084312174            2 
 1587000    0.9805781   -2.6808971    1576.4338  0.082778504  0.084293484            2 
 1588000    1.0077731   -2.7077544    1592.6526  0.083577487  0.084275184            5 
 1589000    0.9737541   -2.7044988    1590.1414  0.083393191  0.084257165            1 
 1590000   0.99927873   -2.7231785    1589.5363  0.083309032  0.084239204            4 
 1591000    1.0000574   -2.7125598    1595.6683  0.083577848   0.08422097            3 
 1592000   0.97577662   -2.7063849    1595.3471  0.083508535  0.084202649            1 
 1593000   0.98025568   -2.6781962    1593.9017  0.083380503  0.084184551            1 
 1594000   0.99532263   -2.7177876    1585.3354  0.082880355  0.084166491            2 
 1595000   0.98119799   -2.7319371    1591.4299  0.083146806  0.084148182            2 
 1596000   0.95704786    -2.714234    1596.6613  0.083367865  0.084130097            2 
 1597000    1.0073776   -2.7060048    1593.8872  0.083170904  0.084111926            3 
 1598000   0.98586793   -2.7222164    1598.5801  0.083363583  0.084094201            6 
 1599000    1.0008258     -2.72498    1593.9551  0.083070413  0.084076338            3 
 1600000    0.9996417   -2.6752538    1601.5399  0.083413535  0.084058531            5 
 1601000   0.98466585   -2.7428301    1599.3693  0.083248456    0.0840403            2 
 1602000   0.99213127   -2.7027769    1599.8232  0.083220099  0.084022511            2 
 1603000   0.97731669   -2.7037147    1598.6333  0.083106329  0.084004604            2 
 1604000   0.97869426   -2.7270801    1602.5885      0.08326  0.083986875            2 
 1605000    1.0102768   -2.7235657      1600.91  0.083120978  0.083969135            2 
 1606000   0.99313643   -2.7247402    1610.7806   0.08358139  0.083951487            4 
 1607000    1.0062154   -2.7154504    1602.6924  0.083109955  0.083933827            1 
 1608000    1.0031676   -2.6916938    1606.8864  0.083275622  0.083916266            2 
 1609000    1.0245462   -2.7251506    1606.9984  0.083229668  0.083898706            4 
 1610000   0.98273668   -2.7108141    1608.3049  0.083245593  0.083881436            3 
 1611000    1.0027341    -2.704571    1608.5028   0.08320416  0.083864128            2 
 1612000    1.0094967   -2.7202949      1613.61  0.083416562  0.083846535            2 
 1613000    0.9873388   -2.6978573     1612.375  0.083301043  0.083828822            1 
 1614000   0.98673281   -2.7581723    1605.5954  0.082899391  0.083811126            2 
 1615000   0.99402739   -2.7183152     1606.245  0.082881581  0.083793018            3 
 1616000    0.9851014   -2.7075469    1611.0001  0.083075501  0.083775089            2 
 1617000    1.0046752   -2.7283998    1612.9882  0.083126583  0.083757022            4 
 1618000   0.96518459   -2.7372479    1611.7974  0.083013874  0.083739626            2 
 1619000   0.97748858   -2.7218501    1603.7719  0.082549513  0.083721426            2 
 1620000   0.97437063   -2.7202435    1610.2089  0.082829674  0.083703537            3 
 1621000    1.0071875   -2.7225355    1611.5927  0.082849718  0.083685643            3 
 1622000   0.99363521   -2.7224572    1611.0278  0.082769618  0.083667538            2 
 1623000   0.97831653   -2.7074054    1609.0876  0.082618997  0.083649307            2 
 1624000   0.99768483   -2.7207753    1608.7989  0.082553309  0.083631068            2 
 1625000    0.9706481   -2.7152799    1614.9093  0.082815863  0.083613022            2 
 1626000   0.97630113   -2.7242513    1616.6963  0.082856515  0.083595055            3 
 1627000   0.99865782    -2.727911    1613.1729  0.082625124  0.083576812            2 
 1628000    1.0025105   -2.7277081    1615.0043  0.082668115  0.083558686            5 
 1629000   0.99562515   -2.7428996    1616.7631  0.082707342  0.083540576            3 
 1630000   0.98144355   -2.7007149    1619.0732  0.082774701  0.083523001            3 
 1631000   0.99336708   -2.7273665    1615.6532  0.082549213  0.083505279            2 
 1632000   0.99787612   -2.7278299    1617.9202  0.082614389  0.083487634            4 
 1633000   0.97948134   -2.7148135    1621.2735  0.082734919  0.083469646            1 
 1634000   0.98858902   -2.7156633    1616.8105  0.082456675  0.083451701            2 
 1635000   0.96839097   -2.7255267    1617.7115  0.082452169  0.083433958            2 
 1636000   0.99476981   -2.7020368    1624.3765  0.082741264  0.083416477            2 
 1637000   0.97626738   -2.7114733    1626.4643  0.082797003   0.08339888            1 
 1638000    0.9813182   -2.6903872    1627.0182  0.082774636  0.083381256            1 
 1639000   0.99396388   -2.7391419    1628.3786  0.082793298  0.083363677            1 
 1640000   0.98447569   -2.7121211    1623.9597  0.082518278  0.083345804            5 
 1641000   0.99040502   -2.7134242    1619.8021  0.082256863  0.083328043            2 
 1642000    1.0027708   -2.7496859    1622.3178  0.082334441   0.08330995            1 
 1643000    1.0116374   -2.7100275    1624.4039  0.082390134  0.083291933            4 
 1644000   0.96428534    -2.723756      1624.13  0.082326134  0.083274053            3 
 1645000   0.97086132   -2.7197685    1624.4585  0.082292732  0.083256089            2 
 1646000   0.97087985   -2.7129173    1630.8233  0.082564971  0.083238064            3 
 1647000   0.98633782   -2.7401662    1625.6212  0.082251629  0.083220346            2 
 1648000   0.97123499   -2.7335689    1629.7547  0.082410735  0.083202555            3 
 1649000   0.99617663    -2.732871    1630.5181  0.082399339  0.083184723            1 
 1650000   0.99334498   -2.7152628     1635.038  0.082577675  0.083166637            2 
 1651000    1.0013693   -2.7404798    1629.0239  0.082224102   0.08314887            3 
 1652000   0.98229521   -2.7334455    1637.5809   0.08260598   0.08313104            3 
 1653000   0.99638965   -2.7203384    1630.2869  0.082188287   0.08311332            3 
 1654000   0.98752111    -2.725725    1636.3256  0.082442845  0.083095828            2 
 1655000    1.0022686   -2.7335352    1638.7726  0.082516244    0.0830784            4 
 1656000   0.97845089   -2.7128121    1636.0629  0.082330055  0.083061379            5 
 1657000     1.005228   -2.7352418    1642.2067  0.082589355  0.083043868            2 
 1658000   0.97939636   -2.7271092    1636.4189  0.082248639  0.083026515            2 
 1659000   0.98086132   -2.7390361     1637.163  0.082236439  0.083009093            3 
 1660000   0.99318332   -2.7324801    1637.8902  0.082223402  0.082991338            3 
 1661000   0.97472213   -2.7113059    1637.3473  0.082146662  0.082973785            2 
 1662000    0.9877205    -2.729907    1631.6168  0.081809909  0.082956271            3 
 1663000   0.98516207   -2.6952657    1647.0966  0.082536412  0.082938804            2 
 1664000   0.98407313   -2.7187233     1640.346   0.08214874   0.08292173            1 
 1665000   0.98689692   -2.7380547    1638.8932  0.082026685  0.082904313            2 
 1666000   0.99822331   -2.7276487    1644.0301  0.082234398  0.082886822            3 
 1667000   0.98511092   -2.7079733    1641.5461  0.082060894  0.082869466            2 
 1668000   0.97999309   -2.7178929    1641.4716  0.082007972  0.082851637            2 
 1669000   0.98994376   -2.7234468    1647.0481  0.082237274  0.082834547            2 
 1670000   0.98431328   -2.7513046    1643.4491  0.082008437  0.082816995            4 
 1671000   0.98720087   -2.7231573    1646.0511  0.082089123  0.082799446            4 
 1672000    1.0007628   -2.7197414    1646.7133  0.082073031  0.082782109            1 
 1673000   0.98925962   -2.7194409    1649.7881  0.082177131  0.082764803            2 
 1674000   0.98786069   -2.7280152    1645.3584  0.081907529  0.082747282            1 
 1675000    0.9966334   -2.7581939    1653.1196  0.082244757  0.082729645            2 
 1676000   0.99735332   -2.7272813    1642.6438  0.081674811  0.082712024            2 
 1677000   0.99229881   -2.7348198     1651.031  0.082042882  0.082694287            4 
 1678000    0.9761909   -2.7384528    1657.9564  0.082337921  0.082676734            1 
 1679000   0.97670438   -2.7147367    1649.0198  0.081845335  0.082659214            6 
 1680000    1.0158997   -2.7302396    1650.1064  0.081850513    0.0826419            2 
 1681000   0.97516733   -2.7345655    1654.7149  0.082030285   0.08262448            2 
 1682000   0.98602201   -2.7383879    1658.6318  0.082175576  0.082607337            2 
 1683000   0.98200262   -2.7221669    1652.2405  0.081810286  0.082590283            1 
 1684000    1.0001392   -2.7216538    1663.1704  0.082302573  0.082573143            6 
 1685000   0.95953594   -2.7231436    1659.7764  0.082085873   0.08255593            2 
 1686000   0.98728026   -2.7347144    1658.5521  0.081976676  0.082538217            3 
 1687000   0.98091313   -2.7278881    1656.3544   0.08181952  0.082520692            2 
 1688000   0.99175425   -2.7700651    1661.8527  0.082042489  0.082503485            2 
 1689000   0.97434619   -2.7507553    1661.1164  0.081957588  0.082486414            4 
 1690000   0.98821939   -2.7487993    1655.9002  0.081651885  0.082469181            2 
 1691000   0.97486068    -2.731166     1663.895  0.081997584  0.082452065            2 
 1692000   0.96718682   -2.7170867    1657.2348  0.081621097  0.082435136            3 
 1693000   0.96878703   -2.7537047    1663.2272  0.081867846  0.082417624            4 
 1694000    0.9827028   -2.7328562    1654.6263  0.081396413  0.082400731            3 
 1695000   0.97888536   -2.7363573     1669.934  0.082100984  0.082383414            4 
 1696000   0.98552141   -2.7519422    1665.9399  0.081856324  0.082366446            3 
 1697000   0.99097802    -2.730476    1667.1199  0.081866032  0.082349223            2 
 1698000   0.96349289   -2.7144835    1668.1772  0.081869708  0.082332003            2 
 1699000   0.98491569   -2.7353572    1670.6965  0.081945092  0.082315211            2 
 1700000   0.97144795   -2.7418347    1667.7024  0.081750118  0.082297854            2 
 1701000    0.9548075   -2.7298339    1673.1103  0.081966996  0.082280835            3 
 1702000   0.96903943   -2.7089451    1664.3504  0.081489932  0.082263686            3 
 1703000   0.97598074   -2.7255634    1675.2402  0.081974957  0.082246699            3 
 1704000   0.99358082   -2.7593816    1667.0555  0.081526579  0.082229724            3 
 1705000    0.9978123   -2.7134057    1672.0909  0.081724874  0.082212526            1 
 1706000   0.98320144   -2.7345309    1677.0782  0.081920584  0.082195688            3 
 1707000   0.99613541   -2.7319982    1678.2649  0.081930527  0.082178541            4 
 1708000   0.98849569   -2.7389697    1670.1689  0.081487554  0.082161806            4 
 1709000   0.97597877   -2.7232814    1677.0763  0.081776689  0.082145416            1 
 1710000   0.97924519   -2.7454976    1667.5937  0.081266747    0.0821288            1 
 1711000   0.96812431   -2.7746172    1679.2972  0.081789266  0.082111458            1 
 1712000     0.981243   -2.7131034    1676.6773  0.081613963  0.082094723            2 
 1713000   0.99569914   -2.7328052    1677.4937  0.081606039  0.082078421            2 
 1714000   0.98131503   -2.7373136    1680.0502  0.081682723  0.082061754            3 
 1715000   0.95426069    -2.737931    1679.4181  0.081604377  0.082044939            1 
 1716000   0.98889375   -2.7347977    1683.4285  0.081751581  0.082028066            3 
 1717000     0.966296   -2.7342414    1681.3164  0.081601457  0.082011135            4 
 1718000   0.98360218   -2.7442451    1677.8361  0.081385141  0.081993984            2 
 1719000    0.9956407   -2.7345224    1680.4194  0.081463033  0.081976569            1 
 1720000   0.99481253   -2.7143664    1677.6622  0.081282082   0.08195905            2 
 1721000   0.98677171   -2.7366475    1682.4868  0.081468469   0.08194192            2 
 1722000    0.9762987    -2.738133    1677.5977  0.081184559  0.081924568            2 
 1723000   0.98186289    -2.732882    1682.8936  0.081393576   0.08190736            1 
 1724000   0.96597783   -2.7421395    1684.3109  0.081414871  0.081889983            1 
 1725000   0.97715443   -2.7485739    1674.2468   0.08088149  0.081872312            3 
 1726000   0.96640672   -2.7465195    1681.7286  0.081195859  0.081854881            1 
 1727000   0.97120091   -2.7363701    1682.1413  0.081168754  0.081837377            1 
 1728000   0.97395963   -2.7507466    1685.0915  0.081264058  0.081819554            3 
 1729000   0.98537732    -2.726396    1693.9872  0.081645807  0.081802091            2 
 1730000   0.97049892   -2.7243556     1682.634  0.081051733  0.081784268            3 
 1731000   0.99269516    -2.748352    1684.2361  0.081082038  0.081766754            2 
 1732000    0.9554329   -2.7156905    1687.9636  0.081214567  0.081749061            2 
 1733000   0.96785698   -2.7510344    1686.9537  0.081119145   0.08173149            2 
 1734000   0.97918056   -2.7615164    1682.5327  0.080859895  0.081713786            2 
 1735000   0.95092594   -2.7530428    1684.8284  0.080923553  0.081695987            2 
 1736000   0.99484237    -2.749211    1686.0002   0.08093319  0.081678248            2 
 1737000   0.96518458   -2.7391486     1689.976  0.081077335  0.081660763            2 
 1738000   0.97291432   -2.7336849    1685.3412  0.080808456  0.081643253            3 
 1739000    0.9886908   -2.7253265     1686.204  0.080803334  0.081625332            8 
 1740000   0.98511275   -2.7584915    1688.8622  0.080884204  0.081607725            3 
 1741000   0.97719091   -2.7296095    1688.8652  0.080837891  0.081589755            2 
 1742000   0.97511371    -2.769009    1694.9453  0.081082344  0.081572078            1 
 1743000   0.97527955   -2.7325425    1691.5094  0.080871552  0.081554064            2 
 1744000   0.97038543   -2.7618559    1685.9026  0.080557275  0.081536175            2 
 1745000   0.97855414   -2.7566294    1686.9619  0.080561693  0.081518178            2 
 1746000   0.96155656   -2.7707551    1685.5209  0.080446779  0.081499994            3 
 1747000   0.97070536   -2.7667504    1692.3016  0.080724175  0.081481636            2 
 1748000   0.96827387   -2.7462224    1692.7434  0.080699054  0.081463089            2 
 1749000   0.97034229   -2.7566685    1685.9496  0.080329216  0.081444821            3 
 1750000   0.98436401     -2.74233    1698.0032  0.080857295  0.081426528            2 
 1751000   0.94999357   -2.7632531    1691.3981  0.080496769  0.081408068            1 
 1752000   0.98719614   -2.7534969    1686.8136  0.080232761  0.081389865            2 
 1753000   0.97210311   -2.7593845    1695.9901  0.080623222  0.081371423            2 
 1754000   0.94840241   -2.7311776    1694.8109   0.08052123  0.081353435            3 
 1755000   0.98893869   -2.7593547    1693.2865  0.080402967  0.081335357            3 
 1756000   0.98438137    -2.734071    1697.7933  0.080571057  0.081317315            2 
 1757000   0.98215764   -2.7575584    1688.9703  0.080106729  0.081299113            3 
 1758000   0.97132954   -2.7383352    1706.0384  0.080870231  0.081281067            5 
 1759000    0.9679963   -2.7245982    1704.8447  0.080767704    0.0812633            4 
 1760000   0.96170129   -2.7769312    1700.6774  0.080524497   0.08124561            4 
 1761000   0.98645407   -2.7320798    1705.0472  0.080685557  0.081227757            3 
 1762000   0.96135949   -2.7619765    1697.3496   0.08027571  0.081210169            3 
 1763000   0.97701148   -2.7329519    1708.9927  0.080780519  0.081192714            2 
 1764000    0.9489222    -2.744226    1705.9317  0.080590124   0.08117519            2 
 1765000   0.98757561   -2.7507349     1698.624  0.080199431  0.081157134            2 
 1766000    0.9651246   -2.7529019    1705.2153   0.08046505  0.081139643            3 
 1767000   0.95198369   -2.7236993    1709.8469   0.08063794  0.081122315            1 
 1768000   0.97736363    -2.740372    1714.3451   0.08080435  0.081105164            4 
 1769000   0.98956442   -2.7642669    1706.5302  0.080390533  0.081087643            6 
 1770000   0.96012708   -2.7638037    1710.3508  0.080524993  0.081070091            2 
 1771000   0.99523431   -2.7513797    1721.2201   0.08099097  0.081052952            3 
 1772000   0.95475421   -2.7391235    1710.3628   0.08043467  0.081035702            2 
 1773000   0.94849187   -2.7415501     1713.822   0.08055189  0.081018201            5 
 1774000   0.96354851   -2.7611118    1714.8196  0.080553345  0.081001142            3 
 1775000   0.96881709   -2.7601427    1708.3716  0.080205239  0.080984015            1 
 1776000   0.97284547   -2.7588715    1713.5102   0.08040119  0.080966858            3 
 1777000   0.96282437   -2.7477258    1721.0812  0.080710992  0.080949549            2 
 1778000   0.97321808   -2.7445869    1715.1558  0.080387878  0.080932799            2 
 1779000   0.98496498   -2.7542475    1726.6964  0.080883287  0.080915612            2 
 1780000   0.96436483   -2.7342086    1717.6248  0.080413146  0.080898619            2 
 1781000   0.97371185   -2.7495026    1718.9341  0.080429257  0.080881184            2 
 1782000    0.9374033   -2.7748177    1713.1613  0.080114164  0.080863865            4 
 1783000   0.95435198   -2.7452121    1724.4046  0.080594719  0.080846668            3 
 1784000   0.98217205   -2.7436952    1720.5857  0.080371155  0.080829847            3 
 1785000   0.95779631   -2.7339064    1727.5029  0.080649062  0.080813324            2 
 1786000   0.95564235   -2.7519381    1716.3039  0.080081368  0.080796443            4 
 1787000   0.96054183   -2.7530087    1721.9817  0.080301331  0.080779396            3 
 1788000     0.953154   -2.7381265    1718.1434  0.080077528  0.080762123            3 
 1789000   0.97874938   -2.7806329     1723.445  0.080279718  0.080744711            2 
 1790000   0.95558953   -2.7509857    1729.6177  0.080522239  0.080727704            4 
 1791000   0.95736119   -2.7393277    1726.9742  0.080354279  0.080711217            2 
 1792000   0.95945528   -2.7578272    1728.4213  0.080376737   0.08069409            2 
 1793000   0.94923968   -2.7600956    1718.6336  0.079877005  0.080676838            2 
 1794000   0.94348956   -2.7481766    1729.4315  0.080334054  0.080659586            4 
 1795000   0.97705351   -2.7277749     1731.605  0.080390206  0.080642691            4 
 1796000   0.95796322   -2.7397468    1729.3617  0.080241357  0.080625754            2 
 1797000   0.94710084   -2.7712396    1730.7519  0.080261173  0.080608386            3 
 1798000   0.96275825   -2.7489345    1729.5904    0.0801627  0.080591425            2 
 1799000   0.96841779    -2.746388    1728.3822  0.080062173  0.080574291            3 
 1800000   0.93108451   -2.7367459    1726.6757  0.079938689   0.08055697            3 
 1801000   0.96263145   -2.7740906     1728.443  0.079976079  0.080540062            3 
 1802000   0.94938387   -2.7397673    1735.6807  0.080266403  0.080523061            3 
 1803000     0.952443   -2.7477189    1730.0148   0.07996001   0.08050636            2 
 1804000   0.94723723    -2.741444    1731.6981  0.079993446  0.080488941            2 
 1805000   0.94967505   -2.7498111    1735.1319  0.080107661  0.080471863            3 
 1806000   0.97509427   -2.7663476    1732.9578  0.079962984  0.080454635            2 
 1807000   0.97371466   -2.7511839    1732.0485  0.079876799  0.080437342            2 
 1808000   0.95391555   -2.7506239    1734.1247  0.079928313  0.080420313            3 
 1809000   0.99307725   -2.7973922    1731.0796  0.079743857  0.080403293            1 
 1810000   0.97401448   -2.7704244    1729.1069  0.079608975  0.080386015            1 
 1811000   0.96290786   -2.7735226    1736.0291   0.07988354   0.08036871            2 
 1812000   0.96849125    -2.780462    1736.2829  0.079851126    0.0803511            2 
 1813000   0.96916936   -2.7632529    1741.2761  0.080036593   0.08033386            5 
 1814000   0.94824901   -2.7672918    1736.1481  0.079756897  0.080316696            4 
 1815000   0.95783709   -2.7660138    1739.4592  0.079864979  0.080299392            2 
 1816000   0.94565956   -2.7557372    1735.4743  0.079638139  0.080282315            1 
 1817000   0.97372141    -2.754685    1731.1876  0.079397708  0.080264858            2 
 1818000   0.95180396   -2.7859447    1733.0576  0.079439751  0.080247329            3 
 1819000   0.95786956   -2.7469156    1740.7904  0.079750338  0.080229918            4 
 1820000   0.95376962   -2.7255205    1745.5589  0.079924857  0.080212924            2 
 1821000   0.95133117    -2.751247    1741.5699   0.07969842  0.080195661            2 
 1822000   0.94448616    -2.752598    1744.1883  0.079774438  0.080178286            4 
 1823000   0.94693569   -2.7614146    1742.8222  0.079668231  0.080161119            2 
 1824000   0.97076042   -2.7555727    1740.6963  0.079527425  0.080143975            2 
 1825000   0.96349872   -2.7444211    1745.6174  0.079708556  0.080127006            2 
 1826000   0.96007881    -2.746655    1753.9361  0.080044545  0.080110102            1 
 1827000    0.9432497   -2.7288425    1739.7898  0.079355492  0.080093398            2 
 1828000    0.9741788    -2.760238    1747.5922   0.07966777  0.080076556            1 
 1829000   0.97396764   -2.7559114     1754.594  0.079943231  0.080059733            6 
 1830000   0.97026798   -2.7536074    1751.4132  0.079754697  0.080042804            6 
 1831000   0.97500441   -2.7328083    1760.3538  0.080118052  0.080026269            2 
 1832000   0.94840701   -2.7551963    1757.9608  0.079965467  0.080009962            3 
 1833000   0.97083595   -2.7320548    1758.6795  0.079954517   0.07999348            2 
 1834000   0.95993681   -2.7417644    1760.1549  0.079977958  0.079977186            1 
 1835000   0.97742016   -2.7575825    1757.0976   0.07979553  0.079960911            2 
 1836000   0.95989407    -2.756481    1755.0935  0.079661106  0.079944866            1 
 1837000   0.95102893   -2.8076139    1752.2393  0.079488264  0.079928614            6 
 1838000   0.96870494   -2.7460625    1762.4081  0.079906061  0.079912166            1 
 1839000   0.95615762   -2.7612106    1761.7565  0.079833082  0.079896051            2 
 1840000    0.9550333   -2.7387436    1760.4038  0.079728432  0.079879787            2 
 1841000   0.96923994   -2.7483533    1759.1941   0.07963037  0.079863821            1 
 1842000   0.96147992   -2.7505953    1757.7387  0.079521294   0.07984775            2 
 1843000   0.96212485   -2.7446509    1766.6278  0.079880077  0.079832007            4 
 1844000    0.9377083    -2.776493    1762.1799   0.07963575  0.079816147            1 
 1845000    0.9560795   -2.7271974    1771.1978  0.079999901  0.079800076            2 
 1846000   0.97230244   -2.7891987    1757.7751   0.07935063   0.07978404            3 
 1847000   0.98142407   -2.7783331    1759.0699  0.079366086  0.079767821            2 
 1848000   0.95802109   -2.7526821    1773.0804  0.079954924  0.079751786            1 
 1849000   0.97742947   -2.7967233    1764.4218  0.079521442  0.079735828            4 
 1850000   0.97278736   -2.7585882    1769.5146  0.079707865  0.079719708            4 
 1851000   0.96367692   -2.7747077    1765.0601  0.079464259  0.079703442            2 
 1852000   0.97244892   -2.7598049    1767.9247  0.079550248  0.079687187            3 
 1853000   0.94866584   -2.7836688    1762.0181  0.079241683  0.079670961            2 
 1854000   0.94108054   -2.7791448    1760.4535  0.079128618  0.079654704            5 
 1855000     0.958669   -2.7702734    1771.5048  0.079582425  0.079638736            3 
 1856000   0.94300667    -2.762858    1765.1505  0.079254244    0.0796222            1 
 1857000   0.93417034   -2.7772469    1771.6947  0.079505237  0.079606044            4 
 1858000   0.94868243   -2.7706939    1765.1915  0.079170771  0.079589794            2 
 1859000   0.96466026    -2.779041    1773.6706  0.079508273  0.079573549            3 
 1860000   0.95772758   -2.7778398    1780.8433  0.079786885  0.079557558            4 
 1861000   0.98159975   -2.7569642     1774.001  0.079437622  0.079541697            2 
 1862000   0.95731679   -2.7692829    1773.3238  0.079364651  0.079525841            4 
 1863000   0.94008756   -2.7877834    1775.5433  0.079421333  0.079509841            2 
 1864000    0.9558363   -2.7455696    1777.0944  0.079448068  0.079493849            2 
 1865000   0.97739451   -2.7517039    1776.6834  0.079387106  0.079477806            3 
 1866000   0.94738574   -2.7535811    1775.8775   0.07930857  0.079462068            2 
 1867000   0.94852751    -2.780629    1777.5689  0.079341587  0.079446388            2 
 1868000   0.96835578   -2.7697596    1771.7153  0.079037977  0.079430381            2 
 1869000   0.95759587   -2.7457169    1784.8543  0.079581518  0.079414358            2 
 1870000   0.94098179   -2.7598449      1777.77  0.079223264   0.07939868            1 
 1871000   0.94082902    -2.774252    1780.6526   0.07930931  0.079382621            1 
 1872000   0.94064059    -2.764919    1781.0525  0.079284743  0.079366833            9 
 1873000   0.95881436   -2.7506347    1783.6866  0.079359609  0.079350873            4 
 1874000   0.95322739   -2.7757685    1781.6673  0.079227466  0.079334926            1 
 1875000   0.94586725   -2.7465964    1792.6692  0.079674188  0.079319304            3 
 1876000   0.95105997   -2.7623205    1781.0805  0.079116936  0.079303446            2 
 1877000   0.95885572   -2.7427528    1783.4356  0.079179347  0.079287872            2 
 1878000   0.94546764   -2.7649697     1788.441   0.07935929  0.079272422            1 
 1879000   0.95941572   -2.7718838    1791.1935  0.079439132  0.079256894            1 
 1880000   0.95011557   -2.7707391    1792.6721  0.079462416  0.079241276            2 
 1881000   0.95490981    -2.733163    1787.7548  0.079202324  0.079225682            2 
 1882000   0.94832294   -2.7906467    1786.1492  0.079089144  0.079210122            2 
 1883000   0.95232986   -2.7654963    1789.8487  0.079210865  0.079194563            2 
 1884000   0.95703609   -2.7539038    1790.6192  0.079202903  0.079178948            2 
 1885000   0.95979908    -2.796605    1794.5603  0.079335115  0.079163354            3 
 1886000   0.95832056   -2.7538631    1792.3859  0.079196972  0.079148126            2 
 1887000   0.93730972   -2.7848871     1790.904  0.079089562  0.079132798            3 
 1888000   0.94223596   -2.7663939     1791.905  0.079091851  0.079117292            5 
 1889000   0.94561966   -2.7773899    1793.5283  0.079121595  0.079102275            2 
 1890000   0.95531042     -2.76116    1800.2345  0.079375418  0.079087336            4 
 1891000   0.95765588   -2.7541055    1797.5394  0.079214674  0.079072206            1 
 1892000    0.9526424   -2.7733701    1797.0391  0.079150771  0.079057195            2 
 1893000   0.94166841   -2.7613864    1802.6339  0.079355253  0.079041673            4 
 1894000   0.97108159   -2.7782865    1800.7774  0.079231668  0.079026142            3 
 1895000   0.93840583    -2.768309     1801.274  0.079211699  0.079010694            2 
 1896000   0.94486693    -2.768915    1802.4826  0.079223042  0.078995421            3 
 1897000   0.93444608   -2.7626629    1798.1135  0.078989346  0.078980066            5 
 1898000   0.95839065   -2.7829353    1796.3997  0.078872483  0.078964953            2 
 1899000   0.95517333   -2.7976279    1799.0404  0.078946833  0.078949478            3 
 1900000   0.95811619   -2.7730353    1799.6162  0.078930537  0.078934249            4 
 1901000   0.94011615   -2.7625832    1803.5638  0.079062064  0.078918797            4 
 1902000   0.94993516   -2.7953895    1801.4772  0.078929073   0.07890342            2 
 1903000   0.95415258   -2.7773388     1800.831  0.078859302  0.078887807            3 
 1904000    0.9368426    -2.788055    1803.8647  0.078950661  0.078872103            4 
 1905000   0.96130548   -2.7792751    1803.4295  0.078890178  0.078856516            2 
 1906000   0.93905944   -2.7683751     1803.994  0.078873471   0.07884129            6 
 1907000   0.96654181   -2.7546467    1806.6472   0.07894805  0.078825943            2 
 1908000   0.95901493   -2.7725894    1807.6064  0.078948567  0.078810747            5 
 1909000   0.93287672   -2.7826221    1804.3001  0.078762882  0.078795545            3 
 1910000   0.95292868   -2.7781083    1806.2611  0.078807205   0.07878041            3 
 1911000   0.97914976   -2.7478591    1809.4589  0.078905412  0.078765148            4 
 1912000   0.94996261   -2.8061874    1807.7354  0.078789027  0.078749715            6 
 1913000   0.93186869   -2.7715807    1808.6855  0.078789226  0.078734413            3 
 1914000   0.95970266   -2.7430197    1817.6672  0.079139115  0.078719747            1 
 1915000   0.95035229    -2.791763    1808.3533  0.078692485  0.078704539            2 
 1916000   0.94407783   -2.7803991    1811.8223  0.078802294  0.078689284            4 
 1917000   0.95150953   -2.7514639    1813.4678  0.078832715  0.078674132            4 
 1918000   0.94642762   -2.7462841    1812.7911  0.078762214  0.078658836            4 
 1919000   0.95366771    -2.758073    1817.2659  0.078915489  0.078643756            2 
 1920000   0.95497374   -2.7607127     1821.715  0.079067489  0.078628475            3 
 1921000   0.94604854   -2.8021391    1813.9341  0.078688796   0.07861327            3 
 1922000   0.93554943   -2.7517398    1813.6513  0.078635592    0.0785979            2 
 1923000   0.95324585   -2.7833195    1821.7534  0.078945807   0.07858297            2 
 1924000   0.95319052   -2.7634225    1812.6795  0.078511758  0.078567553            2 
 1925000   0.94282156   -2.7703633    1816.9838  0.078657306  0.078552046            2 
 1926000   0.94456488   -2.7718306    1807.0223   0.07818546  0.078536593            2 
 1927000   0.93681671   -2.7731589    1821.4541   0.07876899  0.078520582            3 
 1928000    0.9468657   -2.7750164    1813.3227  0.078376673  0.078505199            2 
 1929000   0.93667029   -2.7754764    1816.3817  0.078468194  0.078489828            3 
 1930000   0.93269205   -2.7741632    1819.7243   0.07857186  0.078474406            5 
 1931000   0.93724558   -2.7596128    1815.0451  0.078329238  0.078458704            2 
 1932000   0.93489779   -2.7824235    1817.5335  0.078396026  0.078442879            4 
 1933000   0.95299571    -2.770797    1817.7132  0.078363216   0.07842728            1 
 1934000   0.93590275   -2.8015139     1811.566  0.078057825  0.078411367            2 
 1935000    0.9476399   -2.7729038    1808.7855  0.077897737  0.078395416            5 
 1936000   0.93480305   -2.8007838    1818.3244  0.078268097   0.07837951            3 
 1937000   0.93939099   -2.7915574    1820.4635  0.078319716  0.078363689            3 
 1938000    0.9601635    -2.773539    1818.6321  0.078200553  0.078348008            3 
 1939000   0.94433358   -2.7676064    1829.4663  0.078625852  0.078332473            1 
 1940000   0.93362127   -2.7674278    1824.7434  0.078382447  0.078316901            2 
 1941000   0.95464383   -2.7759007    1822.1088  0.078228956  0.078301989            2 
 1942000   0.92538518   -2.7921922    1821.5704   0.07816557   0.07828644            3 
 1943000    0.9404773   -2.7890105    1824.7735  0.078262716  0.078271411            4 
 1944000   0.94359479    -2.801321    1823.5986  0.078172094  0.078256023            2 
 1945000   0.95150842   -2.7773001    1821.2032  0.078029271  0.078240603            5 
 1946000   0.94020268   -2.8051464    1830.2787  0.078377815   0.07822511            2 
 1947000   0.94215695   -2.7803131    1827.6792  0.078226295  0.078209657            1 
 1948000   0.93793005   -2.7967882    1832.4323  0.078389473  0.078194061            2 
 1949000   0.95655011   -2.7733033    1830.2001  0.078253808  0.078178662            3 
 1950000   0.92545506   -2.7922967    1830.4393    0.0782239  0.078163282            6 
 1951000   0.92128761   -2.7760878    1833.4358  0.078311799  0.078147838            2 
 1952000   0.94028291   -2.7879394    1832.5815  0.078235206  0.078132383            2 
 1953000   0.92908119    -2.799406    1837.0285  0.078384898  0.078117082            2 
 1954000   0.94360637   -2.7835348    1838.2863  0.078398427   0.07810174            3 
 1955000   0.93829787   -2.7938092    1830.7347  0.078036434  0.078086484            2 
 1956000   0.95556253   -2.7787747    1836.2444  0.078231271  0.078071261            4 
 1957000   0.90958871   -2.8189645    1835.3734  0.078154207  0.078055731            2 
 1958000   0.95068652   -2.7909786    1828.7255  0.077831353  0.078040372            1 
 1959000   0.93216497   -2.7872291    1834.0364  0.078017542  0.078024987            2 
 1960000   0.94846637   -2.7769274    1837.4399  0.078122444   0.07800985            3 
 1961000   0.92962223   -2.7865928    1831.1295  0.077814444  0.077994382            2 
 1962000    0.9270998   -2.8006386     1832.935   0.07785147  0.077978829            3 
 1963000   0.96263388   -2.7828939    1839.8949   0.07810727  0.077963615            4 
 1964000   0.94600821   -2.8091525    1838.0539  0.077989388  0.077948384            4 
 1965000   0.94224027   -2.7952587    1840.8477   0.07806818  0.077933221            3 
 1966000     0.942132   -2.7865548    1840.9623  0.078033327  0.077918123            4 
 1967000   0.92880273   -2.8060377    1843.4117   0.07809743  0.077903009            5 
 1968000   0.93538217    -2.779549    1849.2353   0.07830434  0.077888034            3 
 1969000   0.95280112   -2.7889867    1843.0529  0.078002915  0.077872877            2 
 1970000   0.92498162   -2.7822477    1845.1767   0.07805316  0.077857862            4 
 1971000   0.93813396   -2.7703052    1843.4039  0.077938605  0.077842751            2 
 1972000   0.94218817    -2.799482    1842.0248  0.077840803  0.077827806            3 
 1973000   0.94080416   -2.7745123    1845.0997  0.077931226  0.077812525            1 
 1974000   0.94242313   -2.7948006    1848.0659  0.078016968  0.077797494            2 
 1975000   0.95214138   -2.7851491    1844.4928  0.077826701  0.077782056            2 
 1976000   0.92121176   -2.7827179    1850.1598  0.078026308  0.077766748            3 
 1977000   0.93273144   -2.8017612    1843.9656  0.077725746  0.077751297            3 
 1978000   0.92747416   -2.7997545     1845.485  0.077750463  0.077736037            5 
 1979000    0.9171994   -2.7792295    1848.8622  0.077853386  0.077720801            5 
 1980000   0.93676839     -2.80197    1840.0176   0.07744182  0.077705101            3 
 1981000   0.93236113   -2.7811623    1850.0193  0.077823462  0.077689863            3 
 1982000   0.93424518   -2.7866683    1852.8211  0.077901998  0.077674628            3 
 1983000   0.93134752   -2.8039907    1850.9285  0.077783178  0.077659227            3 
 1984000   0.94053679    -2.779197    1854.8634  0.077909251  0.077643979            2 
 1985000   0.96100388   -2.8030907    1852.1186  0.077754767  0.077628817            2 
 1986000   0.93535934   -2.8009472     1856.693  0.077907562  0.077613273            2 
 1987000   0.92489139   -2.7901479     1849.416  0.077563159  0.077598152            3 
 1988000   0.93711186   -2.7680358    1854.9232  0.077754996  0.077582573            2 
 1989000   0.93721476   -2.7855616    1855.1264  0.077724417  0.077567327            2 
 1990000   0.92493661   -2.7861911    1853.5433  0.077619066  0.077552383            2 
 1991000   0.95259837   -2.8011877    1848.2032  0.077356572  0.077536949            4 
 1992000    0.9277048   -2.8003073    1857.2978  0.077698202  0.077521742            1 
 1993000   0.93766627   -2.7760643     1867.401  0.078081661  0.077506552            2 
 1994000   0.92910935   -2.7989354    1853.4096  0.077457775  0.077491324            1 
 1995000   0.92681874   -2.7950586    1854.9221  0.077482127   0.07747643            2 
 1996000   0.92500918   -2.7847791    1861.6798  0.077725441  0.077461314            1 
 1997000   0.91549268   -2.8157955    1865.8238  0.077859449  0.077446641            4 
 1998000   0.93117467   -2.7881071    1864.4229  0.077762051  0.077431558            4 
 1999000   0.92400477   -2.7738904    1861.5712  0.077604267    0.0774169            1 
 2000000   0.94427034    -2.797512    1858.2842  0.077428509  0.077402261            3 
 2001000   0.93758383    -2.809066    1860.2402  0.077471272  0.077387391            4 
 2002000   0.91824793   -2.7861355    1866.7049  0.077701668  0.077372404            4 
 2003000   0.94909973   -2.8140055    1864.7008  0.077579498  0.077357615            3 
 2004000   0.94289057   -2.7833211    1873.7747  0.077918109  0.077342592            2 
 2005000   0.92536891   -2.7994072    1857.0171  0.077182754  0.077327557            2 
 2006000   0.94664325     -2.77759    1870.9289  0.077722203  0.077312765            2 
 2007000   0.94054672   -2.7931829    1873.7514  0.077800673  0.077297982           11 
 2008000   0.91737678   -2.7900428    1868.7914  0.077556082  0.077283202            5 
 2009000   0.91710504   -2.7935373    1866.9399  0.077440678  0.077268349            3 
 2010000   0.92527171   -2.8150365    1864.3057  0.077292941  0.077253631            2 
 2011000   0.92462537   -2.7826301    1866.4552  0.077343575  0.077238184            4 
 2012000   0.92065979   -2.7729225    1871.5131  0.077514624  0.077223285            2 
 2013000    0.9194138   -2.8044255    1866.9257  0.077286212  0.077208396            3 
 2014000   0.91690405   -2.8163063    1867.8525  0.077286183  0.077193663            3 
 2015000     0.936669   -2.8051553    1872.8262  0.077453522  0.077178552            1 
 2016000   0.93064276   -2.8020721    1869.2331   0.07726658  0.077163653            8 
 2017000   0.90988411    -2.801862    1866.7046  0.077123804  0.077148585            1 
 2018000     0.924683   -2.7903942     1875.631  0.077454204  0.077133538            3 
 2019000   0.91813963   -2.7970162    1872.7856  0.077298398  0.077118563            3 
 2020000   0.94338981   -2.8067982    1878.8582  0.077510653  0.077103586            3 
 2021000   0.92246547   -2.7957416    1873.8923  0.077267539   0.07708854            2 
 2022000   0.92244628   -2.7826225    1884.2501  0.077656204  0.077073854            4 
 2023000   0.91045494   -2.7990498     1880.973  0.077482824  0.077058991            5 
 2024000   0.93587543   -2.8008127    1876.0835  0.077243226  0.077044254            3 
 2025000   0.93653779   -2.8173418    1873.4948   0.07709855   0.07702919            2 
 2026000    0.9354132   -2.7854915    1875.6684  0.077149901  0.077014404            2 
 2027000   0.92409571   -2.7901505    1880.1537  0.077296237  0.076999461            2 
 2028000   0.92720277   -2.7968657    1885.3869  0.077473163  0.076984451            2 
 2029000   0.92956472   -2.7917513    1883.6565  0.077363911  0.076969342            2 
 2030000   0.93353363   -2.7625863    1883.5311  0.077320653  0.076954355            3 
 2031000    0.9311429   -2.7896196    1877.8535  0.077049626   0.07693961            3 
 2032000   0.93513743   -2.8194338    1882.2349  0.077191393  0.076924582            4 
 2033000   0.91813001   -2.8037699    1876.5708   0.07692125   0.07690939            7 
 2034000   0.90724005   -2.8036277    1883.3768  0.077162274   0.07689453            3 
 2035000   0.91936744   -2.7985218    1878.8865   0.07694048   0.07687963            7 
 2036000   0.91672902   -2.8132103    1883.4782  0.077090629  0.076864422            2 
 2037000   0.89984396    -2.804474    1875.3927  0.076722007  0.076849575            3 
 2038000   0.92049698   -2.7933204    1886.3117  0.077130836  0.076834504            3 
 2039000   0.92434037   -2.8291018    1882.2892  0.076928609  0.076819425            2 
 2040000   0.93216356   -2.7973379    1885.9841  0.077041836  0.076804545            2 
 2041000   0.90984384   -2.7989587    1887.5412  0.077067661  0.076789598            2 
 2042000   0.92731214   -2.7930537    1892.7669  0.077243181  0.076774947            4 
 2043000   0.92706069   -2.8159775    1886.3625  0.076944137  0.076760271            3 
 2044000   0.92241332   -2.7984932    1889.0484  0.077015996  0.076745553            2 
 2045000   0.90511923   -2.7879077     1893.567   0.07716247  0.076731182            6 
 2046000   0.93891607   -2.8234439    1895.2484  0.077193238  0.076716667            2 
 2047000   0.93486436   -2.7925508    1900.8634  0.077384115   0.07670219            5 
 2048000   0.93403298   -2.7769395    1892.3964  0.077001805  0.076687761            1 
 2049000     0.955165   -2.8335602    1884.7633  0.076653787  0.076673093            2 
 2050000   0.91325495   -2.8180043    1897.0518  0.077115926  0.076658553            3 
 2051000   0.93287228   -2.7922635    1899.3119  0.077170157   0.07664425            1 
 2052000   0.93958915   -2.8056524    1904.5166  0.077343918  0.076630074            3 
 2053000   0.95249093   -2.8116093    1901.8612  0.077198458  0.076615809            1 
 2054000   0.94295169   -2.8264533    1901.4596   0.07714458  0.076601576            3 
 2055000   0.91068923   -2.7965939     1902.155   0.07713524  0.076587468            2 
 2056000   0.92271613   -2.7879253    1902.4365   0.07710913  0.076573312            2 
 2057000   0.91264257    -2.806442    1898.0308  0.076893163  0.076559411            3 
 2058000   0.89755127   -2.7942228    1906.1615  0.077185029  0.076545473            4 
 2059000   0.94333543   -2.8000507    1895.9637   0.07673481  0.076531296            2 
 2060000   0.92081531   -2.8067001     1912.014  0.077346846  0.076517154            2 
 2061000   0.91973895   -2.7953035    1907.9002  0.077142979  0.076503105            2 
 2062000   0.88754781   -2.7962474    1902.8635  0.076902015  0.076488802            1 
 2063000   0.92665624   -2.7857683    1904.8814   0.07694625  0.076474681            2 
 2064000   0.92736443   -2.8041882    1906.7176  0.076983106  0.076460181            2 
 2065000   0.93606539   -2.8145085    1898.6601  0.076620667  0.076445979            2 
 2066000    0.9066706   -2.8105815    1910.4435  0.077058871  0.076431711            4 
 2067000   0.91413015   -2.8050123    1903.9389  0.076759349   0.07641751            1 
 2068000   0.91551972   -2.8377006    1905.1227  0.076769934  0.076403164            2 
 2069000   0.93179216    -2.794794    1904.9688  0.076726632  0.076388768            4 
 2070000   0.94117411    -2.830282     1897.624  0.076393881  0.076374541            3 
 2071000   0.89732653   -2.7983604    1910.7455  0.076884981  0.076360285            3 
 2072000   0.89794383   -2.8035974    1913.9352  0.076976158  0.076345951            2 
 2073000   0.91649241   -2.8091747    1908.2739  0.076711445  0.076331612            2 
 2074000    0.8941092   -2.8159405    1906.3134  0.076595683  0.076317014            4 
 2075000   0.91044557   -2.7909217    1914.9339  0.076904976  0.076302361            5 
 2076000   0.92376191   -2.7891561    1913.1093  0.076794689  0.076288293            2 
 2077000     0.918522   -2.8051503    1909.1484  0.076598798  0.076273802            4 
 2078000   0.94019641   -2.8363951    1912.6126  0.076700858  0.076259178            3 
 2079000   0.94080219   -2.8401578    1906.1814  0.076406183  0.076244389            3 
 2080000   0.92013493   -2.7820055    1915.6321   0.07674808  0.076229712            3 
 2081000   0.90907255   -2.7867123    1914.1323   0.07665114  0.076214995            4 
 2082000   0.91700198   -2.8110059    1918.6802  0.076796358  0.076200584            2 
 2083000   0.90991295   -2.8139111    1914.7247  0.076601244  0.076186079            1 
 2084000   0.92076929   -2.8175255    1911.8032  0.076447666  0.076171542            2 
 2085000   0.91484138   -2.8246173    1915.9456  0.076576562  0.076156823            3 
 2086000   0.91172318    -2.832944    1915.9192  0.076538797  0.076141998            5 
 2087000   0.90630459     -2.81508    1908.3088  0.076198244   0.07612732            3 
 2088000   0.93312208   -2.8314448    1914.0368  0.076390359  0.076112346            5 
 2089000   0.90144064   -2.8248007    1910.4862  0.076212152   0.07609753            2 
 2090000   0.91698695   -2.8210561    1916.1026  0.076399625  0.076082771            2 
 2091000   0.90698696   -2.8190431     1910.799   0.07615172  0.076067833            6 
 2092000   0.89893962   -2.8487245    1913.4509  0.076220958  0.076052805            2 
 2093000     0.920958   -2.8115343    1914.7072  0.076234559   0.07603781            4 
 2094000   0.90019405   -2.8296836      1921.02  0.076449378  0.076022918            5 
 2095000    0.9119301   -2.8227737    1919.8053  0.076364571  0.076008028            2 
 2096000   0.91848363    -2.828268    1918.3254  0.076269298  0.075993377            2 
 2097000   0.91056289   -2.8166137     1921.788   0.07637053  0.075978698            1 
 2098000   0.90976855   -2.8147062    1926.2189  0.076510125  0.075963946            3 
 2099000   0.92680692   -2.8073966    1918.4758  0.076166262  0.075949107            2 
 2100000   0.90179145   -2.8177132    1913.6562  0.075938738  0.075934379            4 
 2101000   0.89482916   -2.7764361    1924.0526  0.076314952  0.075919563            2 
 2102000   0.90868695   -2.8133847    1921.0081  0.076157947  0.075904507            4 
 2103000   0.92247624   -2.8213812    1914.3681  0.075858618  0.075889452            2 
 2104000   0.91743228    -2.800485     1917.812  0.075958966  0.075874483            2 
 2105000   0.92272242   -2.8140398    1920.2671  0.076020075  0.075859324            3 
 2106000   0.89547762   -2.7944958    1927.4417  0.076267874  0.075844193            5 
 2107000   0.92032937   -2.8093599    1921.3737  0.075991682  0.075829001            4 
 2108000   0.91955627   -2.8152179    1919.6295  0.075886683  0.075813858            3 
 2109000   0.94744421   -2.7971331    1923.6941  0.076011303  0.075798845            2 
 2110000   0.90591873   -2.8099536    1926.7847  0.076097342  0.075783904            2 
 2111000   0.90217512     -2.83464    1922.8454  0.075905788   0.07576873            6 
 2112000   0.92366594   -2.8119658    1926.8464  0.076027716  0.075753755            4 
 2113000    0.8979927   -2.8100848    1935.2912  0.076324784  0.075738837            2 
 2114000   0.91083779   -2.8325029     1923.865  0.075838261  0.075723918            2 
 2115000   0.93397466   -2.8257884    1928.3751  0.075980107  0.075708891            3 
 2116000   0.92453466   -2.7927454    1927.7706  0.075920393  0.075694101            4 
 2117000   0.90659042   -2.8159607    1931.0608  0.076014047  0.075679473            4 
 2118000   0.92084392   -2.8193376    1928.8557  0.075891393  0.075664634            3 
 2119000   0.90917773   -2.8381717     1928.983  0.075860587   0.07564992            2 
 2120000   0.92134904   -2.8060265    1923.6081  0.075613525  0.075635259            2 
 2121000   0.90851006   -2.8155016    1932.7798   0.07593823  0.075620453            1 
 2122000   0.90724364   -2.8041164    1934.8838  0.075985068  0.075605737            1 
 2123000   0.91934087   -2.8442991    1924.9587   0.07555969  0.075590725            2 
 2124000   0.92319738   -2.7872515    1927.3614  0.075618386  0.075575685            4 
 2125000    0.9049202   -2.8218389    1922.3921  0.075387926  0.075560699            3 
 2126000    0.9101681   -2.8182317     1933.756  0.075797899  0.075545591            2 
 2127000   0.88712569   -2.8237666    1928.5271  0.075557401  0.075530582            3 
 2128000   0.91256633   -2.8165392    1938.0994  0.075896751  0.075515661            3 
 2129000   0.92592451   -2.8233109    1930.8667     0.075578  0.075500805            1 
 2130000   0.90545939   -2.7826698    1932.2364  0.075596104  0.075485925            3 
 2131000   0.90967349   -2.8204093    1938.4002  0.075801664   0.07547098            3 
 2132000   0.91288844   -2.7912834    1934.8134  0.075625913  0.075456127            2 
 2133000    0.9278841    -2.815055    1942.4031  0.075886979  0.075441102            2 
 2134000   0.91765825   -2.8186426    1933.7248  0.075512526  0.075425995            6 
 2135000   0.90267656   -2.8035017    1937.7154  0.075632918  0.075411252            4 
 2136000   0.90095644   -2.8094492    1941.8486  0.075758761  0.075396455            3 
 2137000   0.91074613   -2.8031059     1936.514  0.075515286  0.075381407            2 
 2138000   0.89289152   -2.8127242    1940.0294  0.075616985  0.075366767            3 
 2139000   0.91094796   -2.8411925    1936.4788  0.075443308  0.075352038            2 
 2140000   0.90708564   -2.8249669    1944.3066  0.075712875  0.075337277            3 
 2141000   0.89965455   -2.8342326     1941.007   0.07554908  0.075322511            2 
 2142000   0.91616149   -2.8224954    1939.2896  0.075446997  0.075308055            4 
 2143000   0.90164439    -2.823959    1942.4575  0.075534976  0.075293319            2 
 2144000   0.91053412   -2.8034278     1940.837  0.075436761  0.075278643            2 
 2145000    0.9166417   -2.8399428    1946.4473  0.075619555  0.075263933            2 
 2146000   0.89886801   -2.8230776    1940.1683  0.075340489  0.075249185            5 
 2147000   0.92091761   -2.8331858    1939.0265  0.075261079  0.075234218            2 
 2148000   0.90232446   -2.8220044    1949.8217  0.075644854  0.075219464            4 
 2149000   0.92357803   -2.8338163    1950.6403  0.075641397   0.07520462            1 
 2150000   0.92150959   -2.8366476     1943.593  0.075333062  0.075189884            3 
 2151000   0.91157656    -2.831147    1944.4655   0.07533184  0.075175225            3 
 2152000   0.89992772   -2.8250254    1953.4867  0.075646169  0.075160777            2 
 2153000   0.90307222   -2.8515075     1946.318  0.075333564  0.075146118            3 
 2154000   0.90117034   -2.7989858    1949.5788  0.075424746  0.075131467            2 
 2155000   0.90416791   -2.8065331    1950.4439  0.075423199  0.075117002            4 
 2156000    0.9117998   -2.8067994    1950.9358  0.075407226  0.075102409            1 
 2157000   0.90159012   -2.8165516    1947.4205  0.075236458  0.075087525            2 
 2158000   0.90211117   -2.8321904    1951.2518  0.075349544   0.07507269            3 
 2159000   0.93282369   -2.8389021    1946.6771  0.075138069  0.075058162            3 
 2160000   0.90038978   -2.8467955     1953.578   0.07536952  0.075043619            3 
 2161000   0.90272394   -2.8240159     1953.577  0.075334605  0.075028765            2 
 2162000    0.8967679   -2.8471784      1954.18  0.075323004  0.075014087            4 
 2163000   0.88095385   -2.8344681    1952.7249  0.075232118  0.074999446            7 
 2164000   0.88008161   -2.8585037    1955.5966  0.075307941  0.074984827            2 
 2165000   0.90056435   -2.8512972    1957.5388  0.075347914  0.074970252            1 
 2166000   0.89541487   -2.8205614    1950.5146  0.075042884  0.074955829            4 
 2167000   0.88600843   -2.8504888    1960.3433  0.075386221  0.074941467            4 
 2168000   0.87496835   -2.8571678    1959.0344  0.075301136  0.074926875            3 
 2169000   0.89098019   -2.8246108    1961.3593  0.075355745  0.074912074            3 
 2170000   0.89985813   -2.8185429    1964.0643  0.075424897  0.074897728            1 
 2171000   0.91182697   -2.8194102    1965.8573  0.075458978  0.074883655            3 
 2172000   0.91107399   -2.8368471    1956.1615  0.075052237  0.074869233            2 
 2173000   0.92019288   -2.8427477    1961.3611  0.075217101  0.074854921            3 
 2174000   0.90665084   -2.8453492    1961.2185  0.075177036  0.074840456            1 
 2175000   0.89695961   -2.8115624    1961.9345  0.075169905  0.074826065            3 
 2176000    0.9016593   -2.8463056    1963.1298  0.075181135  0.074811553            2 
 2177000   0.88874082   -2.7893195    1964.6509  0.075204826  0.074797086            4 
 2178000   0.91846265   -2.8300093    1962.9459  0.075105061  0.074782567            3 
 2179000   0.90621996   -2.8503273    1964.0863  0.075114209  0.074767955            2 
 2180000   0.91331052   -2.8405588     1962.715  0.075027331  0.074753228            3 
 2181000   0.90074339   -2.8213065    1961.1971  0.074934936  0.074738665            1 
 2182000   0.91112339    -2.828645    1961.7136  0.074920318  0.074723951            5 
 2183000   0.90631001   -2.8164957    1961.1659   0.07486509  0.074709308            5 
 2184000   0.89898025   -2.8147013    1954.7596  0.074586369  0.074694606            3 
 2185000    0.9111404    -2.821041     1967.349  0.075032379  0.074679848            3 
 2186000   0.91028816   -2.8536463    1968.9504  0.075059104  0.074665111            2 
 2187000   0.88784279   -2.8154771    1962.5984  0.074782748  0.074650427            3 
 2188000   0.90144686   -2.8225882    1960.8436  0.074681736  0.074635937            2 
 2189000   0.92091924   -2.8279219    1969.9953  0.074996015  0.074620971            2 
 2190000   0.90627036   -2.8272372    1968.7392  0.074913972  0.074606233            4 
 2191000   0.88040184    -2.844369    1970.8672  0.074960717   0.07459146            2 
 2192000   0.89236056   -2.8132385    1970.2211  0.074901958  0.074576678            5 
 2193000   0.91052412   -2.8034427    1968.6617  0.074808545  0.074561853            4 
 2194000   0.89979575   -2.8368983    1969.3992  0.074802463  0.074547168            2 
 2195000   0.90539608   -2.8583757     1970.994  0.074828928  0.074532417            4 
 2196000    0.8918841   -2.8464464    1974.5835  0.074931069  0.074517507            4 
 2197000   0.89465332   -2.8126847     1967.972  0.074646183  0.074502767            2 
 2198000   0.88003293   -2.8557485    1975.6518  0.074903388  0.074488055            4 
 2199000   0.89566916   -2.8197124    1972.4417  0.074747678  0.074473389            3 
 2200000   0.89857422   -2.8581295     1977.866  0.074919168  0.074458734            2 
 2201000   0.90073173   -2.8516536    1972.5084  0.074682279  0.074444224            4 
 2202000   0.89097029   -2.8086364     1977.648   0.07484287  0.074429619            2 
 2203000    0.8844927   -2.8195982    1971.2735  0.074567766  0.074415309            4 
 2204000   0.91499806   -2.8404003    1980.4417  0.074880583  0.074400808            1 
 2205000   0.89594113   -2.8326417    1976.3582    0.0746923  0.074386433            2 
 2206000    0.8855583   -2.8338086    1976.2299  0.074653593  0.074371794            3 
 2207000   0.92045497   -2.8245718    1980.4776  0.074780154  0.074357192            3 
 2208000   0.88528812   -2.8393229    1975.3541  0.074552919  0.074342467            4 
 2209000   0.89792718   -2.8375417    1973.1833  0.074437276  0.074327881            2 
 2210000   0.88652189   -2.8118104    1985.4874  0.074867549  0.074313215            6 
 2211000   0.89670517   -2.8430838    1974.0419  0.074402303  0.074298721            2 
 2212000   0.88313361   -2.8557816     1982.115  0.074672809  0.074284105            2 
 2213000    0.9013841   -2.8370754     1973.705  0.074322375  0.074269387            4 
 2214000   0.90150575   -2.8235582     1978.522  0.074470113  0.074254873            2 
 2215000   0.89514677   -2.8507143    1977.3965  0.074394151  0.074240183            1 
 2216000   0.88068475   -2.8104516    1982.4375  0.074550145  0.074225558            2 
 2217000   0.91503735   -2.8177714    1982.6711  0.074525299  0.074211088            4 
 2218000   0.91913902   -2.8430756    1984.7371  0.074569323  0.074196294            2 
 2219000   0.89512957   -2.8393081    1982.2655  0.074442898  0.074181399            4 
 2220000   0.88072102   -2.8295115    1985.1455  0.074517474  0.074166797            4 
 2221000   0.91566928    -2.840614     1984.978  0.074477637  0.074152251            4 
 2222000   0.91977844   -2.8547894    1982.9844  0.074369353  0.074137416            3 
 2223000   0.88596076   -2.8267963    1985.5067   0.07443045  0.074123018            2 
 2224000   0.89549288   -2.8465921     1981.758  0.074256521    0.0741083            3 
 2225000   0.90107739   -2.8172166    1994.4085  0.074696947  0.074093724            3 
 2226000   0.87677741   -2.8430441    1991.0948  0.074539338  0.074079087            2 
 2227000   0.89387515   -2.8389034    1988.9035  0.074423868  0.074064669            3 
 2228000   0.88613126   -2.8599007    1983.6905  0.074195484  0.074050216            2 
 2229000   0.91149294   -2.8226239    1993.5976  0.074532584  0.074035657            1 
 2230000   0.91026637   -2.8360906    1992.9083  0.074473405  0.074021411            2 
 2231000   0.88209839   -2.8460556    1991.5118   0.07438786  0.074007224            2 
 2232000   0.88948931   -2.8615194    1987.4419   0.07420258  0.073992793            1 
 2233000   0.88768065    -2.845008    1987.9083  0.074186757  0.073978359            2 
 2234000   0.90970692   -2.8550658     1992.243  0.074315241  0.073964048            5 
 2235000   0.89034058   -2.8349578    2000.1537  0.074576948  0.073949471            3 
 2236000   0.89361591   -2.8352631     1992.115     0.074244   0.07393491            2 
 2237000   0.90636987   -2.8314003    1995.7287   0.07434543  0.073920554            5 
 2238000    0.8867774   -2.8597969    1995.7078  0.074311431  0.073906002            2 
 2239000   0.90086651   -2.8457384    1988.7288   0.07401849  0.073891353            1 
 2240000   0.88186041   -2.8263487    1997.3464  0.074306041  0.073876561            2 
 2241000   0.88417161   -2.8352348    1994.9941   0.07418541  0.073862186            4 
 2242000   0.88415265   -2.8345772    2001.3835  0.074389813  0.073847819            3 
 2243000   0.89219377   -2.8450941    1993.6755  0.074070275  0.073833358            2 
 2244000   0.88531724   -2.8649709     2002.033  0.074347629  0.073819178            5 
 2245000   0.88860994   -2.8537419    2005.6659  0.074449366    0.0738049            3 
 2246000   0.88978571   -2.8489711     2001.609  0.074265694  0.073790665            4 
 2247000   0.88485159    -2.838102     1991.588     0.073861   0.07377621            3 
 2248000   0.87339507   -2.8422112    2000.3082  0.074151401  0.073761679            2 
 2249000   0.89689075   -2.8334277    2005.0486  0.074294077  0.073747417            1 
 2250000   0.88669246   -2.8515351    1997.7359  0.073990218  0.073733272            4 
 2251000   0.89827692   -2.8538896    2005.3668   0.07423985  0.073718948            4 
 2252000   0.89024844   -2.8490121    2007.4726  0.074284804   0.07370486            3 
 2253000   0.89918927   -2.8256299    2010.2899   0.07435604  0.073690844            2 
 2254000   0.86994269   -2.8686813     2002.167  0.074022738  0.073676682            2 
 2255000   0.89254928   -2.8858557    2008.7126  0.074231804  0.073662304            3 
 2256000   0.89876957   -2.8857523    2004.5187  0.074043982  0.073648264            2 
 2257000   0.89828027   -2.8488827    2003.6489  0.073979063  0.073634197            4 
 2258000   0.88941665   -2.8260854    2013.3222  0.074303299  0.073620209            2 
 2259000   0.88260492   -2.8425801    2009.2105   0.07411873  0.073606103            1 
 2260000    0.8764117   -2.8234797      2011.41  0.074167035  0.073592137            3 
 2261000   0.89445215   -2.8379346    2015.1835  0.074273313  0.073578441            3 
 2262000   0.86612029   -2.8474607    2015.8577  0.074265316   0.07356452            2 
 2263000   0.90992498    -2.845052    2020.6932  0.074410561  0.073550541            2 
 2264000   0.88511614   -2.8638615    2015.1565  0.074173898  0.073536835            4 
 2265000   0.89912717   -2.8388366    2014.2637  0.074108304  0.073523036            4 
 2266000    0.8992474   -2.8206295    2024.3464  0.074446395  0.073509469            7 
 2267000   0.87980826   -2.8579908    2013.3499  0.074009332   0.07349584            2 
 2268000   0.91827436   -2.8615811    2015.4682  0.074054535  0.073482268            2 
 2269000   0.89578392   -2.8647764    2020.6572  0.074212472  0.073468709            2 
 2270000   0.88583397   -2.8281825    2025.8241   0.07436946  0.073455191            7 
 2271000   0.87398438   -2.8560675    2019.7601  0.074114196  0.073441582            5 
 2272000   0.88634443   -2.8478981    2020.7844  0.074119145  0.073428014            2 
 2273000   0.87898558   -2.8509498    2019.6547  0.074045122  0.073414607            2 
 2274000   0.89631486   -2.8403622    2024.1079  0.074175752     0.073401            3 
 2275000   0.89275757   -2.8378724    2020.3394  0.074005106  0.073387523            3 
 2276000   0.88398997   -2.8546587    2015.9953  0.073813537  0.073374051            3 
 2277000   0.88665938      -2.8478    2027.5308  0.074203295  0.073360313            2 
 2278000   0.89474275   -2.8592228    2019.2694  0.073868505  0.073346724            3 
 2279000   0.87782705   -2.8388954    2024.3365  0.074021374  0.073333063            2 
 2280000   0.92713177   -2.8638185     2028.097  0.074126351  0.073319258            5 
 2281000   0.87797391   -2.8714128    2026.9688  0.074052638  0.073305562            2 
 2282000    0.8900493    -2.856514    2023.5704  0.073896084  0.073291822            5 
 2283000    0.8999322   -2.8484972    2016.3839  0.073601396   0.07327817            2 
 2284000   0.87911956   -2.8425972    2030.2029   0.07407337  0.073264468            2 
 2285000   0.88757008    -2.828988    2031.9967   0.07410637  0.073250617            3 
 2286000   0.90391057   -2.8480114    2038.8711  0.074324553  0.073236914            2 
 2287000   0.87805022   -2.8789671    2027.5924  0.073881081   0.07322335            3 
 2288000   0.88562778   -2.8480967    2026.1855  0.073797547  0.073209829            1 
 2289000   0.89269764   -2.8535485    2024.0037  0.073685877  0.073196109            4 
 2290000   0.88932989   -2.8624783    2029.4983   0.07385365  0.073182354            6 
 2291000   0.89807336   -2.8474792    2030.3123  0.073851021  0.073168839            3 
 2292000   0.89015546   -2.8935972    2032.6128  0.073902443  0.073155119            5 
 2293000   0.89613136   -2.8495261    2023.6089  0.073542989   0.07314139            4 
 2294000   0.88968738   -2.8612062    2032.0482  0.073817504  0.073127749            5 
 2295000   0.90002052   -2.8618224    2030.2319  0.073719385  0.073114058            5 
 2296000   0.89589598   -2.8545372    2035.0717  0.073862939  0.073100349            4 
 2297000   0.88632332   -2.8531957    2031.5067  0.073701447  0.073086839            2 
 2298000   0.89377434   -2.8596026    2029.5829   0.07359961  0.073073148            5 
 2299000   0.88387673   -2.8452597    2031.6736  0.073643383  0.073059461            2 
 2300000   0.86878484   -2.8458744    2036.7885  0.073796685  0.073045879            2 
 2301000   0.87863748   -2.8505093    2028.2949  0.073457008  0.073032323            2 
 2302000    0.8961168   -2.8618963    2032.2298  0.073567543  0.073018971            2 
 2303000   0.88717025    -2.875998    2029.6594   0.07344259  0.073005202            3 
 2304000   0.87517184   -2.8489391    2039.4748  0.073765726  0.072991743            2 
 2305000    0.8811807   -2.8584276    2039.8082  0.073745778  0.072978086            3 
 2306000   0.88819208   -2.8597599    2035.9959   0.07357603  0.072964491            3 
 2307000   0.90727538   -2.8887109    2028.4467  0.073271444  0.072950572            3 
 2308000    0.8701532   -2.8796542    2035.1574  0.073481997  0.072936702            4 
 2309000   0.88602147   -2.8528205     2039.036  0.073590155  0.072922869            2 
 2310000   0.89017907   -2.8564266    2039.5541  0.073576987  0.072909406            2 
 2311000   0.88077239   -2.8503103    2035.7356  0.073407456  0.072895638            4 
 2312000    0.8856017    -2.881174    2037.0018  0.073421344  0.072881697            3 
 2313000   0.86497017   -2.8787111    2030.7921  0.073165879  0.072867979            4 
 2314000   0.87336289   -2.8408385    2039.3913   0.07344394  0.072854278            1 
 2315000   0.88522117   -2.8696984    2040.8544   0.07346488  0.072840607            2 
 2316000   0.87405589   -2.8379285    2039.9079  0.073399104  0.072826683            3 
 2317000   0.87968645   -2.8653279    2044.0291   0.07351565  0.072813122            3 
 2318000   0.87838593   -2.8719484    2043.8484  0.073477437  0.072799354            3 
 2319000    0.8714201   -2.8427099     2040.294  0.073318026  0.072785565            5 
 2320000    0.8792137   -2.8462047    2041.2846  0.073322003  0.072771797            4 
 2321000   0.86346717   -2.8786914    2046.8714  0.073491001  0.072758255            2 
 2322000   0.88483522   -2.8407981    2044.8012  0.073385055  0.072744862            4 
 2323000    0.8853405    -2.863179    2046.5198  0.073415118  0.072731199            7 
 2324000   0.87672849   -2.8590614    2045.1871  0.073335739   0.07271767            5 
 2325000   0.87590814    -2.881751    2041.7635  0.073181487  0.072704156            7 
 2326000   0.89770142   -2.8552933      2052.62  0.073538981  0.072690573            7 
 2327000   0.88921933   -2.8633255    2049.0991  0.073381289  0.072676955            2 
 2328000   0.87887215   -2.8683599    2047.1117  0.073278626  0.072663511            4 
 2329000   0.88503647   -2.8362908    2048.8852  0.073310618  0.072649793            2 
 2330000   0.87880921   -2.8623014    2049.8783  0.073314675  0.072636361            2 
 2331000   0.88038501   -2.8669182    2054.0142  0.073431083  0.072622732            3 
 2332000   0.87499078   -2.8301202    2060.8775  0.073644851  0.072609113            7 
 2333000   0.87774749   -2.8481469     2061.786  0.073645735   0.07259585            2 
 2334000   0.90733691   -2.8633785    2051.6351  0.073251754  0.072582459            5 
 2335000   0.88479079   -2.8525005    2052.3238   0.07324496  0.072569069            4 
 2336000   0.87384529   -2.8558514    2053.5842  0.073258569  0.072555404            1 
 2337000   0.87949652   -2.8456299    2057.2828  0.073359107  0.072541993            2 
 2338000   0.89816301   -2.8676666     2052.832   0.07316909  0.072528421            3 
 2339000   0.86851289   -2.8755883    2053.8758  0.073174998  0.072514737            3 
 2340000   0.87324505   -2.8558809    2053.3241  0.073124076  0.072501008            1 
 2341000   0.86740684    -2.856356      2051.61  0.073031825  0.072487264            4 
 2342000    0.8637367   -2.8424303    2054.6487  0.073108765  0.072473135            2 
 2343000   0.88152077   -2.8711509    2049.9552  0.072910628  0.072459256            3 
 2344000   0.88679922   -2.8879376    2049.4551  0.072861743  0.072445436            2 
 2345000   0.87382635   -2.8648187    2050.4793  0.072867068  0.072431666            2 
 2346000   0.85987006   -2.8548165    2051.2422  0.072863107  0.072417805            5 
 2347000   0.88954646   -2.8648418    2058.1267  0.073076506  0.072404174            2 
 2348000   0.89318515   -2.8575947    2064.2408  0.073262378  0.072390554            2 
 2349000   0.89086789   -2.8593627    2052.3768  0.072810302  0.072376851            2 
 2350000   0.86376395   -2.8433673    2057.5224  0.072961787   0.07236337            4 
 2351000   0.86319218   -2.8567714    2065.4178  0.073210612  0.072349914            2 
 2352000   0.88341682   -2.8660276    2060.4322   0.07300284  0.072336284            3 
 2353000    0.8722722   -2.8466408    2059.7854  0.072948908  0.072322891            6 
 2354000   0.86484525   -2.8596895    2062.7377  0.073022432  0.072309336            3 
 2355000   0.87297166   -2.8413427    2063.3417  0.073012799  0.072295763            4 
 2356000   0.87900283   -2.8409216    2060.6135   0.07288531  0.072282264            3 
 2357000   0.87227829   -2.8698579    2069.6331  0.073173283  0.072268981            8 
 2358000   0.88789868   -2.8843187    2060.2207  0.072809609  0.072255463            3 
 2359000   0.86854788   -2.8890524    2066.5235  0.073001394  0.072241892            2 
 2360000   0.87264036   -2.8435457    2065.4678  0.072933185  0.072228563            3 
 2361000   0.87620964   -2.8772221    2071.6715  0.073121257  0.072215358            3 
 2362000    0.8674492   -2.8684833    2063.5962  0.072805397  0.072201962            3 
 2363000   0.86402468   -2.8557833    2065.3977   0.07283812  0.072188561            3 
 2364000   0.86663519   -2.8697312     2068.872  0.072929781  0.072175047            4 
 2365000   0.83012495   -2.8888196    2059.3857  0.072564684  0.072161397            3 
 2366000   0.87898588   -2.8735852    2065.4569  0.072747849  0.072147805            3 
 2367000   0.85380722   -2.8826042    2070.5972  0.072898086  0.072134252            5 
 2368000   0.86797224   -2.8491636    2071.1057  0.072885194  0.072120661            3 
 2369000    0.8901929    -2.869243    2072.5646  0.072905748   0.07210709            3 
 2370000   0.85451134   -2.8557011    2069.6724  0.072773291  0.072093432            2 
 2371000   0.86874678   -2.8944423    2068.4772  0.072700591  0.072079678            4 
 2372000   0.86496647   -2.8656104    2066.1432  0.072587942  0.072065964            4 
 2373000   0.88442494   -2.8847079    2067.0303  0.072588507  0.072052312            4 
 2374000   0.87529338   -2.8573566    2075.1674  0.072843561   0.07203878            5 
 2375000   0.87047104   -2.8623837    2070.1648  0.072637361  0.072025129            2 
 2376000   0.86508195   -2.8471034    2073.0467  0.072707867  0.072011391            3 
 2377000   0.86804795    -2.867271    2072.0695   0.07264302  0.071997857            6 
 2378000    0.8886543   -2.8974156    2074.6675  0.072703515  0.071984114            5 
 2379000   0.88085165   -2.8767649    2066.7111  0.072394251  0.071970528            3 
 2380000   0.87282936   -2.8845778    2073.8674  0.072614403  0.071957058            2 
 2381000    0.8912604   -2.8671625    2077.5721  0.072713568  0.071943664            2 
 2382000    0.8694397     -2.88312    2079.6533  0.072755853  0.071930361            5 
 2383000   0.87118413   -2.8896362    2077.8179  0.072661136  0.071917057            2 
 2384000   0.86676568   -2.8509117    2083.3636  0.072824509  0.071903756            2 
 2385000   0.85021667   -2.8639213    2083.2723  0.072790786  0.071890449            3 
 2386000   0.90799953   -2.8634451    2085.4429   0.07283609  0.071877149            1 
 2387000   0.87299072   -2.8815188    2084.9764  0.072789288  0.071864124            7 
 2388000   0.86230303    -2.877253    2090.2377  0.072942411  0.071851126            4 
 2389000   0.88730006   -2.8565902    2079.8874  0.072550839  0.071838009            3 
 2390000   0.85865885   -2.8602297    2079.6125  0.072510897  0.071824835            4 
 2391000   0.86443542   -2.8736645    2090.1948  0.072849392  0.071811524            5 
 2392000     0.879243    -2.869099    2084.8652  0.072633262  0.071798135            3 
 2393000   0.85509545     -2.89109    2084.9957  0.072607455  0.071784768            6 
 2394000   0.85635348   -2.8701499    2084.8615  0.072572454  0.071771171            3 
 2395000   0.88087394     -2.90188    2082.2122   0.07244997  0.071757914            3 
 2396000   0.85446814   -2.8531685    2081.5937  0.072398223  0.071744479            2 
 2397000   0.87349882   -2.8923197     2086.887  0.072552043  0.071731245            4 
 2398000   0.85213927   -2.8871488     2087.927  0.072557931  0.071717903            9 
 2399000   0.87380529   -2.8559074    2080.8016  0.072280171  0.071704612            4 
 2400000   0.88943158   -2.8669056    2079.7673  0.072214143  0.071691193            5 
 2401000   0.89150687   -2.8772336    2089.5394  0.072523234  0.071677798            3 
 2402000   0.87807685   -2.8913498    2088.2989  0.072450002  0.071664371            3 
 2403000   0.88250501   -2.8803978    2092.6957  0.072572331  0.071650894            2 
 2404000   0.86807721   -2.9133784    2086.6549  0.072332739  0.071637363            2 
 2405000   0.86965224    -2.880329    2089.5401  0.072402638  0.071624053            2 
 2406000   0.87644109    -2.849972    2096.4779   0.07261284   0.07161092            2 
 2407000   0.87515815   -2.8680085    2093.2374  0.072470482  0.071597857            3 
 2408000   0.88184634   -2.8894387    2096.0996  0.072539437  0.071584622            3 
 2409000   0.86892621   -2.8697006    2085.7433  0.072151074  0.071571398            3 
 2410000   0.85671033   -2.8605308    2101.2419  0.072657049   0.07155834            3 
 2411000   0.87582017   -2.8848183    2091.1015  0.072276425  0.071545346            3 
 2412000   0.88165131   -2.8769617    2097.1866  0.072456697  0.071532579            2 
 2413000   0.84920638   -2.8798851    2089.7659  0.072170394  0.071519797            2 
 2414000   0.85614449   -2.8805735    2095.1399  0.072326013  0.071506831            2 
 2415000   0.86565158   -2.8878093    2095.5591  0.072310528  0.071493951            2 
 2416000   0.86438031   -2.8952973    2094.1407  0.072231673  0.071481099            4 
 2417000   0.86965317   -2.8731162    2101.8679  0.072468209  0.071468227           11 
 2418000    0.8704019   -2.8844083     2100.531  0.072392162  0.071455347            1 
 2419000   0.86974065   -2.8816487    2107.1815  0.072591342  0.071442475            5 
 2420000   0.87919538   -2.8766462    2096.2875  0.072186209  0.071429528            5 
 2421000   0.87404882   -2.9034977    2099.0988  0.072253161  0.071416583            2 
 2422000   0.85293219   -2.8521741     2094.018  0.072048512  0.071403537            4 
 2423000   0.84989149   -2.8699655    2100.7506   0.07225033  0.071390393            4 
 2424000   0.87455593   -2.8765094    2093.3764  0.071967012  0.071377152            2 
 2425000   0.86195437   -2.8852104    2101.5675  0.072218814  0.071364187            3 
 2426000    0.8683686   -2.8725933    2092.8801  0.071890632  0.071351008            2 
 2427000   0.86379933   -2.8863273    2099.2075  0.072078269  0.071337843            3 
 2428000    0.8797905   -2.9030354    2101.3173  0.072120994  0.071324706            5 
 2429000   0.88195863   -2.8863237    2110.6691   0.07241214  0.071311764            5 
 2430000   0.86866196   -2.8960797    2100.9362  0.072048565  0.071298725            2 
 2431000   0.86562937   -2.8942197    2103.3664  0.072102236    0.0712858            3 
 2432000   0.89096947   -2.8642724    2119.5488  0.072627085   0.07127302            3 
 2433000   0.84944895   -2.8842624    2106.0336   0.07213432  0.071260224            5 
 2434000   0.88214593   -2.9017392    2109.3774  0.072219165  0.071247414            3 
 2435000   0.87087304   -2.8658009    2110.1245  0.072215075  0.071234887            2 
 2436000   0.85364462   -2.9024746    2116.0274  0.072387361  0.071222105            3 
 2437000   0.86584488   -2.8836184    2113.6686     0.072277  0.071209351            1 
 2438000   0.86074977   -2.8822314     2119.741  0.072454914  0.071196604            4 
 2439000   0.86616371   -2.8953428    2116.0157  0.072297928  0.071184174            4 
 2440000   0.86556603   -2.8734909    2113.1152  0.072169236  0.071171508            2 
 2441000   0.85026232   -2.9090918    2107.2803  0.071940471  0.071158699            4 
 2442000   0.83486334   -2.8936789    2117.6527  0.072264972  0.071146094            1 
 2443000    0.8667721   -2.8928478    2113.4611  0.072092409  0.071133549            2 
 2444000   0.85887364   -2.8768746    2115.8915  0.072145782  0.071120806            4 
 2445000   0.86700679    -2.892919    2116.2755  0.072129361  0.071108253            2 
 2446000   0.87390776   -2.8965111    2116.5351  0.072108717  0.071095607            3 
 2447000   0.87191162   -2.9004102    2118.4078  0.072143027  0.071082576            8 
 2448000   0.85497744   -2.9156392    2111.0375   0.07186266  0.071069814            7 
 2449000   0.85335227   -2.9071799    2117.6173  0.072057212   0.07105689            2 
 2450000   0.86210261   -2.8900592    2122.1287  0.072181248  0.071044337            3 
 2451000   0.86374392   -2.9133636    2113.2539  0.071850059   0.07103176            4 
 2452000   0.86757732   -2.8668147     2134.054  0.072527663  0.071019092            6 
 2453000   0.86701512   -2.8837861    2120.7532  0.072046242  0.071006551            3 
 2454000   0.86775462   -2.8675459    2127.1264  0.072233306  0.070994071            3 
 2455000   0.85812687   -2.8774413    2123.7098  0.072087909   0.07098149            5 
 2456000   0.85683681   -2.8972473    2122.5091  0.072017816  0.070968592            7 
 2457000   0.85865102   -2.8737883    2120.0606   0.07190546  0.070955955            2 
 2458000   0.86977872   -2.8719549    2122.9024  0.071972551  0.070943385            2 
 2459000   0.85062569   -2.8973332    2124.6432  0.072002277  0.070930911            3 
 2460000   0.87009174   -2.8757509    2134.6511  0.072312028  0.070918375            6 
 2461000   0.84206906   -2.8919082     2118.588  0.071738725  0.070905863            3 
 2462000   0.85874644   -2.8967269    2123.7586  0.071884599  0.070893118            4 
 2463000   0.85051182    -2.864694    2126.2891   0.07194103  0.070880532            1 
 2464000   0.86018625   -2.8870539    2122.5392   0.07178501  0.070867881            5 
 2465000   0.87011075   -2.8774816    2129.8932  0.072004504  0.070855476            2 
 2466000   0.84554446   -2.8766968     2131.335  0.072024028  0.070842906            3 
 2467000   0.87296271   -2.8772465    2132.2454  0.072025586  0.070830499            2 
 2468000   0.83991452   -2.8810633    2132.3526  0.072000019  0.070817776            3 
 2469000   0.86784346   -2.8795152    2131.5252  0.071942931  0.070805163            2 
 2470000   0.85835394   -2.8841335    2129.7189  0.071852864  0.070792809            7 
 2471000    0.8667997   -2.9048854    2132.4489  0.071915855  0.070780297            5 
 2472000   0.85131951   -2.8771658      2130.42  0.071818365  0.070767712            5 
 2473000   0.85785679   -2.8995446    2131.9717  0.071841614  0.070755296            5 
 2474000   0.85057973   -2.8901796    2131.6821   0.07180282  0.070742852            2 
 2475000   0.86505945   -2.8928252    2134.7927  0.071878543  0.070730531            2 
 2476000   0.86171621   -2.8934826    2140.2309  0.072032541  0.070718132            4 
 2477000    0.8491949   -2.8497403     2128.577  0.071611391  0.070705878            2 
 2478000   0.86894713   -2.8818186    2142.7399  0.072058782  0.070693544            3 
 2479000   0.85405446   -2.9107278    2132.6419  0.071690262  0.070681119            2 
 2480000    0.8535094   -2.8855161    2133.1986  0.071680061  0.070668581            2 
 2481000   0.85255847   -2.9081199     2141.764  0.071938869  0.070656167            4 
 2482000   0.86009934   -2.9058396    2139.0376  0.071818344  0.070643499            2 
 2483000   0.85011591   -2.8929171    2132.5191   0.07157065  0.070630743            4 
 2484000   0.85408614   -2.8680493    2135.7914  0.071651617   0.07061809            2 
 2485000   0.85847334   -2.8878412    2138.9063  0.071727239  0.070605561            2 
 2486000   0.83793313   -2.9095305    2132.7612  0.071492399  0.070592743            5 
 2487000   0.84065811   -2.9068481    2133.2172  0.071478932   0.07057986            4 
 2488000   0.85064264   -2.8645747    2134.8882  0.071506168  0.070567099            2 
 2489000   0.87157238   -2.9103356    2131.8732  0.071376496  0.070554433            2 
 2490000   0.86555859   -2.8975884    2134.5668  0.071437978   0.07054172            2 
 2491000   0.86870595   -2.9166041    2133.9802  0.071389675  0.070528935            3 
 2492000   0.85099251    -2.896194    2141.9783  0.071628488  0.070516218            5 
 2493000   0.84938817   -2.9156415     2132.993  0.071299406  0.070503439            5 
 2494000   0.85547199   -2.8682494     2142.888  0.071601444  0.070490583            4 
 2495000   0.84266112   -2.8970544    2134.7484   0.07130088  0.070477802            2 
 2496000   0.86049051   -2.8886936    2136.9113  0.071344528  0.070465044            6 
 2497000   0.85863669    -2.873276    2145.7943  0.071612412  0.070452533            8 
 2498000   0.84124348   -2.9038234    2137.5707  0.071309404  0.070439855            4 
 2499000   0.86935112   -2.8965795    2148.8118  0.071655723  0.070427277            3 
 2500000   0.85994933    -2.918221    2140.4497  0.071348324  0.070414578            2 
 2501000   0.85516101   -2.8930918    2141.2118   0.07134519  0.070402122            1 
 2502000   0.85718398   -2.9178468    2142.7634  0.071368351   0.07038936            3 
 2503000    0.8490043   -2.9021917    2145.3192  0.071424929  0.070376696            4 
 2504000   0.85222398    -2.873451    2147.1279    0.0714566  0.070364199            3 
 2505000   0.85369844   -2.8911111    2146.3352  0.071401703  0.070351748            2 
 2506000   0.86479737   -2.9272534    2141.8403  0.071223741  0.070338932            3 
 2507000   0.84119085   -2.8885075    2149.2958  0.071443151  0.070326387            2 
 2508000   0.84244854   -2.8972789    2148.3271  0.071382481   0.07031424            5 
 2509000   0.83218005   -2.8978067    2145.5588  0.071262082  0.070301706            6 
 2510000   0.85326917   -2.8970516    2138.8887  0.071012241   0.07028906            2 
 2511000   0.84977643   -2.9064982    2151.2636   0.07139465  0.070276618            5 
 2512000   0.83489705   -2.8957212    2155.3789   0.07150275  0.070264092            4 
 2513000   0.86548201   -2.9144596    2146.0005  0.071163301  0.070251338            2 
 2514000   0.84132957   -2.8784188    2155.4469  0.071448121  0.070238734            3 
 2515000   0.84283983   -2.9036092    2154.8746   0.07140075  0.070226188            2 
 2516000    0.8392759   -2.9008504    2161.4884  0.071591428  0.070213759            5 
 2517000   0.86389294   -2.9074314    2149.3201  0.071160116  0.070201257            2 
 2518000   0.84640399   -2.8875388    2157.1706  0.071391668   0.07018898            2 
 2519000   0.87922735   -2.9188104    2156.1279  0.071328831  0.070177006            3 
 2520000   0.83357688    -2.905168    2151.7635    0.0711562   0.07016458            2 
 2521000   0.83810329   -2.9107153     2155.633  0.071255883  0.070152167            2 
 2522000   0.84851724   -2.8757208    2156.4669  0.071255183   0.07013996            4 
 2523000   0.83263636   -2.8718563    2155.7014   0.07120166  0.070127791            6 
 2524000   0.87424661   -2.9076522    2161.1019  0.071351755  0.070115493            5 
 2525000   0.84158248   -2.8953066     2158.623  0.071241684  0.070103227            1 
 2526000   0.83742865   -2.8982703    2164.1672  0.071396386  0.070091068            2 
 2527000   0.85254984   -2.9005468    2156.1837  0.071104857  0.070078857            7 
 2528000   0.84906792   -2.9092441     2161.792  0.071261602  0.070066432            3 
 2529000   0.84225704   -2.9103997    2157.1748  0.071081285  0.070053998            4 
 2530000   0.84358297   -2.9343793    2162.4242  0.071226092  0.070041416            2 
 2531000   0.85690388   -2.9049441    2156.0367  0.070987643  0.070028814            6 
 2532000   0.84225966   -2.8955763    2158.5305  0.071041682  0.070016409            3 
 2533000    0.8520482   -2.9341554    2162.7109  0.071151167  0.070004119            5 
 2534000   0.82759293      -2.9255     2154.225  0.070844021  0.069991743            3 
 2535000    0.8348727   -2.9089606    2168.1589  0.071274125  0.069979467            2 
 2536000   0.85021107    -2.901659    2165.3346  0.071153215  0.069967271            4 
 2537000   0.86237049    -2.920106    2169.7938   0.07127164  0.069955184            4 
 2538000   0.84469662   -2.8893756    2167.9004  0.071181391  0.069942833            8 
 2539000   0.84840929    -2.910461     2164.363  0.071037253  0.069930506            6 
 2540000   0.83683227   -2.9180725    2159.1096  0.070836929   0.06991814            2 
 2541000   0.84726014   -2.9005102    2157.9348  0.070770525  0.069905744            3 
 2542000   0.84501857   -2.9010564    2169.2402  0.071113305  0.069893432            4 
 2543000   0.83432693   -2.8984242    2170.3166  0.071120611  0.069881277            3 
 2544000   0.85489682   -2.9132821    2165.4001  0.070931606  0.069869129            4 
 2545000   0.84848418   -2.9334556    2168.8919  0.071018072  0.069856819            5 
 2546000   0.84558299   -2.9207936    2171.1156   0.07106296  0.069844522            3 
 2547000   0.86140194    -2.909362    2161.7637  0.070729083  0.069832226            3 
 2548000    0.8319615   -2.9142967    2175.4444  0.071148757   0.06982003            3 
 2549000   0.81651909   -2.9258527    2161.4627  0.070663746  0.069807838            4 
 2550000   0.83881751   -2.8773865    2172.4472  0.070995006  0.069795545            3 
 2551000   0.82797813   -2.9139315    2170.7018  0.070910158  0.069783513            2 
 2552000   0.83378901    -2.928485    2169.3304   0.07083759  0.069771478            3 
 2553000   0.83114863   -2.9046948    2170.7417  0.070855911  0.069759138            4 
 2554000   0.83423802   -2.9084248    2168.6711  0.070760606   0.06974689            5 
 2555000   0.84325186   -2.9223721    2178.0082   0.07103745  0.069734798            5 
 2556000   0.83037554   -2.9435121    2168.2301  0.070690862  0.069722571            9 
 2557000   0.84522351   -2.9234773    2173.3348   0.07082958  0.069710549            2 
 2558000   0.84446534   -2.9057643    2177.4542   0.07093609  0.069698347            4 
 2559000    0.8363384   -2.8985625    2178.9597  0.070957394  0.069686345            3 
 2560000    0.8510564   -2.9043192    2179.1532  0.070935977  0.069674349            5 
 2561000   0.83568242   -2.8792026    2176.9269  0.070835837  0.069662438            4 
 2562000   0.81808626   -2.9113954    2176.5161  0.070794827  0.069650407            5 
 2563000   0.83698568   -2.9035135    2176.9323  0.070780735  0.069638389            3 
 2564000   0.83274641   -2.9206108    2182.6659  0.070939481  0.069626374            2 
 2565000   0.84202142   -2.8864442    2176.1043  0.070698646    0.0696145            2 
 2566000   0.84928557   -2.8912619    2189.4477  0.071104432  0.069602602            3 
 2567000   0.84573923   -2.8933836    2185.8337  0.070959412   0.06959067            3 
 2568000   0.84525775   -2.9008895    2181.9594  0.070806055  0.069578773            3 
 2569000    0.8473997   -2.8962273     2184.418  0.070858246  0.069566944            2 
 2570000   0.83080638   -2.9498309    2187.6346  0.070934974  0.069555027            4 
 2571000   0.83487354   -2.9109937    2189.9945  0.070983873   0.06954315            8 
 2572000   0.85933046    -2.902961    2190.8928   0.07098538  0.069531341            2 
 2573000   0.81654659   -2.9085404    2181.8699  0.070665563  0.069519419            3 
 2574000   0.84273377   -2.8935736    2192.9853  0.070997969  0.069507585            4 
 2575000   0.83961288   -2.8811588    2189.0321  0.070842462  0.069495938            3 
 2576000   0.82659461   -2.8819039    2197.7249  0.071096174  0.069484441            4 
 2577000   0.83443469   -2.8959838    2194.1554  0.070953156  0.069472601            6 
 2578000   0.83111991   -2.8958344    2194.2569  0.070928915   0.06946083            4 
 2579000   0.84658052   -2.9294692    2190.0893  0.070766748  0.069449066            4 
 2580000   0.83456135   -2.9156456    2188.2353  0.070679435   0.06943714            1 
 2581000   0.83603021   -2.9284606    2184.8259   0.07054197  0.069425179            3 
 2582000   0.84482599   -2.9170848    2192.6376   0.07076677  0.069413154            3 
 2583000   0.83662125   -2.9276077    2188.8164  0.070616094  0.069401224            5 
 2584000   0.83303881   -2.8997953    2188.0404  0.070563738  0.069389162            4 
 2585000   0.84199162   -2.9198581    2190.9494  0.070630218  0.069377319            3 
 2586000   0.85697297   -2.9131038    2198.6412  0.070850772  0.069365438            4 
 2587000   0.81592159   -2.8851761    2195.0268  0.070706959   0.06935365            3 
 2588000   0.83911599   -2.9188556    2190.2329  0.070525275  0.069341734            2 
 2589000   0.84166235   -2.9187096    2186.5376   0.07037909  0.069329905            3 
 2590000   0.83622983   -2.9228273    2192.8154  0.070553907  0.069318063            5 
 2591000   0.81252908   -2.9323321    2190.5261  0.070453045  0.069306075            5 
 2592000   0.86059251    -2.910505    2199.3629   0.07070997  0.069294066            6 
 2593000   0.85112165   -2.9059765    2200.2562  0.070711408   0.06928229            4 
 2594000   0.83966536   -2.9156386    2200.6141  0.070695647  0.069270449            3 
 2595000   0.81945565   -2.9219641    2209.9003  0.070966611  0.069258698            9 
 2596000   0.84467106   -2.9112852    2201.0043  0.070653709  0.069247003            2 
 2597000   0.81516205   -2.9275074    2201.2097  0.070633093  0.069235334            3 
 2598000   0.83026057   -2.9095719    2205.3789  0.070739637  0.069223615            5 
 2599000   0.85329984   -2.9138473    2197.1551  0.070448735  0.069211929            5 
 2600000   0.83354871   -2.9166101    2208.5341  0.070786348  0.069200462            2 
 2601000   0.81771029    -2.903494    2207.9433  0.070740206  0.069189166            2 
 2602000   0.84712097   -2.9046074    2205.9387  0.070648817  0.069177688            3 
 2603000   0.83896928    -2.946434    2196.5343    0.0703206  0.069166253            3 
 2604000    0.8185017   -2.9206662    2201.9708  0.070467577  0.069154408            4 
 2605000   0.84208739   -2.9391856    2196.9021  0.070278378  0.069142653            3 
 2606000   0.83710618   -2.9020738    2205.9818  0.070541756  0.069131113            2 
 2607000    0.8509678   -2.9309195    2206.7625  0.070539652  0.069119529            3 
 2608000   0.82622285   -2.9192722    2209.5769  0.070602533   0.06910797            2 
 2609000   0.83923182   -2.9174912    2204.9241   0.07042686  0.069096377            2 
 2610000   0.81979661   -2.9240024     2203.468  0.070353383  0.069084867            1 
 2611000   0.84028411   -2.9188495    2204.0956  0.070346469  0.069073387            4 
 2612000   0.82355362    -2.915016    2211.1935  0.070545991  0.069061711            3 
 2613000   0.84735965   -2.9074081    2210.4137  0.070494124  0.069049995            2 
 2614000   0.83997873   -2.9272056    2207.3792  0.070370417  0.069038369            2 
 2615000   0.83098663   -2.9133764     2207.425  0.070344964  0.069026726            3 
 2616000   0.82722635   -2.9063953    2211.1599  0.070437052  0.069015096            4 
 2617000   0.81860874   -2.9078099    2207.4228  0.070291136  0.069003395            2 
 2618000   0.81860507   -2.9508278    2202.0569  0.070093484  0.068991586            4 
 2619000   0.83582422   -2.9186252    2207.3396  0.070234809  0.068979667            4 
 2620000   0.84172829   -2.9131267    2210.6547  0.070313445  0.068968053            3 
 2621000   0.81628733   -2.9181711    2210.6486  0.070286422  0.068956342            2 
 2622000   0.84533715   -2.9344159    2205.1007  0.070083294  0.068944585            1 
 2623000   0.84568324   -2.9244931    2207.3962  0.070129503  0.068932839            2 
 2624000   0.83004777   -2.9427514    2212.7997   0.07027438  0.068921194            2 
 2625000   0.82303476   -2.8783396    2216.9711  0.070380035  0.068909643            1 
 2626000   0.82992918   -2.9234702    2211.9751  0.070194692  0.068897999            5 
 2627000   0.84851254   -2.9076122    2211.5749  0.070155276  0.068886193            4 
 2628000   0.81580256   -2.9232532    2212.4787  0.070157239  0.068874291            4 
 2629000   0.83755734   -2.9258473    2211.6563  0.070104486  0.068862516            4 
 2630000   0.81454024   -2.9241212    2217.4786  0.070262312  0.068850629            3 
 2631000   0.85223559   -2.9197969    2220.3247  0.070325755   0.06883881            6 
 2632000   0.84044719   -2.9366768    2219.7378  0.070280453  0.068826944            2 
 2633000   0.84049258   -2.9438828    2212.8184  0.070034763  0.068815128            3 
 2634000   0.82233744   -2.9179549    2217.1209  0.070144297  0.068803174            5 
 2635000   0.82558235   -2.9323282    2212.4896  0.069971207  0.068791346            4 
 2636000   0.84431304   -2.9334751    2212.1825  0.069934956  0.068779504            2 
 2637000   0.81985964   -2.9151125    2222.1139  0.070222283  0.068767595            1 
 2638000   0.83595631   -2.9141945    2218.1662  0.070070958  0.068755859            2 
 2639000   0.82446716   -2.9291767    2225.0943  0.070263176  0.068744231            3 
 2640000   0.82891528   -2.9200242    2224.0924  0.070204938  0.068732479            3 
 2641000   0.82154972    -2.946622    2217.0023  0.069954634  0.068720659            4 
 2642000   0.82125979   -2.9232845    2221.0307   0.07005522  0.068708781            3 
 2643000   0.82190531   -2.9369547     2214.837  0.069833428  0.068697059            2 
 2644000   0.82977844   -2.9054843    2221.1916    0.0700073  0.068685429            3 
 2645000   0.84944703   -2.9531473    2216.4142  0.069830316  0.068673633            5 
 2646000   0.82504751   -2.9309448    2223.5064  0.070027286  0.068661923            3 
 2647000   0.82703247   -2.9361232     2222.469  0.069968173  0.068650187            9 
 2648000   0.83441152   -2.9289312    2223.5485   0.06997572  0.068638578            5 
 2649000   0.84174473   -2.9363399    2223.3996  0.069944619  0.068626848            4 
 2650000   0.81306793   -2.9068527    2225.1418  0.069973014  0.068615046            2 
 2651000   0.82186348   -2.9467527    2217.8306  0.069716792  0.068603548            7 
 2652000   0.84250724   -2.9286377     2223.117  0.069856618  0.068591797            5 
 2653000    0.8277291   -2.9210439    2229.4148  0.070028108  0.068580183            3 
 2654000   0.81022896    -2.943681    2228.7272  0.069980131  0.068568636            3 
 2655000   0.81512952   -2.9384355    2229.3476  0.069973247   0.06855723            3 
 2656000   0.82600367   -2.9037103    2229.6795  0.069957314  0.068545687            8 
 2657000   0.81198328   -2.9233848    2230.7652  0.069965036  0.068534185            3 
 2658000   0.85043785   -2.9357551    2226.9727  0.069819812  0.068522559            4 
 2659000   0.81642492   -2.9383004    2232.7555  0.069974788   0.06851102            5 
 2660000   0.81118836   -2.9189534    2233.6636  0.069976929   0.06849944            4 
 2661000   0.83966562   -2.9397234    2231.0272  0.069868069  0.068487802            2 
 2662000   0.81967772   -2.9260596    2238.8587  0.070086987  0.068476379            3 
 2663000   0.82822928   -2.9610966    2223.5609  0.069581954  0.068464718            7 
 2664000    0.8347138   -2.9264046    2231.2673    0.0697969  0.068453114            3 
 2665000   0.84524489   -2.9233591    2231.7893  0.069787033  0.068441531            4 
 2666000   0.81617632    -2.943718    2234.2945  0.069839164  0.068430121            3 
 2667000   0.81723002   -2.9531312    2233.4858  0.069787709  0.068418654            5 
 2668000   0.83158395   -2.9363722    2225.2542  0.069504441  0.068407073            4 
 2669000   0.82567257   -2.9509148    2237.0734  0.069847427   0.06839554            5 
 2670000    0.8046259   -2.9337344    2229.9821  0.069599941  0.068384043            5 
 2671000   0.81366024    -2.946614    2237.7215  0.069815347  0.068372476            3 
 2672000    0.8150093   -2.9382591    2234.8993  0.069701201  0.068360833            5 
 2673000   0.84496524   -2.9509054    2233.8668  0.069642936  0.068349326            2 
 2674000   0.80488977   -2.9173955    2236.3495  0.069694262  0.068337776            5 
 2675000   0.81822916   -2.9589294     2238.982  0.069750218  0.068326004            3 
 2676000   0.82380274   -2.9354105     2239.099  0.069727796  0.068314299            3 
 2677000   0.81830439   -2.9408767    2240.4382  0.069743438   0.06830284            3 
 2678000   0.83719953   -2.9423372    2235.0138  0.069548599    0.0682914            2 
 2679000   0.79556115   -2.9117263    2236.5337  0.069569919  0.068279733            2 
 2680000   0.83710572   -2.9402841    2235.2817  0.069505027  0.068268137            2 
 2681000   0.81084275   -2.9220755    2233.3551  0.069419219  0.068256366            4 
 2682000   0.80730142   -2.9543443    2247.3428  0.069827951  0.068244629            4 
 2683000   0.81731503   -2.9276358    2236.0691  0.069451769  0.068233006            7 
 2684000   0.82164846   -2.9363052    2246.4692  0.069748795  0.068221232            3 
 2685000   0.84941504    -2.935634    2232.6374  0.069293527    0.0682093            9 
 2686000   0.81651693   -2.9262228    2236.7529  0.069395412  0.068197378            7 
 2687000   0.83377932    -2.926723    2247.7092  0.069709377  0.068185577            3 
 2688000   0.82652093   -2.9347371     2238.525  0.069398716  0.068173562            1 
 2689000   0.81842489   -2.9625745    2235.7983  0.069288406  0.068161613            2 
 2690000   0.81224481   -2.9459763    2244.1166  0.069520341  0.068149761            6 
 2691000   0.82772103   -2.9378778     2244.704  0.069512695  0.068137914            2 
 2692000    0.8390017   -2.9202918    2245.4204  0.069509051  0.068125964            6 
 2693000   0.81754282   -2.9396057    2234.3689  0.069141259   0.06811408            5 
 2694000    0.8165056   -2.9247812    2237.6528  0.069217174  0.068102058            4 
 2695000   0.81868135   -2.9724502    2233.2932  0.069056686  0.068089918            5 
 2696000   0.81851915   -2.9572635    2231.3552  0.068971169  0.068077764            4 
 2697000    0.8385397     -2.95328    2232.8711  0.068992433  0.068065617            3 
 2698000   0.83417034   -2.9263883    2234.6432  0.069021596  0.068053448            3 
 2699000   0.82848898    -2.944358     2237.788  0.069093121  0.068041469            4 
 2700000   0.81464098   -2.9498715    2239.2983  0.069114146  0.068029228            3 
 2701000   0.82592205   -2.9373525    2235.7132  0.068977947  0.068017265            5 
 2702000   0.82229397   -2.9234017    2242.2496  0.069154009  0.068005144            5 
 2703000   0.82465237   -2.9412663    2240.6149  0.069078029  0.067993033            4 
 2704000   0.81769291   -2.9259156    2243.9358  0.069154825  0.067980715            3 
 2705000   0.79856557    -2.915758    2245.8289  0.069187582  0.067968568            4 
 2706000   0.83125502   -2.9457096    2243.1852  0.069080597  0.067956439            2 
 2707000   0.79949351   -2.9494435    2243.9798  0.069079542  0.067944344            1 
 2708000   0.80800559    -2.924637    2247.6581  0.069167222  0.067932315            3 
 2709000   0.82654482   -2.9627189    2246.1601  0.069095609  0.067920284            4 
 2710000   0.80914282   -2.9440504    2247.2559  0.069103809  0.067908131            4 
 2711000   0.83177273   -2.9543163    2242.4538  0.068930708   0.06789603            6 
 2712000    0.8237149   -2.9419808    2247.6151  0.069063884  0.067883967            4 
 2713000   0.81665204   -2.9541962    2245.1604  0.068963031  0.067871934            5 
 2714000   0.81749777    -2.936839    2246.4018  0.068975736  0.067859986            2 
 2715000   0.79844881   -2.9474546     2244.331   0.06888677  0.067847914            4 
 2716000    0.8109108   -2.9439631    2244.6539  0.068871315  0.067835817            4 
 2717000   0.79721561   -2.9434166    2250.1571  0.069014757  0.067823689            2 
 2718000   0.82341626   -2.9255519    2248.0503  0.068924771  0.067811567            4 
 2719000   0.81548267   -2.9361123    2243.9936  0.068775088   0.06779938            4 
 2720000   0.80495398   -2.9652764    2245.4974  0.068795876  0.067787086            3 
 2721000   0.82485962   -2.9355385    2251.8531  0.068965242  0.067774984            3 
 2722000   0.80238798   -2.9358647     2255.286  0.069045004  0.067762979            2 
 2723000   0.82754987   -2.9351023    2244.7318  0.068696652  0.067751031            4 
 2724000   0.80273452   -2.9558272     2250.321  0.068842418  0.067738857            8 
 2725000    0.8065765   -2.9436063    2251.1231  0.068841684  0.067726818            7 
 2726000   0.82925558   -2.9243252    2249.2556  0.068759341  0.067714753            4 
 2727000   0.81344087    -2.951436    2250.3584  0.068767827  0.067702666            3 
 2728000   0.81173266   -2.9602215    2254.2307  0.068860908  0.067690698            6 
 2729000   0.81693623    -2.958475    2253.3866    0.0688099   0.06767863            2 
 2730000   0.81582445   -2.9445901    2253.4938  0.068787968  0.067666585            4 
 2731000   0.79814414    -2.964205    2262.5755  0.069039897  0.067654694            3 
 2732000     0.817239   -2.9243591    2256.5484  0.068830783  0.067642885            6 
 2733000   0.82012104   -2.9283398    2256.9482   0.06881779  0.067631142            6 
 2734000   0.82070069   -2.9762845    2252.8927  0.068669005   0.06761916            3 
 2735000   0.80884348   -2.9534245    2259.4536  0.068843803  0.067607204            3 
 2736000   0.81160155   -2.9408084    2256.3168  0.068723099  0.067595184            2 
 2737000   0.82727609   -2.9679827    2256.8508  0.068714248  0.067583206            3 
 2738000   0.81186655   -2.9383796    2255.2044  0.068639042  0.067571108            5 
 2739000   0.81708584   -2.9570806    2258.1561  0.068703787  0.067558919            4 
 2740000    0.8139015    -2.960988    2260.5866  0.068752633  0.067547024            2 
 2741000   0.84319462    -2.964012     2253.279  0.068505382  0.067535043            2 
 2742000   0.79223923   -2.9495168    2267.1324  0.068901423  0.067523092            6 
 2743000   0.82941796   -2.9455963    2260.1988  0.068665658  0.067511125            4 
 2744000   0.80035108   -2.9463821    2264.3716   0.06876736  0.067499001            4 
 2745000   0.81610436     -2.94133    2259.5945  0.068597281  0.067486853            4 
 2746000    0.8064465   -2.9291158    2261.1801   0.06862042  0.067474877            3 
 2747000   0.81741446   -2.9566343    2260.7562  0.068582579  0.067462909            6 
 2748000   0.81765545    -2.946772    2263.5499  0.068642344  0.067450689            3 
 2749000   0.80257129   -2.9726852    2258.5173  0.068464816   0.06743862            3 
 2750000   0.83138414   -2.9429403    2268.9742  0.068756795  0.067426446            4 
 2751000   0.80564444   -2.9414128    2261.8336  0.068515497   0.06741437            5 
 2752000   0.81261378   -2.9476797    2264.5829  0.068573852  0.067402369            4 
 2753000    0.8323068   -2.9289971    2270.2236  0.068719686  0.067390366            3 
 2754000   0.79961132   -2.9631655    2267.0284  0.068598052  0.067378582            3 
 2755000   0.80954704   -2.9399983    2270.2575  0.068670827   0.06736679            3 
 2756000   0.80324503    -2.960583    2268.3489  0.068588197    0.0673549            4 
 2757000   0.81040731   -2.9234131    2267.5931  0.068540475  0.067342836            3 
 2758000   0.82238703   -2.9437634    2273.0107  0.068679317  0.067330969            6 
 2759000   0.80818452    -2.938077    2268.0626  0.068504971  0.067319044            2 
 2760000   0.80880592    -2.949774     2273.017   0.06862974  0.067307211            8 
 2761000   0.79599425   -2.9664589    2279.1656  0.068790464  0.067295385            3 
 2762000   0.78286316   -2.9603203    2264.6382  0.068327244  0.067283518            2 
 2763000   0.80451434   -2.9520583     2268.619  0.068422577  0.067271748            2 
 2764000   0.80524581   -2.9246931    2270.4825  0.068454008  0.067260038            4 
 2765000   0.79565077   -2.9578617    2265.9099  0.068291438  0.067248079            4 
 2766000   0.80203339   -2.9438832    2269.1918  0.068365625  0.067236234            4 
 2767000   0.79722652    -2.966473    2271.9262  0.068423267  0.067224415            5 
 2768000   0.81655651   -2.9579331    2274.3086  0.068470274  0.067212472            4 
 2769000   0.81467845   -2.9502916    2277.5452  0.068542953  0.067200675            5 
 2770000    0.8001304   -2.9638328    2273.4816  0.068395957    0.0671891            6 
 2771000   0.80478294    -2.958237    2276.8971  0.068473989  0.067177562            4 
 2772000   0.81210912   -2.9599375    2279.5719    0.0685297  0.067165975            3 
 2773000   0.79179864   -2.9492218    2287.8423  0.068753524  0.067154351            2 
 2774000   0.82140477   -2.9631594    2287.1416  0.068707691  0.067142813            4 
 2775000   0.80914861   -2.9312498    2283.5305  0.068574491  0.067131234            2 
 2776000    0.8029361   -2.9251181    2280.7935  0.068467626  0.067119661            2 
 2777000   0.82413098   -2.9443237     2292.518  0.068794802   0.06710812            3 
 2778000   0.80534175    -2.936153    2286.7536  0.068597121   0.06709658            1 
 2779000   0.80320754   -2.9413793    2277.1709  0.068285082  0.067085085            3 
 2780000   0.79588062   -2.9590387    2284.2003  0.068471232  0.067073388            4 
 2781000   0.81035963   -2.9498851      2284.66  0.068460387  0.067061955            3 
 2782000   0.79299992   -2.9533048    2290.3085  0.068604975  0.067050414            4 
 2783000   0.79274592   -2.9844195    2281.1239  0.068305302  0.067038947            6 
 2784000     0.798387     -2.95744    2277.1716  0.068162465  0.067027474            3 
 2785000   0.81766988   -2.9466142    2287.8221  0.068456676  0.067016137            2 
 2786000   0.81828297   -2.9415236    2289.1356  0.068471393  0.067004996            3 
 2787000   0.79795695   -2.9634255    2299.5721  0.068758884  0.066993504            9 
 2788000   0.80191019   -2.9551567    2292.5694  0.068524911  0.066982183            3 
 2789000   0.81234839   -2.9621984    2286.2219  0.068310683  0.066970989            3 
 2790000   0.82405387   -2.9567156      2287.08  0.068311829  0.066959706            2 
 2791000   0.80268603   -2.9590278    2286.3471  0.068265469  0.066948394            3 
 2792000   0.79673443     -2.94841    2289.3632  0.068331041  0.066937042            5 
 2793000   0.78364312   -2.9738484    2289.0348  0.068296777  0.066925854            4 
 2794000   0.80326965   -2.9441469    2299.3572  0.068580207  0.066914557            2 
 2795000    0.8221843   -2.9414222    2299.9774  0.068574163  0.066903428            4 
 2796000   0.79516522   -2.9765701    2281.6847  0.068004432  0.066891971            5 
 2797000    0.8208253   -2.9559148    2291.9716  0.068286606  0.066880582            2 
 2798000   0.79334606   -2.9692492     2301.632  0.068549916  0.066869219            3 
 2799000   0.80314488   -2.9121407    2303.2047  0.068572248  0.066858127            4 
 2800000   0.80895108   -2.9682349    2296.2039  0.068339403  0.066847109            5 
 2801000   0.79246692   -2.9505258    2299.2962  0.068407003  0.066835687            5 
 2802000   0.80201076   -2.9572053     2297.373  0.068325392  0.066824472            4 
 2803000   0.79251071   -2.9743834     2295.077  0.068232758   0.06681311            7 
 2804000   0.80808938   -2.9669846    2288.0527  0.067999665  0.066801695            4 
 2805000    0.7968594   -2.9595899    2297.6214  0.068259697  0.066790299            4 
 2806000   0.78782207   -2.9805036    2283.7288  0.067822785  0.066778804            4 
 2807000     0.821221   -2.9656289    2304.0087  0.068400686  0.066767352            3 
 2808000   0.82654588   -2.9616294    2298.3664  0.068208879  0.066756008            2 
 2809000   0.78604132   -2.9567909    2304.9016  0.068378475  0.066744772            3 
 2810000   0.80760848   -2.9446654     2306.028  0.068387544  0.066733313            2 
 2811000   0.81513784   -2.9509082    2291.8735    0.0679436  0.066721726            4 
 2812000   0.79837224   -2.9742555     2296.681  0.068061908  0.066710363            3 
 2813000   0.80178885   -2.9547552    2296.1435  0.068021788  0.066698851            4 
 2814000   0.78851674   -2.9787962    2298.2797  0.068060876  0.066687213            6 
 2815000    0.8175617   -2.9818984    2298.5113  0.068043554  0.066675482            4 
 2816000   0.81816366   -2.9586623    2297.3906  0.067986226  0.066663968            3 
 2817000   0.79884912    -2.952098    2304.2853  0.068166055  0.066652472            4 
 2818000   0.79990558   -2.9441259    2306.9233  0.068219874  0.066641189            2 
 2819000   0.80832039   -2.9854768    2306.6574  0.068187815  0.066629935            8 
 2820000   0.78308745   -2.9644096    2298.6007  0.067925553  0.066618628            2 
 2821000   0.81034948   -2.9576385    2309.8603  0.068234088  0.066607337            3 
 2822000   0.79823388   -2.9682586    2305.8469  0.068091391   0.06659604            2 
 2823000   0.79797658   -2.9702184    2307.9402  0.068129064  0.066584781            1 
 2824000   0.79997635   -2.9485147     2307.315  0.068086491  0.066573606            3 
 2825000   0.79725211   -2.9898982    2297.8308   0.06778262  0.066562382            2 
 2826000   0.80519779    -2.970268     2308.851    0.0680836  0.066551089            2 
 2827000   0.79946923   -2.9745659     2309.898   0.06809038  0.066539972            2 
 2828000   0.82104684   -2.9194288    2316.9401  0.068273812  0.066528944            4 
 2829000   0.80040503   -2.9751668    2310.5883  0.068062574  0.066517824            2 
 2830000    0.8109556   -2.9715441    2308.8051  0.067986015   0.06650664            1 
 2831000   0.79120068   -2.9698819    2308.1936  0.067944001   0.06649534            2 
 2832000   0.80410419   -2.9788456    2307.2147  0.067891205  0.066484044            3 
 2833000   0.80041169   -2.9872569     2308.621  0.067908607  0.066472759            3 
 2834000   0.80787439   -2.9664986    2310.2847  0.067933567  0.066461744            2 
 2835000   0.79351993   -2.9540362    2311.4669  0.067944354  0.066450795            4 
 2836000   0.78867042   -2.9692212    2317.0539  0.068084565  0.066439677            3 
 2837000   0.79310862   -2.9876037    2315.4776  0.068014265  0.066428698            5 
 2838000     0.790834    -2.970229    2315.3022  0.067985149   0.06641744            3 
 2839000   0.78936681   -2.9609516    2313.6501  0.067912706  0.066406472            5 
 2840000   0.82208848   -2.9729492     2318.145  0.068020686  0.066395229            3 
 2841000   0.79328627   -2.9866978    2306.8582  0.067665675    0.0663841            7 
 2842000    0.7794068   -2.9846199    2317.7301  0.067960653  0.066372859            4 
 2843000   0.80844868   -2.9510576    2314.2983  0.067836155  0.066361769            4 
 2844000   0.79935175     -2.95632    2329.3296  0.068252743  0.066350736            9 
 2845000   0.78480194   -2.9818152    2316.8781  0.067864034  0.066339683            6 
 2846000   0.82676705    -2.981867    2313.1439  0.067730846  0.066328506            3 
 2847000   0.80812542   -2.9676984    2314.1958  0.067737847  0.066317334            4 
 2848000   0.79240093   -2.9834967    2318.1058  0.067828471   0.06630616            3 
 2849000    0.8026005   -2.9849145     2319.058  0.067832515  0.066295116            9 
 2850000   0.79232836   -2.9559291    2326.1774  0.068016884  0.066283868            3 
 2851000   0.81673581   -2.9615166     2312.499  0.067593213  0.066272752            8 
 2852000   0.80323459   -2.9753936    2316.5386  0.067687546  0.066261671            2 
 2853000    0.7773374   -2.9868439    2322.0876  0.067825902  0.066250669            3 
 2854000   0.80248576   -2.9813402    2315.3308  0.067604848  0.066239628            5 
 2855000   0.79438551   -2.9696786    2327.1951  0.067927471  0.066228362            5 
 2856000   0.79761602   -2.9790197     2328.814  0.067950921   0.06621725            4 
 2857000   0.78854363   -2.9622498    2329.2988   0.06794128  0.066206365            5 
 2858000   0.78896703   -2.9771254     2322.568  0.067721251  0.066195361            6 
 2859000   0.79709728   -2.9902795    2324.9802  0.067767873  0.066184342            2 
 2860000   0.78482866   -2.9844624    2319.1204  0.067573438  0.066173428            8 
 2861000   0.80117719    -2.951238    2336.8926  0.068067475  0.066162517            3 
 2862000    0.8010366   -2.9745865    2327.8145  0.067779364  0.066151694            7 
 2863000   0.79072513   -2.9746471    2320.3163   0.06753744  0.066140731            4 
 2864000   0.80295969   -2.9567387    2333.9633  0.067910943   0.06612987            5 
 2865000   0.77512275   -2.9764439    2331.5763  0.067817811  0.066118899            4 
 2866000   0.79531061   -2.9910995     2325.035  0.067603949   0.06610799            4 
 2867000    0.7842557   -2.9768633    2324.3173  0.067559507  0.066096858            1 
 2868000   0.77927968   -2.9812163    2332.9048  0.067785471  0.066085889            3 
 2869000   0.79892848   -2.9818621    2328.9431  0.067646772  0.066074824            2 
 2870000   0.80121653   -2.9934447     2322.055  0.067423198  0.066063753            5 
 2871000   0.81320963   -2.9709354     2328.611  0.067590009   0.06605263            8 
 2872000   0.79144214   -2.9836381    2325.8277  0.067485715   0.06604156            5 
 2873000    0.7794833   -2.9800605    2332.3347  0.067650967  0.066030578            3 
 2874000   0.79615955   -3.0017946    2326.9823  0.067472231  0.066019453            4 
 2875000   0.77540588   -2.9901346    2324.8845  0.067387955  0.066008163            4 
 2876000   0.79793016   -3.0003757    2331.1834  0.067547039  0.065997006            7 
 2877000   0.78986354   -2.9750301    2324.5691  0.067331976  0.065986025            3 
 2878000   0.80069462   -2.9861871    2330.4326   0.06747836   0.06597497            3 
 2879000   0.81158444   -3.0145152    2336.8496  0.067640663  0.065963966           11 
 2880000   0.80261968   -2.9985441    2334.3302  0.067544278  0.065952967            4 
 2881000    0.8058799   -2.9969328    2337.5193  0.067613076  0.065941801            6 
 2882000   0.79041488   -2.9685382    2334.7742  0.067510241  0.065930869            5 
 2883000   0.79778019   -2.9589297    2329.7454  0.067341467  0.065919772            5 
 2884000    0.7823982   -2.9854629    2327.7363  0.067260063  0.065908663            7 
 2885000   0.79340335   -2.9921008    2329.1086  0.067276389  0.065897524            5 
 2886000   0.79937548   -2.9797168    2337.0272  0.067481729    0.0658863            5 
 2887000   0.77302705    -3.009157    2334.6646  0.067390158  0.065875076            3 
 2888000   0.79933337   -2.9870407    2337.3136  0.067443258  0.065863942            3 
 2889000   0.80705895   -2.9611167    2339.6303  0.067486739  0.065852904            4 
 2890000   0.80113407   -2.9687385    2326.3869  0.067081515  0.065841785            4 
 2891000   0.76916996   -2.9884313    2328.0871  0.067107318  0.065830504            2 
 2892000    0.7861667   -2.9894196    2343.6159  0.067531578  0.065819271            2 
 2893000   0.79792643   -3.0049838    2336.8056  0.067312062  0.065808174            3 
 2894000   0.76877749   -2.9700218     2335.219  0.067243117  0.065797126            5 
 2895000   0.79385623   -2.9892215    2339.6874  0.067348516  0.065786032            7 
 2896000    0.7811251   -2.9825408    2336.6253  0.067237146  0.065775102            3 
 2897000   0.79990548   -2.9736187    2338.3613  0.067263874  0.065764012            3 
 2898000   0.78706856   -3.0092763    2336.5652  0.067189016  0.065752883            7 
 2899000   0.78734099   -3.0101581     2332.847  0.067058957  0.065741738            6 
 2900000   0.78684641   -3.0002956    2331.7162  0.067003339  0.065730532            4 
 2901000   0.78096251   -2.9876043     2338.493  0.067174911  0.065719422            2 
 2902000   0.76545413   -2.9671897    2342.9368  0.067279372  0.065708306            1 
 2903000   0.77974425    -2.957424    2343.3683  0.067268582  0.065697075            4 
 2904000   0.79553348    -2.952902    2343.7186   0.06725547  0.065686029            1 
 2905000   0.78463865   -2.9991826    2343.5063  0.067226226  0.065674981            3 
 2906000     0.799472   -2.9798043    2342.5678  0.067176182  0.065663796            5 
 2907000    0.7699278   -2.9904979     2336.656  0.066983603   0.06565265            5 
 2908000   0.80005266    -2.981135    2335.2758  0.066921018   0.06564143            4 
 2909000   0.78349228    -2.981097    2343.1142  0.067122556  0.065630168            2 
 2910000   0.77995226   -2.9969317    2346.1448  0.067186278  0.065619038            3 
 2911000   0.78332163   -2.9770456    2346.2645  0.067166625  0.065608018            5 
 2912000   0.77718025   -2.9996121    2342.8248  0.067045123  0.065596887            3 
 2913000    0.7862325    -2.976491    2342.8434   0.06702264  0.065585712            2 
 2914000    0.7915124   -2.9668438     2345.572  0.067077671  0.065574487            4 
 2915000   0.77605447   -2.9918232    2340.8784  0.066920481  0.065563287            6 
 2916000   0.76616205   -2.9639839    2348.9117  0.067127108  0.065552167            4 
 2917000   0.77438698   -2.9975399    2346.1959  0.067026508  0.065541051            2 
 2918000   0.77525169   -2.9991946    2341.6755  0.066874442  0.065529741            4 
 2919000   0.79697012   -2.9668782    2353.6796  0.067194232  0.065518446            5 
 2920000   0.79348719     -2.98669     2337.132  0.066698973  0.065507088            7 
 2921000   0.77294507   -2.9850042       2351.7  0.067091749  0.065495852            1 
 2922000   0.78558976   -2.9958755    2346.6242   0.06692403  0.065484572            7 
 2923000   0.77135771   -3.0094972    2343.6434  0.066816154  0.065473239            2 
 2924000   0.79131044   -2.9854975    2346.8044  0.066883392  0.065461947            3 
 2925000   0.78015999    -3.012191    2339.9586  0.066665487  0.065450732            3 
 2926000    0.7777942   -2.9954607    2344.8272  0.066781363  0.065439606            7 
 2927000   0.78509275   -3.0071356     2346.764  0.066813689  0.065428411            3 
 2928000   0.78783772   -2.9973237    2346.2537  0.066776347  0.065416919            6 
 2929000   0.77681137   -2.9812372    2350.5058  0.066874525  0.065405554            7 
 2930000   0.77283334   -2.9894255    2349.8088  0.066831878  0.065394269            3 
 2931000   0.78167809   -2.9976524    2348.0003  0.066757657  0.065383012            6 
 2932000   0.78712577   -2.9790761    2355.1468  0.066938005   0.06537181            3 
 2933000    0.7965501   -2.9879104    2349.9479   0.06676747  0.065360369            3 
 2934000   0.77915245   -3.0102952    2346.3868  0.066643569  0.065349006            5 
 2935000   0.78906909   -2.9995512     2347.797  0.066660902   0.06533751            3 
 2936000   0.78673384   -2.9833085    2347.9695  0.066643094  0.065326118            3 
 2937000   0.78481666   -2.9868687     2341.456  0.066435591   0.06531465            2 
 2938000   0.79068559   -3.0114818    2347.3023  0.066578803  0.065302982            3 
 2939000   0.77147416   -3.0100551    2348.7738  0.066597874  0.065291459            2 
 2940000   0.78627936   -2.9614688    2350.2299  0.066616493  0.065280024            2 
 2941000   0.79068044   -2.9892173     2351.071  0.066617677  0.065268583            3 
 2942000   0.78533762   -2.9784466    2349.6171  0.066553849  0.065257053            3 
 2943000   0.78248324   -2.9783014     2352.789  0.066621049  0.065245533            5 
 2944000   0.78536161   -2.9731738    2351.9345  0.066574232  0.065234104            4 
 2945000   0.76525768   -3.0010948    2350.9653  0.066524203  0.065222753            4 
 2946000   0.76990061   -2.9947369      2351.85  0.066526647  0.065211338            7 
 2947000   0.77972501   -2.9803856    2351.1507  0.066484298   0.06519982            4 
 2948000   0.77627433    -3.007312    2354.5987  0.066559212  0.065188316            5 
 2949000   0.78684609   -2.9975668    2354.1053    0.0665227  0.065176913            3 
 2950000   0.77885991   -3.0079657    2352.8539  0.066464801  0.065165469            7 
 2951000   0.79926561   -2.9836609    2359.2287  0.066622296  0.065154033            3 
 2952000   0.77804477   -2.9881206    2358.2348   0.06657167  0.065142549            3 
 2953000   0.77467574   -3.0117511    2344.9897  0.066175351  0.065131013            5 
 2954000   0.77635402   -3.0116969    2359.1612  0.066552731  0.065119574            7 
 2955000   0.77278376   -2.9799972    2358.4111  0.066509055  0.065108199            5 
 2956000   0.79225436   -2.9885047    2353.5841  0.066350476  0.065096899            8 
 2957000   0.76862951   -3.0040523    2360.7604  0.066530279   0.06508536            3 
 2958000   0.78378962   -3.0131435    2353.3425  0.066298809    0.0650738            4 
 2959000   0.78644745   -2.9663392    2355.1908  0.066328455  0.065062269            2 
 2960000   0.78686849   -2.9791874    2347.5598   0.06609121  0.065050882           11 
 2961000   0.78206889   -2.9938537    2360.0523  0.066420474  0.065039378            5 
 2962000   0.77498522    -3.008606    2349.9818  0.066114726  0.065027811           12 
 2963000   0.77506235   -2.9939556    2361.7012  0.066422015  0.065016291            6 
 2964000   0.75787378    -3.008916    2357.0628  0.066269196  0.065004899            5 
 2965000   0.79694401   -3.0049712    2366.8889  0.066523017   0.06499353            3 
 2966000   0.77498477   -2.9996951    2357.8277  0.066246001  0.064982176            5 
 2967000   0.77843923   -3.0017879    2360.5742  0.066300813   0.06497085            5 
 2968000   0.77820052   -3.0101275    2359.8064  0.066256919  0.064959375            5 
 2969000   0.76950351   -2.9967611    2354.2924  0.066079835   0.06494809            5 
 2970000   0.77256313   -3.0242271    2358.1634  0.066166201   0.06493677            5 
 2971000   0.78752138   -3.0072258    2352.8047  0.065993624  0.064925274            3 
 2972000   0.75242907   -2.9979962    2359.6362  0.066162971  0.064913939            5 
 2973000   0.78775222   -3.0219339    2365.5147  0.066305491  0.064902623            5 
 2974000   0.77864436   -3.0045619    2364.7951  0.066263033  0.064891315            4 
 2975000    0.7760747   -3.0132037    2353.8283  0.065933564  0.064879954            3 
 2976000    0.7563881   -2.9854545    2370.6738  0.066383115  0.064868687            7 
 2977000   0.78619893   -2.9905817    2365.7139  0.066221977  0.064857502            3 
 2978000   0.79017248   -3.0084626    2365.3054  0.066188308   0.06484606            4 
 2979000   0.77333868   -2.9824801     2360.986  0.066045262  0.064834756            3 
 2980000   0.77440236   -3.0024166    2369.6937  0.066266601  0.064823385            2 
 2981000   0.79098274   -2.9774818    2369.5955  0.066241626   0.06481201            5 
 2982000   0.78079963   -3.0078412    2367.7172  0.066166924  0.064800717            9 
 2983000   0.77551355   -2.9837889    2364.3394  0.066050381  0.064789315            2 
 2984000   0.76556538   -2.9883801    2370.3578  0.066196319  0.064777855            3 
 2985000   0.77711999   -3.0211486    2364.8753  0.066021086  0.064766378            5 
 2986000   0.77690033   -3.0006528    2372.8718  0.066222142  0.064754939            2 
 2987000   0.75349399   -3.0059127    2360.4984  0.065854771  0.064743562            5 
 2988000    0.7680953    -3.003538    2371.6304  0.066143195  0.064732174            3 
 2989000   0.76536672   -3.0319181    2370.1786   0.06608059  0.064720911            4 
 2990000   0.76186169   -3.0158736    2370.4856  0.066067045  0.064709641            5 
 2991000   0.76668963   -2.9994317    2367.0335  0.065948776  0.064698269            8 
 2992000   0.76906252   -3.0156531    2364.1854  0.065847409  0.064686856            5 
 2993000   0.76303578   -3.0085522       2364.5  0.065834169  0.064675403            7 
 2994000   0.78389332    -3.001488    2363.3839  0.065781115  0.064664134            4 
 2995000   0.79944903   -2.9838447    2371.6198  0.065988307  0.064652809            3 
 2996000   0.77032467   -3.0115181    2376.3568  0.066098041  0.064641475            7 
 2997000   0.77475582   -3.0051424    2367.6799  0.065834722  0.064630136            4 
 2998000   0.75174835   -3.0215565    2377.6352  0.066089483  0.064618763            4 
 2999000   0.77860205   -3.0001328    2372.3891   0.06592167  0.064607397            5 
 3000000   0.76873144   -2.9776241    2377.6146   0.06604485  0.064596236            7 
 3001000   0.78488488   -2.9956712    2369.0745  0.065785695  0.064585123            4 
 3002000   0.78114184   -2.9878843    2369.4821  0.065775098  0.064573796            4 
 3003000   0.78383732   -3.0306154    2380.4947  0.066058794  0.064562602            5 
 3004000   0.77982029   -3.0135489    2379.6406  0.066013111  0.064551461            4 
 3005000   0.75314364   -2.9707562    2386.8792  0.066191879  0.064540312            2 
 3006000   0.77187482   -3.0059281    2374.6427  0.065830635  0.064529143            4 
 3007000   0.77211984   -3.0013743    2380.1788  0.065962165  0.064517993            6 
 3008000   0.77613712   -3.0153382    2374.9537  0.065795481   0.06450671            6 
 3009000   0.76902622   -2.9972413    2384.6645  0.066042552  0.064495442            7 
 3010000   0.76533536   -3.0126875     2374.144  0.065729345  0.064484134            3 
 3011000   0.75168062   -3.0340414    2378.8317  0.065837256  0.064472827            9 
 3012000   0.76408452    -2.999635    2382.4496  0.065915495  0.064461524            9 
 3013000   0.76940813   -3.0022717    2373.1245  0.065635702  0.064450146            3 
 3014000   0.77459416   -2.9958967    2378.6151  0.065765735  0.064438769            2 
 3015000   0.77096025   -3.0016384    2377.0408  0.065700409  0.064427403            4 
 3016000   0.77565315   -2.9990722    2389.6905  0.066028142  0.064416082            5 
 3017000   0.77091326   -3.0189189    2376.5767  0.065644035  0.064404876            4 
 3018000   0.76778042   -3.0254784    2389.1226  0.065968705  0.064393759            9 
 3019000   0.76919592   -3.0121352    2379.6504  0.065685393  0.064382347            6 
 3020000   0.74486521    -3.008911    2373.2201  0.065486206  0.064371096            4 
 3021000   0.77676148   -3.0177252    2372.8785  0.065455105   0.06435969            5 
 3022000    0.7628704   -3.0407333    2380.8397   0.06565298  0.064348366            7 
 3023000   0.77630851   -3.0055998    2379.1859  0.065585674  0.064336863            3 
 3024000    0.7689509   -3.0232551    2379.2938   0.06556696  0.064325444            9 
 3025000   0.76119491   -3.0039638    2377.8542  0.065505626  0.064314018            2 
 3026000   0.78131101   -3.0266722    2383.1041  0.065628556  0.064302669            4 
 3027000   0.76945934   -3.0338432     2386.164  0.065691112  0.064291437            6 
 3028000   0.78339715   -3.0181275    2384.9899  0.065637107  0.064280089            4 
 3029000   0.76388505   -2.9976494    2382.0024  0.065533244  0.064268794            4 
 3030000   0.76216071   -3.0095554    2389.7043  0.065723442   0.06425747            5 
 3031000   0.76477683    -3.011078     2388.827  0.065677636  0.064246307            8 
 3032000   0.76382447   -3.0061957    2387.9616   0.06563219   0.06423506            2 
 3033000   0.76325789   -3.0210786    2389.1137  0.065642206  0.064223853            4 
 3034000   0.77342687   -3.0078654    2390.8923  0.065669422  0.064212628            3 
 3035000   0.75866469   -3.0177669    2393.5682  0.065721257  0.064201293            3 
 3036000   0.76155473   -3.0129501    2383.6057  0.065426157  0.064190002            3 
 3037000   0.74848428     -2.99434    2385.3468  0.065452387   0.06417858           13 
 3038000    0.7781563   -3.0067445    2395.8555  0.065719101  0.064167404            3 
 3039000   0.77175288    -3.028141    2387.3717  0.065464837  0.064156019            3 
 3040000   0.74882069   -3.0096473    2383.0992  0.065326184  0.064144697            4 
 3041000   0.77720662   -3.0138137    2386.6171  0.065401104  0.064133289            8 
 3042000    0.7579923   -3.0026338    2389.6393  0.065462395  0.064122049           11 
 3043000   0.76251832   -2.9897244    2393.5611  0.065548282  0.064110859            3 
 3044000   0.75383684   -2.9976788    2402.5865  0.065773831   0.06409967            4 
 3045000   0.76622444   -3.0270384    2397.1129  0.065602433  0.064088612            5 
 3046000   0.76625695   -3.0093927    2385.7112  0.065268965  0.064077511            3 
 3047000   0.76878955   -3.0080147    2392.0958  0.065422158  0.064066313            5 
 3048000   0.76318169   -3.0279537    2392.3945  0.065408862  0.064055138            9 
 3049000   0.76188908   -3.0368315    2392.0839  0.065378919  0.064043819            4 
 3050000   0.76351733   -3.0146829    2395.3803   0.06544755  0.064032656            5 
 3051000   0.77392684   -3.0328563    2395.6922  0.065434617  0.064021479            6 
 3052000   0.78756142   -3.0083763     2391.668  0.065303297  0.064010226            5 
 3053000   0.77580213   -3.0146694    2396.9626  0.065426428  0.063999048            3 
 3054000   0.77259993    -3.037328    2397.2228  0.065412105  0.063987859            3 
 3055000   0.76279935   -2.9990677    2404.9635   0.06560184  0.063976624            6 
 3056000   0.77040965   -3.0198956    2393.2816  0.065261823  0.063965523            8 
 3057000   0.76013865   -3.0165632    2393.8223  0.065255215  0.063954386            9 
 3058000   0.74069798   -3.0097148    2402.3266  0.065465627  0.063943239            4 
 3059000   0.77515918    -3.033124    2400.8258   0.06540334  0.063932137            5 
 3060000   0.77696443    -3.004868    2400.5938  0.065375648  0.063921078            8 
 3061000   0.76185637   -3.0231511    2400.1714  0.065342792   0.06391016            4 
 3062000   0.75076051    -3.036925    2392.2871  0.065106876  0.063899165            2 
 3063000   0.77560662   -3.0296682    2404.4492   0.06541651  0.063888113            6 
 3064000   0.75751973   -3.0262918    2403.2315  0.065362041  0.063877075            3 
 3065000   0.74590569    -3.040576    2399.7772  0.065246797  0.063866013            3 
 3066000   0.77274203   -3.0283744    2396.7804  0.065144064  0.063854943            3 
 3067000   0.75123942   -2.9980641    2401.2769  0.065244997  0.063843975            7 
 3068000   0.75450138   -2.9999384    2402.7076  0.065262592  0.063833159            3 
 3069000   0.75698564   -3.0330373     2414.542   0.06556267  0.063822026            6 
 3070000   0.77845647   -2.9982153    2404.7508  0.065275536  0.063810975            7 
 3071000    0.7551081   -3.0087222    2406.1815  0.065293105  0.063800131            5 
 3072000   0.76564627   -3.0119844     2402.159  0.065162734  0.063789118            3 
 3073000   0.76069482   -3.0310249    2404.4098  0.065202564  0.063777924            4 
 3074000   0.75048813   -3.0228417    2404.1836  0.065175223  0.063767036            3 
 3075000   0.75102311   -3.0158824    2408.2959  0.065265472  0.063755967            3 
 3076000   0.77777736   -3.0334567    2409.4346  0.065275102  0.063744827            2 
 3077000   0.75789731   -3.0194364    2407.0625  0.065189647  0.063733768            4 
 3078000   0.76210621   -3.0125635    2397.8684  0.064919547  0.063722536            2 
 3079000   0.74514123   -3.0162513    2409.5956  0.065215859  0.063711526            5 
 3080000   0.76810883   -3.0561879    2407.9029  0.065148888  0.063700491            5 
 3081000    0.7611418   -3.0544414    2409.1517  0.065161521   0.06368944            4 
 3082000   0.75510492   -3.0431763    2407.3108    0.0650906  0.063678295            2 
 3083000   0.77343402   -3.0179649    2413.6911  0.065241947   0.06366729            6 
 3084000   0.74597375   -3.0179934    2416.7888  0.065304495  0.063656394            9 
 3085000   0.75152784   -3.0251342    2410.6679  0.065117988  0.063645462           12 
 3086000   0.75795868    -3.034875    2406.2318  0.064977095  0.063634299            4 
 3087000    0.7642535   -3.0296337    2414.4857   0.06517886  0.063623227            3 
 3088000   0.75716364   -3.0231588    2412.8712  0.065114183  0.063612321            9 
 3089000   0.76498804   -3.0359355    2405.2946  0.064888708  0.063601257            3 
 3090000   0.75105738   -3.0291118    2415.7689  0.065150186  0.063590367            5 
 3091000   0.75998454   -3.0111294    2413.7757  0.065075372  0.063579502            5 
 3092000   0.74924285   -3.0449762    2407.3639  0.064881519  0.063568557            3 
 3093000   0.76028719   -3.0328642    2416.1798  0.065098066  0.063557463            5 
 3094000   0.76361791   -3.0113418    2415.8468  0.065068057  0.063546552            3 
 3095000   0.74870224   -3.0299843    2412.2059  0.064949001   0.06353556            4 
 3096000   0.75190666   -3.0534926    2406.5422  0.064775576   0.06352448            3 
 3097000   0.75423639   -3.0411634    2412.6642  0.064919389  0.063513289            3 
 3098000   0.76304059   -3.0366704    2422.0556  0.065151054  0.063502215           11 
 3099000   0.79915656   -3.0560972    2413.2278  0.064892649   0.06349129            9 
 3100000   0.77507837   -3.0332427    2410.1173  0.064788101  0.063480265            5 
 3101000   0.75291239    -3.040889    2413.3882  0.064855106  0.063469242            4 
 3102000   0.76109095   -3.0309938    2419.1411  0.064988746  0.063458216            2 
 3103000   0.76320133   -3.0373943    2416.1139  0.064886506  0.063447141            4 
 3104000   0.75426923   -3.0267935    2425.8922   0.06512812  0.063436177            3 
 3105000   0.75846692   -3.0418748    2416.0562  0.064843163  0.063425174            3 
 3106000    0.7583273   -3.0344611    2416.7074  0.064839758  0.063413913            5 
 3107000   0.76662026   -3.0225264    2419.4858  0.064893407  0.063402884            3 
 3108000   0.76749989   -3.0279117    2413.3874  0.064709014  0.063391945            5 
 3109000   0.73953687   -3.0376863    2409.1795  0.064575413  0.063380767            6 
 3110000   0.75470892   -3.0537863    2420.2358  0.064850906  0.063369492            4 
 3111000   0.76704472   -3.0397361    2415.1782  0.064694583  0.063358425            3 
 3112000   0.76214892   -3.0484888    2413.3786  0.064625604  0.063347222            5 
 3113000   0.76973034   -3.0592096    2414.7238  0.064640856  0.063335994            3 
 3114000   0.74768894   -3.0365117     2413.373   0.06458395  0.063324737            4 
 3115000   0.74623164   -3.0286002    2417.3017  0.064668317  0.063313529            6 
 3116000   0.75918104   -3.0274264    2417.9304  0.064664378   0.06330235            4 
 3117000   0.75470726   -3.0340328    2412.5905   0.06450087  0.063291046            3 
 3118000   0.76311594   -3.0355839    2416.4233  0.064582618  0.063279792           13 
 3119000   0.77686712   -3.0164113    2426.6411  0.064834912  0.063268682            3 
 3120000    0.7400145   -3.0098218    2418.4182  0.064594503  0.063257628            2 
 3121000    0.7433927   -3.0277883    2428.2704  0.064836867  0.063246449            4 
 3122000   0.75949151   -3.0501512     2418.902  0.064566038  0.063235419            5 
 3123000   0.75837892   -3.0277444    2423.8655  0.064677806  0.063224318            4 
 3124000   0.76591922   -3.0390458    2418.0793  0.064502754  0.063213342            3 
 3125000   0.75811167   -3.0439526    2427.0563  0.064721501  0.063202265            6 
 3126000   0.73501542   -3.0241006    2428.2307  0.064732104  0.063191176            3 
 3127000   0.74263012   -3.0582208    2424.1869  0.064603639  0.063180131            4 
 3128000   0.76394026   -3.0427102    2426.2632    0.0646383  0.063169172            2 
 3129000   0.74222475   -3.0333504    2430.3968  0.064727729  0.063158187            5 
 3130000   0.74017772   -3.0487526     2417.868  0.064373483  0.063147016            6 
 3131000   0.75460285   -3.0383735    2427.8117  0.064617579  0.063135943            7 
 3132000   0.75675359   -3.0426077    2427.1279  0.064578755  0.063124849            4 
 3133000   0.75098519   -3.0376992    2422.9385   0.06444671   0.06311379            3 
 3134000   0.72673177    -3.034588    2421.9243  0.064399178    0.0631027            5 
 3135000   0.74683453   -3.0258136    2435.2815  0.064733692  0.063091609            4 
 3136000   0.75732646   -3.0331621    2425.5235   0.06445375   0.06308056            2 
 3137000   0.75736304   -3.0538049    2420.7796  0.064307182  0.063069426            2 
 3138000   0.73256738   -3.0582176    2424.4712  0.064384724   0.06305827            6 
 3139000   0.75759136   -3.0390924    2419.3038   0.06422703  0.063047084            7 
 3140000   0.76150406   -3.0421472    2423.8076  0.064326103  0.063035947            4 
 3141000   0.73458844   -3.0245758    2431.1172  0.064499554  0.063024833           10 
 3142000    0.7634117   -3.0341328     2432.939  0.064527343  0.063013671            4 
 3143000   0.74472053   -3.0259626    2431.5575  0.064470185  0.063002654            6 
 3144000    0.7490265   -3.0006385    2427.8825  0.064352273  0.062991639            2 
 3145000   0.74802318   -3.0324005    2434.9719  0.064519659  0.062980673            3 
 3146000   0.73511235   -2.9991336    2436.1286  0.064529788  0.062969549            1 
 3147000   0.72984583   -3.0341572    2421.3946  0.064119123  0.062958417            4 
 3148000   0.76105506   -3.0540465    2426.4248  0.064231914  0.062947251            5 
 3149000   0.73855154   -3.0767365    2424.6846  0.064165466  0.062935985            4 
 3150000   0.75559012    -3.001059    2437.0416  0.064471999  0.062924891            7 
 3151000   0.74716302   -3.0034837    2435.9759  0.064423355  0.062913902            5 
 3152000   0.73465664   -3.0266288    2437.9537  0.064455204  0.062902799            5 
 3153000   0.73631214   -3.0495804    2425.2227  0.064098285  0.062891761            3 
 3154000   0.73832841   -3.0437463    2433.9927  0.064309678   0.06288071           12 
 3155000   0.73925186   -3.0553152    2425.4581  0.064063871  0.062869709            6 
 3156000   0.74652786   -3.0493056    2436.7667  0.064342172  0.062858657            7 
 3157000   0.74284265   -3.0348501    2430.5101  0.064156638  0.062847567            9 
 3158000   0.75650012   -3.0519742    2423.5877  0.063953654  0.062836436            8 
 3159000   0.75827434   -3.0441753    2435.9965  0.064260749   0.06282518            5 
 3160000   0.74487862   -3.0484607    2428.1858  0.064034435  0.062814111            8 
 3161000   0.75855884   -3.0675945    2433.3348  0.064149921  0.062802744            4 
 3162000   0.73853632   -3.0472554    2442.0169  0.064358448  0.062791566            5 
 3163000   0.75130884   -3.0172643     2438.976  0.064257982  0.062780423            5 
 3164000   0.76790696   -3.0600873    2433.0492  0.064081573  0.062769356            3 
 3165000   0.73031505   -3.0551156    2439.1925  0.064223077  0.062758292            5 
 3166000   0.73626809   -3.0464894    2432.2672  0.064020511  0.062747143            5 
 3167000   0.74724059   -3.0618156      2437.21  0.064130355  0.062736038            4 
 3168000   0.75081974   -3.0447849    2430.7139  0.063939233  0.062724757            5 
 3169000    0.7419009   -3.0345488    2439.1266  0.064140282  0.062713745           10 
 3170000   0.75284117   -3.0503677    2442.0142  0.064195958  0.062702832            6 
 3171000   0.76239487   -3.0537211    2438.4248  0.064081385  0.062691783            6 
 3172000   0.74118648   -3.0513813    2431.7452  0.063885697  0.062680626            6 
 3173000   0.74220435   -3.0389845    2444.4925   0.06420035  0.062669501            3 
 3174000   0.72119098   -3.0514955    2438.9387  0.064034308   0.06265849            8 
 3175000   0.73055555    -3.044631    2430.0219  0.063780103   0.06264739            3 
 3176000   0.74489385   -3.0643662    2439.2304  0.064001637   0.06263614            5 
 3177000   0.75621758   -3.0529694    2436.4136  0.063907606  0.062625103            8 
 3178000   0.74700547   -3.0351139    2440.6337  0.063998156  0.062614094            7 
 3179000    0.7358258   -3.0600677    2441.2735  0.063994796  0.062602842            8 
 3180000   0.74653143   -3.0712979    2431.2914  0.063713086  0.062591644            7 
 3181000   0.75040987   -3.0440995    2444.8458  0.064048146  0.062580579            9 
 3182000   0.73411868   -3.0627094    2437.4652  0.063834726  0.062569573            4 
 3183000   0.74937725   -3.0433241      2437.19  0.063807466  0.062558477            4 
 3184000   0.74998736    -3.065265    2445.3531  0.064001075  0.062547382            4 
 3185000   0.75683995   -3.0459846    2440.4358  0.063852324  0.062536252            4 
 3186000   0.74096606   -3.0343091     2454.389  0.064197243  0.062525223            6 
 3187000   0.73400217   -3.0701048    2447.4098  0.063994608  0.062514159            3 
 3188000   0.74278451   -3.0338945    2448.8184  0.064011355  0.062503106            4 
 3189000   0.73686474   -3.0611187    2441.9377  0.063811479  0.062492111            3 
 3190000   0.75305179   -3.0478152    2443.9132  0.063843083  0.062481118            3 
 3191000   0.73429782   -3.0245199    2451.6276  0.064024536  0.062470197            2 
 3192000   0.74540659   -3.0255122    2441.2718  0.063734122  0.062459192            9 
 3193000   0.74126019   -3.0299599    2448.7136  0.063908384  0.062448104            8 
 3194000   0.74232635   -3.0605788    2453.7938  0.064020921  0.062437082            6 
 3195000   0.74676813   -3.0396848    2445.7394  0.063790804   0.06242604            4 
 3196000    0.7499181   -3.0361205    2444.9251  0.063749613  0.062415005            5 
 3197000   0.75021993   -3.0551035    2443.2019  0.063684754  0.062403824            8 
 3198000    0.7285321   -3.0500044    2452.7432  0.063913466  0.062392679            5 
 3199000   0.73959108   -3.0663808    2441.7451  0.063606988  0.062381529            5 
 3200000   0.74089823   -3.0685628    2446.9539  0.063722758   0.06237039            3 
 3201000   0.74751611   -3.0621155    2448.6313   0.06374652  0.062359423            5 
 3202000   0.72692072   -3.0441855    2443.6154  0.063596069  0.062348304            5 
 3203000   0.72634016   -3.0352289    2446.7525  0.063657835  0.062337265            3 
 3204000   0.73556301   -3.0537036    2457.1162  0.063907518  0.062326147            3 
 3205000   0.72627119   -3.0397271    2453.6939  0.063798592  0.062315189            7 
 3206000   0.74701854   -3.0553653    2448.7741  0.063650814   0.06230417            3 
 3207000   0.74474374   -3.0437228     2445.778  0.063553112  0.062293004            3 
 3208000   0.73065109   -3.0614503    2452.9782  0.063720339  0.062281992            4 
 3209000    0.7238482   -3.0524934    2450.3452  0.063632107  0.062270782            5 
 3210000    0.7451788   -3.0550124     2456.525  0.063772715  0.062259782            3 
 3211000   0.72722884    -3.061021    2462.1013  0.063897574  0.062248803            4 
 3212000   0.74148418   -3.0719117    2457.0009  0.063745354   0.06223784            4 
 3213000   0.73873498   -3.0609663    2445.8333  0.063435866  0.062226849            5 
 3214000   0.72883514   -3.0449502    2450.6734  0.063541625  0.062215792            4 
 3215000   0.73340065   -3.0955791    2450.4347  0.063515674  0.062204686            4 
 3216000   0.75338616   -3.0449323    2461.0421  0.063770785    0.0621936            5 
 3217000   0.74184581   -3.0494642    2458.3438  0.063681064  0.062182667            3 
 3218000   0.73878907   -3.0582676     2461.017  0.063730501  0.062171576            6 
 3219000   0.74829985   -3.0472843    2458.0685  0.063634371  0.062160509            7 
 3220000   0.73722614   -3.0650695    2467.6115  0.063861582  0.062149497            3 
 3221000   0.74472226   -3.0372942    2458.3056  0.063600995  0.062138438            2 
 3222000   0.74391437   -3.0475337    2464.5621   0.06374307  0.062127462            3 
 3223000   0.74971624   -3.0466618    2461.3688  0.063640729  0.062116415            2 
 3224000   0.73127843   -3.0620259    2454.2257  0.063436355   0.06210535            4 
 3225000   0.73549779   -3.0894185    2446.3116  0.063212187  0.062094299            7 
 3226000   0.72613545   -3.0572288    2455.1033  0.063419697   0.06208328            4 
 3227000   0.72034099   -3.0430359    2450.9755  0.063293449  0.062072132            4 
 3228000   0.73929822   -3.0620903    2460.3337  0.063515429  0.062060923            7 
 3229000   0.72005749   -3.0357872    2453.1587  0.063310589  0.062049838            2 
 3230000   0.73962116   -3.0389384    2460.6655  0.063484662   0.06203869            3 
 3231000   0.72942492   -3.0479286    2454.3576  0.063302322  0.062027506            3 
 3232000   0.71917135   -3.0574197    2453.2808   0.06325497  0.062016289            3 
 3233000   0.73652008   -3.0526699    2453.7746  0.063248134   0.06200518            5 
 3234000   0.75384543   -3.0584713    2460.7619  0.063408624  0.061993975            6 
 3235000   0.73460802   -3.0796518    2458.9202  0.063341583   0.06198278            7 
 3236000   0.73282133   -3.0515509    2458.5257  0.063311848  0.061971549            8 
 3237000   0.74318835   -3.0634346    2457.3208   0.06326127  0.061960298            2 
 3238000   0.73048386   -3.0807521    2452.9517  0.063129289  0.061948965            6 
 3239000   0.76335601   -3.0518961     2453.513  0.063124242  0.061937729            3 
 3240000   0.72680031   -3.0735496    2457.8475  0.063216243  0.061926534            4 
 3241000   0.72406128   -3.0616498    2458.6321   0.06321691  0.061915354            4 
 3242000   0.74378759   -3.0680113    2455.4156  0.063114734  0.061904131            2 
 3243000   0.72216596   -3.0617991    2461.0504  0.063240065  0.061892928            3 
 3244000   0.73038885   -3.0737933    2452.8464  0.063009823  0.061881667            5 
 3245000   0.74260459    -3.086159     2452.181  0.062973318  0.061870378            8 
 3246000   0.72512012   -3.0634442    2450.8234  0.062919064  0.061859119            6 
 3247000   0.73703719   -3.0875124    2455.7307  0.063025631  0.061847938           16 
 3248000   0.71947449   -3.0652514    2460.3705  0.063125268  0.061836779            6 
 3249000   0.73255264   -3.0556409    2456.3395  0.063002449  0.061825598            4 
 3250000   0.74139487   -3.0731529    2465.3191   0.06321331  0.061814444            6 
 3251000   0.74642983   -3.0714923    2468.9491  0.063286915  0.061803343            3 
 3252000   0.74917937   -3.0649521    2463.5474  0.063129032  0.061792226            6 
 3253000    0.7311605   -3.0721421    2465.8511  0.063168642  0.061781131            3 
 3254000   0.73572505   -3.0571003    2466.8982  0.063176044  0.061770003            4 
 3255000   0.72944089    -3.079029    2465.6057  0.063123546  0.061758826            5 
 3256000   0.72276074   -3.0526287    2463.2336  0.063043448  0.061747759            2 
 3257000   0.72691832   -3.0829923    2460.4547  0.062952992  0.061736636            8 
 3258000   0.74849793   -3.0565351    2474.0607  0.063281683   0.06172553           15 
 3259000   0.74015307   -3.0834345    2475.9397  0.063310312  0.061714441            4 
 3260000   0.72632375   -3.0765239    2463.1414  0.062963737   0.06170331            3 
 3261000   0.72549219   -3.0569772    2473.1195  0.063199415  0.061692232            9 
 3262000   0.72042521   -3.0479594    2462.7392  0.062914858  0.061681213            5 
 3263000   0.71694282   -3.0439032    2471.7716  0.063126254  0.061670099            2 
 3264000   0.71998108   -3.0622272    2469.6234  0.063052067  0.061659035           10 
 3265000   0.72931568   -3.0423001    2468.2192  0.062996916  0.061647881           11 
 3266000   0.72688655   -3.0470307    2470.4703  0.063035065   0.06163684           11 
 3267000   0.71898244    -3.062602    2474.9389  0.063129754  0.061625738            3 
 3268000   0.74051405   -3.0707987    2466.4601  0.062894229  0.061614599            3 
 3269000   0.72593787   -3.0896299    2470.1901  0.062970075  0.061603428            4 
 3270000   0.74482129   -3.0702831      2463.33  0.062775995   0.06159214            3 
 3271000   0.72182023   -3.0708148    2469.6989  0.062919059  0.061580943            3 
 3272000    0.7362371   -3.0840353    2464.7037  0.062772609  0.061569628            9 
 3273000   0.73049437   -3.0639288     2469.845   0.06288433  0.061558392            4 
 3274000   0.72725686     -3.07652    2472.4703  0.062931947  0.061547292            4 
 3275000   0.73888183   -3.0618344    2465.2201  0.062728248  0.061535992            3 
 3276000   0.72460173   -3.0762357    2473.3808  0.062916688  0.061524881            3 
 3277000   0.74238532   -3.0664813    2468.6995  0.062778443    0.0615136            6 
 3278000   0.74234561   -3.0744011    2466.2552  0.062697153    0.0615023            5 
 3279000   0.72541247   -3.0812664    2465.2076  0.062651409  0.061491025            4 
 3280000   0.73336535    -3.080488    2468.3753  0.062712787  0.061479777            5 
 3281000   0.73453009   -3.0557549    2466.3618  0.062642533  0.061468544            4 
 3282000   0.72402121   -3.0857226    2467.7917  0.062659753  0.061457241            3 
 3283000   0.74189658   -3.0691157    2471.1678  0.062726364  0.061445987            8 
 3284000   0.71828769   -3.0760502    2469.1895  0.062657063  0.061434595            4 
 3285000   0.73071035   -3.0696432    2471.2653  0.062690647  0.061423267            5 
 3286000   0.72779943    -3.064329    2480.3137  0.062901038  0.061411964            4 
 3287000   0.72152216   -3.0608043    2474.1879  0.062726597  0.061400641            2 
 3288000   0.73416408   -3.0646239    2471.4615  0.062638419  0.061389296            2 
 3289000   0.72787052   -3.0931476    2466.4781  0.062493111  0.061377918            6 
 3290000   0.75679114   -3.0648922    2478.7466  0.062784869  0.061366648            3 
 3291000   0.72339861   -3.0595381    2478.9913  0.062771987  0.061355428            5 
 3292000   0.74733836   -3.0766249    2472.4748   0.06258796  0.061344244            9 
 3293000   0.73741545   -3.0748261    2472.0527  0.062558272  0.061332949            4 
 3294000   0.72140548   -3.1008416    2482.4589  0.062802542  0.061321708            6 
 3295000   0.73908476   -3.1012002    2472.3262  0.062527217  0.061310344            5 
 3296000   0.71163099   -3.0875896    2479.8353  0.062698101  0.061299047            5 
 3297000   0.71135575   -3.0687508    2465.3485  0.062312923  0.061287736            9 
 3298000    0.7188708   -3.0775168    2477.2162  0.062593899  0.061276575            8 
 3299000   0.73047553   -3.0810334    2480.8681  0.062667174  0.061265321            4 
 3300000   0.72387229   -3.0623991    2480.0942  0.062628643  0.061254135            5 
 3301000   0.72114256   -3.0758018    2483.6456  0.062699323  0.061242956            5 
 3302000   0.72446309   -3.0706771    2482.0797  0.062640817  0.061231815            5 
 3303000   0.72197656   -3.0783738    2484.0326  0.062671122  0.061220726            7 
 3304000   0.72592459   -3.0787708    2483.0865  0.062628293  0.061209499            4 
 3305000   0.72100524   -3.0662651    2482.5351  0.062595438  0.061198285            4 
 3306000   0.73348133   -3.0884421    2473.1539  0.062340035  0.061187182            4 
 3307000   0.71201114   -3.0803409    2479.4603  0.062480099  0.061175921            7 
 3308000   0.71744015   -3.0692043     2482.048  0.062526401  0.061164688            9 
 3309000   0.72957164   -3.0815014    2478.3777  0.062415072  0.061153491            9 
 3310000   0.72429677    -3.087147    2473.1765  0.062265269  0.061142128            5 
 3311000   0.72298805   -3.0879644    2479.1206   0.06239607  0.061130962            7 
 3312000   0.72308754   -3.0662793    2476.4776  0.062310729  0.061119699           10 
 3313000   0.70875796   -3.0874853    2483.6133  0.062471408  0.061108553            3 
 3314000   0.73035438   -3.0785225    2480.9631  0.062385915  0.061097391            9 
 3315000   0.70153029   -3.0891688    2479.6468  0.062334008  0.061086272            5 
 3316000   0.73089701   -3.0953408    2485.6293  0.062465553  0.061075075            5 
 3317000   0.73915179   -3.0668889    2483.3909  0.062390485  0.061063905            6 
 3318000   0.72326998   -3.0770482    2482.0302  0.062337508  0.061052628            4 
 3319000   0.72258141   -3.0807803    2480.9642  0.062291961  0.061041589            6 
 3320000   0.71976201   -3.0913626    2487.1402  0.062428217  0.061030438            3 
 3321000   0.73447114   -3.0857366    2481.3418  0.062263922  0.061019392            2 
 3322000   0.73566009   -3.0888436    2485.8677  0.062358712  0.061008256            5 
 3323000    0.7179166   -3.0776364    2485.2244  0.062323814   0.06099718            6 
 3324000   0.71351201   -3.0959669    2479.5201  0.062162057   0.06098604            7 
 3325000   0.72056159   -3.0870384    2482.6667  0.062222223  0.060974843            8 
 3326000   0.73844649   -3.0827199    2478.5726  0.062100938  0.060963629            4 
 3327000   0.70174743   -3.0711803    2486.1755  0.062272705   0.06095235            7 
 3328000    0.7104108   -3.0662613    2490.5768  0.062364204  0.060941071            2 
 3329000   0.70670878    -3.101617    2477.5114  0.062018408  0.060929928            3 
 3330000   0.70533791   -3.0825272    2487.8026  0.062257323  0.060918662            8 
 3331000   0.73197623   -3.1057107    2487.9536  0.062242409  0.060907583            6 
 3332000   0.73002111   -3.0798291    2481.8625  0.062071391  0.060896401            3 
 3333000    0.7212086   -3.0976991    2491.7425  0.062299793  0.060885236            7 
 3334000    0.7351614   -3.0677238    2488.6485  0.062203773  0.060874169            6 
 3335000   0.73168539   -3.0813881    2491.0667  0.062245544    0.0608632            5 
 3336000   0.71864761   -3.0863248    2496.4112  0.062360391  0.060852133            4 
 3337000   0.72762973   -3.0840072    2489.0133   0.06215696   0.06084099            5 
 3338000   0.71308869   -3.0834025    2488.5944   0.06212788  0.060829843            4 
 3339000   0.72358296   -3.0701659    2498.2309  0.062349778  0.060818593            6 
 3340000   0.72658051   -3.0858798     2487.082  0.062052944  0.060807494            5 
 3341000   0.72095971    -3.078361    2498.8008  0.062326669   0.06079646            6 
 3342000    0.7211172   -3.0926583    2493.3121  0.062171159  0.060785258            3 
 3343000    0.7143646   -3.0997844    2488.6378  0.062036042  0.060774073            5 
 3344000   0.72048941   -3.0904778     2488.417  0.062011987  0.060762868            3 
 3345000   0.70468718   -3.0683985     2479.971  0.061783035  0.060751708            4 
 3346000   0.70603784   -3.1034139    2498.4165  0.062223961  0.060740609            3 
 3347000   0.72340127   -3.0902345    2488.8393  0.061966919  0.060729338            6 
 3348000   0.70211526   -3.0984016    2487.2132  0.061907936  0.060718062           10 
 3349000   0.71614294   -3.0806234    2491.3576  0.061992575  0.060706848            4 
 3350000   0.71461652   -3.0945812    2486.9744  0.061865034  0.060695617            6 
 3351000   0.72579575   -3.0823685    2488.4864  0.061884174  0.060684406            5 
 3352000   0.70861425   -3.0945493    2495.2486  0.062033827  0.060673184            4 
 3353000   0.71052463   -3.0797819    2479.0841  0.061613583  0.060661991            5 
 3354000   0.72830204   -3.0824071    2492.6405  0.061932034  0.060650766            5 
 3355000   0.70897735   -3.0898758    2491.8165  0.061893108  0.060639582            5 
 3356000   0.71414159   -3.0871187    2482.8735  0.061652599   0.06062824            3 
 3357000   0.70751612    -3.081398    2494.9688  0.061934484  0.060617091            4 
 3358000    0.7202347   -3.0796235    2486.3554  0.061702288  0.060606069            3 
 3359000    0.7217566   -3.0935409    2497.5183   0.06196086  0.060594833            4 
 3360000   0.72522426   -3.1058381    2491.7373  0.061799039  0.060583679            5 
 3361000   0.70937323   -3.0966698    2495.6741  0.061878262  0.060572517            3 
 3362000   0.71578549    -3.089451    2495.1363  0.061846527  0.060561333            6 
 3363000   0.72734229   -3.1068509    2491.5847  0.061740131  0.060550259            3 
 3364000   0.72019991   -3.1081719    2497.4633  0.061867403  0.060539172            7 
 3365000    0.7009539   -3.0974476    2498.7539  0.061880979  0.060528144            6 
 3366000   0.70877278   -3.0832803    2495.7449  0.061788098  0.060517022            5 
 3367000   0.71989873   -3.0916315    2495.5535   0.06176501  0.060505914            5 
 3368000   0.72462857     -3.08999    2495.8941  0.061755099  0.060494805            4 
 3369000   0.71579191   -3.1096545    2500.1654  0.061842421  0.060483753            3 
 3370000   0.71387235    -3.091724    2504.3839  0.061928386  0.060472719            4 
 3371000   0.71419262   -3.0976164    2493.3164  0.061636418  0.060461676            5 
 3372000    0.7199851   -3.1038828     2494.598  0.061649811  0.060450638            4 
 3373000   0.71832915    -3.069647     2498.252   0.06172181  0.060439665            7 
 3374000   0.71620859   -3.0921805    2497.3076  0.061680192  0.060428672            2 
 3375000    0.7185856   -3.0884831    2499.3471  0.061712274  0.060417621            2 
 3376000   0.71335382    -3.084028    2503.0593  0.061785627  0.060406663            9 
 3377000   0.72482541   -3.1035968    2501.8415  0.061737278  0.060395741            3 
 3378000   0.70484842   -3.0764899    2507.6666  0.061862706  0.060384767            7 
 3379000   0.71007129   -3.0929375    2508.0004   0.06185263   0.06037384           20 
 3380000   0.69718786   -3.1019524    2505.5708  0.061774428  0.060362936            5 
 3381000   0.71636047   -3.1036627    2502.2451  0.061674185  0.060351944            5 
 3382000   0.71207873   -3.0932245    2507.3515  0.061781774  0.060341066            6 
 3383000   0.70362625   -3.0771144    2507.8355  0.061775434  0.060330189            6 
 3384000   0.70770506   -3.0901253    2499.3708  0.061548729  0.060319296            3 
 3385000   0.70338968    -3.082153    2502.9077  0.061617619  0.060308405            6 
 3386000   0.70764896   -3.0855126    2505.3339  0.061659132  0.060297423            5 
 3387000   0.70020854   -3.1081164    2506.8397  0.061677976   0.06028643            3 
 3388000   0.68894471   -3.1066423    2508.3725  0.061697474  0.060275299            6 
 3389000   0.71414495   -3.0848075    2504.3074  0.061579311  0.060264205            7 
 3390000   0.71192021   -3.1025389    2506.6078  0.061617695  0.060253206            7 
 3391000    0.7068097   -3.1217567    2504.5242  0.061548319  0.060242232            9 
 3392000   0.69822457   -3.0890563    2509.3102  0.061647754  0.060231094            6 
 3393000   0.71359021   -3.0932235    2503.4483  0.061485614  0.060220038            3 
 3394000   0.70352782   -3.0887603    2513.8965  0.061724034  0.060208941            2 
 3395000   0.70319584    -3.104093    2501.5985  0.061403989  0.060197883            5 
 3396000   0.72174981   -3.0911007    2505.1348  0.061472683  0.060186814            9 
 3397000   0.71122441   -3.1316169    2499.6411  0.061319819  0.060175616            5 
 3398000   0.68626535   -3.1045696    2504.2125  0.061413883  0.060164519           10 
 3399000   0.70644721   -3.0943262    2506.0555  0.061440999  0.060153382            2 
 3400000   0.71326469   -3.0897722    2508.7502  0.061488976  0.060142328            3 
 3401000   0.70525708     -3.11479    2505.7379  0.061397086  0.060131263            4 
 3402000   0.70707723   -3.1072504    2507.7804   0.06142907  0.060120129            6 
 3403000   0.71834176   -3.1073583    2509.9494  0.061464133  0.060109027            3 
 3404000   0.70620994   -3.0940451    2504.1033   0.06130296  0.060097877            3 
 3405000   0.71178737    -3.133939      2510.03  0.061430004  0.060086704            5 
 3406000   0.70294782   -3.1132417    2510.5828  0.061425494  0.060075507            6 
 3407000   0.71040342   -3.1045415    2505.0329  0.061271717   0.06006436           19 
 3408000   0.69864318   -3.0988034    2502.9543  0.061202911  0.060053298            5 
 3409000   0.67946026   -3.0954334    2513.1883  0.061435129  0.060042096            4 
 3410000    0.7189098   -3.1196587    2503.0709  0.061169866  0.060030976            7 
 3411000   0.69931626   -3.0962249     2515.774  0.061462279  0.060019668           12 
 3412000   0.70960338   -3.0831578    2509.4053   0.06128872  0.060008537            5 
 3413000   0.70164397    -3.094674    2516.0934   0.06143406  0.059997425            7 
 3414000   0.71095866   -3.0971812    2507.4402  0.061204848  0.059986255            8 
 3415000   0.69457481   -3.1136298    2506.7764  0.061170728  0.059975166            6 
 3416000   0.70692374   -3.1117145    2502.4634  0.061047605  0.059963943            4 
 3417000   0.69301248   -3.1089483    2514.0328  0.061311891  0.059952656            7 
 3418000   0.69818748   -3.1037315    2507.3797  0.061131745  0.059941382            6 
 3419000   0.70551975   -3.0976368    2514.0606  0.061276704  0.059930106            3 
 3420000   0.70380496   -3.0974421    2517.4494   0.06134136  0.059919022            3 
 3421000   0.71852479   -3.1202664     2507.015  0.061069254  0.059907749            8 
 3422000    0.6955146   -3.1009127    2516.1635  0.061274195  0.059896595            4 
 3423000   0.71220163    -3.122332    2511.2919  0.061137693   0.05988548            3 
 3424000   0.69585691   -3.1055765     2505.211   0.06097184  0.059874237            3 
 3425000   0.70419664   -3.1065617    2508.9654  0.061045387  0.059863054            3 
 3426000   0.70959656   -3.1067437    2509.7746   0.06104725  0.059851916            6 
 3427000   0.69688496   -3.1134866    2510.4113  0.061044919  0.059840772            3 
 3428000   0.71866086   -3.1096701    2515.5011  0.061150844  0.059829546            7 
 3429000   0.71407051   -3.1058421    2509.0036  0.060975105  0.059818401            6 
 3430000   0.70604165    -3.103257    2507.8977  0.060930459  0.059807271            4 
 3431000   0.70474986    -3.132348    2514.1459  0.061064458  0.059796186            4 
 3432000   0.69538874   -3.0860688    2510.7272  0.060963655   0.05978504            4 
 3433000   0.70075609   -3.1067219    2513.1797  0.061005431  0.059773875            3 
 3434000   0.70697172    -3.104343    2509.2652  0.060892671  0.059762627            3 
 3435000   0.69825059   -3.0995343    2509.5557  0.060881991  0.059751341            6 
 3436000   0.70574249   -3.0963665    2523.3617  0.061199109  0.059740083           13 
 3437000   0.68627816     -3.10318    2516.0893  0.061004977  0.059728959            3 
 3438000   0.70011535   -3.1115769     2511.585  0.060878054  0.059717789            6 
 3439000    0.6972846   -3.1241325    2513.5536  0.060908054  0.059706446            5 
 3440000   0.69389627   -3.1030448    2524.6055  0.061158079  0.059695421            8 
 3441000   0.70406356   -3.1171013    2520.4958  0.061040778  0.059684354            8 
 3442000   0.70395738   -3.1101552     2521.289  0.061042247  0.059673222            3 
 3443000   0.69596342   -3.1209694    2518.6715  0.060961166  0.059662026            5 
 3444000   0.70965795   -3.1005411    2523.6609   0.06106419  0.059650931            6 
 3445000   0.70794359   -3.1246799     2519.498  0.060945766  0.059639695            4 
 3446000   0.69159663    -3.125976    2521.3538   0.06097296  0.059628456            3 
 3447000   0.69622625   -3.1109681    2520.1411  0.060925952  0.059617201           11 
 3448000   0.69140298   -3.1244007    2518.1014  0.060858986  0.059606091            5 
 3449000   0.69453503   -3.1166906    2518.6721  0.060855131  0.059594927            8 
 3450000   0.69688646   -3.1244158    2512.8527  0.060696924  0.059583717            7 
 3451000     0.699466   -3.0992478    2518.3822  0.060812861  0.059572524            5 
 3452000   0.70916438   -3.1018643    2524.9431  0.060953628    0.0595614            2 
 3453000   0.70979837    -3.112702      2524.13  0.060916353  0.059550163            6 
 3454000   0.69395817   -3.1011551    2518.5628  0.060764398  0.059539014            8 
 3455000   0.69940617   -3.1146237    2516.0674  0.060686624  0.059527788            4 
 3456000   0.69361072   -3.0945829    2514.2289  0.060624733  0.059516561            2 
 3457000   0.70812646   -3.1025432    2517.8856  0.060695344  0.059505296            3 
 3458000   0.71394983   -3.1199366    2522.7331  0.060794608  0.059494068            8 
 3459000   0.69894421   -3.1061833    2520.4837  0.060722842  0.059482774           10 
 3460000   0.71596405   -3.1190187    2522.4784  0.060753333  0.059471478            5 
 3461000   0.68915875   -3.1163477    2519.0637  0.060653561   0.05946029            3 
 3462000   0.69081197    -3.118914    2524.1224  0.060757809  0.059449064            4 
 3463000   0.69982332   -3.1193357    2518.3086  0.060600361  0.059437838            3 
 3464000   0.69686423   -3.1199958    2517.7048  0.060568341   0.05942659            3 
 3465000   0.70389713   -3.1335933    2515.9824  0.060509438  0.059415306           11 
 3466000   0.68915872   -3.1203227    2517.3732  0.060525418  0.059404054            6 
 3467000    0.7013392   -3.0963595    2518.8675  0.060543878  0.059392842            4 
 3468000   0.69556925   -3.1216173    2519.3319  0.060537579  0.059381684            6 
 3469000   0.71229826   -3.1241779    2515.1013    0.0604185  0.059370455            2 
 3470000   0.70352352   -3.0989302    2519.2993  0.060501905  0.059359119           11 
 3471000   0.70496905   -3.1382396    2516.6563   0.06042102   0.05934783            8 
 3472000   0.69667469   -3.1259907    2520.2558   0.06049001  0.059336466            6 
 3473000   0.71422289    -3.141218    2517.2176  0.060399694  0.059325184            5 
 3474000   0.70419114   -3.1319349    2509.7655  0.060203547  0.059313818            8 
 3475000   0.68810404   -3.1427705    2514.9786  0.060311237   0.05930244            6 
 3476000    0.6987881   -3.1129961    2523.1519  0.060489833  0.059291165            6 
 3477000     0.682267   -3.1309377     2520.891  0.060418249  0.059279756            9 
 3478000   0.70561226   -3.1043143    2521.3879  0.060412783  0.059268473            7 
 3479000   0.69905338   -3.1254743    2527.2736  0.060536398  0.059257226            8 
 3480000   0.69367872   -3.1196379    2530.3914  0.060593665  0.059245991            2 
 3481000   0.70517608   -3.1087318    2529.9632  0.060566006  0.059234711            6 
 3482000   0.71052527   -3.1192033    2521.9865  0.060357709  0.059223475            3 
 3483000   0.69550979   -3.1274724    2520.2889  0.060299762  0.059212166            4 
 3484000    0.7045872   -3.1108376    2523.7553  0.060365367  0.059200777            7 
 3485000   0.69730496   -3.1279446    2526.1648  0.060405663  0.059189494            3 
 3486000    0.6979864   -3.1172118    2519.7146  0.060234141  0.059178083            6 
 3487000   0.69230722   -3.1338576     2533.176  0.060538572   0.05916671            5 
 3488000   0.69944523   -3.1208284    2524.0959   0.06030428   0.05915534            7 
 3489000   0.70671198   -3.1200893    2517.3393  0.060125616  0.059144037            2 
 3490000   0.68150944   -3.1269307    2519.1646  0.060151972  0.059132625            6 
 3491000   0.68088439   -3.1116616    2520.3895  0.060163981  0.059121163            3 
 3492000   0.69227822   -3.1278415    2523.5049  0.060221099  0.059109745           12 
 3493000   0.69670947   -3.1087176    2530.0551  0.060360128  0.059098396            5 
 3494000   0.70385794   -3.1021118    2522.2405  0.060156472  0.059087198            5 
 3495000    0.6907969   -3.1317262    2518.7346  0.060055665  0.059075764            9 
 3496000   0.68316905   -3.1086373    2525.2336  0.060193402   0.05906441            4 
 3497000    0.6854623   -3.1308458    2524.0376  0.060147688  0.059053058            4 
 3498000   0.71145309   -3.1387119    2523.6676  0.060121679  0.059041679            4 
 3499000   0.69110108    -3.116892    2524.6132  0.060127016   0.05903022            4 
 3500000   0.69796372   -3.1259149    2531.1735  0.060266036  0.059018829            9 
 3501000   0.67174374   -3.1171757    2531.1372  0.060247959  0.059007434            7 
 3502000   0.68015533   -3.1156418    2521.8763  0.060010382  0.058996045            4 
 3503000   0.69000888     -3.12363    2522.2254  0.060001556   0.05898464            4 
 3504000   0.68708049   -3.1281753    2520.6264  0.059946403  0.058973196           11 
 3505000   0.70367983   -3.1332132    2524.0776  0.060011355  0.058961763           13 
 3506000   0.68540658   -3.1279688      2518.54  0.059862617  0.058950322            4 
 3507000   0.69484519   -3.1167267    2528.3687  0.060079098  0.058938894            6 
 3508000    0.7064021   -3.1344712    2528.2367  0.060058834  0.058927527            4 
 3509000   0.71042035   -3.1135489     2524.389  0.059950342  0.058916133            4 
 3510000   0.70490145   -3.1280152    2533.2403  0.060143408  0.058904823            5 
 3511000   0.67785853   -3.1295621    2522.6102  0.059873972    0.0588935            5 
 3512000   0.69324019   -3.1447909    2534.6832  0.060143395  0.058882144            3 
 3513000   0.69261203   -3.1315798    2530.5563  0.060028379  0.058870757            6 
 3514000   0.70339956   -3.1213004    2530.7157  0.060015076  0.058859377            2 
 3515000   0.70094978   -3.1296589    2526.9097   0.05990777  0.058848013            7 
 3516000   0.68195416   -3.1164116    2526.6488  0.059884547  0.058836641            6 
 3517000   0.70288567   -3.1189368    2530.0347  0.059947748  0.058825281            3 
 3518000   0.68247427   -3.1165426    2535.3847  0.060057437  0.058814057            4 
 3519000   0.69679252   -3.1451803    2527.1688  0.059845808  0.058802746            9 
 3520000     0.687697   -3.1258393    2528.0892  0.059850597  0.058791445            5 
 3521000   0.66956267   -3.1439354    2532.8208  0.059945583  0.058780047            4 
 3522000   0.71136887   -3.1363989    2522.3933  0.059681839   0.05876865            3 
 3523000   0.68186813   -3.1350848    2521.4152  0.059641764  0.058757306            5 
 3524000   0.68445845   -3.1219603    2526.3239  0.059740918  0.058745803            7 
 3525000   0.69274895   -3.1568323    2533.3459  0.059889974  0.058734438            3 
 3526000   0.68000744   -3.1220246    2528.0052  0.059746766  0.058723032            8 
 3527000   0.68937296    -3.137965    2522.4235  0.059597947  0.058711603            2 
 3528000   0.68129429    -3.142763    2528.9214  0.059734539  0.058700159            5 
 3529000   0.68753687   -3.1521401    2525.0818  0.059626944  0.058688774            9 
 3530000   0.67723358   -3.1178818    2535.3134  0.059851591  0.058677423            4 
 3531000   0.68896075   -3.1554931     2538.087  0.059900098  0.058666013            5 
 3532000   0.67941738   -3.1134484    2537.0861  0.059859524  0.058654725            5 
 3533000   0.69545018   -3.1173622    2540.1302  0.059914383  0.058643351            8 
 3534000   0.69208357   -3.1338807    2534.6291  0.059767711  0.058631984            8 
 3535000    0.6948484   -3.1153345    2531.5215  0.059677545  0.058620605            5 
 3536000   0.68344969   -3.1171512    2541.2251  0.059889356  0.058609319            4 
 3537000   0.69516634   -3.1148252    2538.3356  0.059804345  0.058598056            6 
 3538000   0.69183151    -3.151098    2535.0877   0.05971094   0.05858666            3 
 3539000   0.68174576   -3.1513477    2543.3516   0.05988866  0.058575258            4 
 3540000   0.67813952   -3.1197199    2526.5626  0.059476521  0.058563923            9 
 3541000    0.6704221   -3.1512396    2542.1714  0.059827059  0.058552647            6 
 3542000    0.6903823    -3.124794    2539.7276  0.059752673  0.058541458            6 
 3543000   0.67933534   -3.1514121    2540.9435  0.059764407  0.058530202            4 
 3544000   0.68650067    -3.136036    2538.7631  0.059696273  0.058518951            5 
 3545000   0.69542123   -3.1169776    2540.4815  0.059719827  0.058507698            2 
 3546000   0.68350191   -3.1205319    2548.8646  0.059899994  0.058496518            6 
 3547000   0.69965923    -3.139339    2539.4409  0.059661707  0.058485345            3 
 3548000   0.67698815   -3.1316119    2541.9055  0.059702778  0.058474196            7 
 3549000   0.68916548   -3.1313466    2547.1261  0.059808541  0.058462989            4 
 3550000   0.68089264   -3.1333785    2542.6223   0.05968597  0.058451758            4 
 3551000   0.68168733   -3.1385049    2547.6908  0.059788107  0.058440589            5 
 3552000   0.68600022   -3.1295191    2548.8485  0.059798436  0.058429383            4 
 3553000   0.67556469   -3.1648859    2541.0176  0.059597937  0.058418271            3 
 3554000   0.69062941   -3.1391766     2543.962  0.059650205  0.058406955           10 
 3555000   0.69269133   -3.1105838    2537.7829  0.059488582  0.058395749            3 
 3556000    0.6918118   -3.1397964    2548.7067  0.059727847  0.058384558            4 
 3557000   0.68946722   -3.1556067    2539.7721  0.059501737  0.058373296            5 
 3558000   0.66882522   -3.1257953    2550.2883  0.059731317  0.058362113            1 
 3559000   0.67412483    -3.128137    2551.3371  0.059739092  0.058351011            9 
 3560000   0.67204488   -3.1123272    2545.7716  0.059592033  0.058339757            3 
 3561000   0.68276885   -3.1377459    2542.7268  0.059504043  0.058328577            5 
 3562000   0.68512315   -3.1244793    2547.9386  0.059609269  0.058317283            8 
 3563000    0.6933294   -3.1435579    2546.4776  0.059558367   0.05830607            5 
 3564000   0.67500104   -3.1506032    2546.7987  0.059549165  0.058294909            4 
 3565000   0.67841752   -3.1474643    2535.9982  0.059279996  0.058283702            8 
 3566000   0.67645125   -3.1390739    2540.8171  0.059375983  0.058272521           10 
 3567000   0.67184257   -3.1415468    2549.5288  0.059562863  0.058261325            9 
 3568000   0.67917919   -3.1492991    2549.1557  0.059537455  0.058250159            7 
 3569000   0.66856098   -3.1458877     2547.262  0.059476558  0.058238917            7 
 3570000   0.68405173   -3.1367144    2543.9791  0.059383266   0.05822766            4 
 3571000   0.68630654   -3.1211402    2548.0395  0.059461389  0.058216532            9 
 3572000   0.67000192   -3.1266023    2542.5621  0.059316959  0.058205445           11 
 3573000   0.68189131    -3.127584    2548.1898  0.059431612  0.058194272            7 
 3574000   0.68775115   -3.1410008    2544.3438  0.059325308  0.058183095           13 
 3575000   0.67864498   -3.1471023    2540.2753  0.059213877  0.058171966            4 
 3576000    0.6804224   -3.1219684    2556.9982   0.05958702  0.058160892            7 
 3577000   0.68502514   -3.1478373    2543.3754  0.059252992  0.058149892            7 
 3578000    0.6705388    -3.145602    2549.5783    0.0593809  0.058138837            5 
 3579000   0.67512179    -3.153698    2550.7692  0.059392036  0.058127666            7 
 3580000   0.67663452   -3.1383166     2546.341  0.059272371  0.058116623            7 
 3581000   0.67176205   -3.1540277    2549.9631  0.059340109   0.05810544           10 
 3582000   0.67449872    -3.141691    2558.8544  0.059530393  0.058094353            5 
 3583000   0.66963698    -3.139862    2550.8803  0.059328317  0.058083279            4 
 3584000   0.68599132   -3.1503912    2553.9354  0.059382799  0.058072222            8 
 3585000   0.67767384   -3.1380696    2548.6312  0.059242939  0.058061047            5 
 3586000   0.67487915   -3.1308145    2550.3301  0.059265898  0.058049948            5 
 3587000   0.67528416    -3.154837    2555.0691  0.059359471  0.058038808            6 
 3588000   0.68556133   -3.1492554    2553.5302  0.059307185  0.058027638            5 
 3589000   0.70434994    -3.129231     2550.106  0.059211155  0.058016561            9 
 3590000   0.66710023   -3.1691144    2552.2045  0.059243373  0.058005484            6 
 3591000   0.67984175   -3.1533728    2549.6794  0.059168277   0.05799436            7 
 3592000    0.6892007   -3.1583448    2554.6631  0.059267425  0.057983332            7 
 3593000   0.67764094   -3.1709165    2552.3455  0.059197177   0.05797216            6 
 3594000    0.6688722   -3.1568622    2556.1703  0.059269392  0.057961045            7 
 3595000   0.67293575   -3.1289585    2550.9723  0.059132413  0.057949873            3 
 3596000   0.67818863   -3.1463159    2558.7754  0.059296797  0.057938788           12 
 3597000   0.68456905   -3.1371583    2556.6327   0.05923067  0.057927706            6 
 3598000   0.66379285   -3.1524149    2556.9172  0.059220798  0.057916494           16 
 3599000   0.67363585    -3.133252    2552.2912  0.059097231   0.05790542            5 
 3600000   0.67417855   -3.1730663    2551.5649  0.059064003  0.057894274            7 
 3601000   0.67316108   -3.1418068    2552.0778  0.059059469  0.057883218            8 
 3602000   0.67386385   -3.1580466    2555.9316  0.059132233  0.057872069            4 
 3603000   0.66213988   -3.1371056    2558.4496  0.059174059  0.057861045            8 
 3604000   0.65918483   -3.1250843    2558.6042  0.059161214  0.057850057            4 
 3605000   0.69292595    -3.162355    2556.4241  0.059094408  0.057838949            7 
 3606000   0.67932924   -3.1365453    2566.9352  0.059320928  0.057827955            5 
 3607000   0.67464434   -3.1480318    2556.6494  0.059066847   0.05781695            4 
 3608000   0.67293653   -3.1495341      2560.33  0.059135485  0.057805874            6 
 3609000   0.66828427   -3.1385205    2560.5731  0.059124714  0.057794905            9 
 3610000   0.66762403   -3.1518396    2561.2982  0.059125075  0.057783838            4 
 3611000   0.67120616   -3.1488837    2563.4796  0.059159043  0.057772808            6 
 3612000   0.67842022   -3.1667116    2555.2666  0.058953179  0.057761864            3 
 3613000   0.66432608    -3.184331    2553.3633  0.058892962  0.057750778            5 
 3614000   0.65972389   -3.1397955    2561.4713  0.059063625  0.057739847            5 
 3615000   0.67475929   -3.1589489    2561.7927  0.059054695  0.057728921            5 
 3616000   0.67461958   -3.1586587    2568.9454  0.059203204  0.057717943            5 
 3617000   0.66447084    -3.168183    2555.9754  0.058888014   0.05770685            6 
 3618000   0.67523436   -3.1625496    2562.7723  0.059028291  0.057695772            5 
 3619000   0.67320994   -3.1396548    2558.9862  0.058924801  0.057684766            8 
 3620000   0.68521402   -3.1513925    2567.4759  0.059103957   0.05767385            5 
 3621000   0.68663848   -3.1368333    2560.2666   0.05892172  0.057662861            6 
 3622000   0.66775315   -3.1641917    2563.4928  0.058979681  0.057651824            4 
 3623000   0.65971903   -3.1509082    2557.8292   0.05883313  0.057640772           12 
 3624000   0.66531603   -3.1638125    2559.3188   0.05885115  0.057629702            6 
 3625000   0.66985679   -3.1579928    2564.1732  0.058946511  0.057618645            5 
 3626000   0.67502859   -3.1461722    2562.0936  0.058882459  0.057607564            5 
 3627000   0.67064897   -3.1496325    2564.4739  0.058920916   0.05759645            7 
 3628000   0.67101298   -3.1555372    2560.1438  0.058805213  0.057585324            7 
 3629000   0.67958922   -3.1533576    2562.0254  0.058832217  0.057574163            5 
 3630000   0.67079074   -3.1477588     2558.734  0.058740451  0.057563039            5 
 3631000   0.68358452   -3.1646541    2551.9985  0.058569689  0.057551871            3 
 3632000     0.670561   -3.1655545    2559.9711  0.058736487  0.057540626            4 
 3633000   0.66927741   -3.1608706    2553.7189  0.058576908  0.057529405            6 
 3634000   0.67329075    -3.154356    2561.7019  0.058743852   0.05751815            6 
 3635000   0.65135752   -3.1395004    2555.0901  0.058576113  0.057506942            5 
 3636000   0.67014931   -3.1543232    2562.0285  0.058719025  0.057495685            5 
 3637000   0.65816682   -3.1562702     2554.587  0.058532376  0.057484508            5 
 3638000    0.6623686   -3.1495959    2567.5839  0.058813998    0.0574733            5 
 3639000   0.66953832   -3.1617157    2555.9131  0.058530573  0.057462036            5 
 3640000   0.67860637   -3.1517035    2557.0285  0.058540029  0.057450693            5 
 3641000   0.66410701   -3.1569298    2553.9962  0.058454551  0.057439379            7 
 3642000   0.66123291   -3.1533076    2560.5332  0.058588075  0.057428081            6 
 3643000   0.66068527   -3.1674904    2554.8258  0.058441436  0.057416816            5 
 3644000   0.65688003   -3.1741438    2555.5444  0.058441832  0.057405367            3 
 3645000   0.65758286   -3.1726804    2567.9551  0.058709536  0.057393983            5 
 3646000   0.67764451   -3.1870531    2556.5743  0.058433312  0.057382658            8 
 3647000   0.66650065   -3.1689762     2560.982  0.058518006    0.0573713            4 
 3648000   0.67875805   -3.1564123    2562.1804   0.05852934  0.057360079            5 
 3649000   0.67429828   -3.1681677    2562.1569  0.058512763  0.057348852            5 
 3650000   0.68710441   -3.1630535     2566.146  0.058587809   0.05733762            3 
 3651000   0.67882198   -3.1520473    2559.3786  0.058417297  0.057326304            4 
 3652000   0.67393284   -3.1470298    2565.9378  0.058550972  0.057315016            5 
 3653000   0.67295928   -3.1653591     2566.147  0.058539717  0.057303828           13 
 3654000   0.67258749   -3.1355401    2566.1921  0.058524723  0.057292558           12 
 3655000   0.68094768   -3.1562398    2563.6697  0.058451202  0.057281286            4 
 3656000   0.66647614   -3.1782197    2556.6516  0.058275245  0.057269953            6 
 3657000   0.66448265   -3.1605032    2572.2708  0.058615231  0.057258665            7 
 3658000   0.66440489   -3.1727773    2563.1129  0.058390579   0.05724741            6 
 3659000   0.66289221   -3.1754583    2567.2478  0.058468794  0.057236177           10 
 3660000   0.66083601   -3.1673516     2569.578  0.058505875  0.057224941            8 
 3661000   0.67418949   -3.1743373    2562.9537  0.058339108  0.057213693            4 
 3662000   0.66053089   -3.1557224    2563.4955  0.058335507  0.057202453            8 
 3663000   0.66421799   -3.1685811    2560.7411  0.058256918  0.057191195            8 
 3664000   0.67631258   -3.1776039    2573.1437    0.0585231  0.057180021            7 
 3665000   0.66409679   -3.1820712    2569.1808  0.058417026  0.057168863           12 
 3666000    0.6766032   -3.1809356    2564.8607  0.058302888  0.057157705            4 
 3667000   0.66468284   -3.1640345    2565.0281  0.058290794  0.057146529            7 
 3668000   0.67024288   -3.1600526    2566.5643  0.058309803  0.057135384            6 
 3669000   0.65225242   -3.1691911    2566.0935  0.058283218   0.05712407            6 
 3670000   0.66769895   -3.1601258    2557.2743  0.058067082  0.057112883            5 
 3671000   0.68232018   -3.1697979    2564.8221  0.058222603   0.05710164            3 
 3672000   0.65176945   -3.1907215    2569.0039   0.05830165  0.057090369            4 
 3673000   0.66797752   -3.1672984    2560.6322  0.058095839  0.057079004            8 
 3674000   0.65421261    -3.154163    2563.1481  0.058137091  0.057067741            5 
 3675000   0.65381225   -3.1934675    2566.7815  0.058203663  0.057056379            9 
 3676000   0.66483614   -3.1730674    2572.1229  0.058308915  0.057045029           10 
 3677000   0.67163321   -3.1624789    2560.8942  0.058038577  0.057033746            6 
 3678000   0.67372879    -3.149053    2566.2528   0.05814421  0.057022522           19 
 3679000   0.65504748    -3.164222    2566.7994  0.058140786  0.057011416            4 
 3680000   0.66475001   -3.1585483    2564.8406  0.058080629  0.057000116           11 
 3681000   0.65435673    -3.188475    2568.4645  0.058146891  0.056988862            3 
 3682000   0.65993805   -3.1598794    2578.4653  0.058357445  0.056977697           10 
 3683000   0.66115618   -3.1626718    2572.3983  0.058204324  0.056966537            6 
 3684000   0.68079932    -3.174896    2573.8037  0.058220316  0.056955348            8 
 3685000   0.65785759   -3.1783703    2569.7785  0.058113488  0.056944128            4 
 3686000   0.65521831   -3.1733854    2570.1941  0.058107119  0.056932834            3 
 3687000   0.65924038   -3.1858906    2569.0222  0.058064873  0.056921497            5 
 3688000   0.66976248   -3.1534822    2562.4245  0.057900047  0.056910169            5 
 3689000   0.65629121   -3.1648879    2570.3912  0.058064316  0.056898943            8 
 3690000   0.66735203   -3.1672047    2575.7575  0.058169771  0.056887647            5 
 3691000   0.67568319   -3.1715187    2565.6004   0.05792469   0.05687631            5 
 3692000   0.65683836   -3.1504135     2569.953  0.058007245  0.056865028            5 
 3693000   0.65959391   -3.1754851    2570.3615  0.058000756  0.056853788            6 
 3694000   0.66028605   -3.1688975    2569.4398  0.057964262  0.056842592            4 
 3695000   0.64788328    -3.163906    2576.5663  0.058109298  0.056831352            3 
 3696000   0.66131332   -3.1809362    2575.2438  0.058063757  0.056820193           12 
 3697000   0.66094755   -3.1499338     2572.008  0.057975116  0.056808993           11 
 3698000   0.65678333   -3.1638502    2576.4907  0.058060454  0.056797698            4 
 3699000   0.64419369   -3.1955403    2566.7932  0.057826286  0.056786454            5 
 3700000   0.65521507    -3.179517    2567.9761    0.0578373  0.056775084            8 
 3701000   0.65832225   -3.1960893     2566.092  0.057779249  0.056763708            3 
 3702000   0.65251489   -3.1920007    2566.2995  0.057768311  0.056752322            4 
 3703000   0.66800714   -3.1713046    2572.2391  0.057886378  0.056741158            8 
 3704000   0.65404312   -3.1692524    2570.8541  0.057839591  0.056729912            5 
 3705000   0.65838686   -3.1713319    2566.5048  0.057726154  0.056718689            8 
 3706000   0.65273793   -3.1774914    2573.8262  0.057875207  0.056707442            6 
 3707000   0.66125817   -3.1678852    2574.8678   0.05788301  0.056696172            7 
 3708000   0.66434697   -3.1514042    2582.3475  0.058035498  0.056684984            4 
 3709000   0.66961716   -3.1824047    2573.6217    0.0578238    0.0566738            8 
 3710000   0.65410182   -3.1784297    2569.9576  0.057725913  0.056662586            5 
 3711000   0.64553141   -3.1847344    2568.4134  0.057675681  0.056651263            8 
 3712000   0.66771361   -3.1720452    2574.3094  0.057792506  0.056639943           14 
 3713000   0.66967698    -3.170023    2573.8118  0.057765774  0.056628645            6 
 3714000    0.6551812    -3.168762    2575.9029  0.057797139   0.05661738            6 
 3715000   0.65197063   -3.1777005    2570.8732  0.057668758  0.056606114            9 
 3716000   0.66240482   -3.1712288    2580.2429  0.057863358  0.056594906            9 
 3717000   0.66075019   -3.1723446    2575.5823  0.057743304   0.05658374            8 
 3718000   0.66396442   -3.1791856    2576.4266  0.057746696  0.056572576            7 
 3719000   0.65737238   -3.1753023    2575.1474  0.057702505  0.056561318           14 
 3720000   0.64645431   -3.1672185    2581.1275  0.057820957  0.056550062            6 
 3721000   0.64167774   -3.1609417    2580.9011  0.057800347  0.056538813            4 
 3722000   0.63281137   -3.1643967    2574.6547  0.057644965  0.056527539            7 
 3723000   0.64848466   -3.1880776    2578.4895  0.057715317  0.056516251           11 
 3724000   0.65891218   -3.1635133    2571.2433  0.057537668  0.056504924            6 
 3725000   0.66436482   -3.1736192    2580.9799  0.057740042  0.056493661            5 
 3726000   0.63737915   -3.1701682     2574.727  0.057584697  0.056482306           14 
 3727000   0.65558913   -3.1846219    2572.6074  0.057521853   0.05647094            6 
 3728000   0.66138118   -3.2021357    2571.9843  0.057492496  0.056459532            6 
 3729000   0.65412475    -3.175509    2580.1194  0.057658877  0.056448288            4 
 3730000   0.66410351   -3.2079228    2575.2658  0.057534982  0.056437008            5 
 3731000   0.64884255   -3.1840316     2580.245  0.057630775  0.056425659            7 
 3732000   0.66077045   -3.1951846    2561.1093  0.057188042  0.056414284            9 
 3733000   0.66081175   -3.1649557    2574.5594  0.057472975  0.056402976            3 
 3734000   0.64479187   -3.1784793    2575.3084    0.0574743    0.0563916            6 
 3735000   0.65270855   -3.2043463    2578.4837  0.057529757  0.056380279            6 
 3736000   0.65675012   -3.1950368    2570.5209  0.057336743  0.056368926            8 
 3737000   0.64940475   -3.1790933    2573.0739  0.057378331  0.056357557            9 
 3738000   0.65799681   -3.1837697    2578.1377  0.057475872   0.05634631            8 
 3739000   0.64213471   -3.1719042     2582.574  0.057559374  0.056335062            6 
 3740000   0.66388014   -3.1804909    2581.7916  0.057526552  0.056323772           11 
 3741000   0.66142349   -3.1976313    2582.0799  0.057517596  0.056312505            7 
 3742000   0.64746954   -3.1808647    2579.7469  0.057450269  0.056301218            4 
 3743000   0.64648301   -3.1742913     2580.244  0.057445987  0.056289967            4 
 3744000   0.65274169   -3.1719889    2581.8112  0.057465528  0.056278696            9 
 3745000   0.65564253   -3.1873494    2580.8381   0.05742853  0.056267426            4 
 3746000   0.66350297   -3.1830363    2579.7136  0.057388183  0.056256182            3 
 3747000   0.64368654   -3.1928362    2581.6993   0.05741703  0.056244988            9 
 3748000   0.65293344   -3.1839754    2579.6203  0.057355486  0.056233808            5 
 3749000   0.66979992   -3.1637547    2584.5953  0.057450772  0.056222618            5 
 3750000   0.64047654   -3.2029329    2578.5768  0.057301707  0.056211375            3 
 3751000   0.64665972    -3.192421    2583.1433  0.057387881  0.056200052            7 
 3752000   0.65895756   -3.2033532    2578.2502  0.057263909  0.056188823            7 
 3753000   0.64774419   -3.1861436    2575.8096  0.057194459  0.056177576           13 
 3754000   0.65513735   -3.1891631    2577.8421   0.05722434  0.056166395            8 
 3755000   0.65561178   -3.1883421    2584.1166  0.057348349  0.056155234            6 
 3756000   0.66534233    -3.192861     2580.714  0.057257588  0.056144035            7 
 3757000   0.66386313   -3.1977344    2582.3027  0.057277587  0.056132771           11 
 3758000   0.65245826   -3.1687707    2585.9667  0.057343594  0.056121589            5 
 3759000   0.65426732   -3.1606328    2587.8395  0.057369856  0.056110527            6 
 3760000    0.6521409   -3.1825213    2582.9548  0.057246339  0.056099304            6 
 3761000   0.65217394   -3.2030483     2579.102  0.057145751  0.056088038           12 
 3762000   0.64232695   -3.2119052    2579.6722  0.057143192  0.056076733            8 
 3763000   0.63984412   -3.1885077    2578.9761  0.057112589  0.056065501            4 
 3764000   0.65757745   -3.1896247    2586.0536  0.057254109  0.056054243            5 
 3765000   0.63297561   -3.1940662    2586.9126  0.057257916  0.056043095            5 
 3766000   0.64409681    -3.184014    2585.4307   0.05720992  0.056031943            7 
 3767000   0.66036651   -3.1664108     2577.535  0.057020064   0.05602078            5 
 3768000   0.63930214    -3.184261    2586.6295  0.057206067  0.056009566            6 
 3769000   0.66553521    -3.169052    2581.4259  0.057075835  0.055998472            6 
 3770000    0.6491843   -3.1967365    2587.2051  0.057188443  0.055987282            5 
 3771000   0.65381027   -3.1769176    2594.2059  0.057327983  0.055976204            5 
 3772000   0.64947989   -3.2004324    2587.1967  0.057157932  0.055965061            4 
 3773000   0.65235928   -3.2147949    2587.4718  0.057148861  0.055953796            7 
 3774000   0.64743546   -3.1839525    2585.8158  0.057097151  0.055942526            6 
 3775000   0.65822002   -3.1841835    2583.5573   0.05703217  0.055931471            7 
 3776000   0.65623868   -3.1954157    2592.2618  0.057209167  0.055920316            7 
 3777000   0.66010245   -3.1901509    2581.3258  0.056952737  0.055909175            6 
 3778000   0.66479529   -3.1771733    2590.3166  0.057135977  0.055897976            3 
 3779000   0.65384392   -3.1944574    2582.7138  0.056953201  0.055886774           11 
 3780000   0.64922751   -3.1889404    2592.7133  0.057158582  0.055875655            5 
 3781000    0.6383227   -3.1865235    2595.4707  0.057204238  0.055864447           12 
 3782000    0.6511674   -3.1682809    2581.9912  0.056892104  0.055853187           10 
 3783000    0.6565087   -3.1933642    2589.7272  0.057047475   0.05584204           15 
 3784000   0.63181051   -3.1810402    2593.7308   0.05712057  0.055830918            8 
 3785000   0.64864409   -3.1995787    2590.0563  0.057024577  0.055819722            4 
 3786000   0.64425258   -3.1928026    2591.2829  0.057036513  0.055808541            6 
 3787000   0.63989646   -3.1867117    2588.2844  0.056955471  0.055797368            4 
 3788000   0.64134721    -3.181043    2589.5062  0.056967313  0.055786267            4 
 3789000   0.64908718   -3.1954603    2587.6173  0.056910734  0.055775092            6 
 3790000   0.65699202    -3.189192    2597.7889   0.05711937  0.055763886            7 
 3791000   0.66120199    -3.201217    2583.1119  0.056781674  0.055752765            4 
 3792000   0.64233708   -3.1801809     2586.168  0.056833861  0.055741643            6 
 3793000   0.63468099   -3.1759572    2592.9412  0.056967686    0.0557306            4 
 3794000   0.64094467   -3.2036675    2592.5442   0.05694395  0.055719488            7 
 3795000   0.63761052   -3.1995219    2593.0619  0.056940313  0.055708362            7 
 3796000   0.63945698   -3.1956043    2590.3424  0.056865613  0.055697204            3 
 3797000   0.66134175   -3.1968211    2586.3309  0.056762596    0.0556861           12 
 3798000   0.63772671    -3.201577    2589.4509  0.056816107  0.055675002            6 
 3799000   0.65219128   -3.1970856    2589.2544  0.056796841  0.055663858            5 
 3800000   0.63649876   -3.1950105    2589.8706  0.056795408  0.055652741           17 
 3801000   0.64771245   -3.2091835    2590.0705  0.056784848  0.055641686            9 
 3802000   0.62043291   -3.2152286    2596.6552  0.056914238  0.055630556            5 
 3803000    0.6491399   -3.1991748    2592.5652  0.056809651  0.055619407            7 
 3804000   0.64134505   -3.1878764    2591.9511  0.056781263  0.055608306            8 
 3805000   0.64807368   -3.2144314     2592.658  0.056781822   0.05559716            8 
 3806000   0.65832701    -3.191804     2589.734  0.056702881  0.055586051            7 
 3807000    0.6519378   -3.1802551    2591.4512  0.056725576  0.055574952            8 
 3808000   0.63514421   -3.1954111    2593.8657  0.056763518  0.055563856            5 
 3809000   0.63912002   -3.1849101    2588.3774  0.056628542  0.055552737            4 
 3810000   0.64683178   -3.2034694     2591.429  0.056680424  0.055541493            6 
 3811000   0.63775615   -3.1832048    2589.0953  0.056614521  0.055530342           12 
 3812000   0.63661663   -3.2005239    2593.6902  0.056700117  0.055519234            7 
 3813000   0.64277205   -3.2179543     2597.113  0.056760053  0.055508122            5 
 3814000   0.63543356   -3.1989599    2596.9612  0.056741855  0.055496888            7 
 3815000   0.63367141   -3.1749745    2601.1654  0.056818816  0.055485785            4 
 3816000   0.64155239   -3.1879104    2593.6719  0.056640285  0.055474684            5 
 3817000   0.63744845   -3.2174677    2597.2865  0.056704359  0.055463571            6 
 3818000   0.63107049   -3.2043974    2594.5881  0.056630611  0.055452406            8 
 3819000   0.63748272    -3.194222    2595.9487  0.056645472  0.055441234           11 
 3820000   0.63728894   -3.2083872    2585.8916  0.056411247   0.05543005            6 
 3821000    0.6430312   -3.2156812    2588.7399  0.056458604  0.055418847            7 
 3822000    0.6265177   -3.1941008    2591.8546  0.056511743  0.055407699            8 
 3823000    0.6503594   -3.2083009    2592.3308  0.056507342  0.055396514            7 
 3824000    0.6260832   -3.2121941    2591.3543  0.056471283  0.055385328            8 
 3825000   0.65033975   -3.2055197    2590.0583  0.056428284  0.055374198            7 
 3826000    0.6518227    -3.184737     2603.955  0.056716217   0.05536309            9 
 3827000   0.63851524   -3.2099556    2594.6786  0.056499402  0.055351964            3 
 3828000   0.64301847    -3.197774    2590.8751  0.056401843  0.055340763            3 
 3829000   0.63336181   -3.1990574    2604.9808  0.056694106   0.05532969            6 
 3830000   0.63850659   -3.2095438    2604.8177  0.056675755  0.055318578            6 
 3831000   0.64115241   -3.2405056    2594.9029  0.056445291  0.055307557            6 
 3832000   0.64608648    -3.202111    2594.0267  0.056411506  0.055296497            4 
 3833000   0.64346421   -3.1685432    2595.0239  0.056418469  0.055285423            5 
 3834000   0.62963577   -3.2045942    2601.0786  0.056535354  0.055274395            6 
 3835000   0.64540093    -3.211577    2599.3603  0.056483275  0.055263246            5 
 3836000   0.64707724   -3.2122069    2600.3136  0.056489259  0.055252181            6 
 3837000   0.65420173   -3.2006599    2601.3099  0.056496175  0.055241134            6 
 3838000   0.63267647   -3.2061954    2600.2768  0.056459025  0.055230093            8 
 3839000   0.63550953   -3.1989023    2591.6892  0.056257906  0.055219004           11 
 3840000   0.64767027   -3.2062778    2598.3598  0.056388017  0.055207899            5 
 3841000   0.64560566   -3.2205546    2607.8451  0.056579126  0.055196792            5 
 3842000   0.63134584   -3.2156349    2591.8795  0.056218106  0.055185693           12 
 3843000   0.63434719     -3.21394    2603.1245  0.056447318  0.055174522            6 
 3844000   0.64503361   -3.2137868    2602.2815  0.056414359  0.055163453            4 
 3845000   0.65003929   -3.2102551    2607.9437  0.056522403   0.05515232            7 
 3846000   0.65175148   -3.2164161    2601.6477  0.056371288  0.055141259            7 
 3847000   0.65042174   -3.2361687     2597.774  0.056272723  0.055130114           10 
 3848000   0.65150357    -3.209486    2599.1819  0.056288589  0.055118916            5 
 3849000   0.62787892    -3.211713    2604.8041   0.05639569  0.055107746            7 
 3850000   0.64589357   -3.2228479    2608.2759  0.056456189  0.055096549            6 
 3851000   0.63394014    -3.218696     2602.027  0.056306305  0.055085429            6 
 3852000   0.65945329   -3.2067137     2603.566  0.056324982  0.055074376            5 
 3853000   0.63835976   -3.2016578    2594.4359  0.056112897  0.055063238            7 
 3854000   0.63984042   -3.2064296    2601.5926  0.056253084  0.055052133            5 
 3855000   0.64262266   -3.2238898    2606.6176  0.056347117  0.055040997            8 
 3856000   0.62669786   -3.2064675    2597.9345   0.05614485  0.055029822           10 
 3857000    0.6395219   -3.2073145    2602.0319   0.05621882  0.055018705            4 
 3858000   0.63533311   -3.2230739    2605.2318  0.056273367  0.055007591            4 
 3859000   0.62918222   -3.2181338    2600.5864  0.056158468  0.054996488           10 
 3860000   0.63484152   -3.2000563    2609.4887  0.056336112  0.054985475            8 
 3861000   0.63908335    -3.221566    2599.8267  0.056112983   0.05497448            6 
 3862000   0.62157905   -3.2140888    2604.7467  0.056204615  0.054963349            7 
 3863000   0.62899333   -3.2104801    2603.3056  0.056158979  0.054952291            3 
 3864000   0.64717799   -3.2175619    2595.4774  0.055975617  0.054941165            5 
 3865000   0.64512797   -3.2262375    2603.6591   0.05613754  0.054930031            8 
 3866000   0.64104286   -3.2110608    2598.9585  0.056021695  0.054918915            4 
 3867000   0.63803295   -3.2036422    2604.2388  0.056120999  0.054907776           10 
 3868000   0.62592206   -3.2478328     2593.714   0.05587974  0.054896622           10 
 3869000   0.63032265   -3.1956654    2607.1464  0.056154613  0.054885505            4 
 3870000   0.61716271   -3.2158545    2601.5789  0.056020217  0.054874446            4 
 3871000   0.62587963   -3.2072384    2598.4793  0.055939019  0.054863344            6 
 3872000   0.64360609   -3.2185127    2606.6679  0.056100806  0.054852241            8 
 3873000    0.6368011    -3.225673    2603.8634   0.05602598  0.054841043            5 
 3874000   0.62763313   -3.2317049    2601.1229  0.055952565  0.054829935            9 
 3875000   0.62472618   -3.2118654    2604.4903  0.056010544  0.054818812            5 
 3876000   0.61778639   -3.2300152    2603.8983  0.055983367  0.054807717            7 
 3877000   0.62630342   -3.2056509    2606.3698  0.056022049  0.054796671            5 
 3878000   0.62101908   -3.2016574    2606.6268  0.056013125   0.05478562            4 
 3879000   0.62560623   -3.2307804    2605.3602  0.055971474  0.054774491           17 
 3880000   0.62686168   -3.2205295    2605.7703  0.055965857  0.054763349            6 
 3881000    0.6281733   -3.2280327    2603.0635  0.055893316  0.054752293            7 
 3882000   0.61812238   -3.2156659    2610.1683  0.056031433  0.054741229            9 
 3883000   0.64018881   -3.2140283    2609.5848  0.056004481  0.054730147           10 
 3884000    0.6395888    -3.212859    2606.7593  0.055929438  0.054719056            3 
 3885000   0.63352999   -3.2325485    2609.9906  0.055984355  0.054707973            4 
 3886000   0.63830018   -3.2194988    2607.5266  0.055917109  0.054696896           11 
 3887000   0.63133381   -3.2310376    2611.5777  0.055989574  0.054685884            6 
 3888000   0.62061887   -3.2020565     2602.355  0.055777499  0.054674871            6 
 3889000   0.64134304   -3.2399169     2605.988  0.055841004  0.054663773           10 
 3890000   0.63642697   -3.2209559    2607.1813  0.055852213  0.054652633            4 
 3891000   0.62879422   -3.2335336    2604.6245    0.0557831  0.054641472            5 
 3892000    0.6404544   -3.2169712    2611.0283  0.055905882  0.054630385           11 
 3893000    0.6215745   -3.1959306    2600.6669  0.055669726  0.054619277           10 
 3894000   0.64299792   -3.2320894    2607.5234  0.055802161  0.054608131            5 
 3895000    0.6237484   -3.2307854    2612.8342  0.055901459  0.054597043            7 
 3896000   0.62359403   -3.2350169    2596.4162  0.055535939  0.054585841           12 
 3897000   0.62549791   -3.2246374    2605.3627  0.055712999  0.054574645            5 
 3898000   0.62130325   -3.2212049    2610.5567  0.055809746    0.0545635            7 
 3899000   0.62656783   -3.2311792    2606.8427  0.055716053  0.054552438            3 
 3900000   0.62357252   -3.2304907    2606.6424  0.055697487  0.054541239            9 
 3901000   0.62703159   -3.2098466    2601.4978   0.05557331  0.054530121           13 
 3902000   0.61703665   -3.2205009    2602.8256  0.055587424  0.054518914           14 
 3903000   0.62737717   -3.2224736    2606.6904  0.055655701  0.054507744            5 
 3904000   0.62676777   -3.2331916    2606.2352  0.055631728  0.054496556            5 
 3905000   0.64201638   -3.2179371    2606.8258  0.055630085   0.05448535            7 
 3906000   0.61897413   -3.2146941    2609.3915  0.055670581  0.054474143            4 
 3907000   0.61373591    -3.240832    2611.8823  0.055709459  0.054462923           12 
 3908000   0.62926855   -3.2282772    2600.5382  0.055453306  0.054451807           11 
 3909000   0.63830729   -3.2226041    2611.8718  0.055680733  0.054440657            8 
 3910000   0.62017016   -3.2094058    2614.1071  0.055714132  0.054429612            4 
 3911000   0.61457328    -3.218084    2606.5144  0.055538106  0.054418417            7 
 3912000   0.61751097   -3.2299079    2607.8665  0.055552712   0.05440722           12 
 3913000   0.62328987   -3.2161741    2600.0695  0.055372467  0.054395994            8 
 3914000   0.63127621   -3.2264729    2606.4249  0.055493633  0.054384709            5 
 3915000   0.64145519   -3.2162377    2612.0918   0.05560008  0.054373392           13 
 3916000   0.63287567   -3.2309864    2610.1501  0.055544563  0.054362169            3 
 3917000   0.63214977   -3.2277401    2608.1785  0.055488436  0.054350944            7 
 3918000   0.62626755   -3.2237802    2600.2698  0.055306062  0.054339766            5 
 3919000   0.62254535   -3.2255962    2608.2273  0.055461156  0.054328526            7 
 3920000   0.60735713   -3.2149005    2609.7327  0.055479011  0.054317271            5 
 3921000   0.62948375   -3.2356134    2609.5114  0.055460158  0.054306038            9 
 3922000   0.62287636   -3.2420972    2609.5907  0.055447703  0.054294802            5 
 3923000   0.63896672   -3.2289166    2602.6439  0.055286003   0.05428357           14 
 3924000   0.62817251   -3.2348739    2605.0574  0.055323168  0.054272287            3 
 3925000   0.63533495   -3.2343313    2603.7732  0.055281808  0.054261075           10 
 3926000    0.6273063   -3.2371257    2598.3677  0.055152991  0.054249887            5 
 3927000   0.62679056   -3.2343507    2609.0939  0.055366562  0.054238714            8 
 3928000   0.62498031   -3.2376048    2609.1375  0.055353393  0.054227564            5 
 3929000   0.61537713   -3.2331709    2606.5161  0.055283704   0.05421628            7 
 3930000    0.6316408   -3.2256681    2611.2412  0.055369829  0.054205027            7 
 3931000   0.63259432   -3.2299093    2609.6819  0.055322689  0.054193759            8 
 3932000   0.63040944   -3.2368633     2610.646  0.055329053  0.054182518            8 
 3933000   0.62958191    -3.240355     2605.023  0.055195844  0.054171295            6 
 3934000   0.62161349   -3.2507433    2606.6069  0.055215364  0.054160121            7 
 3935000   0.61665391   -3.2316634    2613.2686   0.05534241   0.05414892           17 
 3936000   0.63927157   -3.2312288    2603.0143  0.055111245  0.054137775           18 
 3937000    0.6214383   -3.2403826    2611.2963   0.05527255  0.054126592           10 
 3938000   0.62713034   -3.2498589    2613.3264  0.055301474  0.054115396            7 
 3939000   0.61644686   -3.2431725     2609.702  0.055210756  0.054104225           12 
 3940000   0.61698027   -3.2379549    2610.2728  0.055208815  0.054093082            9 
 3941000   0.62218158    -3.228171    2618.4142  0.055366958  0.054081906            6 
 3942000   0.61697504   -3.2279142     2613.888  0.055257229  0.054070771            5 
 3943000   0.61941342   -3.2461661    2600.7374  0.054965284  0.054059542            4 
 3944000   0.62410336   -3.2281816    2609.1353  0.055128789  0.054048257            4 
 3945000   0.62473473   -3.2399564     2609.366  0.055119688  0.054037011            5 
 3946000    0.6154389   -3.2381773    2613.6938  0.055197116  0.054025742           13 
 3947000   0.63239316   -3.2530396    2612.5245  0.055158442  0.054014473            8 
 3948000    0.6173633   -3.2196648    2607.1246  0.055030492  0.054003249            8 
 3949000   0.62516855   -3.2101231    2611.6441   0.05511193  0.053992083           10 
 3950000   0.61908431   -3.2384007    2604.6125   0.05494963  0.053980817           12 
 3951000   0.61828525    -3.233192     2608.279  0.055013057  0.053969543           10 
 3952000   0.62472805   -3.2391873    2607.8688  0.054990485  0.053958322           10 
 3953000   0.61844521   -3.2418716    2609.7451   0.05501613  0.053947038            6 
 3954000   0.60665364   -3.2359453    2610.9048  0.055026656  0.053935791            9 
 3955000   0.61415759   -3.2290459    2614.0489  0.055078991  0.053924649            6 
 3956000   0.61061662    -3.247957     2608.979  0.054958271  0.053913478           16 
 3957000   0.61987903   -3.2454779    2617.4983  0.055123796  0.053902245            7 
 3958000   0.62589188   -3.2446797    2607.9501  0.054908838   0.05389108            5 
 3959000   0.62075729   -3.2339146    2611.8764  0.054977612  0.053879854            6 
 3960000   0.61291893   -3.2338546    2609.9828  0.054923881  0.053868624            7 
 3961000   0.62102542   -3.2392205    2618.4622  0.055088408  0.053857413            4 
 3962000   0.61885375   -3.2535211    2609.1472   0.05487858  0.053846185            8 
 3963000   0.62137271   -3.2432537    2617.6672  0.055043888  0.053834963            6 
 3964000   0.62809255     -3.24762    2612.6259  0.054924022  0.053823752            6 
 3965000   0.63973172    -3.254814    2604.1559  0.054732155  0.053812506           10 
 3966000   0.60829277   -3.2403496     2617.684  0.055002606   0.05380131            8 
 3967000   0.61567288   -3.2248574    2621.8027  0.055075261  0.053790136            4 
 3968000    0.6091159   -3.2614077    2614.6585  0.054911344  0.053779002           10 
 3969000   0.62557915   -3.2463005     2609.254  0.054784035  0.053767769           10 
 3970000   0.60309707   -3.2275827    2613.3634  0.054856494  0.053756621            5 
 3971000   0.62678053   -3.2541069    2607.6059  0.054721856  0.053745362            6 
 3972000   0.61175507   -3.2273675    2613.2313  0.054826102  0.053734089            6 
 3973000   0.62539545    -3.230262    2626.3965   0.05508844  0.053722962           10 
 3974000   0.60810995    -3.239935    2621.7229  0.054976575  0.053711873            6 
 3975000   0.61455351   -3.2338705    2616.6202  0.054855768  0.053700647            3 
 3976000   0.61225734   -3.2447115    2612.1032  0.054747299   0.05368944           15 
 3977000   0.60714581   -3.2404416    2611.7864  0.054726896  0.053678238            8 
 3978000   0.61426093   -3.2474414    2614.2988  0.054765769  0.053666988            2 
 3979000   0.61576204   -3.2270133      2604.53  0.054547415  0.053655773           11 
 3980000   0.61909546   -3.2381825    2618.8153  0.054832815  0.053644587           11 
 3981000   0.61000338   -3.2543985     2612.996  0.054697228   0.05363336            6 
 3982000   0.62784686   -3.2430218    2618.1682  0.054791733  0.053622149            6 
 3983000    0.6238515   -3.2511808    2621.2687  0.054842846  0.053610977            7 
 3984000   0.60916044   -3.2513983    2613.8726  0.054674378   0.05359976            9 
 3985000   0.60313842   -3.2312028    2610.9412  0.054599356  0.053588581            6 
 3986000   0.62740688   -3.2412939    2617.7411   0.05472782  0.053577416            5 
 3987000   0.61652605   -3.2410286    2622.7871  0.054819561  0.053566302            7 
 3988000   0.62022861   -3.2376374    2617.5619  0.054696629  0.053555082            7 
 3989000   0.61448321   -3.2512425    2607.8533  0.054480098  0.053543841            7 
 3990000   0.61196074   -3.2459876    2614.1118  0.054597154  0.053532652            6 
 3991000   0.62209265   -3.2552929    2619.8423  0.054703129  0.053521479            6 
 3992000   0.61445756   -3.2622835    2615.5375  0.054599565  0.053510264            6 
 3993000   0.62228183   -3.2397369    2616.4086   0.05460407  0.053499088            6 
 3994000   0.60407601   -3.2570559    2615.2668  0.054566575  0.053487934            7 
 3995000   0.60177257   -3.2497225    2613.4727  0.054515493  0.053476669           15 
 3996000   0.61309675    -3.232173    2613.7277  0.054507167  0.053465443            6 
 3997000   0.61457546   -3.2522827    2619.4528  0.054612892  0.053454251            9 
 3998000   0.61278694   -3.2529146    2618.6231  0.054581938   0.05344303            8 
 3999000   0.60617343   -3.2379223    2616.4314  0.054522617  0.053431792            4 
 4000000   0.62250764   -3.2605741    2608.6285  0.054346428  0.053420578           16 
 4001000   0.61013898   -3.2587293    2609.5312  0.054351646  0.053409365           12 
 4002000   0.60311733   -3.2574321    2613.0882  0.054412132  0.053398194            6 
 4003000   0.60442493     -3.23914    2623.0491  0.054605902  0.053387018            4 
 4004000   0.61981986   -3.2540142    2620.5813  0.054540903  0.053375924            6 
 4005000   0.61410449   -3.2468529    2616.1805  0.054435716  0.053364809            5 
 4006000   0.61309869   -3.2422244    2619.0131  0.054481052  0.053353668           10 
 4007000   0.60125484   -3.2399945    2621.5879  0.054521003   0.05334254           10 
 4008000   0.61713387   -3.2649997    2611.7409  0.054302663  0.053331438            7 
 4009000    0.6214046   -3.2494554    2616.4629  0.054387273  0.053320266            6 
 4010000   0.61514614   -3.2831429    2617.5581  0.054396468  0.053309073            8 
 4011000   0.61254318   -3.2753226    2620.2269  0.054438355  0.053297857           13 
 4012000   0.61601362   -3.2476239    2626.6431  0.054558058  0.053286713            9 
 4013000   0.61492419   -3.2405094    2619.1896  0.054389683  0.053275594           25 
 4014000   0.61146229   -3.2560116    2621.6035  0.054426247  0.053264541           15 
 4015000   0.60233561   -3.2629761    2620.0012  0.054379435  0.053253357            9 
 4016000   0.60886848   -3.2460687    2614.8024  0.054258019  0.053242135           10 
 4017000   0.60172966   -3.2622773    2616.1476  0.054272416  0.053230999            5 
 4018000   0.60779187   -3.2581405    2619.1664  0.054321521  0.053219809            6 
 4019000    0.6015157   -3.2561247    2618.0855  0.054285591  0.053208621            9 
 4020000   0.60299999   -3.2531075    2622.6327  0.054366349  0.053197396            8 
 4021000   0.61154943   -3.2581874    2617.4753  0.054245944  0.053186207           10 
 4022000   0.61868412   -3.2467181    2622.5518  0.054337639  0.053175052            9 
 4023000   0.61208783   -3.2477032    2618.3672  0.054237452  0.053163991            6 
 4024000   0.61509886   -3.2469141    2624.2423  0.054345641  0.053152853            7 
 4025000   0.60974796    -3.260131    2620.2323  0.054249116  0.053141726            4 
 4026000   0.60333827   -3.2779301     2622.953  0.054291957  0.053130559           14 
 4027000   0.61898558   -3.2473896    2623.2058  0.054283707   0.05311937            5 
 4028000   0.60778526   -3.2452071    2625.9081  0.054326135  0.053108277            5 
 4029000   0.60130692   -3.2524637    2624.4543  0.054282582  0.053097133            7 
 4030000   0.60746279   -3.2516727    2623.2443  0.054244091  0.053085969            6 
 4031000   0.61043257   -3.2493842    2624.7463  0.054261686  0.053074852           10 
 4032000    0.6182409   -3.2497087    2614.9521  0.054045803  0.053063753           12 
 4033000   0.60799585   -3.2625817    2616.2536  0.054059294  0.053052649           15 
 4034000   0.60061998   -3.2468142    2618.9016  0.054100595  0.053041473            6 
 4035000   0.61789704   -3.2805292    2613.4439  0.053974472   0.05303028            4 
 4036000   0.59552306   -3.2754423     2621.804  0.054133713  0.053019147           14 
 4037000   0.60900066    -3.268636    2625.4588  0.054195747  0.053008023            7 
 4038000   0.59742122   -3.2575599    2619.1663  0.054052467  0.052996854            9 
 4039000   0.61804922   -3.2482784    2621.3594  0.054084333  0.052985732            7 
 4040000    0.6004678   -3.2659261    2618.8905  0.054020018  0.052974618            4 
 4041000    0.6091948   -3.2497551    2622.2377  0.054075675  0.052963481            9 
 4042000   0.60880551   -3.2739425    2617.8767  0.053972388  0.052952318            9 
 4043000   0.60765024   -3.2435828    2620.7663  0.054018598  0.052941148            3 
 4044000   0.60624362   -3.2577598    2619.4077  0.053977245  0.052930064           21 
 4045000   0.60733701   -3.2768993     2622.718  0.054032098   0.05291893            6 
 4046000   0.61565543   -3.2734915    2626.4349  0.054095298  0.052907813            9 
 4047000   0.61368574   -3.2536884    2625.8929   0.05407077  0.052896679           14 
 4048000   0.59739327   -3.2773179    2614.9731  0.053832615  0.052885499            5 
 4049000    0.5908594   -3.2728872    2617.9587  0.053880767  0.052874293           12 
 4050000   0.60323737   -3.2845265    2625.8296  0.054029416  0.052863147           10 
 4051000   0.60052404    -3.266994    2621.2265  0.053921389  0.052851947            9 
 4052000   0.60837995   -3.2664373     2629.601  0.054080311   0.05284085            9 
 4053000   0.61151731   -3.2670847    2621.7812  0.053906184  0.052829778            6 
 4054000    0.5937422   -3.2590847    2620.5593  0.053867771  0.052818589            9 
 4055000   0.60084457   -3.2512013    2621.6618  0.053877144  0.052807555            6 
 4056000   0.60529969   -3.2749982    2622.8726  0.053888736  0.052796506            6 
 4057000   0.61640528   -3.2825534    2630.0581  0.054023048  0.052785457            5 
 4058000   0.60126788   -3.2776791    2614.3193   0.05368653  0.052774374           10 
 4059000   0.58657986   -3.2803698    2621.3058   0.05381674  0.052763248            7 
 4060000   0.60890494   -3.2642786    2625.4147  0.053887822  0.052752125            9 
 4061000   0.60279879   -3.2834226    2625.2946  0.053872088  0.052741028            6 
 4062000   0.60629754   -3.2823337    2626.3744  0.053880978  0.052730011            9 
 4063000   0.60756281   -3.2777987    2632.2392  0.053988006  0.052718935            9 
 4064000   0.60028273   -3.2842803    2626.0188  0.053847171  0.052707882            9 
 4065000   0.60928486   -3.2776027    2627.3674  0.053861571  0.052696786            6 
 4066000   0.59538782   -3.2859842    2630.6865  0.053916348  0.052685797            8 
 4067000   0.60516873   -3.2701666    2623.6083  0.053758058   0.05267464            7 
 4068000   0.60603575   -3.2849478    2626.1069  0.053796028  0.052663568           13 
 4069000   0.59341701    -3.256547    2628.0741  0.053823096  0.052652454            5 
 4070000    0.6058533   -3.2708459    2623.2673  0.053711452  0.052641365           10 
 4071000   0.59512201   -3.2649155     2635.452  0.053947679  0.052630248            4 
 4072000   0.61334799   -3.2975516     2626.142  0.053743902  0.052619181            4 
 4073000   0.59530569   -3.2783015    2629.0689  0.053790591  0.052608108            7 
 4074000   0.60003757   -3.2525111    2630.2483  0.053801511     0.052597           16 
 4075000   0.59322932   -3.2731668    2623.0492  0.053641088  0.052585922            7 
 4076000    0.6087005   -3.2630917    2619.1089  0.053547368  0.052574848           14 
 4077000   0.60970138   -3.2937122     2618.706  0.053525999   0.05256378           12 
 4078000   0.59977964   -3.2852223    2625.8867  0.053659611  0.052552638           23 
 4079000   0.59466051   -3.2770823    2618.4227  0.053493967  0.052541483            9 
 4080000   0.58784087   -3.2680545    2629.5424  0.053707973  0.052530401            8 
 4081000   0.61220573   -3.2463038    2640.0671  0.053909726  0.052519366            5 
 4082000   0.60935682   -3.2654442    2627.7705  0.053645487  0.052508286            5 
 4083000   0.58867895   -3.2773061    2638.6854  0.053855118  0.052497188           16 
 4084000   0.59253795   -3.2698621    2625.7393  0.053577768  0.052486172            8 
 4085000   0.59332555   -3.2709013      2633.04  0.053713587  0.052475039            6 
 4086000   0.60924127   -3.2743645    2622.9599  0.053494858  0.052463865            7 
 4087000   0.60759861   -3.2749209    2633.7896  0.053702585  0.052452777            3 
 4088000   0.60953925   -3.2847969    2619.8608  0.053405512  0.052441692           10 
 4089000   0.60137043   -3.2614889    2630.3093  0.053605391  0.052430623            7 
 4090000   0.60055616   -3.2833241    2629.8247   0.05358241  0.052419566            6 
 4091000   0.59680637   -3.2754869    2627.5823  0.053523636  0.052408515            8 
 4092000   0.60245847   -3.2802155    2630.1649  0.053563149  0.052397414            4 
 4093000   0.60378277   -3.2834226    2620.7285  0.053357939  0.052386339           10 
 4094000   0.60001278    -3.259824    2634.1808  0.053618727  0.052375252            9 
 4095000   0.57989055   -3.2698913    2630.9904  0.053540707  0.052364201            9 
 4096000    0.5960889   -3.2994386    2628.5329  0.053477638  0.052353074           13 
 4097000   0.59064673   -3.2816821    2629.1316  0.053476763  0.052341954            8 
 4098000   0.58862767   -3.2825115    2630.2615  0.053486691  0.052330908            7 
 4099000   0.59728776   -3.2743542    2631.4403  0.053497607  0.052319843            5 
 4100000   0.58356487     -3.26975    2632.8275  0.053512755  0.052308789           11 
 4101000   0.59553969   -3.2646332    2630.4849  0.053452102  0.052297704            6 
 4102000   0.58808361   -3.2900631    2636.5736  0.053562766  0.052286645            6 
 4103000   0.58959214   -3.2726147    2633.4656  0.053486588  0.052275704            7 
 4104000   0.59648986   -3.2777746    2634.5196  0.053494956  0.052264678            5 
 4105000   0.61351541    -3.271021     2635.731  0.053506516  0.052253661            7 
 4106000   0.58487441   -3.2731787    2629.0556  0.053358004  0.052242653            6 
 4107000   0.59835618    -3.298098     2633.991  0.053445155  0.052231612            4 
 4108000   0.60920215   -3.2918949    2634.4033  0.053440509  0.052220575            7 
 4109000   0.59615697   -3.2777081    2634.5755  0.053430994   0.05220951            5 
 4110000   0.59069527   -3.2874848    2623.0714   0.05318474  0.052198466           10 
 4111000   0.60811351   -3.2981572    2621.8883  0.053147821  0.052187359           11 
 4112000   0.58687419   -3.2796437    2628.0091  0.053258939  0.052176256            5 
 4113000   0.59355399   -3.2935289    2637.3677  0.053435604  0.052165198            7 
 4114000   0.60958108   -3.2925146    2632.2183  0.053318309  0.052154067           11 
 4115000   0.59646247   -3.2802443    2630.1438  0.053263341  0.052143031            8 
 4116000   0.59002164   -3.2693013    2635.1465  0.053351687  0.052131929           13 
 4117000   0.59117649   -3.2829117    2632.5149  0.053285461  0.052120782            9 
 4118000   0.59551711   -3.2648682    2629.3317  0.053208105  0.052109738            6 
 4119000   0.58075002   -3.2812376    2631.6364  0.053241814    0.0520987            9 
 4120000   0.57995745   -3.2732783    2631.7535  0.053231259  0.052087627            6 
 4121000   0.59317756   -3.2494313    2636.0515  0.053305256  0.052076563            9 
 4122000   0.58311409   -3.2801501    2630.7217  0.053184572  0.052065511            7 
 4123000   0.58673899   -3.2898598    2628.9729  0.053136327   0.05205443            9 
 4124000   0.60069436   -3.2653663    2633.1446   0.05320774  0.052043384            5 
 4125000   0.58761282    -3.295389    2626.4919  0.053060443  0.052032266           12 
 4126000   0.59054323   -3.2833316    2637.4198  0.053268295  0.052021243           13 
 4127000   0.59474098   -3.2949983    2633.8467  0.053183239  0.052010149            7 
 4128000   0.59457566   -3.2771165    2639.2947  0.053280335  0.051999089            5 
 4129000    0.5833827   -3.2816276    2633.4224  0.053148915  0.051988104            6 
 4130000   0.60677758   -3.2928351    2633.9745  0.053147185   0.05197701            6 
 4131000   0.58635552    -3.276685    2636.9758  0.053194864  0.051965936           11 
 4132000    0.5859026   -3.2912837    2636.5078  0.053172551  0.051954831            6 
 4133000   0.58354064   -3.3034715    2631.5988  0.053060707  0.051943774           14 
 4134000   0.58326685   -3.2801411    2627.9239  0.052973793   0.05193278            9 
 4135000   0.59035407   -3.2784731    2638.9407  0.053183005  0.051921864            5 
 4136000   0.58492016   -3.2808684    2643.4874  0.053261755  0.051910918            8 
 4137000   0.58628308   -3.2829377    2637.9864  0.053138072  0.051899919            6 
 4138000   0.58822911   -3.2661913     2633.694  0.053038787  0.051888995            9 
 4139000   0.58486516    -3.274421    2641.4251  0.053181627  0.051877974            7 
 4140000   0.59532973   -3.2808904    2639.1274  0.053122532  0.051866999            7 
 4141000   0.58082391   -3.2797562    2643.9284  0.053206319  0.051856042           10 
 4142000   0.58268955   -3.2968065    2630.8131  0.052929604   0.05184515            7 
 4143000   0.59203897   -3.2812466    2632.8616  0.052958034   0.05183418            8 
 4144000    0.5773861   -3.2916049    2640.9359  0.053107623  0.051823194            7 
 4145000    0.6069425    -3.286865    2638.6617  0.053049089  0.051812277            4 
 4146000   0.59432593   -3.2938693    2639.8955  0.053061092  0.051801302           11 
 4147000   0.59337846   -3.2968068    2636.0284  0.052970589  0.051790284            7 
 4148000   0.58650568   -3.2804885    2646.8969  0.053176167  0.051779278            8 
 4149000   0.57985525    -3.305141    2640.2136  0.053029116  0.051768381            7 
 4150000   0.59149822    -3.285745     2637.478  0.052961405  0.051757426            8 
 4151000   0.57787544   -3.2575246     2639.564  0.052990524  0.051746534            7 
 4152000    0.5981781   -3.2761938    2641.6513  0.053019656   0.05173563            9 
 4153000   0.60330816   -3.2887107     2642.011  0.053014106  0.051724769           18 
 4154000   0.59604486   -3.2877664    2640.6178  0.052973395  0.051713833            7 
 4155000   0.57544876   -3.2754093    2640.3583  0.052955441  0.051702987           15 
 4156000   0.59084686   -3.3106512    2641.1818  0.052959211   0.05169202           19 
 4157000   0.56926149   -3.2765566    2640.9508  0.052941842   0.05168112            4 
 4158000   0.57948108    -3.302303    2636.1287  0.052832466  0.051670229            7 
 4159000   0.59219958   -3.2701957    2639.5793  0.052888902   0.05165927            4 
 4160000   0.60194336    -3.308125    2642.8579  0.052941866  0.051648382            9 
 4161000   0.58305143   -3.3125348    2640.5076  0.052882072  0.051637425            5 
 4162000    0.5933534   -3.3090921    2631.7594  0.052694205   0.05162644           14 
 4163000   0.59646288   -3.2854535    2641.5187  0.052876906  0.051615531            7 
 4164000   0.56744374   -3.2969508    2642.6819  0.052887486  0.051604575            8 
 4165000   0.58051268   -3.2829373    2646.8799  0.052958782  0.051593708            8 
 4166000   0.58578712   -3.2893262    2644.5592  0.052899649  0.051582882            5 
 4167000   0.57456095   -3.2951131    2647.8023  0.052951809  0.051571943            7 
 4168000   0.58272006   -3.2953463    2641.4501  0.052812102  0.051561056            8 
 4169000   0.58343049   -3.3028942    2648.0483  0.052931324  0.051550178            5 
 4170000   0.57586625   -3.2876324    2636.6431  0.052690709  0.051539275            7 
 4171000   0.58364466   -3.3072303    2639.7038  0.052739228  0.051528397            6 
 4172000   0.56822647   -3.3061465    2638.1356  0.052695262   0.05151747            8 
 4173000   0.57559401   -3.3073484    2647.2821  0.052865286  0.051506552            9 
 4174000   0.57645462   -3.2960792    2640.6349  0.052719911  0.051495626           14 
 4175000    0.5873484   -3.3115847    2642.1191  0.052736908  0.051484692            3 
 4176000   0.57586147   -3.2963961     2644.445  0.052770695  0.051473768           15 
 4177000    0.5889842   -3.2921311    2640.5981  0.052681312  0.051462857           11 
 4178000   0.59152572   -3.2932203    2641.1543  0.052679796  0.051451991            8 
 4179000   0.58727617   -3.2923253    2644.4888  0.052733685  0.051441066            6 
 4180000   0.60404282   -3.2990248    2646.5642  0.052762444    0.0514302            6 
 4181000   0.59318753   -3.3024239    2642.6567  0.052671943  0.051419318           11 
 4182000   0.56713496   -3.3049093    2639.8093  0.052602608  0.051408427            6 
 4183000   0.58497166   -3.2849416    2641.5364  0.052624441   0.05139752            8 
 4184000   0.57535803   -3.2890054    2639.9425  0.052580117  0.051386576            6 
 4185000   0.56812185   -3.2935444    2638.6208  0.052541234  0.051375612            8 
 4186000   0.58992907   -3.2872734    2641.3652  0.052583317  0.051364652            6 
 4187000   0.58277868   -3.3022041    2637.9986  0.052503754  0.051353719            4 
 4188000   0.56938191   -3.3049206    2648.1702  0.052693613  0.051342771            6 
 4189000   0.57818331   -3.2852427    2644.1164  0.052600389  0.051331764            6 
 4190000   0.59291241    -3.301228    2641.2506  0.052530839  0.051320868           11 
 4191000   0.57677661   -3.3047832    2639.9856  0.052493152  0.051309923           14 
 4192000   0.58887589   -3.2960111    2642.0751  0.052522168     0.051299           13 
 4193000   0.59014843   -3.3033095    2640.3806  0.052475964  0.051288079            6 
 4194000   0.58134251   -3.2956729    2641.6722  0.052489115  0.051277148            7 
 4195000   0.58785183   -3.3059904    2642.8982  0.052500958  0.051266153            9 
 4196000   0.56978393   -3.3029394    2641.7889  0.052466414  0.051255283           12 
 4197000   0.56745898   -3.3009742    2650.4925  0.052626728  0.051244382            5 
 4198000   0.58906585   -3.3096616    2646.1068  0.052527133  0.051233483            8 
 4199000   0.57900863   -3.3077772    2651.9403  0.052630393  0.051222613            8 
 4200000   0.58338739   -3.3121947    2641.8485   0.05241763  0.051211715           18 
 4201000   0.57230833   -3.2971835    2645.0498  0.052468654  0.051200884            7 
 4202000    0.5779066   -3.3072687    2642.8112  0.052411772  0.051190021           11 
 4203000   0.59164198   -3.2957123     2642.335  0.052389861  0.051179166            7 
 4204000   0.57602016   -3.2960014     2646.694  0.052463804  0.051168298           12 
 4205000   0.58997383   -3.2976633    2643.5024  0.052388078   0.05115742           10 
 4206000   0.57850233   -3.3000205    2638.0134  0.052266869  0.051146548            5 
 4207000    0.5800051   -3.2840606    2650.6814  0.052505375   0.05113573            4 
 4208000   0.59273829   -3.3222377    2646.7854  0.052415744  0.051124837            6 
 4209000   0.57533971   -3.2929275    2646.3128  0.052393933  0.051113974           12 
 4210000   0.57526149   -3.2906803    2655.6229  0.052565774  0.051103199            6 
 4211000   0.56934689   -3.3120944    2642.5481  0.052294547  0.051092391           13 
 4212000   0.58648694   -3.3095304    2649.6867  0.052423367  0.051081557           17 
 4213000   0.58500814   -3.2956056    2653.2441   0.05248129  0.051070723            8 
 4214000    0.5857552   -3.2972586    2650.6799  0.052418128  0.051059923            8 
 4215000   0.56071966   -3.3127147     2649.793  0.052388158  0.051049113           10 
 4216000   0.58700031   -3.2936836    2648.6746  0.052353625  0.051038324           14 
 4217000   0.58181273   -3.3181475    2650.3476   0.05237427  0.051027508           11 
 4218000   0.56750805   -3.3109557    2654.4653  0.052443206  0.051016676           15 
 4219000   0.57114141   -3.3149399    2647.4842  0.052292885  0.051005792            7 
 4220000   0.57388693   -3.3310363    2648.3146  0.052296893  0.050994923            5 
 4221000    0.5679997   -3.3039128    2649.8467   0.05231475  0.050984072            5 
 4222000   0.56481784   -3.3106952    2647.7475  0.052260924  0.050973186           11 
 4223000   0.57219179   -3.3088816    2644.6797  0.052188011  0.050962309            7 
 4224000   0.57430714    -3.304133    2648.3021  0.052247122  0.050951496            7 
 4225000   0.58485927   -3.3050904    2647.9521  0.052227853  0.050940728           11 
 4226000   0.57578778    -3.307001    2654.2968  0.052340606  0.050929943           10 
 4227000   0.56872914   -3.3087067    2649.6473  0.052236561  0.050919157            8 
 4228000   0.57395546   -3.3123361    2647.2182  0.052176328  0.050908344            8 
 4229000   0.58165447   -3.3171034    2648.3391  0.052186078  0.050897508            8 
 4230000   0.57721224   -3.2979039    2643.6536  0.052081434  0.050886678            5 
 4231000   0.57225324   -3.2989004    2645.1371  0.052098343  0.050875837            5 
 4232000   0.56109095   -3.3065064    2638.2091  0.051949612  0.050865001           10 
 4233000   0.57244921   -3.2997064    2644.6388  0.052063918  0.050854201            8 
 4234000   0.57139842   -3.3166009    2644.3343  0.052045629  0.050843407            8 
 4235000   0.57338153   -3.3012058    2650.0156  0.052145131  0.050832609            5 
 4236000   0.55947972   -3.3115167    2641.9144  0.051973451  0.050821749            6 
 4237000   0.58478204   -3.3039023    2654.4465  0.052207664  0.050810912           15 
 4238000   0.57115367   -3.2913392    2659.0278  0.052285429  0.050800098            8 
 4239000   0.56433418   -3.3028556    2653.4545  0.052163532  0.050789308           10 
 4240000    0.5742946   -3.3014023    2646.8616  0.052021651  0.050778538           13 
 4241000   0.57028496   -3.2973128    2651.3858  0.052098283  0.050767738            6 
 4242000   0.56278186     -3.32289    2647.9292  0.052018096  0.050756914           16 
 4243000   0.58350695   -3.3069146    2652.8749  0.052102971  0.050746105           17 
 4244000    0.5851968   -3.3092184    2644.8422  0.051932968  0.050735292            4 
 4245000   0.57942107   -3.3196581    2650.4444  0.052030711  0.050724545            6 
 4246000    0.5623382    -3.331106    2644.2629  0.051897137  0.050713696            7 
 4247000   0.57232129   -3.2962989    2648.9334   0.05197656  0.050702857           16 
 4248000   0.57953862    -3.316058    2649.5343  0.051976113  0.050692095            6 
 4249000   0.56711587   -3.3187758    2653.6163  0.052043939   0.05068128            8 
 4250000   0.57274195   -3.3204532    2651.5132  0.051990454  0.050670544            5 
 4251000   0.57479321   -3.3115824    2654.7923  0.052042506  0.050659806            9 
 4252000   0.57147443   -3.3168498    2655.1411  0.052037102  0.050649103           10 
 4253000   0.57181167   -3.3354715    2652.7409  0.051977836  0.050638321           12 
 4254000    0.5626482   -3.3208674    2652.8533  0.051967821  0.050627493           11 
 4255000   0.56710623   -3.3221756    2654.6078  0.051989969  0.050616719            9 
 4256000   0.56186926   -3.3148075    2651.9766  0.051926234  0.050605945            5 
 4257000   0.56359023   -3.3234896     2655.857  0.051989996  0.050595153           15 
 4258000   0.57720624   -3.3116183    2644.6401  0.051758261  0.050584361           10 
 4259000   0.57870025   -3.3290362    2657.9706  0.052006938  0.050573508           15 
 4260000    0.5747386    -3.307113    2646.6234  0.051772758  0.050562701           12 
 4261000   0.55802017   -3.3025923    2654.3492  0.051911703  0.050551957           14 
 4262000   0.56882706   -3.3297735    2657.7322  0.051965669  0.050541272            6 
 4263000   0.57784487   -3.3066707    2660.1757  0.052001245  0.050530577           10 
 4264000    0.5596272   -3.3221516    2655.7907  0.051903353  0.050519808            9 
 4265000   0.56311585   -3.3261508    2651.4686  0.051806733  0.050509021            4 
 4266000   0.57288478   -3.3074119    2648.5892  0.051738341  0.050498245            5 
 4267000   0.56295803   -3.3055673    2655.1189   0.05185374  0.050487407            6 
 4268000   0.57787339   -3.3184018    2651.0672   0.05176248  0.050476644            8 
 4269000   0.56737164   -3.3110436     2651.084  0.051750682  0.050465888           18 
 4270000   0.58344902   -3.3199119    2657.3638   0.05186112   0.05045514            7 
 4271000   0.56668921    -3.317962    2652.3633  0.051751411  0.050444364            8 
 4272000   0.57175334   -3.3234763    2651.2797  0.051718159  0.050433548            7 
 4273000   0.57323333   -3.3318975     2655.267  0.051783816  0.050422846            8 
 4274000   0.56207658   -3.3181242    2650.6005  0.051680715  0.050412082            5 
 4275000   0.55896388   -3.3397675    2648.6912  0.051631407  0.050401292            7 
 4276000   0.56045356   -3.3216362    2659.2435  0.051824983  0.050390567            9 
 4277000   0.56774026   -3.3029376    2655.2731  0.051735506  0.050379818           14 
 4278000      0.55083   -3.3255141    2659.7787  0.051811179   0.05036908           11 
 4279000   0.57074069   -3.3143343    2658.0556  0.051765514   0.05035832            9 
 4280000   0.55842588   -3.3297027    2656.8983  0.051730886  0.050347633            3 
 4281000    0.5587105   -3.3150178    2652.0314  0.051624063  0.050336943            5 
 4282000   0.56922244    -3.313938    2658.8388  0.051744489  0.050326259            8 
 4283000   0.55577332   -3.3322944    2649.0467  0.051541885   0.05031555           14 
 4284000   0.56442225   -3.3121929    2649.2371  0.051533557  0.050304784            9 
 4285000   0.57564123   -3.3280324    2655.3282  0.051639989  0.050294018           10 
 4286000   0.55243127    -3.321472    2653.3744  0.051589952   0.05028327            8 
 4287000   0.57100426   -3.3344326    2650.1906   0.05151603  0.050272529           11 
 4288000   0.56090063    -3.320011     2664.132  0.051774954  0.050261769           10 
 4289000   0.56820787   -3.3203733     2658.375  0.051651026   0.05025112            4 
 4290000   0.58398408   -3.3203067    2649.0092  0.051457055  0.050240407            7 
 4291000   0.56269476   -3.3050592    2656.9534  0.051599343  0.050229745            6 
 4292000   0.56541927   -3.3399743    2657.5187  0.051598297  0.050219028            5 
 4293000    0.5556068   -3.3416559    2653.9786   0.05151756  0.050208328            6 
 4294000   0.56927131   -3.3251014    2649.5342   0.05141931    0.0501976           14 
 4295000   0.56747528   -3.3282204    2653.2653  0.051479729  0.050186885           10 
 4296000   0.54915779   -3.3229797    2661.9337  0.051635895   0.05017619           12 
 4297000    0.5536436   -3.3262339    2656.0417  0.051509613  0.050165506           12 
 4298000   0.56562871   -3.3358764    2661.6014  0.051605425  0.050154832            5 
 4299000   0.57180556   -3.3333762    2660.9202  0.051580217  0.050144134            7 
 4300000   0.57125181   -3.3573291     2662.222  0.051593449  0.050133458            6 
 4301000   0.57019426   -3.2998391    2655.7758  0.051456557  0.050122762            9 
 4302000   0.56259983   -3.3068202    2654.9537   0.05142867  0.050112105            7 
 4303000   0.55996909    -3.333878    2657.2729  0.051461633  0.050101393            5 
 4304000   0.55732456   -3.3161908    2659.5935  0.051494608  0.050090673            9 
 4305000   0.56882137   -3.3371873    2651.5361  0.051326676  0.050079954            9 
 4306000   0.55489892   -3.3403627    2658.3388  0.051446409    0.0500692           27 
 4307000   0.55728623   -3.3374934    2653.5776  0.051342341  0.050058407           10 
 4308000   0.57136865   -3.3339868    2657.7015  0.051410197  0.050047698           15 
 4309000   0.56537051   -3.3340549    2656.6187  0.051377325  0.050036985            7 
 4310000   0.57433604   -3.3287643    2657.0792  0.051374308  0.050026256           10 
 4311000   0.54883058   -3.3426046    2655.6704  0.051335157  0.050015426            8 
 4312000   0.54769674   -3.3299755     2657.512  0.051358844  0.050004653            7 
 4313000   0.55605549    -3.349601    2654.7175  0.051292943  0.049993891            8 
 4314000   0.56737394   -3.3338004     2657.059  0.051326283  0.049983095            8 
 4315000   0.56433929    -3.322412    2657.2686  0.051318435  0.049972339            7 
 4316000   0.56388871   -3.3296891    2659.4644  0.051348943  0.049961716           11 
 4317000   0.56480747   -3.3145189    2661.9341  0.051384722   0.04995102            4 
 4318000   0.57087632   -3.3230241    2648.6932  0.051117285  0.049940335            5 
 4319000   0.56006423   -3.3234921    2657.2326  0.051270213  0.049929617            9 
 4320000   0.55517117   -3.3423249    2648.9874  0.051099294  0.049918866           11 
 4321000   0.55485499   -3.3176009    2654.9179  0.051201843   0.04990814            9 
 4322000   0.56777178   -3.3293335    2660.4923  0.051297476  0.049897401           11 
 4323000   0.56787824   -3.3463861    2663.2782  0.051339312  0.049886668            7 
 4324000   0.55294845   -3.3257822    2652.4624  0.051118996  0.049875948            7 
 4325000   0.55312254   -3.3260311    2657.6787  0.051207682  0.049865216           21 
 4326000   0.55531712   -3.3465583    2656.5817  0.051174714  0.049854467           15 
 4327000   0.58078305   -3.3187745    2668.3028  0.051388622  0.049843763            9 
 4328000   0.55616131   -3.3271509    2658.2421  0.051183035  0.049833051            5 
 4329000   0.56212333   -3.3443997    2659.1776   0.05118922  0.049822343            5 
 4330000   0.54602177     -3.31716    2654.5943   0.05108919  0.049811593            8 
 4331000   0.55879803   -3.3380169    2663.3425  0.051245718  0.049800892            8 
 4332000   0.56760905   -3.3292392    2655.9427  0.051091541  0.049790153            6 
 4333000    0.5554828   -3.3331827    2654.2378  0.051046961  0.049779462           11 
 4334000   0.54965166   -3.3367105    2660.8979  0.051163243  0.049768769           11 
 4335000   0.55817855   -3.3408798     2654.963   0.05103735  0.049758034            9 
 4336000   0.56357226   -3.3354178    2655.3846  0.051033682  0.049747292            8 
 4337000   0.56016749   -3.3456126    2651.3114  0.050943651  0.049736546           18 
 4338000   0.55955558   -3.3341523    2658.9361   0.05107838  0.049725839            9 
 4339000   0.55646025   -3.3220829    2659.4682  0.051076826  0.049715094            9 
 4340000   0.55139867    -3.330812    2653.7653  0.050955555  0.049704346            9 
 4341000   0.54396857   -3.3297962    2653.1389  0.050931792  0.049693621           18 
 4342000   0.55286568   -3.3381321    2657.1325  0.050996708  0.049682876            8 
 4343000   0.56180946   -3.3500179    2651.5133  0.050877146  0.049672161           11 
 4344000   0.54817521   -3.3463506    2656.6174  0.050963348  0.049661369           10 
 4345000   0.55658445   -3.3601569    2657.5267  0.050969058  0.049650597            7 
 4346000    0.5488325   -3.3361309    2661.1605  0.051027008  0.049639933           16 
 4347000   0.57200257   -3.3282677    2659.8411  0.050989976  0.049629255            9 
 4348000   0.55592152   -3.3418267    2663.2385  0.051043362  0.049618598            8 
 4349000    0.5587454   -3.3542094    2658.2835  0.050936681  0.049607836            7 
 4350000   0.56002431   -3.3224322    2655.2524  0.050866905  0.049597172           24 
 4351000   0.54334025   -3.3415363    2659.2861  0.050932469  0.049586496            8 
 4352000   0.56361958   -3.3360845    2664.1369  0.051013651  0.049575862           22 
 4353000   0.55878279   -3.3483146    2655.9595  0.050845384   0.04956518           11 
 4354000   0.55079433   -3.3164515    2657.4905   0.05086301  0.049554462           10 
 4355000    0.5552157   -3.3271962    2656.3237  0.050829003  0.049543753           33 
 4356000   0.55790549   -3.3421855    2658.1068  0.050851446  0.049533012            8 
 4357000   0.55482549   -3.3428247    2650.1062  0.050686752  0.049522267            9 
 4358000   0.55325177   -3.3568348     2653.753  0.050744856  0.049511571           12 
 4359000   0.55561351   -3.3436241     2655.588  0.050768295   0.04950085           13 
 4360000   0.55784609   -3.3421995    2657.9692  0.050802163   0.04949017            5 
 4361000   0.54270917   -3.3669525    2658.2073  0.050795063   0.04947951            6 
 4362000   0.54785909   -3.3520676    2659.9967  0.050817605  0.049468754            9 
 4363000   0.56503409   -3.3465968    2657.8671  0.050765282  0.049458023            8 
 4364000   0.55543749   -3.3577909    2648.1703  0.050568483  0.049447252           28 
 4365000   0.55157683   -3.3369822    2663.7694  0.050854705  0.049436541            5 
 4366000   0.56157864   -3.3547294    2650.3644  0.050587196  0.049425801            6 
 4367000   0.55317903   -3.3460327    2665.6714  0.050867708  0.049415083            7 
 4368000   0.54682554   -3.3492973    2661.4459  0.050775449  0.049404397           25 
 4369000   0.55730497   -3.3296679    2656.6367  0.050672097  0.049393655            6 
 4370000   0.54020972   -3.3361929    2659.7187  0.050719273  0.049382921            8 
 4371000   0.55778212   -3.3507355    2659.4053  0.050701695  0.049372188           13 
 4372000   0.55746683   -3.3518966    2657.9565  0.050662483  0.049361476           11 
 4373000   0.55636552   -3.3339453    2658.9802  0.050670406   0.04935073           10 
 4374000   0.55628341   -3.3418977    2663.0935  0.050737187   0.04933997           10 
 4375000   0.55630942   -3.3519792    2657.7362  0.050623547  0.049329171            4 
 4376000   0.54893958   -3.3322445    2649.8268  0.050461357  0.049318343           14 
 4377000    0.5560712    -3.360992    2660.0084  0.050643675   0.04930749           15 
 4378000   0.54841685   -3.3490375    2655.9423  0.050554711    0.0492967           10 
 4379000   0.54463611   -3.3344761    2663.1822  0.050680943  0.049285917           11 
 4380000   0.54182401   -3.3545976    2662.6832  0.050659878  0.049275185            8 
 4381000   0.55874191   -3.3522641    2666.6794  0.050724328  0.049264445            8 
 4382000   0.55919591   -3.3477632    2651.7148  0.050428168  0.049253649            5 
 4383000   0.55577322   -3.3544975    2662.6428  0.050624435   0.04924289            6 
 4384000    0.5533581   -3.3485683    2658.2704  0.050529775  0.049232135           15 
 4385000    0.5574605   -3.3578285    2657.4799   0.05050323   0.04922132            9 
 4386000   0.54181069   -3.3443056    2654.6753  0.050438427  0.049210548           13 
 4387000   0.54599576   -3.3521811    2658.3778  0.050497261  0.049199753           10 
 4388000   0.55182496   -3.3537549    2658.1997  0.050482371  0.049189033           10 
 4389000   0.54912433   -3.3673222    2657.4427  0.050456495  0.049178325            7 
 4390000   0.55291036   -3.3535078    2665.1862  0.050591994  0.049167557            8 
 4391000   0.54787057   -3.3365393    2659.4021    0.0504707  0.049156785           19 
 4392000   0.55032485   -3.3591286     2654.508  0.050366348  0.049146039           15 
 4393000    0.5470837   -3.3511627    2660.6976  0.050472297  0.049135272           13 
 4394000   0.54388446    -3.340554     2661.536  0.050476711   0.04912455           14 
 4395000   0.55110047   -3.3603818    2653.7709  0.050317991  0.049113863           27 
 4396000   0.54319793   -3.3731433    2659.2316  0.050410062  0.049103082           17 
 4397000   0.56065048   -3.3702807    2661.0605   0.05043326  0.049092341            7 
 4398000   0.55704951   -3.3373809    2655.6526  0.050319324  0.049081688            8 
 4399000   0.55111524   -3.3626901    2659.6956  0.050384475  0.049071051           10 
 4400000   0.54524651   -3.3509409    2654.2372  0.050269644  0.049060279           10 
 4401000     0.533061   -3.3601091    2663.1666  0.050427301  0.049049547            8 
 4402000   0.53652738   -3.3632916    2659.7368  0.050350917  0.049038811           12 
 4403000   0.54534974   -3.3617286     2655.654  0.050262208  0.049028089           18 
 4404000   0.54381896   -3.3614391    2664.5392  0.050418922  0.049017409            7 
 4405000   0.54305337   -3.3602591    2661.8295  0.050356214  0.049006677            7 
 4406000   0.55381645   -3.3620969    2657.7145  0.050266957  0.048995977           10 
 4407000   0.53202641   -3.3527793    2664.2263  0.050378684  0.048985287            5 
 4408000   0.55147631   -3.3710571    2659.1964  0.050272165  0.048974581           16 
 4409000   0.53851895   -3.3561641    2661.7641  0.050309294  0.048963831            6 
 4410000   0.54973238   -3.3583716    2658.6345  0.050238747  0.048953159            5 
 4411000   0.54583077    -3.365659    2668.4154  0.050412141  0.048942442           11 
 4412000   0.55993591    -3.367661    2658.3156   0.05020995  0.048931743           10 
 4413000   0.55107684   -3.3668077     2659.329   0.05021771  0.048921034           28 
 4414000   0.55208056   -3.3530431    2664.8261  0.050310114  0.048910352           10 
 4415000    0.5626646   -3.3719177     2660.223  0.050211835  0.048899693            9 
 4416000   0.54717122    -3.352232    2660.6252  0.050208054  0.048889036            6 
 4417000   0.54981395   -3.3815514    2655.7464  0.050104642  0.048878287           24 
 4418000   0.56566847   -3.3597144    2663.6784  0.050242915  0.048867567            8 
 4419000   0.53379221   -3.3655195    2661.8069  0.050196253  0.048856875            9 
 4420000   0.52401196   -3.3516048    2662.5717  0.050199315  0.048846165            6 
 4421000   0.53978865    -3.361221    2662.8343   0.05019291  0.048835498            8 
 4422000   0.55387592   -3.3739551    2664.8182  0.050218946  0.048824847            7 
 4423000    0.5410322   -3.3810422    2658.0351  0.050079793  0.048814142           15 
 4424000   0.55068176   -3.3610118    2656.9535    0.0500481  0.048803472           11 
 4425000   0.54088281   -3.3814322    2660.1894  0.050097729  0.048792711            6 
 4426000   0.55123977   -3.3559967    2664.8326  0.050173833  0.048782039           25 
 4427000   0.55420933   -3.3624446    2669.1596   0.05024395  0.048771379            9 
 4428000   0.54189158   -3.3628056    2660.6266  0.050072015  0.048760737           10 
 4429000    0.5333071   -3.3780457    2666.0781  0.050163281  0.048750085            9 
 4430000   0.53388726   -3.3479205    2663.4994  0.050103449  0.048739416            8 
 4431000   0.54441684   -3.3505567     2658.574  0.049999512  0.048728795            7 
 4432000    0.5389874   -3.3654836    2664.5933  0.050101408  0.048718158           12 
 4433000   0.54233207   -3.3665651    2660.8168  0.050019115  0.048707497            8 
 4434000   0.54578289    -3.370594    2657.2072  0.049939995  0.048696838           16 
 4435000   0.54904414   -3.3590484     2669.209  0.050154247  0.048686192           19 
 4436000   0.54182994   -3.3597727    2663.6433  0.050038385  0.048675598            6 
 4437000   0.55337492   -3.3544669    2665.8241  0.050068066  0.048664963           13 
 4438000   0.54080388   -3.3499117    2660.2031  0.049951238  0.048654353           14 
 4439000   0.52932932   -3.3499562    2665.4122  0.050037775  0.048643737           12 
 4440000   0.54796566   -3.3721985    2665.1588  0.050021749  0.048633092           10 
 4441000   0.54681075   -3.3841185    2669.2133  0.050086567  0.048622467           10 
 4442000   0.54199342   -3.3665648    2665.6321  0.050008106  0.048611788           14 
 4443000   0.54409859   -3.3742454    2666.2485  0.050008412  0.048601153           12 
 4444000   0.54620089   -3.3560646    2664.9779  0.049973333  0.048590528            9 
 4445000   0.53951378   -3.3683902     2664.866  0.049959992  0.048579925           11 
 4446000   0.54997967   -3.3585793    2667.1775  0.049992081  0.048569304            8 
 4447000   0.54149103     -3.37175     2669.058  0.050016078  0.048558698            6 
 4448000   0.55136874   -3.3552196    2670.7817  0.050037128  0.048548122            3 
 4449000    0.5362944   -3.3841557    2663.7386  0.049893958  0.048537537           34 
 4450000   0.53437088   -3.3838305     2663.484  0.049877977  0.048526872           14 
 4451000   0.55456314   -3.3760054    2663.1627  0.049860756  0.048516193           13 
 4452000   0.54844032   -3.3773814    2665.6157  0.049895472  0.048505555           11 
 4453000   0.53596535   -3.3686123    2671.1753   0.04998831  0.048494934            9 
 4454000   0.54937885   -3.3747007    2665.8246  0.049876976  0.048484396           32 
 4455000   0.54747328   -3.3675791    2674.1346  0.050021224  0.048473818            6 
 4456000   0.51792485   -3.3857867    2673.9158  0.050005906  0.048463229            7 
 4457000   0.53958895   -3.3758035    2663.3735  0.049797575  0.048452676            6 
 4458000   0.52554412   -3.3778403    2671.0753  0.049930374  0.048442118           13 
 4459000   0.52567147   -3.3705767    2669.0031  0.049880449  0.048431629           13 
 4460000    0.5506812   -3.3763606     2664.268  0.049780793   0.04842109           10 
 4461000   0.53443866   -3.3667061    2669.8455  0.049873822  0.048410546           18 
 4462000    0.5329049   -3.3714511     2668.516  0.049837815  0.048399977           13 
 4463000   0.53906316   -3.3501209    2673.7401  0.049924194  0.048389499           15 
 4464000   0.52989061   -3.3788783    2672.1067  0.049882518  0.048379038           11 
 4465000    0.5349046    -3.364484    2669.0235  0.049813802  0.048368485           10 
 4466000   0.54016464   -3.3788087     2671.457  0.049848056  0.048357967            6 
 4467000   0.53640456   -3.3910774    2671.8757  0.049844708  0.048347392            5 
 4468000   0.54642503    -3.370566    2670.9027  0.049815404  0.048336897            9 
 4469000   0.53015746   -3.3610976     2670.967  0.049805457  0.048326414           10 
 4470000   0.53578788   -3.3694045    2667.8082  0.049735426  0.048315921           10 
 4471000   0.53187802   -3.3693189    2674.8236  0.049855059  0.048305458           10 
 4472000   0.54085138   -3.3839287    2670.4263  0.049761969  0.048294933           11 
 4473000   0.53468175   -3.3780956    2673.4866  0.049807858  0.048284443            9 
 4474000   0.54160648   -3.3606664    2667.1397  0.049678507  0.048273886           23 
 4475000   0.54650363   -3.3731725     2672.448  0.049766257  0.048263402           13 
 4476000   0.53185027   -3.3847944    2667.0118  0.049653929   0.04825289            8 
 4477000   0.53132075   -3.3850238    2665.8162  0.049620583   0.04824237           10 
 4478000   0.53117938    -3.379667    2670.4014   0.04969483  0.048231879           10 
 4479000   0.53785297   -3.3653963    2672.2335  0.049717821  0.048221404           10 
 4480000   0.53129511   -3.3865484     2671.107   0.04968577  0.048210897           11 
 4481000   0.55118568   -3.3618243    2669.6194  0.049647016  0.048200444           11 
 4482000   0.54358181    -3.364191    2672.5734  0.049690864  0.048190008           17 
 4483000    0.5290034   -3.3813754    2671.2238  0.049654691  0.048179586           14 
 4484000   0.54183437   -3.3712402    2677.1879  0.049754458  0.048169192           18 
 4485000   0.55074727   -3.3777641    2678.4708  0.049767202   0.04815878           15 
 4486000   0.53581554   -3.3745964    2676.7225   0.04972363  0.048148311            9 
 4487000   0.52490377   -3.3788296    2673.6998  0.049656412  0.048137913            6 
 4488000   0.53808327   -3.3787396    2670.3803  0.049583711  0.048127539           11 
 4489000   0.53858127   -3.3928259    2667.6303  0.049521614  0.048117056           12 
 4490000   0.53225067   -3.3767097    2675.2628  0.049652241  0.048106633           12 
 4491000   0.53365796   -3.3737422    2674.7521   0.04963171  0.048096193           13 
 4492000   0.53205993   -3.3633217    2675.8839  0.049641658  0.048085764            6 
 4493000   0.54417958   -3.3780982    2673.0568  0.049578174  0.048075331           14 
 4494000   0.53491352   -3.3712777    2675.6872  0.049615917  0.048064879            9 
 4495000   0.53175882   -3.3726151    2672.0568  0.049537575  0.048054473            8 
 4496000   0.53650954   -3.3840511    2676.4766  0.049608478  0.048044081           12 
 4497000   0.53331413   -3.3836591    2678.9003   0.04964236  0.048033645            8 
 4498000   0.53116087   -3.3692497    2676.4025  0.049585047  0.048023265           10 
 4499000    0.5217478   -3.3748441    2679.7926  0.049636819  0.048012924           31 
 4500000   0.52963851   -3.3846127    2681.2364  0.049652526  0.048002535           14 
 4501000   0.53603145   -3.3970604    2681.0173  0.049637438   0.04799216           11 
 4502000   0.53453191   -3.3947207     2673.082  0.049479528  0.047981732            6 
 4503000   0.53648637    -3.376128    2673.0997  0.049468867  0.047971339           10 
 4504000   0.52459686   -3.3854028    2676.7551  0.049525516  0.047960979           18 
 4505000   0.53278112    -3.398365    2675.7312  0.049495582  0.047950568           17 
 4506000   0.52774157   -3.3968729    2679.3778  0.049552037  0.047940184           17 
 4507000   0.53808287   -3.3822788    2678.3143   0.04952138  0.047929876           20 
 4508000   0.53168819   -3.3678004    2676.1322  0.049470057  0.047919538           12 
 4509000   0.52837554   -3.3793705    2680.6222  0.049542067   0.04790919           12 
 4510000   0.52968292   -3.3762662    2677.7752  0.049478477  0.047898846           23 
 4511000   0.53308467   -3.3663924    2673.1111  0.049381347  0.047888527           26 
 4512000    0.5397505   -3.4057343    2672.3623  0.049356574  0.047878162           17 
 4513000   0.53189623   -3.3865648    2676.3481  0.049419234  0.047867815           15 
 4514000   0.53249954   -3.3880219    2677.1277   0.04942268  0.047857445           16 
 4515000   0.53338459   -3.3763179    2680.2655  0.049469647  0.047847116           19 
 4516000   0.52253827   -3.3906318    2677.2376  0.049402819  0.047836777            8 
 4517000   0.54194492   -3.3899677     2675.397  0.049357925  0.047826383           11 
 4518000   0.53484998   -3.4252397    2674.6596    0.0493334  0.047815947           12 
 4519000   0.52395717   -3.3887426    2676.4056   0.04935468  0.047805497           14 
 4520000   0.52849319   -3.4058172    2674.0711  0.049300721  0.047795047           10 
 4521000   0.52086479   -3.4155003    2672.5018  0.049260889   0.04778457            8 
 4522000   0.52572987   -3.3905712    2679.7129  0.049382885  0.047774139           15 
 4523000    0.5297995   -3.3817843    2675.4934  0.049294227  0.047763708           15 
 4524000   0.52533372   -3.3842059    2666.5106  0.049117865  0.047753301            8 
 4525000   0.52961846   -3.3912234    2669.0262  0.049153337  0.047742845           12 
 4526000   0.52812705   -3.3760879    2677.2678  0.049294222  0.047732412            9 
 4527000   0.52866281   -3.3993331    2680.1335  0.049336085  0.047722029           21 
 4528000   0.53704035   -3.4128109    2671.6402  0.049168878  0.047711642            8 
 4529000   0.52854733   -3.3799609    2674.2044  0.049205203   0.04770126           16 
 4530000   0.52780114   -3.3866398    2676.5458  0.049237413  0.047690885           28 
 4531000   0.51835764   -3.3712606    2679.2338  0.049275984  0.047680472           12 
 4532000   0.53924237   -3.3730829    2679.7903  0.049275343  0.047670096            4 
 4533000   0.52604512   -3.3830712    2675.4177  0.049184089  0.047659777           13 
 4534000   0.51998987   -3.3798172    2678.9906   0.04923891    0.0476494           18 
 4535000   0.51765067   -3.4082356    2677.0096   0.04919165  0.047639038           22 
 4536000   0.52295385   -3.4166948    2679.0219  0.049217774  0.047628615            9 
 4537000   0.52789106   -3.3873381    2681.9511  0.049260729  0.047618255            6 
 4538000   0.51944842   -3.3941978    2680.6357  0.049225718  0.047607924           11 
 4539000   0.52434004   -3.3853858    2676.4793  0.049138564  0.047597552            8 
 4540000   0.52485954   -3.4022014    2676.1195  0.049121136  0.047587234           10 
 4541000   0.54321969   -3.3905623    2673.2715  0.049058054  0.047576929            8 
 4542000   0.51706944   -3.4018254    2680.1423  0.049173313  0.047566603            7 
 4543000   0.54694608   -3.4028402     2677.634   0.04911648   0.04755623           18 
 4544000   0.52278893   -3.3997841    2678.9619  0.049130024  0.047545876           13 
 4545000   0.51254305   -3.3726535    2678.7184  0.049114749  0.047535543           19 
 4546000   0.52530048   -3.3977243    2666.6061  0.048881912  0.047525144           20 
 4547000   0.53258221   -3.3990738    2673.1359  0.048990834  0.047514724           17 
 4548000   0.52067563   -3.3934958    2680.3903  0.049112986   0.04750443           21 
 4549000   0.52221192   -3.3925625    2672.8784  0.048964579  0.047494127            6 
 4550000   0.54360456   -3.3945222    2674.4015  0.048981713   0.04748375           11 
 4551000   0.51787551   -3.3949031    2671.3253  0.048914622  0.047473335           14 
 4552000    0.5302297   -3.4088762    2676.1629  0.048992437  0.047462949           16 
 4553000   0.52856801   -3.3902997    2675.7167   0.04897351  0.047452552           12 
 4554000   0.53748663   -3.4044863    2676.4857  0.048976828  0.047442185            7 
 4555000   0.51422105   -3.3847045    2672.1585  0.048886911  0.047431826            8 
 4556000    0.5134379    -3.379717    2671.4637  0.048863471  0.047421464           19 
 4557000   0.52789724    -3.386813    2678.1136  0.048974354  0.047411093           23 
 4558000   0.52757358   -3.3987884    2674.9001  0.048904858  0.047400711            8 
 4559000   0.51712221   -3.3921116    2679.5983  0.048980009  0.047390349           16 
 4560000    0.5075818   -3.4322041     2674.179   0.04887023  0.047379968           26 
 4561000   0.51863178   -3.4123184    2680.4131  0.048973417  0.047369566           10 
 4562000   0.52151602   -3.4031965    2679.1627  0.048939842  0.047359191            9 
 4563000   0.52336081   -3.4014585    2679.5377  0.048935966  0.047348853            7 
 4564000   0.53188433   -3.3948687    2668.9735  0.048732352  0.047338491           24 
 4565000   0.52682692   -3.3881589    2672.7384  0.048790406  0.047328162           11 
 4566000   0.52225711   -3.3931842    2672.1518  0.048769014  0.047317837           11 
 4567000   0.52618279   -3.4062856     2673.235  0.048778101  0.047307487           13 
 4568000   0.51690304   -3.4095548    2678.1548  0.048857174  0.047297173           11 
 4569000   0.53216458   -3.4065724    2673.6333  0.048764013  0.047286846            8 
 4570000   0.52956065   -3.3955227    2677.4855  0.048823587  0.047276494            8 
 4571000   0.52591427   -3.3792935     2683.968  0.048931088  0.047266169            6 
 4572000   0.51479916   -3.3726444    2677.9038  0.048809854  0.047255901           10 
 4573000   0.52200927   -3.4054303    2674.7351  0.048741438  0.047245548           18 
 4574000   0.51275727   -3.3997842    2678.5168  0.048799679  0.047235171           13 
 4575000   0.51270522    -3.409138    2677.4034  0.048768732  0.047224861            7 
 4576000   0.51487826   -3.3911804     2673.562   0.04868812  0.047214523           26 
 4577000   0.51770507   -3.4078704    2675.9512  0.048720982  0.047204212           13 
 4578000   0.50881322   -3.4165428    2677.9676  0.048747044  0.047193911           15 
 4579000   0.51759953   -3.4231604    2673.0464  0.048646837  0.047183559           16 
 4580000   0.51830215   -3.4099339    2680.7608  0.048776579   0.04717319           14 
 4581000    0.5135972   -3.4016092    2684.3842  0.048831845  0.047162893           11 
 4582000   0.52353666   -3.4018371    2680.3443  0.048747713  0.047152573           11 
 4583000   0.51707777   -3.3977532    2685.6112  0.048832846  0.047142271           10 
 4584000   0.51203692   -3.4012241    2680.3093   0.04872581  0.047131953           20 
 4585000   0.51619191   -3.4124193    2684.2867  0.048787472   0.04712169           31 
 4586000   0.52240032   -3.3969966    2686.7868  0.048822264  0.047111441           16 
 4587000   0.52006454   -3.4065266    2681.3286  0.048712459  0.047101156           11 
 4588000   0.51828406   -3.3762482    2675.7131  0.048599845  0.047090839            6 
 4589000   0.51055285   -3.4112895    2679.8653  0.048664657  0.047080573           12 
 4590000   0.52088646   -3.4134888    2681.7606  0.048688465  0.047070232            9 
 4591000   0.52813561   -3.4198291    2678.9068  0.048626059  0.047059912           18 
 4592000   0.51363307   -3.4124131    2675.8461  0.048559925  0.047049676           14 
 4593000   0.50411119   -3.3998132    2683.2529  0.048683739  0.047039422           22 
 4594000   0.51399717    -3.416447    2683.8897  0.048684691  0.047029145           34 
 4595000   0.50557533   -3.4228336    2681.6578   0.04863362  0.047018857            8 
 4596000   0.51713001   -3.4007643     2674.458  0.048492494  0.047008572           14 
 4597000   0.50626748   -3.4025856    2676.0337  0.048510509  0.046998306           16 
 4598000   0.51852033   -3.4112063    2686.5888  0.048691257  0.046988075           15 
 4599000   0.51732146   -3.3852376    2682.9673  0.048615048  0.046977824           18 
 4600000   0.51955802    -3.403894    2683.5235  0.048614555  0.046967622            9 
 4601000   0.50125823   -3.4178447    2681.4673  0.048566748  0.046957355           29 
 4602000    0.5167028   -3.4147635    2680.5487   0.04853956  0.046947094           15 
 4603000   0.51494706   -3.4070963    2682.9361  0.048572238  0.046936834           17 
 4604000   0.51705646   -3.4060756    2683.7212  0.048575898  0.046926596           22 
 4605000   0.50687246    -3.402781    2685.8427   0.04860374  0.046916428           10 
 4606000   0.50977388   -3.4067115    2682.6974  0.048536283  0.046906224           13 
 4607000   0.50558465   -3.4077742    2678.1886   0.04844419  0.046895981            7 
 4608000   0.50616304   -3.4068036    2678.4246  0.048437945  0.046885784            9 
 4609000   0.51166811   -3.4086593    2681.5485  0.048483917  0.046875505            7 
 4610000   0.51049052   -3.3990059    2680.8508  0.048460789  0.046865231            5 
 4611000   0.51308076   -3.4125503    2683.7979   0.04850354  0.046854934           15 
 4612000    0.5065793   -3.4224733    2677.1913   0.04837365  0.046844646           17 
 4613000   0.51482061   -3.4373365    2674.7108  0.048318354  0.046834358           20 
 4614000   0.51444296   -3.4255885    2677.8435  0.048364462  0.046824044            9 
 4615000   0.51861177    -3.425272    2685.2936  0.048488509  0.046813816           10 
 4616000   0.50778736   -3.4254881    2680.3052  0.048387947  0.046803564            9 
 4617000   0.52100431   -3.4121785    2675.0096  0.048281886  0.046793233           15 
 4618000    0.5089783   -3.4169651    2682.3381  0.048403677  0.046782965            8 
 4619000   0.52407596     -3.42517    2679.4468  0.048341033  0.046772677           12 
 4620000   0.50019486   -3.4219276    2679.9879   0.04834033  0.046762374            6 
 4621000   0.50838163    -3.427837    2680.9521  0.048347257  0.046752008           13 
 4622000   0.51218899   -3.4114491    2690.1354  0.048502368   0.04674168           13 
 4623000   0.52446132    -3.426891     2675.385   0.04822599  0.046731376           15 
 4624000   0.50947536   -3.4043649    2677.5173  0.048253989  0.046721086           16 
 4625000   0.50307423   -3.4060041    2679.4524  0.048278422  0.046710782            9 
 4626000   0.50473152   -3.4215345    2683.9748  0.048349453  0.046700544            7 
 4627000   0.51185386   -3.4082965    2681.9419  0.048302391  0.046690289           15 
 4628000   0.52964765   -3.4158895    2677.0845  0.048204488  0.046680028           12 
 4629000   0.50694122   -3.4061689    2678.4889  0.048219357  0.046669754           11 
 4630000   0.51225769   -3.4183842    2678.4028  0.048207393  0.046659464           20 
 4631000   0.51025414   -3.4190661    2680.5056  0.048234823  0.046649193           23 
 4632000   0.49917913    -3.429569    2681.2871   0.04823847  0.046638887           13 
 4633000   0.50842658   -3.4017342    2683.5767  0.048269241  0.046628661           11 
 4634000   0.51299198   -3.4247365    2681.2367  0.048216745  0.046618396            9 
 4635000   0.51319018   -3.4164559    2681.0777  0.048203482  0.046608107            9 
 4636000   0.50842013   -3.4328433    2677.9054  0.048136062  0.046597819           20 
 4637000   0.50744231   -3.4108085    2681.7169  0.048194179  0.046587558            9 
 4638000   0.51030151   -3.4255215     2682.497  0.048197804  0.046577283           11 
 4639000   0.49997079   -3.4180419    2677.5361  0.048098298  0.046566946           15 
 4640000   0.51194009   -3.4180553    2682.2615    0.0481728  0.046556696           18 
 4641000   0.50782868   -3.4296987    2682.2197   0.04816167  0.046546353           13 
 4642000   0.51378305   -3.4436591    2674.3231  0.048009534  0.046536066            7 
 4643000   0.50591487   -3.4297756     2685.289  0.048196012  0.046525762           14 
 4644000    0.4933618   -3.4201586    2671.9901  0.047946994  0.046515502            6 
 4645000   0.51384362    -3.424228    2688.4047  0.048231157  0.046505234           13 
 4646000   0.50721784   -3.4184105    2678.6407  0.048045643  0.046494965            9 
 4647000   0.51147771   -3.4323638    2686.7212   0.04818021  0.046484704           20 
 4648000   0.51035899   -3.4240891    2674.7822   0.04795579  0.046474375           14 
 4649000   0.51522959   -3.4315889    2675.2705  0.047954229  0.046464105           17 
 4650000    0.5140369   -3.4186804    2676.3837  0.047963866  0.046453796           20 
 4651000   0.50681724   -3.4353433    2680.2618  0.048023037  0.046443491            7 
 4652000   0.51080822    -3.416709    2679.7666  0.048003845  0.046433215           10 
 4653000   0.51269114     -3.41116    2682.9666  0.048050837  0.046422968           13 
 4654000   0.51524297   -3.4191412    2680.8153  0.048001993  0.046412754           16 
 4655000   0.50861232   -3.4309228    2675.2101  0.047891337  0.046402511           15 
 4656000   0.49565766   -3.4067541    2674.8353  0.047874344  0.046392231           10 
 4657000   0.50460296   -3.4158814    2676.1816  0.047888155  0.046381965           18 
 4658000   0.50242162   -3.4299523    2687.5595  0.048081428  0.046371722            9 
 4659000   0.49705221    -3.424168    2687.3687  0.048067694  0.046361505           10 
 4660000   0.50644397   -3.4181235    2685.6553  0.048026739  0.046351343           14 
 4661000   0.50911705   -3.4318757    2680.0254  0.047915779  0.046341157           13 
 4662000   0.50113397   -3.4171697    2679.4829  0.047895805  0.046330971           20 
 4663000   0.51057926   -3.4343446     2676.512   0.04783244  0.046320763           19 
 4664000   0.50213528   -3.4403367    2684.1743   0.04795909  0.046310534           10 
 4665000   0.49955583   -3.4190774     2684.272  0.047950553   0.04630034           14 
 4666000   0.51157966   -3.4290496    2681.5683   0.04789199  0.046290136           10 
 4667000   0.49429098   -3.4510271    2674.3837  0.047753441  0.046279921            8 
 4668000   0.50891714   -3.4288895    2683.4397  0.047904879  0.046269739            8 
 4669000   0.50187925   -3.4474168    2684.6846  0.047916839  0.046259529           12 
 4670000   0.49953951   -3.4328033    2684.4134  0.047901738  0.046249322           29 
 4671000   0.50349297   -3.4276687    2687.7291  0.047950637  0.046239171           12 
 4672000   0.49466321     -3.41907    2690.7152  0.047993636  0.046229023           12 
 4673000   0.51304865   -3.4479573    2681.8589  0.047825432  0.046218863           18 
 4674000   0.50155109    -3.428996    2684.6248  0.047864513  0.046208688           13 
 4675000    0.4942792   -3.4339229    2685.4857   0.04786962   0.04619855           13 
 4676000    0.4976873   -3.4327652    2683.7084   0.04782771  0.046188348           18 
 4677000   0.50507828   -3.4414362    2678.5908  0.047726299  0.046178142           10 
 4678000   0.49839206    -3.420552    2686.4495  0.047856091  0.046167989            9 
 4679000   0.49835234   -3.4196881    2677.4795  0.047686107  0.046157809           14 
 4680000   0.49889032   -3.4304099    2675.0684  0.047632984  0.046147577           16 
 4681000   0.50519074   -3.4274156    2684.8162  0.047796343  0.046137365           15 
 4682000   0.49497084   -3.4349579    2687.5877  0.047835464  0.046127203           10 
 4683000   0.49835538   -3.4296492    2682.0784  0.047727213  0.046117051           19 
 4684000   0.51163542    -3.436796     2679.447  0.047670206  0.046106839            7 
 4685000   0.50679725   -3.4320567    2686.8421  0.047791571  0.046096674           13 
 4686000   0.49793776   -3.4416709    2680.0169  0.047659996  0.046086511           23 
 4687000   0.50958968   -3.4514237    2685.0875  0.047739982  0.046076324            5 
 4688000   0.51285788    -3.432882     2677.277   0.04759096  0.046066138           15 
 4689000   0.49665238   -3.4160451    2684.4679  0.047708607  0.046055978           22 
 4690000   0.49168061   -3.4310724    2685.9456  0.047724691  0.046045832            7 
 4691000   0.49815333   -3.4292108    2685.6301  0.047708913  0.046035698            7 
 4692000   0.49913197   -3.4508971    2685.7485  0.047700848  0.046025561           13 
 4693000   0.50186101   -3.4417772    2683.2623  0.047646536  0.046015412           16 
 4694000   0.50527888   -3.4453292    2690.1066  0.047757893  0.046005303            6 
 4695000   0.50465544   -3.4253324    2692.6318  0.047792542  0.045995189           21 
 4696000    0.4965409   -3.4200108    2688.6703  0.047712064  0.045985086           41 
 4697000   0.48822071   -3.4518372    2683.7751  0.047615057  0.045974947           14 
 4698000   0.51143053   -3.4357177    2683.8887  0.047606937  0.045964778           20 
 4699000   0.49345287   -3.4448747    2684.6006   0.04760943  0.045954622           14 
 4700000   0.51072067   -3.4440243    2683.3858  0.047577762  0.045944433           11 
 4701000   0.50914614   -3.4359092     2684.562  0.047588492  0.045934252           21 
 4702000   0.50262521   -3.4436454     2693.288  0.047733021   0.04592414           10 
 4703000   0.50020144   -3.4388839    2696.0371  0.047771583  0.045914048           15 
 4704000   0.49289257   -3.4352836    2690.7674  0.047668073  0.045903909           11 
 4705000   0.50173584    -3.427504    2692.2107  0.047683506  0.045893814            9 
 4706000   0.49518339     -3.42677    2691.8786  0.047667492  0.045883746            9 
 4707000   0.50405918   -3.4449233    2680.1351  0.047449457  0.045873662            8 
 4708000   0.49254576   -3.4300102    2684.1744  0.047510875  0.045863532           21 
 4709000   0.50512331    -3.456527    2690.6148  0.047614758  0.045853371           14 
 4710000   0.50003983    -3.422178    2681.4642   0.04744275  0.045843268            9 
 4711000   0.49159041   -3.4294456    2684.2115  0.047481276  0.045833177           14 
 4712000   0.49899003   -3.4376603     2683.255  0.047454284  0.045823039           19 
 4713000   0.49945979   -3.4472944    2680.9553  0.047403553  0.045812946           13 
 4714000     0.483093   -3.4425774    2685.5845  0.047475331  0.045802753           13 
 4715000   0.50349074   -3.4452422    2689.1796  0.047528801  0.045792614           22 
 4716000    0.4953439   -3.4459367    2683.7064   0.04742201   0.04578249           46 
 4717000    0.4951899   -3.4402831    2687.6554  0.047481722  0.045772374           15 
 4718000   0.49361605   -3.4409461    2687.5048  0.047468998  0.045762293           11 
 4719000   0.49687587    -3.453244    2690.3775  0.047509669  0.045752182           16 
 4720000   0.49226211   -3.4448101    2686.1109  0.047424274   0.04574206           16 
 4721000   0.48824864   -3.4439318    2689.4483   0.04747314  0.045731989           12 
 4722000   0.49379376   -3.4412414    2689.6441  0.047466541  0.045721948           14 
 4723000   0.49950398   -3.4440768    2700.5833  0.047649505  0.045711906           12 
 4724000   0.49886796   -3.4383272    2694.0788  0.047524676  0.045701892           19 
 4725000   0.50147918   -3.4381922    2685.3729  0.047361075  0.045691896           14 
 4726000   0.49639127   -3.4555022    2693.0791  0.047486936  0.045681851           13 
 4727000   0.49317373   -3.4483685    2688.4859  0.047395916  0.045671799            9 
 4728000   0.49343899   -3.4474259    2689.8374  0.047409712  0.045661715            8 
 4729000    0.5021291   -3.4462883    2692.1835  0.047441029  0.045651692            6 
 4730000    0.4834517   -3.4481134    2687.4796  0.047348126  0.045641635           20 
 4731000   0.49455252   -3.4484519     2685.932  0.047310857  0.045631609           12 
 4732000   0.49619533   -3.4387518     2687.954  0.047336468  0.045621562           10 
 4733000   0.49806184   -3.4455974    2688.8187  0.047341692  0.045611498            7 
 4734000   0.48613889   -3.4438683    2687.6338  0.047310833  0.045601434           12 
 4735000   0.49842717   -3.4378609    2684.7094  0.047249373  0.045591386           25 
 4736000   0.49221527   -3.4491625     2687.543  0.047289255  0.045581323           24 
 4737000   0.48884604   -3.4591755    2687.8927  0.047285424  0.045571246           14 
 4738000   0.49049095   -3.4507147    2689.1419  0.047297416  0.045561171           19 
 4739000   0.48588373   -3.4439898     2692.716  0.047350285   0.04555107           11 
 4740000   0.49358402   -3.4601391    2694.3316  0.047368699  0.045540974           22 
 4741000   0.50199979   -3.4660876     2685.033  0.047195264  0.045530883           12 
 4742000    0.4978708    -3.457348    2683.5108  0.047158562   0.04552075           20 
 4743000   0.49364664   -3.4479449     2686.584  0.047202615  0.045510671           24 
 4744000   0.49454185   -3.4532795    2689.5919  0.047245501  0.045500576           11 
 4745000    0.4872694   -3.4545264    2682.2837  0.047107195  0.045490524            8 
 4746000    0.4886885   -3.4557473    2690.7377   0.04724571   0.04548049           10 
 4747000    0.4806141   -3.4368249    2692.0893  0.047259485  0.045470467           14 
 4748000   0.50026301   -3.4537441    2684.6281  0.047118578  0.045460432            9 
 4749000   0.48879271   -3.4401227     2690.876  0.047218291  0.045450374           22 
 4750000   0.48957092   -3.4517813    2683.5623   0.04708004  0.045440301           13 
 4751000   0.49361532   -3.4577409    2683.0427  0.047061016  0.045430181           17 
 4752000   0.49122981   -3.4388751    2689.8059  0.047169716  0.045420112            8 
 4753000   0.48626162   -3.4632714    2688.2608  0.047132701  0.045410065           15 
 4754000   0.49210447   -3.4543215    2688.6978  0.047130447  0.045399965           15 
 4755000   0.49330095   -3.4513686    2684.2948  0.047043372  0.045389882           28 
 4756000   0.48891847   -3.4465139    2686.7222  0.047076012  0.045379818            6 
 4757000     0.497235   -3.4527808    2685.3412  0.047041925  0.045369733           34 
 4758000   0.49522743   -3.4401269    2688.9725  0.047095637  0.045359717            9 
 4759000   0.48800609   -3.4515206    2690.1761  0.047106817  0.045349684           10 
 4760000   0.48799114   -3.4479362    2689.9106  0.047092273  0.045339645           13 
 4761000   0.48494707   -3.4374436    2687.0564  0.047032424  0.045329608           10 
 4762000   0.48592274   -3.4687631    2691.6121   0.04710227  0.045319547           17 
 4763000   0.49324574   -3.4623952    2691.7901  0.047095495  0.045309495           12 
 4764000   0.49196405   -3.4704191    2684.7722  0.046962849  0.045299405           18 
 4765000   0.49136156   -3.4464312    2680.1296  0.046871802   0.04528936           16 
 4766000    0.4973745   -3.4701702    2684.0939  0.046931283  0.045279301           23 
 4767000   0.48898619   -3.4514675    2682.3981  0.046891792  0.045269208           14 
 4768000   0.49105176   -3.4554922    2688.5588  0.046989633  0.045259177           23 
 4769000   0.47868001   -3.4639306    2693.4849  0.047065857  0.045249147           13 
 4770000   0.49246399   -3.4639605    2680.9153  0.046836397  0.045239086            8 
 4771000   0.49268963   -3.4658719    2680.2749  0.046815393  0.045228971           18 
 4772000   0.50144906   -3.4651278    2685.7431  0.046901074  0.045218877           10 
 4773000   0.49241644   -3.4454147    2685.9317   0.04689454   0.04520881           13 
 4774000   0.47456627   -3.4587776     2681.342  0.046804601  0.045198763           12 
 4775000   0.47530294   -3.4597258    2691.1724  0.046966359  0.045188704           16 
 4776000   0.48868291   -3.4632652     2692.255  0.046975415  0.045178691           20 
 4777000   0.48321322   -3.4492521    2689.6508  0.046920152  0.045168691            8 
 4778000   0.48494824   -3.4659782    2689.2991  0.046904198  0.045158655           12 
 4779000   0.47929568   -3.4667289    2688.9981  0.046889135  0.045148632           11 
 4780000   0.48483297   -3.4543519    2686.7713  0.046840503  0.045138576           23 
 4781000   0.48803836   -3.4620078    2681.6724  0.046741833  0.045128532           10 
 4782000   0.48163447   -3.4777323    2681.8675  0.046735458  0.045118425           38 
 4783000   0.49259454   -3.4479528    2687.8657  0.046830192  0.045108345           14 
 4784000   0.48730955   -3.4644263    2692.4131  0.046899615  0.045098312           19 
 4785000   0.49211963   -3.4604609    2676.3838  0.046610655  0.045088249           19 
 4786000   0.48691602   -3.4580845    2685.8806  0.046766273  0.045078222           25 
 4787000   0.48781053   -3.4573998     2683.088   0.04670789    0.0450682           13 
 4788000   0.48518389   -3.4576368    2687.6734  0.046777942  0.045058184           12 
 4789000   0.47918458   -3.4513371    2688.1762  0.046776923  0.045048111           11 
 4790000   0.48668885    -3.465942     2689.691  0.046793512  0.045038062           13 
 4791000   0.47735121   -3.4690902    2685.7549   0.04671528  0.045027986            8 
 4792000   0.48597296   -3.4553994     2687.354   0.04673334  0.045017961           11 
 4793000   0.47322365   -3.4777969    2686.5599  0.046709783  0.045007906           15 
 4794000   0.47624288   -3.4674297     2678.671  0.046562908  0.044997811           10 
 4795000   0.48711869    -3.466981    2679.1612  0.046561717  0.044987693           26 
 4796000   0.48640386   -3.4726133    2685.1359  0.046655822  0.044977576           60 
 4797000   0.49462726   -3.4643992    2685.0048  0.046643819  0.044967474           14 
 4798000   0.49134739   -3.4620385    2684.2809  0.046621525  0.044957365           15 
 4799000   0.48723909    -3.476014    2687.8135  0.046673152  0.044947288           12 
 4800000   0.49093847   -3.4567676    2687.2794  0.046654157  0.044937228           15 
 4801000   0.48584751   -3.4584709    2680.3755  0.046524604  0.044927183           10 
 4802000   0.48512879   -3.4546879    2683.2906  0.046565503  0.044917152            7 
 4803000   0.48586838   -3.4723433    2688.8086  0.046651548  0.044907101           18 
 4804000    0.4819986   -3.4602506    2686.8183  0.046607312  0.044897052           26 
 4805000   0.47741836    -3.471861    2677.8198  0.046441551   0.04488698           17 
 4806000    0.4924247   -3.4705222    2683.3888   0.04652845    0.0448769           16 
 4807000   0.47947875   -3.4687601    2682.6529  0.046506014  0.044866799           11 
 4808000   0.48774409   -3.4738163    2689.8601  0.046621259  0.044856755           13 
 4809000    0.4833431   -3.4694073    2683.9718  0.046509527  0.044846698            6 
 4810000   0.48032408   -3.4654041    2685.1525  0.046520313  0.044836636           13 
 4811000   0.48246763     -3.48355    2684.6753  0.046502378  0.044826517           18 
 4812000   0.47721999   -3.4701359    2674.7674  0.046321132  0.044816381           14 
 4813000   0.48219243   -3.4737129      2680.57  0.046411975  0.044806239           23 
 4814000   0.47913628   -3.4867759    2684.9156  0.046477559  0.044796061           21 
 4815000   0.48139457   -3.4583966    2689.1599  0.046541363  0.044785919           16 
 4816000   0.47574068   -3.4774675    2675.9942  0.046303886  0.044775831           15 
 4817000   0.49850695   -3.4770593    2682.8533  0.046412935  0.044765681           15 
 4818000   0.47294327    -3.475089    2685.1428  0.046442902  0.044755555           18 
 4819000   0.47649745   -3.4753251    2683.9267  0.046412234  0.044745394           25 
 4820000   0.49213636   -3.4746283    2681.5019  0.046360683  0.044735244           31 
 4821000   0.49313224    -3.473666    2682.3151  0.046365123  0.044725174           22 
 4822000   0.47278906   -3.4864562    2682.5588  0.046359719  0.044715041           33 
 4823000   0.47489233   -3.4774468    2690.0398  0.046479366  0.044704931           17 
 4824000   0.48469531   -3.4772336    2681.8804   0.04632878  0.044694798           22 
 4825000   0.48480843   -3.4616259     2683.866  0.046353471  0.044684638           17 
 4826000   0.47553355   -3.4746575    2684.0312  0.046346718  0.044674497           20 
 4827000   0.48234759   -3.4699092    2683.5181  0.046328259  0.044664376           12 
 4828000    0.4767515   -3.4547728    2681.4982  0.046283799  0.044654308           11 
 4829000   0.48613529   -3.4794826    2682.0962  0.046284534  0.044644165           15 
 4830000   0.48594888    -3.480639     2679.278  0.046226329  0.044634031           31 
 4831000   0.48630505   -3.4685488    2675.7984  0.046156738  0.044623865           29 
 4832000   0.47162009   -3.4746483     2679.899  0.046217904  0.044613701           15 
 4833000   0.46944571    -3.486075    2670.7003  0.046049733  0.044603545           15 
 4834000   0.47159668   -3.4663787    2677.6643  0.046160258  0.044593429            8 
 4835000   0.47569515   -3.4777199    2682.2582  0.046229891  0.044583361           14 
 4836000   0.48276176   -3.4832822    2681.7893  0.046212251  0.044573266           26 
 4837000   0.48349575   -3.4712827    2671.7069  0.046028994  0.044563169           14 
 4838000   0.47759322   -3.4690548     2684.845  0.046245781  0.044553048           14 
 4839000   0.47370218   -3.4794824    2678.1709  0.046121287  0.044542955           21 
 4840000   0.47534849   -3.4754155     2685.302  0.046234539  0.044532853           22 
 4841000   0.47488155   -3.4854121    2681.6709  0.046162483  0.044522744           30 
 4842000   0.48165331    -3.486568    2678.7813  0.046103216  0.044512571           15 
 4843000   0.48356503   -3.4775898    2681.8814  0.046147041   0.04450243           47 
 4844000   0.47876259    -3.481518    2677.3136  0.046058931  0.044492278           43 
 4845000   0.47453324   -3.4884843       2679.2  0.046081872  0.044482104           16 
 4846000   0.47816797   -3.4804972    2681.2296  0.046107264  0.044471945           20 
 4847000   0.47309431   -3.4661387    2679.7168  0.046071743  0.044461818           13 
 4848000   0.47307516   -3.4587089    2684.0441  0.046136622  0.044451708           10 
 4849000   0.48181509   -3.4853973    2676.9661  0.046005466  0.044441589           15 
 4850000   0.47056386   -3.4833638    2674.2652  0.045949573  0.044431466           32 
 4851000   0.47596918   -3.4938287    2682.6597  0.046084308   0.04442134           17 
 4852000   0.47314949   -3.4875845     2679.574  0.046021813  0.044411235           10 
 4853000   0.46871375   -3.4793107    2679.5966  0.046012718  0.044401097           10 
 4854000   0.47997182   -3.4811641    2682.6157   0.04605507  0.044390981            6 
 4855000   0.47242153   -3.4904931    2678.0053  0.045966449  0.044380878           19 
 4856000   0.48097881   -3.5038169     2683.581  0.046052667  0.044370717            9 
 4857000   0.48700057   -3.4811971    2680.5591  0.045991337  0.044360601           16 
 4858000   0.46564736   -3.4890416    2687.5292  0.046101433  0.044350493           15 
 4859000   0.48041275   -3.4901736    2677.6244  0.045922076  0.044340348           11 
 4860000   0.47107834   -3.4868006    2676.6722  0.045896299  0.044330237           34 
 4861000   0.46896574   -3.4727937    2680.8538  0.045958544   0.04432013           30 
 4862000   0.47150298   -3.4793695    2668.2287  0.045732702  0.044310051           46 
 4863000   0.47865531   -3.4888889     2681.876   0.04595716  0.044299929           35 
 4864000   0.47600707   -3.5022741    2683.9825  0.045983802  0.044289804           38 
 4865000   0.46974244   -3.4665702    2677.0486  0.045855578  0.044279733           24 
 4866000   0.47508619    -3.498017    2682.9671  0.045947512  0.044269648           37 
 4867000   0.47096999   -3.4631015    2682.2329  0.045925501  0.044259546           45 
 4868000   0.47254656   -3.4848439    2685.5036  0.045972056  0.044249481           17 
 4869000   0.47004859   -3.4811023    2677.2738   0.04582176  0.044239392           25 
 4870000   0.47220194    -3.487173    2687.1155  0.045980759  0.044229296           15 
 4871000   0.47009372    -3.493067     2676.838   0.04579549  0.044219217           45 
 4872000   0.47576557   -3.4795822    2678.6305   0.04581675  0.044209119           24 
 4873000    0.4737567    -3.489945    2681.4902  0.045856252   0.04419907           22 
 4874000   0.46854409   -3.4961411    2687.3273  0.045946644  0.044188999           14 
 4875000   0.47992415   -3.4996192    2692.2031  0.046020567  0.044178931           25 
 4876000   0.47304043   -3.4927499    2685.6069  0.045898395  0.044168878           51 
 4877000   0.46824607   -3.5107999    2674.7719  0.045703845  0.044158773           22 
 4878000   0.47115227   -3.4928367    2677.6246  0.045743211  0.044148675            9 
 4879000    0.4611967   -3.4883917    2690.1241  0.045947327  0.044138625           41 
 4880000   0.47135176   -3.4852116    2682.3297   0.04580481  0.044128583           16 
 4881000   0.46175031   -3.4952526    2679.4969  0.045747061  0.044118536           16 
 4882000    0.4746575   -3.4862988      2680.83  0.045760446  0.044108478           12 
 4883000   0.47083148   -3.4752515    2679.6194  0.045730415  0.044098429           21 
 4884000   0.47359505   -3.4759459    2686.1956  0.045833259  0.044088343            8 
 4885000   0.47482431   -3.4660619    2679.2207  0.045704891   0.04407833           11 
 4886000   0.47167935   -3.4915414    2679.4506  0.045699458  0.044068326           17 
 4887000   0.46894019   -3.4855835     2685.131  0.045786969  0.044058294           45 
 4888000   0.47710026   -3.4929086    2681.7874  0.045720598   0.04404823           21 
 4889000   0.47191826   -3.4927288    2685.7375  0.045778577   0.04403819           30 
 4890000    0.4660706   -3.5007099    2685.0907  0.045758192  0.044028116           31 
 4891000   0.46792361   -3.5083415    2676.9732  0.045610529  0.044018032           24 
 4892000   0.47323624   -3.5059929    2675.5762  0.045577408  0.044007957           42 
 4893000   0.46148004   -3.4916981    2687.3535  0.045768674  0.043997896           50 
 4894000   0.46856064   -3.4939422     2679.451  0.045624761  0.043987854           12 
 4895000   0.47130181   -3.5022925    2679.2684  0.045612332  0.043977824           10 
 4896000   0.46432834   -3.5054745    2680.0317  0.045616007  0.043967769           17 
 4897000    0.4705043   -3.4967885    2684.8102   0.04568801  0.043957713           34 
 4898000   0.46575351   -3.4980999    2678.4295  0.045570122  0.043947672           19 
 4899000   0.47306613   -3.5003569    2677.5984  0.045546682  0.043937644           17 
 4900000   0.47015997   -3.4970735    2681.9997  0.045612239  0.043927627           15 
 4901000   0.47659719   -3.4968967    2680.3983  0.045575704  0.043917577           10 
 4902000   0.47242927   -3.4955565    2679.6721   0.04555406  0.043907569           26 
 4903000   0.46641701   -3.4972164    2677.3927  0.045506028  0.043897547           15 
 4904000   0.46789495   -3.4923652    2682.0706  0.045576241  0.043887512           27 
 4905000   0.46921755   -3.4922511    2682.2608  0.045570179  0.043877453           24 
 4906000   0.45794025   -3.4963546    2683.6929  0.045585216  0.043867432           10 
 4907000   0.46161555   -3.4881503    2680.1274  0.045515376  0.043857404           26 
 4908000   0.46742672   -3.4986668    2682.0059  0.045537997  0.043847402           12 
 4909000    0.4601815   -3.5106319    2685.1456   0.04558202   0.04383737           20 
 4910000   0.46424372   -3.4917426    2681.0524  0.045503266   0.04382731           20 
 4911000   0.45543589   -3.5172117    2678.8854  0.045457228  0.043817275           13 
 4912000   0.46739114   -3.5082536    2675.3303  0.045387662  0.043807233           25 
 4913000   0.46593767   -3.4946558    2677.5742  0.045416484  0.043797206           14 
 4914000   0.45899107   -3.5001432    2676.9277  0.045396277  0.043787181           17 
 4915000    0.4728868   -3.5097296    2678.6262  0.045415839  0.043777147           24 
 4916000    0.4549291   -3.4969503     2677.071  0.045380238  0.043767094           18 
 4917000   0.46508416   -3.4941717     2684.666  0.045499729    0.0437571           11 
 4918000   0.46458149   -3.5114635    2680.5873  0.045421365   0.04374706           18 
 4919000   0.47816777   -3.4967788     2676.992  0.045351223   0.04373702           28 
 4920000   0.45402237    -3.487706    2685.9866  0.045494352  0.043727006           15 
 4921000   0.47290046   -3.5105117    2683.3953  0.045441226  0.043716954           21 
 4922000   0.46800465   -3.5107878    2677.1474  0.045326213  0.043706927           18 
 4923000   0.47131871   -3.5188974    2681.0358  0.045382825  0.043696878           28 
 4924000   0.46550642   -3.5311791    2684.2748  0.045428425  0.043686834           29 
 4925000   0.46134356   -3.4979501    2677.4114   0.04530307  0.043676785           26 
 4926000   0.47083164     -3.49053    2676.7421   0.04528255   0.04366674           30 
 4927000   0.45626843   -3.5035277    2682.0743  0.045363546  0.043656739           24 
 4928000   0.45633824   -3.5158346    2683.1293   0.04537218  0.043646723           13 
 4929000   0.46217029   -3.5006901    2682.7385  0.045356368  0.043636686           27 
 4930000   0.46423546   -3.5039845     2679.677  0.045295419  0.043626665           10 
 4931000   0.46158207   -3.5193382    2678.8066  0.045271524  0.043616586           15 
 4932000   0.46288059    -3.517301    2679.4929  0.045273941  0.043606519           11 
 4933000   0.46234766   -3.5060503    2681.5498   0.04529951  0.043596449           18 
 4934000   0.46353894   -3.5099643    2673.7971   0.04515939  0.043586414           27 
 4935000    0.4635261   -3.5112492    2675.5636  0.045180067  0.043576373            9 
 4936000   0.45720064   -3.5069255    2684.5638  0.045322862   0.04356633           17 
 4937000   0.45983915   -3.4962681    2677.9424  0.045201917  0.043556329           28 
 4938000   0.46987961   -3.5076712    2677.5238    0.0451857  0.043546294           21 
 4939000   0.46200496   -3.5040717    2684.4008  0.045292584  0.043536283           24 
 4940000   0.46442937   -3.5066344    2675.1253  0.045126945  0.043526272           27 
 4941000   0.46086616   -3.5022999    2681.1127  0.045218794  0.043516238            9 
 4942000   0.45642261    -3.500371    2669.8313  0.045019414  0.043506202            8 
 4943000   0.46750926   -3.4985739    2680.1264  0.045183869  0.043496202           15 
 4944000   0.44460623    -3.508555    2682.3222  0.045211741  0.043486246           30 
 4945000   0.46020692   -3.5046702    2682.0318  0.045197705  0.043476254           23 
 4946000   0.45621801   -3.5075861    2681.4584  0.045178905  0.043466276           16 
 4947000   0.46224255   -3.5134047    2677.8079   0.04510828  0.043456267           23 
 4948000   0.45312559   -3.5096011    2677.9342   0.04510129  0.043446232           25 
 4949000   0.46999177   -3.5125023    2680.3456  0.045132781  0.043436175           29 
 4950000   0.45393328   -3.5092333    2675.6939  0.045045351  0.043426154           19 
 4951000   0.45754198   -3.5054415     2676.002   0.04504144  0.043416125           23 
 4952000   0.46053357   -3.5017887    2678.5128  0.045074596  0.043406147           15 
 4953000   0.45999757   -3.5173043    2682.5318  0.045133114  0.043396154           12 
 4954000   0.45106051   -3.5088344    2678.9805  0.045064266  0.043386131           18 
 4955000   0.46508293   -3.5197658     2679.265  0.045059957  0.043376108           14 
 4956000   0.45887041   -3.5136007    2679.3769  0.045052746  0.043366118           11 
 4957000   0.45594902   -3.5118075    2681.1403  0.045073302  0.043356139           21 
 4958000   0.45752662   -3.5063521    2678.4302   0.04501866  0.043346163           19 
 4959000   0.46652378   -3.5020003    2684.6159  0.045113529   0.04333618           17 
 4960000   0.46113914   -3.5211822    2679.3718  0.045016327  0.043326204           13 
 4961000   0.46083235   -3.5202383    2679.2574  0.045005332  0.043316202           32 
 4962000   0.45808052   -3.5073215    2674.8867  0.044922859  0.043306206           33 
 4963000   0.45457729    -3.510667    2682.1687  0.045036079  0.043296203           30 
 4964000   0.45170605   -3.5014195    2681.3372  0.045013047  0.043286194           43 
 4965000   0.44965038   -3.5270221      2683.44  0.045039276  0.043276179           68 
 4966000   0.44912563   -3.4941183     2681.738  0.045001645  0.043266182           29 
 4967000   0.45068257   -3.5216455    2680.8429  0.044977566    0.0432562           36 
 4968000   0.44934356   -3.5308932     2679.764  0.044950417  0.043246212           87 
 4969000   0.45262729   -3.5260064    2680.8076  0.044958872  0.043236213           28 
 4970000   0.45515896   -3.5274058    2681.6194  0.044963437  0.043226232           29 
 4971000   0.44951674   -3.5056648    2678.9484  0.044909615  0.043216278           47 
 4972000   0.45978191   -3.5222232    2682.1007  0.044953417  0.043206291           57 
 4973000   0.44933466   -3.5206419    2678.1391  0.044877992  0.043196312           41 
 4974000   0.44641531   -3.5240011    2680.9624  0.044916271  0.043186331           25 
 4975000   0.46444419   -3.5140724    2677.2312  0.044844743  0.043176346           29 
 4976000   0.45527296   -3.5184675    2682.4087   0.04492244  0.043166364           51 
 4977000   0.44956315   -3.5251583      2674.14  0.044774965  0.043156398           71 
 4978000   0.45608551   -3.5263452    2682.1346  0.044899802  0.043146432           25 
 4979000   0.45874108   -3.5197034    2679.4539  0.044845918  0.043136479           34 
 4980000   0.45137287   -3.5144197    2678.4628  0.044820327  0.043126524           50 
 4981000   0.46232093   -3.5019044    2682.1053   0.04487227  0.043116598           33 
 4982000   0.45177001   -3.5121976    2678.0265  0.044795037   0.04310669           54 
 4983000   0.45524537   -3.5086167      2684.11  0.044887786  0.043096753           40 
 4984000   0.44808026   -3.5203962     2681.311   0.04483198  0.043086836           14 
 4985000   0.45126029   -3.5166164     2679.154  0.044786928  0.043076901           26 
 4986000   0.44461078   -3.5203878    2676.8315  0.044739129   0.04306695           14 
 4987000   0.46374547   -3.5211226    2681.3139  0.044805058  0.043057051           20 
 4988000   0.45342547   -3.5157896    2677.8302  0.044737874  0.043047164           29 
 4989000    0.4587604   -3.5367611    2679.1314  0.044750641  0.043037221           33 
 4990000   0.45330545   -3.5089652    2682.2558  0.044793851  0.043027307           42 
 4991000   0.45566178   -3.5322482    2685.5404  0.044839717  0.043017394           50 
 4992000   0.45070251   -3.5295955    2675.8083  0.044668273  0.043007474           49 
 4993000   0.45235471   -3.5328291    2675.8675  0.044660317  0.042997553           44 
 4994000   0.45505483   -3.5234259    2686.8097  0.044833963  0.042987633           28 
 4995000   0.45393713   -3.5068263    2679.5017  0.044703065  0.042977749           25 
 4996000   0.46122059   -3.5280245    2681.6173  0.044729405  0.042967832           48 
 4997000   0.45904159   -3.5272013    2680.3615  0.044699512  0.042957916           14 
 4998000    0.4575895   -3.5357096    2678.0274  0.044651651  0.042948016           49 
 4999000    0.4491607    -3.529946    2681.7215  0.044704299  0.042938091           65 
 5000000   0.44708411   -3.5141631    2677.3135  0.044621892  0.042928172           15 
 5001000   0.45191403   -3.5218765    2681.3756  0.044680658  0.042918249           32 
 5002000   0.44843563   -3.5268945    2680.2023  0.044652178  0.042908355           37 
 5003000   0.44396169   -3.5195515    2682.9148  0.044688433  0.042898417           42 
 5004000   0.45692474   -3.5346995    2678.8739  0.044612208  0.042888457           19 
 5005000   0.43857476   -3.5187135    2680.6482  0.044632837  0.042878498           35 
 5006000   0.45841512   -3.5557664    2679.3775  0.044602768  0.042868536           26 
 5007000   0.45712773   -3.5201108    2678.6701  0.044582086  0.042858579           19 
 5008000   0.45207037   -3.5399047    2674.9052  0.044510536  0.042848661           50 
 5009000   0.44905728   -3.5401708    2676.0527  0.044520741  0.042838725           32 
 5010000   0.45824096   -3.5150307    2680.5594  0.044586816  0.042828799           53 
 5011000   0.46110884   -3.5315738    2678.5735  0.044544892  0.042818894           71 
 5012000   0.45158468   -3.5484314    2678.3984  0.044533094  0.042808945           69 
Loop time of 12081.3 on 48 procs for 5000000 steps with 4000 atoms

Performance: 71515.576 tau/day, 413.863 timesteps/s
99.4% CPU use with 48 MPI tasks x no OpenMP threads

MPI task timing breakdown:
Section |  min time  |  avg time  |  max time  |%varavg| %total
---------------------------------------------------------------
Pair    | 806.89     | 860        | 928.97     | 102.3 |  7.12
Neigh   | 80.913     | 84.124     | 87.161     |  18.1 |  0.70
Comm    | 759.71     | 829.25     | 891.71     | 112.3 |  6.86
Output  | 14.194     | 14.199     | 14.282     |   0.3 |  0.12
Modify  | 10167      | 10188      | 10204      |   8.7 | 84.33
Other   |            | 105.8      |            |       |  0.88

Nlocal:        83.3333 ave          91 max          73 min
Histogram: 1 0 2 5 3 15 12 4 5 1
Nghost:        2177.92 ave        2199 max        2159 min
Histogram: 1 7 5 7 7 4 9 0 4 4
Neighs:        14417.3 ave       15794 max       12317 min
Histogram: 1 0 3 2 11 4 11 9 3 4
FullNghs:      28835.6 ave       31662 max       25253 min
Histogram: 1 0 2 3 11 12 9 5 3 2

Total # of neighbors = 1384109
Ave neighs/atom = 346.02725
Neighbor list builds = 271464
Dangerous builds = 2

#clear
#
#next RN
#
#jump SELF
Total wall time: 3:21:24
