
units lj                  # Use reduced LJ style units
atom_style atomic         # Uncharged point particles
atom_modify map hash      # Needed for indexing of clusters etc
                          # Used to be able to find where atoms are in relation to each other.

lattice fcc 1.0 spacing 1 1 1
Lattice spacing in x,y,z = 1.5874011 1.5874011 1.5874011
region box block 0 10 0 10 0 10 units lattice
create_box 2 box
Created orthogonal box = (0.0000000 0.0000000 0.0000000) to (15.874011 15.874011 15.874011)
  3 by 4 by 4 MPI processor grid
create_atoms 1 box
Created 4000 atoms
  using lattice units in orthogonal box = (0.0000000 0.0000000 0.0000000) to (15.874011 15.874011 15.874011)
  create_atoms CPU = 0.017 seconds
set type 1 type/fraction 2 0.96 78393
Setting atom values ...
  3848 settings made for type/fraction
mass 1 1.0
mass 2 1.0
pair_style lj/cut  3.5
pair_modify tail  yes
pair_coeff 1  1  1.0  1.0   # Intearaction between 1 and 1 set with epsilon = 1 and sigma = 1
pair_coeff 1  2  1.5  0.8
pair_coeff 2  2  0.5  0.88

write_data data.0
System init for write_data ...
Neighbor list info ...
  update every 1 steps, delay 10 steps, check yes
  max neighbors/atom: 2000, page size: 100000
  master list distance cutoff = 3.8
  ghost atom cutoff = 3.8
  binsize = 1.9, bins = 9 9 9
  1 neighbor lists, perpetual/occasional/extra = 1 0 0
  (1) pair lj/cut, perpetual
      attributes: half, newton on
      pair build: half/bin/atomonly/newton
      stencil: half/bin/3d
      bin: standard
WARNING: Not all mixed pair coeffs generated from mixing. Use write_data with 'pair ij' option to store all pair coeffs. (../write_data.cpp:312)


#############################
#   M E L T   S Y S T E M   #
#############################

velocity all create 2.4 8172548 mom yes dist gaussian # Assign velocities
                                                    # Temperature 2.4, random number seed, zero linear momentum
                                                                                # Gaussian distribution

timestep 0.002   # simulation timestep
thermo 1000       # output thermodynamic data every 1000 steps bf 100

# Define a fix  in this case with index 1 applied to all
# particles in the simulation. This fix is for simulations
# in the anisotropic NPT ensemble. Note that we use the MTK
# correction.
fix 1 all npt temp 2.4 2.4 0.1 iso 5.68 5.68 0.5 mtk yes tchain 5 pchain 5 # Use NPT ensemble
                                                                         # Set temperature and pressure and damping
                                                                         # Numbers of thermostats in chain and in barostat
run 10000          # run for 10000 steps
Per MPI rank memory allocation (min/avg/max) = 3.642 | 3.644 | 3.648 Mbytes
Step Temp E_pair E_mol TotEng Press Volume 
       0          2.4   -2.8820212            0   0.71707882   -2.0430313         4000 
    1000    2.4552518   -1.6827158            0    1.9992411    6.0155111    4156.4348 
    2000    2.4017357   -1.7312918            0    1.8704111    5.8731397    4125.9956 
    3000    2.3663301   -1.7166244            0    1.8319833    5.5768466    4190.2069 
    4000    2.4256591   -1.7062665            0    1.9313126    5.7404981    4178.8671 
    5000    2.3825654   -1.7613334            0    1.8116212    5.4717797    4167.0324 
    6000    2.4043795   -1.7059641            0    1.8997035    5.7227835    4179.9202 
    7000    2.4328007   -1.6963864            0    1.9519023     5.830066    4175.7262 
    8000    2.4636521   -1.7111597            0    1.9833946    5.9399248    4143.2253 
    9000    2.4062365   -1.7160793            0    1.8923731     5.498987    4215.3466 
   10000    2.3274713   -1.6934767            0    1.7968575    5.8235885    4164.6985 
Loop time of 2.40475 on 48 procs for 10000 steps with 4000 atoms

Performance: 718576.445 tau/day, 4158.429 timesteps/s
99.7% CPU use with 48 MPI tasks x no OpenMP threads

MPI task timing breakdown:
Section |  min time  |  avg time  |  max time  |%varavg| %total
---------------------------------------------------------------
Pair    | 1.0388     | 1.1029     | 1.1865     |   2.8 | 45.86
Neigh   | 0.20711    | 0.21152    | 0.2246     |   0.7 |  8.80
Comm    | 0.75142    | 0.82927    | 0.89123    |   3.9 | 34.48
Output  | 0.00023576 | 0.00024033 | 0.00029847 |   0.0 |  0.01
Modify  | 0.19594    | 0.2454     | 0.28553    |   5.3 | 10.20
Other   |            | 0.01545    |            |       |  0.64

Nlocal:        83.3333 ave          94 max          71 min
Histogram: 2 0 2 9 6 11 11 1 4 2
Nghost:        1594.56 ave        1618 max        1558 min
Histogram: 2 1 3 4 6 6 2 11 6 7
Neighs:        9162.21 ave       10654 max        7540 min
Histogram: 2 1 2 10 9 5 10 4 4 1

Total # of neighbors = 439786
Ave neighs/atom = 109.94650
Neighbor list builds = 914
Dangerous builds = 242

# Equilibrate just above the melting temperature to avoid step fn in T

fix 1 all npt temp 1.25 1.25 0.1 iso 5.68 5.68 0.5 mtk yes tchain 5 pchain 5
run 2000
Per MPI rank memory allocation (min/avg/max) = 3.643 | 3.645 | 3.649 Mbytes
Step Temp E_pair E_mol TotEng Press Volume 
   10000    2.3274713   -1.6934767            0    1.7968575    5.8235885    4164.6985 
   11000    1.2598553   -2.6310845            0  -0.74177397    5.7173902     3242.252 
   12000    1.2351268   -2.6133565            0  -0.76112958    5.7170239    3249.6382 
Loop time of 0.578197 on 48 procs for 2000 steps with 4000 atoms

Performance: 597720.192 tau/day, 3459.029 timesteps/s
99.7% CPU use with 48 MPI tasks x no OpenMP threads

MPI task timing breakdown:
Section |  min time  |  avg time  |  max time  |%varavg| %total
---------------------------------------------------------------
Pair    | 0.25179    | 0.27588    | 0.30208    |   2.0 | 47.71
Neigh   | 0.037613   | 0.040641   | 0.04335    |   0.5 |  7.03
Comm    | 0.1857     | 0.21425    | 0.23875    |   2.5 | 37.05
Output  | 5.2043e-05 | 5.3967e-05 | 6.6563e-05 |   0.0 |  0.01
Modify  | 0.039638   | 0.042866   | 0.045825   |   0.8 |  7.41
Other   |            | 0.004506   |            |       |  0.78

Nlocal:        83.3333 ave          91 max          75 min
Histogram: 3 3 2 6 8 7 9 4 3 3
Nghost:        1888.10 ave        1911 max        1856 min
Histogram: 1 1 2 3 10 7 9 5 7 3
Neighs:        11753.4 ave       13222 max        9796 min
Histogram: 1 1 2 10 6 5 7 6 5 5

Total # of neighbors = 564163
Ave neighs/atom = 141.04075
Neighbor list builds = 145
Dangerous builds = 11

#############################
# L I N E A R  Q U E N C H  #
#############################

# Define solid atoms. This closely follows ten Wolde  Ruiz-Montero and Frenkel  Faraday Discuss  1996  104  93-110
# Compute components of the per-atom q6 vector
compute q6 all orientorder/atom degrees 1 6 components 6 nnn NULL cutoff 1.3 # compute the Q6 parameter.
                                                                             # Use all neighbours within 1.3 unit cell.

# get number of connections
compute coord_number all coord/atom orientorder q6 0.5

# An atom is solid if it has 8 or more connections (of a possible 14)
variable is_solid atom c_coord_number>=8
group solid dynamic all var is_solid    # Must be dynamic to update
dynamic group solid defined

# do clustering
compute cluster solid cluster/atom 1.3 # Create a cluster where all atoms within are solid and max 1.3 units from another member

# define chunks one chunk per cluster
compute clus_chunks solid chunk/atom c_cluster nchunk every compress yes  # Says which atoms are in which chunk

# count the size of each chunk
compute size_chunks solid property/chunk clus_chunks count


# Find the maximum entry in the vector of chunk sizes
variable max_n equal max(c_size_chunks)


# Thermo style which includes this variable
# thermo_style custom step temp pe vol v_max_n

thermo ${N}  # Print the thermo information every 100 steps
thermo 1000  

# Reset the npt fix at a lower temperature (below freezing)
fix 1  all npt temp  ${temp} ${temp}  0.1  iso  5.68  5.68  0.5  mtk yes tchain  5  pchain  5
fix 1  all npt temp  0.45 ${temp}  0.1  iso  5.68  5.68  0.5  mtk yes tchain  5  pchain  5
fix 1  all npt temp  0.45 0.45  0.1  iso  5.68  5.68  0.5  mtk yes tchain  5  pchain  5

dump dmp2 all dcd ${N} traj.dcd
dump dmp2 all dcd 1000 traj.dcd


compute msd all msd com yes
variable twopoint equal c_msd[4]/6/(step*dt+1.0e-6)
fix 9 all vector 10 c_msd[4]
variable fit equal slope(f_9)/6/(10*dt)
thermo_style custom step temp pe c_msd[4] v_twopoint v_fit v_max_n

fix 1 all npt temp 1.25 ${temp} 0.1 iso 5.68 5.68 0.5 mtk yes tchain 5 pchain 5
fix 1 all npt temp 1.25 0.45 0.1 iso 5.68 5.68 0.5 mtk yes tchain 5 pchain 5
run 500000 # 5000000  # Run for this many steps
Neighbor list info ...
  update every 1 steps, delay 10 steps, check yes
  max neighbors/atom: 2000, page size: 100000
  master list distance cutoff = 3.8
  ghost atom cutoff = 3.8
  binsize = 1.9, bins = 8 8 8
  4 neighbor lists, perpetual/occasional/extra = 1 3 0
  (1) pair lj/cut, perpetual
      attributes: half, newton on
      pair build: half/bin/atomonly/newton
      stencil: half/bin/3d
      bin: standard
  (2) compute orientorder/atom, occasional
      attributes: full, newton on
      pair build: full/bin/atomonly
      stencil: full/bin/3d
      bin: standard
  (3) compute coord/atom, occasional
      attributes: full, newton on
      pair build: full/bin/atomonly
      stencil: full/bin/3d
      bin: standard
  (4) compute cluster/atom, occasional
      attributes: full, newton on
      pair build: full/bin/atomonly
      stencil: full/bin/3d
      bin: standard
Per MPI rank memory allocation (min/avg/max) = 9.813 | 9.821 | 9.827 Mbytes
Step Temp PotEng c_msd[4] v_twopoint v_fit v_max_n 
   12000    1.2351268   -2.6133565 7.6359763e-30 5.3027611e-32 8.3333333e+20            1 
   13000    1.2599454   -2.6491947    1.1031594 0.0070715345   0.09301893            1 
   14000    1.2537064   -2.6117622    2.3231425  0.013828228  0.097787009            1 
   15000    1.2406281   -2.6147299    3.5153963  0.019529979   0.10010352            1 
   16000    1.2464184   -2.6530913    4.7129473    0.0245466  0.099401573            2 
   17000     1.245331    -2.656868    5.9702793  0.029266074   0.10046112            3 
   18000    1.2442712   -2.6400499    7.1890019  0.033282415   0.10084333            1 
   19000    1.2208517    -2.630713    8.5582342  0.037536114   0.10162681            1 
   20000    1.2552005   -2.6555464    9.6705486  0.040293951   0.10216729            1 
   21000     1.223725   -2.6398685    10.882769  0.043185592   0.10203074            2 
   22000    1.1963432   -2.6340436    12.093604  0.045809104   0.10199459            1 
   23000    1.2005201    -2.659523    13.514579  0.048965866   0.10235251            1 
   24000    1.2185031   -2.6291727    14.831782  0.051499243   0.10280357            1 
   25000    1.2384467   -2.6496724    15.776699  0.052588996   0.10292332            2 
   26000    1.2296801   -2.6636738    16.806418  0.053866723   0.10251136            2 
   27000    1.2368195   -2.6713092    18.094395  0.055846899   0.10202568            1 
   28000     1.227544   -2.6762949     19.25324  0.057301308   0.10164524            1 
   29000    1.2490626    -2.654697    20.553334  0.059061305   0.10160075            3 
   30000    1.2159459   -2.6521686    21.713187  0.060314406   0.10148962            2 
   31000    1.2261865   -2.6947492    22.803856  0.061300687   0.10122593            1 
   32000    1.2040416   -2.6653172    24.099126  0.062758139   0.10102253            1 
   33000    1.2592735   -2.6531033    25.350316  0.064015948   0.10099373            2 
   34000    1.2278649   -2.6389689     26.85775  0.065827818   0.10111534            3 
   35000    1.2330203   -2.6865733    28.014692  0.066701647   0.10129019            1 
   36000    1.1991484   -2.6887867    29.288935  0.067798459   0.10146795            2 
   37000    1.2136275   -2.6721856    30.580126  0.068874156   0.10158333            2 
   38000    1.2147987   -2.7177348    31.890324  0.069934921   0.10175868            3 
   39000    1.2068319   -2.6648811    33.031697  0.070580549    0.1019805            1 
   40000    1.2076371   -2.6614105    34.180822  0.071210046   0.10204437            1 
   41000    1.2215861   -2.6765671    35.215358  0.071575929   0.10198121            1 
   42000    1.1989923   -2.6567239    36.426415  0.072274631   0.10188664            1 
   43000    1.1877814   -2.6899324    37.415617  0.072510886   0.10179773            2 
   44000    1.2169551   -2.7074009    38.467147  0.072854444   0.10156638            1 
   45000    1.1995409   -2.6916132    39.521782  0.073188485   0.10131611            1 
   46000    1.1997948   -2.6987719    40.455171  0.073288353   0.10102022            1 
   47000    1.1760461    -2.688038    41.828171  0.074163423   0.10074483            1 
   48000    1.1902446    -2.707254    42.889641  0.074461182   0.10050928            5 
   49000    1.1938946   -2.6710762    43.972237  0.074782715   0.10028463            1 
   50000    1.1944181   -2.6940133    45.507886  0.075846477   0.10009567            2 
   51000    1.1708854   -2.6795912    46.524791    0.0760209  0.099967091            1 
   52000    1.1670066    -2.689022    47.512846   0.07614238  0.099797779            2 
   53000    1.1971043   -2.7264819    48.798916  0.076727854  0.099645461            2 
   54000    1.1804158   -2.7027406    49.776535   0.07681564  0.099468121            2 
   55000    1.2075614   -2.6906929    50.876489  0.077085589  0.099280931            1 
   56000    1.2014797   -2.7245221    51.786172  0.077062755  0.099114073            3 
   57000    1.1582007   -2.7174258    53.300811  0.077925161  0.098942101            2 
   58000    1.1696128   -2.7297917    54.210043  0.077887993  0.098779735            2 
   59000    1.2063486   -2.7047814    55.677046  0.078639895  0.098658015            2 
   60000     1.174612   -2.7111045    56.460424  0.078417255     0.098514            1 
   61000    1.1460503    -2.705798    57.673489  0.078788918  0.098372746            1 
   62000    1.1841395   -2.7104412    58.631722  0.078806077  0.098210082            2 
   63000    1.1759257   -2.7136108    59.604098  0.078841398  0.098062036            1 
   64000    1.1807761   -2.7091814    60.749453   0.07910085  0.097937554            3 
   65000    1.1666063   -2.7083282    61.729952  0.079140964  0.097789608            4 
   66000    1.1474033   -2.7268323    62.885101  0.079400379  0.097626537            1 
   67000    1.1943943   -2.7228149    63.830113  0.079390687  0.097465202            2 
   68000    1.1465052    -2.748498    64.638915  0.079214356  0.097253187            2 
   69000    1.1557023   -2.7564239    65.435019  0.079027801  0.097010625            2 
   70000    1.1813412   -2.7310152    66.537781  0.079211643   0.09674331            4 
   71000    1.1652135   -2.7588231    67.397512  0.079105061  0.096494987            3 
   72000    1.1672355   -2.7343351    68.307366   0.07905945  0.096233948            1 
   73000    1.1637254   -2.7340249    69.380375   0.07920134  0.095987137            2 
   74000    1.1382584   -2.7245002    70.149798   0.07899752  0.095758551            5 
   75000    1.1383036   -2.7592341     71.06682  0.078963133  0.095521862            1 
   76000    1.1563461   -2.7480729    72.742234  0.079761221  0.095300241            2 
   77000     1.152852   -2.7757733    73.752928  0.079819186   0.09511319            2 
   78000    1.1549635   -2.7330386    74.982619  0.080109636  0.094945458            2 
   79000     1.137354   -2.7717049    76.214344  0.080394877  0.094767799            1 
   80000    1.1388824   -2.7322209    77.003168  0.080211633  0.094601218            1 
   81000    1.1334892   -2.7547792     77.99982  0.080246728  0.094445652            2 
   82000    1.1452969   -2.7335602    79.072154   0.08035788   0.09428374            5 
   83000    1.1251054   -2.7643838    79.940274  0.080261319  0.094114802            1 
   84000    1.1471077   -2.7503826    81.275531  0.080630487  0.093963242            6 
   85000     1.126562    -2.716811    81.868443  0.080263179  0.093808274            1 
   86000    1.1495622   -2.7206884    83.241503  0.080660371  0.093647968            1 
   87000    1.1205862   -2.7585055    84.500871  0.080939531  0.093519488            2 
   88000     1.118153   -2.7652559    85.620066  0.081079608  0.093408787            2 
   89000     1.133376   -2.7820405    86.584511  0.081071639  0.093308817            1 
   90000    1.1409085   -2.7521522    88.035059  0.081513943  0.093222538            1 
   91000    1.1149836   -2.7632508    89.197497  0.081682689  0.093136993            3 
   92000    1.1151352   -2.7501523    89.922565  0.081451598   0.09306636            3 
   93000     1.109938   -2.7770208    91.078424   0.08161149  0.092975279            3 
   94000    1.1223662   -2.7346663    91.589208  0.081196106   0.09285927            1 
   95000    1.1061826   -2.7781135     92.19539  0.080873149  0.092728817            2 
   96000    1.1313308   -2.7614489    94.239346  0.081804987  0.092619578            4 
   97000    1.0906084   -2.7653938    94.934642   0.08155897  0.092511211            2 
   98000    1.1127519   -2.7738963    95.599583  0.081292162  0.092399151            1 
   99000    1.1136477   -2.8174244    96.762623  0.081450019  0.092293044            1 
  100000    1.0922407   -2.7832665    98.091822  0.081743184  0.092200715            3 
  101000    1.1195698   -2.7831777    98.239689  0.081055848  0.092075937            2 
  102000    1.1251809   -2.8003766    99.275961  0.081107811  0.091937567            5 
  103000    1.1066047   -2.8258529    99.261038  0.080308283  0.091784359            2 
  104000    1.1156405   -2.7946822    100.65331  0.080651693   0.09163072            3 
  105000    1.1208279   -2.7998489    101.71614  0.080727094  0.091480409            1 
  106000    1.0840129   -2.8157034    102.86083  0.080865429   0.09133139            2 
  107000    1.1133576   -2.8237059    103.45737  0.080574275   0.09116395            2 
  108000    1.0833234   -2.8437976    103.81917  0.080107382  0.090999691            2 
  109000    1.0836869   -2.7937556    105.17849   0.08041169  0.090825741            2 
  110000    1.0936821   -2.8417858    106.22846  0.080476109  0.090661529            2 
  111000     1.073618   -2.8123248    107.08248  0.080392254  0.090510324            4 
  112000    1.0681841   -2.8261029    107.87585   0.08026477  0.090350743            1 
  113000    1.0866744    -2.829692    109.65989  0.080870126  0.090206277            3 
  114000    1.0947186    -2.816955     110.7106  0.080928799  0.090082346            5 
  115000    1.0681001     -2.84393    111.29003  0.080644949  0.089956171            1 
  116000    1.0771315     -2.81141    112.55348  0.080857382  0.089836862            2 
  117000     1.066057   -2.8023122    113.88869    0.0811173  0.089724127            2 
  118000    1.0595697   -2.7981065    114.60104  0.080932936  0.089616071            2 
  119000    1.0639345   -2.7954843     115.2845  0.080731443  0.089507954            2 
  120000    1.0700888   -2.8252097    116.21875  0.080707462  0.089405087            3 
  121000    1.0615489    -2.823079    117.55598   0.08096142  0.089299588            2 
  122000    1.0443789   -2.8245213    117.71947  0.080409476  0.089191579            2 
  123000    1.0739062   -2.8224692    119.17676   0.08074306  0.089077785            1 
  124000    1.0567066   -2.8410114     120.3001  0.080846844  0.088964935            2 
  125000    1.0739921   -2.8524904    120.34851  0.080232342  0.088843719            1 
  126000    1.0776532   -2.8362234     121.1914  0.080153042  0.088710821            2 
  127000    1.0692869    -2.860458     121.7154  0.079865748  0.088577325            3 
  128000    1.0558132   -2.8368426    122.91673  0.080023909   0.08843446            2 
  129000    1.0820096   -2.8661499    123.42377  0.079731116  0.088293755            3 
  130000    1.0455456   -2.8662004    124.76679  0.079978713  0.088169325            3 
  131000     1.064045   -2.8487316    126.44787  0.080437578  0.088045306            2 
  132000    1.0503186   -2.8577858    126.89419  0.080109971  0.087925297            2 
  133000    1.0635563   -2.8333037    128.17954  0.080312993  0.087814818            2 
  134000    1.0629648   -2.8604711    128.86644  0.080140818  0.087707373            1 
  135000    1.0486077   -2.8369052    130.47889  0.080542526  0.087605041            1 
  136000    1.0488137   -2.8674593     131.4809  0.080564277  0.087497464            5 
  137000    1.0424065    -2.885484    131.61976  0.080060683  0.087387514            2 
  138000    1.0379193   -2.8536731    132.60086  0.080072981  0.087278599            1 
  139000    1.0551016   -2.8752849    132.93868  0.079699446  0.087163332            1 
  140000    1.0656312    -2.873912    134.12329  0.079835291  0.087042794            2 
  141000    1.0173133    -2.839276    135.09358  0.079842543  0.086921308            4 
  142000    1.0288927   -2.8581613    135.42932  0.079477303  0.086803321            4 
  143000    1.0356943   -2.8566946    136.54405  0.079571123   0.08668699            4 
  144000    1.0331488    -2.846567    138.43961  0.080115514   0.08657657            2 
  145000    1.0525083   -2.8701679    137.95581  0.079284947  0.086475341            3 
  146000    1.0386257   -2.8784809    139.56247  0.079658946  0.086361821            3 
  147000    1.0334862   -2.9132826    139.56441  0.079118147  0.086241553            2 
  148000    1.0196452    -2.882335    140.95744  0.079367926  0.086117969            2 
  149000    1.0416331   -2.8935628    142.17166   0.07951435  0.086006503            5 
  150000    1.0393027   -2.9089412    142.51283  0.079173795  0.085896652            2 
  151000    1.0358326   -2.8868284    144.06256  0.079504726   0.08579082            1 
  152000    1.0351194   -2.8686075    144.52279  0.079233984  0.085683662            2 
  153000    1.0306338   -2.8796892    145.32727  0.079154285  0.085583786            4 
  154000    1.0033065   -2.8813782    146.39926   0.07922038  0.085474226            2 
  155000    1.0210021   -2.8856186    147.07467  0.079072404  0.085366476            4 
  156000     1.018716   -2.8596397     148.2266  0.079180878   0.08526149            2 
  157000    0.9800607   -2.8801089    149.75822  0.079489503  0.085152808            3 
  158000    1.0449286   -2.8941876    149.80732  0.079012298  0.085038328            3 
  159000    1.0251675    -2.921172    150.23605   0.07874007  0.084925132            2 
  160000    1.0130657   -2.9141358    150.59466  0.078434721  0.084805866            3 
  161000    1.0093602   -2.8784251    151.77618  0.078559101  0.084681419            1 
  162000    1.0230207    -2.922131    151.88437  0.078129821   0.08456063            3 
  163000    1.0297597   -2.8790391    153.04549  0.078244113  0.084432895            2 
  164000   0.98655369   -2.9060918    153.56544  0.078031219  0.084303989            2 
  165000    1.0067074   -2.9349245    154.28808  0.077923271  0.084162448            2 
  166000    0.9965542     -2.92247     154.4674  0.077543874  0.084017784            3 
  167000   0.98887368   -2.9229461    154.99723  0.077343928  0.083870871            3 
  168000   0.99741616   -2.9155762    156.01321  0.077387504  0.083726721            3 
  169000   0.99977929   -2.8879866    157.12067  0.077475674  0.083585499            3 
  170000    1.0050779   -2.9397112    156.74642  0.076836482  0.083441139            1 
  171000    1.0000211    -2.928985    157.93679  0.076967247  0.083294306            2 
  172000   0.98153874   -2.9205913     158.6682  0.076874127  0.083146584            2 
  173000    1.0073386    -2.899996    159.50411  0.076832423  0.083000021            1 
  174000   0.98605932   -2.9358556    160.81536  0.077018848  0.082859897            1 
  175000    0.9973975   -2.9364804    162.27685  0.077274688  0.082721419            2 
  176000   0.99178788   -2.9298853    163.00741  0.077181537   0.08258943            2 
  177000   0.98215195   -2.9483777    163.21974  0.076845451  0.082457471            2 
  178000    1.0033128   -2.9439913    163.64114  0.076611021  0.082327071            3 
  179000    0.9740524   -2.9441188    164.16086  0.076424983  0.082194218            3 
  180000   0.97285999   -2.9168388    164.91426  0.076349195  0.082055184            3 
  181000   0.98096129   -2.9251452     165.3607  0.076132921  0.081914084            1 
  182000   0.96337161   -2.9383988    166.21562  0.076106053  0.081779625            3 
  183000   0.98424544   -2.9386629    166.79502  0.075954015  0.081642883            3 
  184000   0.94880972   -2.9518921    168.06783  0.076117676  0.081502826            3 
  185000   0.97467437    -2.976328    168.83668  0.076052558  0.081367818            4 
  186000   0.98285169   -2.9285579     169.5261  0.075952553  0.081231635            3 
  187000   0.97042741   -2.9593637    170.46446  0.075964554  0.081103564            5 
  188000    0.9886354   -2.9554384    171.61409  0.076070075  0.080977849            4 
  189000   0.96063156    -2.959915    171.49276  0.075614093  0.080854267            3 
  190000   0.97092289   -2.9609346    172.63991  0.075719258   0.08073017            2 
  191000   0.96507271   -2.9593361     172.6653  0.075333901  0.080604529            3 
  192000   0.98384944   -2.9576231    173.82097   0.07544313  0.080477979            4 
  193000   0.95889195   -2.9602014    174.31228  0.075264367  0.080348759            6 
  194000   0.95255855   -2.9847995    175.26668  0.075286372  0.080215884            4 
  195000    0.9631076   -2.9756212    176.00939  0.075217689  0.080083742            2 
  196000   0.95399747    -2.965332    175.99338  0.074827119  0.079954575            1 
  197000   0.93492619   -2.9790058    177.21147   0.07496255  0.079821987            2 
  198000   0.95099203   -2.9701706    178.72024  0.075218955  0.079697106            2 
  199000   0.94360217   -2.9935104    178.27193  0.074653238  0.079570041            3 
  200000   0.95213407   -2.9765873    178.31384  0.074297432  0.079435839            4 
  201000   0.94506103   -2.9989114    179.35188  0.074358157  0.079303158            2 
  202000   0.93410434   -2.9745696    180.48862     0.074459  0.079167341            3 
  203000   0.93783761   -2.9840917    179.77135  0.073797763  0.079029245            2 
  204000   0.92075381   -2.9796945    181.49379  0.074139619  0.078889251            2 
  205000    0.9444166   -2.9849537    181.97161    0.0739722  0.078753277            3 
  206000   0.92744092   -2.9840085    182.87529  0.073978676  0.078622147            5 
  207000   0.92523714   -2.9754656    184.08237  0.074107233  0.078490578            2 
  208000   0.92191022   -3.0178772    183.58816   0.07355295  0.078355279            2 
  209000   0.93566972   -2.9912739    184.16385  0.073430564  0.078219448            3 
  210000   0.93342001   -2.9921108    184.23588  0.073109475  0.078086848            5 
  211000   0.93334215   -3.0075948     186.0844   0.07349305  0.077950691            2 
  212000   0.94126265    -3.013392    186.19209  0.073188714  0.077816225            5 
  213000   0.92465991   -3.0097214    187.62645   0.07340628  0.077684634            2 
  214000   0.94332687   -3.0001916    187.68347  0.073085464  0.077549647            3 
  215000   0.92275783   -3.0351541    187.92987  0.072841036  0.077415052            3 
  216000    0.9164503   -3.0448189    188.41202  0.072689822  0.077274366            2 
  217000   0.90398621   -3.0223554     188.5243  0.072397966  0.077134253            4 
  218000   0.91715257   -3.0167845    189.58565  0.072471579  0.076995371            3 
  219000   0.93474252   -3.0143901    190.09642  0.072335014  0.076859524            5 
  220000    0.8922698   -3.0157445    191.08268  0.072379802  0.076722944            2 
  221000   0.90730966   -3.0304453    191.36023  0.072156948  0.076584562            4 
  222000   0.92313652   -3.0463391    191.31295  0.071814172  0.076446182            4 
  223000   0.90338262    -3.021946    192.70376   0.07201187  0.076312564            3 
  224000   0.91179267   -3.0144479    193.21032   0.07187884  0.076175616            3 
  225000   0.89424486   -3.0550855    193.92951  0.071825744   0.07604043            2 
  226000    0.8980621    -3.003002    194.42936  0.071692241  0.075902688            3 
  227000   0.89919224   -3.0322423     194.9228  0.071557561  0.075770296            2 
  228000   0.90723907   -3.0509644    195.37813  0.071410136  0.075636082            4 
  229000   0.90977248   -3.0380235    196.04555  0.071341175  0.075503319            3 
  230000   0.90598244   -3.0214587    197.18184  0.071442694  0.075371125            3 
  231000   0.88220221   -3.0616017    197.45297  0.071231229  0.075240456            4 
  232000   0.89346673   -3.0700652    197.56368  0.070963964  0.075109564            2 
  233000   0.87646411   -3.0551403    198.57042  0.071019463  0.074976662            4 
  234000   0.89122721   -3.0442933    199.06068  0.070890555  0.074846767            5 
  235000   0.90159984   -3.0525235     199.4922  0.070741915  0.074713389            2 
  236000   0.89349762   -3.0638767    199.80219  0.070551622  0.074580354            5 
  237000   0.90213355   -3.0944474    201.11522  0.070715618  0.074450044            4 
  238000   0.89941294   -3.0325739    202.72879  0.070983469  0.074319878            4 
  239000   0.86731991   -3.0911882    201.99502  0.070430619  0.074192665            2 
  240000   0.88246815   -3.0596949    202.03901  0.070152433  0.074067437            4 
  241000   0.86420855   -3.0897478    203.79763  0.070469443   0.07394294            6 
  242000   0.88411989   -3.0705431    204.31778  0.070357364  0.073819848            2 
  243000   0.90263304   -3.0594303    205.11033  0.070339618  0.073698508            5 
  244000   0.87478642   -3.0753831    205.57308  0.070209386  0.073573424            2 
  245000   0.88122272   -3.0660354    206.26371  0.070157723  0.073447645            3 
  246000   0.86261611   -3.0906339      206.562  0.069973576  0.073320066            2 
  247000   0.86183745   -3.0892288    207.67875  0.070067053  0.073196243            4 
  248000   0.86436915   -3.0829825    208.16809  0.069948953  0.073073236            4 
  249000    0.8514295    -3.105144    208.16856  0.069668193  0.072949128            3 
  250000   0.86223273   -3.0831602     209.4305  0.069810167  0.072825355            4 
  251000   0.86538549   -3.1167482    209.08604  0.069417677  0.072701153            1 
  252000   0.85126313   -3.0968337    210.07533  0.069469355  0.072579284            4 
  253000   0.86883427   -3.1057684    209.98203  0.069164041  0.072457586            6 
  254000   0.85968102    -3.090054    210.31342  0.069000466  0.072334619            4 
  255000   0.86241066   -3.1077751    211.48182  0.069111705  0.072212586            4 
  256000   0.86568621   -3.0974959    212.11047  0.069046375   0.07208932            3 
  257000    0.8597925   -3.1005144    211.75571  0.068662682  0.071966809            4 
  258000   0.86797358   -3.0985905    213.12325   0.06883826  0.071843326            2 
  259000   0.87106933   -3.0900978      213.258   0.06861583  0.071720672            2 
  260000   0.83811985    -3.094748    214.60734  0.068784403   0.07160098            4 
  261000   0.85331644   -3.1335787    214.24878  0.068406379  0.071479722            5 
  262000   0.83411531   -3.1090933    215.23092  0.068457671  0.071357537            7 
  263000   0.84339707   -3.1139251    215.08359  0.068150694  0.071231775            2 
  264000   0.84035218    -3.129392    214.76629  0.067792388  0.071101894            3 
  265000   0.86037644   -3.1179803     214.9625  0.067598269  0.070972079            4 
  266000   0.83971787   -3.1273904    216.15694  0.067718341  0.070842584            2 
  267000   0.83471627   -3.1398146    215.82171  0.067360084  0.070713422            5 
  268000   0.83391565   -3.1135392    216.92128  0.067450648  0.070584324            4 
  269000    0.8431833   -3.1416909     217.1919  0.067283735  0.070453399            6 
  270000   0.84721405    -3.143596    217.69486  0.067189772  0.070322228            5 
  271000   0.82449834   -3.1340321    218.31932  0.067133863  0.070191052            3 
  272000   0.81962524   -3.1550181    218.40026  0.066911844  0.070059907            3 
  273000   0.84969788   -3.1280268    219.21497  0.066915438  0.069926837            3 
  274000    0.8275203   -3.1302847    218.86695  0.066565374  0.069792003            4 
  275000   0.82840442   -3.1448158    219.75067  0.066591113  0.069658802            5 
  276000   0.84310814    -3.129809    219.92834  0.066403485  0.069525574            3 
  277000   0.82166128   -3.1572026    220.63478  0.066376287  0.069393525            3 
  278000   0.80100265   -3.1744648    220.14129  0.065989594  0.069264826            5 
  279000   0.83118731    -3.168584     222.3561  0.066414605   0.06913321            4 
  280000   0.83393242    -3.141467    222.38965  0.066187395  0.069004847            6 
  281000   0.82077821   -3.1940195    222.19367  0.065893733  0.068876615            7 
  282000   0.82199832   -3.1605147    222.66668  0.065799846  0.068747136            3 
  283000   0.82090623   -3.1515497     223.5665  0.065832303  0.068619067            5 
  284000   0.81608091   -3.1662028    223.48375  0.065576218  0.068489605            7 
  285000   0.82707873   -3.1613162    223.95449  0.065483769  0.068360971            3 
  286000   0.81058605   -3.1587855    224.20153  0.065326786  0.068230183            9 
  287000   0.79519216   -3.2087264    224.45002  0.065171318  0.068099965            6 
  288000   0.82380965   -3.2037568    224.77119   0.06503796  0.067970838            5 
  289000   0.81142121   -3.1714425    224.56478  0.064753396  0.067843354            5 
  290000   0.79168157   -3.2021671    225.81337    0.0648889  0.067713786            5 
  291000   0.81408172   -3.1791604    226.17513  0.064769511  0.067585513            5 
  292000   0.79812807   -3.1759642    227.22809  0.064848199  0.067458096            4 
  293000   0.79587139   -3.1924001    227.22308  0.064625449  0.067330121            3 
  294000   0.79499099   -3.1841784    227.54157  0.064495911  0.067202345            6 
  295000   0.79405536   -3.1743236    227.49762  0.064264864  0.067072667            6 
  296000    0.7891742   -3.2051654    228.03461  0.064198933  0.066942325            3 
  297000   0.77981296   -3.1892555    228.55339  0.064128336  0.066812046            2 
  298000   0.79330344   -3.1722823    228.44275  0.063882202  0.066683096            6 
  299000   0.77787104   -3.2143619    228.84837  0.063781598  0.066554968            7 
  300000   0.79737822    -3.224225    229.50459  0.063751274  0.066426549            5 
  301000   0.78340817   -3.1908241    230.84523  0.063910639  0.066299555            6 
  302000   0.77735569   -3.1973765    230.48817  0.063600487  0.066173276           12 
  303000   0.78484858    -3.197732    231.20639  0.063588117  0.066047921            5 
  304000   0.77721199   -3.2120878    231.35593  0.063419936  0.065921021            4 
  305000    0.7728036   -3.2212201    232.05959  0.063404258  0.065795315            8 
  306000   0.79044448   -3.2198373    231.71757  0.063103914   0.06566813            3 
  307000   0.77346296   -3.2385563    232.45802  0.063099354  0.065539675            5 
  308000   0.79199726    -3.200695    232.93876  0.063024557   0.06541276            4 
  309000   0.78479796   -3.2241666    233.22952  0.062899006  0.065287517            4 
  310000   0.75879983   -3.2444879     233.2594  0.062704141  0.065160774            7 
  311000   0.76646215   -3.2120748     233.5058  0.062568543  0.065032551            5 
  312000   0.77822436   -3.2222419     233.6073  0.062395113  0.064902742            2 
  313000   0.77027355   -3.2319973     233.4556  0.062155379  0.064774239            2 
  314000   0.74718726   -3.2310896    234.95184  0.062354523  0.064646745            3 
  315000   0.76828438   -3.2375009    233.69827  0.061824938  0.064517992            4 
  316000   0.78024785   -3.2428966    235.05892   0.06198811  0.064388729            3 
  317000   0.74819423   -3.2331021     234.9666  0.061768296  0.064258816           11 
  318000   0.76488152   -3.2360742    234.25401  0.061387318  0.064127346            4 
  319000     0.761824   -3.2570391    234.41023  0.061235693  0.063994743            4 
  320000   0.75111257   -3.2774008    234.81079  0.061148643  0.063862404            5 
  321000   0.74772708   -3.2510939    235.12825  0.061040564  0.063726922            3 
  322000   0.73662944   -3.2667342    235.61582  0.060977178  0.063594216            5 
  323000   0.76459036   -3.2506784    236.15491  0.060927479  0.063459907            3 
  324000   0.73971744   -3.2514337    237.05753  0.060971586  0.063329168            3 
  325000   0.74218987   -3.2429425    236.35911    0.0606049  0.063198114            5 
  326000   0.74322403   -3.2586161    236.39061  0.060427047  0.063065974            4 
  327000   0.73927783   -3.2629275    237.19268  0.060446656  0.062932472            4 
  328000   0.74587873   -3.2798615    237.76724  0.060408343  0.062800049            3 
  329000   0.74533319   -3.2922096    237.23676  0.060090365  0.062667909            6 
  330000   0.74484794    -3.312854    237.52768  0.059981736  0.062533546            2 
  331000   0.72690546   -3.2710238    237.06734  0.059684628  0.062399097            7 
  332000   0.73044676   -3.2914614    238.74483  0.059925911  0.062264922            7 
  333000   0.73565854   -3.2777638    238.79573   0.05975869   0.06213118           12 
  334000   0.73364302   -3.2882041    238.70606  0.059557401  0.061998897            6 
  335000   0.75788147   -3.2903975    238.79135  0.059400832  0.061866853            3 
  336000   0.74033027   -3.2793033    240.37672  0.059617241  0.061735672            3 
  337000   0.73234785    -3.284008    239.47188  0.059216588   0.06160468            4 
  338000   0.72977496   -3.3049219     240.0495  0.059183801  0.061473983            9 
  339000     0.714611   -3.2817948     241.4495  0.059353368  0.061343736           10 
  340000   0.73620077   -3.3017831    240.22602  0.058878927  0.061213557            5 
  341000     0.709029   -3.3089542    241.23036  0.058951702  0.061083324            7 
  342000   0.71872553   -3.2981574    242.48626  0.059085347  0.060953689            9 
  343000   0.72872547   -3.2662607    243.32645  0.059117214  0.060826787            4 
  344000   0.72106556   -3.3168137    242.17591  0.058666644  0.060700638            4 
  345000   0.70459881   -3.3404035    242.52499  0.058580916  0.060573958           10 
  346000   0.71591811   -3.3186503    242.84491  0.058488659  0.060445924            5 
  347000   0.71521743   -3.3259197    242.54934  0.058249122  0.060318639            4 
  348000   0.73761246   -3.3258791    242.73531  0.058126272  0.060191096            3 
  349000    0.7148924   -3.3457163    243.30589  0.058095962  0.060063989            7 
  350000   0.71367735   -3.3214164     243.5116  0.057978953  0.059936408            4 
  351000    0.7154735   -3.3340547     244.0763  0.057947838  0.059810422            6 
  352000   0.71260876   -3.3355692    244.38048  0.057855227  0.059684154            5 
  353000   0.69699668   -3.3552556      244.297  0.057671624  0.059557982            6 
  354000   0.70003199   -3.3276379    244.98535  0.057670751  0.059430906           10 
  355000   0.70259818   -3.3302306    243.91807  0.057257763  0.059303186            7 
  356000   0.70705979   -3.3348251    244.39043  0.057207497  0.059174998            5 
  357000    0.7146445   -3.3631827    245.61252  0.057332522  0.059047364            4 
  358000   0.69586328   -3.3315677    244.94563   0.05701714  0.058921754            4 
  359000   0.68920298   -3.3357441    245.57332  0.057004019  0.058796593            5 
  360000   0.68976437     -3.36047    245.70034  0.056875079  0.058670484           14 
  361000   0.69524085   -3.3615377    246.80889  0.056973428  0.058545225            6 
  362000   0.70068638   -3.3691577    247.26418  0.056920852  0.058422337            9 
  363000   0.68852673   -3.3611635    246.83076  0.056664545  0.058299994            5 
  364000   0.68730478   -3.3618363    247.70345  0.056708666  0.058177792            9 
  365000   0.68381658   -3.3879393    247.61905   0.05653403   0.05805529            6 
  366000   0.67931662   -3.3681786    248.34928  0.056545828  0.057933033            5 
  367000   0.70215145   -3.3725223    248.33278  0.056388007  0.057810299            6 
  368000   0.67239727   -3.3614696    247.40567  0.056024835  0.057687519            5 
  369000   0.67720088   -3.3669295    247.95925  0.055998025  0.057564535            4 
  370000   0.66829668   -3.3899415    248.31302  0.055926356  0.057442442            5 
  371000   0.67878663   -3.4016711    248.59654  0.055839296   0.05731999            6 
  372000   0.68166308   -3.3836942    249.23291  0.055831745  0.057197643            5 
  373000   0.67089323   -3.3911756    248.87429  0.055601941  0.057074296           12 
  374000   0.68092159   -3.3806789    248.52466  0.055375369  0.056950685            9 
  375000   0.66798172   -3.3903281    248.90674   0.05531261  0.056826652            5 
  376000   0.65310641   -3.3866083    248.32872  0.055037394   0.05670219            7 
  377000   0.65297788   -3.3883379    249.11981  0.055066271    0.0565783           13 
  378000   0.67974269   -3.4072792    248.92268  0.054877134   0.05645509            3 
  379000   0.65552902   -3.3927952    249.54379  0.054868907  0.056332185           10 
  380000   0.67540066   -3.4059657    250.16362  0.054860443  0.056209979            7 
  381000   0.66078688   -3.4229312    249.36632  0.054542064  0.056087028            7 
  382000   0.66423048   -3.4053731    251.58901  0.054884165  0.055965603           11 
  383000   0.65466154   -3.4265519    250.75854   0.05456017  0.055845366            6 
  384000   0.64988836   -3.4025367    250.96364  0.054462596  0.055722618            8 
  385000   0.64969622   -3.4086057    251.04435  0.054338604  0.055601698            8 
  386000   0.66529894   -3.4263223    250.53084  0.054086968  0.055479633            5 
  387000   0.65551658   -3.4194262    250.40966  0.053921116  0.055357161            4 
  388000   0.65838354   -3.4103051      250.379  0.053775557   0.05523499           11 
  389000   0.64387288   -3.4299146    251.42898  0.053862249  0.055112508            3 
  390000    0.6485918   -3.4398447    251.24793  0.053685455  0.054990324            5 
  391000    0.6433725   -3.4195192    250.90338  0.053474718  0.054868148            7 
  392000   0.64168158     -3.43209    250.91138  0.053340004   0.05474556            8 
  393000   0.63644391   -3.4378439    251.65314  0.053361565  0.054622298            5 
  394000   0.65257907   -3.4412659    251.65091  0.053225658  0.054499066            9 
  395000   0.64799723   -3.4700986    251.17488  0.052990481  0.054377135            6 
  396000   0.63184065   -3.4366355    252.06343  0.053043652  0.054256171            5 
  397000   0.62292561   -3.4431814    251.46334  0.052784075  0.054133936            7 
  398000   0.63528939   -3.4496274    251.75911  0.052713381  0.054011831            9 
  399000   0.64444788   -3.4545282    251.96697  0.052624681  0.053889033            7 
  400000   0.62510503   -3.4595932    251.20531   0.05233444  0.053765941            7 
  401000   0.61888017   -3.4576516    252.94853  0.052566196  0.053642807            9 
  402000   0.62184946   -3.4714405     251.5704  0.052149751  0.053518577            6 
  403000   0.62935984   -3.4533542    252.21305  0.052153235  0.053395933            7 
  404000   0.63186391   -3.4516309    252.83827  0.052153108  0.053272627            7 
  405000   0.61673705   -3.4651253    251.99362   0.05185054  0.053149095            9 
  406000   0.62534944   -3.4605308    251.54275  0.051630285  0.053025214           14 
  407000   0.63322769   -3.4821447    252.39819  0.051678581  0.052901414           10 
  408000   0.62236686    -3.471064    251.70134  0.051409587  0.052777685            4 
  409000   0.60423132   -3.4917741     251.8102  0.051306073  0.052654656            9 
  410000   0.62119365   -3.4860672    252.56644  0.051334643  0.052531159            8 
  411000   0.60019613   -3.4857445    252.45669  0.051187487   0.05240797            5 
  412000   0.59591987   -3.5022354    252.65481  0.051103319  0.052284674           19 
  413000   0.58750167   -3.4819512    252.40237  0.050928645  0.052162503           24 
  414000   0.63005539   -3.4744613    252.88109  0.050901992  0.052040345            7 
  415000   0.59248115   -3.5043092    252.64121  0.050731166  0.051919049           11 
  416000   0.60966274   -3.5126363    253.03644  0.050688389  0.051798306           10 
  417000   0.60301975   -3.5056633    253.30617  0.050620737  0.051678552           20 
  418000   0.60699949   -3.4935586     253.9759  0.050633153  0.051559596            5 
  419000   0.60479489   -3.5272397    254.41095  0.050598837   0.05144039            6 
  420000   0.58790412   -3.5156201    254.71135  0.050537966  0.051321728            7 
  421000   0.59260143   -3.5210424    254.13743  0.050304321  0.051203807            5 
  422000   0.60807947   -3.5173996    254.43608  0.050244091  0.051085204           15 
  423000   0.59084407   -3.5042715    254.02044  0.050043427  0.050967001           11 
  424000   0.58856773   -3.5168358     254.2153  0.049963698  0.050848775           11 
  425000   0.57884328    -3.528609    254.04596  0.049812933  0.050729718            5 
  426000   0.58893773   -3.5204417     255.4192  0.049964633  0.050611059            3 
  427000   0.57579267   -3.5233445    254.42702  0.049653985  0.050493171            7 
  428000   0.58071739   -3.5421164    254.35565  0.049524075  0.050374901            6 
  429000   0.58035064   -3.5325633    253.94552  0.049328967  0.050256732           13 
  430000    0.5782241   -3.5398059    255.09045  0.049436133   0.05013891           15 
  431000   0.57862233   -3.5416968    254.57654  0.049222068  0.050020717            8 
  432000   0.57853479   -3.5520365    254.53809  0.049100712  0.049903482            7 
  433000   0.57362754   -3.5399867    254.96694  0.049069849  0.049785214           15 
  434000    0.5723783   -3.5547276    255.49635   0.04905844  0.049667794            5 
  435000   0.58021377   -3.5571585     254.7014  0.048793371  0.049550971           18 
  436000   0.56875437    -3.568137    254.49764  0.048642515  0.049433913            4 
  437000   0.57389522   -3.5626377    254.45017  0.048522152  0.049316369            9 
  438000   0.56987899   -3.5673433    255.06221  0.048527818  0.049199671           16 
  439000   0.56489067   -3.5633978    254.25003  0.048263103  0.049083309            8 
  440000    0.5758727   -3.5459444    255.19183  0.048331785   0.04896682            9 
  441000    0.5632909   -3.5558153    255.16141  0.048216441  0.048851216            7 
  442000   0.56996634   -3.5569006    255.79871  0.048227509  0.048736124           13 
  443000   0.56164236   -3.5755117    255.64856  0.048090398  0.048620817            9 
  444000    0.5653281   -3.5857612    256.11917  0.048070415  0.048505961            9 
  445000   0.54701267   -3.5752568    255.91548  0.047924248  0.048391655           18 
  446000   0.55936819   -3.5865313    255.64458  0.047766177  0.048277328            5 
  447000   0.55217348   -3.5831416    256.02547  0.047730325  0.048162933            5 
  448000   0.54939802   -3.5877597    256.22089  0.047660135  0.048049327            7 
  449000   0.54627635   -3.5999713    255.71118  0.047459387  0.047935271           14 
  450000   0.54820856   -3.5968546     256.1541  0.047435945  0.047821922           10 
  451000   0.54473872   -3.5981456    255.94198   0.04729157  0.047708435            7 
  452000   0.54786505   -3.6049316    256.14856  0.047225029  0.047594828           11 
  453000   0.54905032   -3.6024312    256.24781  0.047139037  0.047482166           11 
  454000   0.54129745   -3.5944216    257.06104  0.047184479  0.047369973           16 
  455000   0.53362297   -3.6203056    256.73424  0.047020923   0.04725849           16 
  456000   0.53602136    -3.591477    256.26654  0.046832336   0.04714708            9 
  457000   0.52361256   -3.6194245    256.04172  0.046688862  0.047035929           12 
  458000   0.52702006   -3.6165389    256.67224  0.046701646  0.046924556           14 
  459000   0.53289377   -3.6263651    257.25885    0.0467064  0.046813177           10 
  460000   0.52805495   -3.6358998    256.62924  0.046490805  0.046702187            7 
  461000   0.53190791    -3.626293    257.04255  0.046464669  0.046591316            9 
  462000   0.53024002   -3.6273082    256.27835  0.046226253  0.046480858            7 
  463000   0.53031508   -3.6338414    257.04503  0.046264404  0.046371143            6 
  464000   0.52770118   -3.6299626    257.42184   0.04623237  0.046261103           23 
  465000   0.53343633   -3.6284434    256.69719  0.046003081  0.046151226           20 
  466000   0.51795846   -3.6247492    257.21401  0.045996782  0.046041756            9 
  467000   0.52398433   -3.6217303    257.73371  0.045991026  0.045932744           12 
  468000   0.51857909   -3.6413046    257.49767  0.045850725  0.045824196           18 
  469000    0.5292365   -3.6617044    256.93493  0.045652973  0.045715267           14 
  470000   0.52655497   -3.6411242    257.40301  0.045638831  0.045606303           19 
  471000   0.50534182   -3.6666413    257.62811   0.04558176  0.045498038           14 
  472000   0.51887681   -3.6556042    256.76968   0.04533363  0.045389259            7 
  473000   0.50547175   -3.6499772    256.46869  0.045184759  0.045280642           10 
  474000   0.51318171   -3.6676025    256.75658  0.045140045  0.045171716           13 
  475000   0.50208636   -3.6714393    257.64188  0.045200329  0.045063035           21 
  476000   0.52301602   -3.6643806    257.37069  0.045057894  0.044954923           12 
  477000   0.50430623   -3.6654761     257.4194  0.044971942  0.044847331           22 
  478000   0.49530033   -3.6770393    257.43992  0.044881436  0.044739907           24 
  479000    0.4985225   -3.6874714     257.2306  0.044751323  0.044632517           21 
  480000    0.5029827   -3.6873075    257.74008  0.044746541  0.044525551           25 
  481000   0.49587396   -3.6817484    257.63349  0.044635047  0.044418529           23 
  482000   0.50158425   -3.6919894    257.00775  0.044434258  0.044311419            8 
  483000   0.49800865   -3.6795729    257.81015  0.044480702  0.044204981            9 
  484000   0.49925983   -3.6875454    257.19892  0.044283561  0.044098379           22 
  485000   0.48555379   -3.6837359    257.91193  0.044314764  0.043991883           36 
  486000   0.49715199   -3.6890821    256.88415  0.044047351  0.043885453           25 
  487000   0.49330536   -3.6816379    257.62316  0.044083361  0.043779301           21 
  488000   0.48307159   -3.7128928     256.9843   0.04388393  0.043672578           12 
  489000   0.47592528   -3.7104423    256.69491  0.043744871  0.043565792           14 
  490000    0.4851711   -3.7217458    257.43576  0.043781591  0.043459636           35 
  491000   0.48842418   -3.7275457    257.60074  0.043720424  0.043353859           16 
  492000   0.48074061   -3.7188429    257.36233   0.04359118  0.043247969           18 
  493000   0.49077136   -3.7130376    256.88433  0.043421962  0.043142582           26 
  494000   0.48074966   -3.7142512    256.83528   0.04332579   0.04303649           39 
  495000   0.47857811   -3.7251314    257.48962  0.043348421  0.042931114           25 
  496000   0.47217493   -3.7151073    257.48785  0.043260728  0.042826402           44 
  497000    0.4739642   -3.7210677    257.31937  0.043145434  0.042721845           25 
  498000   0.47246378   -3.7357613    257.26911  0.043050387  0.042617217           26 
  499000   0.45981262   -3.7399632    257.13313  0.042941404  0.042512798           29 
  500000   0.46736972   -3.7344456    257.05315  0.042842191   0.04240853           32 
  501000    0.4555053   -3.7089481    256.91531   0.04273375  0.042304545           33 
  502000   0.46413314    -3.738478    256.51851  0.042582755   0.04220087           45 
  503000   0.47049906   -3.7468024    256.76689  0.042539247  0.042096932           34 
  504000   0.46367492   -3.7421289    256.95918  0.042486637  0.041993339           16 
  505000   0.46532297   -3.7547791    256.68372  0.042357049  0.041889867           38 
  506000   0.45932583   -3.7433802    257.47015  0.042402858  0.041786478           33 
  507000   0.46000755    -3.759157    257.09348  0.042257312  0.041683684           61 
  508000    0.4606231   -3.7536335    257.02137  0.042162298  0.041580957           37 
  509000   0.46477819   -3.7579413    257.17175  0.042104085  0.041478139           15 
  510000   0.45910338   -3.7717868    257.08197  0.042006857  0.041375698           26 
  511000   0.44701452   -3.7864879    256.88363  0.041892308  0.041273417           22 
  512000   0.45301442   -3.7721368    257.01189  0.041831363  0.041171202           35 
Loop time of 1221.41 on 48 procs for 500000 steps with 4000 atoms

Performance: 70738.033 tau/day, 409.364 timesteps/s
99.4% CPU use with 48 MPI tasks x no OpenMP threads

MPI task timing breakdown:
Section |  min time  |  avg time  |  max time  |%varavg| %total
---------------------------------------------------------------
Pair    | 77.618     | 83.414     | 89.408     |  29.8 |  6.83
Neigh   | 8.1643     | 8.5084     | 8.779      |   5.0 |  0.70
Comm    | 78.032     | 84.542     | 91.213     |  32.0 |  6.92
Output  | 0.94157    | 0.94204    | 0.95067    |   0.1 |  0.08
Modify  | 1028.8     | 1032       | 1034.1     |   3.3 | 84.50
Other   |            | 11.96      |            |       |  0.98

Nlocal:        83.3333 ave          89 max          73 min
Histogram: 1 0 1 3 4 9 10 6 11 3
Nghost:        2197.88 ave        2216 max        2180 min
Histogram: 3 5 3 10 2 8 5 2 6 4
Neighs:        14565.4 ave       15748 max       11989 min
Histogram: 1 0 0 0 6 9 8 11 8 5
FullNghs:      29130.4 ave       31155 max       25598 min
Histogram: 1 0 1 5 6 7 7 9 10 2

Total # of neighbors = 1398257
Ave neighs/atom = 349.56425
Neighbor list builds = 27142
Dangerous builds = 0

#clear
#
#next RN
#
#jump SELF
Total wall time: 0:20:24
