
units lj                  # Use reduced LJ style units
atom_style atomic         # Uncharged point particles
atom_modify map hash      # Needed for indexing of clusters etc
                          # Used to be able to find where atoms are in relation to each other.

lattice fcc 1.0 spacing 1 1 1
Lattice spacing in x,y,z = 1.5874011 1.5874011 1.5874011
region box block 0 10 0 10 0 10 units lattice
create_box 2 box
Created orthogonal box = (0.0000000 0.0000000 0.0000000) to (15.874011 15.874011 15.874011)
  3 by 4 by 4 MPI processor grid
create_atoms 1 box
Created 4000 atoms
  using lattice units in orthogonal box = (0.0000000 0.0000000 0.0000000) to (15.874011 15.874011 15.874011)
  create_atoms CPU = 0.036 seconds
set type 1 type/fraction 2 0.31 78393
Setting atom values ...
  1268 settings made for type/fraction
mass 1 1.0
mass 2 1.0
pair_style lj/cut  3.5
pair_modify tail  yes
pair_coeff 1  1  1.0  1.0   # Intearaction between 1 and 1 set with epsilon = 1 and sigma = 1
pair_coeff 1  2  1.5  0.8
pair_coeff 2  2  0.5  0.88

write_data data.0
System init for write_data ...
Neighbor list info ...
  update every 1 steps, delay 10 steps, check yes
  max neighbors/atom: 2000, page size: 100000
  master list distance cutoff = 3.8
  ghost atom cutoff = 3.8
  binsize = 1.9, bins = 9 9 9
  1 neighbor lists, perpetual/occasional/extra = 1 0 0
  (1) pair lj/cut, perpetual
      attributes: half, newton on
      pair build: half/bin/atomonly/newton
      stencil: half/bin/3d
      bin: standard
WARNING: Not all mixed pair coeffs generated from mixing. Use write_data with 'pair ij' option to store all pair coeffs. (../write_data.cpp:312)


#############################
#   M E L T   S Y S T E M   #
#############################

velocity all create 2.4 5833274 mom yes dist gaussian # Assign velocities
                                                    # Temperature 2.4, random number seed, zero linear momentum
                                                                                # Gaussian distribution

timestep 0.002   # simulation timestep
thermo 1000       # output thermodynamic data every 1000 steps bf 100

# Define a fix  in this case with index 1 applied to all
# particles in the simulation. This fix is for simulations
# in the anisotropic NPT ensemble. Note that we use the MTK
# correction.
fix 1 all npt temp 2.4 2.4 0.1 iso 5.68 5.68 0.5 mtk yes tchain 5 pchain 5 # Use NPT ensemble
                                                                         # Set temperature and pressure and damping
                                                                         # Numbers of thermostats in chain and in barostat
run 10000          # run for 10000 steps
Per MPI rank memory allocation (min/avg/max) = 3.642 | 3.644 | 3.648 Mbytes
Step Temp E_pair E_mol TotEng Press Volume 
       0          2.4   -6.3727134            0   -2.7736134   -4.0086663         4000 
    1000    2.3779082   -4.9135949            0   -1.3476243    5.8787087    4143.3385 
    2000    2.3366122   -5.0031713            0   -1.4991292    5.4382379    4139.6135 
    3000    2.3826446   -5.0504756            0   -1.4774022     5.637887    4102.6284 
    4000    2.4005383   -4.9750987            0   -1.3751915    5.7245905    4135.6649 
    5000    2.4230573   -5.0101833            0    -1.376506    5.7348172    4120.6124 
    6000    2.3783175   -4.9448908            0   -1.3783064    5.1094107    4204.7078 
    7000    2.4135213   -5.0475956            0   -1.4282187    5.5096871     4120.082 
    8000    2.4080958   -4.9988074            0   -1.3875667    5.4956296    4131.2522 
    9000    2.3830563   -4.9834248            0   -1.4097341    5.5485498    4143.2596 
   10000    2.4143389   -5.0071355            0   -1.3865326    5.4090868    4147.1317 
Loop time of 2.58711 on 48 procs for 10000 steps with 4000 atoms

Performance: 667927.754 tau/day, 3865.323 timesteps/s
99.4% CPU use with 48 MPI tasks x no OpenMP threads

MPI task timing breakdown:
Section |  min time  |  avg time  |  max time  |%varavg| %total
---------------------------------------------------------------
Pair    | 1.0409     | 1.1103     | 1.2231     |   3.5 | 42.92
Neigh   | 0.20186    | 0.21039    | 0.23445    |   1.2 |  8.13
Comm    | 0.70517    | 0.8366     | 0.95286    |   4.6 | 32.34
Output  | 0.00024194 | 0.00025182 | 0.0004691  |   0.0 |  0.01
Modify  | 0.35394    | 0.41442    | 0.47651    |   4.0 | 16.02
Other   |            | 0.01515    |            |       |  0.59

Nlocal:        83.3333 ave          93 max          70 min
Histogram: 1 2 1 5 6 9 13 5 3 3
Nghost:        1596.10 ave        1630 max        1563 min
Histogram: 3 0 5 8 7 9 8 5 1 2
Neighs:        9197.00 ave       10732 max        7701 min
Histogram: 4 2 2 4 10 10 10 4 0 2

Total # of neighbors = 441456
Ave neighs/atom = 110.36400
Neighbor list builds = 903
Dangerous builds = 195

# Equilibrate just above the melting temperature to avoid step fn in T

fix 1 all npt temp 1.25 1.25 0.1 iso 5.68 5.68 0.5 mtk yes tchain 5 pchain 5
run 2000
Per MPI rank memory allocation (min/avg/max) = 3.643 | 3.645 | 3.649 Mbytes
Step Temp E_pair E_mol TotEng Press Volume 
   10000    2.4143389   -5.0071355            0   -1.3865326    5.4090868    4147.1317 
   11000     1.248588   -6.8461011            0   -4.9736874     5.800632    3317.7606 
   12000    1.2300857   -6.9173892            0   -5.0727219    5.4148956    3312.0606 
Loop time of 0.576602 on 48 procs for 2000 steps with 4000 atoms

Performance: 599373.787 tau/day, 3468.598 timesteps/s
99.7% CPU use with 48 MPI tasks x no OpenMP threads

MPI task timing breakdown:
Section |  min time  |  avg time  |  max time  |%varavg| %total
---------------------------------------------------------------
Pair    | 0.24305    | 0.27066    | 0.31421    |   2.7 | 46.94
Neigh   | 0.03627    | 0.0393     | 0.047655   |   0.9 |  6.82
Comm    | 0.16992    | 0.21746    | 0.24526    |   3.3 | 37.71
Output  | 5.1007e-05 | 5.2039e-05 | 6.9953e-05 |   0.0 |  0.01
Modify  | 0.037081   | 0.044495   | 0.050049   |   1.9 |  7.72
Other   |            | 0.004634   |            |       |  0.80

Nlocal:        83.3333 ave          92 max          74 min
Histogram: 1 2 2 10 5 10 9 6 1 2
Nghost:        1866.60 ave        1896 max        1846 min
Histogram: 3 4 7 12 5 6 4 6 0 1
Neighs:        11557.6 ave       13255 max        9902 min
Histogram: 3 1 5 11 3 7 8 6 3 1

Total # of neighbors = 554766
Ave neighs/atom = 138.69150
Neighbor list builds = 142
Dangerous builds = 9

#############################
# L I N E A R  Q U E N C H  #
#############################

# Define solid atoms. This closely follows ten Wolde  Ruiz-Montero and Frenkel  Faraday Discuss  1996  104  93-110
# Compute components of the per-atom q6 vector
compute q6 all orientorder/atom degrees 1 6 components 6 nnn NULL cutoff 1.3 # compute the Q6 parameter.
                                                                             # Use all neighbours within 1.3 unit cell.

# get number of connections
compute coord_number all coord/atom orientorder q6 0.5

# An atom is solid if it has 8 or more connections (of a possible 14)
variable is_solid atom c_coord_number>=8
group solid dynamic all var is_solid    # Must be dynamic to update
dynamic group solid defined

# do clustering
compute cluster solid cluster/atom 1.3 # Create a cluster where all atoms within are solid and max 1.3 units from another member

# define chunks one chunk per cluster
compute clus_chunks solid chunk/atom c_cluster nchunk every compress yes  # Says which atoms are in which chunk

# count the size of each chunk
compute size_chunks solid property/chunk clus_chunks count


# Find the maximum entry in the vector of chunk sizes
variable max_n equal max(c_size_chunks)


# Thermo style which includes this variable
# thermo_style custom step temp pe vol v_max_n

thermo ${N}  # Print the thermo information every 100 steps
thermo 1000  

# Reset the npt fix at a lower temperature (below freezing)
fix 1  all npt temp  ${temp} ${temp}  0.1  iso  5.68  5.68  0.5  mtk yes tchain  5  pchain  5
fix 1  all npt temp  0.45 ${temp}  0.1  iso  5.68  5.68  0.5  mtk yes tchain  5  pchain  5
fix 1  all npt temp  0.45 0.45  0.1  iso  5.68  5.68  0.5  mtk yes tchain  5  pchain  5

dump dmp2 all dcd ${N} traj.dcd
dump dmp2 all dcd 1000 traj.dcd


compute msd all msd com yes
variable twopoint equal c_msd[4]/6/(step*dt+1.0e-6)
fix 9 all vector 10 c_msd[4]
variable fit equal slope(f_9)/6/(10*dt)
thermo_style custom step temp pe c_msd[4] v_twopoint v_fit v_max_n

fix 1 all npt temp 1.25 ${temp} 0.1 iso 5.68 5.68 0.5 mtk yes tchain 5 pchain 5
fix 1 all npt temp 1.25 0.45 0.1 iso 5.68 5.68 0.5 mtk yes tchain 5 pchain 5
run 2000000 # 5000000  # Run for this many steps
Neighbor list info ...
  update every 1 steps, delay 10 steps, check yes
  max neighbors/atom: 2000, page size: 100000
  master list distance cutoff = 3.8
  ghost atom cutoff = 3.8
  binsize = 1.9, bins = 8 8 8
  4 neighbor lists, perpetual/occasional/extra = 1 3 0
  (1) pair lj/cut, perpetual
      attributes: half, newton on
      pair build: half/bin/atomonly/newton
      stencil: half/bin/3d
      bin: standard
  (2) compute orientorder/atom, occasional
      attributes: full, newton on
      pair build: full/bin/atomonly
      stencil: full/bin/3d
      bin: standard
  (3) compute coord/atom, occasional
      attributes: full, newton on
      pair build: full/bin/atomonly
      stencil: full/bin/3d
      bin: standard
  (4) compute cluster/atom, occasional
      attributes: full, newton on
      pair build: full/bin/atomonly
      stencil: full/bin/3d
      bin: standard
Per MPI rank memory allocation (min/avg/max) = 9.810 | 9.817 | 9.823 Mbytes
Step Temp PotEng c_msd[4] v_twopoint v_fit v_max_n 
   12000    1.2300857   -6.9173892 9.9869791e-31 6.9354018e-33 8.3333333e+20            2 
   13000    1.2499315   -6.8816552   0.51940476 0.0033295175   0.04170176            1 
   14000    1.2366691   -6.9228517   0.97968128  0.005831436  0.040565558            1 
   15000    1.2666359   -6.8879867    1.4023504 0.0077908353  0.038521168            1 
   16000    1.2311037   -6.9342984     1.851805 0.0096448176  0.037505244            1 
   17000    1.2702246   -6.8793349    2.3617185  0.011577051  0.038039808            3 
   18000    1.2445149   -6.9425279    2.8242158  0.013075073   0.03842852            3 
   19000    1.2568847   -6.9227948     3.232857  0.014179197  0.038276778            1 
   20000    1.2261236     -6.91802    3.6724808  0.015302003  0.038047157            1 
   21000    1.2481472   -6.9289762    4.1090574  0.016305783  0.037864095            3 
   22000    1.2245035   -6.9439219    4.6342593  0.017554012  0.037873768            1 
   23000    1.2580737   -6.9146848    5.0317763  0.018231073  0.038017936            2 
   24000    1.2626779   -6.9023515    5.5041617  0.019111672  0.037930472            1 
   25000    1.2362335   -6.9342152    5.9644171   0.01988139   0.03789962            1 
   26000    1.2632929   -6.9001399     6.539782  0.020960839  0.038105737            1 
   27000    1.2569257   -6.9067693    7.0991968  0.021911101  0.038378348            2 
   28000    1.2410011   -6.9163886    7.5107224   0.02235334   0.03866053            2 
   29000    1.2581527   -6.8929317    7.9796059  0.022929902  0.038775676            2 
   30000    1.2350198   -6.8993369    8.3692586   0.02324794  0.038805277            2 
   31000    1.2583247   -6.9211827    8.8143488  0.023694486  0.038746671            1 
   32000    1.2399204   -6.9344495    9.3001495  0.024219139  0.038732003            1 
   33000    1.2410825   -6.8853846    9.8549426  0.024886218  0.038758243            2 
   34000    1.2265625   -6.9046243    10.371975  0.025421507  0.038863641            2 
   35000    1.2268208   -6.9316324    10.865052  0.025869172  0.039018976            1 
   36000    1.2411646    -6.940303    11.332751   0.02623322  0.039132959            2 
   37000    1.2384447   -6.8840386    11.845958  0.026680085  0.039217089            1 
   38000    1.2550236   -6.9490796      12.2025  0.026759868  0.039233581            2 
   39000    1.2431035   -6.9223534    12.636046  0.027000097   0.03922945            2 
   40000    1.2682854   -6.8912202    13.223434   0.02754882  0.039246054            1 
   41000    1.2415363   -6.9271907    13.537547  0.027515339  0.039246632            1 
   42000    1.2435702   -6.8858766    13.988921  0.027755795  0.039191497            1 
   43000     1.265598   -6.9040011    14.452356  0.028008442  0.039143257            1 
   44000    1.2325082   -6.9102259    14.938646   0.02829289  0.039099676            2 
   45000    1.2455422    -6.963142     15.31615   0.02836324  0.039041549            1 
   46000    1.2461895   -6.9573091    15.681182  0.028407939    0.0389854            2 
   47000    1.2285197   -6.9443116    16.021563  0.028407026  0.038883874            1 
   48000    1.2509845    -6.948627    16.434516  0.028532145  0.038782775            2 
   49000    1.2532587    -6.932949    16.996338  0.028905336  0.038685139            2 
   50000     1.237768    -6.962606    17.372996  0.028954994  0.038600558            1 
   51000    1.2279612   -6.9317097    17.883525  0.029221447  0.038515974            2 
   52000    1.2208854    -6.910356    18.387698  0.029467464  0.038445523            1 
   53000    1.2293607   -6.8922227    18.863567  0.029659697  0.038399518            1 
   54000    1.2611813   -6.9317063    19.263983  0.029728368  0.038358825            2 
   55000    1.2209642   -6.9229604    19.762101  0.029942578  0.038329854            1 
   56000     1.238062   -6.9498906     20.03278  0.029810684  0.038272762            1 
   57000    1.2199548   -6.9382413    20.430408  0.029869018  0.038192925            1 
   58000    1.2167247   -6.9059203    20.881786  0.030002566  0.038121703            2 
   59000    1.2056206   -6.9201844    21.404839  0.030232824  0.038055722            2 
   60000    1.2135998   -6.9544407    21.928663  0.030456476  0.038018629            2 
   61000    1.1841461   -6.9960386      22.2932   0.03045519  0.037988142            1 
   62000    1.2343559    -6.954395    22.734391  0.030556978  0.037960867            2 
   63000    1.2150584   -6.9450429    23.186009  0.030669323  0.037924677            1 
   64000    1.2226464   -6.9390776    23.666197   0.03081536   0.03789473            2 
   65000     1.220086   -6.9623488    24.155191  0.030968194  0.037870083            2 
   66000    1.2021986   -6.9459918    24.546241  0.030992728  0.037836369            1 
   67000    1.2072544   -6.9013481    24.973949  0.031062125  0.037799841            1 
   68000    1.2152898   -6.9149299    25.420569  0.031152658  0.037766641            1 
   69000    1.1820098   -6.9442825    25.694272  0.031031729   0.03772317            1 
   70000    1.2194292   -6.9311159     26.23216  0.031228761   0.03769294            1 
   71000    1.2289045   -6.9192579    26.632444  0.031258737  0.037656331            2 
   72000      1.20374   -6.9215212    27.250895  0.031540387  0.037637509            1 
   73000    1.2042775   -6.9634626    27.567766  0.031470053  0.037623207            1 
   74000    1.2215321   -6.9961986    27.970102  0.031497863  0.037598995            1 
   75000    1.2270802   -6.9687518     28.46399  0.031626655  0.037579406            1 
   76000    1.2325273   -6.9517132    29.089046  0.031895883  0.037566625            1 
   77000    1.2098296   -6.9502487     29.45228  0.031874762  0.037563093            3 
   78000    1.2262086   -6.9744802    29.769879  0.031805426   0.03755123            3 
   79000    1.2181529   -6.9395072    30.364455  0.032030016  0.037533406            2 
   80000    1.2312571   -6.9781169    30.634237  0.031910664  0.037515816            2 
   81000    1.2332879   -6.9831502    30.918896  0.031809563  0.037489517            2 
   82000    1.2141845   -6.9710406    31.383803  0.031894108  0.037451661            2 
   83000    1.2456063   -6.9648173    31.834653  0.031962503  0.037412552            1 
   84000    1.2357383   -6.9675191    32.185441  0.031930001  0.037374528            1 
   85000    1.2369752   -6.9615359    32.600779  0.031961547   0.03733427            2 
   86000     1.236522    -6.938714    32.954413  0.031932571  0.037287664            1 
   87000    1.2176768   -6.9915615    33.214626  0.031814776  0.037241206            1 
   88000    1.2514087   -6.9601013    33.672655  0.031886984  0.037192883            4 
   89000    1.1975118   -6.9765641    34.088957  0.031918499  0.037141746            1 
   90000    1.2067918   -6.9566814    34.518635  0.031961699   0.03708483            2 
   91000    1.2077889   -6.9927599    35.044395  0.032091936  0.037039857            1 
   92000    1.2110041   -6.9694199    35.473736  0.032132007  0.036998657            1 
   93000    1.2197489   -6.9450987    35.895885  0.032164771  0.036964314            2 
   94000    1.2074481   -6.9915681     36.29451  0.032175984  0.036930693            2 
   95000    1.2107131   -6.9338072    36.871965  0.032343829  0.036901512            2 
   96000    1.2436548   -6.9618643    37.382078  0.032449721  0.036876841            1 
   97000    1.2218099    -6.989765    37.850379  0.032517507  0.036857465            1 
   98000    1.2334527    -6.982372    38.229819  0.032508349   0.03683969            1 
   99000    1.2340314   -7.0062459    38.446441  0.032362324  0.036822374            2 
  100000    1.2149994   -7.0042612    39.068059  0.032556716  0.036806525            3 
  101000    1.2460969    -6.937108    39.671628  0.032732366  0.036793214            2 
  102000    1.2166689   -6.9884799    39.803328  0.032519059  0.036771622            2 
  103000    1.1938269   -6.9579075    40.486301  0.032755907  0.036753274            2 
  104000    1.2284739   -6.9920054    40.892558  0.032766473  0.036739609            1 
  105000    1.1968982   -7.0027508    41.066104  0.032592146  0.036718866            1 
  106000    1.2246699   -6.9899069    41.517191  0.032639301  0.036692455            1 
  107000    1.2133073   -7.0079088    41.949901  0.032671262   0.03666581            1 
  108000    1.2335338   -6.9721057    42.492113  0.032787124  0.036644986            2 
  109000    1.2360328   -6.9828327    42.858819  0.032766681  0.036631181            2 
  110000    1.2111023   -6.9796288    43.246367  0.032762399  0.036611849            2 
  111000    1.2095146   -7.0372247    43.441722  0.032613905  0.036588499            2 
  112000    1.1976085   -6.9538283    44.060676  0.032783241  0.036563057            1 
  113000     1.222486   -6.9594108    44.368404  0.032720062  0.036537596            1 
  114000    1.1876237   -7.0484681    44.482451  0.032516411  0.036510089            1 
  115000    1.2359599   -6.9725145    45.018924  0.032622408  0.036479801            2 
  116000    1.2202089   -6.9758842    45.406082  0.032619312  0.036449374            1 
  117000     1.216455   -7.0176771    45.775473  0.032603613  0.036420198       -1e+20 
  118000      1.21464   -6.9964143    46.218669  0.032640303  0.036388913            1 
  119000    1.2019087   -7.0054626    46.734143  0.032726991  0.036363181            1 
  120000    1.2070015   -6.9999503    47.152158  0.032744554  0.036337884            1 
  121000    1.2032782   -7.0056123    47.391775  0.032638963  0.036312177            1 
  122000    1.1959991   -6.9838897     48.01519  0.032797261  0.036287639            2 
  123000    1.1962875   -6.9892667    48.658332  0.032966349  0.036263756            1 
  124000    1.2062752   -7.0365508    48.960569  0.032903608  0.036242713            1 
  125000    1.1967348   -7.0232842    49.410409  0.032940272  0.036224757            2 
  126000    1.2055639   -7.0196287     49.80853  0.032942149  0.036207843            1 
  127000    1.1994266   -6.9970228    50.166482  0.032917639  0.036189047            1 
  128000    1.2018088   -7.0329004    50.425016  0.032828786  0.036166416            2 
  129000     1.200688   -6.9739593     50.98089  0.032933391  0.036144558            1 
  130000    1.1897241   -7.0479484     51.29177   0.03287934   0.03612155            1 
  131000    1.1880971   -7.0077092    51.880788  0.033003045  0.036104426            1 
  132000     1.184898   -6.9814348    52.382933  0.033070033   0.03608646            3 
  133000    1.1800856   -7.0285957    52.622614  0.032971562  0.036070917            2 
  134000    1.2027317   -7.0220265     53.05349  0.032993464  0.036056461            1 
  135000    1.2096643   -7.0016375    53.573082  0.033069803  0.036046231            1 
  136000    1.1888646   -7.0360867    54.019662  0.033100283  0.036035137            1 
  137000    1.1754963   -7.0240711     54.56125  0.033188108  0.036030347            1 
  138000    1.1888251   -7.0046505    55.149834  0.033303039  0.036027021            2 
  139000    1.1860178    -7.050353    55.682291  0.033382668  0.036024319            1 
  140000    1.1815625    -7.051917    55.741121  0.033179239  0.036013679            1 
  141000     1.182008   -6.9848489     56.14755  0.033184131  0.036002761            8 
  142000    1.1742632    -7.016684     56.52286  0.033170692  0.035991931            1 
  143000    1.1763305   -6.9828443    57.071161  0.033258252  0.035981307            2 
  144000    1.2274497   -6.9714789    57.584049  0.033324102  0.035977547            1 
  145000    1.2004212   -7.0062981    57.742923  0.033185588  0.035967737            2 
  146000    1.2089653   -6.9824003    58.210434  0.033225133  0.035952912            1 
  147000    1.2123768   -6.9931199    58.599679  0.033219773   0.03594182            2 
  148000    1.1826155   -7.0242772      59.0947  0.033274043  0.035928348            3 
  149000    1.1989725   -7.0231565    59.289739  0.033159809  0.035915049            1 
  150000    1.1813839   -7.0173696    59.684266  0.033157926  0.035898683            1 
  151000    1.1950867   -7.0149429     60.19645  0.033220999  0.035880934            2 
  152000    1.1963443   -7.0564742    60.061531  0.032928471   0.03585877            1 
  153000    1.1835774   -7.0425616    60.737903  0.033081646  0.035834394            1 
  154000    1.1773158   -7.0059888    61.022092  0.033020612  0.035810591            1 
  155000     1.193284   -7.0266155    61.119572  0.032859985  0.035784807            2 
  156000    1.2013506   -7.0211153    61.653961  0.032934808  0.035758047            2 
  157000    1.2064617   -7.0230836    62.106275  0.032965114  0.035735504            2 
  158000    1.1748284   -7.0084488    62.679251  0.033058677  0.035709566            2 
  159000     1.194347   -7.0735607    62.547935  0.032781936  0.035683544            1 
  160000     1.172764   -6.9953123    62.945041  0.032783876  0.035649871            2 
  161000    1.1618406   -7.0823386    62.919585  0.032567073  0.035613345            3 
  162000    1.1768002   -7.0134265    63.751792  0.032794132  0.035576462            2 
  163000    1.1878021   -7.0550407    64.032209  0.032736303  0.035544581            2 
  164000    1.1934486   -7.0291037    64.474626  0.032761497  0.035512472            2 
  165000    1.1873386   -7.0242218    64.837828  0.032746378  0.035481297            2 
  166000     1.162942   -7.0256152    65.365062  0.032813786  0.035453389            1 
  167000    1.2093455   -7.0598058    65.595425  0.032732248  0.035425172            4 
  168000    1.2164503     -7.02288    66.590667  0.033031085  0.035400612            1 
  169000    1.1624204    -7.082948    66.373103  0.032728354  0.035373216            2 
  170000    1.2134235   -7.0564956    66.372079  0.032535333  0.035340455            2 
  171000    1.1853345   -7.0187363    66.882258  0.032593693  0.035305133            2 
  172000    1.1929554   -7.0531242    67.176835  0.032546916  0.035269852            1 
  173000    1.1875276   -7.0602965    67.568851  0.032547616  0.035236299            1 
  174000    1.1822503   -7.0543662    67.878309  0.032508768  0.035203889            2 
  175000    1.1713582   -7.0618762    68.684737  0.032707018    0.0351731            1 
  176000    1.1861956   -7.0517394    68.968807  0.032655685  0.035144274            1 
  177000    1.1782099   -7.0705095    69.226853   0.03259268  0.035115231            4 
  178000    1.1808517   -7.0636604    69.541146  0.032556716   0.03508573            1 
  179000    1.1764625    -7.031334     70.35047  0.032751615  0.035059137            1 
  180000    1.1568385   -7.0539572    70.704593  0.032733608  0.035036371            2 
  181000    1.1955495   -7.0115626    71.031303  0.032703178  0.035011171            1 
  182000    1.1613748   -7.0454295    71.008474  0.032513038  0.034982046            3 
  183000    1.1784688   -7.0576436    71.365054  0.032497748  0.034953445            1 
  184000    1.1574081   -7.0486474    71.739972  0.032490929  0.034922198            2 
  185000    1.2036315   -7.0246869    72.267514  0.032552934  0.034892854            2 
  186000    1.1511221   -7.0702564     72.75723  0.032597325  0.034866666            3 
  187000    1.1614687   -7.0607238    73.507206  0.032757222  0.034843311            1 
  188000    1.1838818   -7.0674168    73.843135  0.032731886  0.034822091            2 
  189000    1.1995953   -7.0130751    74.354379  0.032784118  0.034802903            2 
  190000    1.1916211   -7.0871538    74.573044  0.032707475  0.034785654            3 
  191000    1.1698794   -7.0824382    74.953166  0.032702079  0.034768825            2 
  192000    1.2019793   -7.0897503    75.492061  0.032765652  0.034750872            2 
  193000    1.1982199   -7.1091984     76.13389   0.03287301  0.034735477            1 
  194000    1.1602929   -7.0900715    76.449304  0.032839048  0.034722274            1 
  195000    1.1742887   -7.0583819    76.939023  0.032879924  0.034709988            2 
  196000     1.155963   -7.0531158    77.489914  0.032946392  0.034695986            4 
  197000    1.1904401   -7.0697893    77.425902  0.032752074  0.034679911            1 
  198000    1.1972097   -7.0376677    77.985736  0.032822279  0.034664113            2 
  199000    1.1825661     -7.04738    78.058456  0.032687796  0.034648666            1 
  200000    1.1872492   -7.0876361    78.348004  0.032645002  0.034631896            2 
  201000    1.1483581   -7.0624326    78.802771  0.032671132  0.034612881            2 
  202000    1.1695809   -7.0779599    78.985506   0.03258478  0.034593231            4 
  203000    1.1672783   -7.0648403    79.323921  0.032563186  0.034570385            1 
  204000    1.1256001   -7.0808528    79.503838  0.032477058  0.034546718            1 
  205000    1.1623885    -7.054158    79.843761  0.032456813  0.034522827            2 
  206000    1.1552098   -7.0549187     80.25094  0.032463972  0.034496827            2 
  207000    1.1750077   -7.0801134    80.736475  0.032502607   0.03447268            1 
  208000     1.154588   -7.0677758    81.078347  0.032483312  0.034448724            2 
  209000    1.1702183   -7.0637443    81.196455  0.032374982  0.034424892            4 
  210000    1.1699316   -7.1045017    81.781809  0.032453099  0.034400897            2 
  211000    1.1431297   -7.0576538    82.158262  0.032447971  0.034378772            1 
  212000    1.1540053   -7.0636794    82.472868   0.03241858  0.034355527            2 
  213000    1.1848656   -7.0868127    82.901085  0.032433914  0.034332551            2 
  214000    1.1551071   -7.0703558    83.485507  0.032509932  0.034310758            3 
  215000    1.1762263   -7.0865711    83.588954  0.032398819  0.034289888            1 
  216000    1.1442483   -7.1080447    83.881528  0.032361701  0.034268962            2 
  217000    1.1797124   -7.0858643    84.489189  0.032445925  0.034247869            2 
  218000    1.1696001   -7.0864685    84.816978  0.032422392  0.034227355            1 
  219000    1.1963558   -7.0684526     85.11782   0.03238882  0.034205504            1 
  220000    1.1724722   -7.0822681    85.436213  0.032362202  0.034183718            2 
  221000    1.1720392   -7.0901974    85.680942  0.032308047  0.034161833            1 
  222000    1.1479678   -7.1107363    86.139742  0.032334738    0.0341388            1 
  223000    1.1650487   -7.0802201    86.280351  0.032242284   0.03411569            1 
  224000    1.1611537    -7.064758    86.814434  0.032297036  0.034091685            1 
  225000    1.1649052   -7.0866489    87.105594  0.032261331  0.034067838            1 
  226000    1.1920215   -7.0936821    87.466439  0.032251637  0.034043497            1 
  227000    1.1467592   -7.0979656    87.960929   0.03229109  0.034020121            3 
  228000    1.1749984   -7.0973887    88.246685  0.032253905  0.033998635            1 
  229000    1.1663143   -7.0579654    88.696887  0.032276888  0.033974939            5 
  230000    1.1790769   -7.0943056    88.496832  0.032064069  0.033952168            1 
  231000    1.1553235   -7.1198408    89.109625  0.032146329  0.033929965            3 
  232000    1.1403398   -7.0773597    89.501592   0.03214856  0.033906267            2 
  233000    1.1673107   -7.0768919    90.108179  0.032227532   0.03388242            1 
  234000    1.1494508   -7.0963297    90.245242  0.032138619  0.033859683            2 
  235000    1.1632979   -7.0746918    90.858272  0.032219245  0.033836462            3 
  236000    1.1543481   -7.0616802    91.026663  0.032142183  0.033813263            2 
  237000    1.1710473   -7.0679418    90.855041  0.031946217  0.033789718            1 
  238000    1.1347235   -7.1328624    91.493303   0.03203547  0.033765742            2 
  239000    1.1380604   -7.1272805    91.755695   0.03199292  0.033742187            1 
  240000    1.1568545   -7.0784674    92.545755  0.032133943  0.033718568            3 
  241000    1.1439592   -7.0679551    93.213769  0.032231594  0.033697984            2 
  242000    1.1621855   -7.0768394    93.501525  0.032197495  0.033678199            2 
  243000    1.1687783   -7.1148023    93.523342  0.032072477  0.033658275            1 
  244000    1.1801437   -7.0829473    94.098648  0.032137516  0.033637496            1 
  245000    1.1335423   -7.1252297    93.804784  0.031906389  0.033613772            8 
  246000    1.1670555   -7.1568222    93.952225  0.031826634   0.03358975            2 
  247000    1.1877778   -7.1241607    94.567579  0.031905391  0.033565044            1 
  248000    1.1339019   -7.1128935    95.151522  0.031972958   0.03354276            2 
  249000    1.1238436   -7.0762944    95.819424   0.03206808  0.033521566       -1e+20 
  250000    1.1505961   -7.1032453    95.910943  0.031970314  0.033500753            1 
  251000    1.1697243   -7.0921954    96.357567  0.031991224  0.033479729            2 
  252000    1.1313347   -7.1191402    96.385124  0.031873388  0.033459114            1 
  253000    1.1309674   -7.1576315    96.616947  0.031823764  0.033437654            4 
  254000    1.1716678   -7.1216681    96.872397  0.031782283  0.033413738            1 
  255000    1.1382117   -7.0809408    97.343285  0.031811531  0.033390341            2 
  256000    1.1753656   -7.0998892    97.388381  0.031701947  0.033365956            2 
  257000    1.1477724   -7.1361268    98.043643  0.031791064  0.033342463            2 
  258000    1.1612636   -7.1429801    98.630631  0.031857439   0.03331915            1 
  259000    1.1583349   -7.1254895    98.927746  0.031830034  0.033297255            1 
  260000    1.1395425   -7.1267532    99.212847  0.031798989  0.033275548            1 
  261000    1.1494399    -7.076268    99.922637  0.031903779  0.033254949            2 
  262000    1.1625783   -7.1465786    99.963267  0.031794932  0.033234534            2 
  263000    1.1307258    -7.143328    100.05196  0.031702142  0.033212838            1 
  264000    1.1600497    -7.102809    100.81086   0.03182161  0.033191683            1 
  265000    1.1501875   -7.1321417    100.88297  0.031724204  0.033170025            2 
  266000    1.1459567   -7.1084628    101.62729  0.031838125  0.033150528            2 
  267000    1.1418181   -7.1551291    101.57247  0.031701769  0.033130786            2 
  268000    1.1360719   -7.1202997    102.11078  0.031750866  0.033110284            3 
  269000    1.1477463   -7.1196111    102.31843   0.03169716  0.033089724            3 
  270000    1.1686292     -7.13122    102.54749  0.031650459  0.033068207            1 
  271000    1.1306472   -7.1550333    102.73446  0.031591162  0.033046116       -1e+20 
  272000     1.149257   -7.1146487    103.47256  0.031701153  0.033024742            2 
  273000    1.1808744   -7.1339876    103.47936  0.031587106  0.033003499            2 
  274000    1.1166403   -7.0983299    104.10815  0.031663064  0.032982242            1 
  275000    1.1187905   -7.1304962    103.98431  0.031510396  0.032959591            1 
  276000    1.1544154   -7.1137416    104.06328  0.031420073  0.032936075            2 
  277000    1.1251931   -7.1104085    104.48942  0.031434843  0.032911176            1 
  278000    1.1415055   -7.1438146    104.13703  0.031216135  0.032885443            3 
  279000    1.1523101   -7.1618637     104.9983    0.0313615  0.032859603            1 
  280000    1.1173599   -7.1728228    104.59945  0.031130788  0.032832525            2 
  281000    1.1407645   -7.1123075    105.16085  0.031186492  0.032805562            2 
  282000    1.1261996   -7.1405578    105.84261  0.031277366  0.032780947            2 
  283000    1.1336116   -7.1400615    106.08778   0.03123904  0.032755169            1 
  284000    1.1256559   -7.1343535    106.69216  0.031306385  0.032729916            2 
  285000    1.1431115   -7.0479114    107.02773  0.031294657  0.032704476            1 
  286000    1.1444627    -7.154426     107.2293  0.031243968  0.032679078            2 
  287000    1.1266076     -7.16187    107.67829  0.031265473  0.032653418            2 
  288000     1.147908   -7.1312573    107.97047  0.031241456  0.032628216            2 
  289000    1.1465339   -7.1541944    108.36101  0.031245966   0.03260372            2 
  290000     1.144215   -7.1575309    108.57427  0.031199502  0.032579496            2 
  291000    1.1288356   -7.1649299    108.96488  0.031204146   0.03255497            2 
  292000     1.134895   -7.1148936    109.63756  0.031289259  0.032531529            4 
  293000    1.1301183   -7.1284726    109.39231  0.031112717  0.032507856            1 
  294000     1.164547    -7.086887    109.59346  0.031063905   0.03248286            1 
  295000    1.1374696   -7.1225298     109.9449  0.031057882  0.032456866            1 
  296000    1.1570511   -7.1422425     109.8775  0.030933981  0.032430691            2 
  297000     1.133658   -7.1483229     110.4797  0.030998792  0.032404646            1 
  298000    1.1410232   -7.1549956    110.68129  0.030951144  0.032378711            2 
  299000    1.1442029   -7.1762551    110.60214  0.030825568  0.032352041            3 
  300000    1.1227524   -7.1398055    111.41091  0.030947474  0.032325501            2 
  301000     1.137373   -7.1176742    111.58041  0.030891587  0.032299169            2 
  302000    1.1256591   -7.1464412    111.85956  0.030866323  0.032271263            1 
  303000    1.1491277   -7.1722222    111.97081  0.030795052  0.032243629            2 
  304000     1.123395   -7.1716429    112.00284  0.030702532   0.03221565            3 
  305000     1.144513   -7.1818479     112.2496   0.03066929  0.032187069            2 
  306000    1.1328627   -7.1287848    112.56654  0.030655375  0.032158823            5 
  307000    1.1370798   -7.1669948    113.13378  0.030709494  0.032130904            3 
  308000    1.1154898   -7.1690291    113.38628  0.030678107  0.032102892            2 
  309000    1.1337849   -7.1602023    113.39574  0.030581376  0.032074829            1 
  310000    1.1412884   -7.1612224    113.43935  0.030494449  0.032045908            1 
  311000    1.1512423   -7.1757514    113.80825  0.030495244  0.032017409            1 
  312000    1.1071059   -7.1746342    114.33543  0.030538309  0.031988354            2 
  313000    1.1276018   -7.1935796    114.41708  0.030462482  0.031960125            1 
  314000    1.1266243   -7.1702023    114.85255  0.030481037  0.031931953            1 
  315000    1.1276175   -7.1350413    115.37743   0.03052313    0.0319036            1 
  316000    1.1482205   -7.1546924    115.69629  0.030510626  0.031877115            1 
  317000    1.1487449   -7.1863079    115.74747   0.03042783  0.031850654            2 
  318000    1.1140015   -7.1687537    116.43769   0.03051302  0.031824332            2 
  319000    1.1393775   -7.1947466    116.87543  0.030531721  0.031798395            1 
  320000    1.1190799   -7.1724462     116.7168     0.030395   0.03177239            2 
  321000    1.1123654   -7.1335845      117.277  0.030445742  0.031746358            3 
  322000    1.1187186   -7.1513171    117.76063  0.030476353  0.031719892            2 
  323000    1.0983922   -7.1467531    117.66842  0.030358211  0.031694181            1 
  324000    1.1587352     -7.17947    118.45251   0.03046618  0.031668957            1 
  325000    1.1275796   -7.1841311    118.72223  0.030441598  0.031645026            3 
  326000    1.1359703   -7.1727455    119.06349  0.030435454  0.031621012            1 
  327000    1.1338861   -7.1644322    119.87531  0.030549264  0.031597472            2 
  328000    1.1146989    -7.152727    119.87317  0.030455583  0.031575078            4 
  329000    1.1229803   -7.1607409    120.25198  0.030458963  0.031551462            5 
  330000    1.1486273   -7.1997887    120.28511  0.030375029  0.031527343            1 
  331000    1.1140421   -7.1839056    120.22165  0.030267283  0.031502232            1 
  332000    1.0923138    -7.214348    120.70334  0.030297024  0.031477206            1 
  333000    1.1325229   -7.1908643    121.11345   0.03030867  0.031452421            1 
  334000     1.103716    -7.136412    121.67871   0.03035896  0.031428061            2 
  335000    1.1054287   -7.1926216    121.57172   0.03024172  0.031402964            1 
  336000    1.1129502   -7.1648194    121.97649  0.030252105  0.031378423            1 
  337000     1.099335    -7.190703    121.95018   0.03015583  0.031353755            2 
  338000     1.119097   -7.2026835    122.40692   0.03017922  0.031328847            1 
  339000    1.1233612    -7.203948    122.59015  0.030135237  0.031304287            4 
  340000    1.1252756   -7.1401912    122.94912  0.030134588  0.031279593            2 
  341000    1.1449724    -7.198922    123.66221  0.030220482  0.031255212            1 
  342000    1.1198659   -7.2294813     123.6474  0.030128509  0.031231977            3 
  343000    1.1093532   -7.1653451    123.99606  0.030125379  0.031208879            1 
  344000    1.1132219   -7.1681059    124.42641  0.030142057  0.031185975            1 
  345000    1.1264202   -7.2168777    124.53185  0.030080157  0.031162866            1 
  346000    1.1232217   -7.2007993     124.9843  0.030102192  0.031138557            1 
  347000    1.1301168   -7.1943298    125.36014  0.030105702   0.03111491            1 
  348000     1.113172   -7.2337905    125.49165  0.030050682  0.031090581            1 
  349000    1.0966809   -7.1681942     126.1554  0.030123065   0.03106764            1 
  350000    1.1195719   -7.1789879    125.76579  0.029944235  0.031045372            1 
  351000    1.1332919    -7.201973    126.49607  0.030032305  0.031022215            2 
  352000    1.1115735   -7.2533959    126.15122  0.029865346  0.030999318            1 
  353000    1.1046401   -7.1809669    126.98014  0.029976425  0.030975562            3 
  354000    1.1073475   -7.1942051    127.53483  0.030022322  0.030953029            2 
  355000     1.122964   -7.1716319    128.29329  0.030115795  0.030931312            2 
  356000    1.1151322   -7.1737702    128.01376  0.029965767  0.030909222            2 
  357000    1.1450549   -7.2122693    128.17815  0.029920203  0.030886593            2 
  358000    1.1176477    -7.183608    128.79981  0.029981333  0.030865134            1 
  359000    1.0982689   -7.1906107    129.37986  0.030032465  0.030844311            1 
  360000    1.1289578    -7.186856     129.4639  0.029968495  0.030823937            1 
  361000    1.1116058   -7.2023591    129.88111  0.029981789  0.030803777            2 
  362000    1.1130035    -7.198772    130.10796  0.029951188  0.030783273            1 
  363000    1.1047269   -7.2055635    130.37218  0.029929335  0.030762751            1 
  364000    1.1182332   -7.2437705    130.52164  0.029881328  0.030742582            2 
  365000    1.1117271   -7.1923209    131.41966  0.030004489   0.03072239            1 
  366000    1.1053175   -7.2184176    131.49653   0.02994001  0.030702888            3 
  367000    1.1120939    -7.174995    131.74137  0.029914025  0.030683261            2 
  368000    1.1052281   -7.2160257    131.74898  0.029834462  0.030664071            2 
  369000     1.126084   -7.2108842    132.56751  0.029938461  0.030644954            1 
  370000    1.1197493   -7.2216373    132.34835  0.029808187  0.030625819            1 
  371000    1.1256237   -7.2149133     133.2509   0.02993057  0.030606509            4 
  372000    1.0806136   -7.1895305    133.57157  0.029921948   0.03058682            1 
  373000    1.1140617   -7.2439835    133.44336  0.029813084  0.030567163       -1e+20 
  374000    1.0957759   -7.2049649    133.95779  0.029847992  0.030548029            2 
  375000    1.1398966   -7.2116304    134.42509  0.029872243  0.030529954            1 
  376000    1.1013213    -7.207715    134.54071   0.02981842  0.030512119            2 
  377000    1.0838481   -7.1810632    135.13583  0.029870873  0.030494422            1 
  378000     1.091525   -7.1934606    135.43486  0.029857774  0.030476113            2 
  379000     1.144611   -7.2541338    135.85304  0.029870941  0.030458616            4 
  380000    1.0874434   -7.2039076    136.18999  0.029866226   0.03044127            1 
  381000    1.0998388   -7.2164106     136.8405  0.029930118  0.030424159            1 
  382000    1.0999641   -7.2570341    137.08213  0.029904479  0.030408145            3 
  383000    1.1013454   -7.2204149     137.0706  0.029823891  0.030392098            2 
  384000    1.0908674   -7.2186526    137.67685  0.029877789  0.030375702            1 
  385000    1.0818627   -7.2404077    137.84572  0.029836736  0.030358443            1 
  386000    1.0901864   -7.2279719    138.04078   0.02980155  0.030341914            2 
  387000    1.0795571   -7.1945205    138.81549  0.029891363   0.03032553            1 
  388000    1.1208493   -7.2347873     138.5316   0.02975335  0.030308701            1 
  389000    1.0873889   -7.2229233    139.49095  0.029882379   0.03029233            1 
  390000    1.1024982   -7.2374197    139.17812  0.029738914  0.030275853            2 
  391000    1.0977939   -7.2037167    139.34761  0.029698978  0.030259375            1 
  392000    1.0931326   -7.2603639    139.21241  0.029594476   0.03024171            1 
  393000    1.1272635   -7.2413467    139.73826  0.029630674  0.030223443            2 
  394000    1.0812942   -7.2062189    139.93606  0.029597305  0.030204986            2 
  395000    1.0825453   -7.2313107    140.39031  0.029618209  0.030186551            4 
  396000    1.1019587   -7.2504597    140.06217  0.029474362  0.030168373            2 
  397000    1.1134456   -7.2250301    140.32406  0.029455092  0.030149424            3 
  398000    1.0945231   -7.2692844    140.67576  0.029454723  0.030130698            1 
  399000     1.093257   -7.2782781    140.64058  0.029373554  0.030112292            2 
  400000    1.1011422   -7.2377597    141.09621  0.029395043  0.030093542            2 
  401000     1.083363   -7.2461011    141.70584   0.02944843  0.030075348            1 
  402000        1.089   -7.2488111    142.29601  0.029497514  0.030057131            2 
  403000    1.1018138   -7.2130685    142.54929  0.029476694  0.030039939            3 
  404000    1.1118837   -7.2408786    143.08771  0.029514792  0.030022978            2 
  405000    1.0851711   -7.2563387    143.19447  0.029463882  0.030005624            1 
  406000    1.0957592   -7.2394831    143.35416  0.029424089  0.029988948            1 
  407000     1.106275   -7.2743232    143.69466  0.029421511   0.02997189            4 
  408000    1.0853058    -7.239099    143.91529  0.029394462  0.029954341            5 
  409000    1.0983566   -7.2765427    143.92955    0.0293255  0.029936621            1 
  410000     1.068922   -7.2514263    144.23746  0.029316557  0.029918598            1 
  411000    1.0947423   -7.3032278    144.15605  0.029228721  0.029900139            1 
  412000    1.0945328   -7.2615803    144.69626  0.029267043  0.029881793            2 
  413000    1.0794778   -7.2547814    144.55546  0.029167768  0.029862812            4 
  414000     1.092993   -7.2779251    144.75986  0.029138459  0.029843782            2 
  415000    1.0855987   -7.2339843    145.99126  0.029315514  0.029824793            1 
  416000    1.1097984   -7.2685818    145.77094  0.029200909  0.029806932            2 
  417000    1.0654402    -7.252212    146.06073  0.029188795  0.029788416            2 
  418000    1.0859484   -7.2512861    146.15827  0.029138411  0.029769281            2 
  419000    1.0828956   -7.2425662    146.62684   0.02916206  0.029749843            1 
  420000    1.0868503   -7.2944059    146.55171  0.029077721  0.029731076            2 
  421000     1.097104   -7.1986261    146.90786  0.029079148  0.029711496            1 
  422000    1.0688679   -7.2358078    147.33792  0.029095167  0.029692875            2 
  423000    1.0961482   -7.2609308    147.89412  0.029135958  0.029674118            2 
  424000    1.0975422   -7.2060907    147.95607  0.029079417  0.029655344            1 
  425000    1.0853714    -7.220576    147.79668   0.02897974  0.029635929            2 
  426000    1.0890508   -7.2534134     148.2916  0.029008529   0.02961697            2 
  427000    1.1010279    -7.268041     148.6175  0.029004196  0.029597323            2 
  428000    1.0965718   -7.2868866    148.66303  0.028945295  0.029577962            1 
  429000    1.0968077   -7.2465372    148.91252  0.028926286  0.029558808            3 
  430000     1.123539     -7.24307    149.44995  0.028963169  0.029539668            4 
  431000     1.100487   -7.2377487    149.88063   0.02897924  0.029521317            1 
  432000    1.0821744   -7.3112491    149.56355  0.028850994  0.029502354            2 
  433000    1.0634434   -7.2845985    150.28988  0.028924149  0.029483689            2 
  434000    1.0951447   -7.2560933    150.30411  0.028860236  0.029465027            2 
  435000    1.0693154    -7.294455    151.20957   0.02896735  0.029446596            2 
  436000    1.1014974   -7.2992676    151.04188   0.02886886  0.029428527            2 
  437000    1.0807197   -7.2527082    151.86982  0.028960683   0.02941102            1 
  438000    1.0794195   -7.2655027    152.36458  0.028988694  0.029394275            1 
  439000     1.075751   -7.2519054    152.29508  0.028909468  0.029377996            3 
  440000    1.0674906   -7.2644466    152.56596  0.028895067  0.029361126            1 
  441000    1.0509557   -7.2622667    153.21277  0.028951771  0.029344776            1 
  442000    1.0915337   -7.2815083    153.59925  0.028959135  0.029329025            1 
  443000    1.0865135   -7.2440841    154.13547  0.028994632  0.029313037            4 
  444000    1.1062234   -7.2699973    153.98285  0.028900684   0.02929695            2 
  445000     1.094277   -7.3246738    154.16074  0.028869052   0.02928107            2 
  446000    1.0564846   -7.2556904     154.6108  0.028888416  0.029264911            1 
  447000    1.0533588   -7.2847322    155.36766  0.028964888  0.029248891            1 
  448000    1.0826508   -7.2657448    155.07935  0.028846605   0.02923229            3 
  449000     1.094406   -7.2944875    154.97233  0.028762496  0.029215433            1 
  450000     1.065555   -7.2955134    155.30967   0.02876105  0.029198522            1 
  451000    1.0652257   -7.2797706    156.55501  0.028927386  0.029182562            1 
  452000    1.0596378   -7.2569246    156.35313  0.028826168  0.029166779            2 
  453000    1.0736893   -7.2639769    156.82155  0.028848702  0.029151093            1 
  454000    1.0669225   -7.2860698    156.98033  0.028814304  0.029135114            2 
  455000    1.0451407   -7.2861047    157.03405  0.028760815  0.029119026            2 
  456000    1.0673181   -7.3164796    156.97823  0.028687542  0.029102492            1 
  457000      1.05981    -7.309117     157.5134  0.028722355   0.02908662            1 
  458000    1.0996221   -7.2873398    158.55723  0.028849569  0.029071471            2 
  459000     1.086718   -7.2765523    158.47633  0.028772027  0.029055985            3 
  460000    1.0610255   -7.3410319     158.4663  0.028707663  0.029040872            1 
  461000    1.0603481   -7.3047093    159.09598  0.028759216  0.029025398            1 
  462000    1.0911323   -7.2496881    159.23142  0.028721396  0.029009765            1 
  463000    1.0866941   -7.3046269    159.15247  0.028645154  0.028993936            1 
  464000    1.0645271   -7.2540413    159.42465  0.028632301  0.028977855            1 
  465000    1.0693835     -7.29244    159.85185  0.028647286  0.028962215            3 
  466000    1.0674816   -7.3022755    159.99348  0.028611138  0.028946558            2 
  467000    1.0736888    -7.326153    160.46238  0.028633544  0.028931231            1 
  468000    1.0825091   -7.3151548    160.36854  0.028555652  0.028915305            3 
  469000    1.0729664    -7.299569    161.03735  0.028613601  0.028899982            2 
  470000    1.0597309    -7.293927    161.67087  0.028665048   0.02888495            1 
  471000    1.0788142    -7.282092    161.74942  0.028618085  0.028870039            2 
  472000    1.0648832   -7.3195805    162.08308  0.028616363   0.02885521            1 
  473000    1.0809242    -7.296626    162.45065  0.028620621  0.028840692            1 
  474000    1.0677398   -7.3063178    162.62997  0.028591766  0.028826232            1 
  475000    1.0676257   -7.3064225    162.67301  0.028539125  0.028811233            1 
  476000    1.0525346   -7.3009958    162.92465  0.028523222  0.028796453            1 
  477000    1.0765976   -7.2858912     163.1387   0.02850082  0.028781339            1 
  478000    1.0579173   -7.3394146    163.60419  0.028522347   0.02876613            2 
  479000    1.0885004   -7.3504777    163.37823  0.028423491  0.028750949            3 
  480000    1.0730261   -7.3212426    163.66861  0.028414689  0.028735059            2 
  481000     1.066932   -7.2980722     163.9316  0.028401177  0.028719705            2 
  482000    1.0584891   -7.2932024    163.40842  0.028251801  0.028703427            6 
  483000    1.0710311   -7.3200897    164.44334  0.028371868  0.028687398            2 
  484000    1.0677024   -7.3118661    164.57058  0.028335155  0.028671476            2 
  485000    1.0566762   -7.2775774    164.78884  0.028314234  0.028655276            2 
  486000    1.0634191   -7.3383891     165.1288  0.028314266   0.02863885            1 
  487000    1.0522134   -7.3093114    165.38736  0.028300369  0.028622583            3 
  488000     1.063878   -7.3376243    165.33311  0.028233112  0.028606689            1 
  489000    1.0806454   -7.3123479    165.86151  0.028265423  0.028590938            2 
  490000    1.0734295   -7.3109833    165.98321  0.028228438  0.028574951            1 
  491000    1.0642488   -7.3071695    166.71888  0.028295805  0.028559038            1 
  492000    1.0697068   -7.3267922    166.77853  0.028248396   0.02854345            3 
  493000     1.046924   -7.3208523    167.06329  0.028239231  0.028528492            1 
  494000    1.0675461   -7.3812547    166.62363    0.0281079  0.028512543            2 
  495000    1.0544374   -7.3472187    167.50477  0.028199455  0.028496639            1 
  496000    1.0555778   -7.3482474    167.53965  0.028148462  0.028480897            1 
  497000    1.0508428    -7.345629    168.20526   0.02820343  0.028465357            1 
  498000    1.0640528    -7.338023    168.55816   0.02820585  0.028449721            2 
  499000    1.0651215   -7.3096447    168.67393   0.02816866  0.028434198            2 
  500000    1.0526688   -7.2853368    169.33934  0.028223224  0.028418989            3 
  501000    1.0635979   -7.3454498    169.60182  0.028210549  0.028403707            3 
  502000    1.0544194   -7.3394239    169.31143  0.028106147  0.028388289            2 
  503000    1.0496864   -7.3725088    169.72057  0.028118054  0.028372948            2 
  504000    1.0590469   -7.3315411    170.30053  0.028158157  0.028357842            1 
  505000     1.067284   -7.3465066     169.9639  0.028046848  0.028343021            2 
  506000    1.0561129   -7.3407741    170.30925  0.028048296  0.028328107            3 
  507000    1.0422545   -7.3283435    170.40174  0.028008176  0.028313213            1 
  508000     1.051922   -7.3442808    170.53514  0.027974925  0.028298075            1 
  509000    1.0544167   -7.3849487    171.17074  0.028024023  0.028282541            2 
  510000    1.0482263   -7.3265028    171.29879  0.027989998   0.02826713            3 
  511000    1.0569584   -7.3263902    171.33083  0.027940449  0.028251257            1 
  512000    1.0375634   -7.3339358    171.50118  0.027913604  0.028235497            3 
  513000    1.0180442    -7.346456    171.40101   0.02784292  0.028219239            2 
  514000     1.063479   -7.3832442    171.36803  0.027783403  0.028202801            3 
  515000     1.050016   -7.3540725     172.3844  0.027893915  0.028186349            2 
  516000    1.0647149   -7.3328532    172.68725  0.027888768  0.028169761            3 
  517000    1.0426894   -7.3252335    172.94239  0.027875949  0.028153342            2 
  518000    1.0230757    -7.372057    172.57976  0.027763796  0.028136867            3 
  519000    1.0379345   -7.3424828    172.68659  0.027727456  0.028120271            2 
  520000    1.0444486   -7.3521895    172.95667  0.027717415  0.028103676            1 
  521000    1.0734951   -7.3483478    173.54086  0.027757655  0.028087132            1 
  522000    1.0317109   -7.3599996    173.27779  0.027662482  0.028070531            1 
  523000     1.036802   -7.3147294     174.3735  0.027784178  0.028054136            3 
  524000    1.0427908   -7.3428614    174.36982   0.02773057  0.028037726            2 
  525000    1.0509865   -7.3208425    174.24717  0.027658282  0.028020845            1 
  526000    1.0305346    -7.351252    174.78204  0.027690437  0.028004036            2 
  527000    1.0426542   -7.3626694     174.3396  0.027567932  0.027987052            2 
  528000    1.0554811   -7.3679221    174.14019  0.027484248   0.02796956            1 
  529000     1.040402   -7.3623482    174.29584  0.027456812  0.027952039            1 
  530000    1.0507069   -7.3260732    174.99907  0.027515576  0.027934484            1 
  531000    1.0234134   -7.3182288    175.51277  0.027544377  0.027917025            2 
  532000    1.0409371   -7.3341414     175.9611  0.027562829   0.02789989            1 
  533000    1.0573824   -7.3719076    175.36632  0.027418124  0.027883074            1 
  534000    1.0391037   -7.3526381    176.15656    0.0274901  0.027865924            1 
  535000     1.056315   -7.3717146     176.4901   0.02749067   0.02784821            3 
  536000    1.0498428   -7.3379796    176.54949  0.027448614  0.027830292            2 
  537000     1.024542   -7.3496541    176.86091  0.027445827  0.027813241            1 
  538000    1.0464724   -7.3665302     176.9065  0.027401874  0.027796035            4 
  539000      1.03174   -7.3462155    177.10428  0.027381614  0.027778662            2 
  540000    1.0364542    -7.373736    177.49015  0.027390456  0.027761774            2 
  541000    1.0210397   -7.3987473    177.92109  0.027406206  0.027744305            6 
  542000    1.0509978   -7.3475751    177.96931  0.027363055  0.027727327            2 
  543000    1.0463593   -7.4168348     177.7431  0.027277946  0.027709982            1 
  544000    1.0267983    -7.375276     177.7374  0.027226929  0.027692707            2 
  545000    1.0184946   -7.3744652    178.23016  0.027252318  0.027675473            2 
  546000    1.0085648   -7.4028861    178.27375  0.027209059  0.027657979            2 
  547000    1.0387273   -7.3642097    178.84809  0.027246815  0.027640287            2 
  548000    1.0249199   -7.4263429    178.65874    0.0271683  0.027622936            1 
  549000    1.0387669   -7.3917434    178.99626  0.027170046   0.02760522            3 
  550000    1.0406407   -7.3760515    179.32675   0.02717072  0.027587401            1 
  551000    1.0443565   -7.3809937    179.35438  0.027125586  0.027569464            3 
  552000    1.0346189   -7.3746315     180.1221  0.027192346   0.02755205            2 
  553000    1.0303779   -7.4023355    180.19139  0.027153615  0.027534649            2 
  554000    1.0148649   -7.3878598    180.03929  0.027081722  0.027517344            2 
  555000    1.0414532   -7.3955065    180.23184  0.027061838  0.027499742            1 
  556000    1.0334591   -7.3983962    180.43769  0.027044018   0.02748229            2 
  557000    1.0542094   -7.3475174    181.38024  0.027136481  0.027464982            1 
  558000    1.0343625   -7.3519664    181.63123  0.027125333  0.027447932            2 
  559000    1.0249997   -7.3820664    181.23397  0.027017586   0.02743088            2 
  560000     1.038567    -7.383334    182.12233  0.027101538  0.027413895            2 
  561000     1.027207   -7.3551056    182.70493   0.02713977  0.027397237            1 
  562000    1.0249224   -7.3613794    182.25211  0.027024335  0.027380313            1 
  563000    1.0507069   -7.4002714    182.16969  0.026964133  0.027363486            1 
  564000    1.0162161   -7.4097691    182.87729  0.027020876  0.027346315            2 
  565000    1.0305466   -7.4008212    182.86707  0.026971545  0.027329179            1 
  566000    1.0228329   -7.4285726    182.71106  0.026900921  0.027311856            2 
  567000    1.0267958   -7.4208178    183.06733  0.026905838  0.027294576            2 
  568000    1.0142856   -7.4237011    183.83153  0.026970588  0.027277662            5 
  569000    1.0262246   -7.3956059    184.11529  0.026964746  0.027261241            2 
  570000    1.0352581   -7.3762532      183.925  0.026889619  0.027243941            2 
  571000    1.0135961   -7.4380481     184.0171  0.026855969  0.027226786            3 
  572000    1.0160455   -7.4278117    183.88094  0.026789182  0.027209666            2 
  573000    0.9960115   -7.4071376    184.66888  0.026857021  0.027192539            2 
  574000    1.0256659    -7.420692    185.08207  0.026870219   0.02717538            1 
  575000    1.0106698   -7.4471293    184.91029  0.026798593  0.027158169            1 
  576000    1.0160265   -7.3686995    185.08264  0.026777002  0.027141157            2 
  577000    1.0263572   -7.4052651    185.84842  0.026841194  0.027124131            1 
  578000    1.0291873   -7.3511574    186.52589  0.026892429  0.027107402            1 
  579000    1.0243391   -7.3675463    186.24094  0.026804971  0.027090815            1 
  580000    1.0208955   -7.4060871    186.19222  0.026751755  0.027073797            2 
  581000    1.0173976    -7.382076    186.33472   0.02672615   0.02705665            1 
  582000    1.0231798   -7.4080815    186.08221  0.026644073  0.027039729            1 
  583000    1.0082327    -7.382887    187.11085  0.026745405  0.027022856            2 
  584000    1.0306408   -7.3865024    187.09034  0.026696681  0.027006104            3 
  585000    1.0259915   -7.4247732    186.81272  0.026611498  0.026988987            2 
  586000    1.0465553   -7.4426532     187.3819  0.026647027  0.026971739            2 
  587000    1.0136739   -7.4461592     187.9714  0.026685321  0.026954526            3 
  588000    1.0290781   -7.4048916    187.67797  0.026598351  0.026937307            2 
  589000    1.0153308   -7.4092727    188.25652  0.026635048  0.026920513            3 
  590000    1.0438362   -7.4389208    188.48559  0.026622258   0.02690388            1 
  591000    1.0434042    -7.443692     188.4319  0.026569642  0.026886914            2 
  592000    1.0065521   -7.4060508    188.74202  0.026568415  0.026870116            3 
  593000    1.0317812   -7.4358508     188.6726  0.026513856   0.02685331            1 
  594000    1.0381689   -7.4257957    189.34124  0.026563024  0.026836275            4 
  595000    1.0157194   -7.4278564     189.5296  0.026544762  0.026819669            1 
  596000   0.99029988   -7.4539335    189.77217   0.02653414  0.026803107            2 
  597000    1.0503385   -7.4236945    189.68578  0.026477635  0.026786047            4 
  598000    1.0130866   -7.4055145    189.68568  0.026433345  0.026769033            1 
  599000    1.0052082   -7.4349478    190.07202  0.026442963   0.02675239            1 
  600000    1.0204953   -7.4061367    191.02331  0.026531016  0.026735609            1 
  601000    1.0065189   -7.4051723    190.73328  0.026446656  0.026719127            2 
  602000    1.0215627   -7.3999777    191.60512   0.02652341   0.02670294            2 
  603000   0.99531397   -7.4206363    191.78481  0.026504258   0.02668643            2 
  604000   0.99669011   -7.4287316    191.39384  0.026406434  0.026669746            1 
  605000    1.0133939   -7.4009247    191.43704  0.026368738  0.026653292            1 
  606000    1.0058814   -7.3978588    191.78343  0.026372859  0.026636465            1 
  607000    1.0226349   -7.4482345    191.94891   0.02635213  0.026619762            1 
  608000    1.0186614   -7.4403014    192.11002  0.026330869  0.026602526            3 
  609000    1.0157965   -7.4110206    192.67737  0.026365267  0.026585769            1 
  610000    1.0102431   -7.4333568    192.51355  0.026299665  0.026569105            1 
  611000   0.99818265   -7.4427324    192.41248  0.026242836  0.026552197            2 
  612000    1.0177887   -7.4478622    193.45058   0.02634131  0.026535389            3 
  613000    1.0213465   -7.4443162    193.66033  0.026326853  0.026518946            2 
  614000    1.0160553   -7.4553353    193.37297  0.026244974  0.026502594            6 
  615000   0.98755296    -7.436161    193.53923  0.026224828  0.026486565            2 
  616000    1.0054058   -7.4394779    193.78053  0.026214899  0.026470476            2 
  617000   0.99749425   -7.4893273    194.54436  0.026275576  0.026454169            1 
  618000    1.0161191   -7.4214393    194.34046  0.026205564  0.026437977            3 
  619000    1.0231744   -7.4318126    194.68418  0.026209502  0.026421949            2 
  620000   0.99525528   -7.4446703    194.91412  0.026198135     0.026406            2 
  621000    1.0065865   -7.4355506    195.89626  0.026287743  0.026390197            1 
  622000   0.99436238   -7.4543193    195.64098  0.026211278  0.026374309            1 
  623000    1.0199354   -7.4398075    195.93941  0.026209124  0.026358771            1 
  624000    1.0174891    -7.414769    196.01542  0.026177273  0.026343088            2 
  625000    1.0228787    -7.483099    195.67952  0.026090602  0.026327264            3 
  626000   0.99136874   -7.4457501     195.9402  0.026083626  0.026311165            4 
  627000    1.0173861   -7.4328508    196.94016  0.026174928  0.026295551            1 
  628000    1.0060589   -7.4500042    197.01105  0.026142655   0.02627993            1 
  629000    1.0009678   -7.4695824    196.88792  0.026084781  0.026264571            2 
  630000   0.98269154   -7.4359551    197.41213  0.026112716   0.02624873            2 
  631000    1.0021668   -7.4665969    197.03809  0.026021935  0.026233083            1 
  632000    1.0001987   -7.4711212    197.25162  0.026008916  0.026216907            2 
  633000   0.99044157   -7.4651168    198.33719  0.026110742  0.026200843            2 
  634000   0.98504351   -7.4646524    198.19639   0.02605105  0.026185165            2 
  635000    1.0009902   -7.4324957    198.49503  0.026049216  0.026169164            3 
  636000    1.0372621   -7.4653413    197.90262  0.025930637  0.026153443            5 
  637000    1.0077053   -7.4394869    198.59521  0.025980535  0.026137672            1 
  638000    1.0206081    -7.442902    199.10018   0.02600577  0.026121889            2 
  639000    1.0072074   -7.4635687    199.21755   0.02598038  0.026106084            1 
  640000   0.97829352   -7.3965462    199.48625  0.025974772  0.026090752            2 
  641000   0.99341536   -7.4356513    199.49517  0.025935409  0.026075223            2 
  642000    1.0131015   -7.4469791     199.8266  0.025938033  0.026059585            2 
  643000    0.9918783   -7.4669885    199.76866  0.025890184  0.026043745            2 
  644000   0.98622939   -7.4565296    200.44592  0.025937619  0.026028065            2 
  645000   0.99464302   -7.4841458    199.71137  0.025802503  0.026012487            1 
  646000   0.95653036   -7.4542062    199.85908  0.025781615  0.025996612            1 
  647000   0.99394064   -7.4976465    199.92443  0.025750184  0.025980374            1 
  648000    1.0158806   -7.4161139    200.15664  0.025740309  0.025963779            3 
  649000    1.0022567   -7.4704689    200.46954  0.025740824  0.025947209            2 
  650000    1.0049182   -7.4720515    200.33884  0.025684466  0.025930618            1 
  651000    0.9783203   -7.4560289    200.82312  0.025707005  0.025914233            3 
  652000    1.0012353   -7.4720001    200.75974  0.025659476  0.025897569            2 
  653000    1.0100836   -7.4641641    201.23282  0.025680553   0.02588098            1 
  654000   0.98456686   -7.4597253    201.16333  0.025632432  0.025864295            3 
  655000    1.0183667   -7.4734873    201.61734   0.02565106  0.025847872            1 
  656000    1.0125323   -7.4371211    202.20428   0.02568652  0.025831806            2 
  657000   0.98877559   -7.4781829      201.779   0.02559348  0.025815647            2 
  658000   0.96429446   -7.4621334    202.20797  0.025608912  0.025799114            3 
  659000   0.97757159   -7.4943509    201.74258  0.025511202  0.025782374            3 
  660000   0.97706715   -7.4888358    201.64248  0.025459909  0.025765347            1 
  661000   0.99474332   -7.5046556    201.60091  0.025416151  0.025748634            2 
  662000   0.98744084   -7.4987648    202.21966  0.025455647  0.025731844            2 
  663000   0.98388552   -7.4709311    202.34408   0.02543289   0.02571469            3 
  664000    1.0094286   -7.4836185    203.39499  0.025526479  0.025697996            2 
  665000   0.97039573   -7.4250875    202.67689  0.025398107  0.025681077            3 
  666000   0.96657988   -7.4817856     202.7844  0.025373424  0.025664335            2 
  667000   0.98215578   -7.4695042    203.27581  0.025396777  0.025647384            2 
  668000   0.96561139   -7.4833545     203.1111  0.025338212  0.025630329            1 
  669000   0.97650501   -7.4663255    203.85051   0.02539244  0.025613313            2 
  670000   0.99783634   -7.4682043    204.00395  0.025373625  0.025596324            2 
  671000   0.98992151   -7.4865564    203.79672  0.025310074  0.025579385            1 
  672000   0.98019427   -7.4418371    204.48184  0.025357371   0.02556262            2 
  673000   0.99517373   -7.4728538    203.98111   0.02525769  0.025546067            3 
  674000    0.9522317   -7.4606754     204.7671  0.025317396  0.025529252            1 
  675000   0.99233399   -7.4614855    204.80206  0.025284204   0.02551253            1 
  676000   0.98842636   -7.4982334    204.32699  0.025188238  0.025495499            1 
  677000   0.98092494   -7.5186295    204.51516  0.025174195  0.025478168            1 
  678000   0.96929933   -7.4866667    204.95112  0.025190648  0.025460813            5 
  679000   0.98972064   -7.4736013    204.78355  0.025132984  0.025443461            1 
  680000   0.98256347   -7.4694591    204.62264  0.025076304  0.025425843            2 
  681000   0.98691669   -7.4964197    204.95789  0.025080506  0.025408259            1 
  682000   0.99117471   -7.4561856    205.33723  0.025090082  0.025390646            2 
  683000   0.99258503   -7.4863932    205.26197  0.025044164  0.025373173            3 
  684000   0.98519525   -7.4959007    205.44091  0.025029351  0.025355962            1 
  685000    1.0048104   -7.4779637     206.3517  0.025103613  0.025338677            4 
  686000   0.98738404   -7.4953559    206.18244  0.025046457  0.025321424            2 
  687000   0.95557808   -7.4651543    206.01349  0.024989506  0.025304201            2 
  688000   0.97521917   -7.5087933    206.27848  0.024985281  0.025287084            1 
  689000    0.9745019   -7.5223722    205.82221  0.024893833  0.025269675            3 
  690000   0.98787717   -7.5075515    207.06713  0.025008107   0.02525236            2 
  691000   0.96197152   -7.5149126     206.3714  0.024888013   0.02523518            1 
  692000   0.95346573   -7.5204187     207.2425  0.024956948  0.025217788            2 
  693000   0.97709273   -7.5071459    207.20246  0.024916121  0.025200773            2 
  694000   0.97590528   -7.5134997     207.3819  0.024901765  0.025183787            3 
  695000   0.96753502   -7.5252111    207.44338  0.024873307  0.025166733            2 
  696000   0.96334421   -7.5298684    208.16073  0.024923459  0.025149941            1 
  697000   0.98615468   -7.5281848    208.38696  0.024914749  0.025133007            3 
  698000   0.95872641   -7.4934347    209.20283   0.02497646  0.025116298            2 
  699000   0.96918507   -7.5016186    209.51801  0.024978304  0.025099997            2 
  700000   0.97950975   -7.5435525    209.05929  0.024888011  0.025083321            2 
  701000   0.97959617   -7.5147799    209.46988  0.024901317  0.025066764            2 
  702000     0.977427   -7.5040555    210.09401  0.024939935  0.025050857            5 
  703000   0.96133445   -7.5026281    210.40374  0.024941173  0.025034939            1 
  704000   0.95928755   -7.5363537    209.95252  0.024852334  0.025018896            3 
  705000   0.96705323   -7.5110196    210.91271   0.02493058  0.025002823            1 
  706000    0.9828251   -7.4918735    211.11498  0.024919143  0.024986783            2 
  707000   0.98600021   -7.5285571    210.72267  0.024837656  0.024971128            3 
  708000   0.98912885   -7.5224657    211.37548  0.024879412  0.024955272            1 
  709000   0.96507749   -7.5415189    211.28665   0.02483388  0.024939649            2 
  710000   0.97842606   -7.5216862    211.52166  0.024826486  0.024923698            2 
  711000   0.97427701     -7.52035     211.6422  0.024805696   0.02490788            2 
  712000   0.96835485   -7.5614759    211.68965   0.02477641  0.024891947            2 
  713000   0.97562806   -7.4949011    212.26029  0.024808356  0.024875989            1 
  714000   0.98584632   -7.5456152    211.61103  0.024697833  0.024859974            2 
  715000   0.96930806   -7.5420166    211.67976  0.024671301  0.024844041            1 
  716000   0.95423697   -7.5171398    212.16535  0.024693361  0.024828011            1 
  717000   0.95865927   -7.5456823    212.36612  0.024682254  0.024811927            1 
  718000   0.96074157   -7.5329017    212.44317  0.024656821  0.024795911            2 
  719000   0.95766884   -7.5039227    212.07376  0.024579713  0.024779698            2 
  720000   0.97247286   -7.5282593    213.10966   0.02466547   0.02476354            3 
  721000   0.98538802   -7.5419036    213.36789  0.024661106  0.024747577            2 
  722000   0.97171142   -7.5288616     213.3381  0.024623511  0.024731309            2 
  723000   0.96754686   -7.5189841    212.78176   0.02452533  0.024714875            2 
  724000   0.96454022   -7.5285211    212.96976  0.024513094  0.024698695            5 
  725000   0.94919111   -7.5239741    213.61367  0.024553295  0.024682477            3 
  726000   0.96713289   -7.5001074    214.05261  0.024569859  0.024666305            1 
  727000   0.97851467     -7.51361    214.00975  0.024531149  0.024650058            3 
  728000   0.98852947   -7.5190116     213.9266  0.024487935  0.024633752            3 
  729000   0.95660493   -7.5323486    213.70201   0.02442867  0.024617226            2 
  730000   0.95061855   -7.5352338    214.15593  0.024447024    0.0246005            3 
  731000   0.96445827   -7.5548469    213.81936  0.024375212  0.024583737            1 
  732000    0.9537456   -7.5790136    213.30329  0.024283162  0.024567095            3 
  733000   0.97836356    -7.509794    214.43394  0.024378574  0.024550281            1 
  734000    0.9762306   -7.5265168    214.85238  0.024392868  0.024533754            2 
  735000   0.96673937   -7.5634464    214.75467  0.024348603  0.024517292            2 
  736000   0.94307539   -7.5822996    214.27426  0.024261126  0.024500636            3 
  737000    0.9669066   -7.5193813    215.12151  0.024324006  0.024483978            4 
  738000   0.96284511    -7.537384    214.00189  0.024164622  0.024467139            3 
  739000   0.97381101   -7.5487873    214.88219   0.02423119  0.024450146            2 
  740000   0.95109005   -7.5714649    214.92402  0.024203155   0.02443334            5 
  741000   0.97264585   -7.5210277    216.01811  0.024293535  0.024416453            1 
  742000   0.94603265   -7.5547464    215.40636  0.024192089  0.024399595            3 
  743000   0.96385701   -7.5202108    215.49398  0.024169356  0.024382787            1 
  744000   0.97888619   -7.5653612    215.32248  0.024117661  0.024365835            2 
  745000    0.9707235   -7.5582429    216.06315  0.024168137  0.024348873            2 
  746000   0.95768293   -7.5338994    215.82888  0.024109571  0.024331959            4 
  747000   0.94676134   -7.5639767    215.50864  0.024041571  0.024314995            2 
  748000   0.95250824   -7.5828023    216.10522  0.024075893  0.024297896            3 
  749000    0.9614519   -7.5806525    215.50807   0.02397731  0.024280833            4 
  750000   0.96032592   -7.5435257      216.722  0.024080222  0.024263974            1 
  751000   0.95823281   -7.5661471    216.53602  0.024027521  0.024247274            2 
  752000   0.95744976   -7.5489434    217.06882  0.024054612  0.024230572            2 
  753000   0.94398729   -7.5644712    216.69446  0.023981237  0.024213743            1 
  754000   0.97605814    -7.538952    217.02372  0.023985822  0.024196966            1 
  755000   0.94936747   -7.5819705    217.25924  0.023980048  0.024179974            3 
  756000   0.95215069    -7.560162    216.78795  0.023896379  0.024163072            2 
  757000   0.94240474   -7.5679441       217.35  0.023926684  0.024146094            1 
  758000   0.95507869   -7.6031007    217.35979  0.023896195  0.024129196            3 
  759000    0.9441615   -7.6114564    217.60489  0.023891621  0.024112292            1 
  760000   0.91064757   -7.5484365    217.89234  0.023891704  0.024095448            2 
  761000   0.95690052   -7.5632627    218.21497  0.023895638   0.02407863            1 
  762000   0.96561816   -7.5918702    217.92476  0.023832541   0.02406155            3 
  763000   0.94942517   -7.5916431    218.49869   0.02386399  0.024044407            1 
  764000   0.95239779   -7.5756317    217.76008  0.023752191    0.0240272            1 
  765000   0.95174096   -7.5447574    218.83365  0.023838088  0.024010009            2 
  766000    0.9495217   -7.5461292    218.97581  0.023822434  0.023993056            2 
  767000    0.9549417   -7.6059376    218.68008  0.023759244  0.023975997            3 
  768000   0.96898691    -7.605353    218.20717  0.023676994  0.023958795            2 
  769000   0.93873455   -7.6235441    218.37564   0.02366446  0.023941559            2 
  770000   0.96952558   -7.5817479     219.2307  0.023726266  0.023924521            3 
  771000   0.96492542   -7.6147471    218.92043  0.023661958  0.023907463            4 
  772000   0.95146111   -7.6119285    219.18585  0.023659958  0.023890344            1 
  773000   0.95214857   -7.5972783    219.21429  0.023632416  0.023873101            3 
  774000   0.94217866   -7.5989651    219.52155  0.023634964   0.02385614            2 
  775000   0.94879551   -7.5853262    219.82939  0.023637568  0.023839091            2 
  776000   0.95953066   -7.5361214    220.75553  0.023706565  0.023822355            3 
  777000   0.94602867    -7.583281    219.52196  0.023543754  0.023805494            2 
  778000   0.95186811   -7.5834638    219.72016  0.023534721  0.023788419            5 
  779000   0.94561532   -7.5981796    220.13107  0.023548467  0.023771147            2 
  780000   0.94807897   -7.6142166    219.81114  0.023484096  0.023754049            2 
  781000   0.92616394   -7.5887577    220.32234  0.023508572  0.023736911            2 
  782000   0.94402599   -7.5782141    219.89688  0.023433171  0.023719516            2 
  783000   0.95054925    -7.575626    219.79887  0.023392813  0.023701999            2 
  784000   0.94736814   -7.5897515    220.15002    0.0234003  0.023684288            1 
  785000   0.95866712   -7.6075442    220.10513  0.023365725  0.023666787            1 
  786000   0.94943865   -7.6102964    220.14432  0.023340153  0.023649096            3 
  787000    0.9217129   -7.6246624    219.76531  0.023270364  0.023631339            1 
  788000   0.91870047   -7.6104091    220.03121  0.023268952  0.023613504            3 
  789000   0.95121525   -7.6168935    220.31758  0.023269707  0.023595573            2 
  790000    0.9513718   -7.5840119     221.0014  0.023312384  0.023577881            1 
  791000   0.92643664   -7.5506908      221.181  0.023301833  0.023560481            2 
  792000   0.93150302   -7.6076236     221.2174  0.023276242  0.023543062            1 
  793000   0.93346555   -7.6258033    220.75017   0.02319779  0.023525322            1 
  794000   0.93566285   -7.5642703    221.74259  0.023272732  0.023507804            2 
  795000   0.94694449   -7.6152773    221.42407   0.02321007  0.023490381            2 
  796000   0.93200683   -7.5954694     221.9237  0.023233218  0.023473001            1 
  797000   0.90228097   -7.6012536    221.82584  0.023193835  0.023455401            4 
  798000   0.92908203    -7.579911    221.92949  0.023175595   0.02343798            2 
  799000   0.91283726    -7.629115    221.73982  0.023126806  0.023420456            2 
  800000   0.91221003   -7.6045985    221.78854  0.023102973  0.023402909            1 
  801000   0.94098192    -7.612754    221.68326  0.023063177  0.023385176            1 
  802000   0.92161514   -7.6147777    221.97436  0.023064667  0.023367244            2 
  803000   0.92133852   -7.6010786    222.44684  0.023084977  0.023349398            2 
  804000   0.91840679   -7.5750873    221.96864    0.0230067   0.02333173            2 
  805000    0.9188716   -7.6084345    221.96516   0.02297776  0.023313889            1 
  806000   0.92597454   -7.6290894    221.81575  0.022933804  0.023295943            1 
  807000   0.92313978   -7.6143493    222.24053  0.022949249  0.023278197            1 
  808000   0.92788515   -7.6444539    222.72187   0.02297049  0.023260385            4 
  809000   0.93158794   -7.6273167    223.28526   0.02300013  0.023242648            3 
  810000   0.91319276   -7.6080217    223.03929  0.022946429  0.023224726            3 
  811000   0.94176765   -7.5981959    222.93845  0.022907774  0.023206768       -1e+20 
  812000   0.93996617   -7.6363759    222.91971  0.022877639  0.023188794            2 
  813000   0.93764648   -7.6358131    222.94166  0.022851748  0.023170722            1 
  814000   0.93996642   -7.6187678    223.65243   0.02289644   0.02315285            2 
  815000   0.93802772   -7.6157774    223.09401  0.022811248  0.023135165            2 
  816000   0.94759586   -7.5985791    224.50867  0.022927765  0.023117502            2 
  817000   0.93596844   -7.6612433    223.48693  0.022795484  0.023099739            3 
  818000   0.91130084   -7.6267733    223.66396  0.022785652  0.023082054            2 
  819000   0.91016034   -7.6189286    224.10617  0.022802826  0.023064357            2 
  820000     0.932845   -7.6333004    224.31919  0.022796666  0.023046606            1 
  821000   0.91542997   -7.5975562    225.06191  0.022844286  0.023029176            5 
  822000   0.91775086   -7.6108275    225.23527   0.02283407  0.023011797            3 
  823000   0.93546999   -7.6475004    224.59898  0.022741898   0.02299418            1 
  824000   0.91525888    -7.648646    224.40739  0.022694923  0.022976547            2 
  825000   0.93272354   -7.6287071     224.6268  0.022689575  0.022958856            4 
  826000   0.93083033   -7.6055915    225.11485  0.022711345  0.022941159            1 
  827000   0.91967859   -7.6303556    225.24786  0.022697285  0.022923434            3 
  828000   0.91906514   -7.6964056    224.33924  0.022578426  0.022905718            1 
  829000   0.91389771    -7.664669     224.8066  0.022598171   0.02288784            1 
  830000   0.91173119   -7.6283371    225.15368  0.022605791  0.022870056            1 
  831000    0.9169071   -7.6089572      225.238  0.022587044  0.022852171            1 
  832000   0.94636326   -7.6835646    224.22482  0.022458416  0.022834175            3 
  833000   0.91669103   -7.6549575    224.21855  0.022430827   0.02281609            4 
  834000   0.93082138   -7.6359528    225.17752  0.022499752  0.022797942            2 
  835000   0.94212688   -7.6217911    225.43086   0.02249809  0.022779864            3 
  836000   0.91701442   -7.6187322    225.64632  0.022492656  0.022761983            1 
  837000   0.93215846   -7.6228238    225.81001   0.02248208  0.022744035            2 
  838000   0.92509694   -7.6570747     224.5661  0.022331553  0.022725875            6 
  839000   0.89271033   -7.6831001    225.42716  0.022390461  0.022707585            2 
  840000   0.91897593   -7.6718661    225.24542  0.022345776  0.022689308            1 
  841000   0.89708482   -7.6545633    225.04779  0.022299622  0.022671187            2 
  842000    0.9011318   -7.6328089    225.87148  0.022354659  0.022653016            4 
  843000    0.9075242   -7.6570249    225.98971  0.022339829  0.022635071            2 
  844000   0.91409825   -7.6330528    226.48059  0.022361828  0.022617116            1 
  845000   0.91864058   -7.6559643    226.11789  0.022299595  0.022599245            4 
  846000   0.93285058    -7.634063    226.51748  0.022312596  0.022581549            2 
  847000   0.91209447   -7.6258878    226.86351  0.022320298  0.022563834            1 
  848000    0.9228963   -7.6739975     226.9421    0.0223017  0.022546109            2 
  849000   0.89714652   -7.6990475    226.48463  0.022230529  0.022528268            3 
  850000   0.90871865   -7.6256558    227.49068  0.022303008  0.022510478            3 
  851000   0.91033583    -7.633625    227.13325  0.022241799  0.022492933            3 
  852000   0.91639973   -7.6724026    227.53065  0.022254563  0.022475524            7 
  853000   0.90751348   -7.6701849    227.87811  0.022262418  0.022458215            4 
  854000   0.92211096   -7.6312546    228.60456  0.022307237  0.022440987            1 
  855000   0.92178795   -7.6616475    228.61585  0.022282247   0.02242393            4 
  856000   0.89543884   -7.6520922    228.67526     0.022262   0.02240686            2 
  857000   0.90299927   -7.6879567    228.51407  0.022220349  0.022389745            1 
  858000     0.923847   -7.6524415    228.85639  0.022227699    0.0223725            3 
  859000   0.91167256   -7.6753501     228.7368  0.022190221  0.022355396            3 
  860000    0.9076791   -7.6779508    228.87397   0.02217771  0.022338391            3 
  861000    0.9160233   -7.6767023     229.2009  0.022183595  0.022321237            2 
  862000   0.89673011   -7.6888018    229.11098  0.022149166  0.022304311            2 
  863000   0.91024896   -7.6572531    230.04207   0.02221341   0.02228749            4 
  864000   0.91962254   -7.6936847     229.0117   0.02208832  0.022270704            1 
  865000    0.9043496   -7.6942586    229.74137   0.02213308  0.022253818            3 
  866000   0.89705566   -7.6939904    229.64585  0.022098331  0.022236956            1 
  867000   0.92820119    -7.690483    229.46178   0.02205515  0.022220221            2 
  868000   0.88968667    -7.650054    230.31921   0.02211206  0.022203474            3 
  869000   0.88731139    -7.678648     230.3114  0.022085865  0.022186754            1 
  870000   0.90880523   -7.7069135    230.37189  0.022066273  0.022170111            4 
  871000   0.91315186   -7.6846094     230.3763  0.022041361  0.022153465            3 
  872000   0.90705484   -7.6769253    231.05397  0.022080846  0.022136922            2 
  873000   0.90776394   -7.6799186    231.27735  0.022076876  0.022120494            3 
  874000   0.91202173   -7.6981354    230.75883  0.022002177  0.022104142            1 
  875000   0.90169654    -7.676885    231.13454  0.022012814  0.022087627            1 
  876000   0.90002461   -7.6583863    230.99842  0.021974736  0.022071139            2 
  877000   0.89541227   -7.6707598    230.68951  0.021920326  0.022054503            1 
  878000   0.90539105   -7.6696802    231.43678  0.021966285  0.022037888            2 
  879000   0.90005524   -7.6988634    231.12346  0.021911591  0.022021267            3 
  880000   0.92517861   -7.6877756    231.20075   0.02189401  0.022004697            3 
  881000   0.89763121   -7.6916973    231.28125  0.021876773  0.021988226            3 
  882000    0.9257357   -7.6992937    232.43987  0.021961439  0.021971896            3 
  883000   0.90959425   -7.6919068    231.96438  0.021891693  0.021955459            2 
  884000   0.90099661   -7.7010273     231.6376  0.021836123   0.02193914            1 
  885000   0.91106188   -7.7101042    232.01987  0.021847446   0.02192275            3 
  886000   0.87464143   -7.7210415    232.19114  0.021838896  0.021906256            1 
  887000   0.91547929   -7.6984091    232.52215  0.021845373  0.021889803            2 
  888000   0.88554233   -7.6890227    232.10122  0.021781271  0.021873221            2 
  889000   0.89337648   -7.6678927    232.16945  0.021763165  0.021856697            1 
  890000   0.90063796   -7.7063671    231.85684  0.021709442  0.021840089            2 
  891000   0.88749599   -7.6649278    232.70008  0.021763943  0.021823556            5 
  892000   0.89099195   -7.6881569    233.37361  0.021802467  0.021807091            2 
  893000   0.88254836   -7.7253975    232.65016  0.021710541  0.021790527            2 
  894000   0.92705344   -7.6558204    232.70659  0.021691516  0.021774107            1 
  895000    0.9302833   -7.7122667    232.66647  0.021663545  0.021757708            3 
  896000   0.88476537   -7.7104952    232.66665  0.021639383  0.021741227            1 
  897000   0.87944832   -7.7289501     233.1463   0.02165982  0.021724837            3 
  898000   0.89215273   -7.7005836    233.45122  0.021663996  0.021708396            2 
  899000   0.89331849   -7.7056628    233.74828  0.021667434  0.021692196            3 
  900000   0.89397184   -7.6865409    234.49852  0.021712826  0.021675941            1 
  901000   0.89694116   -7.7180045    233.95073  0.021638062  0.021659884            3 
  902000   0.88874678   -7.7111009    234.31869  0.021648068  0.021643869            3 
  903000   0.87792336   -7.7482473    233.87119  0.021582797  0.021627801            2 
  904000   0.88262944   -7.6950785    234.16586  0.021586086  0.021611765            2 
  905000   0.87842887   -7.7339793     234.1388  0.021559742  0.021595619            1 
  906000   0.88898788   -7.7276881    234.12575  0.021534745  0.021579449            2 
  907000   0.91432597   -7.6915721    234.42083  0.021538114  0.021563227            1 
  908000   0.88273563   -7.7110154    234.34536  0.021507467  0.021547113            3 
  909000    0.8935163   -7.6940618     235.1114  0.021554033  0.021530964            3 
  910000   0.90108299   -7.7257829    234.79914  0.021501753  0.021514868            2 
  911000   0.88920848   -7.6892668    234.69065  0.021468227   0.02149863            2 
  912000   0.86916684   -7.6953333    235.84219  0.021549907  0.021482676            4 
  913000   0.88642528   -7.7393035     235.0391  0.021453003  0.021466658            4 
  914000   0.90173052   -7.7127465    235.61615  0.021482143  0.021450728            3 
  915000   0.89413947   -7.7053722    234.71785  0.021376853  0.021434724            1 
  916000   0.88025724   -7.7170165    235.41268  0.021416729  0.021418517            2 
  917000   0.86158978   -7.7585529    234.95568  0.021351843   0.02140238            2 
  918000    0.8753084   -7.7560634    235.55948  0.021383395  0.021386168            3 
  919000   0.86705903   -7.6930214    236.25685  0.021423363  0.021370167            5 
  920000   0.88700921   -7.7235212    235.45034  0.021327023  0.021354261            1 
  921000   0.88057174   -7.7195511     235.8941  0.021344019  0.021338277            2 
  922000   0.89017105   -7.7390845    235.76978  0.021309633  0.021322257            2 
  923000   0.86947048   -7.7192777    235.87108  0.021295691  0.021306217            1 
  924000   0.89108395   -7.7184928    235.52741  0.021241649  0.021290219            1 
  925000   0.91154086   -7.7493349    236.06665  0.021267266  0.021274333            3 
  926000    0.8853959   -7.7151636    236.72374  0.021303432  0.021258387            2 
  927000    0.8881327   -7.7544812    236.53444  0.021263434  0.021242327            1 
  928000   0.88006751   -7.7387241    236.53543   0.02124061   0.02122611            2 
  929000   0.87757848   -7.7199098      236.368  0.021202727  0.021209941            1 
  930000   0.88658715   -7.7125118    235.85845   0.02113427  0.021193789            1 
  931000   0.87247975   -7.7159035    236.21122  0.021143145  0.021177654            2 
  932000   0.88845793   -7.6985814    236.92323  0.021184123  0.021161517            1 
  933000    0.9010262    -7.708846    237.11269   0.02117834  0.021145313            5 
  934000   0.87291093   -7.7227118    236.76595  0.021124728  0.021129116            1 
  935000   0.89805869      -7.7684    236.24255  0.021055486  0.021112759            3 
  936000   0.89160706   -7.7201035    236.78853    0.0210816  0.021096425            1 
  937000   0.88452307   -7.7450263    236.13828   0.02100127  0.021080134            3 
  938000   0.86695581   -7.7063988     236.8176  0.021039232  0.021063962            1 
  939000   0.89821085   -7.7179201    237.67267  0.021092711  0.021047827            1 
  940000   0.84666247   -7.7449807    237.11777  0.021021079  0.021031604            3 
  941000    0.8764737   -7.7596939    237.19544  0.021005618  0.021015263            1 
  942000   0.88225749   -7.7416676    237.54094  0.021013883  0.020999107            2 
  943000   0.89631055   -7.7339762    237.09216  0.020951941  0.020983081            1 
  944000    0.8823333    -7.746453    237.75073  0.020987882  0.020967097            2 
  945000   0.85991915   -7.7482942    237.42006  0.020936513  0.020951031            2 
  946000   0.88424912   -7.7474181     237.5571  0.020926454  0.020935013            4 
  947000   0.89064387   -7.7594646    237.30455  0.020882132  0.020918869            2 
  948000   0.87285601   -7.7277559    238.27536  0.020945443  0.020902827            2 
  949000   0.84974359   -7.7469884     238.0635  0.020904768  0.020886823            2 
  950000   0.89557068   -7.7765443    237.68626  0.020849672  0.020870695            1 
  951000   0.86815307   -7.8018983    237.50141   0.02081155  0.020854493            2 
  952000   0.87762773   -7.7803127    238.52268  0.020879086  0.020838304            3 
  953000   0.88112631    -7.741746    238.37895  0.020844609  0.020822282            2 
  954000   0.86625175   -7.7612989    238.42746  0.020826997  0.020806346            1 
  955000   0.85365876   -7.7504181    238.48541  0.020810245  0.020790402            3 
  956000   0.88525173   -7.7615103    238.28977  0.020771424  0.020774338            3 
  957000   0.89107517    -7.748823     238.7802  0.020792424  0.020758329            2 
  958000   0.87979546   -7.7640906    238.70363   0.02076406  0.020742362            2 
  959000    0.8856339   -7.7791005    238.90561  0.020759959  0.020726392            3 
  960000   0.87346174   -7.7908558     238.6095   0.02071263  0.020710325            2 
  961000   0.87884036   -7.7526076    238.91311  0.020717404  0.020694321            3 
  962000   0.86156158   -7.8066566    238.50249  0.020660299  0.020678248            2 
  963000   0.86736649   -7.8309834    238.78128   0.02066297   0.02066211            2 
  964000   0.88234636   -7.7824416    238.98691  0.020659311  0.020646102            1 
  965000    0.8748439    -7.747643    238.86999  0.020627806  0.020630076            2 
  966000   0.86340432   -7.7669392    238.96806  0.020614912  0.020613945            2 
  967000   0.87547688   -7.7722494    238.51468  0.020554522  0.020597886            3 
  968000   0.84988952   -7.7937274    239.27805  0.020599006  0.020581958            2 
  969000   0.87231312   -7.7661011    239.63779  0.020608685   0.02056601            2 
  970000   0.85756051   -7.7891796    238.89161  0.020523335  0.020549931            1 
  971000   0.86336078   -7.7581631     239.3108  0.020538174  0.020533867            2 
  972000   0.86621983   -7.7937505    239.61873  0.020543444  0.020517954            1 
  973000   0.88690432   -7.7864493      239.207  0.020487068  0.020501995            1 
  974000   0.85964933     -7.76462    240.29976  0.020559527  0.020486092            6 
  975000   0.86837637   -7.7731406    239.87707  0.020502314   0.02047032            2 
  976000   0.84495447   -7.7986019    239.80095  0.020474808  0.020454494            3 
  977000   0.85393215    -7.785065    240.03757  0.020474034  0.020438601            1 
  978000   0.85256147   -7.7865042    240.01189  0.020450911  0.020422778            1 
  979000   0.84299273   -7.7776376    240.68619  0.020487419  0.020407063            4 
  980000   0.88743528    -7.799928      240.273  0.020431378  0.020391403            5 
  981000   0.87992566   -7.8271665    240.83492  0.020458284  0.020375644            4 
  982000    0.8585237   -7.7709189    241.12731  0.020462264  0.020359929            4 
  983000   0.85806252   -7.7855011    240.18822  0.020361836  0.020344237            2 
  984000   0.85872186   -7.7938051    241.43069  0.020446366  0.020328487            1 
  985000   0.87520334   -7.7827953    240.88755  0.020379658  0.020312794            3 
  986000   0.87321089   -7.7553245    241.33103   0.02039647  0.020297249            1 
  987000   0.86239961   -7.7724849    240.61922  0.020315706  0.020281789            1 
  988000   0.85772252   -7.7870719    241.94509  0.020406975  0.020266283            2 
  989000   0.86909882   -7.7690451    241.65225  0.020361666  0.020250789            4 
  990000   0.87050205   -7.8399725    241.59028  0.020335882  0.020235286            3 
  991000   0.86589863   -7.8079619    240.98743  0.020264668  0.020219747            3 
  992000   0.87275403   -7.7735005    241.87765  0.020319023  0.020204207            2 
  993000   0.87506999   -7.8082931    241.89972  0.020300413  0.020188751            2 
  994000   0.85738483   -7.7790952    242.00113  0.020288492  0.020173224            1 
  995000   0.87197704   -7.8105705    242.27146  0.020290742  0.020157687            3 
  996000   0.84917026   -7.8287192    241.96772  0.020244956   0.02014213            3 
  997000      0.83738   -7.8046289    242.28819  0.020251437  0.020126581            3 
  998000   0.85611895   -7.8204047    241.85721  0.020195158  0.020111104            1 
  999000   0.86949467   -7.8016764    242.28304  0.020210463  0.020095689            2 
 1000000   0.86858351    -7.820142    241.85196   0.02015433  0.020080176            1 
 1001000   0.84497079   -7.8201991    241.99399   0.02014602  0.020064665            2 
 1002000   0.85363083   -7.8313285     242.4824  0.020166533  0.020049254            3 
 1003000   0.86761346   -7.8039655    242.62343  0.020158145  0.020033962            2 
 1004000   0.84216743   -7.7847979    242.72524  0.020146517  0.020018717            2 
 1005000   0.85809055   -7.8012282    242.88718  0.020139899  0.020003494            1 
 1006000    0.8620146   -7.8438481    242.99272  0.020128622  0.019988101            5 
 1007000   0.84236812   -7.8201301    242.66802  0.020081762   0.01997272            2 
 1008000   0.85556738   -7.8305611    242.69249  0.020063863  0.019957274            3 
 1009000   0.86150898   -7.8155023    242.78124  0.020051308  0.019941925            2 
 1010000   0.85266618   -7.8266764    243.69421  0.020106783  0.019926493            1 
 1011000   0.82507949   -7.7959396    243.46677  0.020068148  0.019911237            1 
 1012000   0.85461907   -7.8340251    243.18736   0.02002531  0.019896012            2 
 1013000   0.86062195   -7.8167839    244.00527  0.020072826  0.019880873            4 
 1014000   0.87371106   -7.7998881    244.00416  0.020052939  0.019865784            2 
 1015000   0.81913543   -7.8302021    243.92257  0.020026484  0.019850771            2 
 1016000   0.84582829   -7.8045081    243.61611  0.019981637  0.019835698            2 
 1017000   0.82460282   -7.8345547    244.54715  0.020038278  0.019820666            2 
 1018000    0.8524673   -7.8071594    244.45849  0.020011337  0.019805698            2 
 1019000   0.82776928   -7.8100855    244.32136  0.019980484  0.019790683            2 
 1020000     0.849827   -7.8083527    244.48256  0.019974065  0.019775715            3 
 1021000   0.85500987   -7.8414634    244.21544    0.0199327  0.019760692            3 
 1022000   0.82608952   -7.8575383    243.80432  0.019879674  0.019745663            2 
 1023000   0.83519693    -7.828991    244.56586  0.019922276  0.019730574            2 
 1024000   0.85301229    -7.823882    244.44636  0.019893096   0.01971551            2 
 1025000   0.85469989     -7.82401    244.93787  0.019913648  0.019700606            1 
 1026000   0.84208738   -7.8426919    244.78637  0.019881934  0.019685749            2 
 1027000   0.83912327   -7.8032936    245.36788   0.01990976  0.019670806            1 
 1028000   0.85439216   -7.8241082    244.71881  0.019837776  0.019655848            7 
 1029000   0.83788326   -7.8273087    245.27347  0.019863417  0.019640988            2 
 1030000   0.84609404   -7.8306976    245.09103  0.019829371  0.019626162            1 
 1031000   0.85554795   -7.8259966    245.01087  0.019803659  0.019611243            2 
 1032000   0.83008942     -7.83415     245.3312  0.019810336    0.0195963            2 
 1033000    0.8366442   -7.8293543    245.16654  0.019777875  0.019581364            2 
 1034000   0.84886833    -7.869864    244.68375  0.019719838  0.019566347            4 
 1035000   0.85544134   -7.8925047    245.20814  0.019743006  0.019551171            1 
 1036000   0.82776099    -7.830848    245.37457  0.019737337     0.019536            3 
 1037000   0.82708253   -7.8635035    244.70167  0.019664229  0.019520847            1 
 1038000   0.83495703   -7.8233751    245.17484  0.019683272  0.019505825            4 
 1039000   0.82885667   -7.8327277    245.52814  0.019692664  0.019490874            3 
 1040000   0.82936296   -7.8361107    245.92438  0.019705479  0.019475994            2 
 1041000   0.82745249   -7.8515941    244.81427  0.019597684   0.01946105            2 
 1042000   0.84523017    -7.850571    245.19113  0.019609016  0.019446029            3 
 1043000   0.83528215   -7.8190109    245.85848  0.019643535  0.019431114            1 
 1044000   0.83335559   -7.8503226    245.84255  0.019623448  0.019416259            1 
 1045000   0.81098031   -7.8612433    246.32183  0.019642889  0.019401395            1 
 1046000   0.83605455    -7.867732    246.16496  0.019611612  0.019386423            2 
 1047000   0.83907069   -7.8725752    245.71129  0.019556772  0.019371538            2 
 1048000   0.81630179   -7.8734694     245.9428   0.01955652  0.019356699            2 
 1049000   0.83929123   -7.8765411    245.88009  0.019532896  0.019341907            3 
 1050000   0.82650705   -7.8514295    246.35101  0.019551668  0.019327056            1 
 1051000   0.84015018    -7.859992    246.48391  0.019543603  0.019312312            2 
 1052000   0.82894439   -7.8767495    246.52696  0.019528435  0.019297567            3 
 1053000   0.84447743   -7.8849797    246.44856  0.019503685  0.019282772            1 
 1054000   0.84074515   -7.8688226     246.6779  0.019503313  0.019267995            2 
 1055000   0.81887001   -7.8741938    246.79552  0.019494117  0.019253193            2 
 1056000   0.82151684   -7.8731782    246.65044  0.019464208   0.01923853            2 
 1057000   0.84359148    -7.833144    247.32454  0.019498939  0.019223853            2 
 1058000   0.84232535    -7.872161    247.20613  0.019471182  0.019209246            1 
 1059000   0.82745553   -7.8544203    247.27432  0.019458161  0.019194567            3 
 1060000   0.82013974     -7.83018    247.15505  0.019430428  0.019179912            1 
 1061000   0.84175397   -7.8515601    246.95366  0.019396297  0.019165211            1 
 1062000   0.83209853   -7.8562067     246.9002  0.019373839  0.019150484            3 
 1063000   0.83326338   -7.8291077     247.5856  0.019409344  0.019135787            2 
 1064000   0.81871672   -7.8372402    247.23093  0.019363325  0.019121179            1 
 1065000   0.84416718   -7.8600564    247.48042  0.019364665  0.019106617            2 
 1066000   0.83322164   -7.8681842    247.35695  0.019336847  0.019091853            1 
 1067000   0.83171806   -7.8685948    246.87659  0.019281208  0.019077119            1 
 1068000   0.85849308   -7.8848553    246.92508  0.019266938  0.019062412            4 
 1069000   0.82950958   -7.9071996    247.10608  0.019263025  0.019047718            5 
 1070000   0.81665069   -7.8851763    246.91617  0.019230231  0.019032941            2 
 1071000    0.8330442   -7.8907069    247.46158  0.019254714  0.019018085            1 
 1072000   0.81949557   -7.8966286    246.92245  0.019194842  0.019003285            3 
 1073000    0.8110875   -7.8904398    247.36635  0.019211428  0.018988373            4 
 1074000   0.83379304   -7.9163095    247.01244   0.01916608  0.018973443            4 
 1075000   0.82460901   -7.9020448    246.72249  0.019125774  0.018958575            1 
 1076000   0.83192118   -7.8984363    247.98012    0.0192054  0.018943835            4 
 1077000   0.83327083   -7.8928589     247.6605  0.019162837  0.018929056            3 
 1078000   0.83578947   -7.8797724     248.1472  0.019182684   0.01891422            3 
 1079000   0.81995794   -7.8815235    247.62668  0.019124705  0.018899381            1 
 1080000    0.8366905   -7.8718553    248.35533   0.01916322  0.018884717            2 
 1081000   0.80099551   -7.8900542    247.97489  0.019116165  0.018870002            2 
 1082000    0.8224964   -7.9002112    248.24069  0.019118968  0.018855421            1 
 1083000   0.83432258   -7.8624368    248.10456   0.01909084  0.018840837            2 
 1084000   0.80906098   -7.9075313      248.078  0.019071187  0.018826198            3 
 1085000   0.82708751   -7.8768645    247.90691  0.019040469  0.018811543            3 
 1086000   0.82341004   -7.8921654    247.34133  0.018979537  0.018796841            1 
 1087000    0.8286855   -7.9099863    248.56237  0.019055686  0.018782219            5 
 1088000   0.79936799   -7.8862358    248.38313  0.019024443  0.018767632            3 
 1089000   0.80746621    -7.911386    247.64732  0.018950668  0.018752962            3 
 1090000   0.81996977   -7.9472996    248.01149  0.018961123   0.01873817            3 
 1091000   0.82702413   -7.8962056    248.58083  0.018987231   0.01872337            4 
 1092000   0.83645707    -7.896848    247.77738   0.01890853  0.018708711            1 
 1093000   0.83804545   -7.9308366    248.31867    0.0189325  0.018694022            3 
 1094000   0.80300102   -7.8921528    248.27009  0.018911494  0.018679289            3 
 1095000   0.82201521   -7.9138019    248.15583  0.018885527  0.018664482            1 
 1096000   0.82608291   -7.8976335    248.46031  0.018891447  0.018649743            2 
 1097000   0.80794576   -7.9514525    248.09607  0.018846557   0.01863494            1 
 1098000    0.8233165   -7.9315231    248.51657  0.018861306  0.018620077            2 
 1099000   0.81883184   -7.9337322    247.76818  0.018787396  0.018605255            2 
 1100000   0.79947473   -7.9216882    248.47241  0.018823667   0.01859045            2 
 1101000   0.81932059     -7.90982    248.41984  0.018802592  0.018575708            1 
 1102000   0.82265859   -7.8983872    248.00279  0.018753992  0.018560996            3 
 1103000   0.81756428   -7.9143317     248.5569  0.018778853  0.018546306            3 
 1104000    0.8218927   -7.9213658    248.01629  0.018721036  0.018531618            2 
 1105000   0.81107119   -7.8967064    248.44722  0.018736593  0.018516939            2 
 1106000   0.80842043   -7.8891122    248.66936   0.01873639  0.018502244            7 
 1107000   0.81758204   -7.8988523    248.72147  0.018723387  0.018487572            3 
 1108000   0.83249194   -7.9171131    249.29771  0.018749828  0.018472968            2 
 1109000   0.81496393   -7.9157554    248.85395  0.018699576  0.018458359            1 
 1110000   0.81670327   -7.9557268    248.84863   0.01868233  0.018443792            2 
 1111000   0.80455506   -7.9155592     249.1525  0.018688306  0.018429271            2 
 1112000   0.81135432   -7.9326657    248.84689  0.018648598  0.018414694            2 
 1113000   0.80578799   -7.9154876    249.16081  0.018655347  0.018400167            2 
 1114000   0.81747283   -7.9014125    249.17871   0.01863994  0.018385675            2 
 1115000   0.81958766   -7.9007534    249.09148  0.018616702  0.018371153            6 
 1116000   0.81217233   -7.9037078    249.88357  0.018659167  0.018356617            1 
 1117000   0.81750611   -7.9276938    249.42516  0.018608263  0.018342132            1 
 1118000   0.80164358   -7.9130505     250.0308  0.018636762  0.018327695            2 
 1119000   0.82010517   -7.9284442    248.90411  0.018536201  0.018313228            1 
 1120000   0.78853569   -7.9093147    249.40393   0.01855684  0.018298869            1 
 1121000    0.8050346    -7.899776    249.30189  0.018532701  0.018284414            3 
 1122000   0.78953498   -7.9119429    250.18298  0.018581624  0.018270022            1 
 1123000   0.80003861   -7.9385176    250.02374  0.018553261  0.018255675            2 
 1124000   0.80468239   -7.9527561    249.77735  0.018518487  0.018241296            1 
 1125000   0.80658597   -7.9186841    250.56088  0.018560065  0.018226861            1 
 1126000   0.81687661   -7.9273959    250.39392  0.018531225  0.018212559            2 
 1127000    0.7884611     -7.91936    250.44511  0.018518568  0.018198211            4 
 1128000   0.80735748   -7.9306065    249.88031  0.018460424    0.0181839            4 
 1129000   0.80148961   -7.9145067    250.17569  0.018465876   0.01816964            3 
 1130000    0.8247489   -7.9292026    250.34342  0.018461904  0.018155411            2 
 1131000   0.80473604   -7.9436849    250.24962  0.018438669  0.018141082            2 
 1132000   0.80097601   -7.9423602    250.76347  0.018460208  0.018126704            3 
 1133000   0.80321287   -7.9470864    250.10161  0.018395234  0.018112406            2 
 1134000   0.80134929   -7.9144272    250.61904  0.018417037  0.018098063            3 
 1135000   0.81263765   -7.9257487    251.06722  0.018433717  0.018083773            3 
 1136000   0.79872484   -7.9269515    250.88783   0.01840433  0.018069662            3 
 1137000   0.79880947   -7.8945182    251.40751  0.018426232  0.018055532            2 
 1138000    0.8051625   -7.9339259    250.82539  0.018367413   0.01804152            3 
 1139000   0.79233753   -7.9262034    251.07793  0.018369763  0.018027505            1 
 1140000   0.78669119   -7.9369113    251.18269  0.018361308  0.018013511            2 
 1141000   0.80291873   -7.9085441    251.41423  0.018362126   0.01799956            2 
 1142000   0.79857578   -7.9587626    251.41582  0.018346163  0.017985567            1 
 1143000   0.79579127   -7.9685964    250.80734  0.018285749  0.017971461            2 
 1144000   0.79150678   -7.9822551    251.53646  0.018322877  0.017957434            5 
 1145000   0.78843328    -7.970613    251.19987  0.018282378  0.017943357           11 
 1146000   0.80753732   -7.9928306    251.70467  0.018303132   0.01792928            3 
 1147000   0.79217515   -8.0048938    251.28739  0.018256858  0.017915185            2 
 1148000   0.80960866   -7.9827868    251.53902   0.01825922  0.017901145            2 
 1149000   0.78973345   -7.9742307     251.3868  0.018232289  0.017887233            2 
 1150000   0.80566347    -7.977184     251.7509  0.018242819    0.0178733            2 
 1151000   0.79457774   -8.0032121    252.34777  0.018270183  0.017859321            2 
 1152000   0.78991749   -7.9910286    250.97869  0.018155287  0.017845263            2 
 1153000   0.77978538   -7.9729349    251.74961  0.018195259  0.017831341            6 
 1154000   0.79545038   -8.0077942    251.87608  0.018188625  0.017817438            2 
 1155000   0.79329495   -7.9849447    251.68765  0.018159282  0.017803582            2 
 1156000   0.79063037   -7.9726443    251.73095  0.018146695  0.017789721            1 
 1157000   0.78956606   -7.9957356    252.26938  0.018169791  0.017775901            2 
 1158000   0.79593946   -7.9915054    252.41798  0.018164794  0.017762094            2 
 1159000   0.79063087   -7.9882409    252.06679   0.01812387  0.017748311            4 
 1160000   0.78077801   -8.0013073    252.30944  0.018125678   0.01773455            2 
 1161000   0.79327882   -7.9491031    252.80979   0.01814598  0.017720862            3 
 1162000   0.77666839    -7.977236    252.67242  0.018120512   0.01770715            2 
 1163000   0.80350086   -7.9855615    252.64789  0.018103173   0.01769341            1 
 1164000   0.78649874   -7.9846091    252.21104  0.018056346   0.01767969            4 
 1165000   0.77972004    -7.985921    252.20495  0.018040412  0.017666007            4 
 1166000   0.78587597   -7.9734495    253.18982  0.018095327  0.017652339            1 
 1167000   0.79175476    -7.987765    252.60371  0.018037968  0.017638618            2 
 1168000   0.78240623   -7.9784956    253.01758  0.018052054  0.017624887            2 
 1169000   0.77595258   -7.9809393    253.30589  0.018057163  0.017611269            4 
 1170000   0.77768175   -7.9491448    253.15021  0.018030642  0.017597725            2 
 1171000   0.77577685   -7.9897954     252.7235  0.017984878  0.017584235            1 
 1172000   0.77182218   -8.0016922    252.92619  0.017983944   0.01757061            3 
 1173000   0.77773077   -7.9697871    253.42641   0.01800415  0.017557057            2 
 1174000   0.77823362   -7.9985145    252.89595   0.01795116  0.017543548            2 
 1175000   0.78407742   -7.9715755    253.30018  0.017964552  0.017529988            3 
 1176000   0.80506511   -7.9982605     253.2947  0.017948887  0.017516439            2 
 1177000   0.78704854   -8.0050147    253.23273   0.01792925  0.017502944            4 
 1178000   0.76679597   -8.0162452    253.32081  0.017920261  0.017489455            2 
 1179000   0.78604884   -7.9923134    253.14277  0.017892477  0.017475934            4 
 1180000   0.79368224   -8.0112637    254.08939  0.017944166  0.017462376            5 
 1181000   0.78029144   -7.9859898     253.9181  0.017916886  0.017448888            1 
 1182000   0.78278986   -8.0121498    253.96094  0.017904748   0.01743539            3 
 1183000   0.77986897   -8.0222189    253.96015  0.017889557  0.017421909            2 
 1184000   0.79667633   -7.9985132    253.53886  0.017844796  0.017408428            3 
 1185000   0.79588146   -8.0033019    253.78824  0.017847274  0.017394993            2 
 1186000   0.76055319   -8.0053569    253.80491  0.017833398  0.017381629            3 
 1187000   0.79312042   -8.0025956    254.00475  0.017832403  0.017368279            2 
 1188000   0.77237407   -7.9810834    253.75521  0.017799889  0.017354966            3 
 1189000   0.77263007   -7.9942571    254.35245  0.017826777  0.017341642            2 
 1190000   0.79445856   -7.9992264    254.56332  0.017826563  0.017328306            2 
 1191000   0.78653597   -8.0188312    254.56809  0.017811929   0.01731497            1 
 1192000   0.77156432   -8.0131184    254.40455  0.017785553  0.017301662            2 
 1193000   0.78912734   -8.0460649    253.99671  0.017742157  0.017288266            2 
 1194000   0.77878353   -8.0211548    254.09948  0.017734469  0.017274845            2 
 1195000   0.76708787   -7.9904511    255.03056  0.017784558  0.017261522            1 
 1196000   0.79443516   -7.9701123     254.9637   0.01776503   0.01724824            2 
 1197000   0.78202696   -7.9882884    254.58214  0.017723624  0.017234992            1 
 1198000    0.7658179    -8.018299     254.0447  0.017671446  0.017221605            2 
 1199000   0.77388897   -8.0134292    254.01231  0.017654456  0.017208214            2 
 1200000   0.77595512   -8.0251557    254.50621  0.017674042  0.017194922            2 
 1201000   0.79151631    -7.981316    254.51109  0.017659665  0.017181682            3 
 1202000   0.78191315   -8.0092909     254.7982  0.017664878  0.017168342            2 
 1203000   0.76271297   -8.0193103    253.78453  0.017579976  0.017155029            2 
 1204000   0.76098409   -8.0064786    253.91979  0.017574736  0.017141666            2 
 1205000   0.76074502   -8.0013199    254.45705  0.017597306  0.017128277            1 
 1206000   0.75853816   -8.0311509    253.83334  0.017539617  0.017114878            1 
 1207000   0.78038858    -8.031526     254.2235  0.017552023  0.017101416            3 
 1208000   0.77812383   -8.0207903    254.72801  0.017572296  0.017088006            3 
 1209000   0.76641806    -8.008598    253.58042  0.017478661  0.017074621            4 
 1210000   0.77396326     -8.02494    254.08067  0.017498669  0.017061222            2 
 1211000   0.76906893   -8.0379412    254.16002  0.017489679  0.017047753            2 
 1212000   0.77854642    -8.022561    254.53827  0.017501256  0.017034264            2 
 1213000    0.7794487   -8.0183662    254.29299  0.017469978  0.017020812            3 
 1214000   0.76197077    -8.021327    254.24605  0.017452365  0.017007343            4 
 1215000   0.76163018   -8.0205983    254.21311  0.017435742  0.016993896            3 
 1216000   0.77077786   -8.0145657    254.09191  0.017413097  0.016980443            2 
 1217000   0.76862426   -8.0046502    254.93615  0.017456598   0.01696704            2 
 1218000   0.77593844   -8.0356294     253.8515  0.017368055  0.016953585            2 
 1219000   0.78732772    -8.041955    254.36215  0.017388717  0.016940141            2 
 1220000   0.76779065   -8.0123962    254.80314  0.017404586  0.016926699            1 
 1221000   0.75379403    -8.005553    254.07344  0.017340529   0.01691332            1 
 1222000   0.78114265   -8.0297743    254.80419  0.017376172  0.016899914            3 
 1223000   0.74763961   -8.0265053    255.03206  0.017377491  0.016886525            2 
 1224000   0.75847247   -8.0305613     254.3939  0.017319846  0.016873154            1 
 1225000   0.76673648   -8.0248246    254.96366  0.017344467  0.016859866            4 
 1226000   0.76738166   -8.0183059    254.67592  0.017310761  0.016846543            2 
 1227000   0.76877365   -8.0226517    255.09658  0.017325223   0.01683326            2 
 1228000   0.76424747      -8.0388    254.71947  0.017285523  0.016819935            1 
 1229000   0.75378706   -8.0109346    254.39064  0.017249162  0.016806613            4 
 1230000   0.76703322   -8.0122235    255.05877  0.017280404  0.016793344            2 
 1231000   0.75884224   -8.0581194    254.56126  0.017232687   0.01677999            2 
 1232000   0.74839258   -8.0785375    254.26387  0.017198584  0.016766539            4 
 1233000   0.77330131   -8.0524532     254.5579  0.017204508  0.016753121            3 
 1234000   0.75282053   -8.0513337    254.05108   0.01715634  0.016739712            2 
 1235000   0.76367512   -8.0342113    254.14317  0.017148662  0.016726286            3 
 1236000   0.76931727   -8.0487316    254.69555   0.01717203  0.016712957            3 
 1237000   0.76272373   -8.0291715    254.58131  0.017150452  0.016699645            1 
 1238000   0.75936266   -8.0481866    254.52816  0.017133021  0.016686241            6 
 1239000   0.75722954   -8.0649162    254.12854  0.017092315  0.016672813            3 
 1240000   0.73725496   -8.0413699    254.93129  0.017132479  0.016659398            1 
 1241000   0.75291877   -8.0422701    254.43699  0.017085481  0.016646078            2 
 1242000    0.7443911   -8.0338705    254.93121  0.017104885  0.016632773            2 
 1243000   0.74394688   -8.0189633    255.85797  0.017153256  0.016619532            2 
 1244000   0.77391336   -8.0737753    255.24809  0.017098613  0.016606259            1 
 1245000   0.75675243   -8.0421723    255.19822  0.017081541  0.016593036            3 
 1246000   0.73221299   -8.0477538    255.00822  0.017055125  0.016579837            3 
 1247000   0.74980141   -8.0815621    255.42631  0.017069387  0.016566633            2 
 1248000   0.74465649   -8.0572649    254.69531  0.017006898   0.01655329            1 
 1249000   0.75847279   -8.0711254    255.03599  0.017016012  0.016540002            3 
 1250000   0.75444336   -8.0707107    254.88869  0.016992579  0.016526717            3 
 1251000    0.7349718   -8.0511457    254.68193  0.016965223  0.016513419            1 
 1252000   0.75318388   -8.0771625    254.67528   0.01695123  0.016500085            2 
 1253000    0.7552195   -8.0931985    255.33274  0.016981427  0.016486764            2 
 1254000   0.75374902   -8.0837817     254.6442  0.016922129  0.016473439            1 
 1255000   0.75948255    -8.084246    254.84889  0.016922237  0.016460118            1 
 1256000   0.76092135    -8.066692    254.86144  0.016909597  0.016446827            3 
 1257000   0.73225111   -8.0698213    255.03239  0.016907478  0.016433561            2 
 1258000   0.75961947   -8.0840871    254.90015  0.016885277  0.016420313            3 
 1259000   0.74767849   -8.0894698    254.99225  0.016877962  0.016407063            2 
 1260000   0.74118621   -8.0672763      255.568  0.016902645  0.016393817            5 
 1261000   0.74760658   -8.0905843    255.20938  0.016865542   0.01638054            2 
 1262000   0.75733866   -8.0928726    255.28094  0.016856903  0.016367331            2 
 1263000   0.74643055   -8.0714391    255.58978  0.016863934  0.016354218            4 
 1264000   0.75700336   -8.0314984    255.87114  0.016869142  0.016341121            1 
 1265000   0.72555173   -8.0701404     254.8356  0.016787589  0.016328039            1 
 1266000   0.72807724   -8.0540899    255.52584  0.016819763  0.016314936            2 
 1267000   0.76366927   -8.0559293    255.43838  0.016800735  0.016301836            4 
 1268000   0.74379162   -8.0846373     255.1087  0.016765819  0.016288699            1 
 1269000   0.75716883   -8.1060655    255.56323  0.016782456  0.016275564            2 
 1270000   0.75651888   -8.0675761    255.58353  0.016770573  0.016262416            2 
 1271000   0.74972235   -8.1176162    255.35031  0.016742087  0.016249274            2 
 1272000   0.76361837   -8.1074347    255.48809  0.016737952  0.016236205            1 
 1273000   0.75445576   -8.0817518    255.47457  0.016723918  0.016223101            2 
 1274000   0.74335427   -8.0978386    255.61644  0.016720071  0.016210033            2 
 1275000   0.74341428   -8.0943477    255.45085  0.016696134  0.016196989            3 
 1276000   0.75604049   -8.0961518     256.4577  0.016748805  0.016184008            1 
 1277000   0.73926967   -8.0814443    256.27456  0.016723738  0.016171021            2 
 1278000   0.75541773   -8.0702271    256.22282  0.016707278  0.016158105            2 
 1279000   0.73487952   -8.0703343    256.53928  0.016714835  0.016145218            4 
 1280000   0.75661338   -8.0925421    256.39192  0.016692182  0.016132345            2 
 1281000   0.74608457   -8.1143103    256.33938  0.016675734  0.016119428            3 
 1282000   0.75104099   -8.0967974    255.77648  0.016626136   0.01610651            1 
 1283000   0.75054597   -8.1027555    255.86062  0.016618642   0.01609358            1 
 1284000   0.73777604   -8.1071632    255.59867  0.016588699  0.016080694            3 
 1285000   0.75348962   -8.1245145    256.27559  0.016619688  0.016067834            2 
 1286000   0.74375169   -8.1188994    256.54794  0.016624413  0.016055007            7 
 1287000   0.73414951   -8.1089604    256.17505  0.016587351   0.01604214            1 
 1288000   0.73531624    -8.120043    256.20798  0.016576603  0.016029271            2 
 1289000   0.73934725    -8.121712    256.16137   0.01656073  0.016016445            2 
 1290000   0.73398472   -8.0949596    256.14404  0.016546773  0.016003547            3 
 1291000   0.74039715   -8.1064294    256.06994  0.016529173  0.015990668            2 
 1292000   0.74819575   -8.0984749    255.98127   0.01651066  0.015977851            5 
 1293000   0.73101582   -8.0955983    256.07592  0.016503991  0.015965067            1 
 1294000   0.73427414   -8.0877206    256.75984  0.016535281  0.015952297            3 
 1295000   0.75181857   -8.1047846    256.45284  0.016502757  0.015939532            6 
 1296000   0.73522598   -8.1034246    256.61723  0.016500593  0.015926711            4 
 1297000    0.7355556   -8.0988147    256.58974  0.016486105   0.01591391            2 
 1298000   0.73301937   -8.1249801    256.32919  0.016456676  0.015901133            1 
 1299000   0.73240935   -8.1317377     256.3468  0.016445137  0.015888311            1 
 1300000   0.71652031   -8.1016149    256.53492  0.016444546  0.015875545            3 
 1301000   0.74136456   -8.1503703    256.15277  0.016407428  0.015862784            4 
 1302000   0.73409179   -8.1094816    256.70747  0.016430329  0.015850035            1 
 1303000   0.74579346   -8.1345635    256.19548  0.016384976  0.015837245            2 
 1304000   0.73116853   -8.1285773    256.55444   0.01639535   0.01582448            8 
 1305000   0.73102555    -8.100236    256.66603  0.016389913  0.015811693            3 
 1306000   0.74658164    -8.109968    256.92476  0.016393872  0.015798968            2 
 1307000   0.72239451   -8.1417586    256.15146  0.016332024  0.015786227            4 
 1308000   0.72104002   -8.0965186    256.79255  0.016360382  0.015773525            2 
 1309000    0.7365956   -8.1211036    256.78227  0.016347228  0.015760771            1 
 1310000   0.74438575   -8.1531262    256.26747  0.016302002  0.015748027            1 
 1311000   0.74576487   -8.1195973    256.79146  0.016322875   0.01573528            2 
 1312000   0.71435998   -8.1377797    256.53497  0.016294142  0.015722554            2 
 1313000   0.73372735   -8.1515691     256.6138  0.016286735  0.015709781            3 
 1314000   0.73616827   -8.1256257    256.44029  0.016263337  0.015697053            2 
 1315000   0.73954137   -8.1682748    256.50741  0.016255222  0.015684344            1 
 1316000   0.72439633    -8.130242    256.78456  0.016260421  0.015671649            6 
 1317000   0.75511576   -8.1361642     256.6732  0.016241028  0.015659039            1 
 1318000   0.72196932   -8.1351844    256.69682  0.016230198  0.015646373            2 
 1319000    0.7174213    -8.142517    256.52883   0.01620728  0.015633718            2 
 1320000   0.73142063   -8.1184582    256.71029  0.016206457  0.015621103            1 
 1321000   0.73757444   -8.1365348    256.50571  0.016181284  0.015608504            2 
 1322000    0.7312956    -8.121025    256.47263  0.016166959  0.015595851            5 
 1323000   0.71403911   -8.1270584    257.03366  0.016190077  0.015583241            3 
 1324000   0.70682425   -8.1551989    256.56306  0.016148229  0.015570576            1 
 1325000   0.73007269   -8.1306733    256.45641  0.016129334  0.015557936            1 
 1326000   0.73590571   -8.1379278    256.29209  0.016106843   0.01554529            4 
 1327000   0.71792311   -8.1443915    256.67486  0.016118742  0.015532674            1 
 1328000   0.73182705    -8.135826     256.8965  0.016120513  0.015520034            3 
 1329000   0.72714332   -8.1357679    257.31805  0.016134816  0.015507426            3 
 1330000   0.73862344   -8.1589363    256.95281    0.0160998  0.015494828            2 
 1331000    0.7141303   -8.1670435     256.8907  0.016083815  0.015482262            2 
 1332000    0.7169954   -8.1749911    256.51236  0.016048071  0.015469627            2 
 1333000   0.71116144   -8.1616733    256.94245  0.016062919  0.015457025            4 
 1334000   0.73947642   -8.1679493    256.42472  0.016018536  0.015444409            3 
 1335000    0.7221146   -8.1492802    256.63962  0.016019951  0.015431791            2 
 1336000   0.71303047   -8.1516417    256.76793  0.016015964  0.015419232            2 
 1337000   0.72051753     -8.14648    257.22202  0.016032288  0.015406693            2 
 1338000   0.72290409   -8.1710988    256.81354  0.015994864  0.015394134            4 
 1339000   0.71497087   -8.1743717    256.82255  0.015983479  0.015381606            3 
 1340000   0.72747383   -8.1459483    257.01682  0.015983633   0.01536914            1 
 1341000   0.71315767   -8.1791837    256.87281  0.015962765  0.015356653            4 
 1342000   0.71301397    -8.141355    256.61918   0.01593512  0.015344194            2 
 1343000   0.71091183   -8.1018671    257.18983  0.015958664  0.015331736            3 
 1344000   0.71131249    -8.150083    257.35573  0.015957077  0.015319373            2 
 1345000   0.73411314   -8.1357199    257.48681  0.015953334  0.015306986            2 
 1346000   0.73508869   -8.1540963    257.01977  0.015912566  0.015294608            1 
 1347000   0.70880523   -8.1183661    257.27716  0.015916677  0.015282229            1 
 1348000   0.73720661   -8.1705454    257.13748  0.015896234  0.015269852            1 
 1349000    0.7172225    -8.151796    257.68939  0.015918544  0.015257477            2 
 1350000    0.7213315   -8.1400648    257.46455  0.015892874   0.01524515            2 
 1351000   0.72590484   -8.1561289    257.19114  0.015864245  0.015232782            3 
 1352000   0.71469258   -8.1618613     256.9736  0.015839102  0.015220453            2 
 1353000   0.70726656   -8.1569731    257.29573  0.015847236  0.015208096            4 
 1354000   0.70603241   -8.1750629     257.7211  0.015861712  0.015195732            4 
 1355000    0.7041853    -8.187662    257.20431  0.015818224  0.015183389            2 
 1356000   0.70775184   -8.1834747    257.22643  0.015807917  0.015171047            2 
 1357000   0.71632556   -8.2038038    257.40062  0.015806965  0.015158716            5 
 1358000   0.70144957   -8.1772983     256.9523  0.015767814   0.01514638            3 
 1359000   0.71114317    -8.184477    257.24722  0.015774296   0.01513406            5 
 1360000   0.71629666   -8.1841825    257.11617  0.015754667  0.015121743            2 
 1361000   0.71916417   -8.1970922    256.89022  0.015729257  0.015109405            6 
 1362000    0.7084317   -8.1735345    257.70792  0.015767738  0.015097103            2 
 1363000   0.71290519   -8.1980776    257.04369  0.015715559  0.015084753            4 
 1364000   0.71418429   -8.1877906    257.75149  0.015747281  0.015072492            4 
 1365000   0.72548414    -8.183645    257.09503  0.015695667  0.015060239            5 
 1366000   0.69438366   -8.1547988    257.56815   0.01571304  0.015047958            6 
 1367000    0.7171386    -8.181975    256.97395  0.015665322  0.015035688            2 
 1368000   0.69879729   -8.1952351    257.40265  0.015679986  0.015023399            1 
 1369000   0.72945058   -8.2143213    256.55742  0.015617082  0.015011119            2 
 1370000   0.70997421   -8.2116821     256.6463  0.015611089  0.014998825            3 
 1371000   0.69287165   -8.2157375    256.75174  0.015606111   0.01498654            3 
 1372000   0.71723599   -8.2032909     257.4518  0.015637257  0.014974245            2 
 1373000    0.7104637   -8.2007571    257.54561  0.015631562  0.014961995            4 
 1374000   0.70502365   -8.1877654    257.34331  0.015607916  0.014949804            2 
 1375000   0.70496555   -8.1803965    257.06564  0.015579736  0.014937583            1 
 1376000   0.69723132   -8.2009404    257.21147  0.015577245  0.014925376            3 
 1377000   0.70848399    -8.175976    257.39959  0.015577317  0.014913209            1 
 1378000   0.71748354   -8.1692601    257.72045  0.015585416  0.014901081            2 
 1379000   0.69688598   -8.1949675    258.05347  0.015594239  0.014888925            2 
 1380000   0.69171859   -8.2206876    257.39756  0.015543331  0.014876787            2 
 1381000   0.69522591   -8.1912595    257.64147  0.015546794  0.014864622            1 
 1382000   0.69394412   -8.1759757     257.5008  0.015527062  0.014852532            2 
 1383000   0.69592448   -8.1917317    257.66051  0.015525459  0.014840455            4 
 1384000    0.7053388   -8.1990299    257.41757  0.015499613  0.014828342            2 
 1385000   0.69840655   -8.2059868    257.36393  0.015485194  0.014816182            3 
 1386000   0.70131313   -8.1903392     256.9521  0.015449261   0.01480402            2 
 1387000   0.68536397   -8.2070405     257.6294  0.015478815  0.014791892            4 
 1388000   0.69384459   -8.1965736    257.45804  0.015457375  0.014779795            3 
 1389000   0.67683177   -8.2009202    257.90568  0.015473103  0.014767693            1 
 1390000   0.70393903   -8.1983483    257.19126   0.01541914  0.014755601            2 
 1391000   0.71829351   -8.2132846    257.98977  0.015455893  0.014743512            1 
 1392000   0.68849793   -8.2215193    257.29107  0.015402961  0.014731425            2 
 1393000   0.69316242   -8.2234534    257.87097  0.015426595  0.014719332            2 
 1394000   0.69909914   -8.2071338    257.32597  0.015382949  0.014707223            2 
 1395000   0.69343235   -8.2341789    257.63803  0.015390563  0.014695067            2 
 1396000   0.70646093   -8.2285011    257.29132  0.015358842  0.014682927            1 
 1397000   0.70496468   -8.2365611    257.07305  0.015334827  0.014670781            3 
 1398000   0.71031656   -8.2411226    257.35495  0.015340662  0.014658677            2 
 1399000   0.69229496   -8.2182261    258.17944  0.015378809  0.014646582            1 
 1400000   0.70474469   -8.2211192    257.70883  0.015339811   0.01463452            4 
 1401000   0.69567959   -8.2309211    257.40123  0.015310566  0.014622448            3 
 1402000   0.70248045   -8.2297107    257.25968  0.015291232  0.014610411            2 
 1403000    0.6879793   -8.2198343    257.52846  0.015296297   0.01459837            2 
 1404000   0.71334705   -8.2221713    257.93139  0.015309318  0.014586381            1 
 1405000   0.70486342   -8.2159869    256.73536  0.015227483  0.014574413            2 
 1406000   0.69510993   -8.2212082    257.84846  0.015282626   0.01456243            4 
 1407000   0.68976217   -8.2528289    257.58536  0.015256181  0.014550471            2 
 1408000   0.68460357   -8.2344902    256.94533  0.015207465  0.014538476            2 
 1409000   0.68338925     -8.24689    257.46434  0.015227368  0.014526505            4 
 1410000   0.69554202   -8.2565378    256.98496  0.015188236  0.014514474            1 
 1411000   0.70031831   -8.2469372    257.55889  0.015211368  0.014502463            4 
 1412000   0.69740123   -8.2456063    257.28722  0.015184562  0.014490478            3 
 1413000    0.6775744   -8.2374183     257.3116  0.015175254  0.014478537            2 
 1414000   0.67964725   -8.2490985    257.30472  0.015164116  0.014466597            2 
 1415000   0.69042072    -8.262296    257.40164  0.015159107  0.014454672            1 
 1416000   0.70812743   -8.2264967    257.11783  0.015131699  0.014442746            2 
 1417000   0.67928919   -8.2232197    257.88368   0.01516606  0.014430849            1 
 1418000   0.68662507   -8.2230863    258.33698  0.015182004  0.014418963            2 
 1419000   0.67190609   -8.2569086    257.28412  0.015109474  0.014407115            1 
 1420000   0.67823379   -8.2499016    257.72507   0.01512471  0.014395258            4 
 1421000   0.66475133    -8.246103    257.41281  0.015095755  0.014383391            3 
 1422000   0.67767543   -8.2504261    257.43832  0.015086634  0.014371505            4 
 1423000   0.69841614   -8.2288692    257.74355  0.015093906  0.014359657            2 
 1424000   0.69432125   -8.2303415    257.68533    0.0150799  0.014347827            3 
 1425000   0.68623028   -8.2455252     257.4541  0.015055795  0.014336001            1 
 1426000    0.6933308   -8.2479961     257.2384  0.015032632  0.014324146            6 
 1427000   0.69198599   -8.2493623    257.81424  0.015055725   0.01431231            1 
 1428000   0.69053717   -8.2786203    257.40619   0.01502137  0.014300486            2 
 1429000   0.67022829   -8.2327968    257.37043  0.015008773  0.014288657            4 
 1430000   0.67967906   -8.2190871    257.64533  0.015014297  0.014276857            4 
 1431000   0.67747327   -8.2433958    257.49993  0.014995337  0.014265045            6 
 1432000    0.6810333    -8.251123    257.14706  0.014964331  0.014253234            2 
 1433000    0.6860848   -8.2660235    257.66313  0.014983899  0.014241424            3 
 1434000   0.67819819   -8.2436259    257.91375  0.014988014  0.014229613            1 
 1435000   0.68353491   -8.2638606    256.96057  0.014922217  0.014217824            2 
 1436000     0.679765   -8.2557192    257.54608  0.014945803  0.014206011            4 
 1437000   0.65791017   -8.2636629    256.87963  0.014896754  0.014194216            1 
 1438000   0.68972859   -8.2571637    257.74603  0.014936604  0.014182432            1 
 1439000   0.68464619    -8.255046    257.49958  0.014911951  0.014170705            4 
 1440000   0.66074059   -8.2607519    257.88346  0.014923811  0.014158997            1 
 1441000   0.67790117   -8.2566887    257.96125  0.014917954  0.014147286            1 
 1442000   0.68049364   -8.2703784    257.92161  0.014905318  0.014135587            4 
 1443000   0.66935735   -8.2648144     257.0998  0.014847528  0.014123904            2 
 1444000   0.68198345   -8.2493665     257.6086  0.014866609  0.014112204            2 
 1445000    0.6780605   -8.2355071     257.3084  0.014839008  0.014100542            1 
 1446000    0.6706659   -8.2568276     257.4622   0.01483761  0.014088902            3 
 1447000   0.67375944   -8.2546219     257.4807  0.014828421  0.014077235            2 
 1448000   0.67406789   -8.2255135    258.10071  0.014853862  0.014065606            1 
 1449000   0.66577299    -8.272137    257.50116  0.014809131  0.014053978            2 
 1450000   0.69187983   -8.2886699    257.61742  0.014805599  0.014042369            1 
 1451000   0.67522931   -8.2744001    257.24399  0.014773948  0.014030741            2 
 1452000   0.67674933   -8.2885212    257.47749  0.014777175  0.014019116            3 
 1453000   0.67067701   -8.2773407     257.8975  0.014791093  0.014007497            2 
 1454000   0.66308505   -8.2611089    257.77252  0.014773757  0.013995865            2 
 1455000   0.66448052   -8.2793599     258.2183  0.014789135  0.013984259            3 
 1456000   0.66376449   -8.2730466    257.63964  0.014745858  0.013972674            1 
 1457000   0.68554957   -8.2772426    258.50671   0.01478533  0.013961116            3 
 1458000   0.66326702   -8.2834628    257.87537  0.014739105  0.013949527            4 
 1459000   0.67815055   -8.2960706    257.16603  0.014688487  0.013937938            1 
 1460000   0.66857694    -8.262513     257.9184   0.01472137  0.013926341            2 
 1461000   0.67531431   -8.2762698    257.46847   0.01468563  0.013914798            2 
 1462000   0.69877613   -8.2877392    257.80359  0.014694687  0.013903217            3 
 1463000   0.67548209   -8.2892088     257.7416  0.014681112  0.013891641            1 
 1464000   0.66309776   -8.2974145    257.37411  0.014650166  0.013880069            2 
 1465000   0.66764216   -8.2828995    257.82712  0.014665934  0.013868503            5 
 1466000   0.67551409   -8.2920902    256.78355  0.014596609  0.013856947            2 
 1467000   0.67964365   -8.3283931    256.85306  0.014590608  0.013845352            2 
 1468000   0.68028489   -8.3041972    257.60174  0.014623169  0.013833785            4 
 1469000   0.67181579   -8.3186546    257.21469  0.014591258  0.013822198            3 
 1470000   0.67722175   -8.3051188    256.89519  0.014563219  0.013810618            3 
 1471000   0.68060325   -8.3033469     256.9914   0.01455877  0.013799073            2 
 1472000   0.67281441   -8.2845578    257.30743   0.01456677  0.013787528            1 
 1473000    0.6839453    -8.295956    256.85737  0.014531419  0.013775967            1 
 1474000   0.66641498   -8.3082427     256.6254  0.014508446  0.013764421            3 
 1475000   0.65923627   -8.3040452    257.31851  0.014537769  0.013752853            3 
 1476000   0.65180972    -8.324111    256.87383  0.014502813  0.013741292            1 
 1477000   0.68318155   -8.3175962    256.90828  0.014494938  0.013729728            2 
 1478000   0.65223237   -8.3098496    256.51868  0.014463164  0.013718167            1 
 1479000   0.65996717   -8.3149912    256.98606   0.01447972  0.013706627            2 
 1480000   0.65635106   -8.3193313     256.7786  0.014458254  0.013695067            1 
 1481000   0.67492743   -8.3184667    257.04743  0.014463618  0.013683531            3 
 1482000   0.65759883   -8.3120172    257.25991  0.014465807  0.013672019            2 
 1483000   0.65271424   -8.2948206    257.00361  0.014441651  0.013660516            4 
 1484000   0.66842198   -8.3308277    256.94372  0.014428556  0.013649032            2 
 1485000   0.67427042   -8.3304817    257.32495  0.014440233  0.013637533            2 
 1486000   0.65913077   -8.3432119    257.03671  0.014414351  0.013626062            2 
 1487000   0.65782358   -8.3236612     256.7801  0.014390277  0.013614575            2 
 1488000   0.65965803   -8.3369968    256.92806  0.014388892  0.013603143            2 
 1489000    0.6488498   -8.3244053    257.07787  0.014387613  0.013591704            2 
 1490000   0.66321135   -8.3339809    257.16897  0.014383052  0.013580274            4 
 1491000    0.6659742    -8.297008    256.88821  0.014357713  0.013568864            1 
 1492000   0.64939829   -8.3307228    256.81947  0.014344251  0.013557444            4 
 1493000   0.65872294   -8.3282031    256.95429  0.014342169  0.013546039            3 
 1494000   0.65067938   -8.3165128    256.65026   0.01431561   0.01353465            3 
 1495000   0.64669816   -8.3022092    257.64858  0.014361682  0.013523256            3 
 1496000   0.65224864   -8.3196694    256.60268  0.014293821  0.013511878            3 
 1497000   0.64782843   -8.3231667    257.08542  0.014311146  0.013500499            3 
 1498000   0.65058602   -8.3819474    256.76438  0.014283733  0.013489118            3 
 1499000    0.6473875     -8.34007     257.2547  0.014301462   0.01347776            4 
 1500000   0.66461381   -8.3629257    256.77052  0.014265029  0.013466396            2 
 1501000   0.64172045    -8.334379    256.68085  0.014250547  0.013455053            4 
 1502000   0.65477908   -8.3320811    256.70251  0.014242261  0.013443735            1 
 1503000    0.6459623   -8.3435578    257.06826  0.014253064  0.013432405            2 
 1504000   0.65465829   -8.3500241    256.60205  0.014217756   0.01342112            4 
 1505000   0.64872024   -8.3275993    257.48127  0.014256991  0.013409853            2 
 1506000   0.64221464   -8.3610502    257.18956  0.014231383  0.013398596            3 
 1507000   0.64220799    -8.329926    257.30551  0.014228351  0.013387337            3 
 1508000    0.6615033   -8.3342218    257.13418  0.014209448  0.013376098            2 
 1509000   0.65188818   -8.3312456    256.99025  0.014192083  0.013364849            2 
 1510000   0.64935897   -8.3457765    256.64604  0.014163689   0.01335362            2 
 1511000   0.65559258   -8.3385939    256.82153  0.014163994  0.013342388            4 
 1512000    0.6464824    -8.343797    257.48727  0.014191318  0.013331145            2 
 1513000   0.64547601   -8.3443219    256.77939  0.014142949  0.013319925            3 
 1514000   0.65682939   -8.3681421    256.76252  0.014132679  0.013308715            3 
 1515000   0.64944358    -8.334894    257.46403  0.014161938  0.013297522            4 
 1516000   0.65568086   -8.3542554    257.33021   0.01414524  0.013286352            3 
 1517000   0.63205461   -8.3609858    256.81001   0.01410734  0.013275151            3 
 1518000   0.64913947   -8.3237205     256.8761  0.014101674  0.013263959            3 
 1519000   0.64076128   -8.3337064    257.28792  0.014114984  0.013252796            2 
 1520000   0.63667508   -8.3403702    257.22921  0.014102479   0.01324165            4 
 1521000   0.63825453    -8.351783    257.29472  0.014096796  0.013230517            2 
 1522000   0.64669288   -8.3647933    256.97603  0.014070085  0.013219423            2 
 1523000   0.63645409   -8.3572295    257.40527  0.014084333  0.013208318            3 
 1524000   0.64681253   -8.3484717    256.92835  0.014049013  0.013197216            4 
 1525000   0.64557546   -8.3506982    257.06075  0.014047035   0.01318612            2 
 1526000   0.65165284   -8.3553114    256.61939  0.014013728  0.013174992            5 
 1527000    0.6336017   -8.3610303    257.00732  0.014025721  0.013163895            2 
 1528000   0.63301885   -8.3648039    256.64007  0.013996513  0.013152791            4 
 1529000    0.6496643   -8.3438813    257.13859   0.01401453  0.013141729            3 
 1530000   0.64276826   -8.3530814    257.27057  0.014012558  0.013130663            8 
 1531000    0.6332325   -8.3473087    257.21833  0.014000562   0.01311961            3 
 1532000   0.63266457   -8.3515098    256.82832  0.013970209  0.013108547            3 
 1533000    0.6382696   -8.3614661    256.99547  0.013970182  0.013097484            2 
 1534000   0.66144053   -8.3370223    256.90696  0.013956267  0.013086424            1 
 1535000   0.64608432   -8.3450867    256.79513  0.013941104  0.013075404            2 
 1536000   0.63191566   -8.3232401    256.81027  0.013932849  0.013064394            4 
 1537000   0.64092056   -8.3680425    257.31759   0.01395129  0.013053395            2 
 1538000   0.64704714   -8.3811704     257.0216  0.013926181  0.013042388            4 
 1539000   0.65073878   -8.3756354    256.82976  0.013906745  0.013031386            2 
 1540000   0.64068654   -8.3724582    256.85827  0.013899257  0.013020406            1 
 1541000   0.64526728   -8.3640754    257.02235   0.01389911  0.013009436            1 
 1542000   0.64356889   -8.3629929     257.5931  0.013920941  0.012998473            3 
 1543000   0.64478172   -8.3638479     257.2435  0.013893038  0.012987511            3 
 1544000   0.62766102   -8.3692991    257.00512  0.013871175  0.012976559            4 
 1545000   0.62736015   -8.3744823    257.13195  0.013869037  0.012965613            3 
 1546000   0.64567884   -8.3694558    257.25994  0.013866965  0.012954681            5 
 1547000   0.64571828   -8.3789396    257.47304  0.013869481  0.012943764            3 
 1548000   0.63140979   -8.3828155    257.16599  0.013843992  0.012932876            2 
 1549000    0.6147191   -8.3688332    257.18639  0.013836152  0.012921978            2 
 1550000    0.6288037    -8.373684    257.00929  0.013817704  0.012911093            1 
 1551000   0.63611795   -8.3754414    257.09808  0.013813566  0.012900183            2 
 1552000   0.63995786   -8.3829959    257.15002  0.013807454  0.012889282            1 
 1553000   0.64023684   -8.3734378    256.43762  0.013760336  0.012878405            4 
 1554000   0.63567485   -8.3819456    256.89901  0.013776223  0.012867527            2 
 1555000    0.6378041   -8.3843278     256.5624  0.013749325  0.012856656            2 
 1556000   0.63784524   -8.3803135     256.4196  0.013732841  0.012845791            1 
 1557000   0.62050893   -8.3783036    257.21911  0.013766812  0.012834954            1 
 1558000   0.62080025   -8.3782945    257.09265  0.013751211  0.012824119            3 
 1559000   0.62807696   -8.3769734    257.01419  0.013738197  0.012813297            1 
 1560000   0.63199654   -8.4034048    256.42574  0.013697956  0.012802469            3 
 1561000   0.63818791   -8.3860328    256.93656  0.013716451  0.012791647            3 
 1562000   0.64057174   -8.3968627     256.4498  0.013681701  0.012780814            2 
 1563000   0.63639445   -8.3941058    256.45206  0.013673068  0.012769993            3 
 1564000   0.63868742   -8.4014395    256.96916  0.013691877  0.012759181            3 
 1565000   0.62264845   -8.4057328    257.33681  0.013702706  0.012748371            2 
 1566000   0.63447814     -8.39397    257.17183  0.013685176  0.012737574            4 
 1567000   0.63774173   -8.3925335    256.64446  0.013648397  0.012726792            4 
 1568000   0.62261317   -8.4014249    257.08305  0.013663002  0.012716026            4 
 1569000    0.6214965   -8.3994743    256.38536  0.013617238  0.012705252            3 
 1570000   0.63250393   -8.4064165    256.64973  0.013622597  0.012694482            5 
 1571000   0.63254671   -8.4064021    256.86197  0.013625184  0.012683729            1 
 1572000   0.62362241   -8.3886274    256.58487  0.013601828  0.012672993            2 
 1573000   0.63332105   -8.3957961    256.55399  0.013591544  0.012662265            2 
 1574000   0.60988905    -8.419203    256.36571  0.013572941  0.012651529            2 
 1575000   0.63260647   -8.3954019    256.37283    0.0135647   0.01264078            2 
 1576000   0.62635636   -8.4027619    256.29332  0.013551889  0.012630062            4 
 1577000   0.61725682   -8.4095678    256.27987  0.013542585   0.01261934            3 
 1578000   0.63440415    -8.404616    256.76856   0.01355981  0.012608635            2 
 1579000   0.62627088   -8.4096071    256.27214  0.013525023  0.012597925            2 
 1580000   0.61790316   -8.4248873    256.35296  0.013520726  0.012587231            1 
 1581000   0.62509712   -8.4014312    256.57164    0.0135237  0.012576525            4 
 1582000   0.61922234   -8.3856714    256.52883  0.013512897  0.012565857            3 
 1583000   0.61682122   -8.4172552    256.17989  0.013485991  0.012555164            3 
 1584000   0.63004265   -8.4218938    256.39211  0.013488642  0.012544489            2 
 1585000   0.62197527   -8.4163969    255.94912  0.013456841  0.012533823            2 
 1586000   0.62537439   -8.4093668    256.42043   0.01347312  0.012523167            4 
 1587000   0.62794192   -8.4419864    256.58093  0.013473059  0.012512506            3 
 1588000   0.62227617   -8.4366855    256.22669  0.013445985  0.012501853            2 
 1589000    0.6191708   -8.4241712     256.1853  0.013435352  0.012491219            3 
 1590000   0.61694376    -8.433489    256.29543  0.013432675  0.012480584            3 
 1591000   0.61597159   -8.4071344    256.24341  0.013421507  0.012469978            2 
 1592000   0.63051725   -8.4407079    255.98021  0.013399299  0.012459365            3 
 1593000   0.61865986   -8.4107774    255.70593   0.01337654  0.012448764            2 
 1594000   0.61925362   -8.4215684    256.44681   0.01340688  0.012438156            1 
 1595000   0.61437009   -8.4162688    256.03983  0.013377212  0.012427584            3 
 1596000   0.61659176    -8.430982    256.04696  0.013369202  0.012417009            1 
 1597000   0.60891539   -8.4148625    256.17075   0.01336729  0.012406441            3 
 1598000   0.61016047   -8.4242536    256.03955  0.013352083  0.012395881            1 
 1599000   0.61619059   -8.4421522    255.89956  0.013336437  0.012385327            1 
 1600000     0.630899   -8.4211293    256.23841   0.01334575  0.012374784            2 
 1601000   0.61020497   -8.4247941    256.63386  0.013357998  0.012364264            3 
 1602000   0.62078271    -8.402571    256.33288  0.013334003  0.012353769            2 
 1603000   0.61669198   -8.4274389    256.22221  0.013319932  0.012343292            2 
 1604000   0.61176821   -8.4513315    256.14532  0.013307633  0.012332809            7 
 1605000   0.61821142   -8.4420321    256.36281  0.013310634  0.012322326            2 
 1606000    0.6098901   -8.4336718    256.32564  0.013300417  0.012311838            2 
 1607000   0.61302342   -8.4227529    256.14955  0.013283009  0.012301364            3 
 1608000   0.61744585   -8.4222592    256.35803  0.013285553  0.012290903            2 
 1609000   0.62472989   -8.4395459    256.64427  0.013292121  0.012280455            4 
 1610000   0.60168577   -8.4113117    256.45924  0.013274288  0.012269998            3 
 1611000   0.61555638   -8.4516129    256.22626  0.013253996   0.01225956            3 
 1612000   0.60501302   -8.4162837    255.60894  0.013213862  0.012249133            3 
 1613000   0.60992595   -8.4501725    255.92108  0.013221796  0.012238719            3 
 1614000   0.61683093   -8.4414196    256.00709  0.013218044  0.012228312            5 
 1615000   0.60053599   -8.4410564    256.14525  0.013216989  0.012217904            2 
 1616000   0.59980976    -8.441163    256.17586  0.013210389  0.012207501            6 
 1617000   0.60213483   -8.4384954    256.48867   0.01321834  0.012197136            4 
 1618000   0.60934631   -8.4445765    256.22568  0.013196626  0.012186772            3 
 1619000   0.61823053   -8.4383144    256.63139  0.013209357  0.012176428            2 
 1620000    0.6303727   -8.4366134    256.06199  0.013171913  0.012166081            4 
 1621000   0.60853254   -8.4132476    256.14971  0.013168297  0.012155759            5 
 1622000   0.60830829   -8.4502616    256.02247  0.013153641  0.012145425            1 
 1623000   0.60619749   -8.4362348    255.33121  0.013110044  0.012135114            4 
 1624000    0.6027503   -8.4292827    255.79715   0.01312588  0.012124789            5 
 1625000   0.60029274   -8.4377343    255.91218  0.013123701  0.012114493            7 
 1626000   0.60224888    -8.447179    256.14544  0.013127585  0.012104215            3 
 1627000   0.59311068   -8.4166283    255.77963   0.01310078  0.012093922            3 
 1628000   0.58906684   -8.4549107    255.97518  0.013102742  0.012083612            4 
 1629000   0.60901828   -8.4689321    256.07157   0.01309963  0.012073304            3 
 1630000   0.60540776   -8.4569051    255.55103  0.013064981  0.012063016            1 
 1631000   0.60967024   -8.4681579    255.55536  0.013057192   0.01205273            1 
 1632000   0.61712093   -8.4835836    255.42995  0.013042788  0.012042447            6 
 1633000   0.61458562   -8.4361277     255.6233  0.013044668  0.012032172            2 
 1634000   0.61533419    -8.462748    255.92566  0.013052104  0.012021915            2 
 1635000   0.58559415   -8.4535265    256.14145   0.01305512  0.012011671            3 
 1636000   0.60643816   -8.4661941    255.97048  0.013038431  0.012001418            1 
 1637000   0.59473056   -8.4659099    255.48569  0.013005787  0.011991184            2 
 1638000   0.60642568   -8.4537349    255.84319  0.013016035  0.011980955            1 
 1639000   0.60642363    -8.449697    255.89624  0.013010791  0.011970752            3 
 1640000   0.60608972   -8.4670739     255.6549  0.012990595  0.011960546            1 
 1641000     0.601393   -8.4588817    255.70207  0.012985074   0.01195036            1 
 1642000     0.596086   -8.4777276    255.57945  0.012970942  0.011940183            4 
 1643000   0.61364524   -8.4769511    255.51616  0.012959838  0.011930007            2 
 1644000   0.58972064   -8.4585335     256.0187  0.012977428  0.011919838            1 
 1645000   0.59268538   -8.4499235    255.51319  0.012943931  0.011909694            3 
 1646000   0.59487876   -8.4643718      255.771  0.012949119  0.011899563            2 
 1647000   0.60680146    -8.467631    255.75934  0.012940667   0.01188944            1 
 1648000   0.59356196   -8.4571382    255.86174  0.012937992  0.011879317            2 
 1649000   0.59458922   -8.4601841    255.78224  0.012926129  0.011869227            3 
 1650000   0.61005594   -8.4540422    255.64541  0.012911384  0.011859139            1 
 1651000   0.58541308   -8.4702289    255.78382   0.01291055  0.011849064            3 
 1652000   0.59226232   -8.4369793     255.9337  0.012910296  0.011838986            2 
 1653000   0.59969152   -8.4824025     255.8829  0.012899925  0.011828931            2 
 1654000   0.58950407   -8.4701592    255.87496  0.012891725  0.011818876            2 
 1655000   0.59238394   -8.4458948    255.97025  0.012888734  0.011808834            3 
 1656000   0.60110581   -8.5043047    255.59132  0.012861882    0.0117988            2 
 1657000   0.59234248   -8.4914487    255.23936  0.012836419  0.011788755            5 
 1658000   0.60444825   -8.4629118     256.0232  0.012868074  0.011778727            3 
 1659000   0.58717277   -8.4810648    255.82972  0.012850599  0.011768703            2 
 1660000   0.57922048   -8.4693851    255.56507  0.012829572    0.0117587            1 
 1661000   0.59243091   -8.4782315    255.45055  0.012816102  0.011748698            3 
 1662000    0.5859078   -8.4906413    255.65458  0.012818621  0.011738704            3 
 1663000   0.59947959   -8.4860143    256.46074   0.01285131  0.011728715            4 
 1664000   0.58441787   -8.4869687    255.46013  0.012793476   0.01171873            1 
 1665000   0.59161256   -8.4793078    255.72383  0.012798991  0.011708759            2 
 1666000   0.59220852   -8.4829517    255.42606  0.012776413  0.011698815            3 
 1667000   0.59424358    -8.462295    255.85379  0.012790132  0.011688901            3 
 1668000   0.58572423   -8.4917558    255.85645  0.012782596  0.011678981            1 
 1669000   0.58743041   -8.4851956     255.8607   0.01277515  0.011669068            4 
 1670000   0.56943488   -8.4816297    255.68052  0.012758509   0.01165916            3 
 1671000   0.58034529   -8.4849662    255.98141  0.012765879  0.011649253            2 
 1672000   0.58807371   -8.4671732    255.68877  0.012743659   0.01163935            3 
 1673000   0.58906654   -8.5025417    255.99465  0.012751278  0.011629463            3 
 1674000   0.58242514   -8.4725786    255.48274  0.012718177  0.011619572            4 
 1675000   0.57827879   -8.4731301    255.61409  0.012717119  0.011609712            4 
 1676000   0.57608417    -8.483081     255.1795  0.012687922  0.011599845            2 
 1677000   0.58925423    -8.483022    255.61204  0.012701851  0.011590007            3 
 1678000   0.58619092   -8.4709105    255.38107   0.01268281  0.011580164            2 
 1679000   0.58214683   -8.4916334    255.70269   0.01269122   0.01157033            3 
 1680000   0.58754847   -8.4857313    255.80491  0.012688736  0.011560504            3 
 1681000   0.57218024    -8.490929    255.32786  0.012657538  0.011550682            2 
 1682000   0.57446099   -8.4864209    255.68414  0.012667665  0.011540872            2 
 1683000   0.57856871   -8.4905889    255.47668  0.012649865  0.011531084            3 
 1684000   0.57424329   -8.4931621    255.53933  0.012645454    0.0115213            4 
 1685000   0.58784243   -8.4997275    255.64177  0.012643015  0.011511522            2 
 1686000   0.58519368   -8.4788731    255.37464  0.012622313  0.011501759            8 
 1687000   0.59705863   -8.4891739    255.24674  0.012608513  0.011492009            2 
 1688000   0.58140795   -8.4745052     255.4123  0.012609217  0.011482264            4 
 1689000   0.59597626   -8.4970403    255.56108  0.012609092  0.011472518            3 
 1690000   0.56766891   -8.4833257    255.55671  0.012601416  0.011462791            2 
 1691000   0.58508887   -8.4967491    255.44706   0.01258856  0.011453074            2 
 1692000   0.57566592   -8.5015665    255.35981  0.012576823  0.011443364            1 
 1693000   0.58799016   -8.4903831    255.56217  0.012579355  0.011433667            3 
 1694000   0.58368283   -8.4867336    255.05561   0.01254701  0.011423964            3 
 1695000   0.57691312   -8.5009157      255.443  0.012558653  0.011414261            2 
 1696000   0.58541309   -8.5012942    254.91934  0.012525518  0.011404562            3 
 1697000   0.57515049   -8.5132987    254.88785  0.012516591  0.011394865            1 
 1698000   0.58330944    -8.483065    255.37175  0.012532968  0.011385179            2 
 1699000   0.57867654   -8.5144122    255.26979   0.01252059  0.011375512            3 
 1700000   0.57608666   -8.4751417     255.4775  0.012523407  0.011365858            3 
 1701000   0.57707267   -8.4971044    255.35871  0.012510225  0.011356212            2 
 1702000   0.57387993   -8.4888531    255.18751  0.012494492  0.011346578            2 
 1703000   0.58057051    -8.499882    255.77212  0.012515762  0.011336957            3 
 1704000   0.57693676   -8.4981101    255.30255  0.012485453  0.011327338            2 
 1705000   0.56842616   -8.4981416    255.31572  0.012478774  0.011317734            2 
 1706000   0.56746058   -8.5114828    255.38068  0.012474633  0.011308123            1 
 1707000   0.56506191   -8.4975338    255.44576  0.012470502  0.011298527            2 
 1708000   0.56407127   -8.4982331    255.37451  0.012459724  0.011288935            2 
 1709000   0.57658198   -8.5013877     255.6298  0.012464882  0.011279349            2 
 1710000   0.56860295   -8.5100393    255.40461  0.012446618  0.011269779            4 
 1711000   0.58251121   -8.5066809    254.95577  0.012417484  0.011260213            3 
 1712000   0.58301435    -8.514899    255.52652  0.012438012  0.011250655            5 
 1713000   0.57521681   -8.5141675    255.14044  0.012411969  0.011241115            2 
 1714000   0.55813081    -8.516469     255.3366  0.012414265  0.011231579            2 
 1715000   0.55803575   -8.5175433     255.3427  0.012407323  0.011222071            2 
 1716000   0.58207251   -8.4983096    255.58134  0.012411681  0.011212567            2 
 1717000   0.57434706   -8.4996637    255.35456  0.012393446  0.011203074            2 
 1718000   0.57040883   -8.5233667    255.14152  0.012375898  0.011193584            2 
 1719000   0.56917312   -8.5109909    255.23559  0.012373259  0.011184105            3 
 1720000   0.56615949   -8.5106743     255.3217  0.012370238  0.011174633            2 
 1721000   0.56326108   -8.5137269     255.0901  0.012351835   0.01116518            3 
 1722000   0.55397702   -8.5213996    255.16912  0.012348486  0.011155732            3 
 1723000   0.56152173   -8.5144476    255.02634  0.012334414  0.011146298            2 
 1724000   0.58118932   -8.5180587    255.64798  0.012357308  0.011136889            3 
 1725000   0.56125102   -8.5213363    254.90202  0.012314107  0.011127485            1 
 1726000   0.55936073   -8.5177162    255.01031  0.012312201  0.011118084            3 
 1727000   0.57390341    -8.535484    255.09486  0.012309152  0.011108682            1 
 1728000   0.57037131   -8.5294736    254.68081  0.012282061  0.011099295            2 
 1729000   0.56730835   -8.5143354    255.01995  0.012291303  0.011089924            3 
 1730000   0.56393679   -8.5177149    255.04273  0.012285295  0.011080539            3 
 1731000   0.54399771   -8.5255779    255.54535  0.012302395  0.011071188            2 
 1732000   0.54956441   -8.5321844    255.58919  0.012297401  0.011061837            1 
 1733000   0.56758412   -8.5171118    255.20458  0.012271811    0.0110525            4 
 1734000   0.55811195    -8.528927    255.18941  0.012264005  0.011043161            1 
 1735000   0.54891079   -8.5140195    255.00331  0.012247998  0.011033822            1 
 1736000   0.56575269   -8.5382364    255.45598  0.012262672  0.011024492            4 
 1737000   0.56391344   -8.5388225    254.64625  0.012216765  0.011015169            2 
 1738000   0.56267968   -8.5536793    255.35192  0.012243571  0.011005857            2 
 1739000   0.56085402   -8.5355766    255.26073  0.012232161  0.010996548            4 
 1740000     0.548936    -8.520125    254.91838  0.012208735  0.010987257            1 
 1741000   0.55956913   -8.5480501    255.47657   0.01222844  0.010977969            2 
 1742000   0.56410529   -8.5408521    254.88675  0.012193205  0.010968688            6 
 1743000   0.55080571   -8.5330838    255.22141  0.012202209  0.010959421            2 
 1744000    0.5505806   -8.5191002    255.01314  0.012185261  0.010950168            2 
 1745000   0.55556532   -8.5333693    254.98814  0.012177084  0.010940913            4 
 1746000   0.56468858   -8.5330096    255.05435   0.01217327   0.01093169            2 
 1747000   0.54153775   -8.5472711    255.00608  0.012163999  0.010922474            1 
 1748000   0.55467262   -8.5214126    255.34776  0.012173329  0.010913261            2 
 1749000   0.55091335   -8.5377967    255.07209  0.012153235  0.010904053            2 
 1750000   0.56183528   -8.5375602      254.906  0.012138381  0.010894855            1 
 1751000   0.55465263   -8.5325436    254.67561  0.012120484  0.010885654            3 
 1752000   0.55323797   -8.5487969    255.34694  0.012145497  0.010876469            2 
 1753000   0.54905415    -8.549045    255.13044  0.012128277  0.010867293            3 
 1754000   0.56348139   -8.5441341    254.87322  0.012109142  0.010858116            4 
 1755000   0.54848406    -8.548293    254.69292  0.012093681  0.010848974            1 
 1756000    0.5528383   -8.5488943    254.75265  0.012089628  0.010839839            2 
 1757000     0.544124   -8.5242435    255.05459  0.012097069  0.010830709            1 
 1758000    0.5467771   -8.5397783    254.89998  0.012082859  0.010821588            2 
 1759000   0.54664157   -8.5454859     254.4549  0.012054903  0.010812474            2 
 1760000   0.54358504   -8.5284752    255.08342  0.012077813  0.010803369            5 
 1761000   0.54574784   -8.5435946    254.63913   0.01204993   0.01079427            2 
 1762000    0.5564646   -8.5555184    254.93365  0.012057021  0.010785178            2 
 1763000   0.54667004   -8.5375629     255.2153  0.012063495  0.010776089            2 
 1764000   0.54182257   -8.5479958    254.90642  0.012042064  0.010767022            3 
 1765000   0.54809273   -8.5444447    254.55176  0.012018497  0.010757953            2 
 1766000   0.54695363   -8.5582437    254.78855  0.012022865  0.010748889            2 
 1767000   0.55958731   -8.5449447    254.78172  0.012015739  0.010739837            2 
 1768000   0.54946679   -8.5554301    254.83278  0.012011349   0.01073081            2 
 1769000   0.55161385   -8.5481887    254.77075  0.012001637  0.010721784            2 
 1770000   0.54541418   -8.5239213    254.90617  0.012001232  0.010712764            4 
 1771000   0.53602239   -8.5580694    255.19127  0.012007871  0.010703753            2 
 1772000   0.54211605   -8.5535886    254.42998  0.011965292  0.010694748            2 
 1773000   0.55357177   -8.5628821    254.99851  0.011985266  0.010685749            3 
 1774000   0.56295763   -8.5618322    254.64866  0.011962075  0.010676762            2 
 1775000   0.54405262   -8.5496901    254.79111  0.011962024  0.010667788            2 
 1776000   0.53972101   -8.5569908    254.83843  0.011957509  0.010658826            2 
 1777000   0.55671857   -8.5414639    254.82736  0.011950261   0.01064987            3 
 1778000   0.52814931   -8.5432121    254.60616  0.011933172  0.010640938            2 
 1779000   0.52839632   -8.5508829    254.95142  0.011942637  0.010632005            5 
 1780000   0.53886014   -8.5484989    255.05501  0.011940778  0.010623082            2 
 1781000   0.53270392   -8.5629823    254.76783  0.011920636  0.010614165            2 
 1782000   0.54603602   -8.5737238    254.80835  0.011915841  0.010605258            3 
 1783000   0.53882914   -8.5619888    254.64449    0.0119015  0.010596348            3 
 1784000   0.55497353   -8.5561696    255.09365  0.011915809   0.01058745            1 
 1785000    0.5371168   -8.5717047    254.84531   0.01189754  0.010578556            3 
 1786000   0.55222732   -8.5545646    254.71099  0.011884611  0.010569682            3 
 1787000   0.54324605   -8.5529151    254.48385  0.011867368  0.010560811            4 
 1788000   0.53688776   -8.5836038     254.5904  0.011865697  0.010551946            3 
 1789000   0.54666817   -8.5788761    254.45636  0.011852821  0.010543085            2 
 1790000   0.54249221    -8.557272    254.91288  0.011867453  0.010534241            2 
 1791000   0.53125672   -8.5610108    255.12365  0.011870633  0.010525412            2 
 1792000   0.54799407   -8.5659202    255.00552  0.011858516  0.010516591            2 
 1793000   0.53591963   -8.5724479    254.67719  0.011836642  0.010507788            4 
 1794000   0.53166896   -8.5712611    254.79812  0.011835661  0.010498987            3 
 1795000   0.53643796   -8.5697745    254.63555   0.01182152  0.010490195            3 
 1796000   0.54812118   -8.5769247    254.95188  0.011829616    0.0104814            3 
 1797000   0.52822437   -8.5487951    254.72465  0.011812496  0.010472621            1 
 1798000   0.53950947   -8.5621098    254.91913  0.011814939  0.010463844            2 
 1799000   0.53889983   -8.5725683    254.80677  0.011803167  0.010455082            8 
 1800000   0.53660206   -8.5748523    254.43753  0.011779515  0.010446324            2 
 1801000   0.53154343   -8.5533395    255.24084  0.011810144  0.010437576            3 
 1802000   0.54501217   -8.5815849    254.92811  0.011789128  0.010428836            3 
 1803000   0.53315021   -8.5609784    254.56015  0.011765583  0.010420095            2 
 1804000   0.53200113   -8.5673695    254.72955  0.011766886  0.010411376            2 
 1805000   0.53173793   -8.5656293    255.14965  0.011779762  0.010402665            2 
 1806000   0.53022873   -8.5590817    254.89816  0.011761635  0.010393967            2 
 1807000   0.52416974   -8.5779314    254.62706  0.011742624  0.010385281            1 
 1808000   0.52918306   -8.5649679    254.84283  0.011746075  0.010376589            2 
 1809000   0.53931613   -8.5658219    254.55278   0.01172622  0.010367906            3 
 1810000   0.53629778   -8.5513207    254.70676   0.01172683  0.010359228            1 
 1811000   0.54196396   -8.5814853    254.74969  0.011722331  0.010350557            1 
 1812000   0.54864136   -8.5574623    254.32401  0.011696285    0.0103419            1 
 1813000   0.52187956   -8.5992675     254.2645  0.011687098  0.010333247            3 
 1814000   0.52702636   -8.5698549    254.70956  0.011701101  0.010324598            2 
 1815000   0.52814318   -8.5879629    254.51738   0.01168583   0.01031596            3 
 1816000   0.52128248   -8.5682199    254.43341  0.011675542  0.010307327            3 
 1817000   0.53479848   -8.5758528     254.5515  0.011674532  0.010298707            2 
 1818000   0.51978309   -8.5668448    254.09182   0.01164704  0.010290097            4 
 1819000   0.52238022   -8.5846933    254.10753  0.011641357  0.010281498            4 
 1820000   0.53304608   -8.5896291    254.42476  0.011649485   0.01027291            1 
 1821000   0.53272211   -8.5987082    253.98521  0.011622973  0.010264328            3 
 1822000   0.52059037   -8.5799767    254.63261  0.011646204  0.010255752            1 
 1823000    0.5242801   -8.6074974    254.52725     0.011635  0.010247175            2 
 1824000   0.52911967   -8.5722501     254.1641  0.011612029  0.010238622            2 
 1825000   0.51327435   -8.5874505    254.38111  0.011615576  0.010230071            3 
 1826000   0.51137384   -8.5991617    254.13818  0.011598128  0.010221524            2 
 1827000   0.52239445   -8.5773424    254.87067   0.01162519  0.010212998            3 
 1828000   0.50635131   -8.5719867    255.13132  0.011630713  0.010204477            4 
 1829000   0.51699338   -8.5869438    254.52056  0.011596526  0.010195962            3 
 1830000   0.52262566   -8.5841695    254.29549   0.01157994  0.010187449            2 
 1831000   0.51854339    -8.590919    254.18234  0.011568466  0.010178936            2 
 1832000   0.52407871   -8.5872726    254.25665  0.011565532  0.010170432            2 
 1833000   0.52061725    -8.585213    254.74458  0.011581405  0.010161935            3 
 1834000   0.52783726   -8.5742721    254.22605  0.011551529  0.010153455            5 
 1835000   0.51849608   -8.6006909    254.57104  0.011560901  0.010144983            2 
 1836000     0.513194   -8.6018511    254.05086  0.011530994  0.010136517            2 
 1837000   0.53106948   -8.5932582    254.51475  0.011545761  0.010128063            4 
 1838000   0.51037454   -8.6060721    254.22432  0.011526311  0.010119623            3 
 1839000   0.52462919   -8.6044365    254.28651  0.011522862  0.010111171            3 
 1840000   0.51244061    -8.613477    254.33667  0.011518871  0.010102737            4 
 1841000   0.50713654    -8.602959    254.36835  0.011514048  0.010094308            4 
 1842000   0.51234508   -8.5865459    254.17694  0.011499138  0.010085886            3 
 1843000   0.52861317   -8.6144242    253.97473  0.011483755  0.010077485            5 
 1844000   0.50740704   -8.6165458    254.45714  0.011499329  0.010069085            3 
 1845000   0.52557004    -8.596987    254.17464  0.011480336  0.010060693            5 
 1846000   0.51688267   -8.5977047    254.10332  0.011470897  0.010052315            2 
 1847000   0.51506013   -8.6174137     253.8857  0.011454868  0.010043929            3 
 1848000   0.51182337   -8.6209353    253.94954  0.011451549  0.010035555            2 
 1849000   0.50798447   -8.6222768    254.21222  0.011457194  0.010027186            4 
 1850000   0.51338196   -8.6138606    254.23885    0.0114522  0.010018828            3 
 1851000    0.5087984      -8.6178    254.00211  0.011435355  0.010010478            2 
 1852000   0.51495047   -8.6202582    253.88024  0.011423697  0.010002135            2 
 1853000   0.51485843   -8.6060701    254.15744  0.011429998 0.0099938045            3 
 1854000   0.50597053   -8.5974784     253.9862  0.011416136 0.0099854976            2 
 1855000   0.52293071   -8.6065314    253.86725  0.011404638 0.0099771855            2 
 1856000   0.51753883   -8.6091877    253.98467  0.011403766 0.0099688772            4 
 1857000   0.51554322   -8.6082714    253.55082  0.011378155 0.0099605794            3 
 1858000   0.50146571   -8.6160732    254.14796  0.011398814 0.0099522972            1 
 1859000    0.5167995   -8.6259003    254.19201  0.011394657 0.0099440175            2 
 1860000   0.51590326    -8.613494    254.23181  0.011390314 0.0099357561            4 
 1861000   0.51035866   -8.5999618    254.12858  0.011379571 0.0099274925            2 
 1862000   0.50578932   -8.6194672    253.94088  0.011365059 0.0099192414            4 
 1863000   0.51543945   -8.6239461    254.19883  0.011370497 0.0099110036            3 
 1864000   0.50795613   -8.5999723    253.78908  0.011346078 0.0099027664            1 
 1865000   0.50098367   -8.6295091    254.13207   0.01135532 0.0098945336            2 
 1866000   0.49837315   -8.6221623     253.9844   0.01134264 0.0098863158            3 
 1867000   0.50677219   -8.6065076    253.74894  0.011326055 0.0098781007            3 
 1868000   0.49642952   -8.6188951    253.94782  0.011328864 0.0098698984            2 
 1869000   0.50303221   -8.6155957    253.77008  0.011314878 0.0098617082            2 
 1870000   0.50371445   -8.6370714     253.9635  0.011317447 0.0098535114            3 
 1871000   0.50627776   -8.6106186    253.95013  0.011310802 0.0098453352            2 
 1872000   0.50139975   -8.5982645    254.20147  0.011315949   0.00983717            2 
 1873000   0.50784338   -8.6329281    253.99463  0.011300704 0.0098289984            3 
 1874000     0.497693   -8.6085168    253.70101  0.011281617 0.0098208381            2 
 1875000   0.51119241   -8.6333725    253.65871   0.01127372 0.0098126879            4 
 1876000   0.49984596   -8.6226029    253.94286  0.011280333 0.0098045491            2 
 1877000   0.50094814   -8.6214782    253.50363  0.011254823 0.0097964141            3 
 1878000   0.50278462   -8.6292306    253.75283  0.011259888 0.0097882847            2 
 1879000   0.50835261   -8.6322172    254.33595  0.011279757 0.0097801722            2 
 1880000   0.51675578   -8.6181928    253.37171  0.011231016 0.0097720638            3 
 1881000   0.50099374   -8.6412194    254.08504  0.011256647  0.009763966            2 
 1882000   0.50070407   -8.6219445    254.01273  0.011247464 0.0097558734            2 
 1883000   0.49596925   -8.6157909    253.72179  0.011228615 0.0097477851            2 
 1884000   0.50693785   -8.6274803    253.95787  0.011233097 0.0097397021            3 
 1885000   0.50293312   -8.6236277    253.74097  0.011217549 0.0097316314            5 
 1886000   0.50955028   -8.6389084    254.01679  0.011223789 0.0097235724            4 
 1887000   0.49640743   -8.6458668    253.99868  0.011217041 0.0097155181            2 
 1888000   0.50217334   -8.6264856    253.73697  0.011199548 0.0097074663            3 
 1889000   0.51559111   -8.6344935    253.90696  0.011201119 0.0096994295            1 
 1890000   0.48662102   -8.6385687    253.86541   0.01119336 0.0096914023            3 
 1891000   0.48666026   -8.6374097    253.68108  0.011179318   0.00968338            2 
 1892000   0.49213584   -8.6449714    253.93941  0.011184787 0.0096753721            2 
 1893000   0.49939294   -8.6572394    253.38782  0.011154597 0.0096673618            1 
 1894000   0.50755459   -8.6294497    253.90892  0.011171635 0.0096593688            2 
 1895000   0.49920842   -8.6237035    254.03415  0.011171247 0.0096513915            4 
 1896000   0.48765728   -8.6420404    253.73022  0.011151997 0.0096434095            3 
 1897000   0.49487542   -8.6377265    253.73888  0.011146498 0.0096354314            2 
 1898000   0.50632531   -8.6274559    253.79647  0.011143154 0.0096274735            5 
 1899000    0.4933845   -8.6480749    253.48995  0.011123835 0.0096195244            4 
 1900000    0.4894369    -8.643324    253.95017  0.011138165 0.0096115805            2 
 1901000   0.49920408   -8.6455044    253.61541  0.011117632 0.0096036494            3 
 1902000    0.4884371   -8.6423303      253.789  0.011119392 0.0095957184            3 
 1903000   0.49794453   -8.6271441    253.49164  0.011100527 0.0095878003            3 
 1904000   0.49228545   -8.6401507    253.77807  0.011107233 0.0095798934            4 
 1905000   0.49876735   -8.6440968    253.80803  0.011102713 0.0095719878            3 
 1906000   0.48496193   -8.6449126    254.30731  0.011118718 0.0095640873            4 
 1907000   0.49773532   -8.6452074     253.5364    0.0110792 0.0095561952            4 
 1908000   0.50423103   -8.6276927    253.96698  0.011092199  0.009548317            3 
 1909000   0.49136935   -8.6472784    253.44975  0.011063809 0.0095404392            6 
 1910000   0.48022761   -8.6393753    253.61376  0.011065173 0.0095325744            2 
 1911000   0.49121378   -8.6561599    253.69792  0.011063053 0.0095247201            2 
 1912000   0.49143866   -8.6438207    253.32189  0.011040878  0.009516865            3 
 1913000   0.49708627   -8.6513937    253.34844  0.011036263 0.0095090243            3 
 1914000   0.49348932   -8.6494311    254.02252  0.011059845 0.0095011869            2 
 1915000    0.4878961   -8.6403071    253.85514  0.011046786 0.0094933622            2 
 1916000   0.49192405   -8.6439169     253.5183   0.01102637 0.0094855441            3 
 1917000   0.48074982   -8.6293591    253.54949  0.011021974 0.0094777319            4 
 1918000   0.48729608   -8.6537054    253.45093  0.011011945 0.0094699285            3 
 1919000   0.48516364   -8.6616599    253.57819  0.011011733 0.0094621314            2 
 1920000   0.48044942   -8.6435471    253.68469   0.01101062 0.0094543486            3 
 1921000   0.47825903   -8.6549529    253.80834  0.011010252 0.0094465652            1 
 1922000      0.47658   -8.6583154    253.33078  0.010983818 0.0094387944            2 
 1923000    0.4800792   -8.6502723    254.24205  0.011017596 0.0094310281            4 
 1924000   0.48651427   -8.6651906    253.77388  0.010991592 0.0094232734            2 
 1925000   0.47960133   -8.6526986    253.49414  0.010973772  0.009415529            1 
 1926000   0.47617961   -8.6640699    253.55691   0.01097079 0.0094077954            4 
 1927000   0.47162867   -8.6596477    253.69361  0.010971009 0.0094000682            1 
 1928000   0.49512471   -8.6669307    253.45399  0.010954961 0.0093923472            4 
 1929000      0.47003   -8.6270864    253.42643  0.010948092 0.0093846327            3 
 1930000   0.46700169   -8.6541127    253.85622  0.010960977 0.0093769261            3 
 1931000      0.48781   -8.6589967    253.52038  0.010940807 0.0093692331            2 
 1932000    0.4736194   -8.6732224    253.50682  0.010934559 0.0093615474            3 
 1933000   0.47554277   -8.6591517    253.56756  0.010931521 0.0093538635            3 
 1934000   0.48200838   -8.6619476    253.32078  0.010915235 0.0093461811            2 
 1935000   0.47478217   -8.6552861    253.61095  0.010922091 0.0093385123            2 
 1936000   0.47659019   -8.6527022    253.83596  0.010926135 0.0093308513            4 
 1937000   0.48350873   -8.6703618     253.4424  0.010903562 0.0093231952            3 
 1938000   0.47253226   -8.6540067    253.16899  0.010886179 0.0093155455            2 
 1939000   0.47500886   -8.6501252    253.42727  0.010891665 0.0093079096            4 
 1940000   0.47081246   -8.6730357    253.64715  0.010895496  0.009300284            1 
 1941000   0.47608671    -8.662294     253.1507  0.010868569 0.0092926652            3 
 1942000   0.47377465   -8.6589051    253.40336  0.010873814 0.0092850513            2 
 1943000   0.47416421    -8.674135    253.45857  0.010870586 0.0092774533            4 
 1944000   0.48561632   -8.6707071    253.47549  0.010865719 0.0092698522            3 
 1945000   0.47417769    -8.652873    253.21908  0.010849146 0.0092622652            1 
 1946000   0.47461291   -8.6756286    253.26098  0.010845366 0.0092546916            2 
 1947000   0.47492482   -8.6622789    253.76448  0.010861346 0.0092471205            4 
 1948000   0.46558723   -8.6629817     253.7933  0.010857003 0.0092395509            2 
 1949000   0.47671549   -8.6751929    253.19427   0.01082582 0.0092319888            4 
 1950000     0.472019   -8.6801697    253.40076  0.010829092 0.0092244357            3 
 1951000   0.47366879   -8.6724184    253.28886  0.010818762 0.0092168887            2 
 1952000    0.4811523   -8.6453783    253.18912  0.010808962 0.0092093604            1 
 1953000   0.48384891   -8.6847241    253.80689  0.010829787   0.00920184            5 
 1954000   0.47471368   -8.6744987    253.65908  0.010817941 0.0091943266            4 
 1955000   0.46829391   -8.6568291    253.28883  0.010796625 0.0091868196            9 
 1956000   0.46965707   -8.6563746    253.32868  0.010792803 0.0091793044            4 
 1957000   0.46544147   -8.6709337    253.43251   0.01079171 0.0091718013            2 
 1958000   0.47580038   -8.6651057    253.37324  0.010783675 0.0091643124            3 
 1959000   0.48262033   -8.6675344    253.25043  0.010772947 0.0091568283            4 
 1960000   0.47860479   -8.6826543    253.39133  0.010773441 0.0091493476            3 
 1961000   0.46294018   -8.6845301    253.30909  0.010764452 0.0091418743            3 
 1962000    0.4737687   -8.6777585    253.19262  0.010754019 0.0091344127            3 
 1963000   0.48888753   -8.6833611    253.32799  0.010754287 0.0091269651            4 
 1964000   0.46081336   -8.6745698    253.44934   0.01075396 0.0091195178            1 
 1965000   0.48354074   -8.6676834    252.96793  0.010728072 0.0091120789            4 
 1966000   0.46934586   -8.6871275    253.19594   0.01073228 0.0091046523            3 
 1967000   0.45752273   -8.6726676    253.02556  0.010719605 0.0090972293            2 
 1968000   0.47847616   -8.6778799    253.46652   0.01073283 0.0090898058            2 
 1969000   0.47104709     -8.69781    253.76498  0.010740011 0.0090824001            2 
 1970000   0.45830058   -8.6794175    252.99466  0.010701974 0.0090749971            1 
 1971000   0.46299216   -8.6679829    253.25301  0.010707467 0.0090676085            3 
 1972000   0.46939298   -8.6870829    253.13779  0.010697168 0.0090602258            3 
 1973000   0.46602758   -8.6853427    253.42837   0.01070402 0.0090528513            1 
 1974000   0.45273996   -8.6850888    253.58875  0.010705368 0.0090454809            2 
 1975000   0.46868664   -8.6660877    253.20675  0.010683829 0.0090381256            1 
 1976000   0.46475759   -8.6944242    252.96669  0.010668298  0.009030769            1 
 1977000   0.46503061   -8.6777798    253.20889  0.010673111 0.0090234198            3 
 1978000   0.45663275   -8.6861326     253.3206  0.010672422 0.0090160751            2 
 1979000    0.4692102   -8.6858669    253.15946  0.010660243  0.009008749            2 
 1980000   0.46577383   -8.6805387    253.07558  0.010651329 0.0090014274            3 
 1981000   0.47035378   -8.6886178    252.87607   0.01063756 0.0089941112            3 
 1982000   0.45842077   -8.6722462    253.27116  0.010648804 0.0089868085            3 
 1983000   0.46150292   -8.6969165    252.99015  0.010631625 0.0089795065            4 
 1984000     0.469285    -8.697762    252.98467  0.010626036 0.0089722128            2 
 1985000   0.46152276    -8.689401    253.32645  0.010635031 0.0089649277            3 
 1986000   0.46026025   -8.6978546    253.35452  0.010630854 0.0089576544            2 
 1987000    0.4606105   -8.6817433    253.21253  0.010619549 0.0089503825            4 
 1988000   0.45944487    -8.696158    253.16437  0.010612188 0.0089431192            3 
 1989000   0.44540248   -8.6869254    252.84311  0.010593393 0.0089358665            2 
 1990000   0.46564142   -8.6773878    253.03486    0.0105961 0.0089286199            3 
 1991000   0.46225382   -8.7045828    252.94119  0.010586857 0.0089213785            2 
 1992000    0.4478947   -8.6851429    253.14206  0.010589945 0.0089141439            3 
 1993000   0.45553174   -8.6913967    252.97579   0.01057768 0.0089069221            6 
 1994000   0.46456913   -8.6688592    253.01664  0.010574082 0.0088997041            3 
 1995000   0.46046259   -8.6918758    253.19219  0.010576115 0.0088924949            2 
 1996000    0.4583099   -8.6791863    253.14824  0.010568981 0.0088852837            3 
 1997000   0.45200225   -8.6905803    253.31497  0.010570646  0.008878083            3 
 1998000   0.45109491   -8.6887571    252.93372  0.010549455 0.0088708904            3 
 1999000   0.44985965     -8.70622    253.24783  0.010557272 0.0088637018            2 
 2000000   0.45744393   -8.6826132    253.05689  0.010544037 0.0088565277            3 
 2001000   0.45962707   -8.7050624    253.29442   0.01054866  0.008849358            4 
 2002000   0.44426713   -8.7005648    253.21942  0.010540269 0.0088421925            4 
 2003000   0.45048113   -8.7071714    253.33746  0.010539918 0.0088350326            2 
 2004000   0.45408253   -8.7040358    252.83594  0.010513803 0.0088278796            4 
 2005000    0.4565116   -8.7043861    252.97185  0.010514208  0.008820735            5 
 2006000    0.4525863   -8.6855803    253.02015  0.010510973 0.0088135954            2 
 2007000   0.44842526   -8.7025894     253.0501   0.01050698 0.0088064585            1 
 2008000   0.44931751   -8.7098429    253.29626  0.010511963 0.0087993333            5 
 2009000   0.44524517   -8.7001318    253.05083   0.01049655  0.008792218            3 
 2010000   0.45892849   -8.7014401    253.03551  0.010490693 0.0087851099            1 
 2011000   0.45130385   -8.7204851    252.75055  0.010473668  0.008778009            3 
 2012000    0.4601607   -8.7015942    252.80946  0.010470902   0.00877092            4 
Loop time of 4900.83 on 48 procs for 2000000 steps with 4000 atoms

Performance: 70518.645 tau/day, 408.094 timesteps/s
99.4% CPU use with 48 MPI tasks x no OpenMP threads

MPI task timing breakdown:
Section |  min time  |  avg time  |  max time  |%varavg| %total
---------------------------------------------------------------
Pair    | 296.45     | 319.93     | 346.91     |  68.9 |  6.53
Neigh   | 31.707     | 33.088     | 35.153     |  12.6 |  0.68
Comm    | 293.96     | 323.17     | 352.38     |  87.6 |  6.59
Output  | 4.1346     | 4.137      | 4.1693     |   0.2 |  0.08
Modify  | 4157.7     | 4175.1     | 4188       |  11.6 | 85.19
Other   |            | 45.43      |            |       |  0.93

Nlocal:        83.3333 ave          96 max          78 min
Histogram: 2 11 14 12 4 4 0 0 0 1
Nghost:        2085.83 ave        2105 max        2065 min
Histogram: 1 0 4 9 8 8 10 4 2 2
Neighs:        13510.0 ave       16535 max       12068 min
Histogram: 6 5 11 12 8 4 0 1 0 1
FullNghs:      27021.9 ave       31637 max       25404 min
Histogram: 8 8 15 9 5 2 0 0 0 1

Total # of neighbors = 1297053
Ave neighs/atom = 324.26325
Neighbor list builds = 107093
Dangerous builds = 0

#clear
#
#next RN
#
#jump SELF
Total wall time: 1:21:44
