
units lj                  # Use reduced LJ style units
atom_style atomic         # Uncharged point particles
atom_modify map hash      # Needed for indexing of clusters etc
                          # Used to be able to find where atoms are in relation to each other.

lattice fcc 1.0 spacing 1 1 1
Lattice spacing in x,y,z = 1.5874011 1.5874011 1.5874011
region box block 0 10 0 10 0 10 units lattice
create_box 2 box
Created orthogonal box = (0.0000000 0.0000000 0.0000000) to (15.874011 15.874011 15.874011)
  3 by 4 by 4 MPI processor grid
create_atoms 1 box
Created 4000 atoms
  using lattice units in orthogonal box = (0.0000000 0.0000000 0.0000000) to (15.874011 15.874011 15.874011)
  create_atoms CPU = 0.003 seconds
set type 1 type/fraction 2 0.62 78393
Setting atom values ...
  2494 settings made for type/fraction
mass 1 1.0
mass 2 1.0
pair_style lj/cut  3.5
pair_modify tail  yes
pair_coeff 1  1  1.0  1.0   # Intearaction between 1 and 1 set with epsilon = 1 and sigma = 1
pair_coeff 1  2  1.5  0.8
pair_coeff 2  2  0.5  0.88

write_data data.0
System init for write_data ...
Neighbor list info ...
  update every 1 steps, delay 10 steps, check yes
  max neighbors/atom: 2000, page size: 100000
  master list distance cutoff = 3.8
  ghost atom cutoff = 3.8
  binsize = 1.9, bins = 9 9 9
  1 neighbor lists, perpetual/occasional/extra = 1 0 0
  (1) pair lj/cut, perpetual
      attributes: half, newton on
      pair build: half/bin/atomonly/newton
      stencil: half/bin/3d
      bin: standard
WARNING: Not all mixed pair coeffs generated from mixing. Use write_data with 'pair ij' option to store all pair coeffs. (../write_data.cpp:312)


#############################
#   M E L T   S Y S T E M   #
#############################

velocity all create 2.4 3143649 mom yes dist gaussian # Assign velocities
                                                    # Temperature 2.4, random number seed, zero linear momentum
                                                                                # Gaussian distribution

timestep 0.002   # simulation timestep
thermo 1000       # output thermodynamic data every 1000 steps bf 100

# Define a fix  in this case with index 1 applied to all
# particles in the simulation. This fix is for simulations
# in the anisotropic NPT ensemble. Note that we use the MTK
# correction.
fix 1 all npt temp 2.4 2.4 0.1 iso 5.68 5.68 0.5 mtk yes tchain 5 pchain 5 # Use NPT ensemble
                                                                         # Set temperature and pressure and damping
                                                                         # Numbers of thermostats in chain and in barostat
run 10000          # run for 10000 steps
Per MPI rank memory allocation (min/avg/max) = 3.642 | 3.644 | 3.648 Mbytes
Step Temp E_pair E_mol TotEng Press Volume 
       0          2.4   -4.6132646            0   -1.0141646   -4.0148013         4000 
    1000    2.4006388   -4.3917366            0  -0.79167866    5.6686841    3594.6413 
    2000    2.4310763   -4.3980587            0   -0.7523558    6.0632032     3567.248 
    3000    2.4290038   -4.3221336            0  -0.67953879     5.743297    3631.1236 
    4000    2.3353835   -4.3215494            0  -0.81934995    5.7485096    3618.2316 
    5000     2.387976   -4.4193224            0  -0.83825381    5.2259982    3609.4352 
    6000    2.3726987   -4.3397583            0  -0.78160004     5.929102    3601.0479 
    7000    2.4132047   -4.2630244            0  -0.64412236    5.6050584    3668.2973 
    8000    2.3630181   -4.3767004            0  -0.83305933    5.3273854     3615.203 
    9000    2.4581303   -4.3827677            0  -0.69649408    5.5243425    3622.6017 
   10000    2.4131392   -4.4546826            0  -0.83587874    5.5585677    3574.2765 
Loop time of 2.67674 on 48 procs for 10000 steps with 4000 atoms

Performance: 645561.357 tau/day, 3735.887 timesteps/s
99.6% CPU use with 48 MPI tasks x no OpenMP threads

MPI task timing breakdown:
Section |  min time  |  avg time  |  max time  |%varavg| %total
---------------------------------------------------------------
Pair    | 1.221      | 1.2806     | 1.3714     |   2.9 | 47.84
Neigh   | 0.21938    | 0.22586    | 0.24259    |   0.9 |  8.44
Comm    | 0.81165    | 0.9011     | 0.98042    |   3.9 | 33.66
Output  | 0.00024897 | 0.00025398 | 0.00032379 |   0.0 |  0.01
Modify  | 0.2247     | 0.2534     | 0.29835    |   3.4 |  9.47
Other   |            | 0.01555    |            |       |  0.58

Nlocal:        83.3333 ave          90 max          77 min
Histogram: 6 5 4 4 5 2 13 0 3 6
Nghost:        1767.67 ave        1783 max        1736 min
Histogram: 1 0 2 4 3 8 4 11 6 9
Neighs:        10686.4 ave       12435 max        9508 min
Histogram: 4 5 7 9 7 7 5 2 1 1

Total # of neighbors = 512945
Ave neighs/atom = 128.23625
Neighbor list builds = 909
Dangerous builds = 229

# Equilibrate just above the melting temperature to avoid step fn in T

fix 1 all npt temp 1.25 1.25 0.1 iso 5.68 5.68 0.5 mtk yes tchain 5 pchain 5
run 2000
Per MPI rank memory allocation (min/avg/max) = 3.644 | 3.646 | 3.650 Mbytes
Step Temp E_pair E_mol TotEng Press Volume 
   10000    2.4131392   -4.4546826            0  -0.83587874    5.5585677    3574.2765 
   11000    1.2336535    -6.362228            0   -4.5122103    5.4993493    2770.7955 
   12000     1.222635   -6.4749931            0    -4.641499    5.6793111     2738.231 
Loop time of 0.679647 on 48 procs for 2000 steps with 4000 atoms

Performance: 508499.612 tau/day, 2942.706 timesteps/s
99.6% CPU use with 48 MPI tasks x no OpenMP threads

MPI task timing breakdown:
Section |  min time  |  avg time  |  max time  |%varavg| %total
---------------------------------------------------------------
Pair    | 0.29562    | 0.33028    | 0.37623    |   2.6 | 48.60
Neigh   | 0.040593   | 0.043906   | 0.049508   |   0.8 |  6.46
Comm    | 0.20448    | 0.25591    | 0.29443    |   3.4 | 37.65
Output  | 5.2341e-05 | 5.3535e-05 | 6.8384e-05 |   0.0 |  0.01
Modify  | 0.041467   | 0.044488   | 0.047878   |   0.9 |  6.55
Other   |            | 0.005015   |            |       |  0.74

Nlocal:        83.3333 ave          90 max          79 min
Histogram: 8 7 5 5 4 9 5 2 1 2
Nghost:        2120.75 ave        2138 max        2100 min
Histogram: 1 2 4 5 8 8 6 8 4 2
Neighs:        13943.7 ave       15490 max       12638 min
Histogram: 2 4 8 7 9 6 3 4 4 1

Total # of neighbors = 669299
Ave neighs/atom = 167.32475
Neighbor list builds = 142
Dangerous builds = 9

#############################
# L I N E A R  Q U E N C H  #
#############################

# Define solid atoms. This closely follows ten Wolde  Ruiz-Montero and Frenkel  Faraday Discuss  1996  104  93-110
# Compute components of the per-atom q6 vector
compute q6 all orientorder/atom degrees 1 6 components 6 nnn NULL cutoff 1.3 # compute the Q6 parameter.
                                                                             # Use all neighbours within 1.3 unit cell.

# get number of connections
compute coord_number all coord/atom orientorder q6 0.5

# An atom is solid if it has 8 or more connections (of a possible 14)
variable is_solid atom c_coord_number>=8
group solid dynamic all var is_solid    # Must be dynamic to update
dynamic group solid defined

# do clustering
compute cluster solid cluster/atom 1.3 # Create a cluster where all atoms within are solid and max 1.3 units from another member

# define chunks one chunk per cluster
compute clus_chunks solid chunk/atom c_cluster nchunk every compress yes  # Says which atoms are in which chunk

# count the size of each chunk
compute size_chunks solid property/chunk clus_chunks count


# Find the maximum entry in the vector of chunk sizes
variable max_n equal max(c_size_chunks)


# Thermo style which includes this variable
# thermo_style custom step temp pe vol v_max_n

thermo ${N}  # Print the thermo information every 100 steps
thermo 1000  

# Reset the npt fix at a lower temperature (below freezing)
fix 1  all npt temp  ${temp} ${temp}  0.1  iso  5.68  5.68  0.5  mtk yes tchain  5  pchain  5
fix 1  all npt temp  0.45 ${temp}  0.1  iso  5.68  5.68  0.5  mtk yes tchain  5  pchain  5
fix 1  all npt temp  0.45 0.45  0.1  iso  5.68  5.68  0.5  mtk yes tchain  5  pchain  5

dump dmp2 all dcd ${N} traj.dcd
dump dmp2 all dcd 1000 traj.dcd


compute msd all msd com yes
variable twopoint equal c_msd[4]/6/(step*dt+1.0e-6)
fix 9 all vector 10 c_msd[4]
variable fit equal slope(f_9)/6/(10*dt)
thermo_style custom step temp pe c_msd[4] v_twopoint v_fit v_max_n

fix 1 all npt temp 1.25 ${temp} 0.1 iso 5.68 5.68 0.5 mtk yes tchain 5 pchain 5
fix 1 all npt temp 1.25 0.45 0.1 iso 5.68 5.68 0.5 mtk yes tchain 5 pchain 5
run 2000000 # 5000000  # Run for this many steps
Neighbor list info ...
  update every 1 steps, delay 10 steps, check yes
  max neighbors/atom: 2000, page size: 100000
  master list distance cutoff = 3.8
  ghost atom cutoff = 3.8
  binsize = 1.9, bins = 8 8 8
  4 neighbor lists, perpetual/occasional/extra = 1 3 0
  (1) pair lj/cut, perpetual
      attributes: half, newton on
      pair build: half/bin/atomonly/newton
      stencil: half/bin/3d
      bin: standard
  (2) compute orientorder/atom, occasional
      attributes: full, newton on
      pair build: full/bin/atomonly
      stencil: full/bin/3d
      bin: standard
  (3) compute coord/atom, occasional
      attributes: full, newton on
      pair build: full/bin/atomonly
      stencil: full/bin/3d
      bin: standard
  (4) compute cluster/atom, occasional
      attributes: full, newton on
      pair build: full/bin/atomonly
      stencil: full/bin/3d
      bin: standard
Per MPI rank memory allocation (min/avg/max) = 9.849 | 9.853 | 9.857 Mbytes
Step Temp PotEng c_msd[4] v_twopoint v_fit v_max_n 
   12000     1.222635   -6.4749931 2.8288552e-30 1.9644827e-32 8.3333333e+20            2 
   13000     1.217838   -6.4596953   0.53797136 0.0034485342  0.044092464            2 
   14000    1.2535321   -6.4690609    1.0381019 0.0061791778  0.043069477            2 
   15000    1.2627294   -6.4990888    1.5169272 0.0084273728  0.041829234            1 
   16000    1.2413681    -6.459494    1.9558042   0.01018648   0.04067412            1 
   17000    1.2607646   -6.4768498    2.4031817  0.011780302  0.039606446            4 
   18000    1.2531929   -6.5006812    2.8253577   0.01308036  0.038808508            2 
   19000    1.2324833   -6.4375381    3.3070728  0.014504705  0.038431685            1 
   20000    1.2580081   -6.4580401     3.735056  0.015562733  0.038244966            2 
   21000    1.2633877   -6.4720101    4.2326874  0.016796378  0.038318009            1 
   22000    1.2332748   -6.5336998    4.6718495  0.017696399  0.038375281            2 
   23000    1.2431605   -6.4852759    5.1584846  0.018690161  0.038330645            3 
   24000    1.2228354   -6.4768665    5.5334295  0.019213296  0.038160104            2 
   25000     1.236691   -6.4746041     6.016248   0.02005416  0.038006351            3 
   26000    1.2641452   -6.4754806    6.4231975  0.020587171  0.037954048            2 
   27000    1.2472187   -6.4900358    6.7743798  0.020908579  0.037679893            2 
   28000    1.2295917   -6.4827522    7.2080673  0.021452581  0.037427754            1 
   29000    1.2151183    -6.471116    7.6897571  0.022097003  0.037253024            2 
   30000    1.2518975   -6.4469063    8.1354035  0.022598343  0.037171183            3 
   31000    1.2198188   -6.5424053    8.5744229  0.023049524    0.0370664            3 
   32000    1.2474827   -6.4949275    9.0212215  0.023492764  0.037011026            3 
   33000    1.2398961   -6.5115881    9.4148403  0.023774849  0.036935105            2 
   34000    1.2434807   -6.5101813    9.8816901  0.024219828  0.036897896            5 
   35000    1.2497049    -6.459405    10.439517  0.024855993   0.03689907            4 
   36000     1.236459   -6.4612044    10.920727   0.02527946  0.036963992            3 
   37000    1.2313226   -6.4572545     11.26237  0.025365698  0.037009319            4 
   38000    1.2100165   -6.4751849    11.814926  0.025909924  0.037029006            2 
   39000    1.2319393   -6.4819396    12.274666  0.026227918  0.037086947            2 
   40000    1.2351205   -6.4894107    12.692962  0.026443671  0.037158627            1 
   41000    1.2475987   -6.4789051    13.164347  0.026756803  0.037220258            3 
   42000    1.2669323    -6.499666    13.701955  0.027186419  0.037271193            2 
   43000    1.2213319   -6.4808073    14.204108   0.02752734  0.037362284            3 
   44000    1.2832844   -6.4918442    14.709855  0.027859573  0.037479026            3 
   45000    1.2252355   -6.5196466    15.084889  0.027934978  0.037570222            3 
   46000    1.2841388   -6.5706176      15.3659  0.027836775  0.037612242            4 
   47000    1.2403147   -6.4826603    16.076583  0.028504579  0.037629614            2 
   48000    1.2183637   -6.5050282    16.391727  0.028457858  0.037628149            2 
   49000    1.2673382   -6.5812199    16.783896  0.028544041  0.037636238            2 
   50000    1.2320102   -6.5277552    17.219853  0.028699754  0.037632368            4 
   51000    1.2283413   -6.4805443    17.795307  0.029077298  0.037636361            3 
   52000    1.2438514   -6.5668155    18.215242  0.029191093  0.037652204            4 
   53000    1.2187859    -6.477934    18.757361  0.029492705  0.037667551            7 
   54000    1.2571526   -6.5135742    18.969662  0.029274169   0.03764717            3 
   55000    1.2218086   -6.4226019    19.357467  0.029329495  0.037598479            1 
   56000    1.2355728   -6.5374623     19.70904  0.029328928  0.037538133            4 
   57000    1.2397918   -6.5244927     20.13971   0.02944402  0.037504507            4 
   58000     1.228024   -6.5315959    20.671129  0.029699897  0.037484947            2 
   59000    1.2438217    -6.606514    21.141864  0.029861389  0.037469276            2 
   60000    1.2220649   -6.5619041    21.493288  0.029851789  0.037444637            3 
   61000    1.2297516   -6.5098046    21.920573  0.029946138  0.037403371            4 
   62000    1.2167197   -6.5530131    22.253755  0.029910961  0.037332859            2 
   63000    1.2552064   -6.5270098    22.622095  0.029923406  0.037261916            2 
   64000    1.2308531    -6.496249    23.147914  0.030140512  0.037208602            5 
   65000     1.205665   -6.5348108    23.520659  0.030154691  0.037154134            1 
   66000    1.2309055   -6.4625046    23.987505  0.030287253   0.03709993            1 
   67000    1.2325672   -6.5081732    24.467491  0.030432203  0.037055818            4 
   68000    1.2701428   -6.5485489    24.781345  0.030369295  0.037010988            4 
   69000    1.2145494   -6.5579065    25.217231  0.030455592  0.036970327            2 
   70000    1.2716751    -6.530847    25.577904  0.030449886  0.036929017            2 
   71000    1.2441132   -6.5223067    26.066415  0.030594384  0.036879935            2 
   72000    1.2280294   -6.5538257    26.509704  0.030682528  0.036843705            2 
   73000    1.2449284    -6.557187     26.86238  0.030664817  0.036806641            4 
   74000    1.2026878   -6.5203869    27.304139  0.030747904  0.036768287            7 
   75000     1.193419   -6.4956132    27.757051  0.030841168  0.036724268            3 
   76000    1.2145613   -6.4966203     28.17344  0.030891929  0.036679121            2 
   77000    1.2375418   -6.4953735    28.539065  0.030886434  0.036643937            3 
   78000    1.2091355    -6.507837    28.914333  0.030891382  0.036597619            2 
   79000    1.2108247   -6.5419235    29.502905  0.031121208  0.036557508            3 
   80000    1.2243741    -6.553714    29.961513  0.031209909  0.036534003            2 
   81000    1.2078572   -6.5439938    30.308602  0.031181689  0.036510293            1 
   82000    1.2062418   -6.5573117    30.658565  0.031157078  0.036478396            2 
   83000     1.239053   -6.5753908    30.892285   0.03101635  0.036442224            1 
   84000    1.1978614   -6.5341915    31.477682  0.031227859  0.036409465            3 
   85000    1.2451126   -6.5535879    31.943901   0.03131755  0.036389454            2 
   86000    1.2396674   -6.5181452    32.557224  0.031547698  0.036374002            2 
   87000    1.2255074    -6.541722    32.910049  0.031523035  0.036357289            2 
   88000    1.2123808    -6.525809    33.451386  0.031677449  0.036351411            4 
   89000     1.204073   -6.5451573    33.789334  0.031637953  0.036343769            6 
   90000     1.228853   -6.5677315    34.497263   0.03194191  0.036343875            3 
   91000    1.2336479   -6.5610074    35.073903  0.032118959  0.036358255            3 
   92000     1.233782   -6.5587503    35.577194  0.032225719  0.036378955            4 
   93000    1.2085831   -6.5255248    35.916797   0.03218351  0.036397242            1 
   94000    1.2324753   -6.5203119     36.57305  0.032422917  0.036414706            2 
   95000    1.2069746   -6.5032666    36.767189   0.03225192  0.036428264            2 
   96000    1.2054393   -6.4938342    37.161616  0.032258347  0.036439016            2 
   97000    1.1976312   -6.5927399    37.287446  0.032033888  0.036437614            3 
   98000    1.2350725   -6.4854674    38.023981  0.032333317  0.036430986            3 
   99000    1.2102717   -6.5591317    37.907891  0.031908999  0.036407982            3 
  100000      1.23155   -6.5691584    38.279773   0.03189981  0.036372256            4 
  101000    1.2347752   -6.5666938    38.602419   0.03185018  0.036334912            1 
  102000    1.1999404   -6.5330047    39.079696  0.031927856   0.03629484            7 
  103000     1.201626   -6.5426359    39.544601  0.031994014  0.036264283            3 
  104000    1.2117975   -6.5278686    39.768492  0.031865779  0.036231875            1 
  105000    1.2195323   -6.5348249    40.362817  0.032033982  0.036200351            1 
  106000    1.2295525   -6.5183515    40.731567  0.032021672  0.036172617            3 
  107000    1.1932897   -6.5657378    41.004406  0.031934895  0.036135595            2 
  108000    1.2245634   -6.5965233     41.40163  0.031945702  0.036101289            3 
  109000    1.2058359   -6.5922119    41.723033  0.031898343  0.036062451            3 
  110000    1.2092173   -6.5690168    42.064218  0.031866831  0.036024863            3 
  111000    1.2506778   -6.6091523    42.259044  0.031726009  0.035982176            2 
  112000    1.2274166   -6.5851555    42.577553  0.031679727  0.035928251            2 
  113000    1.2329968   -6.6134308    42.805586  0.031567541  0.035869669            3 
  114000    1.1968122   -6.5241031    43.514291  0.031808692  0.035816474            3 
  115000    1.2157258   -6.5887385    43.795905  0.031736163  0.035765735            1 
  116000      1.21534   -6.5745866    44.383827  0.031884933  0.035725723            1 
  117000    1.2111045   -6.5722108    44.746215  0.031870523  0.035685607            2 
  118000    1.1729043   -6.4981911    45.326886  0.032010512  0.035648223            2 
  119000    1.1988251   -6.5916529    45.678522   0.03198776  0.035617387            3 
  120000    1.2043855   -6.6023851    46.276669  0.032136575  0.035586092            2 
  121000    1.2108924   -6.6035211    46.534187  0.032048338  0.035557696            2 
  122000     1.214103   -6.5434892     47.21933   0.03225364  0.035532312            1 
  123000    1.2096013   -6.5747282    47.407446  0.032118865   0.03550864            1 
  124000     1.202125   -6.5528052    48.048565  0.032290702  0.035488143            3 
  125000    1.1809398   -6.5808975    48.223184  0.032148789  0.035461594            4 
  126000    1.1836316   -6.5867028    48.783489  0.032264212  0.035439675            5 
  127000    1.1959322   -6.5793495    49.265793  0.032326635  0.035422992            2 
  128000    1.2073011   -6.5473032    49.610601  0.032298569   0.03540565            3 
  129000    1.2051264   -6.5747907    50.019633  0.032312424  0.035385214            3 
  130000    1.1844955   -6.6165865    50.375298  0.032291857  0.035362733            1 
  131000    1.2031825   -6.6279915    50.493849  0.032120769  0.035338992            2 
  132000    1.2039212   -6.5671395    51.091236  0.032254568  0.035315811            8 
  133000    1.2218853   -6.6199197    51.435448  0.032227724  0.035295626            4 
  134000    1.1857473   -6.5981617    51.606172   0.03209339  0.035273138            3 
  135000    1.2169322    -6.604403    51.778254  0.031961885  0.035244926            1 
  136000    1.2156581     -6.59345    52.277778  0.032032952  0.035214598            3 
  137000    1.2049254    -6.568573    52.891952   0.03217272  0.035185456            2 
  138000    1.1937116   -6.5971934     53.10445  0.032067904  0.035155634            7 
  139000    1.2065928   -6.6113663    53.153653  0.031866698   0.03512305            2 
  140000    1.2068059   -6.5875503    53.768762  0.032005215   0.03509094            2 
  141000    1.1998138   -6.6220481     53.97784  0.031901796   0.03505996            3 
  142000    1.1927463    -6.548386    54.651673  0.032072578  0.035027418            2 
  143000    1.2210362   -6.6178287    55.220843  0.032179979  0.034997484            3 
  144000    1.1873521   -6.5956072    55.182058  0.031934061  0.034969561            2 
  145000    1.1839188   -6.6052558    55.752012  0.032041386  0.034936297            2 
  146000     1.210455   -6.6333757    55.655679   0.03176694  0.034898928            3 
  147000    1.2055569   -6.6130182    56.225741  0.031874003  0.034861302            3 
  148000    1.2235543   -6.5630383     56.91456  0.032046486  0.034827486            2 
  149000    1.1768619   -6.5836861    57.005042  0.031882014  0.034795865            4 
  150000    1.2069001   -6.6130522    57.450121  0.031916734  0.034761765            2 
  151000     1.166945   -6.6398474    57.791305  0.031893656  0.034731556            2 
  152000    1.1863684   -6.6151183      58.1248  0.031866667  0.034700343            5 
  153000    1.1912047   -6.5939376     58.62299  0.031929733  0.034669926            3 
  154000    1.2092229    -6.621587    59.064208  0.031961152   0.03463774            3 
  155000     1.199707   -6.6305269    58.866739  0.031648784  0.034606045            2 
  156000     1.197289   -6.6166581     59.76295  0.031924653  0.034574476            4 
  157000    1.1934132   -6.6246452    59.938168  0.031814314  0.034545093            2 
  158000     1.208283   -6.6020235    60.454087  0.031885067  0.034513779            3 
  159000    1.1874378    -6.568895    60.935566  0.031936879  0.034483962            3 
  160000    1.1979847   -6.6446924    61.288671  0.031921183   0.03445646            3 
  161000     1.170112   -6.5994902    61.769458  0.031971769  0.034426299            2 
  162000    1.1770001   -6.6442573    62.219913  0.032006128  0.034403141            3 
  163000    1.1744405   -6.5802986     62.78039  0.032096314  0.034380227            2 
  164000    1.1883767   -6.6144955    62.838754  0.031930261  0.034359085            2 
  165000     1.209784   -6.6185819    63.361154  0.032000583  0.034337122            2 
  166000    1.1976336   -6.5460116    63.731432  0.031993691   0.03431529            2 
  167000    1.1764726   -6.5973056    64.046995  0.031959578  0.034291246            1 
  168000    1.1705612   -6.5936889    64.647217  0.032067072  0.034268246            3 
  169000    1.1894693   -6.6446196    64.858965  0.031981738  0.034246444            2 
  170000    1.1814111   -6.6173723    65.391273  0.032054546  0.034227279            2 
  171000    1.1811847   -6.6416112    65.522418  0.031931003  0.034205231            1 
  172000    1.1913062   -6.5992459    65.842527  0.031900449  0.034180979            3 
  173000    1.1805229   -6.6239455    66.184491  0.031880776  0.034157553            4 
  174000    1.1661555    -6.576262    66.854973  0.032018665  0.034133042            5 
  175000     1.172348   -6.6313418    66.549091  0.031690043  0.034107486            1 
  176000    1.2028743   -6.6630115    67.019593  0.031732762  0.034078534            2 
  177000    1.1657575   -6.6253856    67.365437  0.031716307  0.034049758            4 
  178000    1.1901323   -6.5809352     68.18824  0.031923333   0.03402336            4 
  179000    1.1957577   -6.6372035    68.022503  0.031667832  0.033995683            6 
  180000    1.1938686   -6.6326635    68.281886  0.031611984  0.033967479            3 
  181000    1.1532996   -6.6344713    68.728427  0.031642922  0.033939471            2 
  182000    1.2007746   -6.6464118    69.162205  0.031667676  0.033909134            1 
  183000    1.1782005   -6.6195648    69.398958   0.03160244  0.033878736            2 
  184000    1.1840405   -6.6391771    69.641443  0.031540509  0.033849675            5 
  185000    1.1992123   -6.6247591    70.333845  0.031681912  0.033818829            4 
  186000    1.1802375   -6.6263811    70.867732  0.031750776  0.033793498            2 
  187000    1.2030913   -6.6376457    70.964894  0.031624284  0.033767665            2 
  188000    1.1709107   -6.5881442    71.693518  0.031779042  0.033743596            4 
  189000    1.1774847   -6.6139241    72.200626  0.031834491  0.033721124            2 
  190000     1.176017   -6.6296498    72.177673  0.031656874  0.033700097            1 
  191000    1.1725411     -6.63727    72.515748  0.031638634  0.033677322            2 
  192000     1.189144   -6.7006563    72.422485   0.03143337  0.033651451            5 
  193000    1.1667684   -6.6483343    73.186041   0.03160019  0.033624977            2 
  194000    1.1925998    -6.615088    73.754499  0.031681486  0.033601181            2 
  195000     1.139442   -6.6878997    74.059332  0.031649287  0.033578007            2 
  196000     1.166468   -6.6102989    74.858737  0.031827694  0.033557105            2 
  197000    1.2147668   -6.6550208    74.614392  0.031562772  0.033537209            2 
  198000    1.1867196   -6.6188948    75.378233  0.031724845   0.03351706            2 
  199000    1.1560472   -6.6559679     75.59187  0.031654887  0.033495153            5 
  200000    1.1778301   -6.6752467    75.844775  0.031601989  0.033471824            2 
  201000    1.1866986   -6.6323623    76.493006  0.031713518  0.033448957            2 
  202000    1.1694413   -6.6656398    76.678877    0.0316332  0.033428113            5 
  203000    1.1884922   -6.6592528    76.839198  0.031543184  0.033406747            3 
  204000    1.1793335   -6.6130325    77.257128  0.031559284  0.033384718            2 
  205000    1.1624648   -6.6227073    78.065899  0.031734105  0.033363847            4 
  206000      1.16385   -6.6350293     78.25584  0.031656893  0.033344439            4 
  207000    1.1923042   -6.6620557    78.438262    0.0315774  0.033325503            3 
  208000    1.1709049   -6.6582582    78.827057  0.031581353  0.033306614            5 
  209000    1.1737087   -6.6518598    79.400477  0.031658882  0.033289208            2 
  210000    1.1618493   -6.6384616    79.440191  0.031523885   0.03327045            2 
  211000     1.152379    -6.648915    79.740364  0.031493035  0.033247762            2 
  212000      1.15426   -6.6355975    80.235472    0.0315391  0.033224985            5 
  213000    1.1531127   -6.6126518    80.637151  0.031548181  0.033202527            2 
  214000    1.1658665   -6.6414869    80.900412  0.031503276  0.033180229            7 
  215000     1.156402   -6.6383631    80.957486  0.031378871  0.033157268            2 
  216000    1.1640999   -6.6660077    81.181693  0.031320097   0.03313134            1 
  217000    1.1707143   -6.6894774    81.441693  0.031275612  0.033105359            3 
  218000    1.1824864   -6.6833135    82.057806  0.031367663  0.033080744            4 
  219000    1.1688988   -6.6483243    82.297802  0.031315754  0.033056488            2 
  220000    1.1710611   -6.6959841    82.272146  0.031163692  0.033031606            3 
  221000    1.1713746    -6.645434    83.094781  0.031332874  0.033006505            5 
  222000    1.1889386   -6.6842187    83.493302  0.031341329   0.03298173            4 
  223000    1.1650892   -6.6861888    83.918273  0.031359594  0.032958901            2 
  224000    1.1670602   -6.7198546    83.916535  0.031218949  0.032933527            3 
  225000    1.1729606   -6.6767706    84.375015  0.031250006  0.032912564            4 
  226000    1.1824956    -6.683533    84.909353  0.031308758  0.032890834            2 
  227000    1.1679901   -6.6791005     85.22496  0.031286696  0.032869206            6 
  228000    1.1656641   -6.7259813    85.709243  0.031326478  0.032845854            5 
  229000    1.1829975   -6.6679546    86.010641   0.03129936  0.032824318            2 
  230000    1.1469247    -6.689139    86.200242  0.031231972  0.032802204            2 
  231000    1.1405211   -6.6417246    86.623281   0.03124938  0.032780425            2 
  232000    1.1593909   -6.7123202    86.404713  0.031036176  0.032756484            4 
  233000    1.1616346   -6.6881714    87.113272  0.031156392  0.032730084            4 
  234000    1.1907726    -6.690617     87.04906  0.031000377  0.032704985            3 
  235000    1.1952955   -6.7017743    87.585092  0.031058543  0.032679077            2 
  236000    1.1783445   -6.7556909    87.526104   0.03090611  0.032653694            3 
  237000    1.1500554   -6.7236068     88.07793  0.030969736  0.032628428            4 
  238000    1.1657341   -6.6804099    88.349681  0.030934762  0.032603416            2 
  239000    1.1638322   -6.6863728     89.01586  0.031037608  0.032578668            2 
  240000     1.165414   -6.7031137    89.249337  0.030989353  0.032553668            2 
  241000    1.1532467   -6.6586243    89.649385  0.030999096  0.032528607            3 
  242000    1.1503936   -6.6740825    89.778236   0.03091537  0.032504199            4 
  243000    1.1443469   -6.7269612    90.148639  0.030915171  0.032479692            2 
  244000    1.1511626   -6.6934451    90.986616  0.031074664  0.032456192            3 
  245000     1.173887   -6.7188303    91.006042  0.030954436  0.032433803            2 
  246000    1.1565789   -6.6956395    91.397487  0.030961208  0.032412029            3 
  247000    1.1802305   -6.7025244    91.745196   0.03095317  0.032388092            1 
  248000    1.1776145   -6.6765528    92.367755  0.031037552  0.032367056            3 
  249000    1.1340874    -6.763712    92.387652  0.030919562  0.032345167            3 
  250000     1.151553   -6.6984451    92.898667  0.030966222   0.03232237            3 
  251000    1.1297968   -6.6765498     93.39289  0.031006935   0.03230128            2 
  252000    1.1539773   -6.7241421    93.202768  0.030821021  0.032278512            3 
  253000    1.1329145   -6.6920247    93.633549   0.03084109  0.032255572            2 
  254000    1.1655706   -6.7437058    93.766729  0.030763362  0.032233699            2 
  255000     1.148037    -6.709181    94.619594  0.030921436  0.032211359            4 
  256000    1.1845927   -6.7326888    95.044316  0.030938905   0.03219198            1 
  257000     1.162937   -6.7389867    95.535643  0.030977835  0.032173506            3 
  258000    1.1621507   -6.7199674     95.93432  0.030986537  0.032154926            4 
  259000    1.1320989    -6.708668    95.906066  0.030857808  0.032134734            3 
  260000    1.1588943   -6.7257336    96.139894  0.030814069  0.032113628            4 
  261000      1.14357   -6.7240701    96.686997  0.030870689  0.032095743            2 
  262000    1.1540819    -6.710746    97.106027  0.030886141  0.032077088            4 
  263000    1.1436561   -6.7368362    97.278639  0.030823396  0.032057497            4 
  264000     1.134097   -6.6933845    97.293811   0.03071143  0.032036589            4 
  265000    1.1510478   -6.7038202    97.864247   0.03077492  0.032016212            1 
  266000    1.1421645   -6.6714908    98.357311  0.030813694  0.031995544            3 
  267000    1.1513228   -6.6989652    98.559616  0.030761428  0.031975454            5 
  268000    1.1610796   -6.7570823    98.712343  0.030694136  0.031954697            2 
  269000    1.1737422    -6.744293    98.691261  0.030573501  0.031934516            2 
  270000    1.1544465   -6.7382519    99.504144  0.030711156  0.031915051            1 
  271000    1.1372389   -6.7493837    99.714244  0.030662436  0.031894509            4 
  272000    1.1416134   -6.7217913     99.87525  0.030599035  0.031874444            2 
  273000    1.1458799   -6.7012829    100.74305  0.030751847  0.031854239            2 
  274000      1.12469   -6.7183375    101.46049  0.030857814  0.031836751            3 
  275000    1.1345269   -6.7247732    101.26022  0.030684914  0.031818996            4 
  276000    1.1437919   -6.7719745    101.97629  0.030789943  0.031802719            5 
  277000     1.132212   -6.7304049    102.50698  0.030838442  0.031787956            4 
  278000    1.1650694   -6.7751363    102.73784  0.030796715  0.031772205            3 
  279000    1.1445378   -6.7750556     102.7713  0.030696326   0.03175613            2 
  280000    1.1242369   -6.7363954    103.28759  0.030740355  0.031739854            3 
  281000    1.1356547   -6.7840079    103.53239  0.030703557  0.031723159            2 
  282000    1.1592927   -6.7327674    103.91306   0.03070717  0.031706675            9 
  283000     1.146315   -6.7179226    104.49995  0.030771481  0.031690331            2 
  284000    1.1573092   -6.7434236    104.10557  0.030547409  0.031672665            3 
  285000    1.1455337   -6.7855258    104.54822  0.030569655  0.031656797            4 
  286000    1.1466276   -6.7595619    105.31302  0.030685611  0.031640865            2 
  287000    1.1583839    -6.723021    105.96312  0.030767457  0.031625197            2 
  288000    1.1426596   -6.7552924     106.1368  0.030710878  0.031610385            5 
  289000    1.1572754   -6.7607979    106.72889  0.030775342  0.031595203            1 
  290000    1.1443697   -6.7366567    106.65159  0.030647009  0.031580015            3 
  291000    1.1317825   -6.7675242    106.78322  0.030579389  0.031564713            3 
  292000    1.1129836   -6.7928577    107.21614  0.030598215  0.031549173            4 
  293000    1.1607151   -6.7380097    107.94874  0.030702145  0.031535427            2 
  294000    1.1471551   -6.7482319    108.59946   0.03078216  0.031520839            4 
  295000    1.1297198   -6.7782161    108.21426  0.030568999  0.031507683            4 
  296000    1.1575428   -6.7706587    108.69711  0.030601663   0.03149315            4 
  297000    1.1439067   -6.7815937    108.61642  0.030475987   0.03147775            1 
  298000    1.1430884   -6.7772139    109.05854  0.030497355  0.031461206            3 
  299000    1.1322491   -6.7867918    109.15051   0.03042099  0.031446066            5 
  300000     1.140373   -6.7824281    109.82531  0.030507029  0.031430993            6 
  301000    1.1337103   -6.7272113    110.50859  0.030594847   0.03141622            8 
  302000    1.1226363   -6.7548564     110.3535  0.030450745   0.03140115            1 
  303000    1.1490866   -6.7786064    110.86878  0.030491963  0.031385936            1 
  304000    1.1275766   -6.7784546    111.26862  0.030501267  0.031370448            2 
  305000    1.1346116   -6.7287254    111.79596  0.030545343  0.031356409            6 
  306000    1.1209856   -6.7903442    111.97695  0.030494813  0.031342603            2 
  307000    1.1482032     -6.78927    111.96084  0.030391107  0.031327092            5 
  308000    1.1270141   -6.7298283     112.5457  0.030450678  0.031312314            2 
  309000    1.1290474   -6.8068343    112.50871  0.030342153  0.031295595            2 
  310000    1.1612129   -6.7998389    112.61789  0.030273627  0.031276735            2 
  311000    1.1485967   -6.7905523    112.50601  0.030146306  0.031257362            3 
  312000    1.1441696   -6.7647476    113.28304  0.030257222  0.031239151            2 
  313000    1.1074098   -6.7616746    113.74861  0.030284507   0.03122166            3 
  314000    1.1400784   -6.7529968    114.18539  0.030303978  0.031205075            4 
  315000    1.1303137   -6.8090568    114.24448  0.030223407  0.031188319            2 
  316000    1.1071938   -6.8044531     114.3759  0.030162421  0.031171471            5 
  317000    1.0907236   -6.8019243    115.13483   0.03026678  0.031154503            2 
  318000    1.1055514   -6.8033658    114.95905  0.030125537  0.031135933            2 
  319000    1.1186413   -6.7466435     115.5214  0.030178003  0.031118011            2 
  320000    1.1385324   -6.7927436    115.61062  0.030106932  0.031099708            2 
  321000    1.1129518   -6.8160187    115.60099   0.03001064  0.031082562            3 
  322000     1.116379    -6.733576    116.80293  0.030228502  0.031064216            3 
  323000    1.1118179   -6.8222852    116.51506  0.030060644   0.03104534            5 
  324000    1.1482785   -6.7794403    116.74005  0.030025732  0.031026539            8 
  325000    1.1291941   -6.8187068    116.57303  0.029890522  0.031007223            4 
  326000    1.1401461   -6.8233845    116.94507  0.029893934  0.030986676            1 
  327000    1.1263033   -6.7933588    117.60034  0.029969506  0.030966226            3 
  328000    1.1008182   -6.7922296    117.70809   0.02990551  0.030945689            2 
  329000    1.1257756   -6.8031325    118.08896  0.029911085  0.030925999            2 
  330000    1.1525898   -6.8003352     118.7177  0.029979218  0.030906619            2 
  331000    1.1314217   -6.8493622    118.62589  0.029865531  0.030888499            3 
  332000    1.1210401   -6.7796694    119.04498  0.029880767  0.030869412            3 
  333000    1.1130729   -6.8002007    119.22518  0.029836131  0.030849598            3 
  334000    1.1361618   -6.7718808    119.99559   0.02993902  0.030831248            3 
  335000    1.1265367   -6.7873736    120.25455  0.029914067   0.03081208            2 
  336000     1.142731   -6.8076599    120.53277   0.02989404  0.030791975            3 
  337000     1.100775   -6.8296619    120.61001  0.029824433  0.030772509            8 
  338000    1.1119827   -6.7934637    121.05047   0.02984479  0.030752592            3 
  339000    1.1378337   -6.8116906    120.86983  0.029712348  0.030733185            2 
  340000    1.1187181   -6.8111527    121.49613  0.029778464  0.030714112            4 
  341000     1.135888   -6.8176253    122.11734  0.029842947  0.030695955            2 
  342000    1.1064975   -6.8187009     121.9894  0.029724513  0.030677214            7 
  343000    1.1258961   -6.8350155    122.45637  0.029751304  0.030658881            6 
  344000    1.1128433   -6.7882029    123.14921  0.029832657  0.030640937            3 
  345000    1.1022463    -6.845224    122.87979  0.029681108  0.030623368            3 
  346000    1.1251816   -6.7680646    124.07224  0.029882524  0.030605339            3 
  347000    1.1043286   -6.7867308    123.86956  0.029747732  0.030587774            5 
  348000    1.1316345    -6.790356    124.00719  0.029695207  0.030570333            2 
  349000    1.1448392   -6.7964164    124.86174   0.02981417  0.030552996            2 
  350000    1.0905043   -6.7400021    125.45371   0.02986993  0.030536133            2 
  351000    1.1116643   -6.8307633      125.023  0.029682572  0.030518935            4 
  352000    1.1023491   -6.8054689    125.33292   0.02967162  0.030500828            2 
  353000    1.1070418   -6.7820089     125.8262  0.029704012  0.030482704            3 
  354000     1.096873   -6.8051408    125.67433  0.029584353  0.030463638            6 
  355000    1.1075037   -6.8016388    125.99412  0.029576084  0.030445104            3 
  356000    1.1269431   -6.8010518    126.44633  0.029598861  0.030426715            4 
  357000     1.124175   -6.7741572    126.98607   0.02964194  0.030408776            4 
  358000    1.1092493    -6.779485    127.43716  0.029664144  0.030390725            5 
  359000    1.0926546   -6.8584856    127.22589  0.029532472  0.030372962            3 
  360000    1.1103252   -6.8141847    127.32303  0.029472925  0.030354855            2 
  361000    1.1014515   -6.8166128    127.82047  0.029506111  0.030336769            7 
  362000    1.0817203   -6.8197438    128.17467   0.02950614  0.030318116            2 
  363000    1.1192951   -6.8351449    128.32154  0.029458573  0.030299564            2 
  364000    1.1184678   -6.8382753     128.5228  0.029423718  0.030281599            3 
  365000    1.1032481   -6.8348297    129.31446   0.02952385  0.030262985            3 
  366000    1.1068623    -6.792026    129.38627  0.029459533  0.030244553            2 
  367000    1.0953234   -6.8414371    129.48086  0.029400741   0.03022619            1 
  368000    1.1171941   -6.8225322     129.8949  0.029414605  0.030207124            2 
  369000    1.1015361   -6.8525494    130.27755  0.029421307  0.030188264            4 
  370000    1.0775623   -6.8506628    130.63186  0.029421589  0.030169435            5 
  371000    1.0754002   -6.8639216    130.52869  0.029319114   0.03015061            3 
  372000    1.1231778   -6.8071079    131.08095  0.029364011  0.030132239            3 
  373000    1.1056064   -6.8610253    130.79826  0.029222131  0.030113834            5 
  374000    1.1221455    -6.813262    131.65151  0.029334115  0.030095896            2 
  375000    1.1165714   -6.8662588     131.9884  0.029330755  0.030077659            3 
  376000    1.0726004   -6.8277872    132.34208  0.029331134  0.030059818            3 
  377000    1.1409951    -6.848029    132.50493  0.029289329  0.030042535            3 
  378000    1.1200961   -6.8470811    132.32801  0.029172842  0.030024045            3 
  379000    1.1040237    -6.815182     133.3739  0.029325836  0.030006237            5 
  380000    1.1014811   -6.8778222    133.45032  0.029265422  0.029988392            3 
  381000    1.1061302   -6.8036032    133.75108  0.029254392  0.029969562            4 
  382000    1.1001366   -6.8421943    133.71057  0.029168972  0.029950712            2 
  383000    1.1106582   -6.8266833    133.44816  0.029035717  0.029931903            1 
  384000    1.0941586   -6.8674182    133.62686  0.028998884  0.029912354            3 
  385000    1.1009494   -6.8482393    133.83979  0.028969651  0.029892937            2 
  386000    1.0680902   -6.8287635    134.24325  0.028981703  0.029872998            4 
  387000    1.0611868   -6.8390073     134.3644  0.028932903  0.029852325            4 
  388000    1.0960691   -6.8571432    134.72726  0.028936267  0.029831006            6 
  389000    1.0999784   -6.8321288    135.29293  0.028983061  0.029810659            3 
  390000    1.1014436   -6.8291365    135.50703  0.028954493  0.029790346            2 
  391000    1.1074483   -6.8481922    135.84147  0.028951719  0.029770637            2 
  392000    1.0712162   -6.8586359    135.78208  0.028865239  0.029749688            4 
  393000    1.0914532   -6.8758161      135.316  0.028692959  0.029728455            4 
  394000    1.1191462   -6.8895712    136.18158  0.028803211  0.029706643            4 
  395000    1.0772567   -6.8564684    136.20978  0.028736241  0.029685072            5 
  396000    1.0983719   -6.8107625    136.86228  0.028800986  0.029664066            4 
  397000    1.0930259   -6.8924499    136.36975  0.028625052  0.029642351            2 
  398000    1.0653016   -6.8319011    136.78925  0.028640966  0.029620126            2 
  399000    1.0852379   -6.8677348    137.52769  0.028723411  0.029598423            5 
  400000    1.1121802   -6.8780816    137.93585  0.028736635  0.029577422            2 
  401000    1.1118993   -6.8809664    138.08646  0.028696272  0.029556092            1 
  402000    1.0783093   -6.8931491    137.66265  0.028537033  0.029533774            6 
  403000    1.0985271   -6.8667355    137.83816  0.028502514  0.029511508            3 
  404000    1.0884596   -6.8557449    138.71663  0.028613166  0.029489421            8 
  405000    1.0778101   -6.8413933    139.01936  0.028604806   0.02946744            3 
  406000    1.0802453   -6.8992695     138.3199  0.028390783  0.029445169            3 
  407000    1.0988691   -6.8907791    138.67289  0.028393304  0.029421572            3 
  408000    1.1107416   -6.9011092    139.01045  0.028392657  0.029398365            2 
  409000    1.0530092   -6.8975588    139.33841   0.02839006   0.02937557            6 
  410000    1.0969051   -6.8586766    139.65365  0.028384888  0.029353042            4 
  411000    1.0839271   -6.8770103    140.35989  0.028459021  0.029330649            3 
  412000     1.100033    -6.869885    140.45399  0.028408979   0.02930796            6 
  413000    1.1000772   -6.8883319    140.33178  0.028315533  0.029285296            3 
  414000    1.0703362   -6.8905571     140.7072  0.028322704   0.02926274            6 
  415000    1.0887758   -6.9295642    140.69018  0.028251041  0.029239691            3 
  416000    1.0900083   -6.8980187    141.21361  0.028287983  0.029215983            2 
  417000    1.0797368   -6.8707632    140.90296  0.028158065  0.029192671            3 
  418000    1.0694752   -6.8551697    141.34407  0.028178642  0.029168828            3 
  419000    1.0721358   -6.8510237    141.77981  0.028198053  0.029145248            1 
  420000    1.0907023   -6.9158171    141.43208  0.028061921  0.029121518            6 
  421000    1.0900182   -6.9186305    141.49226  0.028007178  0.029096907            5 
  422000    1.0641019   -6.8949891     141.9749  0.028036118  0.029072787            2 
  423000    1.0775615   -6.9275612    142.33398   0.02804058  0.029048093            3 
  424000    1.0876337   -6.8959248    142.03125  0.027914946  0.029022878            3 
  425000    1.0697085   -6.8701958    142.60839  0.027962429  0.028997139            3 
  426000    1.0733727   -6.9083874    142.96389  0.027966332  0.028972196            2 
  427000    1.0781496   -6.8854228    143.64866  0.028034477   0.02894861            2 
  428000    1.0665545   -6.8579626    143.44217  0.027928772  0.028924995            1 
  429000    1.0866386   -6.9269749    143.52352  0.027879472  0.028901127            2 
  430000    1.0991704    -6.915985    144.24414   0.02795429  0.028876874            2 
  431000    1.0877964   -6.8799117    144.52956  0.027944617  0.028853532            6 
  432000    1.0618857   -6.9238273    144.08229  0.027793652  0.028829419            6 
  433000     1.060253   -6.8912049    144.49088  0.027808099  0.028805234            4 
  434000    1.1002165   -6.8981827     144.6082  0.027766551  0.028780657           11 
  435000    1.0928592    -6.949171     144.6949  0.027719329  0.028755984            5 
  436000    1.0889789    -6.890301    145.21202  0.027754592  0.028731657            4 
  437000    1.0762566   -6.9539507    144.81843  0.027616025  0.028707404            2 
  438000    1.0545546   -6.8825014    145.79793  0.027739332  0.028683734            3 
  439000    1.0990751   -6.9158449    145.71371  0.027660158  0.028659694            9 
  440000    1.0933841   -6.8533972    146.88813  0.027819722  0.028635802            5 
  441000    1.0819694   -6.9149744     146.8672  0.027752684  0.028612085            9 
  442000    1.0781368   -6.9541692    146.71019  0.027660292  0.028588606            2 
  443000    1.1042342   -6.9191936    147.19045  0.027688195  0.028564785            6 
  444000    1.0777899   -6.9035163    148.02603  0.027782664  0.028541659            5 
  445000    1.0920916   -6.8899973    147.64074  0.027648078   0.02851792            3 
  446000    1.0670116   -6.9245744    147.35963  0.027533563  0.028493919            6 
  447000     1.090173   -6.9665032    147.41887  0.027483011  0.028469432            4 
  448000    1.0713725   -6.9435287    147.81811  0.027495929  0.028444926            4 
  449000    1.0994504   -6.8998059    147.96133   0.02746127  0.028420123            2 
  450000    1.0374706   -6.9030562    148.62697  0.027523513  0.028395995            4 
  451000     1.054609   -6.9093072    148.48315  0.027435911  0.028372387            3 
  452000    1.0758097    -6.952075     148.4864  0.027375811  0.028348365            7 
  453000    1.0560881   -6.9264577    148.85953   0.02738402  0.028323466            5 
  454000    1.1023358   -6.9453265    148.56742  0.027270085  0.028298233            4 
  455000    1.1077814   -6.9349892    148.86366  0.027264406  0.028272453            4 
  456000    1.0616863   -6.9607592    149.18835  0.027263953  0.028247369            5 
  457000    1.0578816   -6.9212495    148.93707  0.027158474  0.028222549            3 
  458000    1.0881038   -6.8881983    150.01345  0.027295023  0.028197999            4 
  459000    1.0801134   -6.9311182    150.17179  0.027264306  0.028173387            5 
  460000    1.0625383   -6.9197379    149.70848  0.027121102   0.02814823            5 
  461000    1.0866814   -6.9523192    150.42526  0.027191839  0.028123037            4 
  462000    1.0762889   -6.9311302    150.17137  0.027087187  0.028097429            2 
  463000    1.0734312   -6.9934975    150.26595  0.027045707  0.028071725            7 
  464000    1.0910707   -6.9271373    151.16182  0.027148315  0.028046648            3 
  465000    1.0722224   -6.9239533    151.17765  0.027092769  0.028021837            3 
  466000    1.0547397   -6.9105595    151.72339  0.027132223  0.027997139            4 
  467000    1.0746122   -6.9343149    151.69617  0.027069267  0.027972266            7 
  468000    1.0727413   -6.9555447    151.52495  0.026980939  0.027947537            4 
  469000    1.0760093   -6.9392244    152.14937  0.027034359  0.027922995            2 
  470000    1.0787511   -6.9014714    152.03102  0.026955854  0.027899308            9 
  471000    1.0754354    -6.971356    152.63692  0.027005824  0.027875331            7 
  472000    1.0837702   -6.9322665    153.29326  0.027064488  0.027851363            2 
  473000    1.0318527   -6.9269779    153.01865  0.026958888  0.027827564            3 
  474000    1.0815144   -6.9043964     154.1475  0.027100475  0.027804186            8 
  475000    1.0649683    -6.934544    154.02798  0.027022453  0.027781604            4 
  476000     1.067077   -6.9415763    154.21046  0.026997629  0.027758597            8 
  477000    1.0563128   -6.9234156     154.6627  0.027020039  0.027735743            6 
  478000      1.05055   -6.9427519    154.75219  0.026979112  0.027712793            3 
  479000    1.0528633   -7.0015105     154.2575  0.026836726  0.027689672            5 
  480000    1.0582701   -6.9846101    154.90735  0.026893638   0.02766644            2 
  481000    1.0424292   -6.9893624    154.94749  0.026844679  0.027642865            3 
  482000    1.0674468   -6.9571985    155.27158  0.026845018  0.027619454            6 
  483000    1.0645796     -6.97977    155.23791  0.026783628  0.027596198            4 
  484000    1.0650419   -6.9446261    155.30789  0.026740339  0.027572647            5 
  485000    1.0755448   -6.9954373    155.23353  0.026672427   0.02754919            2 
  486000    1.0749801   -6.9688623    156.34089  0.026807422  0.027526331            4 
  487000    1.0756667   -7.0006943    155.98923  0.026692202  0.027503448            7 
  488000    1.0535735   -6.9837446    156.57195  0.026737013  0.027480959            3 
  489000    1.0589033   -6.9942394    156.51871  0.026673263  0.027458108            3 
  490000     1.034474   -6.9839948    157.15785  0.026727526  0.027435536            3 
  491000    1.0368282   -6.9810445    157.32721  0.026701835  0.027413258            5 
  492000    1.0539463   -6.9478598    157.85447  0.026736868  0.027391592            3 
  493000    1.0678319   -6.9289502    158.29657  0.026757365  0.027370149            3 
  494000    1.0580114   -6.9710718    157.64551  0.026593372   0.02734764            3 
  495000     1.070512   -6.9778429    157.59327  0.026530854  0.027324105            5 
  496000    1.0641855   -6.9863696    157.86742  0.026523425  0.027299951            5 
  497000    1.0588023   -6.9519705     158.3475  0.026550553  0.027275629            8 
  498000     1.041014   -6.9824798    158.00936  0.026440656  0.027251862            3 
  499000    1.0530856   -6.9407881    158.73706  0.026509195  0.027228333            3 
  500000    1.0533672   -6.9715145    158.87823  0.026479705  0.027204751            3 
  501000    1.0691121   -6.9772455    158.28642  0.026328413  0.027181273            4 
  502000    1.0440845   -6.9760565    159.59513  0.026493215  0.027157749            5 
  503000    1.0594977   -6.9568839    159.85848  0.026484174  0.027134686            4 
  504000    1.0456963   -7.0449144    159.35938  0.026349103  0.027111269            3 
  505000     1.038755    -7.018818    158.81107  0.026206447  0.027087944            4 
  506000    1.0528887   -6.9940908    160.00306  0.026350964   0.02706463           13 
  507000     1.048413   -6.9824818    160.11535  0.026317448  0.027041988            5 
  508000    1.0595076   -6.9781208    160.75906  0.026371238  0.027019287            5 
  509000    1.0547119   -6.9834831    160.75952  0.026319503  0.026997446            3 
  510000    1.0456986   -6.9940802    161.52992  0.026393778  0.026975828            5 
  511000    1.0777028   -7.0074758    161.46752  0.026331951  0.026953993            2 
  512000    1.0785515   -7.0261426    161.81741  0.026337469  0.026932384            2 
  513000    1.0538494   -7.0098808    161.97514   0.02631175  0.026910558            2 
  514000    1.0612967    -6.999647    162.37047  0.026324654  0.026889306            2 
  515000    1.0252559   -7.0075478    162.77181  0.026338481  0.026868046            2 
  516000     1.059317   -6.9973956    163.33414  0.026378253  0.026846461            2 
  517000    1.0568796   -7.0181527    162.86023  0.026250844   0.02682483            4 
  518000    1.0373069   -7.0069638    162.89881  0.026206372  0.026803119            3 
  519000    1.0293807   -7.0045592    162.98411  0.026169575  0.026781128            3 
  520000    1.0570914   -7.0167778    162.67056  0.026068999  0.026758782            5 
  521000    1.0450335    -6.992315    163.28524  0.026117281  0.026736669            3 
  522000    1.0443561   -6.9965655    163.40004  0.026085575  0.026714321            3 
  523000    1.0509051   -7.0207438    163.10011  0.025987907   0.02669235            4 
  524000    1.0353094   -6.9828743    163.68531  0.026031379  0.026670407            5 
  525000    1.0464376   -7.0251808     164.1995  0.026063413   0.02664872            6 
  526000    1.0530804   -6.9765693    164.18924  0.026012237  0.026626605            2 
  527000     1.059877   -6.9978658    164.36717  0.025991014  0.026604606            3 
  528000    1.0554997   -7.0072503    164.65961  0.025987944   0.02658228            2 
  529000    1.0254332   -7.0297752     164.5386  0.025919754    0.0265602            9 
  530000    1.0354527   -7.0260993    165.00824  0.025944693  0.026537906            6 
  531000    1.0588555   -7.0391943    165.11577  0.025912707  0.026515812            8 
  532000    1.0538097   -7.0238511    165.18765  0.025875258  0.026493443            3 
  533000    1.0496778   -7.0452914       165.29  0.025842714  0.026471235            9 
  534000    1.0536071   -6.9995206    166.41305  0.025969577  0.026449479            3 
  535000    1.0513054      -7.0198    166.17662  0.025884209  0.026427772            2 
  536000    1.0510863   -7.0107197    166.23118  0.025844399  0.026406002            4 
  537000    1.0443857     -7.04571    166.07054  0.025771344  0.026384034            2 
  538000    1.0411553   -7.0514016    166.20592  0.025744411  0.026361598            3 
  539000    1.0308382   -7.0279214    166.53373  0.025747329  0.026339612            9 
  540000      1.03287   -7.0198097    166.67608  0.025721617  0.026317847            2 
  541000    1.0433002   -7.0035691    167.38616   0.02578345  0.026296306            7 
  542000    1.0521103   -7.0094759    167.53901   0.02575938  0.026275014            5 
  543000    1.0227778   -7.0490283     167.2823  0.025672544  0.026253403            4 
  544000    1.0575112   -7.0256586    168.25275  0.025774012  0.026231475            4 
  545000    1.0141703   -7.0145232    167.69279    0.0256411  0.026209781            6 
  546000    1.0460781   -7.0330004    167.63772  0.025585732  0.026187992            4 
  547000    1.0242162   -6.9685675    168.94478  0.025738083  0.026166374            6 
  548000     1.057557   -7.0360867    168.23681  0.025583456  0.026144914            2 
  549000    1.0366177   -6.9990929    168.94421  0.025644233  0.026123061            4 
  550000    1.0216352   -7.0603795     168.6285  0.025549772   0.02610103            6 
  551000    1.0515964   -7.0636213    168.51479  0.025486205  0.026078282            7 
  552000    1.0158687    -7.046751    168.25847   0.02540134   0.02605573            5 
  553000     1.021193   -7.0669035    168.54604  0.025398741  0.026033311            3 
  554000    1.0343044   -7.0772187    168.69047   0.02537462   0.02601105            5 
  555000        1.029   -7.0123161    169.63111  0.025470136  0.025989095            3 
  556000    1.0283981   -7.0724436     170.0507  0.025487216  0.025967482            3 
  557000    1.0291726   -7.0020758    170.46866  0.025503988   0.02594611            4 
  558000    1.0279437     -7.04699    170.31635  0.025435537  0.025924547            3 
  559000    1.0343841   -7.0303052     170.7326  0.025452087  0.025903632            3 
  560000    1.0321403   -7.0824167    170.97866  0.025443253  0.025882414            4 
  561000    1.0246353   -7.0414646    170.68421   0.02535416  0.025861162            2 
  562000    1.0418408   -7.0584381    171.09792  0.025370392  0.025839781           10 
  563000    1.0282627   -7.0345682    171.88537  0.025441885  0.025819167            4 
  564000    1.0238712   -6.9926155    172.16011  0.025437368    0.0257986            4 
  565000    1.0204654   -7.0172929    172.06289  0.025378008  0.025778282            5 
  566000    1.0383875   -7.0334824    172.31926  0.025370915  0.025757963            7 
  567000    1.0210434   -7.0866113    172.38906  0.025336429  0.025737221            2 
  568000    1.0546407   -7.0586376    172.89048  0.025365387   0.02571687            5 
  569000    1.0275206    -7.089335    172.46191  0.025258042  0.025696217            8 
  570000     1.034249    -7.031372    172.97832  0.025289228  0.025676123            6 
  571000    1.0260921   -7.0045394    173.43652   0.02531181  0.025656209            4 
  572000    1.0139113   -7.0390589    173.56313  0.025286003  0.025636195            2 
  573000    1.0055099   -7.0429084    173.75152  0.025269272   0.02561637            4 
  574000    1.0301224   -7.0780107    173.91595  0.025249122  0.025596792            4 
  575000    1.0109407   -7.0754353    173.87382  0.025199105  0.025576582            4 
  576000    1.0581196   -7.0731725    174.20101  0.025202692  0.025556545            2 
  577000    1.0024859   -7.0429424    174.22254  0.025162123  0.025536746            2 
  578000    1.0185765   -7.0418652    174.80636  0.025202762  0.025516927            4 
  579000    1.0044566   -7.0536428    174.92331  0.025176067  0.025497173           11 
  580000    1.0092948   -7.0809381    175.05377  0.025151404   0.02547734            3 
  581000    1.0295395   -7.0920215    175.12183  0.025117876  0.025457336            2 
  582000    1.0139239   -7.0570278    175.63766  0.025148577  0.025437876            4 
  583000    1.0095281   -7.0202701    176.22974  0.025190072   0.02541856            3 
  584000    1.0418378   -7.0695848    176.12618   0.02513216  0.025399541            5 
  585000     1.011734   -7.0083701    176.38096  0.025125492  0.025380103            2 
  586000     1.009626   -7.0921181    176.16632  0.025052094  0.025360925            3 
  587000    1.0416988   -7.0987331    176.75289  0.025092688  0.025341827            6 
  588000    1.0257049   -7.0502759    177.05966  0.025093489  0.025322945            1 
  589000    1.0226714   -7.1137002    176.66505  0.024995055  0.025303984            5 
  590000    1.0285523   -7.0547014    177.08937  0.025012624   0.02528498            5 
  591000    1.0454295   -7.0675841    177.67158  0.025052394  0.025265823            3 
  592000    1.0405305   -7.0897338    177.21598  0.024945943  0.025246865            5 
  593000    1.0081543   -7.0464269    177.81193  0.024987624  0.025227975            8 
  594000      1.03229   -7.0701136    178.13547  0.024990946  0.025209072            5 
  595000    1.0133025   -7.1036015    177.96324  0.024924824  0.025190261            8 
  596000    1.0186449   -7.0980249    178.36419  0.024939065  0.025171667            3 
  597000    1.0091906   -7.0977743    178.57173   0.02492626  0.025152961            7 
  598000    1.0292459   -7.0814539    179.31081  0.024987571  0.025134309            6 
  599000   0.97918724   -7.1076283    179.03032  0.024906834  0.025115624            3 
  600000   0.99142292   -7.0789855    178.80655  0.024834243  0.025096884            4 
  601000    1.0089968   -7.0930167    179.10633  0.024834489  0.025078034            3 
  602000    1.0011795    -7.083358    179.30032  0.024820089  0.025059564            4 
  603000    1.0134244   -7.0922461    179.00666  0.024738344  0.025040417            4 
  604000     1.007021   -7.1054291    179.47051  0.024761383  0.025021618            4 
  605000    1.0055667   -7.0928433    179.76752  0.024761367  0.025002766            4 
  606000    1.0421843   -7.0968204    179.64879  0.024704179  0.024983954            5 
  607000   0.99607676   -7.0553183    179.98811  0.024710064  0.024964831            3 
  608000    1.0291369   -7.1046729    179.46862  0.024598221  0.024945604            3 
  609000    1.0099011   -7.1222611    180.11236  0.024645916  0.024926411            5 
  610000    1.0020981   -7.0772244    180.73016  0.024689912  0.024907515            6 
  611000    1.0274976   -7.1356714    180.31914  0.024593445  0.024888439            5 
  612000    1.0076406   -7.1015237    180.91495  0.024634388   0.02486948            6 
  613000    0.9988835   -7.1169313    181.39057   0.02465886   0.02485014           10 
  614000   0.98807892   -7.0784299    181.22247  0.024595883  0.024831186            3 
  615000    1.0102022   -7.1229117    181.48408  0.024591338  0.024812359            3 
  616000   0.98934707   -7.0557288    182.77991  0.024726719     0.024794            3 
  617000    1.0007573   -7.1026418    181.70716  0.024541756  0.024775636            3 
  618000   0.99190852    -7.099863    182.12801  0.024558793  0.024756917            7 
  619000   0.99534985   -7.0855236    182.83377  0.024614132  0.024738291            4 
  620000   0.99610204   -7.1177056    182.30801  0.024503765  0.024719306            5 
  621000    1.0073124   -7.1277877    182.79972   0.02453029  0.024700412            2 
  622000   0.99558964   -7.1068734    183.03002  0.024521707  0.024681766            5 
  623000    1.0072466   -7.0721884     183.2196  0.024507705  0.024663396            4 
  624000   0.99416607   -7.0849986    183.88179  0.024556863  0.024644775            2 
  625000    1.0201482   -7.0670204    183.77533  0.024503377  0.024626625            3 
  626000    1.0105444   -7.0924762    183.99606  0.024493618  0.024608506            5 
  627000   0.99777234   -7.0899986    184.25651  0.024489169  0.024590528            4 
  628000    1.0133455   -7.1427957    183.92799  0.024406581  0.024572162            5 
  629000   0.99584223   -7.1495127    183.82488  0.024354118  0.024553458            4 
  630000    1.0441406   -7.1617139    183.75676   0.02430645  0.024534492            4 
  631000    1.0054972    -7.142151    184.22387  0.024329619  0.024515998            3 
  632000   0.98193108   -7.1392135    184.23479  0.024292562    0.0244972           19 
  633000   0.99545939   -7.1530429    184.88366  0.024339607  0.024478703            5 
  634000    1.0060422   -7.1530111    184.86474   0.02429873  0.024460319            3 
  635000    1.0243317   -7.1152549    185.55394   0.02435091  0.024442217            7 
  636000    1.0034715   -7.1237198    185.95008  0.024364528  0.024424553            3 
  637000   0.99867871    -7.116876    185.60827  0.024281564  0.024406703            3 
  638000   0.99962095   -7.1354555    185.67357  0.024252034  0.024388516            3 
  639000    1.0134141   -7.1339749    185.97851  0.024253849  0.024370383            4 
  640000    1.0113295   -7.1584579    185.58537  0.024164762  0.024351784            5 
  641000   0.98704428   -7.1560004    186.64303  0.024264565  0.024333145            4 
  642000   0.99050989   -7.1679652    185.47952  0.024075742  0.024314693            6 
  643000   0.98691185    -7.209143     185.3279   0.02401865  0.024296053            6 
  644000    1.0235712   -7.1533433    186.38654  0.024118342  0.024277391            6 
  645000    0.9923066   -7.1481363    187.00049   0.02416027  0.024259013            6 
  646000    0.9959415   -7.2046707     186.1498  0.024013133  0.024240417            6 
  647000   0.99969037    -7.137205    187.08292  0.024096204  0.024222123            3 
  648000   0.98878296   -7.1340447    187.96339  0.024172247  0.024204146           12 
  649000   0.99767151   -7.1374748    187.68569  0.024099344  0.024186107            5 
  650000   0.99812685   -7.1324897    187.97836   0.02409979  0.024168268            7 
  651000    1.0005829   -7.1388783    187.82598  0.024043264  0.024150702            6 
  652000    1.0100266   -7.1352712    187.95202  0.024022497  0.024132962            7 
  653000   0.99623245   -7.1230215    188.17513  0.024014182  0.024115068            4 
  654000    0.9936109   -7.1489898    188.59247  0.024030641  0.024097219           11 
  655000   0.99797527   -7.1683858    188.01107  0.023919983  0.024079278            4 
  656000   0.99469306   -7.1942521    188.52982  0.023949418  0.024060842            4 
  657000   0.95733464   -7.1487902    188.99617  0.023972117  0.024042827            6 
  658000   0.98721291   -7.1620945    188.91901  0.023925913   0.02402499            4 
  659000   0.97236731   -7.1774048    189.07416  0.023909226  0.024006849            5 
  660000   0.97465338   -7.1718185    188.96552  0.023859283  0.023988789            7 
  661000   0.98077118   -7.1095807    190.06718  0.023962075  0.023970877            8 
  662000   0.97884781   -7.1491079    190.04435  0.023923004  0.023952906            3 
  663000    1.0107211   -7.1481484    189.76266  0.023851516  0.023934835            6 
  664000   0.96633378   -7.1435027    190.10988  0.023859171   0.02391674            3 
  665000   0.98717059   -7.1612853    190.34417  0.023852652  0.023899011            6 
  666000   0.99872635   -7.1404357    190.50655  0.023837156  0.023881429            8 
  667000   0.97570184   -7.1440111    190.62889  0.023816703   0.02386406            8 
  668000   0.97550962   -7.1445541    190.57896   0.02377482  0.023846513            3 
  669000    1.0034016   -7.1381597    191.43714  0.023846181   0.02382905            3 
  670000    1.0083446    -7.159205    191.36981  0.023802216  0.023811755            4 
  671000   0.97675475    -7.154611    192.07066  0.023853783  0.023794367            6 
  672000   0.98932866   -7.2102629    191.23401  0.023714535  0.023776838            4 
  673000    1.0038291   -7.1891051    191.86915  0.023757944  0.023759312            5 
  674000    1.0052068   -7.1708689    191.14671  0.023633372  0.023741942            7 
  675000   0.97438442   -7.1728281    191.65509  0.023661123  0.023724387            5 
  676000   0.96973139   -7.2138572    191.32307  0.023585191  0.023706835            5 
  677000   0.99740547   -7.1994929    192.25594  0.023665183  0.023689255            3 
  678000   0.98496792   -7.1873939    192.24989  0.023629535  0.023671599            6 
  679000   0.99579005   -7.1718881    192.32415  0.023603848  0.023654227            5 
  680000    0.9820962   -7.1523366    193.02033  0.023654453  0.023636853            7 
  681000   0.96207668   -7.1916609    192.23877  0.023524078  0.023619137            3 
  682000   0.97437931   -7.1356778    192.43077  0.023513046  0.023601434            5 
  683000   0.97885044   -7.1292737    193.32261  0.023587434  0.023583958            4 
  684000    0.9807674   -7.1814433    192.89748  0.023501154  0.023566312            5 
  685000    1.0128905   -7.1901754    193.19463  0.023502997   0.02354843            3 
  686000   0.97029393   -7.1641081    193.14943  0.023463244  0.023530823            7 
  687000   0.98101052    -7.207512     192.6684  0.023370742  0.023512979            9 
  688000   0.96262882   -7.1854257    193.02475  0.023379935   0.02349485            5 
  689000    0.9728471   -7.2029368    192.85936     0.023326  0.023476934            4 
  690000   0.99223992   -7.2022924    193.75733  0.023400643  0.023458828            8 
  691000   0.96440631   -7.1929883    193.76734  0.023367986  0.023440794            2 
  692000   0.97335781   -7.1407352    194.06281  0.023369799  0.023423238            4 
  693000   0.97789559    -7.168971    194.20263  0.023352889  0.023405523            2 
  694000   0.97090794   -7.1961661    194.26507  0.023326737  0.023387683            3 
  695000    0.9671775   -7.1957406    194.67618  0.023342468  0.023370052            5 
  696000   0.97232593   -7.1736935    194.33752  0.023268381   0.02335202            7 
  697000    0.9720062   -7.1966434    194.06213  0.023202072  0.023334225           12 
  698000   0.96351745   -7.2507566    194.17863   0.02318274  0.023316037            6 
  699000   0.96393035   -7.2096995    194.29883  0.023163904  0.023297824            2 
  700000   0.98414159   -7.1748601    195.81584   0.02331141  0.023279877            4 
  701000   0.98161319   -7.2379594    194.81151  0.023158763  0.023262108            3 
  702000   0.97090949   -7.1972939    194.94541  0.023141668  0.023244091            4 
  703000   0.97132426   -7.2221366    195.42023  0.023165035  0.023226232            3 
  704000    0.9649979   -7.2096504    195.47489    0.0231386   0.02320864            3 
  705000   0.95620375   -7.2410231    195.79851  0.023144032  0.023190792            4 
  706000   0.94434149   -7.2344026    195.55451  0.023082449  0.023172972            4 
  707000   0.99016672   -7.2725821     195.2039  0.023008475  0.023154973           13 
  708000   0.97853285   -7.2422107     196.2959  0.023104508  0.023137195           13 
  709000   0.97318886   -7.2448911    196.23554  0.023064826  0.023119036            5 
  710000   0.97415924   -7.2124525    196.06415  0.023012224  0.023100939            4 
  711000   0.96230211   -7.2424627    196.23163  0.022999488  0.023082834            9 
  712000   0.98315994   -7.2300338    196.49792  0.022998352  0.023064895            4 
  713000   0.96219934   -7.2155742    196.94117  0.023017902  0.023046865           14 
  714000   0.95481779   -7.2245555    196.37871  0.022920018  0.023029045            7 
  715000   0.98031515    -7.227403    196.24505  0.022872383  0.023010928            6 
  716000   0.98704446   -7.1858112    196.97813   0.02292576  0.022993026           13 
  717000   0.97854719    -7.188726    196.94361  0.022889773  0.022975205            5 
  718000   0.97637151   -7.2375448    196.54217  0.022811301  0.022957095           11 
  719000   0.97073239   -7.2126269    197.18872  0.022854511   0.02293907            5 
  720000   0.96972357   -7.2851466    197.87333  0.022902006  0.022920928            9 
  721000   0.95836643   -7.2226268    197.86724  0.022869538  0.022903065           12 
  722000   0.95630507   -7.2460017    197.34968  0.022778126  0.022885691            6 
  723000   0.97246846   -7.2691833    197.89769  0.022809784  0.022867919            4 
  724000   0.96381118   -7.1449553    199.12723  0.022919801  0.022850175            8 
  725000   0.98748389   -7.2189234    198.14404  0.022775177  0.022832764           10 
  726000   0.94658975   -7.2257241    198.56401  0.022792012   0.02281529            7 
  727000   0.95820465    -7.196927    198.51052  0.022754529  0.022797948            7 
  728000   0.94731643   -7.2155351    198.96926  0.022775785  0.022780357           12 
  729000   0.95972887   -7.2317667    198.27711  0.022665422  0.022762709            7 
  730000   0.97671133   -7.2093436    198.78707  0.022692588  0.022745082            2 
  731000   0.96486595   -7.2136497    199.10417  0.022697693  0.022727607            3 
  732000   0.96199603   -7.2659148    198.49182  0.022596974  0.022710053            3 
  733000   0.97311764   -7.2648002    199.02604  0.022626881   0.02269225            4 
  734000   0.96501863   -7.2026816    199.63643  0.022665353   0.02267465            3 
  735000    0.9594045   -7.2662523    199.48594  0.022617454  0.022657128            4 
  736000   0.96983115   -7.2311255     200.0373  0.022649151   0.02263949            3 
  737000   0.97290004   -7.2608859    199.85892   0.02259825    0.0226217            4 
  738000   0.96841105   -7.2639743    199.99059  0.022582497  0.022604079            9 
  739000   0.95345761   -7.2562568    200.13117  0.022567791  0.022586406            3 
  740000   0.94402721   -7.2399664    200.58185  0.022588046  0.022569077            2 
  741000   0.97416558   -7.2677335    200.14174  0.022508067  0.022551651           10 
  742000   0.95145462   -7.2539345    200.75259  0.022546338  0.022534091            5 
  743000   0.95996449   -7.2502746    200.82342  0.022523936    0.0225167            2 
  744000   0.94657754   -7.2452752    200.86425  0.022498235   0.02249941            9 
  745000   0.95979858   -7.2510534    201.09564  0.022493919   0.02248191            2 
  746000   0.95294144   -7.2672135    201.11772  0.022466233  0.022464276            2 
  747000   0.94475315   -7.2507706    201.20045  0.022445387  0.022446646            4 
  748000    0.9616534   -7.2375442    201.21202  0.022416669  0.022428856            6 
  749000   0.94803134   -7.2864364    200.62263  0.022321165  0.022411109            6 
  750000   0.94657903    -7.255715    201.42207   0.02238023  0.022393198            8 
  751000   0.97638753   -7.2888838    201.78733   0.02239096  0.022375289            2 
  752000    0.9742353   -7.2980769    201.21783  0.022298075  0.022357584            7 
  753000   0.95796082   -7.2898249    202.04469   0.02235997  0.022339834            6 
  754000   0.92576787   -7.2505336    201.75664  0.022298479  0.022322032            6 
  755000   0.94647824   -7.2587231    201.89516  0.022284234  0.022304252            3 
  756000   0.97134368   -7.2730568    201.48095  0.022209099  0.022286615            3 
  757000   0.96356353   -7.2750347    202.07126  0.022244745  0.022268824            4 
  758000   0.93974855   -7.2830371    202.60724  0.022274323  0.022251442            8 
  759000   0.95168994   -7.2753561    202.43243  0.022225783  0.022234081            6 
  760000   0.94561869    -7.288986    202.73507  0.022229723  0.022216655            6 
  761000   0.94783398   -7.2847601    203.24215  0.022256039  0.022199084            5 
  762000   0.93665471   -7.3025638    202.76408   0.02217455  0.022181678            7 
  763000   0.93979274   -7.2519474    203.79039  0.022257578  0.022164257           10 
  764000   0.95941382   -7.2378252    203.30539  0.022175544  0.022146905            3 
  765000   0.96912615   -7.2678502    202.97085  0.022110115  0.022129348            7 
  766000    0.9148321   -7.2680488    202.88276  0.022071667  0.022111819            3 
  767000    0.9634108    -7.212566    204.23895  0.022190238   0.02209462            5 
  768000   0.94746084   -7.2734439    203.57985  0.022089827  0.022077417            4 
  769000   0.96086871   -7.2628225    204.00617    0.0221073  0.022060187            3 
  770000   0.94502406   -7.2791481    203.79547  0.022055787  0.022042751            6 
  771000   0.95558693   -7.2793039    203.74412   0.02202163  0.022025321            3 
  772000   0.94101602   -7.2862081    204.15309   0.02203725   0.02200806            9 
  773000    0.9509689   -7.2783706    204.31048  0.022025709  0.021990665            3 
  774000   0.95742018   -7.3037049    204.95082  0.022066195  0.021973499            4 
  775000   0.95506134   -7.2807441    204.99659  0.022042644  0.021956409            8 
  776000   0.95193143   -7.2917403    205.02131  0.022016893  0.021939696            6 
  777000   0.94437236   -7.2722582    204.78244  0.021962939   0.02192293            7 
  778000   0.93703889   -7.3015668     204.9687  0.021954659  0.021906115            5 
  779000    0.9248889   -7.3143719    205.02634  0.021932642  0.021889015            4 
  780000    0.9370262   -7.3088452    204.85131  0.021885824  0.021871944            6 
  781000   0.93647983    -7.292688    205.02314  0.021876135  0.021854574            6 
  782000   0.92833019   -7.2960467    205.63758  0.021913638  0.021837313            4 
  783000   0.94751011   -7.2798066    205.57838  0.021879351  0.021819819            4 
  784000   0.94588205    -7.309793    204.82631  0.021771504  0.021802294            6 
  785000   0.95472729   -7.3130409    205.50069   0.02181536  0.021784872            5 
  786000   0.94835331   -7.2784828    204.99586  0.021734082  0.021767594            6 
  787000    0.9370205   -7.3125205    205.64033  0.021774707   0.02175049            5 
  788000    0.9323483   -7.3239985    205.70024  0.021753409  0.021733162            4 
  789000   0.92408845   -7.3485435    205.42887  0.021697177  0.021715827            2 
  790000   0.92844692   -7.3275943    205.21717  0.021647381  0.021698635            4 
  791000   0.94342275   -7.3307212     206.1404  0.021717278  0.021681455            9 
  792000   0.94060065   -7.3421213    206.62682  0.021741037  0.021664478            5 
  793000   0.95454485   -7.3094125    206.66467  0.021717599  0.021647363           14 
  794000   0.92872635   -7.3174615    206.88435  0.021713303  0.021630464            3 
  795000   0.93437358   -7.3482706    207.49507  0.021750007  0.021613615            4 
  796000   0.93100491   -7.3060817    207.31971  0.021704325  0.021596494            7 
  797000   0.92318769    -7.313976    207.31583  0.021676687  0.021579465            4 
  798000   0.93494258   -7.3411923    206.56478  0.021571092  0.021562465            3 
  799000     0.937644   -7.3398438    206.32766  0.021519364  0.021545246            7 
  800000   0.91966511   -7.3335137    206.89593  0.021551659  0.021527977            6 
  801000   0.92359097   -7.3016324    207.83385  0.021622332  0.021511197            6 
  802000   0.94141682   -7.3194305    207.81682  0.021593601  0.021494408            9 
  803000   0.93809985   -7.3374801    207.94887  0.021580414  0.021477562            5 
  804000   0.94875541    -7.314517    207.62369  0.021519868  0.021460772            4 
  805000   0.93707269   -7.3209244    208.08815  0.021541217  0.021443959            4 
  806000   0.93087583    -7.329308    208.05369  0.021510927  0.021427019            4 
  807000   0.92636425   -7.3843113    208.33371  0.021513188  0.021409913            2 
  808000   0.92222543   -7.3205334    208.43695   0.02149721  0.021393118            4 
  809000    0.9378432   -7.3600959    208.28167  0.021454642  0.021376395           11 
  810000   0.92673842   -7.3236864    208.60731  0.021461657  0.021359784            4 
  811000   0.92749729    -7.307622    208.59116  0.021433535  0.021343032            3 
  812000   0.92322883    -7.280744     209.8921  0.021540651  0.021326702            8 
  813000   0.92640414   -7.3228217    209.58909  0.021483096  0.021310345            5 
  814000   0.93471114   -7.2971207    209.72862  0.021470989  0.021293943           13 
  815000   0.90176071   -7.3466393    209.64207  0.021435795  0.021277636            8 
  816000   0.94636003   -7.3790525    209.37371  0.021382119  0.021261148            6 
  817000   0.93609452   -7.3207439    210.35052  0.021455581  0.021244704            6 
  818000   0.92984428   -7.3177214    210.08858  0.021402667  0.021228543            7 
  819000   0.93699645   -7.3285458    209.93358  0.021360763  0.021212255            7 
  820000   0.93588881   -7.3661052    209.66823  0.021307747  0.021195758            4 
  821000   0.90819337   -7.3233496    209.73941  0.021289018  0.021179325           10 
  822000   0.95423111   -7.3434313    209.95607  0.021285084  0.021162836            4 
  823000   0.93977426     -7.35706    209.86234   0.02124973  0.021146299           12 
  824000    0.9194671   -7.3405615    210.26543  0.021264707  0.021129787            6 
  825000   0.90961032   -7.3680264    209.85425  0.021197399  0.021112855            6 
  826000   0.92123743   -7.3642259    209.75869  0.021162095  0.021095964           10 
  827000   0.91665255   -7.4050925    209.92639  0.021153405  0.021079054           11 
  828000   0.91469333   -7.3573096    210.46171  0.021181735  0.021062266            8 
  829000   0.92213114   -7.3266258    210.96451  0.021206726  0.021045593            9 
  830000   0.90756717   -7.3460191    210.77267  0.021161914  0.021028972            7 
  831000   0.91769288   -7.3653042    210.24341  0.021083375  0.021012269            4 
  832000   0.92172682   -7.3577882    210.60427  0.021094178  0.020995531           15 
  833000   0.91928383   -7.3782869    210.60165  0.021068592   0.02097869            5 
  834000    0.9034365   -7.3735724    210.21451  0.021004647  0.020961696           14 
  835000   0.92552307   -7.3735238    211.08733    0.0210666  0.020944886            9 
  836000   0.88254992   -7.3577633    211.24577  0.021057194  0.020928363            8 
  837000   0.92853131    -7.405099    210.94872  0.021002461  0.020911656           10 
  838000   0.93499563    -7.372033    211.21444  0.021003823  0.020895001           11 
  839000   0.90673791   -7.3754884    211.75236  0.021032217  0.020878444            7 
  840000    0.9195261   -7.3462088     211.9322   0.02102502  0.020861898            8 
  841000   0.91625458   -7.3890309    211.33061   0.02094041  0.020845392            5 
  842000   0.91266009   -7.3315778    212.22033  0.021003595  0.020828849           13 
  843000   0.89498374   -7.3670258    211.91791  0.020948785  0.020812085            4 
  844000    0.9027327   -7.3579262    211.80255  0.020912574  0.020795465            5 
  845000   0.90252963   -7.3520401    212.06418  0.020913627  0.020778788            8 
  846000    0.9311177   -7.3865613    212.28241  0.020910403  0.020762063            5 
  847000   0.89932159   -7.4057087    212.21724  0.020879303  0.020745351            6 
  848000   0.90708608   -7.4129644    211.93483  0.020826929  0.020728662            8 
  849000   0.90035073   -7.3922373    212.07907  0.020816555  0.020711996            5 
  850000   0.90025766   -7.3892386    213.01757  0.020884076   0.02069535            6 
  851000   0.91787009   -7.3735945    212.41906  0.020800927   0.02067861            6 
  852000   0.90376546   -7.3974059    212.25884  0.020760842  0.020661883           13 
  853000   0.92826544   -7.3936324    212.11271  0.020722227  0.020644969            3 
  854000    0.9110215   -7.4252585    213.41329  0.020824872  0.020628282            7 
  855000   0.92895754   -7.4032402    213.03508  0.020763653  0.020611732            3 
  856000   0.91620367   -7.4016767    212.58179  0.020695267  0.020595094            8 
  857000   0.89078514   -7.4266717    212.58073  0.020671017  0.020578285            4 
  858000   0.91396227   -7.3735431    213.49425   0.02073565  0.020561664           12 
  859000   0.90922135   -7.4156044    213.19721  0.020682694  0.020545223            9 
  860000   0.93003884   -7.3918829    213.44895  0.020683037  0.020528814            4 
  861000   0.92402797   -7.4257745    213.75284  0.020688428  0.020512464            5 
  862000   0.91519625   -7.3960699     213.1431  0.020605481  0.020496064           12 
  863000   0.89703309   -7.4211919    213.01816   0.02056954  0.020479552            6 
  864000   0.90446472   -7.4402053    213.42946  0.020585403  0.020462997            6 
  865000   0.91766998   -7.3769361    214.17143  0.020633086  0.020446537            3 
  866000   0.91327767   -7.3852102    213.66051  0.020560095  0.020430255            5 
  867000   0.94036661   -7.4288299    213.43935  0.020515124  0.020413872           16 
  868000   0.90157146   -7.4131658    214.38592  0.020582365  0.020397375            5 
  869000   0.90979963   -7.3934712    213.62543  0.020485752  0.020380914            8 
  870000   0.91625641   -7.4197877    213.94141  0.020492472  0.020364248           11 
  871000   0.89555104   -7.4321393    213.97132  0.020471806  0.020347672           12 
  872000   0.91144353   -7.4211963    214.22468  0.020472542  0.020331264           11 
  873000   0.89902053   -7.4066061     213.9604  0.020423864    0.0203148            4 
  874000    0.9110585    -7.425583    214.10085  0.020413887   0.02029821           12 
  875000   0.91587398   -7.3970588    214.39578  0.020418646  0.020281671            5 
  876000   0.89953952   -7.3941912    214.58079  0.020412937  0.020265272            7 
  877000   0.90945581   -7.3971006    214.59189  0.020390715  0.020248766           10 
  878000   0.90471584   -7.4059503    214.83356  0.020390429  0.020232231           10 
  879000   0.90867612    -7.446885    214.49034  0.020334693  0.020215776            6 
  880000   0.87827281   -7.3861693    214.84489   0.02034516  0.020199395            5 
  881000   0.89795834   -7.4192689    215.20788  0.020356402  0.020183116           11 
  882000   0.88825662   -7.4175663    215.17765  0.020330465  0.020166729            9 
  883000   0.91004813   -7.4183244    215.59579  0.020346904   0.02015049            5 
  884000   0.90460247   -7.4380961    214.80108  0.020248971  0.020134014            4 
  885000   0.91486064   -7.4467338    215.77587  0.020317879  0.020117794            3 
  886000   0.87343751   -7.4185601    216.15738   0.02033083  0.020101648            4 
  887000   0.92247348   -7.3884418    216.45515  0.020335884  0.020085578            5 
  888000   0.89739875   -7.4079197    215.94591  0.020265194  0.020069592           17 
  889000   0.87384206   -7.4118939    215.58219  0.020208304  0.020053448            9 
  890000   0.89682112   -7.4194457    215.94881  0.020219926  0.020037316            5 
  891000   0.89303561   -7.4301523     216.4586  0.020244912  0.020021072           11 
  892000   0.89585541   -7.4340268    216.35528  0.020212563   0.02000481            9 
  893000   0.90203249    -7.456896    215.57366   0.02011699  0.019988558            5 
  894000   0.90620327   -7.4453174    216.49366  0.020180245  0.019972457            9 
  895000   0.88733741   -7.4593951    216.00745  0.020112425  0.019956236            8 
  896000   0.89585727   -7.4233281    216.66944  0.020151548  0.019940013           11 
  897000   0.92342206   -7.4194504    217.11867  0.020170816  0.019923913            4 
  898000   0.88173053   -7.4628041    216.32061  0.020074295  0.019907721            6 
  899000    0.8850677    -7.477031     216.1818  0.020039099  0.019891515           11 
  900000   0.89561557   -7.4520537    216.31938  0.020029572  0.019875325            9 
  901000   0.89634997   -7.4163461    216.75329  0.020047474  0.019859175            8 
  902000   0.88154148   -7.4465754    216.65965  0.020016598  0.019842945           15 
  903000   0.87623206   -7.4873326    216.12345  0.019944948   0.01982662            7 
  904000   0.88973749   -7.4731591    217.26033  0.020027685  0.019810274            5 
  905000   0.89274508   -7.4557491    216.38772  0.019925204  0.019793872            3 
  906000   0.87558617   -7.4566504    217.03207  0.019962479  0.019777615            5 
  907000   0.88147167    -7.476176    216.61552  0.019902198  0.019761441            3 
  908000   0.90418376     -7.45135    217.71783  0.019981446  0.019745152            6 
  909000   0.88266489   -7.4556223    217.23623  0.019915312  0.019728924            6 
  910000   0.89424317   -7.4286006    217.37475  0.019906113  0.019712793            6 
  911000   0.88475935   -7.4237939    218.15298   0.01995545  0.019696828            4 
  912000   0.91312212   -7.4532464     217.7428  0.019896089  0.019680754            5 
  913000   0.90021958   -7.4467009    217.83459  0.019882675  0.019664649            6 
  914000   0.91000567   -7.4226089    217.83601  0.019861051  0.019648716            7 
  915000   0.90563248   -7.4317619      218.265  0.019878415  0.019632882            6 
  916000   0.88524662   -7.4415432    217.94908  0.019827973   0.01961703           11 
  917000   0.88525549   -7.4553627    218.02307  0.019813074  0.019600907            5 
  918000    0.9105519    -7.488342    217.52395  0.019746183  0.019584721            8 
  919000   0.90196697   -7.4554059    218.63654  0.019825584  0.019568541           10 
  920000   0.87851516   -7.4647333    217.97791  0.019744376  0.019552299            4 
  921000    0.8962564   -7.4820338    218.42757  0.019763624  0.019536057            6 
  922000   0.88314026   -7.4718495    218.04194  0.019707333  0.019519839           17 
  923000   0.89318921   -7.5095509     218.4216   0.01972026  0.019503682            8 
  924000   0.88383429   -7.4677166    218.03331  0.019663899  0.019487568            7 
  925000   0.86616701   -7.5228261    217.11772  0.019560155    0.0194714           10 
  926000   0.88868447   -7.4757357    218.35244  0.019650148  0.019455123           15 
  927000   0.88668892   -7.4995252    218.75356  0.019665009  0.019438929           13 
  928000   0.85389004    -7.517982    218.25374  0.019598935   0.01942289            6 
  929000   0.88572605   -7.5031015    218.29896  0.019581894  0.019406867           16 
  930000   0.86688412   -7.4973078    218.48442  0.019577457  0.019390727            7 
  931000   0.88089595   -7.5594257    217.91699  0.019505639  0.019374462            6 
  932000   0.87779559   -7.5027952    218.71925  0.019556442  0.019358205            9 
  933000   0.89455691   -7.4501363      219.343  0.019591193  0.019342108            6 
  934000   0.87125356    -7.493866    218.67121  0.019510279  0.019326003           13 
  935000   0.88719783   -7.4941116    219.00657  0.019519302  0.019309793           16 
  936000   0.89434403    -7.487234    219.24561   0.01951973  0.019293666           10 
  937000   0.87307573   -7.4877535    219.13173   0.01948877  0.019277654            8 
  938000   0.88964216   -7.5360813    218.51663  0.019413347  0.019261452           27 
  939000   0.88562387    -7.492041    218.96125  0.019432131  0.019245162            6 
  940000   0.87350271   -7.5036441    218.75756  0.019393401  0.019228997            8 
  941000     0.860199   -7.4784675    219.26408  0.019417648  0.019212812            4 
  942000   0.87317628   -7.4619251    219.09493  0.019382071    0.0191968           11 
  943000   0.87364777   -7.4926101    219.62836  0.019408657  0.019180698           14 
  944000   0.87035998   -7.5225374    219.52326  0.019378819   0.01916464            5 
  945000   0.87264104   -7.5073359    219.55358  0.019360986  0.019148722           11 
  946000   0.87335916   -7.4931021    220.04443  0.019383758  0.019132772           16 
  947000   0.86806349    -7.521259     220.4403  0.019398126  0.019116812            7 
  948000   0.88329527   -7.5216544    219.24631  0.019272707   0.01910065            8 
  949000   0.86109074   -7.5347293    219.87997  0.019308041  0.019084561           14 
  950000   0.87274911   -7.5454892    219.81962  0.019282423   0.01906847           12 
  951000   0.88174506   -7.5518189    219.17247  0.019205439  0.019052315           10 
  952000   0.88134809   -7.5620859     219.8651  0.019245894  0.019036077            9 
  953000   0.86591396   -7.5452887    219.46376  0.019190605  0.019019914           17 
  954000   0.88369194   -7.4828369     220.5998  0.019269724  0.019003967           11 
  955000   0.88217049   -7.5293282    220.29318  0.019222791  0.018988115           21 
  956000   0.88146145   -7.5527575    219.88277  0.019166908  0.018972116           21 
  957000   0.85752924   -7.5296345    220.15735  0.019170789  0.018956111            6 
  958000   0.84987014   -7.4755397    220.64975  0.019193611  0.018940194            9 
  959000    0.8667863   -7.5373678    220.55776  0.019165603  0.018924308           17 
  960000   0.87190869   -7.5204141    220.62736  0.019151681  0.018908387            9 
  961000   0.87442511   -7.5482694    220.60141  0.019129502  0.018892622            9 
  962000   0.86498362   -7.5411829    219.92556  0.019051071  0.018876634            8 
  963000   0.86819203   -7.5226889    220.70851  0.019099041  0.018860637            7 
  964000   0.88876201   -7.5494246    219.81888  0.019002324  0.018844609            8 
  965000   0.86313121   -7.5215581    220.81602  0.019068741  0.018828564            9 
  966000   0.86480224   -7.5028948    220.43798  0.019016389  0.018812488            5 
  967000   0.86108641   -7.5301477    220.80755  0.019028572   0.01879648            9 
  968000   0.84482558   -7.5692101    219.97194  0.018936978  0.018780249           11 
  969000   0.83845635   -7.5488689     220.1347  0.018931433  0.018764152            5 
  970000   0.86152522   -7.5532789    220.43761  0.018937939  0.018748056            7 
  971000   0.85180594   -7.5242295    221.25366  0.018988471  0.018731954           13 
  972000   0.87124512   -7.5728679    220.07698  0.018868054  0.018715906            6 
  973000   0.85238509   -7.5796126    219.89829  0.018833358  0.018699711            6 
  974000   0.86467596   -7.5268636    220.62808  0.018876461  0.018683577           21 
  975000   0.86343114   -7.5687958    220.55285  0.018850671  0.018667352           10 
  976000   0.86381407   -7.5584046    220.38588    0.0188171  0.018651319            4 
  977000   0.85697761   -7.5742073    220.57629  0.018814081    0.0186352           12 
  978000   0.83028924   -7.5238586    220.93273  0.018825215  0.018619021            8 
  979000   0.86865573   -7.5604666    221.51024  0.018855144  0.018602964            6 
  980000   0.85441011   -7.5172428    221.11801  0.018802552  0.018586973            5 
  981000   0.85682599    -7.527432    221.65741  0.018829205    0.0185709            4 
  982000   0.88289927   -7.5691673    220.72938  0.018731278   0.01855486            5 
  983000   0.85361496   -7.5690635    221.19703  0.018751868  0.018538866            9 
  984000   0.86348625   -7.5628897    220.91323  0.018708776  0.018522808           10 
  985000   0.87497402   -7.5730607    221.51192  0.018740433  0.018506849            6 
  986000   0.85947449    -7.537687    221.47032  0.018717911  0.018490941           14 
  987000   0.85538811    -7.541199    222.01651  0.018745062  0.018475029           15 
  988000   0.85606641   -7.5294522    221.15884  0.018653749  0.018459142           14 
  989000   0.84697025   -7.5324966    221.98916   0.01870485  0.018443314           14 
  990000    0.8597969    -7.536972    221.89599  0.018678114  0.018427475            6 
  991000   0.84829181   -7.5392301    221.66364  0.018639727  0.018411633           10 
  992000   0.85171416   -7.5538896    221.49565  0.018606825  0.018395807           10 
  993000    0.8564455   -7.5939154    221.42784  0.018582397  0.018379937            8 
  994000   0.85564294   -7.5781412    221.52532  0.018571874  0.018364094            8 
  995000   0.87899894   -7.5392114    221.66433  0.018564852  0.018348258            9 
  996000   0.88003822   -7.5611967    221.89697  0.018565677  0.018332481           13 
  997000   0.86238544   -7.5595831    222.31597  0.018582077  0.018316805           12 
  998000   0.86747429   -7.5656592    221.82248  0.018522251  0.018301162            9 
  999000   0.84622094   -7.6105341    222.20552  0.018535662  0.018285454            9 
 1000000   0.85213979   -7.5951774    222.52905  0.018544087  0.018269828           16 
 1001000   0.84894507   -7.5512456    222.40678  0.018515383   0.01825414            7 
 1002000   0.85187827   -7.5665174    221.84724  0.018450369  0.018238418           10 
 1003000   0.84361706   -7.5256113    222.93231  0.018522126  0.018222715            7 
 1004000   0.84489265   -7.6057902    222.33417  0.018454031   0.01820702            5 
 1005000   0.84785452   -7.6164614    221.40758  0.018358838  0.018191153            6 
 1006000   0.85657236    -7.580082    222.31684  0.018415908  0.018175342            8 
 1007000   0.86078759   -7.5584657    222.82454  0.018439634  0.018159634           11 
 1008000   0.85163006   -7.6087338    222.31754  0.018379426  0.018143816           12 
 1009000   0.84603744   -7.6130122    222.47267  0.018374023  0.018128037            7 
 1010000   0.84593963    -7.630015    222.34545  0.018345334  0.018112458           16 
 1011000   0.84866736   -7.6410605    222.58633  0.018347044  0.018096865           13 
 1012000   0.84871032   -7.5599671     223.9162  0.018438422  0.018081304            9 
 1013000   0.83992003   -7.6191009    222.41526  0.018296747  0.018065739            4 
 1014000   0.86286916   -7.6160776    222.69417  0.018301625  0.018050072           14 
 1015000   0.84692294   -7.5990436     222.7941  0.018291798  0.018034464           10 
 1016000   0.83964919   -7.5997841    223.02312  0.018292579  0.018018962            7 
 1017000   0.84991891   -7.6038792    223.77127  0.018335896  0.018003397           17 
 1018000   0.83586055   -7.5937423    223.29208  0.018278658  0.017987927           14 
 1019000   0.85049245   -7.5623401    223.62473  0.018287923  0.017972499           12 
 1020000   0.84435558   -7.5859659    223.59887  0.018267882  0.017957014           21 
 1021000   0.83990301   -7.6217913    222.76399  0.018181847  0.017941454           15 
 1022000   0.84803154   -7.5897541    223.51501  0.018225294   0.01792588           16 
 1023000   0.84284533   -7.6265703    223.22826  0.018184121  0.017910376           15 
 1024000   0.83847422   -7.6221372    222.89602  0.018139324  0.017894853           14 
 1025000   0.86028132   -7.6021661    224.01492  0.018212595  0.017879324           19 
 1026000     0.856742   -7.5815794    224.03237  0.018196262  0.017863785           20 
 1027000   0.85450937   -7.6231645    223.27649  0.018117209  0.017848186           50 
 1028000   0.84086252   -7.5692663    223.87205  0.018147864  0.017832676           24 
 1029000   0.83295685   -7.6007671    223.55048  0.018104186  0.017817249           38 
 1030000   0.84634413   -7.6251365    223.43361  0.018077153  0.017801791            9 
 1031000   0.84220585   -7.6339157    223.87093  0.018094967   0.01778625           14 
 1032000   0.83476619   -7.6134091    223.95021  0.018083835  0.017770775           14 
 1033000   0.83227287   -7.6261199    224.04847  0.018074255  0.017755396           10 
 1034000   0.85148344   -7.6322038    223.71381  0.018029804  0.017740045           22 
 1035000   0.85153742   -7.5752628     224.2771  0.018057737  0.017724728           11 
 1036000   0.82785532   -7.6175585    223.80989  0.018002726  0.017709351           14 
 1037000   0.84927307   -7.5953981    224.19592  0.018016387   0.01769389           13 
 1038000   0.84207448   -7.5990228    223.76608  0.017964521  0.017678514            6 
 1039000   0.83198212   -7.6329824    223.69245  0.017941326  0.017663064           10 
 1040000   0.83534628   -7.6727204    223.69243  0.017924073  0.017647563           14 
 1041000   0.85819863   -7.6421323    223.55508  0.017895859  0.017632108           16 
 1042000   0.82657316    -7.667697    223.90954  0.017907033  0.017616625           24 
 1043000   0.80932927   -7.6387232    223.73574  0.017875978  0.017601153           18 
 1044000   0.85408336   -7.6731081    223.60517  0.017848433  0.017585665           36 
 1045000   0.83978009   -7.6374021    224.02448  0.017864791  0.017570141           17 
 1046000   0.85749315   -7.6488191    223.59789  0.017813726  0.017554737           11 
 1047000   0.85695281   -7.6381434    223.64116  0.017800156  0.017539318           14 
 1048000   0.84101861   -7.6297347    223.88253  0.017802364  0.017523864           17 
 1049000   0.83117932   -7.6847181    224.32084  0.017820213  0.017508306           11 
 1050000   0.86070612    -7.676847    224.16539  0.017790904  0.017492736            7 
 1051000   0.81710903   -7.6401186    223.91331  0.017753989    0.0174772            8 
 1052000   0.82575534    -7.619104    224.31109  0.017768623  0.017461766           10 
 1053000   0.84885509   -7.6821015    224.31766  0.017752268  0.017446434            8 
 1054000   0.83598844   -7.6329494    224.51123   0.01775073  0.017431063           13 
 1055000   0.81469975   -7.6483495    224.27407  0.017715172  0.017415687           16 
 1056000    0.8262376   -7.6404443    224.57703  0.017722303  0.017400333           13 
 1057000   0.81799846   -7.6424736    224.63636  0.017710214   0.01738499           11 
 1058000   0.82133774   -7.6494101    224.61336  0.017691663  0.017369547           14 
 1059000   0.84350855   -7.6811073    224.27767  0.017648542  0.017354154           20 
 1060000   0.83208435   -7.6792808    224.45254   0.01764564  0.017338831            7 
 1061000   0.83726856   -7.6372878    224.75565  0.017652816  0.017323492           14 
 1062000   0.85097907    -7.664726    224.54085  0.017619338  0.017308233            8 
 1063000    0.8251823    -7.645219     224.7095  0.017615985  0.017293017            8 
 1064000   0.82837978   -7.6569178     224.7108   0.01759953  0.017277784            6 
 1065000   0.82378749   -7.6768142    225.45928  0.017641571  0.017262594           11 
 1066000   0.85861036   -7.6147318    225.02441  0.017591026  0.017247454            8 
 1067000   0.82248061   -7.6651199     224.3816  0.017524336  0.017232176            8 
 1068000   0.82257275    -7.630403    224.98205  0.017554779  0.017216863           13 
 1069000   0.83117385   -7.6959988    224.59482  0.017508172  0.017201521            9 
 1070000   0.83051912   -7.6296943    225.27235  0.017544575  0.017186351            7 
 1071000   0.81984421   -7.6590543    224.72328  0.017485471  0.017171158           18 
 1072000   0.81383784   -7.6367893    224.88896   0.01748204  0.017156038            8 
 1073000   0.82724484   -7.6555326    225.34942  0.017501508  0.017140915           15 
 1074000   0.82097947   -7.6733481    225.41723  0.017490474  0.017125828           10 
 1075000   0.82510749   -7.6821349    224.76075  0.017423314  0.017110598            5 
 1076000   0.81905884   -7.6755868    225.26955  0.017446526  0.017095329            5 
 1077000      0.81454   -7.7037076    225.08019  0.017415676  0.017080042            8 
 1078000   0.82411426    -7.702712     224.7165  0.017371406  0.017064938           13 
 1079000   0.83431984   -7.7165713    224.68073  0.017352543   0.01704979           12 
 1080000   0.82529182   -7.6755213    225.47389  0.017397677  0.017034613            9 
 1081000   0.81444382   -7.6834911    225.58194  0.017389912  0.017019488            9 
 1082000   0.81712628   -7.6893477    225.01085  0.017329856  0.017004347           13 
 1083000    0.8161006   -7.6743268     225.2485  0.017332141  0.016989134            7 
 1084000   0.81928479   -7.7136472    225.15964  0.017309321  0.016973964           10 
 1085000   0.83262061   -7.7111405    225.04758   0.01728476  0.016958756           16 
 1086000   0.83585037   -7.6895713      225.554  0.017307704  0.016943556           29 
 1087000   0.79993879   -7.6865075    225.70985   0.01730373  0.016928414           11 
 1088000   0.79795026   -7.6875373    225.30147  0.017256546  0.016913235           12 
 1089000   0.83371425   -7.7265599    224.81453  0.017203438  0.016898135            5 
 1090000   0.82365336    -7.700998    225.85856  0.017267474  0.016882954            7 
 1091000   0.82489725   -7.7010113    225.24788  0.017205001  0.016867894            4 
 1092000   0.82057952   -7.7147798    225.00947  0.017171052  0.016852822           11 
 1093000   0.82719467   -7.6940886    225.51216  0.017193669  0.016837701            8 
 1094000   0.81843537   -7.6927795    226.07571   0.01722088  0.016822646            4 
 1095000   0.80942507     -7.72517    225.33568  0.017148834  0.016807497           20 
 1096000   0.83929635   -7.7162576      225.237  0.017125684  0.016792376           17 
 1097000   0.80642748   -7.6824911    226.29275  0.017190273  0.016777311           12 
 1098000   0.82098295   -7.7198851    225.93818  0.017147706  0.016762314           16 
 1099000   0.80710369   -7.7026136    225.77472  0.017119709  0.016747304           28 
 1100000   0.81863714   -7.7025456    225.55525  0.017087519  0.016732334           22 
 1101000   0.81377051    -7.707599    226.23629  0.017123546  0.016717383           68 
 1102000    0.8233827    -7.711987    225.93075  0.017084902  0.016702396            8 
 1103000   0.78617376   -7.7294232    225.67503  0.017050093  0.016687465           15 
 1104000   0.82282943   -7.6910294    225.42931  0.017016102  0.016672489           11 
 1105000   0.81736556   -7.7426304    225.73312  0.017023614  0.016657498           13 
 1106000   0.81614093   -7.7385406    225.92419  0.017022618  0.016642484           20 
 1107000   0.81622679   -7.7287076    225.47555  0.016973468  0.016627479           33 
 1108000   0.80471464    -7.738796     225.5827  0.016966208  0.016612554           15 
 1109000   0.81104493   -7.7326317    226.30751  0.017005373    0.0165976           14 
 1110000   0.81787443   -7.7169934    225.82814  0.016954064  0.016582686            9 
 1111000   0.81540503   -7.7032506    226.78725  0.017010745  0.016567759           12 
 1112000   0.80195157   -7.7337948    225.46842  0.016896614  0.016552864           46 
 1113000   0.80072015   -7.7504175     226.1399  0.016931709    0.0165379           16 
 1114000   0.79562641   -7.7526118    225.69053  0.016882894  0.016522911           14 
 1115000   0.80236801   -7.7210598    225.56033  0.016858022  0.016507899           39 
 1116000   0.79037605   -7.7290187    225.54662  0.016841892  0.016492905           19 
 1117000   0.80909984   -7.7778378    225.78642  0.016844705  0.016477864           31 
 1118000   0.81434679   -7.7469479    225.96128  0.016842671  0.016462763           21 
 1119000   0.79512733   -7.7220078    225.92226  0.016824714  0.016447739            4 
 1120000   0.80139231     -7.73261    225.93719  0.016810803  0.016432747           10 
 1121000   0.80893184   -7.7359939    226.16656  0.016812857  0.016417764           10 
 1122000   0.80242168   -7.7347455    225.61177  0.016756667  0.016402802           10 
 1123000   0.80131111   -7.7501123    225.99154  0.016769927  0.016387911           13 
 1124000    0.8260499   -7.7190682    225.93079  0.016750503  0.016372998            9 
 1125000    0.8040122   -7.7335891     226.5446  0.016781082  0.016358075           43 
 1126000    0.8024381   -7.7568151    226.27076  0.016745912  0.016343206           16 
 1127000   0.80631078   -7.7420812    226.43182  0.016742962  0.016328324            7 
 1128000   0.81404701   -7.7402124    226.08275  0.016702331  0.016313487            5 
 1129000    0.8087216   -7.7403893    225.75639  0.016663448  0.016298695           10 
 1130000   0.79639091   -7.7508769     226.0712  0.016671917  0.016283817           13 
 1131000   0.78805727   -7.7160288    226.41278  0.016682344  0.016268974           14 
 1132000   0.79258081   -7.7368181    226.36328  0.016663964  0.016254265           12 
 1133000   0.82015478   -7.7445007     225.8194  0.016609253  0.016239527           11 
 1134000   0.78862491   -7.7561893     225.9923  0.016607312  0.016224791            8 
 1135000   0.81963606   -7.7684204    226.62803  0.016639356  0.016210034           21 
 1136000    0.8005968   -7.7679818    226.33316  0.016603078  0.016195296           11 
 1137000   0.79291904   -7.7220779    226.67738  0.016613704  0.016180531           18 
 1138000   0.80217437     -7.73189    226.91036  0.016616166  0.016165898            7 
 1139000   0.79052623   -7.7559826    226.47761  0.016569916  0.016151299            7 
 1140000   0.81633416   -7.7507035    226.40875  0.016550347  0.016136586            9 
 1141000   0.79530335   -7.7484859    226.62974  0.016551982  0.016121947           11 
 1142000   0.77846551   -7.7742627    226.56844  0.016533015  0.016107343            9 
 1143000   0.79590309   -7.7797433    226.56427  0.016518247  0.016092622           29 
 1144000    0.7989467    -7.797453    226.27778  0.016482939   0.01607792           29 
 1145000   0.79931189   -7.8043244    226.19858  0.016462779  0.016063208           14 
 1146000   0.79436918   -7.7623281    227.09724  0.016513761  0.016048529            7 
 1147000   0.79742243   -7.7657616    226.93921  0.016487882  0.016033831           14 
 1148000   0.80270136   -7.7491128    226.64195  0.016451942  0.016019235           11 
 1149000   0.79526749   -7.7742477    227.24815  0.016481589  0.016004721           10 
 1150000   0.79948669   -7.7551231    226.10132  0.016384154  0.015990225           15 
 1151000   0.78957837   -7.7775972      226.973  0.016433029  0.015975735           22 
 1152000   0.78682473   -7.7519987    227.28275  0.016441171  0.015961276           14 
 1153000   0.78685156   -7.7621839    227.04659  0.016409843  0.015946812           22 
 1154000   0.78557111   -7.8084428    226.82899  0.016379909  0.015932231           17 
 1155000   0.78975338   -7.7897632    226.74227  0.016359471  0.015917686           28 
 1156000   0.78710233   -7.7774089    226.25532  0.016310216  0.015903156           28 
 1157000   0.77838172   -7.7754365     227.0578  0.016353918  0.015888611            7 
 1158000   0.77871091   -7.7763243    226.78727  0.016320327  0.015874113           34 
 1159000   0.78502217   -7.8043279    226.79098  0.016306513   0.01585963           17 
 1160000   0.79380465    -7.769561    227.64861  0.016354067  0.015845187            9 
 1161000   0.79177344    -7.786312    226.52047  0.016259006  0.015830744           19 
 1162000    0.8100321   -7.7506834    227.28346  0.016299732  0.015816304           43 
 1163000   0.78153953   -7.8090061     226.7683  0.016248803  0.015801869           36 
 1164000   0.79564438   -7.7663618    227.29184  0.016272325  0.015787394           33 
 1165000   0.78870197   -7.7793802    227.57054  0.016278293  0.015773033           35 
 1166000   0.76909883   -7.7750271    227.18856  0.016237033  0.015758691           51 
 1167000   0.79311639   -7.7897338    227.34943  0.016234606   0.01574432           46 
 1168000   0.79186235    -7.766963    227.13487  0.016205399  0.015729915           35 
 1169000   0.77568891   -7.7856883    227.31632  0.016204471  0.015715595           53 
 1170000   0.79250616   -7.8237455    227.65305  0.016214605  0.015701241           34 
 1171000   0.79324073   -7.8314479    226.44808  0.016115007  0.015686849           26 
 1172000   0.78312422   -7.7966833    226.94493  0.016136585  0.015672386           39 
 1173000   0.80360713   -7.8255547    227.37073  0.016153078  0.015657923           23 
 1174000   0.78820277    -7.831166    227.05367  0.016116813  0.015643502           59 
 1175000   0.77049679    -7.855357    226.06779  0.016033177  0.015629007           37 
 1176000    0.7845327   -7.8496661    226.95974  0.016082748  0.015614506           43 
 1177000   0.78700816   -7.8299896    226.65397  0.016047435  0.015600008           51 
 1178000   0.78092226   -7.8314049    226.73476  0.016039527  0.015585532           41 
 1179000   0.77823556   -7.8210776    227.21783  0.016060067  0.015571002           37 
 1180000   0.79477639   -7.8314819    226.67126  0.016007857    0.0155566           48 
 1181000   0.78800592   -7.8482054    226.65525  0.015993173  0.015542206           61 
 1182000   0.80192094   -7.8263538    227.57114  0.016044215  0.015527943           39 
 1183000    0.7859706   -7.8346411    226.95355  0.015987147  0.015513667           40 
 1184000   0.77668537   -7.7883822    227.87487   0.01603849   0.01549942           42 
 1185000   0.79039011   -7.7953377    227.65789  0.016009697  0.015485292           35 
 1186000   0.77483967   -7.8403064    226.74129  0.015931794  0.015471062           50 
 1187000   0.79926336   -7.8368239    227.30565  0.015957993  0.015456791           32 
 1188000   0.77743012   -7.8210926    226.67896    0.0159006  0.015442497           35 
 1189000    0.7752453   -7.8294014    227.02652  0.015911586  0.015428261           48 
 1190000   0.76439438   -7.8410306    226.93731  0.015891968  0.015413976           30 
 1191000   0.77021381   -7.8355364    227.11768  0.015891245  0.015399679           40 
 1192000   0.78570433   -7.8379684    227.16103  0.015880944  0.015385423           21 
 1193000   0.78391233   -7.8589242    227.43143   0.01588652  0.015371158           40 
 1194000   0.78617815   -7.8405088    227.57661  0.015883348  0.015357002           56 
 1195000   0.77655491   -7.8244164    227.32329  0.015852392  0.015342847           40 
 1196000   0.77746941   -7.8498167    226.77445  0.015800895  0.015328681           58 
 1197000   0.77623378   -7.8320199    227.00015  0.015803408  0.015314595           59 
 1198000   0.77682707   -7.8324194    227.76846   0.01584366  0.015300502           96 
 1199000   0.77358615   -7.8680332    226.76715  0.015760853   0.01528639          103 
 1200000   0.77670181   -7.8450953    227.28721  0.015783834  0.015272291           48 
 1201000   0.77491894   -7.8095241    227.52308  0.015787058  0.015258259           59 
 1202000   0.77008204   -7.8550204    227.00377  0.015737921  0.015244174           56 
 1203000   0.77559197   -7.8703311    227.32298  0.015746951  0.015230012           36 
 1204000     0.786932   -7.8871686    227.31762  0.015733501  0.015215875           36 
 1205000   0.76852962   -7.8401656    227.10389  0.015705663  0.015201755           73 
 1206000   0.76111979   -7.8355556    227.34535  0.015709325  0.015187672           47 
 1207000   0.78436515   -7.8841057     226.9713  0.015670485  0.015173585           69 
 1208000   0.75573221   -7.8600452     227.1952  0.015672958  0.015159472           80 
 1209000   0.77408858   -7.8641686     227.7421  0.015697691   0.01514534           51 
 1210000   0.76623385   -7.8695934    227.02464  0.015635306  0.015131242          154 
 1211000   0.78175745   -7.8894319    227.10993  0.015628264  0.015117139           66 
 1212000   0.75411949   -7.8335579    227.81851  0.015664089  0.015102991           83 
 1213000   0.77964417   -7.8750005    227.03415  0.015597289  0.015088923           87 
 1214000   0.77714676   -7.8637489    227.26459   0.01560026  0.015074882           89 
 1215000   0.76343407   -7.8757484    227.31352  0.015590776    0.0150609           59 
 1216000   0.76384297   -7.8795022    227.51833  0.015591991  0.015046913           66 
 1217000   0.75708703   -7.9206824    226.88792  0.015536012  0.015032941           83 
 1218000   0.76975241   -7.9242032    227.32697  0.015553296  0.015018916           88 
 1219000   0.76820635   -7.8831472      226.934  0.015513672  0.015004936           37 
 1220000   0.77412605   -7.8971947    226.48485  0.015470277  0.014990921           51 
 1221000   0.78510054   -7.8986408    227.03281  0.015495005  0.014976887           55 
 1222000   0.77082086   -7.8626355    227.60564  0.015521389  0.014962896           31 
 1223000   0.76053752   -7.9044069    227.27928   0.01548646  0.014948928           29 
 1224000   0.77054757   -7.8589774     227.7044  0.015502751  0.014934991           49 
 1225000   0.77394205   -7.8648657    227.37866  0.015467936  0.014921094           85 
 1226000   0.76726144   -7.8703894    227.81484  0.015484967  0.014907284           40 
 1227000   0.77926162   -7.8754838    227.56552  0.015455414  0.014893431           35 
 1228000   0.76249243   -7.8951397    227.34947  0.015428167  0.014879567           22 
 1229000   0.75706236   -7.8909677    227.28198  0.015411038  0.014865672           43 
 1230000   0.77779938   -7.8940328    227.22297   0.01539451  0.014851808           37 
 1231000   0.75918459   -7.8556287    227.45174  0.015397491  0.014837905           35 
 1232000   0.76097072   -7.8724901    227.34858  0.015378016  0.014824067           35 
 1233000   0.76729734   -7.8807712    226.77987  0.015327107  0.014810201           40 
 1234000   0.75244399   -7.9291306    227.03929  0.015332205   0.01479637           47 
 1235000   0.75475473   -7.8753499    227.32274  0.015338916  0.014782501           40 
 1236000   0.75904424   -7.8785815    227.85265  0.015362234  0.014768666           42 
 1237000   0.76725867   -7.8982767    227.09875  0.015299026  0.014754879           58 
 1238000   0.76629672   -7.8865518    227.59983  0.015320398  0.014741124           46 
 1239000   0.76332096   -7.8719368    227.79927  0.015321447  0.014727353           20 
 1240000   0.76060571   -7.8651001    227.67735  0.015300897  0.014713611           32 
 1241000    0.7650049   -7.8911471    227.46995  0.015274641  0.014699887           31 
 1242000   0.74973539   -7.8957478    227.43995   0.01526033  0.014686134           41 
 1243000   0.75868784   -7.8861061    227.61513  0.015259797  0.014672428           56 
 1244000   0.75703693   -7.8885182    227.20274  0.015219905  0.014658715           48 
 1245000   0.76151216   -7.9060111    227.18012  0.015206166  0.014644927           29 
 1246000   0.76581683   -7.9054254    227.14729  0.015191766  0.014631164           78 
 1247000   0.76036191   -7.8722731    226.97544    0.0151681  0.014617395           73 
 1248000   0.75033583   -7.8963701    227.49146  0.015190402  0.014603659           43 
 1249000    0.7549977   -7.9000456    227.61102  0.015186217   0.01458997           15 
 1250000   0.75322625   -7.9051924    227.07993  0.015138662  0.014576288           40 
 1251000   0.76347779   -7.9171678    227.16269  0.015132074  0.014562557           42 
 1252000   0.77455159     -7.93109    226.67212  0.015087335  0.014548829           48 
 1253000   0.74650796   -7.9482842    226.75259  0.015080646  0.014535087          102 
 1254000     0.753376   -7.9435064     226.7679  0.015069637  0.014521312           68 
 1255000   0.74967412   -7.9605644    226.82952  0.015061721  0.014507522          103 
 1256000   0.74546804   -7.9178382    227.07593  0.015066078  0.014493816           78 
 1257000   0.76062313   -7.9420435    227.29646  0.015068712  0.014480114           59 
 1258000   0.74324047   -7.9520866    226.65486  0.015014233  0.014466399          101 
 1259000   0.75141368   -7.9242107    226.99224  0.015024639  0.014452778           80 
 1260000     0.748992   -7.9229608    227.40742  0.015040173  0.014439118           96 
 1261000   0.75546905     -7.92363    227.16581  0.015012279  0.014425488           90 
 1262000   0.75053242   -7.9367136    227.00925  0.014990046  0.014411849           93 
 1263000   0.73603094   -7.9306694    227.09789  0.014984025  0.014398209          117 
 1264000    0.7451372   -7.9268117    227.74939  0.015015124  0.014384573           78 
 1265000   0.74839384   -7.9397733     227.1639  0.014964684  0.014370963          138 
 1266000   0.76095637   -7.9461239    227.31362  0.014962719  0.014357418           98 
 1267000   0.74998411   -7.9255896    227.04629  0.014933326  0.014343866          135 
 1268000    0.7477465   -7.9436579    227.25662  0.014935372  0.014330322          112 
 1269000   0.73389785   -7.9666032    227.05744  0.014910523  0.014316753          122 
 1270000   0.74887411   -7.9496643    227.23393  0.014910363  0.014303188          147 
 1271000   0.72856935   -7.9657418    227.09591  0.014889582  0.014289642          153 
 1272000   0.75089777   -7.9495851    227.01969  0.014872883  0.014276078           76 
 1273000   0.74004799   -7.9795801    226.95988  0.014857285  0.014262509          151 
 1274000   0.74024521   -7.9628568     226.9639  0.014845886  0.014248921          143 
 1275000    0.7585043     -7.95197    227.72912  0.014884256  0.014235364          156 
 1276000   0.74556176   -7.9598467    227.19796  0.014837903   0.01422186           91 
 1277000   0.74631768   -7.9535017    226.90984  0.014807481  0.014208339          100 
 1278000   0.74234554   -7.9732618    227.43768  0.014830313  0.014194852          158 
 1279000   0.74894275   -7.9598847    227.21932  0.014804491  0.014181341          114 
 1280000   0.75296842   -7.9721923    226.80618  0.014766027  0.014167817          160 
 1281000   0.71954084   -7.9669416     226.7225  0.014749057  0.014154329          174 
 1282000    0.7506668   -7.9747421    227.15131  0.014765425  0.014140831          185 
 1283000   0.73978408    -7.990814    226.96215  0.014741631  0.014127374          124 
 1284000   0.73508819   -7.9940781    227.02586  0.014734285   0.01411388          176 
 1285000   0.74989766   -7.9893621    226.63586  0.014697526  0.014100376          172 
 1286000    0.7476701   -7.9659152     227.3522  0.014732517  0.014086905          180 
 1287000   0.73099151   -7.9703504    226.74295  0.014681621  0.014073512          234 
 1288000   0.74172667   -8.0030112      226.798  0.014673784  0.014060065          193 
 1289000    0.7508726   -7.9586656    227.41411  0.014702231  0.014046679          242 
 1290000   0.72163484   -7.9887307    227.20892  0.014677579  0.014033295          236 
 1291000   0.72471466   -7.9680114    227.44711  0.014681585  0.014019911          255 
 1292000   0.74419968    -8.000812    226.64699  0.014618614  0.014006523          293 
 1293000   0.74779568   -7.9717556    227.07049  0.014634603  0.013993123          289 
 1294000   0.73232069   -7.9811179    226.78891  0.014605159  0.013979774          227 
 1295000   0.73236957   -7.9974052    227.07342  0.014612189  0.013966371          232 
 1296000   0.74288569    -7.986648    226.86913  0.014587779   0.01395299          280 
 1297000   0.73678911   -7.9893551    227.21939  0.014599035  0.013939616          139 
 1298000   0.73969885   -8.0103828    226.73869  0.014556927  0.013926259          265 
 1299000   0.73561667   -8.0203403    226.49862  0.014530319  0.013912901          268 
 1300000    0.7341857   -8.0024483    227.19636  0.014563869  0.013899578          254 
 1301000   0.73708143   -8.0039791     226.8811  0.014532481  0.013886238          277 
 1302000   0.74345523   -7.9931025    226.45094  0.014493787  0.013872888          322 
 1303000   0.72256614    -7.993533    226.71628  0.014499634   0.01385957          342 
 1304000   0.72757027   -8.0295499    226.59973  0.014481067  0.013846209          331 
 1305000   0.74435062   -7.9832989    226.61985  0.014471255  0.013832907          311 
 1306000   0.74858567   -8.0054646    226.90471   0.01447835  0.013819629          261 
 1307000   0.74536734   -7.9999431    226.87425  0.014465331  0.013806386          252 
 1308000   0.73396679    -8.032716    226.56346  0.014434471  0.013793108          346 
 1309000   0.74053586   -8.0120139    226.20126  0.014400386  0.013779821          383 
 1310000   0.73610489   -8.0259574    226.29654  0.014395454  0.013766532          345 
 1311000   0.72819471   -8.0393687    226.78238  0.014415356  0.013753266          321 
 1312000   0.73484565   -8.0448185    226.57249  0.014391037  0.013739981          348 
 1313000   0.72438303   -8.0392478    226.70291  0.014388354  0.013726721          348 
 1314000   0.73604782   -8.0138168    226.73609  0.014379508  0.013713491          358 
 1315000   0.73872422    -8.036624    227.14727  0.014394631  0.013700311          265 
 1316000   0.74724682   -8.0183018    226.55551   0.01434622  0.013687159          522 
 1317000   0.72169855   -8.0351177    226.40372  0.014325722  0.013673989          359 
 1318000   0.73416966    -8.060039    226.40105  0.014314684  0.013660821          370 
 1319000   0.71887852   -8.0343771    226.54817  0.014313127  0.013647658          492 
 1320000   0.73671367   -8.0520137    227.26202   0.01434735  0.013634511          501 
 1321000   0.72172444   -8.0255759    227.16996  0.014330681  0.013621385          406 
 1322000   0.72216149   -8.0580236    226.82998   0.01429841  0.013608269          446 
 1323000   0.72286819   -8.0397514    226.54861   0.01426988   0.01359515          428 
 1324000   0.74322609   -8.0465471    226.79835  0.014274821  0.013582087          494 
 1325000   0.71716222   -8.0516198    226.93397  0.014272577  0.013569015          581 
 1326000   0.73069346   -8.0503764    226.57971   0.01423955  0.013555918          474 
 1327000   0.71861839   -8.0674989    226.35307  0.014214586  0.013542826          469 
 1328000   0.72565139   -8.0682272    226.83406  0.014234065  0.013529731          545 
 1329000   0.73320499   -8.0562619    226.80524  0.014221548  0.013516654          489 
 1330000    0.7330654   -8.0604936    226.99051  0.014222463  0.013503654          607 
 1331000   0.71873122   -8.0499184    226.59388  0.014186945  0.013490631          443 
 1332000   0.73014028   -8.0782321    226.82609  0.014190821  0.013477623          429 
 1333000    0.7254222   -8.0608084    226.61707  0.014167109  0.013464605          475 
 1334000   0.71936172   -8.0847618    226.20519  0.014130759  0.013451597          518 
 1335000   0.71824005   -8.0572896    226.30776  0.014126577   0.01343863          431 
 1336000   0.73572084   -8.0510774    226.73825  0.014142855  0.013425658          510 
 1337000   0.71909174   -8.0575943    226.60411  0.014123916  0.013412696          486 
 1338000   0.72018745   -8.0497488    226.57624  0.014111625   0.01339976          621 
 1339000   0.72521979   -8.0594838    226.60771  0.014103044  0.013386823          595 
 1340000   0.72203957   -8.0678496    226.26275  0.014071067    0.0133739          600 
 1341000   0.72695985   -8.0878388    226.85133  0.014097149  0.013361027          578 
 1342000   0.70784054   -8.0825461     226.4924  0.014064357  0.013348131          602 
 1343000   0.71468381   -8.0482097    226.61957  0.014061775  0.013335246          650 
 1344000   0.72039526   -8.0497655    226.69885  0.014056228  0.013322403          619 
 1345000   0.72354794   -8.0745791    226.76877   0.01405011   0.01330955          639 
 1346000   0.73009461   -8.0351398    226.96497  0.014051818  0.013296718          537 
 1347000   0.72697824   -8.0816996    226.80883  0.014031726  0.013283878          638 
 1348000   0.72473816   -8.0910301    226.48861  0.014001522  0.013271072          697 
 1349000   0.73241403   -8.0965725    226.52621  0.013993465  0.013258282          695 
 1350000   0.71767061   -8.0689645     226.4725  0.013979784  0.013245511          587 
 1351000   0.69523069   -8.0999361    226.41486  0.013965881  0.013232727          676 
 1352000    0.7308941   -8.0965674    226.45459     0.013958  0.013219969          677 
 1353000   0.71716265   -8.0898054    226.83245  0.013970956  0.013207225          735 
 1354000   0.71979336   -8.1235057    226.42169  0.013935358  0.013194491          637 
 1355000   0.72159436   -8.0951184    226.68896   0.01394151  0.013181742          700 
 1356000   0.71627553   -8.0662048    226.62282  0.013927164  0.013169016          674 
 1357000   0.70347687   -8.1000757    226.48427  0.013908393  0.013156327          689 
 1358000   0.71002272   -8.0664617    226.76811  0.013915569  0.013143641          522 
 1359000   0.73440434   -8.0718382    226.79497  0.013906976  0.013130974          627 
 1360000   0.69413332   -8.0634638    226.19967  0.013860274  0.013118342          692 
 1361000   0.70076434   -8.0800231     226.5418  0.013871038  0.013105709          698 
 1362000   0.71814619   -8.1178307    226.62005  0.013865642  0.013093114          605 
 1363000   0.71446446   -8.0902714    226.88038  0.013871385  0.013080502          666 
 1364000   0.71302817   -8.0879967    226.42771   0.01383356  0.013067919          611 
 1365000   0.72026205   -8.1093722    226.12274  0.013804807  0.013055332          738 
 1366000    0.6914739   -8.0684229    226.93143  0.013844035  0.013042732          581 
 1367000   0.69720278   -8.1153554    226.00956   0.01377771  0.013030146          636 
 1368000    0.7105948   -8.1178509    226.72958    0.0138115  0.013017565          726 
 1369000   0.70344755   -8.0867684    226.85428  0.013809002  0.013005032          681 
 1370000   0.70987948   -8.1182064    225.99708  0.013746781  0.012992469          838 
 1371000   0.69510501   -8.1092429    226.58399  0.013772429  0.012979897          720 
 1372000   0.69157503   -8.1120601    226.83785  0.013777809  0.012967359          759 
 1373000   0.67374638   -8.1165829    226.41408  0.013742054  0.012954819          836 
 1374000   0.72049219   -8.1154717    226.43689  0.013733436  0.012942292          729 
 1375000   0.69803086   -8.1032227    226.17884  0.013707808  0.012929768          836 
 1376000   0.70450948   -8.1354392    226.21331  0.013699934  0.012917228          924 
 1377000   0.69882807   -8.1489693    225.82332  0.013666384  0.012904713         1015 
 1378000   0.70314754    -8.149978    226.06817  0.013671273  0.012892189          970 
 1379000   0.68968712   -8.1300909    226.04407  0.013659902  0.012879666         1031 
 1380000    0.6966899   -8.1561831    225.94307  0.013643905  0.012867172          930 
 1381000   0.71566241   -8.1241799    226.32579   0.01365712  0.012854677          998 
 1382000   0.70478784   -8.1329968    226.43934  0.013654085  0.012842206          945 
 1383000   0.69589826   -8.1318118    226.24062  0.013632238  0.012829749          828 
 1384000   0.69718506   -8.1219352    226.47935  0.013636762  0.012817314          896 
 1385000    0.7038482    -8.138797    225.31944  0.013557126  0.012804857          992 
 1386000   0.70775105    -8.164494    225.96754  0.013586312  0.012792407          947 
 1387000   0.70738165   -8.1428504    225.83436  0.013568515  0.012779953          964 
 1388000   0.70215712   -8.1439015    226.31529  0.013587613   0.01276752          938 
 1389000    0.6859596   -8.1542248    225.94692  0.013555731  0.012755089          971 
 1390000   0.69186484    -8.184657    225.45455   0.01351646  0.012742646         1001 
 1391000   0.70570648    -8.138004    226.03115  0.013541286   0.01273021          958 
 1392000   0.69275855   -8.1614192    226.09467  0.013535361   0.01271779         1077 
 1393000   0.69448671   -8.1839727    225.95388  0.013517222  0.012705395         1121 
 1394000   0.68587659   -8.1593494    225.71498  0.013493244  0.012692981         1049 
 1395000   0.70921594   -8.1755097    225.90756  0.013495075   0.01268057         1114 
 1396000   0.69353655   -8.1959513    225.54445  0.013463732  0.012668163         1100 
 1397000   0.69747024   -8.1806875     225.6346  0.013459473  0.012655769         1096 
 1398000   0.69655281   -8.1858741    225.62756  0.013449426  0.012643366         1149 
 1399000   0.70388212   -8.1535542    226.10674  0.013468355  0.012630995          940 
 1400000   0.70427826   -8.1829397    225.63777   0.01343082  0.012618674         1047 
 1401000   0.70895104   -8.1485826    225.82792  0.013432544  0.012606359         1017 
 1402000   0.69986728   -8.1868363    225.82355  0.013422702   0.01259402         1148 
 1403000   0.69785935   -8.1825645    225.57675  0.013398477  0.012581692         1111 
 1404000   0.70014282   -8.1850934    225.47117  0.013382667  0.012569358         1103 
 1405000   0.68934109    -8.174965    225.92488  0.013400052  0.012557026         1098 
 1406000   0.70306884   -8.1881375    225.66841  0.013375321   0.01254471         1148 
 1407000   0.68941686   -8.2014507    225.72698  0.013369283  0.012532421         1012 
 1408000   0.70020514   -8.1690488    225.66645  0.013356205   0.01252013         1169 
 1409000   0.70621948   -8.1866324    225.23602  0.013321269  0.012507848         1138 
 1410000   0.69819674   -8.1906551    225.92048  0.013352274  0.012495588         1176 
 1411000   0.70321542   -8.1806257    225.18271  0.013299239  0.012483359         1041 
 1412000   0.68642938   -8.1949784    225.46134  0.013306264  0.012471124         1101 
 1413000   0.68814808   -8.1636105    226.08759  0.013333781  0.012458918         1133 
 1414000   0.69301768   -8.1995117    225.63425  0.013297634  0.012446707         1220 
 1415000   0.68242964     -8.19251    225.60208  0.013286342   0.01243453         1199 
 1416000   0.68987634   -8.1876025    225.88805  0.013293788   0.01242237         1148 
 1417000   0.68383776   -8.2087167    225.20049  0.013243971  0.012410243         1251 
 1418000   0.68437696   -8.2140116    224.99105  0.013222323  0.012398106         1119 
 1419000   0.68327595   -8.1855833    225.39028  0.013236451  0.012385979         1156 
 1420000   0.69883779   -8.1973579    225.52493  0.013235031  0.012373836         1201 
 1421000   0.67463088   -8.2229478    225.39896   0.01321833  0.012361709         1295 
 1422000   0.68733705   -8.1992499    224.87808  0.013178509  0.012349567         1205 
 1423000   0.67596935   -8.1821141    225.66188  0.013215149  0.012337417         1253 
 1424000   0.69131727    -8.209478     225.3383  0.013186932  0.012325305         1251 
 1425000   0.67045566   -8.2207801    225.37416  0.013179776  0.012313217         1264 
 1426000   0.67861018   -8.2178358    224.95404  0.013145982  0.012301124         1168 
 1427000   0.68566235    -8.209455    225.22226  0.013152433   0.01228906         1235 
 1428000   0.67837409   -8.1998172    225.62568  0.013166765  0.012276995         1149 
 1429000   0.67103268    -8.223838    225.00874  0.013121573  0.012264946         1183 
 1430000   0.70202898   -8.2023396    225.37214  0.013133575  0.012252916         1352 
 1431000   0.68636954   -8.1954696    225.64139  0.013140076  0.012240894         1253 
 1432000   0.67348224   -8.1920789    225.39283  0.013116436  0.012228885         1298 
 1433000   0.69926104   -8.2219481    224.93095  0.013080423  0.012216897         1341 
 1434000   0.68781948   -8.1964678    225.63128  0.013111999  0.012204919         1285 
 1435000   0.67512202   -8.2108337    225.42097  0.013090649  0.012192998         1279 
 1436000   0.67933543   -8.2209853    225.08265  0.013061899  0.012181054         1221 
 1437000   0.67948208   -8.2201494    225.23786   0.01306181  0.012169116         1293 
 1438000   0.69163844   -8.2400198    225.63212  0.013075575  0.012157196         1343 
 1439000   0.68640002   -8.2171944    225.14285  0.013038154  0.012145284         1345 
 1440000   0.67999992   -8.2356253    225.35078  0.013041133  0.012133381         1362 
 1441000   0.67454783   -8.2285252    225.41786  0.013035962    0.0121215         1257 
 1442000   0.66358029   -8.2547066    224.62812  0.012981283   0.01210964         1292 
 1443000   0.67836393   -8.2191453    225.34403  0.013013631   0.01209778         1313 
 1444000   0.68436698   -8.2284901    225.20018  0.012996317  0.012085941         1208 
 1445000   0.70103906   -8.2270179    225.02518  0.012977231  0.012074098         1198 
 1446000   0.68259733   -8.2423322    224.64733  0.012946481  0.012062275         1294 
 1447000   0.66577684   -8.2414146    225.21247   0.01297008  0.012050459         1230 
 1448000   0.67901632   -8.2115402    225.49182    0.0129772  0.012038654         1290 
 1449000   0.67643757   -8.2348509    225.36153   0.01296075  0.012026886         1306 
 1450000   0.68182447   -8.2259017    225.19479  0.012942229  0.012015102         1323 
 1451000   0.66470662   -8.2541783    224.91266  0.012917106  0.012003345         1152 
 1452000   0.66632039   -8.2390964    225.44217    0.0129386  0.011991596         1252 
 1453000   0.66165512   -8.2492056    225.09996  0.012910069  0.011979879         1342 
 1454000    0.6724772   -8.2208544    225.58905  0.012929221   0.01196817         1221 
 1455000   0.67758727   -8.2294718    224.51913  0.012859057  0.011956461         1340 
 1456000   0.66588456   -8.2493196    224.55987  0.012852557  0.011944765         1339 
 1457000   0.67300938   -8.2407396    225.07549  0.012873226  0.011933076         1248 
 1458000   0.68134159   -8.2221935    225.55512  0.012891811  0.011921402         1172 
 1459000   0.67445965   -8.2454227    224.81356  0.012840619  0.011909735         1237 
 1460000   0.67143861   -8.2475066    224.92781  0.012838345  0.011898075         1323 
 1461000   0.67747114   -8.2561261    225.12152  0.012840607   0.01188645         1346 
 1462000   0.66645497   -8.2688002    224.15337   0.01277664  0.011874805         1438 
 1463000   0.66484429   -8.2578692    225.06185  0.012819654   0.01186318         1216 
 1464000   0.66356077   -8.2548639    224.67763  0.012789027  0.011851564         1173 
 1465000    0.6557745   -8.2626192    224.79891  0.012787196  0.011839954         1394 
 1466000    0.6544786   -8.2490242    224.95907  0.012787578  0.011828365         1282 
 1467000   0.66655359   -8.2581312    224.64755  0.012761165  0.011816786         1334 
 1468000   0.66261795   -8.2416883    224.75219  0.012758412  0.011805218         1348 
 1469000   0.66356458   -8.2422052    225.18677   0.01277438  0.011793641         1297 
 1470000   0.67411397   -8.2578954     224.5717  0.012730822  0.011782058         1444 
 1471000   0.68366403   -8.2738531     225.0245  0.012747819  0.011770496         1342 
 1472000   0.66793616   -8.2588848    224.67926  0.012719614   0.01175894         1289 
 1473000   0.66407609   -8.2718807    224.39104  0.012694673  0.011747401         1426 
 1474000   0.66969842   -8.2542903    224.73753   0.01270565  0.011735892         1361 
 1475000   0.66082858   -8.2737591    225.07961  0.012716362  0.011724384         1463 
 1476000   0.66169859   -8.2507569    224.95437  0.012700676  0.011712891         1339 
 1477000   0.65064632   -8.2534928    225.03812  0.012696802  0.011701418         1331 
 1478000   0.66340808   -8.2510537    224.94591  0.012683013  0.011689954         1400 
 1479000   0.65743688   -8.2817627    224.53368  0.012651211  0.011678481         1487 
 1480000   0.66665772   -8.2718009    224.59087  0.012645882  0.011667013         1364 
 1481000   0.65997264   -8.2656793    224.88682  0.012653996   0.01165555         1316 
 1482000   0.66800573   -8.2743276    224.30345  0.012612655  0.011644103         1450 
 1483000   0.67325633   -8.2972683    224.45531  0.012612683  0.011632674         1391 
 1484000   0.65162308   -8.2706118      224.737  0.012620002  0.011621271         1413 
 1485000   0.67213995   -8.2750603    224.66802  0.012607633  0.011609851         1316 
 1486000   0.65123155   -8.2587875    224.99537  0.012617506  0.011598453         1366 
 1487000   0.64447038   -8.3055297    224.37916  0.012574488  0.011587064         1503 
 1488000   0.65924668   -8.2825424    224.54957  0.012575581  0.011575684         1599 
 1489000   0.66443717   -8.2849372    224.79784   0.01258103  0.011564317         1520 
 1490000    0.6684425   -8.2699125    224.40746  0.012550753  0.011552959         1451 
 1491000   0.65472548   -8.2893622    224.15061  0.012527979  0.011541622         1537 
 1492000      0.65176   -8.3003464    224.48773  0.012538412  0.011530307         1427 
 1493000   0.66556604   -8.2828155    224.41308  0.012525847  0.011519018         1430 
 1494000   0.65242457   -8.2627163    224.66999  0.012531793   0.01150772         1358 
 1495000    0.6679711   -8.3119424    224.25371  0.012500207  0.011496436         1424 
 1496000   0.65616905   -8.3052416    224.37239  0.012498462  0.011485186         1374 
 1497000   0.65543163    -8.296809    224.67194  0.012506788  0.011473942         1477 
 1498000    0.6475078    -8.275103    224.91512  0.012511967  0.011462696         1470 
 1499000   0.65576393   -8.3036692     224.8038  0.012497432  0.011451448         1442 
 1500000   0.66350672   -8.3000429    224.21427  0.012456348  0.011440224         1327 
 1501000   0.66699688   -8.3024761    224.48243  0.012462937  0.011429013         1519 
 1502000   0.65105149   -8.2913232    224.55633   0.01245874   0.01141784         1428 
 1503000   0.65060257   -8.2954501    224.40053  0.012441813   0.01140667         1377 
 1504000   0.64760641   -8.2636415    225.20401  0.012478059  0.011395507         1511 
 1505000    0.6474873   -8.2949036    224.18724  0.012413468  0.011384366         1415 
 1506000   0.67036418   -8.2978241    224.68318  0.012432668   0.01137323         1482 
 1507000   0.65033283   -8.2903453    224.47688  0.012413011  0.011362091         1400 
 1508000   0.66977939   -8.2922994    224.49272  0.012405654  0.011350972         1395 
 1509000   0.64739102    -8.311274     224.2432  0.012383654  0.011339867         1367 
 1510000   0.66043043   -8.3273188    224.18513  0.012372248  0.011328798         1368 
 1511000   0.65460818   -8.3209545     224.0838  0.012358471  0.011317714         1390 
 1512000   0.65602016   -8.2919769    224.70328   0.01238444  0.011306624         1289 
 1513000   0.64346998   -8.3025753    224.43794   0.01236164  0.011295575         1387 
 1514000   0.64621478   -8.3211834     224.6025  0.012362533   0.01128453         1472 
 1515000   0.63927298   -8.2784835    224.35213  0.012340601  0.011273487         1354 
 1516000   0.64527474   -8.3098908    224.65706  0.012349223  0.011262476         1431 
 1517000   0.64354991   -8.3315783    224.28506  0.012320647   0.01125147         1486 
 1518000   0.65012627   -8.3074021    224.51364  0.012325079  0.011240477         1419 
 1519000   0.64853852   -8.2990557    224.65099    0.0123245  0.011229513         1366 
 1520000   0.64046132   -8.3016709    224.47183   0.01230657  0.011218551         1454 
 1521000   0.64113985    -8.325468    224.42518  0.012295923  0.011207591         1450 
 1522000   0.64150603   -8.2966187    224.10186  0.012270141  0.011196634         1398 
 1523000   0.64717304   -8.3044322    224.13295  0.012263786   0.01118571         1437 
 1524000   0.64243724   -8.3214549    223.95886   0.01224622  0.011174782         1528 
 1525000     0.648736   -8.3153496    224.27692  0.012255569  0.011163856         1469 
 1526000   0.62749421   -8.2981017    224.58128  0.012264159  0.011152957         1462 
 1527000   0.64752077   -8.3045982    224.77546  0.012266724  0.011142072         1381 
 1528000   0.64363833   -8.3257694    224.03972  0.012218571  0.011131195         1496 
 1529000    0.6564491   -8.3242107    224.02688   0.01220988  0.011120354         1395 
 1530000   0.64217787   -8.3093115    223.92547  0.012196376   0.01110952         1403 
 1531000   0.64065155   -8.3277064    224.34574  0.012211286  0.011098697         1431 
 1532000   0.63365272   -8.3261495    224.53293  0.012213497  0.011087883         1496 
 1533000   0.64130393   -8.3185699    224.04725  0.012179129  0.011077084         1367 
 1534000   0.64166935   -8.3111219     224.2548  0.012182464  0.011066307         1458 
 1535000   0.64530809    -8.323917     224.6616  0.012196612  0.011055528         1432 
 1536000   0.64129821   -8.3189241    224.20726  0.012164022  0.011044754         1489 
 1537000   0.64142919   -8.3291729    224.13561  0.012152223  0.011034001         1416 
 1538000   0.64155578   -8.3335314    224.11459  0.012143183  0.011023251         1536 
 1539000   0.63720301   -8.3150742    224.60649  0.012161928  0.011012529         1486 
 1540000    0.6349543   -8.3167464    224.16293  0.012130029  0.011001804         1566 
 1541000   0.65001655   -8.3354127    223.83647  0.012104503  0.010991094         1608 
 1542000   0.64148333   -8.3319155    224.00973  0.012106016  0.010980386         1647 
 1543000   0.63070921   -8.3201682     224.4193  0.012120291  0.010969708         1537 
 1544000   0.65253701   -8.3304749    224.54772  0.012119372   0.01095904         1657 
 1545000    0.6381498   -8.3269245    223.86593  0.012074754  0.010948374         1636 
 1546000   0.64386961   -8.3107458    224.35617  0.012093368  0.010937724         1509 
 1547000   0.61978262   -8.3447583    224.25527  0.012080116  0.010927085         1485 
 1548000   0.64734823   -8.3309335    224.47327  0.012084048  0.010916453         1622 
 1549000   0.63063452   -8.3628599      223.965  0.012048903  0.010905849         1601 
 1550000   0.64718618   -8.3411304    223.89518  0.012037375  0.010895231         1558 
 1551000   0.63122901   -8.3265497    224.17254  0.012044516  0.010884627         1500 
 1552000   0.62934507   -8.3353981    223.90685   0.01202249  0.010874036         1595 
 1553000   0.63478379   -8.3247412    224.09417    0.0120248  0.010863465         1568 
 1554000   0.63447581   -8.3358195    224.19816  0.012022638    0.0108529         1532 
 1555000   0.62134809   -8.3242023    223.80623  0.011993903  0.010842343         1717 
 1556000   0.62548744   -8.3457588    223.87535  0.011989897  0.010831799         1716 
 1557000   0.63983745   -8.3547162    224.66233  0.012024316  0.010821273         1655 
 1558000   0.64101521   -8.3329346    223.95248  0.011978631  0.010810772         1646 
 1559000   0.61922823   -8.3627358     224.0738  0.011977432  0.010800269         1714 
 1560000   0.63432109    -8.344815    224.13204  0.011972865  0.010789775         1532 
 1561000   0.63032074   -8.3383334    223.61505  0.011937596  0.010779296         1561 
 1562000   0.63274587   -8.3554699    224.28287  0.011965582  0.010768833         1564 
 1563000   0.62565044   -8.3441157    224.38842  0.011963554  0.010758384         1616 
 1564000   0.63306385   -8.3559758    224.02352  0.011936462  0.010747939         1699 
 1565000   0.62705376    -8.347901    223.90507  0.011922528  0.010737501         1732 
 1566000   0.62153771   -8.3551344    223.91774  0.011915588  0.010727091         1639 
 1567000   0.62340182    -8.351202    224.08502   0.01191688  0.010716684         1692 
 1568000   0.63303015   -8.3581015    223.56944  0.011881879  0.010706282         1687 
 1569000   0.63192894   -8.3438652    224.04531  0.011899581  0.010695898         1668 
 1570000    0.6366226   -8.3514302    223.80525  0.011879259  0.010685521         1690 
 1571000   0.64688993   -8.3645662    223.75435  0.011868998  0.010675141         1689 
 1572000   0.62255455   -8.3587172     223.6583  0.011856356  0.010664781         1698 
 1573000   0.62715525   -8.3373997    224.20261  0.011877655  0.010654433         1665 
 1574000   0.61466995   -8.3660035    223.90695  0.011854455  0.010644106         1577 
 1575000     0.627202   -8.3651251     223.7171  0.011836883  0.010633782         1640 
 1576000   0.61311167   -8.3730053    223.75287  0.011831264  0.010623466         1718 
 1577000   0.61819063   -8.3483024    223.79983  0.011826243  0.010613161         1744 
 1578000   0.62054957   -8.3556778     223.8941  0.011823727  0.010602862         1785 
 1579000   0.62011744   -8.3437423     223.6631  0.011804048  0.010592562         1650 
 1580000   0.61566624   -8.3758379    223.23412  0.011773951  0.010582274         1703 
 1581000   0.61703968     -8.36789    223.41566  0.011776073  0.010572003         1632 
 1582000   0.60745308   -8.3876702    223.47975  0.011772006  0.010561755         1806 
 1583000   0.61862393   -8.3686553    223.61946  0.011771924  0.010551517         1720 
 1584000   0.61907424   -8.3861032    223.31714  0.011748587  0.010541279         1768 
 1585000   0.61151221   -8.3777381    223.79475  0.011766286  0.010531048         1753 
 1586000   0.62047366   -8.3686517    223.98952  0.011769101  0.010520837         1682 
 1587000   0.63190666   -8.3855151    223.29273  0.011725096  0.010510638         1699 
 1588000   0.62633962   -8.3757998    223.46278  0.011726636  0.010500451         1736 
 1589000   0.61567175   -8.3589154    224.00695  0.011747795  0.010490276         1697 
 1590000   0.62715896    -8.366856    223.50723  0.011714215    0.0104801         1682 
 1591000   0.62782127   -8.3971033    223.18275  0.011689857  0.010469943         1638 
 1592000   0.61319097   -8.3589905    223.80515  0.011715094  0.010459808         1774 
 1593000     0.615945   -8.3898269     223.5091  0.011692252  0.010449667         1696 
 1594000   0.62513426   -8.3963299    223.66862  0.011693257  0.010439552         1825 
 1595000   0.63148418   -8.3797833    223.74214  0.011689767   0.01042944         1642 
 1596000   0.61464118   -8.3689103    223.70397   0.01168045  0.010419363         1709 
 1597000    0.6116797   -8.3749143    223.52579  0.011663838  0.010409273         1793 
 1598000   0.60712516   -8.3686249    223.51617  0.011656037  0.010399204         1776 
 1599000   0.62393664   -8.3978296    223.73677  0.011660244  0.010389153         1756 
 1600000   0.62167173   -8.3937158    223.09209   0.01161938  0.010379092         1795 
 1601000   0.61092968   -8.4034686    223.37045  0.011626611  0.010369036         1716 
 1602000   0.62479573   -8.3736065    224.05306  0.011654861  0.010359011         1789 
 1603000   0.63096582   -8.4004519    223.47721  0.011617655  0.010348998         1783 
 1604000   0.61195712   -8.3966891    223.29673  0.011601036  0.010338985         1761 
 1605000   0.61143658   -8.3880098    223.52812  0.011605821  0.010328984         1848 
 1606000   0.61159751   -8.3914298    223.32671  0.011588144  0.010318997         1762 
 1607000   0.60391829   -8.4094833    223.28521  0.011578781  0.010309012         1835 
 1608000   0.62314882   -8.4083077     223.4648  0.011580887  0.010299054         1766 
 1609000   0.60792741   -8.3882737     223.3883  0.011569727  0.010289113         1819 
 1610000   0.60613814   -8.3954236    223.23378  0.011554543  0.010279169         1722 
 1611000   0.60782961   -8.3985146    223.52507  0.011562439  0.010269251         1717 
 1612000   0.60722085   -8.3751626    223.30703  0.011543995  0.010259333         1692 
 1613000   0.60150544   -8.3931552    223.16856  0.011529684  0.010249423         1732 
 1614000   0.60539877    -8.386081     223.3787   0.01153339  0.010239533         1766 
 1615000   0.59679358   -8.3953516    223.75275  0.011545549  0.010229657         1799 
 1616000   0.61478954    -8.407124    223.54093  0.011527482  0.010219801         1756 
 1617000   0.61166282   -8.3693129    223.79041   0.01153321  0.010209955         1793 
 1618000   0.59232849   -8.3843681    223.68597  0.011520703  0.010200115         1761 
 1619000   0.60436798   -8.3861461    223.49881  0.011503954  0.010190284         1732 
 1620000   0.61840814   -8.4202917    223.40531  0.011492043  0.010180458         1711 
 1621000    0.5959253   -8.4132399    223.02703  0.011465507  0.010170641         1727 
 1622000   0.59509717   -8.3998216    223.19609  0.011467124  0.010160834         1797 
 1623000   0.59233792   -8.4145249    223.05762  0.011452948  0.010151049         1780 
 1624000   0.59732868   -8.3961461    223.08359  0.011447229  0.010141265         1765 
 1625000   0.59289217   -8.3820626    223.38151  0.011455462  0.010131489         1775 
 1626000   0.59946669   -8.4015257    223.07791  0.011432857  0.010121722         1796 
 1627000   0.59775016   -8.4284651    223.05198  0.011424502  0.010111953         1900 
 1628000   0.61972173   -8.4046758    222.96758  0.011413165  0.010102205         1754 
 1629000   0.59922883   -8.3849053    223.29923  0.011423124  0.010092471         1766 
 1630000   0.60564177   -8.4193396    222.84855  0.011393075   0.01008275         1783 
 1631000   0.59849634   -8.4052166    223.19882  0.011403986  0.010073038         1805 
 1632000   0.61584034   -8.4223011    223.00276  0.011386987  0.010063347         1816 
 1633000   0.59521062   -8.4112194    222.82975  0.011371185  0.010053653         1903 
 1634000   0.59991682   -8.4106925    222.79885  0.011362651  0.010043964         1774 
 1635000   0.60163937   -8.4229253    223.30664  0.011381582  0.010034308         1837 
 1636000    0.5920157   -8.4183668     222.8976   0.01135379  0.010024658         1827 
 1637000   0.60947555   -8.4139131    223.16608  0.011360521  0.010015031         1855 
 1638000   0.60865391   -8.4036373    223.02169   0.01134624  0.010005416         1750 
 1639000   0.60342398   -8.4094975     223.3536  0.011356193 0.0099958019         1784 
 1640000   0.59102745   -8.4049479    223.32627   0.01134788 0.0099862062         1925 
 1641000   0.58713424   -8.4347224    222.80369  0.011314426 0.0099766055         1855 
 1642000   0.60327275   -8.4118534    222.81539   0.01130813 0.0099670079         1847 
 1643000   0.59113085   -8.4206389    222.85579  0.011303296 0.0099574231         1893 
 1644000   0.60190091   -8.4270412    223.21567  0.011314663 0.0099478572         1847 
 1645000   0.59981403   -8.4269559    223.28593  0.011311344 0.0099382929         1904 
 1646000   0.59144004   -8.4339768    223.05683  0.011292873 0.0099287423         1925 
 1647000   0.59074188   -8.4328748     223.1323  0.011289835 0.0099192024         1919 
 1648000   0.60439688   -8.4189292    223.27992  0.011290449  0.009909676         1915 
 1649000   0.58168957   -8.4385265    222.78293  0.011258486 0.0099001496         1868 
 1650000   0.59677457   -8.4306426    222.68457  0.011246695 0.0098906429         1909 
 1651000   0.60619836   -8.4259065     222.6027  0.011235751 0.0098811422         1873 
 1652000   0.59820172   -8.4327833    222.89278  0.011243583  0.009871657         1798 
 1653000   0.59959601   -8.4503621    223.16922  0.011250717 0.0098621823         1864 
 1654000   0.58834174   -8.4232884    223.21959  0.011246452 0.0098527374         1868 
 1655000    0.5972541   -8.4189631    222.70651  0.011213822 0.0098432871         1867 
 1656000   0.60685216   -8.4177622    222.85398  0.011214472 0.0098338418         1885 
 1657000   0.58650622    -8.437921    222.86199  0.011208106 0.0098244087         2031 
 1658000   0.58206093   -8.4371278    222.82114  0.011199293 0.0098149845         1922 
 1659000   0.58486615   -8.4400844    223.15722  0.011209424  0.009805568         1918 
 1660000   0.58908357   -8.4399007    222.81667  0.011185576 0.0097961689         1947 
 1661000   0.56744281   -8.4426818    223.15829  0.011195981 0.0097868015         1951 
 1662000   0.59614459   -8.4342619     222.9113   0.01117686 0.0097774369         1943 
 1663000   0.59621919   -8.4321278    222.85625  0.011167381 0.0097680759         1976 
 1664000   0.57841466   -8.4276969    222.72608  0.011154151 0.0097587275         1916 
 1665000   0.60599068   -8.4280812    222.66842  0.011144566 0.0097493997         2004 
 1666000   0.59722108   -8.4344438    223.02158  0.011155541 0.0097400711         1913 
 1667000   0.59243633   -8.4267048    222.63701  0.011129624 0.0097307554         1874 
 1668000   0.57874177   -8.4374559    223.08935  0.011145551 0.0097214547         1988 
 1669000   0.59196164    -8.450566    222.82416  0.011125632 0.0097121677         1974 
 1670000   0.59573964   -8.4255084    222.63036  0.011109299 0.0097028942         1928 
 1671000   0.58793881   -8.4441254    222.69645  0.011105947 0.0096936248         1967 
 1672000   0.59257587     -8.43659    222.62755  0.011095871 0.0096843665         1923 
 1673000    0.5789528   -8.4487745    222.48805   0.01108229  0.009675118         1958 
 1674000   0.58849636   -8.4480299     222.5874  0.011080615 0.0096658836         1975 
 1675000   0.59111036   -8.4470161    222.82407  0.011085774 0.0096566534         2009 
 1676000   0.57996539   -8.4495543    222.40114  0.011058131 0.0096474303         1953 
 1677000   0.58541426   -8.4438651    222.93533  0.011078082 0.0096382242         2055 
 1678000   0.59585109   -8.4318307    222.87077  0.011068274 0.0096290236         2052 
 1679000   0.58492899   -8.4568533    222.28169  0.011032444 0.0096198377         2090 
 1680000   0.57877762   -8.4350097    222.90483  0.011056787  0.009610661         1993 
 1681000   0.57412015   -8.4431229    222.81102  0.011045559 0.0096014985         2142 
 1682000   0.58922905    -8.441361    223.07878  0.011052258 0.0095923474         1982 
 1683000   0.57697899   -8.4484331    222.35101  0.011009656 0.0095832057         2039 
 1684000   0.57695125    -8.454029    222.55173  0.011013051 0.0095740835         2112 
 1685000    0.5982232    -8.454009    222.19209  0.010988728 0.0095649542         2079 
 1686000   0.57684194   -8.4538787      222.692   0.01100692 0.0095558523         2089 
 1687000   0.58840201   -8.4529091    222.57167  0.010994451 0.0095467704         1971 
 1688000   0.57539514    -8.451965    222.82822  0.011000603 0.0095376828         2070 
 1689000   0.58606313   -8.4466202    222.61007  0.010983327 0.0095286087         1975 
 1690000   0.57555787   -8.4506712    221.99678  0.010946587 0.0095195416         2105 
 1691000   0.57211991   -8.4606288    222.31892  0.010955989 0.0095104906         2069 
 1692000   0.57519351   -8.4732863    222.37403  0.010952228 0.0095014448         2033 
 1693000   0.56752723   -8.4497484    222.60705  0.010957228 0.0094924063         2036 
 1694000   0.57574737   -8.4560193    222.95275  0.010967766 0.0094833854         2134 
 1695000   0.57161902    -8.457824     222.9088  0.010959135 0.0094743763         2026 
 1696000   0.57287772   -8.4656625    222.48077  0.010931641 0.0094653724         2047 
 1697000   0.57128585    -8.461709     222.9405  0.010947775 0.0094563758         2075 
 1698000   0.57492037   -8.4397745    222.80451  0.010934654 0.0094473981         2053 
 1699000   0.57160771     -8.46195    222.43581  0.010910134 0.0094384462         2092 
 1700000   0.57920073   -8.4778215    222.35216  0.010899615 0.0094294975         2009 
 1701000   0.55969734   -8.4635672     222.8381  0.010917014 0.0094205533         2105 
 1702000   0.57546403   -8.4781611    222.74835  0.010906206 0.0094116184         2108 
 1703000    0.5644229   -8.4605173    222.36946  0.010881262 0.0094026976         2092 
 1704000   0.56522191   -8.4608228    222.78196  0.010895049 0.0093937844         2061 
 1705000   0.57545966   -8.4737391    222.57948  0.010878763 0.0093848773         2127 
 1706000   0.58619445   -8.4791833    222.42361  0.010864772 0.0093759855         2140 
 1707000   0.57668069   -8.4901135    222.43821   0.01085912 0.0093670968         2158 
 1708000   0.58177788   -8.4750258    222.28749  0.010845409 0.0093582132         2110 
 1709000   0.56816606   -8.4807018     222.5971  0.010854159 0.0093493519         2164 
 1710000   0.56371531   -8.4564476    222.13701   0.01082539 0.0093404938         2136 
 1711000   0.57583521   -8.4739473    222.58904  0.010841079 0.0093316551         2032 
 1712000    0.5701819   -8.4803275    222.43555  0.010827276 0.0093228196         2074 
 1713000   0.58322567   -8.4751883     222.2871  0.010813733 0.0093139966         2017 
 1714000    0.5716577   -8.4562638    222.68901  0.010826965 0.0093051887         2002 
 1715000   0.57544943   -8.4498919    222.74862  0.010823548  0.009296388         2092 
 1716000   0.57859876   -8.4623873    222.34918  0.010797843 0.0092875984         2070 
 1717000    0.5684119   -8.4868461    222.40161  0.010794099 0.0092788095         2080 
 1718000   0.57220548   -8.4572261    222.64835  0.010799784 0.0092700249         2056 
 1719000   0.56970859   -8.4636548    222.70992  0.010796486 0.0092612638         2088 
 1720000   0.56696879   -8.4866348    222.10063   0.01076069 0.0092525144         2172 
 1721000   0.56634748   -8.4798497    222.21457  0.010759954 0.0092437732         2071 
 1722000   0.56738419    -8.483392    222.38183    0.0107618 0.0092350436         2070 
 1723000   0.55313481   -8.4662757    222.61779  0.010766966 0.0092263189         2112 
 1724000   0.56568027   -8.4738706    222.08925  0.010735173 0.0092176031         2165 
 1725000   0.56231253   -8.4689626     222.5745  0.010752391 0.0092089215         2063 
 1726000   0.57963362   -8.4799811    222.22261  0.010729172 0.0092002262         2056 
 1727000   0.56761732   -8.4802876    222.46938  0.010734867 0.0091915467         2122 
 1728000   0.55967277    -8.483391    222.58405  0.010734185 0.0091828727         2086 
 1729000   0.56513644   -8.4756242    222.30991  0.010714763 0.0091742147         2137 
 1730000   0.55779843   -8.4888306    222.48258  0.010716887 0.0091655706         2116 
 1731000   0.57653191   -8.4903133    222.55607  0.010714234  0.009156942         2157 
 1732000   0.56050379   -8.4706392    221.97167   0.01067993  0.009148316         2175 
 1733000   0.56854196   -8.4926274    222.20734    0.0106851 0.0091397062         2186 
 1734000   0.55534137   -8.4874435    222.36656   0.01068659 0.0091311054         2198 
 1735000   0.54975869   -8.4913729    222.04029   0.01066476 0.0091225062         2058 
 1736000   0.54932853    -8.457254    222.43429  0.010677529 0.0091139198         2045 
 1737000   0.54890194   -8.4712685    222.55694  0.010677266 0.0091053489         2111 
 1738000   0.57241379   -8.4925008    222.22766  0.010655335 0.0090967868         2122 
 1739000     0.558288   -8.4864332    222.06547  0.010641435 0.0090882226         2094 
 1740000   0.54781827   -8.4815937    222.37065  0.010649935 0.0090796739         2116 
 1741000   0.57054341   -8.4774193    222.00375  0.010626256 0.0090711269         2009 
 1742000   0.56503364   -8.4985998    222.00749  0.010620335 0.0090626078         2162 
 1743000   0.55906842    -8.506494    222.50351  0.010637957 0.0090540919         2169 
 1744000   0.55871161   -8.4710824    222.17094  0.010615966  0.009045589         2068 
 1745000   0.56211021   -8.5304553    222.29332  0.010615727 0.0090370981         2253 
 1746000   0.55157722   -8.4952106    222.26637  0.010608361 0.0090286153         2098 
 1747000   0.55463986   -8.4920313     222.6121   0.01061878 0.0090201334         2158 
 1748000   0.55278939   -8.4863266    221.98256  0.010582693 0.0090116597         2132 
 1749000   0.55477586   -8.4836903    222.57779  0.010605003 0.0090032051         2100 
 1750000   0.54489652   -8.4898713    222.20261  0.010581077  0.008994751         2166 
 1751000   0.56885956   -8.5048815     222.2506  0.010577318 0.0089863102         2213 
 1752000   0.55507879   -8.5031243    221.97677  0.010558256 0.0089778867         2116 
 1753000   0.56024403   -8.5123954    222.27003  0.010566174 0.0089694643         2203 
 1754000   0.53947927   -8.5152582    222.14957  0.010554426 0.0089610657         2150 
 1755000   0.54755633   -8.5031911    222.19473  0.010550557 0.0089526672         2166 
 1756000   0.55263854   -8.4912167    222.57798  0.010562736 0.0089442856         2087 
 1757000   0.55285542   -8.4957588    221.90622  0.010524863 0.0089359034         2179 
 1758000   0.54572293   -8.5235153    221.94865  0.010520888 0.0089275379         2181 
 1759000   0.55258425   -8.5002274     222.3306  0.010533002 0.0089191767         2173 
 1760000   0.55601026   -8.5080598    222.29943  0.010525541 0.0089108329         2165 
 1761000    0.5622498   -8.5059851    222.26651  0.010518006 0.0089024966         2134 
 1762000   0.54725659   -8.5219574    221.86384  0.010492993 0.0088941657         2243 
 1763000   0.55136368   -8.5247082     221.9648  0.010491813  0.008885839         2150 
 1764000    0.5341732   -8.5169199    222.08942  0.010491753 0.0088775348         2185 
 1765000   0.55449841   -8.5168854    222.33031  0.010497182 0.0088692328         2284 
 1766000   0.55229261   -8.5399489    221.47817  0.010451027 0.0088609295         2238 
 1767000   0.54893516   -8.5222024    222.00821   0.01047011 0.0088526245         2193 
 1768000   0.55453633   -8.5072164    222.04375  0.010465863 0.0088443461         2150 
 1769000   0.54630685   -8.5352733    221.93467  0.010454808 0.0088360645         2302 
 1770000   0.55996808   -8.5312352    221.65633  0.010435797 0.0088277972         2303 
 1771000   0.53014891   -8.5158685    221.85518  0.010439261 0.0088195325         2340 
 1772000   0.54509067   -8.5161467     222.1744  0.010448382 0.0088112784         2225 
 1773000   0.54733931   -8.5282932    221.90299  0.010429732  0.008803033         2339 
 1774000   0.55858529   -8.5097865    221.72585  0.010415532 0.0087947995         2286 
 1775000   0.53506583   -8.5248453    221.88633  0.010417198 0.0087865747         2301 
 1776000   0.55522017   -8.5355312      222.049  0.010418966 0.0087783744         2299 
 1777000    0.5437278   -8.5263489     221.8546  0.010403986 0.0087701768         2325 
 1778000   0.53818568   -8.5267953    221.87006  0.010398859 0.0087619897         2333 
 1779000   0.54206551   -8.5319104    221.56404  0.010378679 0.0087538077         2332 
 1780000   0.53667236   -8.5293522    221.60686  0.010374853 0.0087456215         2284 
 1781000    0.5546657    -8.536586    221.54742  0.010366247  0.008737459         2250 
 1782000   0.52807734   -8.5338386    221.61865   0.01036376 0.0087292989         2285 
 1783000   0.54854535   -8.5117412    222.23426   0.01038672 0.0087211537         2264 
 1784000   0.54184132   -8.5298346     222.1002  0.010374636 0.0087130224         2253 
 1785000   0.53410568   -8.5335036    221.74115  0.010352061 0.0087048927         2308 
 1786000   0.54390471   -8.5310127    221.79353  0.010348709 0.0086967729         2345 
 1787000   0.53728766   -8.5322916    221.78318  0.010342435 0.0086886641         2215 
 1788000   0.53399024   -8.5340543    221.97624  0.010345649 0.0086805692         2276 
 1789000   0.54711189    -8.532802    221.76667  0.010330104 0.0086724853         2266 
 1790000   0.55039408     -8.53906    221.45855  0.010309988 0.0086644073         2280 
 1791000   0.53124488   -8.5361168    222.00789  0.010329792 0.0086563344         2298 
 1792000   0.52934762   -8.5276155    221.89007  0.010318549 0.0086482795         2243 
 1793000   0.53944465   -8.5385615    221.42962  0.010291393 0.0086402312         2335 
 1794000   0.53010378   -8.5461451    221.61911  0.010294459 0.0086321863         2356 
 1795000   0.52734446   -8.5314368    222.16777  0.010314195 0.0086241585         2245 
 1796000   0.53929385   -8.5333042    221.89056   0.01029559 0.0086161409         2258 
 1797000    0.5275358   -8.5450494    221.71409  0.010281677 0.0086081292         2258 
 1798000    0.5356721   -8.5572697    221.47662  0.010264953 0.0086001244         2238 
 1799000   0.53238252   -8.5426264    222.03381  0.010285057 0.0085921264         2222 
 1800000   0.53802545   -8.5477221     221.6463  0.010261403 0.0085841356         2244 
 1801000    0.5340293   -8.5420925    221.36889  0.010242869 0.0085761635         2252 
 1802000   0.53921534   -8.5362376    221.51166  0.010243787  0.008568191         2281 
 1803000   0.53870545   -8.5440104     221.8805  0.010255153 0.0085602296         2242 
 1804000   0.53031325   -8.5504814    221.72016  0.010242062 0.0085522803         2308 
 1805000   0.52764265   -8.5407841    221.75604  0.010238044 0.0085443412         2221 
 1806000   0.52904847   -8.5503362    221.71867  0.010230651 0.0085364127         2234 
 1807000   0.53825051   -8.5426808    221.56794  0.010218038 0.0085284978         2286 
 1808000   0.53705582   -8.5328442    221.47406   0.01020806 0.0085205879         2280 
 1809000   0.52700707   -8.5478326    221.59189  0.010207845 0.0085126933         2199 
 1810000   0.51907365   -8.5576943    221.55944  0.010200711 0.0085048074         2291 
 1811000   0.53778891   -8.5429884    221.47284  0.010191093 0.0084969315         2274 
 1812000   0.52343881   -8.5424374    221.66564  0.010194336 0.0084890556         2289 
 1813000   0.52173393   -8.5548675    221.32288  0.010172958 0.0084811899         2333 
 1814000   0.54068108    -8.532682    221.54928  0.010177751 0.0084733334         2266 
 1815000   0.53556276   -8.5451615    221.51006  0.010170342 0.0084654825         2249 
 1816000   0.52929821    -8.541077    221.43399  0.010161251 0.0084576462         2276 
 1817000   0.53049228   -8.5439218    221.59063  0.010162843 0.0084498195         2283 
 1818000   0.52832022   -8.5477159    221.50158  0.010153171 0.0084420028         2316 
 1819000   0.52279446   -8.5470669    221.36562  0.010141361 0.0084341957         2236 
 1820000   0.53835364   -8.5674324    221.61437  0.010147178 0.0084264003         2329 
 1821000   0.52755249   -8.5589861     221.7399   0.01014735 0.0084186057         2289 
 1822000   0.52460804    -8.554307    221.64227  0.010137316 0.0084108194         2333 
 1823000   0.52913827   -8.5627659    221.45383  0.010123141 0.0084030441         2321 
 1824000   0.52445018   -8.5657565    221.16614  0.010104447 0.0083952856         2226 
 1825000   0.52616248   -8.5452282    221.15795  0.010098537 0.0083875345         2282 
 1826000   0.53387278   -8.5642203    221.26355  0.010097825 0.0083797984         2294 
 1827000   0.51255913   -8.5561349    221.51499  0.010103767 0.0083720649         2347 
 1828000   0.52600932   -8.5541609    221.38354  0.010092247 0.0083643382         2324 
 1829000   0.52010509   -8.5589467    221.42462  0.010088601 0.0083566253         2298 
 1830000   0.53544209   -8.5616878    221.47717  0.010085481 0.0083489282         2307 
 1831000   0.51082673   -8.5595178    221.58527  0.010084893 0.0083412365         2403 
 1832000   0.52831609   -8.5673819    221.41676  0.010071723 0.0083335582         2392 
 1833000   0.52508678   -8.5556507     221.3247  0.010062043 0.0083258896         2300 
 1834000   0.51258205   -8.5673374    221.21112  0.010051396 0.0083182369         2399 
 1835000   0.51641599   -8.5465957    221.74012  0.010069942 0.0083105858         2368 
 1836000   0.52318384   -8.5531857    221.33974  0.010046284 0.0083029485         2329 
 1837000   0.51931985   -8.5520313    221.45745  0.010046156 0.0082953146         2431 
 1838000   0.52009889   -8.5615405    221.53695  0.010044294 0.0082876879         2286 
 1839000   0.51446404   -8.5657677    221.74504  0.010048262 0.0082800798         2230 
 1840000   0.52675344   -8.5781554    221.12941  0.010014919 0.0082724661         2372 
 1841000   0.51562158   -8.5573939    221.55644  0.010028808 0.0082648717         2387 
 1842000   0.51056809   -8.5739957     221.4976  0.010020702 0.0082572811         2397 
 1843000   0.51515268   -8.5649128    221.40265  0.010010972 0.0082496894         2252 
 1844000   0.51538632   -8.5665506    221.22648 0.0099975815 0.0082421143         2359 
 1845000   0.52635526   -8.5827385    221.43075  0.010001389 0.0082345504         2313 
 1846000    0.5220634   -8.5644075    221.44639 0.0099966773 0.0082269902         2336 
 1847000   0.52028077   -8.5697422    221.00067 0.0099711544  0.008219437         2336 
 1848000   0.50976461   -8.5690581    221.18104 0.0099738927 0.0082119023         2291 
 1849000   0.50664074   -8.5795542    221.24506 0.0099713835 0.0082043691         2274 
 1850000    0.5162882   -8.5813354    221.53802   0.00997919 0.0081968455         2300 
 1851000   0.50852757   -8.5582955    221.07113 0.0099527793 0.0081893326         2291 
 1852000   0.51134821   -8.5667923    221.21867 0.0099540438 0.0081818254         2335 
 1853000   0.51208613   -8.5845265    221.12372 0.0099444018 0.0081743288         2360 
 1854000   0.50692016   -8.5625045    221.42999 0.0099528044 0.0081668395         2335 
 1855000   0.50925508   -8.5806059    221.37969 0.0099451794 0.0081593637         2346 
 1856000   0.51208756   -8.5874579    221.38755 0.0099401739 0.0081518913         2333 
 1857000   0.51977494   -8.5622979    221.41201 0.0099359186 0.0081444313         2357 
 1858000   0.50697968    -8.571695     221.0467 0.0099141865 0.0081369865         2368 
 1859000   0.51015753    -8.582678     221.1237 0.0099123048 0.0081295448         2314 
 1860000   0.51420765   -8.5724595    221.27599 0.0099137988 0.0081221089         2415 
 1861000   0.51452369   -8.5877522     221.1912 0.0099046748 0.0081146803         2308 
 1862000   0.50719257   -8.5792299    221.32379 0.0099052895 0.0081072604         2224 
 1863000   0.51414984   -8.5729676    220.88889 0.0098805194 0.0080998537         2335 
 1864000   0.51273386    -8.577035    220.95652 0.0098782421  0.008092458         2384 
 1865000   0.51147603   -8.5893756    221.20695 0.0098841354 0.0080850634         2371 
 1866000   0.49935067    -8.597952    221.09052  0.009873639 0.0080776854         2374 
 1867000   0.50877312   -8.5800824    221.03827 0.0098660183 0.0080703115         2344 
 1868000   0.51460432   -8.5738788    221.38796 0.0098763365  0.008062948         2376 
 1869000   0.49775602   -8.5711096    221.46467 0.0098744724 0.0080555863         2384 
 1870000   0.51024133   -8.6020924    221.29373 0.0098615744  0.008048239         2380 
 1871000   0.50964782   -8.5859053    221.09522  0.009847462 0.0080408989         2347 
 1872000   0.50582992   -8.5993125    221.16062 0.0098451132  0.008033568         2323 
 1873000   0.50695249   -8.6001647    221.26298 0.0098444107 0.0080262489         2345 
 1874000   0.51070057   -8.5875078    221.21299 0.0098369349 0.0080189415         2362 
 1875000   0.50939168   -8.5909867    221.09936 0.0098266382 0.0080116432         2308 
 1876000   0.50227708   -8.6042166     221.0884 0.0098209134  0.008004347         2338 
 1877000   0.50627139   -8.5954134    221.22515 0.0098217525  0.007997058         2395 
 1878000    0.5013267   -8.5904015     220.9347  0.009803634 0.0079897751         2363 
 1879000   0.50195507   -8.6146646    220.67213  0.009786772 0.0079824996         2395 
 1880000   0.51915919   -8.6106421    221.34664 0.0098114647 0.0079752325         2403 
 1881000   0.49818045   -8.5981773    221.25105 0.0098020135 0.0079679726         2384 
 1882000   0.50016629   -8.5954034    221.27854 0.0097980225 0.0079607196         2374 
 1883000   0.48612191   -8.6041302    221.16863 0.0097879547 0.0079534779         2340 
 1884000   0.50387922   -8.5947521    221.07976 0.0097788287  0.007946244         2348 
 1885000   0.50543628   -8.5882287    220.93586 0.0097672792 0.0079390246         2351 
 1886000   0.49361034   -8.6089425    221.43778 0.0097842782 0.0079318175         2351 
 1887000   0.49557407   -8.5784802    221.25874 0.0097711863 0.0079246126         2321 
 1888000   0.51320679   -8.6118562    220.95566 0.0097526333 0.0079174198         2348 
 1889000   0.49228072   -8.5983418    221.25175 0.0097605323 0.0079102288         2319 
 1890000   0.50509024   -8.6086599     220.5932 0.0097263316 0.0079030513         2353 
 1891000    0.4874856   -8.6073115    220.76507 0.0097287621 0.0078958785         2386 
 1892000   0.50902898   -8.6006968    220.87948 0.0097286591 0.0078887135         2314 
 1893000   0.48996228   -8.6000445    220.77477 0.0097189105 0.0078815527         2417 
 1894000   0.47918362   -8.6105723    221.00974 0.0097241172  0.007874405         2341 
 1895000   0.50177472   -8.6044814    220.93085 0.0097155167 0.0078672654         2353 
 1896000   0.49420034   -8.6089132    220.81787 0.0097054266  0.007860133         2348 
 1897000   0.48201203   -8.6167369    220.64514 0.0096927228 0.0078530029         2380 
 1898000   0.49300068   -8.6043783    220.89118 0.0096984185 0.0078458824         2394 
 1899000   0.48766415   -8.6152757    220.50557 0.0096763897 0.0078387723         2337 
 1900000    0.4867523   -8.6356511    220.74001 0.0096815795  0.007831665         2321 
 1901000   0.48355365   -8.6197081    220.83421 0.0096806159  0.007824568         2404 
 1902000     0.499398   -8.6063778    220.61525 0.0096659326 0.0078174832         2417 
 1903000   0.51103475   -8.6192119    220.58096 0.0096593519 0.0078104058         2445 
 1904000   0.49007313   -8.6025558    220.84708 0.0096659262 0.0078033341         2331 
 1905000   0.49350935   -8.6084816    220.95715 0.0096656671 0.0077962738         2335 
 1906000   0.48975445   -8.6200391    220.50443 0.0096408022 0.0077892237         2426 
 1907000   0.49710551   -8.6171154    220.77667 0.0096476433 0.0077821789         2420 
 1908000   0.48778392   -8.6233397    220.53771 0.0096321501 0.0077751459         2421 
 1909000    0.4912843   -8.6096423    221.12603 0.0096527864 0.0077681183         2418 
 1910000   0.49517593   -8.6244689    220.48046 0.0096195664 0.0077611007         2301 
 1911000   0.48303948   -8.6081653    220.74903 0.0096262442 0.0077540835         2339 
 1912000   0.49739015   -8.6048601    220.39061  0.009605588 0.0077470804         2395 
 1913000     0.486915   -8.6217715    220.62356 0.0096107144 0.0077400772         2405 
 1914000   0.48366864    -8.621668     220.5911 0.0096042799 0.0077330877         2402 
 1915000   0.48250818   -8.6214459    220.68384 0.0096033005 0.0077261083         2394 
 1916000   0.48417267   -8.6174352    220.60972 0.0095950646 0.0077191356         2345 
 1917000   0.49195177   -8.6152226    220.79816 0.0095982507 0.0077121737         2409 
 1918000   0.48718136   -8.6314072    220.82272 0.0095943135 0.0077052183         2300 
 1919000   0.48221577   -8.6233505    220.77408 0.0095872016 0.0076982685         2338 
 1920000   0.49182218   -8.6269267    220.73057 0.0095803198 0.0076913364         2445 
 1921000   0.48078636   -8.6206358    220.38153 0.0095601915 0.0076844077         2426 
 1922000   0.49950001   -8.6201232    220.56413 0.0095631342 0.0076774865         2356 
 1923000   0.48985821   -8.6290867    220.51849 0.0095561833 0.0076705769         2404 
 1924000   0.48245699   -8.6115849    220.96592 0.0095705958  0.007663681         2390 
 1925000   0.49531913   -8.6278002    220.70506 0.0095543316 0.0076567874         2401 
 1926000   0.48341565   -8.6201407    220.69639 0.0095489956 0.0076499003         2410 
 1927000   0.48140085   -8.6167429    220.73361 0.0095456498 0.0076430253         2395 
 1928000    0.4760965   -8.6252761    220.78193 0.0095427873 0.0076361553         2360 
 1929000   0.48409955   -8.6360059    220.66153 0.0095326391 0.0076292883         2393 
 1930000   0.47080947    -8.627299    220.25698 0.0095102322 0.0076224356         2327 
 1931000   0.47701275   -8.6252958     220.3275 0.0095083506 0.0076155876         2367 
 1932000   0.49014314   -8.6252924    220.51896 0.0095116873 0.0076087528         2415 
 1933000   0.49451392   -8.6233624    220.67765 0.0095136081 0.0076019217         2380 
 1934000   0.49132756   -8.6415349    220.50602 0.0095012935 0.0075950991         2402 
 1935000   0.47769975   -8.6297915    220.27658 0.0094865019 0.0075882773         2372 
 1936000   0.48645981   -8.6369651    220.26829 0.0094812452 0.0075814673         2437 
 1937000   0.48237662   -8.6456611     220.2294 0.0094746775 0.0075746691         2396 
 1938000   0.48334173   -8.6235828    220.51259 0.0094819655  0.007567875         2446 
 1939000   0.47246106   -8.6169609    220.56516 0.0094793345  0.007561085         2434 
 1940000   0.48632284   -8.6462848    220.52932 0.0094729089 0.0075543099         2418 
 1941000   0.48493202     -8.63412    220.07429 0.0094484926 0.0075475478         2358 
 1942000   0.48034657   -8.6591377    220.49632  0.009461737 0.0075407917         2478 
 1943000   0.48350994   -8.6411302    220.62068 0.0094622012 0.0075340415         2436 
 1944000   0.47581963   -8.6371379    220.37475 0.0094467916 0.0075272971         2491 
 1945000   0.47730686   -8.6270926     220.5246 0.0094483547 0.0075205636         2420 
 1946000     0.471158   -8.6509452    220.44805 0.0094402213 0.0075138342         2421 
 1947000   0.46515424   -8.6425949    220.43417 0.0094347788 0.0075071151         2439 
 1948000   0.48057454   -8.6344569    221.12786 0.0094596108  0.007500405         2421 
 1949000   0.47682641   -8.6462349    220.30867 0.0094197312 0.0074936954         2402 
 1950000   0.47653746   -8.6403513    220.54311 0.0094249191 0.0074869956         2386 
 1951000   0.47914942   -8.6285599    220.46879 0.0094169139  0.007480303         2367 
 1952000   0.47390439   -8.6355646    220.57467 0.0094166098 0.0074736247         2319 
 1953000   0.48578216   -8.6376926    220.70659 0.0094174172 0.0074669496         2389 
 1954000   0.47722669   -8.6434447    220.49839 0.0094037184  0.007460286         2371 
 1955000   0.46308628   -8.6430238    220.54493 0.0094008922 0.0074536282         2418 
 1956000   0.46037719   -8.6514028    220.68183 0.0094019184 0.0074469751         2412 
 1957000   0.47705509   -8.6373415    220.54392 0.0093912416 0.0074403318         2430 
 1958000   0.47306076   -8.6644621    220.33537 0.0093775695 0.0074336944         2416 
 1959000   0.46367721   -8.6422825    220.44999 0.0093776581 0.0074270667         2384 
 1960000   0.47225012   -8.6475085    220.33612 0.0093680324 0.0074204465         2366 
 1961000   0.46987698   -8.6494343    220.70095 0.0093787586 0.0074138431         2393 
 1962000   0.46231477   -8.6427117    220.73169 0.0093752844 0.0074072417         2433 
 1963000   0.46108955   -8.6589941    220.56352  0.009363369 0.0074006455         2445 
 1964000   0.46488469   -8.6411377    220.63049 0.0093614431 0.0073940608         2360 
 1965000   0.48595731   -8.6523419    220.30946 0.0093430646 0.0073874813         2382 
 1966000   0.47502154    -8.649627    220.49531   0.00934619 0.0073809055         2420 
 1967000   0.46837148   -8.6586863    220.34834 0.0093352117   0.00737434         2385 
 1968000   0.46810849   -8.6464668    220.41126 0.0093331325  0.007367785         2429 
 1969000   0.45796981    -8.652016    219.96795 0.0093096304 0.0073612389         2376 
 1970000    0.4679814   -8.6699206    220.38067 0.0093223635 0.0073546941         2437 
 1971000   0.46764873   -8.6587253    220.63423  0.009328354 0.0073481566         2426 
 1972000   0.46259668   -8.6430992    220.61101 0.0093226424 0.0073416246         2452 
 1973000   0.46273912   -8.6389114    220.54466  0.009315115 0.0073351044         2446 
 1974000    0.4592707   -8.6446747    220.09797 0.0092915388 0.0073285912         2383 
 1975000   0.47302051   -8.6527448    219.95371 0.0092807473  0.007322092         2431 
 1976000   0.45723853    -8.653573    220.22841 0.0092876354 0.0073155904         2427 
 1977000   0.47461118   -8.6675985    219.99626  0.009273152 0.0073091042         2431 
 1978000   0.46551363   -8.6441079    220.33885 0.0092828972 0.0073026256         2466 
 1979000   0.46748444   -8.6478801    220.31237 0.0092770915 0.0072961573         2434 
 1980000    0.4646969   -8.6610403    220.43633 0.0092776232 0.0072896876         2380 
 1981000   0.46818699   -8.6696173    220.11129 0.0092592667 0.0072832268         2366 
 1982000   0.46270599   -8.6711701    220.03657 0.0092514536 0.0072767771         2417 
 1983000   0.46066239   -8.6685568     219.8836 0.0092403597 0.0072703307         2397 
 1984000   0.45675587   -8.6479026    219.96737  0.009239221 0.0072638934         2404 
 1985000   0.46524834     -8.65022    219.97772 0.0092350007 0.0072574638         2429 
 1986000   0.45577556    -8.669419    219.95239 0.0092292877 0.0072510393         2480 
 1987000   0.46066765   -8.6763536    219.89386 0.0092221884 0.0072446186         2452 
 1988000   0.46104894   -8.6669906    219.98172 0.0092212325 0.0072382087         2451 
 1989000   0.46303366    -8.671307    220.19801 0.0092256582 0.0072318072         2434 
 1990000    0.4587237    -8.661786    220.20819 0.0092214486 0.0072254188         2382 
 1991000   0.45627365   -8.6611565    220.35377 0.0092229103  0.007219033         2474 
 1992000   0.46187496   -8.6662351    220.15908 0.0092101355 0.0072126544         2461 
 1993000   0.46159521   -8.6693239    220.42762 0.0092167427 0.0072062875         2397 
 1994000   0.45796916   -8.6744798    220.35904 0.0092092542 0.0071999227         2434 
 1995000   0.44940481   -8.6635918    220.29109 0.0092017997 0.0071935677         2444 
 1996000   0.44694732   -8.6376652    220.53678 0.0092074476 0.0071872187         2448 
 1997000   0.45539206    -8.661873    220.18085  0.009187984 0.0071808741         2433 
 1998000   0.45606529   -8.6547694    219.98428 0.0091751867 0.0071745367         2429 
 1999000   0.45484827   -8.6685775    219.95578 0.0091694087 0.0071682077         2493 
 2000000     0.456154   -8.6636239    220.12987 0.0091720779   0.00716189         2415 
 2001000   0.46067362    -8.686881    220.35084 0.0091766968 0.0071555756         2459 
 2002000   0.45942501   -8.6754027    220.16033 0.0091641828 0.0071492725         2417 
 2003000   0.45382116   -8.6727439    220.13401 0.0091585126 0.0071429807         2432 
 2004000   0.45575044   -8.6629538    220.09445 0.0091522975 0.0071366884         2483 
 2005000   0.45127858    -8.661377    219.83337 0.0091368817 0.0071304039         2430 
 2006000   0.44958239   -8.6705782    219.95574 0.0091374103 0.0071241278         2481 
 2007000   0.44597569   -8.6604539    220.19192 0.0091426639 0.0071178621         2422 
 2008000   0.44790765   -8.6736028     219.7614 0.0091202441 0.0071116018         2417 
 2009000   0.45452524    -8.694795    220.08746 0.0091292294 0.0071053486         2499 
 2010000   0.43934164   -8.6946428    220.17871 0.0091284705 0.0070990969         2423 
 2011000   0.45831714   -8.6851871    220.26006 0.0091273024 0.0070928566         2350 
 2012000   0.44868955   -8.6839376    220.10937 0.0091165245 0.0070866208         2505 
Loop time of 5289.25 on 48 procs for 2000000 steps with 4000 atoms

Performance: 65340.037 tau/day, 378.125 timesteps/s
99.4% CPU use with 48 MPI tasks x no OpenMP threads

MPI task timing breakdown:
Section |  min time  |  avg time  |  max time  |%varavg| %total
---------------------------------------------------------------
Pair    | 385.81     | 425.13     | 462.66     |  96.3 |  8.04
Neigh   | 37.061     | 38.577     | 40.101     |  11.3 |  0.73
Comm    | 340.04     | 375.33     | 415.95     | 111.1 |  7.10
Output  | 6.8646     | 6.8667     | 6.9199     |   0.3 |  0.13
Modify  | 4375.6     | 4393.4     | 4415.6     |  13.8 | 83.06
Other   |            | 50         |            |       |  0.95

Nlocal:        83.3333 ave          89 max          75 min
Histogram: 1 1 3 1 5 14 8 6 3 6
Nghost:        2435.96 ave        2460 max        2419 min
Histogram: 3 8 6 8 7 7 2 4 1 2
Neighs:        16964.4 ave       19918 max       14998 min
Histogram: 6 7 8 7 5 3 5 4 0 3
FullNghs:      33928.5 ave       36646 max       30307 min
Histogram: 2 0 3 4 7 11 9 4 4 4

Total # of neighbors = 1628568
Ave neighs/atom = 407.14200
Neighbor list builds = 106540
Dangerous builds = 0

#clear
#
#next RN
#
#jump SELF
Total wall time: 1:28:12
