
units lj                  # Use reduced LJ style units
atom_style atomic         # Uncharged point particles
atom_modify map hash      # Needed for indexing of clusters etc
                          # Used to be able to find where atoms are in relation to each other.

lattice fcc 1.0 spacing 1 1 1
Lattice spacing in x,y,z = 1.5874011 1.5874011 1.5874011
region box block 0 10 0 10 0 10 units lattice
create_box 2 box
Created orthogonal box = (0.0000000 0.0000000 0.0000000) to (15.874011 15.874011 15.874011)
  3 by 4 by 4 MPI processor grid
create_atoms 1 box
Created 4000 atoms
  using lattice units in orthogonal box = (0.0000000 0.0000000 0.0000000) to (15.874011 15.874011 15.874011)
  create_atoms CPU = 0.003 seconds
set type 1 type/fraction 2 0.08 78393
Setting atom values ...
  344 settings made for type/fraction
mass 1 1.0
mass 2 1.0
pair_style lj/cut  3.5
pair_modify tail  yes
pair_coeff 1  1  1.0  1.0   # Intearaction between 1 and 1 set with epsilon = 1 and sigma = 1
pair_coeff 1  2  1.5  0.8
pair_coeff 2  2  0.5  0.88

write_data data.0
System init for write_data ...
Neighbor list info ...
  update every 1 steps, delay 10 steps, check yes
  max neighbors/atom: 2000, page size: 100000
  master list distance cutoff = 3.8
  ghost atom cutoff = 3.8
  binsize = 1.9, bins = 9 9 9
  1 neighbor lists, perpetual/occasional/extra = 1 0 0
  (1) pair lj/cut, perpetual
      attributes: half, newton on
      pair build: half/bin/atomonly/newton
      stencil: half/bin/3d
      bin: standard
WARNING: Not all mixed pair coeffs generated from mixing. Use write_data with 'pair ij' option to store all pair coeffs. (../write_data.cpp:312)


#############################
#   M E L T   S Y S T E M   #
#############################

velocity all create 2.4 8172548 mom yes dist gaussian # Assign velocities
                                                    # Temperature 2.4, random number seed, zero linear momentum
                                                                                # Gaussian distribution

timestep 0.002   # simulation timestep
thermo 1000       # output thermodynamic data every 1000 steps bf 100

# Define a fix  in this case with index 1 applied to all
# particles in the simulation. This fix is for simulations
# in the anisotropic NPT ensemble. Note that we use the MTK
# correction.
fix 1 all npt temp 2.4 2.4 0.1 iso 5.68 5.68 0.5 mtk yes tchain 5 pchain 5 # Use NPT ensemble
                                                                         # Set temperature and pressure and damping
                                                                         # Numbers of thermostats in chain and in barostat
run 10000          # run for 10000 steps
Per MPI rank memory allocation (min/avg/max) = 3.642 | 3.644 | 3.648 Mbytes
Step Temp E_pair E_mol TotEng Press Volume 
       0          2.4   -7.8205278            0   -4.2214278   -2.8943486         4000 
    1000    2.4312577   -4.6031023            0   -0.9571275    5.6217076    4902.2054 
    2000    2.3964642   -4.5554798            0  -0.96168211     5.708173    4915.7673 
    3000    2.4059383   -4.5798386            0  -0.97183341    5.4116747     4932.341 
    4000    2.4344246   -4.6157644            0  -0.96504041    5.4731343    4917.8276 
    5000    2.3920632   -4.5859778            0  -0.99878004    5.6881341    4897.6515 
    6000    2.4197792   -4.5839944            0  -0.95523305    5.6974258    4899.2419 
    7000    2.3782527   -4.5746736            0   -1.0081864    5.6070971    4916.1093 
    8000    2.4312406   -4.5513844            0  -0.90543524    5.6827369    4931.4506 
    9000    2.4654003   -4.5764119            0  -0.87923595    5.6071868     4925.083 
   10000    2.3912189   -4.5632234            0  -0.97729177    5.6871411    4910.6946 
Loop time of 2.22546 on 48 procs for 10000 steps with 4000 atoms

Performance: 776468.035 tau/day, 4493.449 timesteps/s
99.6% CPU use with 48 MPI tasks x no OpenMP threads

MPI task timing breakdown:
Section |  min time  |  avg time  |  max time  |%varavg| %total
---------------------------------------------------------------
Pair    | 0.88405    | 0.96221    | 1.1186     |   3.8 | 43.24
Neigh   | 0.18957    | 0.19874    | 0.22702    |   1.5 |  8.93
Comm    | 0.6661     | 0.79289    | 0.89102    |   5.1 | 35.63
Output  | 0.00024953 | 0.00025741 | 0.00032192 |   0.0 |  0.01
Modify  | 0.19835    | 0.25667    | 0.30668    |   6.3 | 11.53
Other   |            | 0.01469    |            |       |  0.66

Nlocal:        83.3333 ave          90 max          75 min
Histogram: 1 2 7 4 7 1 9 5 7 5
Nghost:        1434.92 ave        1454 max        1413 min
Histogram: 2 4 5 6 7 4 4 4 5 7
Neighs:        7762.12 ave        8654 max        6533 min
Histogram: 1 0 2 8 5 9 7 8 7 1

Total # of neighbors = 372582
Ave neighs/atom = 93.145500
Neighbor list builds = 904
Dangerous builds = 194

# Equilibrate just above the melting temperature to avoid step fn in T

fix 1 all npt temp 1.25 1.25 0.1 iso 5.68 5.68 0.5 mtk yes tchain 5 pchain 5
run 2000
Per MPI rank memory allocation (min/avg/max) = 3.642 | 3.644 | 3.648 Mbytes
Step Temp E_pair E_mol TotEng Press Volume 
   10000    2.3912189   -4.5632234            0  -0.97729177    5.6871411    4910.6946 
   11000    1.2509527   -6.1224739            0    -4.246514    5.6146819    4061.8515 
   12000    1.2586077   -6.1311096            0     -4.24367    5.8351028    4041.0761 
Loop time of 0.489006 on 48 procs for 2000 steps with 4000 atoms

Performance: 706739.327 tau/day, 4089.927 timesteps/s
99.6% CPU use with 48 MPI tasks x no OpenMP threads

MPI task timing breakdown:
Section |  min time  |  avg time  |  max time  |%varavg| %total
---------------------------------------------------------------
Pair    | 0.20704    | 0.22648    | 0.27165    |   2.2 | 46.31
Neigh   | 0.031991   | 0.03352    | 0.036867   |   0.6 |  6.85
Comm    | 0.13713    | 0.16958    | 0.194      |   2.9 | 34.68
Output  | 5.138e-05  | 5.2862e-05 | 6.8609e-05 |   0.0 |  0.01
Modify  | 0.038813   | 0.054809   | 0.068573   |   4.3 | 11.21
Other   |            | 0.004571   |            |       |  0.93

Nlocal:        83.3333 ave          89 max          76 min
Histogram: 1 2 0 10 7 5 9 6 3 5
Nghost:        1631.71 ave        1658 max        1612 min
Histogram: 2 6 5 13 7 4 4 3 1 3
Neighs:        9415.90 ave       10320 max        8509 min
Histogram: 1 3 4 8 11 7 3 5 5 1

Total # of neighbors = 451963
Ave neighs/atom = 112.99075
Neighbor list builds = 142
Dangerous builds = 8

#############################
# L I N E A R  Q U E N C H  #
#############################

# Define solid atoms. This closely follows ten Wolde  Ruiz-Montero and Frenkel  Faraday Discuss  1996  104  93-110
# Compute components of the per-atom q6 vector
compute q6 all orientorder/atom degrees 1 6 components 6 nnn NULL cutoff 1.3 # compute the Q6 parameter.
                                                                             # Use all neighbours within 1.3 unit cell.

# get number of connections
compute coord_number all coord/atom orientorder q6 0.5

# An atom is solid if it has 8 or more connections (of a possible 14)
variable is_solid atom c_coord_number>=8
group solid dynamic all var is_solid    # Must be dynamic to update
dynamic group solid defined

# do clustering
compute cluster solid cluster/atom 1.3 # Create a cluster where all atoms within are solid and max 1.3 units from another member

# define chunks one chunk per cluster
compute clus_chunks solid chunk/atom c_cluster nchunk every compress yes  # Says which atoms are in which chunk

# count the size of each chunk
compute size_chunks solid property/chunk clus_chunks count


# Find the maximum entry in the vector of chunk sizes
variable max_n equal max(c_size_chunks)


# Thermo style which includes this variable
# thermo_style custom step temp pe vol v_max_n

thermo ${N}  # Print the thermo information every 100 steps
thermo 1000  

# Reset the npt fix at a lower temperature (below freezing)
fix 1  all npt temp  ${temp} ${temp}  0.1  iso  5.68  5.68  0.5  mtk yes tchain  5  pchain  5
fix 1  all npt temp  0.45 ${temp}  0.1  iso  5.68  5.68  0.5  mtk yes tchain  5  pchain  5
fix 1  all npt temp  0.45 0.45  0.1  iso  5.68  5.68  0.5  mtk yes tchain  5  pchain  5

dump dmp2 all dcd ${N} traj.dcd
dump dmp2 all dcd 1000 traj.dcd


compute msd all msd com yes
variable twopoint equal c_msd[4]/6/(step*dt+1.0e-6)
fix 9 all vector 10 c_msd[4]
variable fit equal slope(f_9)/6/(10*dt)
thermo_style custom step temp pe c_msd[4] v_twopoint v_fit v_max_n

fix 1 all npt temp 1.25 ${temp} 0.1 iso 5.68 5.68 0.5 mtk yes tchain 5 pchain 5
fix 1 all npt temp 1.25 0.45 0.1 iso 5.68 5.68 0.5 mtk yes tchain 5 pchain 5
run 500000 # 5000000  # Run for this many steps
Neighbor list info ...
  update every 1 steps, delay 10 steps, check yes
  max neighbors/atom: 2000, page size: 100000
  master list distance cutoff = 3.8
  ghost atom cutoff = 3.8
  binsize = 1.9, bins = 9 9 9
  4 neighbor lists, perpetual/occasional/extra = 1 3 0
  (1) pair lj/cut, perpetual
      attributes: half, newton on
      pair build: half/bin/atomonly/newton
      stencil: half/bin/3d
      bin: standard
  (2) compute orientorder/atom, occasional
      attributes: full, newton on
      pair build: full/bin/atomonly
      stencil: full/bin/3d
      bin: standard
  (3) compute coord/atom, occasional
      attributes: full, newton on
      pair build: full/bin/atomonly
      stencil: full/bin/3d
      bin: standard
  (4) compute cluster/atom, occasional
      attributes: full, newton on
      pair build: full/bin/atomonly
      stencil: full/bin/3d
      bin: standard
Per MPI rank memory allocation (min/avg/max) = 9.747 | 9.752 | 9.758 Mbytes
Step Temp PotEng c_msd[4] v_twopoint v_fit v_max_n 
   12000    1.2586077   -6.1311096 1.8952383e-30 1.3161377e-32 8.3333333e+20            4 
   13000    1.2575422   -6.1472294   0.56100478 0.0035961843  0.046831306            2 
   14000    1.2755042   -6.1393994    1.0716766  0.006379027  0.043525613            4 
   15000    1.2556688    -6.182621    1.6066758 0.0089259764  0.043469481            2 
   16000    1.2375151   -6.1608946    2.1416824  0.011154596  0.043659113            4 
   17000    1.2213505   -6.1637615    2.6387186  0.012934895  0.043973389            2 
   18000    1.2779134   -6.1531123    3.1893493  0.014765505  0.043650419            3 
   19000    1.2190533   -6.1177387    3.7723819  0.016545534  0.044039542            3 
   20000    1.2454836   -6.1542573      4.39933  0.018330541  0.044761376            2 
   21000    1.2133992   -6.1756026    4.8740131  0.019341321  0.045221514            2 
   22000    1.2705264    -6.177171    5.3572723  0.020292698  0.045089913            1 
   23000    1.2219224   -6.1919072    5.8367183  0.021147529  0.044781194            3 
   24000    1.2699071   -6.1585912    6.4196189  0.022290343   0.04468354            2 
   25000    1.2106836   -6.1491865    6.8664385  0.022888128  0.044419336            3 
   26000    1.2296036   -6.1962009    7.4258506  0.023800803  0.044297315            3 
   27000    1.2251327   -6.1476662    8.0444918  0.024828678  0.044298695            2 
   28000    1.2530091   -6.1898497    8.5513467  0.025450436  0.044375654            3 
   29000    1.2328914   -6.1779736    9.1677514  0.026344113  0.044469023            2 
   30000    1.2110306     -6.20823    9.8156273  0.027265631  0.044668995            4 
   31000    1.2063308   -6.2043212    10.315865  0.027730819  0.044880095            3 
   32000    1.2119385   -6.1973917    10.851227  0.028258404  0.045035263            5 
   33000    1.1712857   -6.1794597    11.419751  0.028837755  0.045132184            2 
   34000    1.2234132   -6.2253297    11.812246  0.028951583  0.045126501            3 
   35000    1.1904229   -6.1915228    12.260394  0.029191414  0.045005523            1 
   36000    1.2092277   -6.2109295    12.667211  0.029322248  0.044810944            2 
   37000    1.1821865   -6.1923171    13.164265  0.029649244  0.044624764            5 
   38000    1.2205813   -6.1879981     13.67379  0.029986382  0.044428479            7 
   39000    1.1751421   -6.2642516    14.029844  0.029978298  0.044221279            1 
   40000    1.2128762   -6.2370253    14.561962   0.03033742  0.044006846            4 
   41000    1.2179653   -6.2119659    15.052102  0.030593702  0.043815106            2 
   42000    1.1992889    -6.208946    15.660361  0.031072144  0.043680698            3 
   43000     1.206265   -6.2714872    16.037729   0.03108087  0.043571335            2 
   44000    1.2007887   -6.1545764    16.591269  0.031422857  0.043443423            4 
   45000    1.2175592    -6.244577    17.077231  0.031624502  0.043320909            3 
   46000    1.2056272   -6.2360926    17.760546  0.032174902  0.043250673            2 
   47000    1.1920134   -6.2778198    18.188507  0.032249125  0.043228179            2 
   48000    1.1847952   -6.2188704    18.643376  0.032366972  0.043173051            3 
   49000    1.1992568   -6.2193121    19.106317  0.032493736  0.043108395            4 
   50000    1.1821019   -6.2693147    19.526086  0.032543477   0.04303529            2 
   51000    1.1950873   -6.2806681    19.955008  0.032606221  0.042923953            2 
   52000    1.1874006   -6.2304725     20.50246  0.032856506  0.042811852            5 
   53000    1.1939941   -6.2708634    21.115121  0.033199876  0.042749326            3 
   54000    1.1851389   -6.2846007    21.664554  0.033432953  0.042702713            2 
   55000    1.1839738   -6.2613523    22.131794  0.033533022  0.042653725            3 
   56000    1.1985842   -6.2554908    22.576552   0.03359606  0.042597514            4 
   57000    1.1750473   -6.2413889    23.033528  0.033674748  0.042537913            4 
   58000    1.1547854   -6.2992866    23.157356  0.033272062  0.042441845            3 
   59000    1.1541245   -6.2669718    23.538343  0.033246246  0.042303791            3 
   60000    1.1780163   -6.3201132     24.00332  0.033337944  0.042156839            2 
   61000    1.1579567   -6.2830169    24.594169  0.033598592  0.042047692            3 
   62000    1.1692574   -6.2750995    25.000143  0.033602343  0.041940769            6 
   63000    1.1806794    -6.280593    25.541437  0.033784969  0.041849584            2 
   64000     1.163144   -6.2646431    26.086217  0.033966428  0.041758519            3 
   65000    1.1536306   -6.3124935    26.574932  0.034070425   0.04167405            3 
   66000    1.1603515   -6.3184212    26.986196  0.034073479  0.041594701            3 
   67000    1.1521659   -6.2854931    27.584112  0.034308596   0.04153354            2 
   68000    1.1462406   -6.3019241    28.126626  0.034468904  0.041488678            3 
   69000    1.1790072   -6.3000885     28.56481  0.034498562  0.041440028            5 
   70000    1.1591734   -6.2989617    28.947631  0.034461465  0.041381778            3 
   71000    1.1514232   -6.3184065    29.438169  0.034551842  0.041328974            3 
   72000    1.1496486   -6.2919219    30.138496  0.034882518  0.041300186            6 
   73000    1.1233558   -6.3054207    30.779044  0.035135895   0.04129376            5 
   74000    1.1698205   -6.3026767    31.219375  0.035156953  0.041293057            2 
   75000    1.1866323   -6.3100313    31.639752   0.03515528  0.041282028            4 
   76000    1.1628891   -6.2855678    32.305292  0.035422469  0.041276281            3 
   77000    1.1413748   -6.3066915    32.612593  0.035295014  0.041271656            2 
   78000    1.1240194   -6.3157032    33.295522  0.035572139  0.041272261            3 
   79000    1.1302364   -6.3176516    33.723149  0.035572942  0.041269681            3 
   80000    1.1729533   -6.3480436    34.026693  0.035444472  0.041255158            3 
   81000    1.1141607   -6.3736582    34.426767  0.035418484  0.041224223            1 
   82000    1.1391774   -6.3473845    34.803483  0.035369393  0.041196573            2 
   83000    1.1424112   -6.3318756    35.307047  0.035448843  0.041162849            2 
   84000    1.1296796   -6.3493014    35.698027  0.035414709  0.041121846            3 
   85000    1.1444644   -6.3563415    36.104064  0.035396141  0.041084865            3 
   86000    1.1154393   -6.3507623    36.437573  0.035307725  0.041030828            4 
   87000    1.1268223   -6.3626478    36.817667  0.035265964  0.040970913            4 
   88000    1.1259502   -6.3448025    37.188108  0.035216011   0.04091624            2 
   89000    1.1328891   -6.3461375    37.394097  0.035013199  0.040844641            2 
   90000     1.132887   -6.3641947    37.893815  0.035086865  0.040763923            4 
   91000    1.1164401   -6.3538383    38.219673    0.0349997  0.040677994            3 
   92000    1.1154753    -6.372843    38.323511  0.034713325  0.040583519            4 
   93000    1.1028455   -6.3705106    38.774912  0.034744545  0.040482023            3 
   94000    1.1352169   -6.3345206    39.268289  0.034812313  0.040375179            2 
   95000    1.0853386   -6.3902704    39.416164  0.034575582  0.040261413            2 
   96000    1.1115453   -6.3977754     39.59557  0.034371154  0.040141414            3 
   97000    1.1025306   -6.3979197    39.781968  0.034176948  0.040012232            3 
   98000    1.0875623   -6.3492244    40.133801  0.034127382  0.039874291            2 
   99000    1.1157035   -6.3842506    40.447423  0.034046652  0.039736072            6 
  100000    1.1069353   -6.3885245    40.987897  0.034156581  0.039605823            7 
  101000    1.1034372   -6.4098968    41.397177  0.034156086  0.039488155            3 
  102000    1.1043292   -6.4237061    41.643483  0.034022453  0.039365669            4 
  103000    1.1017047   -6.3989257    41.873712  0.033878408  0.039241101            5 
  104000    1.1011513   -6.3880721    42.341448  0.033927442    0.0391126            3 
  105000    1.1018904   -6.3827508    42.653155   0.03385171  0.038986822            4 
  106000    1.1048591   -6.4080599    43.208083  0.033968619  0.038869272            2 
  107000    1.1136113   -6.3845639    43.667158   0.03400869  0.038761901            5 
  108000    1.1048176   -6.4050945    43.826061  0.033816405   0.03865405            2 
  109000    1.1019718   -6.4288167    44.211822  0.033801087  0.038541061            6 
  110000    1.0997489   -6.3905991    44.802033  0.033940934  0.038435148            5 
  111000    1.1268381   -6.4460379    45.033713  0.033809094  0.038331006            2 
  112000    1.0936365   -6.3948293    45.461623  0.033825613  0.038232232            7 
  113000     1.094795   -6.4246999    45.695372  0.033698652   0.03813086           10 
  114000    1.0845983   -6.4351714    45.998135  0.033624367    0.0380233            4 
  115000    1.0958788   -6.4325936    46.326667  0.033570048  0.037908712            5 
  116000     1.053558   -6.4848119    46.559374  0.033447826  0.037801408            4 
  117000    1.0863815    -6.401888    46.946291  0.033437529   0.03769465            4 
  118000     1.084879   -6.4408737    47.230568  0.033354921  0.037587727            2 
  119000    1.0671389   -6.4536147    47.415506  0.033204136  0.037474979            3 
  120000     1.060116   -6.4342696    48.036911  0.033358966  0.037369879            4 
  121000    1.0735203     -6.45567    48.251573  0.033231111  0.037268641            3 
  122000    1.0740455   -6.4458297    48.631706  0.033218378  0.037168157            6 
  123000    1.0539371   -6.4272185    49.036406  0.033222497   0.03706762            4 
  124000    1.0750958   -6.4625274    49.226083  0.033082045   0.03696621            2 
  125000    1.0493567   -6.4766559    49.664697  0.033109798  0.036866403            5 
  126000    1.0587613   -6.4561979    50.090713  0.033128779  0.036769334            3 
  127000    1.0802273   -6.5025041    50.303773  0.033007725  0.036672576            5 
  128000    1.0581721   -6.4647829    50.549901  0.032910092  0.036575629            6 
  129000    1.0673131   -6.5045099    50.944009  0.032909566  0.036479727            6 
  130000     1.089964   -6.4501845    51.185867  0.032811453  0.036381851            3 
  131000    1.0521015    -6.494565    51.420295  0.032710111  0.036284145            4 
  132000    1.0791127   -6.4617187     51.76834  0.032682032  0.036190666            6 
  133000    1.0642665   -6.4992647    52.422569  0.032846221  0.036097683            3 
  134000    1.0480808   -6.4965271    52.579156   0.03269848  0.036006475            4 
  135000    1.0758254   -6.4875566    53.075345  0.032762559  0.035918357            8 
  136000    1.0584801   -6.4865486    53.443534  0.032747263  0.035833345            2 
  137000    1.0425886   -6.4979731    53.934071  0.032806612  0.035756276            2 
  138000    1.0362561   -6.4979077    54.597912  0.032969754  0.035681437            5 
  139000    1.0521481   -6.4993722    54.877864  0.032900398  0.035609781            3 
  140000    1.0609087    -6.530096    54.982944  0.032727942  0.035538629            5 
  141000     1.043015   -6.4894729     55.49069  0.032795916  0.035468461            3 
  142000    1.0458201   -6.5142789     55.54227  0.032595228  0.035396823            2 
  143000     1.037482    -6.542564    55.907876  0.032580347  0.035322033            3 
  144000    1.0602727   -6.5364198    56.324944  0.032595454  0.035244933            4 
  145000    1.0466476   -6.5068295    56.559422  0.032505415  0.035170198            6 
  146000    1.0493427   -6.5657658    56.978652  0.032522061  0.035097762            3 
  147000    1.0380836   -6.5039905    57.344882  0.032508436  0.035025942            2 
  148000    1.0281425    -6.521687    57.834216  0.032564311   0.03495814            4 
  149000    1.0235857   -6.5234023    58.265308  0.032586861  0.034896181            3 
  150000    1.0614949   -6.5258945    58.617002  0.032565001  0.034835181            4 
  151000    1.0258068    -6.529776    58.703116  0.032396863  0.034769073            6 
  152000     1.043102    -6.534559     58.82879  0.032252626  0.034703941            4 
  153000    1.0014723    -6.541599    59.369797  0.032336491  0.034636684            5 
  154000    1.0251238   -6.5901008    59.306228  0.032092114  0.034570552            4 
  155000    1.0173228   -6.5442934    59.806883  0.032154238   0.03450246            3 
  156000    1.0156306   -6.5240441    60.314024   0.03221903  0.034434532            5 
  157000    1.0371421   -6.5594005     60.39141  0.032054888   0.03436628            7 
  158000   0.98981625   -6.5570845    60.610268  0.031967441  0.034297349            6 
  159000    1.0148978   -6.5379628    60.921919  0.031929727  0.034227597            6 
  160000    1.0086915   -6.5654774    61.082353  0.031813726   0.03415927            9 
  161000    1.0288859   -6.5703155    61.145624  0.031648873  0.034087582            5 
  162000    1.0213086   -6.5748057    61.432376  0.031601016  0.034012857            6 
  163000    1.0185555   -6.5692727    61.478412  0.031430681  0.033934782            5 
  164000   0.99978738   -6.5996193    62.049956  0.031529449  0.033855746            2 
  165000    1.0247108   -6.5725252     62.07428  0.031350646  0.033775915            4 
  166000    1.0091139   -6.5826525    62.305895   0.03127806  0.033694918            4 
  167000    1.0153062   -6.5383241    62.711321  0.031293074  0.033616977            9 
  168000   0.99821497   -6.6401198    62.768273  0.031135056  0.033539746            5 
  169000    0.9905081   -6.5714548     63.24904  0.031187889  0.033460631            4 
  170000   0.98116561   -6.6126268    63.328251   0.03104326  0.033382744            6 
  171000   0.99890822    -6.594262    63.555933  0.030972677  0.033303082            3 
  172000    1.0049836    -6.580557     63.84508  0.030932694   0.03322232            9 
  173000    1.0015332   -6.5797163    63.826469  0.030744927  0.033137967            5 
  174000   0.95807496    -6.607625    64.228849  0.030760943  0.033052793            6 
  175000   0.99035956   -6.6250856    64.215491  0.030578805   0.03296883            3 
  176000      1.00027   -6.6201872    64.664644  0.030617729  0.032885997            7 
  177000   0.98869366   -6.6023283    64.806382  0.030511479  0.032802487            4 
  178000   0.99731224   -6.6569542    64.840459   0.03035602   0.03271827            5 
  179000   0.98028837   -6.6135967    65.250403  0.030377282   0.03263235            6 
  180000   0.96609483   -6.6531746    65.248306  0.030207549   0.03254453            6 
  181000   0.96131597   -6.6219775    65.684248  0.030241366  0.032458926            7 
  182000   0.98544655   -6.6386207    65.897787  0.030172979  0.032372868            6 
  183000   0.96773306   -6.6475289    66.050498   0.03007764  0.032288741            5 
  184000   0.98111236   -6.6327228    66.334144  0.030042637  0.032205002            3 
  185000   0.97582521   -6.6331184    66.616332  0.030007357  0.032121665            5 
  186000   0.96309337   -6.6493773     66.71988  0.029892419  0.032037772            5 
  187000   0.97552744   -6.6215387    66.994906  0.029855128  0.031953284            3 
  188000   0.97303723   -6.6093957    67.234198  0.029802393  0.031870832            4 
  189000   0.94284118    -6.676713    67.576361  0.029795573  0.031788488            4 
  190000   0.96695742   -6.6688924    67.478183  0.029595694  0.031704399            6 
  191000   0.96130226   -6.6394149    68.019873  0.029677082  0.031621073            6 
  192000   0.95049722   -6.6827454    68.168077  0.029586839  0.031539929            5 
  193000   0.95876973   -6.6825585    68.455232  0.029557527  0.031459445            8 
  194000   0.95779525   -6.6630327    68.718777  0.029518375  0.031380656            3 
  195000    0.9415345   -6.6906517    69.233646  0.029587028  0.031303234            9 
  196000   0.94492794   -6.6851918    69.104019   0.02938096  0.031225385            3 
  197000   0.95927063   -6.6898139     69.51978   0.02940769  0.031148243            5 
  198000   0.94847096   -6.6774435    69.717879  0.029342542  0.031073006            2 
  199000   0.93413961   -6.6798652     69.72742  0.029199087  0.030996631            8 
  200000   0.94626203   -6.7078733    69.844284  0.029101785  0.030918782            5 
  201000   0.93648417    -6.698266    70.098125  0.029062241  0.030839772            4 
  202000   0.94341716   -6.6653227    70.375108  0.029032635  0.030762839            4 
  203000   0.93500168   -6.7067526     70.32157   0.02886764  0.030683234            7 
  204000   0.94402239   -6.6708294     70.58162  0.028832361  0.030602561            5 
  205000   0.94252397   -6.7083099    70.434079  0.028631739  0.030521036            4 
  206000   0.93586875   -6.7141589    70.814386  0.028646596  0.030437708            3 
  207000   0.92247465   -6.7010833    70.708469  0.028465567  0.030353923            3 
  208000   0.94275516   -6.6920409    70.838717  0.028380896  0.030269698            4 
  209000   0.92877765   -6.7128701    71.267128   0.02841592  0.030186485            5 
  210000   0.93256875   -6.6716769    71.567806  0.028399923  0.030105249            7 
  211000   0.92894838   -6.7336527    71.682798  0.028310742  0.030023848            4 
  212000   0.93042699   -6.7172554     72.11562  0.028347335  0.029944425            3 
  213000   0.91636151   -6.6838613    72.474791   0.02835477  0.029866651            2 
  214000   0.92330581   -6.7270309    72.477964  0.028223506  0.029789831            6 
  215000   0.91763064   -6.7294912    72.900199  0.028255891  0.029713176            3 
  216000   0.90572306   -6.7570176    72.837464  0.028100873  0.029636653            5 
  217000    0.9219136    -6.745793    73.169422  0.028098856  0.029560058            5 
  218000   0.92459587   -6.7582215    73.357021  0.028041675  0.029483501            4 
  219000   0.92037704   -6.7456198    73.418254  0.027936931  0.029407119            6 
  220000   0.92961868   -6.7474376    73.577218  0.027870158  0.029331538            9 
  221000     0.901937   -6.7363341    73.834561  0.027841086  0.029255876            6 
  222000   0.92025191   -6.7886057    73.863517  0.027726545  0.029180387           12 
  223000   0.92204882   -6.7545639    74.237765  0.027742065  0.029105453            6 
  224000   0.90738119   -6.7551143    74.706119  0.027792455  0.029032675            4 
  225000   0.90613656   -6.7623565    74.650413  0.027648301  0.028960541            5 
  226000   0.90433261   -6.8011139    74.736136  0.027557572  0.028886716            7 
  227000   0.90628564   -6.7840905    74.989194  0.027529073  0.028812399            5 
  228000   0.90410179   -6.7755413    74.987278  0.027407631   0.02873782            6 
  229000   0.88988328   -6.7899199    75.037878   0.02730636  0.028663019            9 
  230000   0.89658271   -6.7610127    75.519841  0.027362261  0.028589222            5 
  231000   0.90223829   -6.7895412    75.695558    0.0273072  0.028516666            9 
  232000   0.90597102   -6.7748531     76.04315   0.02731435  0.028444034            4 
  233000   0.89488419   -6.7893639    76.016938  0.027187746  0.028372155            4 
  234000   0.91689809   -6.7683459     76.25642  0.027156845  0.028299687            7 
  235000   0.88466902   -6.7752253    76.331196    0.0270678   0.02822644            6 
  236000   0.88201013   -6.8127548    76.313052  0.026946699  0.028152281            7 
  237000   0.89027921   -6.7980695    76.584372  0.026928401  0.028078166            5 
  238000   0.88941945   -6.8327353    76.813059  0.026895329  0.028004935            7 
  239000   0.88179393   -6.8463759    76.424418  0.026647286  0.027931211            8 
  240000   0.88020266   -6.8134102    76.899141  0.026701091  0.027856952            5 
  241000   0.88713421   -6.8265276    76.821137  0.026563325   0.02778145            5 
  242000   0.89173367   -6.8022035    77.088259  0.026545544  0.027705658           13 
  243000   0.88062505   -6.8245371    76.915001  0.026376886  0.027630653           19 
  244000   0.86226149   -6.8293109    77.085796  0.026327116  0.027554427            7 
  245000   0.87338644   -6.8376133    77.347817  0.026308781  0.027479431            8 
  246000   0.87150064   -6.8102539    77.627042  0.026296423  0.027405103            5 
  247000   0.87638473   -6.8337649    77.586613   0.02617632  0.027330668           12 
  248000   0.85883241   -6.8474197    77.647819  0.026091337  0.027256089            8 
  249000   0.86627773   -6.8313006    77.767113  0.026026477  0.027181075           11 
  250000   0.86094593   -6.8465801    77.950512  0.025983504  0.027106124            5 
  251000   0.86427259   -6.8492419    78.151209  0.025946617  0.027031551            7 
  252000   0.87633182   -6.8432551    78.301035  0.025893199  0.026957606           17 
  253000   0.88862357   -6.8621412    78.164003  0.025745719  0.026883536            3 
  254000    0.8552357   -6.8723161    78.557287  0.025773388  0.026810149            6 
  255000   0.87215895   -6.8637951    78.818224  0.025757589  0.026737397            8 
  256000   0.83807636   -6.8958882    78.957614  0.025702348   0.02666542            8 
  257000   0.84205191   -6.8779893    78.886096  0.025579149   0.02659249            9 
  258000   0.86487871    -6.911505    78.900769  0.025484744   0.02651918           10 
  259000   0.87309241    -6.864838    79.393748  0.025544964  0.026446403            6 
  260000   0.84663345   -6.8831521    79.398657  0.025448287  0.026375367            8 
  261000   0.85744457   -6.8890084    79.288837  0.025315721  0.026302914           11 
  262000   0.83445722   -6.9046677    79.482238   0.02528061  0.026230382           11 
  263000   0.84713994   -6.8881748    79.551793  0.025206525  0.026158131            6 
  264000   0.84310656   -6.8677201     79.82159  0.025196209  0.026085697            9 
  265000     0.852293   -6.8787897    79.782166  0.025088731  0.026013745            4 
  266000   0.85063647   -6.9257411    79.796968   0.02499905  0.025941292           11 
  267000   0.84294393   -6.9337919    79.904838  0.024939088  0.025868644            6 
  268000   0.85162063   -6.9234683    79.977498  0.024868625  0.025796135           13 
  269000    0.8658747   -6.8995474    80.222384   0.02485204  0.025724687            7 
  270000   0.85752496   -6.9184671    80.543303  0.024859044  0.025654653           10 
  271000   0.84197548   -6.9078995    80.593716  0.024782815  0.025585228           14 
  272000   0.83553145   -6.9055697    80.928835  0.024794374  0.025515874            7 
  273000   0.81439575   -6.9216581    80.794253   0.02466247  0.025445184           11 
  274000   0.82105028   -6.9136254      80.9917  0.024632512  0.025375265           10 
  275000   0.83113043   -6.9526024    81.064256  0.024564926  0.025305436           11 
  276000    0.8263915   -6.9208251    81.365955  0.024567015  0.025235599            6 
  277000   0.81933361   -6.9257978    81.137056  0.024409463  0.025166874           19 
  278000   0.82265162   -6.9253778    81.500314   0.02443055  0.025098058           10 
  279000   0.82253541   -6.9271564    81.262507  0.024271956   0.02502906           20 
  280000   0.82537639   -6.9450228    81.617372  0.024290884  0.024960189            8 
  281000   0.81635811   -6.9291183    81.925127  0.024295708  0.024892007            9 
  282000   0.82985516    -6.945193    81.847407  0.024186586  0.024824521           13 
  283000    0.8167675   -6.9558767    82.273946  0.024226721  0.024757631           15 
  284000   0.82351975   -6.9579076    82.259716   0.02413724  0.024691248            8 
  285000   0.81990521   -6.9582905    82.323145  0.024071095  0.024625361           15 
  286000   0.82638286   -6.9821476    82.540597   0.02405029  0.024560096            8 
  287000    0.8059968   -6.9616419    82.563585  0.023973166  0.024494839            8 
  288000   0.81516479   -6.9669327    82.982368  0.024011102   0.02442996           10 
  289000   0.80631739   -6.9876418    82.810044  0.023878329  0.024365949           11 
  290000   0.80701447   -6.9976966    83.071159  0.023871023  0.024302057            6 
  291000    0.8125389   -7.0015672    83.158497  0.023814003  0.024238097            7 
  292000   0.80040765   -6.9495167    83.348861  0.023786775  0.024174638            6 
  293000   0.81076551   -6.9759244    83.518982  0.023753977  0.024111281            9 
  294000   0.80449902   -6.9912818    83.299119  0.023610861   0.02404794            9 
  295000   0.80180453   -6.9619534    83.580429  0.023610291  0.023984519            9 
  296000   0.79510469   -7.0044516    83.488494  0.023504644  0.023920628           21 
  297000   0.79376607   -7.0192614    83.179407  0.023338779   0.02385652            8 
  298000   0.77803058   -6.9860895    83.788994  0.023430927  0.023792745            5 
  299000   0.78092102   -7.0111678    83.731253   0.02333647   0.02372926           11 
  300000   0.79069016   -7.0254674    83.334721  0.023148534  0.023664979            8 
  301000   0.80128037   -7.0086005    83.813214  0.023204101  0.023600474           14 
  302000   0.79980233   -7.0337833    84.003991  0.023179909  0.023536065            7 
  303000   0.78044947   -7.0078766    84.122408  0.023135976  0.023472383           15 
  304000   0.79446793    -7.023133     84.11088   0.02305671  0.023409052            4 
  305000   0.78170741   -7.0242818    84.229431  0.023013506  0.023345693            5 
  306000   0.76545939   -7.0212248    84.206947  0.022932175  0.023281905            6 
  307000   0.77620838   -7.0100204       84.344   0.02289468  0.023218624           12 
  308000   0.77174581   -7.0160647     84.38194  0.022830612  0.023155104            7 
  309000   0.77913259   -7.0462915    84.190232  0.022705025  0.023091209            8 
  310000   0.78303416   -7.0124535    84.383527  0.022683744  0.023027433           10 
  311000   0.77251435   -7.0337702    84.411251  0.022618234  0.022963538            7 
  312000   0.76655816   -7.0347789     84.55561  0.022584298  0.022900118           15 
  313000   0.76931571   -7.0617758    84.622707  0.022530007  0.022836974            9 
  314000   0.75412038   -7.0290348    84.906342   0.02253353  0.022773913           14 
  315000   0.77372986    -7.029196    84.827025  0.022441012  0.022711353           14 
  316000   0.76417033   -7.0613998     84.81662  0.022367252  0.022648735           10 
  317000   0.75130968   -7.0628688    84.556075  0.022228201   0.02258574            9 
  318000   0.75136272   -7.0573788    84.758761  0.022211415  0.022522127           41 
  319000   0.76379307   -7.0574991    84.941335  0.022189482  0.022458608           17 
  320000   0.73061609   -7.0646755    84.850296  0.022096431  0.022395101           13 
  321000   0.75130211   -7.0781351    84.864263  0.022031221  0.022331715            6 
  322000    0.7730279   -7.0705117    84.864164  0.021962775  0.022268142            7 
  323000   0.74840396   -7.0707911    84.889503  0.021901316  0.022204942           11 
  324000   0.74342686   -7.0926794    84.848595  0.021823198  0.022141689           11 
  325000   0.74793476   -7.1044417    85.037874  0.021804583  0.022078123            8 
  326000   0.75297927   -7.0864214    85.181952  0.021774527  0.022015203           17 
  327000   0.73828391   -7.0780094    85.337647  0.021747617  0.021952381           17 
  328000   0.76244687   -7.1383482    85.214214  0.021649953  0.021889493           21 
  329000   0.73862394    -7.106762    85.240639  0.021590841  0.021826508           14 
  330000   0.75003662   -7.1327871    84.968253  0.021456629  0.021763448           24 
  331000    0.7357545   -7.1233676    85.263207  0.021466064   0.02170019           14 
  332000   0.73973566    -7.101368    85.170651  0.021378175  0.021636368           29 
  333000   0.72881919   -7.1049531    85.386112  0.021367896  0.021573477           11 
  334000   0.72499525   -7.1132747    85.374139  0.021300933  0.021510534           11 
  335000     0.714181   -7.1215397    85.289319  0.021216248  0.021447947           19 
  336000   0.74452434   -7.1705743    85.529877  0.021212767  0.021385894           25 
  337000   0.72504255    -7.129628    85.888875  0.021238594   0.02132437           19 
  338000   0.72435885   -7.1286852    85.490784  0.021077609  0.021262585            9 
  339000   0.73215062   -7.1210901    85.538725  0.021027219  0.021200696           10 
  340000   0.71304321   -7.1438338    85.729622  0.021012162  0.021139316           13 
  341000   0.74034892   -7.1591172    85.730402  0.020950734  0.021078159           20 
  342000    0.7041215   -7.1243114    85.797408  0.020905801    0.0210173            7 
  343000   0.72170302   -7.1525086    85.965586  0.020885711  0.020957004           18 
  344000   0.72215907   -7.1679322    85.848931  0.020796737  0.020896617           16 
  345000   0.72179179   -7.1746865    86.100318  0.020797178  0.020836318           26 
  346000    0.7127507   -7.1486319    86.127915  0.020743718   0.02077621           18 
  347000    0.7176588   -7.1608441    85.991652  0.020651213   0.02071615           27 
  348000   0.71208313    -7.170329    86.122631  0.020623235  0.020655709           29 
  349000   0.70909796   -7.1824443    86.106088  0.020560193  0.020595113           26 
  350000   0.69924954   -7.1483022    86.140756  0.020509704   0.02053456           21 
  351000    0.6971721   -7.1893984    86.245882   0.02047623  0.020474632           14 
  352000   0.69553612    -7.173766    85.889073  0.020333587  0.020414527           19 
  353000   0.70117418   -7.2017513    86.092421   0.02032399  0.020354455           18 
  354000   0.71156369   -7.1621048     86.16804  0.020284379  0.020294487           16 
  355000   0.70553281   -7.1874114    86.106998   0.02021291  0.020234841           19 
  356000   0.69796003   -7.1753236    86.264162  0.020192922  0.020175087           10 
  357000   0.68609498   -7.2033232     86.06955  0.020090931  0.020115348            9 
  358000   0.71199083   -7.2194751    86.231015  0.020072396  0.020056017           10 
  359000   0.69764016   -7.2195542    86.333251  0.020040216  0.019996528            9 
  360000   0.69026955   -7.1958024    86.517753  0.020027258  0.019937433           18 
  361000   0.68826814   -7.2277013    86.365675  0.019936675  0.019878593           16 
  362000   0.69172492   -7.2301917    86.376121  0.019884006  0.019819946           30 
  363000   0.68392775   -7.2478646    86.219894  0.019793364  0.019761244           23 
  364000   0.68130386   -7.2209864    86.401953  0.019780667  0.019702636           11 
  365000   0.70073825   -7.2189128    86.485193  0.019745478  0.019644096           11 
  366000   0.68898167   -7.2376239    86.354804  0.019661841  0.019585586           21 
  367000   0.66935283   -7.2547553    86.297443  0.019595241  0.019527148           12 
  368000   0.69072103   -7.2590359    86.208866  0.019521935  0.019468649           13 
  369000   0.68982598   -7.2311823    86.302214  0.019490112  0.019410194           17 
  370000   0.68216292    -7.209858    86.219378  0.019418779  0.019351971           27 
  371000   0.68178863   -7.2429237    86.565233  0.019444122  0.019294016           13 
  372000   0.67302124   -7.2320395    86.532106  0.019384432  0.019236346           22 
  373000   0.66552975   -7.2676677    86.468221   0.01931819  0.019178635           10 
  374000   0.67357494    -7.265243    86.309701  0.019231217  0.019120943           15 
  375000   0.66761506   -7.2226092    86.449965  0.019211103  0.019063377           16 
  376000   0.66349626   -7.2625761    86.394171  0.019147644   0.01900579           13 
  377000   0.64915231    -7.276433    86.543992  0.019129972  0.018948381           26 
  378000    0.6601343    -7.282898    86.563265  0.019083612  0.018891376           34 
  379000   0.66253939   -7.2669057      86.7542  0.019075242  0.018835139           14 
  380000   0.67283301    -7.255469    86.633657  0.018998609  0.018778747           52 
  381000   0.66669398   -7.2757843    86.601928  0.018941804  0.018722456           38 
  382000   0.65736712   -7.2650079    86.624754  0.018897198  0.018666354           38 
  383000   0.64087978   -7.3012999    86.874504  0.018902198  0.018610478           49 
  384000   0.64245961     -7.28896    86.715814  0.018818536   0.01855503           45 
  385000   0.66114448   -7.2797968    86.667429  0.018759184  0.018499436           56 
  386000   0.64532387   -7.3016055    86.765729  0.018731807  0.018444037           39 
  387000   0.66803921   -7.2926012    86.750949  0.018680221  0.018388653           42 
  388000   0.64776497   -7.3155256    86.830333  0.018649126  0.018333422           27 
  389000   0.64861671   -7.3230058    86.893476  0.018614712  0.018278254           53 
  390000   0.65115495   -7.3231261    86.785096  0.018543824  0.018223264           42 
  391000   0.64425961   -7.3096839    86.904633  0.018521874  0.018168531           41 
  392000   0.64227934   -7.3068432     86.81142  0.018454809  0.018113867           51 
  393000   0.63256369   -7.3267994    86.692581  0.018382651  0.018059152           65 
  394000   0.63352122   -7.3322344    86.853502   0.01837003  0.018004597           68 
  395000   0.62490151   -7.3363267    86.703472  0.018291872  0.017949912           77 
  396000   0.62904473   -7.3431915    86.832264  0.018272783  0.017895334           35 
  397000   0.63077272   -7.3656261    86.970591  0.018255792   0.01784098           48 
  398000   0.62644099   -7.3645387    86.673255  0.018147666  0.017786874           28 
  399000   0.63500042   -7.3656417    86.587483   0.01808427  0.017732849           27 
  400000   0.63321223   -7.3559545    86.583469  0.018038223  0.017678828           24 
  401000   0.62576084   -7.3343382    86.730158  0.018023724  0.017625233           22 
  402000   0.63912617   -7.3397305    86.746294  0.017982233  0.017571687           27 
  403000   0.62051527   -7.3413698    86.767778  0.017942055  0.017518457           29 
  404000   0.61523611   -7.3510698    86.805886  0.017905505  0.017465313           16 
  405000   0.62581747   -7.3507953    86.840351  0.017868385  0.017412206           34 
  406000   0.61510305   -7.3408393    86.814377  0.017819043  0.017359318           25 
  407000    0.6134629   -7.3571652    86.677535  0.017747243  0.017306417           22 
  408000   0.60648207   -7.3607361    86.852233  0.017739427   0.01725352           23 
  409000   0.61121224   -7.3690318    86.987093  0.017723532  0.017201001           22 
  410000   0.61152764   -7.3781161    86.756326  0.017633399  0.017148543           50 
  411000   0.60167347   -7.3580119    86.868767  0.017613294  0.017096399           41 
  412000   0.61614116   -7.3749919    86.846304     0.017566  0.017044573           30 
  413000   0.60169263   -7.3950605     86.66392  0.017486667  0.016992846           30 
  414000    0.6141685   -7.3873898     86.60698  0.017432967  0.016941108           40 
  415000   0.59756496   -7.3952229    86.827914  0.017435324  0.016889308           50 
  416000   0.58958641   -7.3822341    86.574342  0.017342617   0.01683756           53 
  417000   0.60678125    -7.374446    86.860765  0.017358266  0.016786117           59 
  418000   0.59410677   -7.4011238     86.75842  0.017296336  0.016734915           60 
  419000   0.59966965   -7.3933466    86.973362  0.017297805  0.016683823           48 
  420000   0.59260547   -7.4174259    86.653035  0.017193063  0.016632829           52 
  421000   0.60152785   -7.4038927    86.876388  0.017196435  0.016581948           72 
  422000   0.59035552   -7.4235853    86.830242  0.017146572  0.016531162           53 
  423000    0.5950208   -7.4155312    86.744858  0.017089216  0.016480469           41 
  424000   0.60158993   -7.4043012    86.790798   0.01705794  0.016429992           32 
  425000    0.5870541   -7.4257859    86.633306  0.016986923   0.01637951           63 
  426000   0.56792775   -7.4179635    86.627865  0.016945983  0.016329162           66 
  427000   0.59361049   -7.4317784    86.571656  0.016895327  0.016278904           63 
  428000   0.58704889   -7.4228444    86.618525  0.016864978  0.016228751           79 
  429000   0.57561441   -7.4411964    86.680587  0.016837721  0.016178709           44 
  430000   0.56704514   -7.4433272    86.772715  0.016816418   0.01612879           54 
  431000   0.57709117   -7.4650662    86.701134   0.01676356  0.016079137           97 
  432000   0.57751891    -7.459968    86.683995   0.01672145  0.016029533           52 
  433000    0.5813643    -7.441339    86.538249  0.016654782  0.015979984          117 
  434000   0.57260595   -7.4418101    86.598893  0.016628052  0.015930663           47 
  435000   0.57638869   -7.4571035    86.666106  0.016602702  0.015881371           92 
  436000   0.57416183   -7.4737687    86.601251  0.016552227  0.015832333           46 
  437000   0.56628726   -7.4756257     86.63418  0.016520629  0.015783445           56 
  438000   0.56550398   -7.4622991    86.687098  0.016492979  0.015734772          107 
  439000   0.57038043   -7.4551552    86.360046  0.016393327  0.015686285           55 
  440000   0.57521145    -7.460599    86.681835  0.016417014  0.015637963           56 
  441000   0.56341557   -7.4661628    86.627488  0.016369518  0.015589835           83 
  442000   0.56377891   -7.4830665    86.583111  0.016324116  0.015541782           49 
  443000   0.55391266   -7.4782992    86.635582  0.016297137  0.015493942           85 
  444000   0.56286721   -7.4838318    86.546059   0.01624363  0.015446157           54 
  445000   0.55650863   -7.4640347    86.619413  0.016220864  0.015398621           54 
  446000   0.55539155   -7.4812329    86.615071  0.016183683  0.015351264           28 
  447000   0.53473067   -7.4724435    86.646005  0.016153245  0.015304057           43 
  448000   0.54573044   -7.4793473    86.517862  0.016093352  0.015256994           43 
  449000   0.56185795   -7.4893581    86.615971  0.016075719  0.015210167           57 
  450000    0.5529174   -7.4870637    86.680264  0.016051901  0.015163422           48 
  451000   0.54896292   -7.5227886    86.634307  0.016007817  0.015116957           62 
  452000   0.53679837   -7.4935653    86.507507  0.015949024  0.015070532           53 
  453000   0.56721147   -7.5058646    86.593113  0.015929564  0.015024186           56 
  454000   0.55299336    -7.506453    86.561741  0.015888719  0.014978061           62 
  455000    0.5410019   -7.4822374    86.550646  0.015851767  0.014932052           50 
  456000   0.53763338   -7.5217691    86.614881  0.015828743  0.014886229           73 
  457000   0.54732908   -7.5292649    86.416291  0.015757894  0.014840453          105 
  458000   0.54237268   -7.5283213    86.443642  0.015728465  0.014794826           49 
  459000   0.52663236   -7.5309234    86.623466  0.015726846  0.014749274           64 
  460000   0.53293052   -7.5142564    86.673619  0.015701743  0.014704001           86 
  461000   0.53613798   -7.5227084    86.440567  0.015625554  0.014658739           62 
  462000   0.52391086   -7.5222311     86.33516   0.01557272  0.014613666           73 
  463000   0.52728658   -7.5382909    86.480996  0.015565334  0.014568661           63 
  464000   0.52049915   -7.5448195    86.460893  0.015528178  0.014523856           75 
  465000   0.52146443    -7.521637    86.350302  0.015474965  0.014479126          118 
  466000   0.52859038   -7.5307091     86.45491  0.015460463  0.014434584          138 
  467000   0.52590287   -7.5515018    86.457674   0.01542785  0.014390192           93 
  468000   0.52537731   -7.5394282    86.441328  0.015391974  0.014345954          105 
  469000   0.50938431   -7.5453705    86.348757  0.015342707  0.014301883          159 
  470000   0.52356131   -7.5608492    86.480274  0.015333382  0.014257948           81 
  471000   0.51084919   -7.5597838    86.436795  0.015293134  0.014214079          115 
  472000   0.51354194   -7.5660025    86.447968  0.015262706    0.0141704           81 
  473000   0.51253213   -7.5709339     86.32956  0.015209577  0.014126767          175 
  474000   0.51323649   -7.5601612    86.410987  0.015191805   0.01408326           62 
  475000   0.50346368    -7.557781    86.209667  0.015124503  0.014039966          173 
  476000   0.50722715   -7.5688642    86.268404  0.015103012  0.013996829          150 
  477000   0.50031212   -7.5670106     86.37532  0.015090028  0.013953832          139 
  478000   0.49780332   -7.5629615    86.280018  0.015041844   0.01391103           77 
  479000   0.50015015   -7.5687129    86.303425  0.015014514  0.013868284           76 
  480000   0.51008953   -7.5746842    86.243942  0.014972907  0.013825668          104 
  481000   0.49653952    -7.569253    86.182496  0.014931132  0.013783175           68 
  482000   0.49738946   -7.5903248    86.294877  0.014919584  0.013740813          107 
  483000   0.51046828    -7.599158    86.169886   0.01486713  0.013698677          103 
  484000   0.49584287   -7.5921988    86.280114  0.014855391  0.013656692           78 
  485000      0.49273   -7.6052802    86.244608  0.014818661  0.013614866          238 
  486000   0.49507383   -7.5813631    86.072437  0.014758648  0.013573186           64 
  487000   0.49351903   -7.5908133    86.266781  0.014761598  0.013531584           62 
  488000   0.49743269   -7.5978152    86.327243  0.014741674  0.013490209           62 
  489000   0.49070519   -7.5938558    86.246992  0.014697851  0.013448944           97 
  490000   0.49351872    -7.592246    86.170046   0.01465477  0.013407893          136 
  491000   0.47213407   -7.5837683    86.247045  0.014637991  0.013366946          119 
  492000   0.49096881   -7.5871749    86.145418  0.014591026  0.013326152          168 
  493000   0.47765589   -7.6050807    86.281559  0.014584442  0.013285534          185 
  494000   0.48483584   -7.6092421    86.060514  0.014517631  0.013245064          130 
  495000    0.4813359   -7.6015944      86.0384  0.014484579  0.013204696          114 
  496000    0.4685891   -7.6037341    86.006956  0.014450093  0.013164521          124 
  497000   0.47734789   -7.6239026    86.052478  0.014428652  0.013124426           74 
  498000   0.45698584   -7.6137295    86.065355  0.014401833  0.013084476           83 
  499000    0.4635096   -7.6321177    86.069181  0.014373611   0.01304466           90 
  500000   0.46398444   -7.6153005    86.138449  0.014356408  0.013005022          128 
  501000   0.47896137   -7.6217188    86.095076  0.014320538  0.012965557           93 
  502000   0.46845064   -7.6299462    86.096468  0.014292242  0.012926211           72 
  503000   0.47299432   -7.6269801    85.976892  0.014244018  0.012886989          121 
  504000   0.46389755   -7.6413888    86.066185   0.01423052  0.012847929           80 
  505000   0.46321688   -7.6231646    86.131142   0.01421306  0.012808958          132 
  506000    0.4586383    -7.632523     86.00678  0.014164489  0.012770152          118 
  507000   0.46286027   -7.6465406    86.010905   0.01413723  0.012731404          119 
  508000   0.46214273   -7.6423209    86.070116  0.014119113  0.012692882          120 
  509000   0.45833373   -7.6555367    86.007027  0.014081046  0.012654474          108 
  510000   0.45169944   -7.6557976    86.033065   0.01405769  0.012616129          175 
  511000    0.4501875   -7.6508938    85.958318   0.01401799  0.012577935          169 
  512000   0.45578135   -7.6569421    85.950754  0.013989381  0.012539852           89 
Loop time of 1090.25 on 48 procs for 500000 steps with 4000 atoms

Performance: 79248.160 tau/day, 458.612 timesteps/s
99.4% CPU use with 48 MPI tasks x no OpenMP threads

MPI task timing breakdown:
Section |  min time  |  avg time  |  max time  |%varavg| %total
---------------------------------------------------------------
Pair    | 67.49      | 71.812     | 81.74      |  35.0 |  6.59
Neigh   | 6.6423     | 6.8474     | 7.0726     |   3.4 |  0.63
Comm    | 56.523     | 65.694     | 73.805     |  43.5 |  6.03
Output  | 0.81728    | 0.81777    | 0.82765    |   0.2 |  0.08
Modify  | 924.92     | 932.33     | 937.29     |   9.7 | 85.52
Other   |            | 12.75      |            |       |  1.17

Nlocal:        83.3333 ave          91 max          75 min
Histogram: 1 3 2 13 4 9 7 1 4 4
Nghost:        1790.17 ave        1811 max        1768 min
Histogram: 2 4 1 11 5 4 11 2 4 4
Neighs:        10954.4 ave       12258 max        9841 min
Histogram: 2 2 7 14 2 6 7 2 4 2
FullNghs:      21909.6 ave       24093 max       19547 min
Histogram: 1 2 5 12 5 8 4 3 3 5

Total # of neighbors = 1051661
Ave neighs/atom = 262.91525
Neighbor list builds = 26969
Dangerous builds = 0

#clear
#
#next RN
#
#jump SELF
Total wall time: 0:18:13
