
units lj                  # Use reduced LJ style units
atom_style atomic         # Uncharged point particles
atom_modify map hash      # Needed for indexing of clusters etc
                          # Used to be able to find where atoms are in relation to each other.

lattice fcc 1.0 spacing 1 1 1
Lattice spacing in x,y,z = 1.5874011 1.5874011 1.5874011
region box block 0 10 0 10 0 10 units lattice
create_box 2 box
Created orthogonal box = (0.0000000 0.0000000 0.0000000) to (15.874011 15.874011 15.874011)
  3 by 4 by 4 MPI processor grid
create_atoms 1 box
Created 4000 atoms
  using lattice units in orthogonal box = (0.0000000 0.0000000 0.0000000) to (15.874011 15.874011 15.874011)
  create_atoms CPU = 0.004 seconds
set type 1 type/fraction 2 0.01 78393
Setting atom values ...
  36 settings made for type/fraction
mass 1 1.0
mass 2 1.0
pair_style lj/cut  3.5
pair_modify tail  yes
pair_coeff 1  1  1.0  1.0   # Intearaction between 1 and 1 set with epsilon = 1 and sigma = 1
pair_coeff 1  2  1.5  0.8
pair_coeff 2  2  0.5  0.88

write_data data.0
System init for write_data ...
Neighbor list info ...
  update every 1 steps, delay 10 steps, check yes
  max neighbors/atom: 2000, page size: 100000
  master list distance cutoff = 3.8
  ghost atom cutoff = 3.8
  binsize = 1.9, bins = 9 9 9
  1 neighbor lists, perpetual/occasional/extra = 1 0 0
  (1) pair lj/cut, perpetual
      attributes: half, newton on
      pair build: half/bin/atomonly/newton
      stencil: half/bin/3d
      bin: standard
WARNING: Not all mixed pair coeffs generated from mixing. Use write_data with 'pair ij' option to store all pair coeffs. (../write_data.cpp:312)


#############################
#   M E L T   S Y S T E M   #
#############################

velocity all create 2.4 5833274 mom yes dist gaussian # Assign velocities
                                                    # Temperature 2.4, random number seed, zero linear momentum
                                                                                # Gaussian distribution

timestep 0.002   # simulation timestep
thermo 1000       # output thermodynamic data every 1000 steps bf 100

# Define a fix  in this case with index 1 applied to all
# particles in the simulation. This fix is for simulations
# in the anisotropic NPT ensemble. Note that we use the MTK
# correction.
fix 1 all npt temp 2.4 2.4 0.1 iso 5.68 5.68 0.5 mtk yes tchain 5 pchain 5 # Use NPT ensemble
                                                                         # Set temperature and pressure and damping
                                                                         # Numbers of thermostats in chain and in barostat
run 10000          # run for 10000 steps
Per MPI rank memory allocation (min/avg/max) = 3.642 | 3.644 | 3.648 Mbytes
Step Temp E_pair E_mol TotEng Press Volume 
       0          2.4   -8.3261558            0   -4.7270558   -2.3168672         4000 
    1000    2.3698238   -4.4641801            0  -0.91033304    5.6759762    5140.0418 
    2000    2.4739926   -4.4026732            0  -0.69261206    5.8920393    5164.6088 
    3000    2.4068817   -4.3655404            0  -0.75612042    5.7800196    5202.0437 
    4000    2.3875049   -4.3278326            0  -0.74747067    5.9418608    5183.5331 
    5000    2.3989361   -4.4090226            0   -0.8115181    5.5553436    5196.9658 
    6000    2.3411908   -4.3959682            0  -0.88505986    5.4591429    5219.5405 
    7000    2.3654252   -4.4121781            0  -0.86492724    5.3759113    5230.1588 
    8000    2.3943842   -4.3514864            0  -0.76080793    5.8209776    5194.6737 
    9000    2.3880074   -4.3852258            0  -0.80411022    5.6660826    5195.6993 
   10000    2.3825727   -4.4040168            0  -0.83105121     5.616676    5187.9384 
Loop time of 2.09476 on 48 procs for 10000 steps with 4000 atoms

Performance: 824916.196 tau/day, 4773.821 timesteps/s
99.7% CPU use with 48 MPI tasks x no OpenMP threads

MPI task timing breakdown:
Section |  min time  |  avg time  |  max time  |%varavg| %total
---------------------------------------------------------------
Pair    | 0.85148    | 0.9134     | 1.0339     |   3.6 | 43.60
Neigh   | 0.16619    | 0.17273    | 0.19169    |   1.2 |  8.25
Comm    | 0.63224    | 0.75249    | 0.84165    |   4.8 | 35.92
Output  | 0.00024477 | 0.00024932 | 0.00030321 |   0.0 |  0.01
Modify  | 0.20061    | 0.2415     | 0.29247    |   4.6 | 11.53
Other   |            | 0.01439    |            |       |  0.69

Nlocal:        83.3333 ave          93 max          73 min
Histogram: 1 1 1 8 8 12 8 5 2 2
Nghost:        1386.50 ave        1403 max        1353 min
Histogram: 1 0 2 2 6 4 8 10 8 7
Neighs:        7328.67 ave        8384 max        6213 min
Histogram: 1 1 3 7 11 13 7 1 1 3

Total # of neighbors = 351776
Ave neighs/atom = 87.944000
Neighbor list builds = 902
Dangerous builds = 191

# Equilibrate just above the melting temperature to avoid step fn in T

fix 1 all npt temp 1.25 1.25 0.1 iso 5.68 5.68 0.5 mtk yes tchain 5 pchain 5
run 2000
Per MPI rank memory allocation (min/avg/max) = 3.642 | 3.644 | 3.648 Mbytes
Step Temp E_pair E_mol TotEng Press Volume 
   10000    2.3825727   -4.4040168            0  -0.83105121     5.616676    5187.9384 
   11000    1.2686063   -5.8262577            0   -3.9238239    5.7693869    4327.4506 
   12000     1.249173   -5.8931934            0   -4.0199023    5.4344704    4325.3647 
Loop time of 0.450761 on 48 procs for 2000 steps with 4000 atoms

Performance: 766703.140 tau/day, 4436.939 timesteps/s
99.6% CPU use with 48 MPI tasks x no OpenMP threads

MPI task timing breakdown:
Section |  min time  |  avg time  |  max time  |%varavg| %total
---------------------------------------------------------------
Pair    | 0.19503    | 0.20877    | 0.22122    |   1.2 | 46.31
Neigh   | 0.030568   | 0.031887   | 0.033763   |   0.4 |  7.07
Comm    | 0.14219    | 0.15636    | 0.17168    |   1.9 | 34.69
Output  | 4.891e-05  | 5.0824e-05 | 6.3425e-05 |   0.0 |  0.01
Modify  | 0.042417   | 0.049341   | 0.057422   |   1.8 | 10.95
Other   |            | 0.004359   |            |       |  0.97

Nlocal:        83.3333 ave          92 max          76 min
Histogram: 2 4 5 10 6 9 6 1 3 2
Nghost:        1556.69 ave        1572 max        1534 min
Histogram: 1 2 1 4 4 13 7 4 8 4
Neighs:        8791.92 ave        9862 max        7982 min
Histogram: 2 5 6 10 8 7 5 2 2 1

Total # of neighbors = 422012
Ave neighs/atom = 105.50300
Neighbor list builds = 142
Dangerous builds = 5

#############################
# L I N E A R  Q U E N C H  #
#############################

# Define solid atoms. This closely follows ten Wolde  Ruiz-Montero and Frenkel  Faraday Discuss  1996  104  93-110
# Compute components of the per-atom q6 vector
compute q6 all orientorder/atom degrees 1 6 components 6 nnn NULL cutoff 1.3 # compute the Q6 parameter.
                                                                             # Use all neighbours within 1.3 unit cell.

# get number of connections
compute coord_number all coord/atom orientorder q6 0.5

# An atom is solid if it has 8 or more connections (of a possible 14)
variable is_solid atom c_coord_number>=8
group solid dynamic all var is_solid    # Must be dynamic to update
dynamic group solid defined

# do clustering
compute cluster solid cluster/atom 1.3 # Create a cluster where all atoms within are solid and max 1.3 units from another member

# define chunks one chunk per cluster
compute clus_chunks solid chunk/atom c_cluster nchunk every compress yes  # Says which atoms are in which chunk

# count the size of each chunk
compute size_chunks solid property/chunk clus_chunks count


# Find the maximum entry in the vector of chunk sizes
variable max_n equal max(c_size_chunks)


# Thermo style which includes this variable
# thermo_style custom step temp pe vol v_max_n

thermo ${N}  # Print the thermo information every 100 steps
thermo 1000  

# Reset the npt fix at a lower temperature (below freezing)
fix 1  all npt temp  ${temp} ${temp}  0.1  iso  5.68  5.68  0.5  mtk yes tchain  5  pchain  5
fix 1  all npt temp  0.45 ${temp}  0.1  iso  5.68  5.68  0.5  mtk yes tchain  5  pchain  5
fix 1  all npt temp  0.45 0.45  0.1  iso  5.68  5.68  0.5  mtk yes tchain  5  pchain  5

dump dmp2 all dcd ${N} traj.dcd
dump dmp2 all dcd 1000 traj.dcd


compute msd all msd com yes
variable twopoint equal c_msd[4]/6/(step*dt+1.0e-6)
fix 9 all vector 10 c_msd[4]
variable fit equal slope(f_9)/6/(10*dt)
thermo_style custom step temp pe c_msd[4] v_twopoint v_fit v_max_n

fix 1 all npt temp 1.25 ${temp} 0.1 iso 5.68 5.68 0.5 mtk yes tchain 5 pchain 5
fix 1 all npt temp 1.25 0.45 0.1 iso 5.68 5.68 0.5 mtk yes tchain 5 pchain 5
run 500000 # 5000000  # Run for this many steps
Neighbor list info ...
  update every 1 steps, delay 10 steps, check yes
  max neighbors/atom: 2000, page size: 100000
  master list distance cutoff = 3.8
  ghost atom cutoff = 3.8
  binsize = 1.9, bins = 9 9 9
  4 neighbor lists, perpetual/occasional/extra = 1 3 0
  (1) pair lj/cut, perpetual
      attributes: half, newton on
      pair build: half/bin/atomonly/newton
      stencil: half/bin/3d
      bin: standard
  (2) compute orientorder/atom, occasional
      attributes: full, newton on
      pair build: full/bin/atomonly
      stencil: full/bin/3d
      bin: standard
  (3) compute coord/atom, occasional
      attributes: full, newton on
      pair build: full/bin/atomonly
      stencil: full/bin/3d
      bin: standard
  (4) compute cluster/atom, occasional
      attributes: full, newton on
      pair build: full/bin/atomonly
      stencil: full/bin/3d
      bin: standard
Per MPI rank memory allocation (min/avg/max) = 9.729 | 9.733 | 9.736 Mbytes
Step Temp PotEng c_msd[4] v_twopoint v_fit v_max_n 
   12000     1.249173   -5.8931934            0            0 8.3333333e+20            4 
   13000    1.2673888   -5.8954247   0.58082579 0.0037232421  0.048060664            4 
   14000    1.2223855   -5.8796249    1.1201323 0.0066674537  0.046798294            3 
   15000    1.2672849   -5.9107977    1.6683706 0.0092687253  0.045874747            3 
   16000    1.2562672   -5.8726677    2.3042014  0.012001049   0.04640903            6 
   17000    1.2252713   -5.8433188    2.9263791  0.014344995  0.047893776            4 
   18000    1.2424906   -5.8535587    3.5058577  0.016230822   0.04858574            2 
   19000     1.232479   -5.8780176    4.0732298  0.017865043  0.048775695            2 
   20000    1.2603343    -5.883099    4.5821193  0.019092163  0.048525237            2 
   21000    1.2178458   -5.9063466    5.0681883  0.020111858  0.047775278            7 
   22000    1.2310841   -5.9188422    5.6724084  0.021486395  0.047416756            4 
   23000    1.2227622   -5.9148532    6.2124516  0.022508882  0.047202985            2 
   24000     1.183222   -5.9369579     6.625789  0.023006211  0.046824963            2 
   25000    1.1877148   -5.8669452    7.0970516  0.023656838  0.046305956            4 
   26000     1.212223   -5.9067844    7.5251505  0.024119072  0.045681912            2 
   27000    1.2441736   -5.9189368    8.0423336  0.024822017  0.045100269            4 
   28000    1.1991827   -5.9483333    8.6176617  0.025647802  0.044731824            4 
   29000    1.2506895   -5.8979078     9.111454  0.026182339  0.044480842            6 
   30000    1.2476456   -5.9220627    9.6316688  0.026754635  0.044282023            1 
   31000    1.2205446   -5.9323204    10.103995  0.027161278  0.044059066            2 
   32000    1.2116428   -5.9229958    10.619364  0.027654595  0.043844747            3 
   33000    1.1999058   -5.9032762    11.076154  0.027970085  0.043669653            3 
   34000    1.2240765   -5.9078944    11.431373   0.02801807  0.043413395            3 
   35000    1.1866653   -5.9122036    11.952773  0.028458983  0.043122625            2 
   36000    1.2112508    -5.965355     12.35742   0.02860514  0.042853996            3 
   37000    1.2028524     -5.88245     12.82537  0.028885969  0.042610348            2 
   38000    1.2090357   -5.9584721    13.421873  0.029433932  0.042411687            3 
   39000    1.2197069   -5.9252535    13.967961  0.029846071  0.042308782            2 
   40000    1.2053985   -5.9708237     14.44335  0.030090313  0.042208213            2 
   41000    1.2168155   -5.9547994    14.914637  0.030314303   0.04213712            3 
   42000    1.1858579   -5.9667072    15.262415  0.030282569  0.042038348            7 
   43000    1.2071325   -6.0027666    15.873959  0.030763486  0.041945694            1 
   44000    1.1832322   -5.9437528    16.399065  0.031058834  0.041867806            3 
   45000     1.181794   -5.9506437    16.958196  0.031404066  0.041835368            8 
   46000    1.1853996   -5.9583411      17.4347  0.031584601  0.041813006            3 
   47000    1.2010687   -5.9782696    17.738959  0.031452055  0.041758442            5 
   48000    1.1839526    -5.964089    18.046706  0.031331087  0.041635122            3 
   49000    1.2245539    -5.997917     18.39381  0.031281989  0.041481847            7 
   50000    1.1647432   -5.9863871    18.924024  0.031540039  0.041324427            4 
   51000    1.1786098   -5.9727307    19.357889  0.031630537  0.041184943            3 
   52000    1.1612087   -5.9643238    19.829221  0.031777598  0.041058649            5 
   53000    1.1842653   -5.9890383    20.368497  0.032025939  0.040952365            5 
   54000    1.2148635   -5.9690089    20.756866    0.0320322  0.040835381            8 
   55000    1.1628668   -5.9636534    21.148289  0.032042862  0.040700484            3 
   56000    1.1797376   -5.9915034    21.559061  0.032081935  0.040577515            4 
   57000    1.1879114   -6.0009653    22.124491  0.032345747  0.040462574            5 
   58000    1.1831642   -6.0123661     22.56809  0.032425416  0.040373466            4 
   59000     1.177049   -5.9741902    22.879052  0.032315045  0.040282082            2 
   60000    1.1806444   -5.9432476    23.581124  0.032751561  0.040198554            4 
   61000    1.1502948   -6.0096908    24.061788  0.032871294  0.040141571            2 
   62000    1.1753411   -6.0217513    24.524985  0.032963689   0.04008377            4 
   63000    1.1473058   -5.9977033    24.902435  0.032939728  0.040038828            2 
   64000     1.170788   -5.9968766    25.320354  0.032969211  0.039970121            9 
   65000    1.1933192    -6.054868    25.657789  0.032894601   0.03988363            3 
   66000    1.1515571   -6.0322387    26.051966  0.032893896  0.039795593            4 
   67000    1.1818334   -6.0388409    26.672972  0.033175338  0.039735744            2 
   68000    1.1812771   -5.9980835    27.241751  0.033384498  0.039691915            3 
   69000    1.1724682   -6.0611257    27.550977  0.033274127  0.039654267            5 
   70000    1.1536366   -6.0049518    27.960702   0.03328655  0.039601733            5 
   71000    1.1601574   -6.0407219    28.430126  0.033368692  0.039542886            5 
   72000    1.1513434   -6.0085073    28.944684  0.033500791  0.039488207            3 
   73000    1.1480106   -6.0480927    29.309327  0.033458135  0.039439681            6 
   74000    1.1395739   -6.0540148    29.530379  0.033254931  0.039370725            7 
   75000    1.1596535   -6.0706938    29.969225  0.033299139  0.039292331            5 
   76000    1.1559321   -6.0642441    30.415387  0.033350205  0.039218047            3 
   77000    1.1412808   -6.0700507    30.734775  0.033262743  0.039132856            4 
   78000    1.1343204   -6.0193678    31.141259  0.033270575  0.039045185            3 
   79000    1.1503791    -6.065674     31.43007  0.033154082  0.038951829            4 
   80000    1.1522598   -5.9965505    31.933539  0.033264102  0.038852202            5 
   81000    1.1263282   -6.0337183    32.135439  0.033061151  0.038763439            4 
   82000    1.1288062    -6.058284    32.667715  0.033198897  0.038671426            3 
   83000    1.1371467   -6.0724223    33.212461  0.033345844  0.038579951            5 
   84000    1.1454434   -6.0789443    33.378638  0.033113728  0.038493976            3 
   85000    1.1360878   -6.0507879    33.860755  0.033196818  0.038408791            3 
   86000    1.1325773   -6.0948501    34.127987  0.033069755  0.038313583            3 
   87000    1.1338733   -6.0762891    34.658625  0.033197916  0.038225231            3 
   88000     1.129138   -6.0783227    35.082998  0.033222536  0.038144695            3 
   89000    1.0972153   -6.0878532    35.627092  0.033358701  0.038079719            2 
   90000    1.1242665   -6.0764964    36.169073  0.033489882  0.038020301            4 
   91000    1.1024642   -6.0717292    36.509077   0.03343322  0.037962687            3 
   92000    1.1342677   -6.0772744     36.75504  0.033292608  0.037903365            3 
   93000    1.1279357   -6.1104515    37.340198  0.033458959  0.037837579            3 
   94000    1.1497772   -6.0876725    37.837175  0.033543595  0.037786642            4 
   95000    1.1479241    -6.109232    38.191704  0.033501495  0.037734413            4 
   96000    1.1194075   -6.0787395    38.583288  0.033492437  0.037687431            5 
   97000    1.0875131   -6.1314195     38.91782  0.033434553  0.037631271            4 
   98000     1.116677   -6.1139482     39.20846  0.033340527  0.037566587           12 
   99000    1.1008512   -6.1226304    39.459989  0.033215479  0.037499588            3 
  100000    1.1218746   -6.1133998    40.023428  0.033352857  0.037434917            2 
  101000    1.1028133   -6.1282847    40.504056  0.033419188  0.037371921            4 
  102000    1.1239401   -6.1027038    40.925704  0.033436033  0.037309447            2 
  103000    1.0968365   -6.1465074    41.204735  0.033337164  0.037253315            9 
  104000    1.1282429   -6.0965861    41.620529  0.033349783     0.037197            3 
  105000    1.1001397   -6.1629176    42.075234  0.033393043   0.03713984            6 
  106000    1.0867855   -6.1206772    42.522135  0.033429352  0.037092345            3 
  107000    1.1028595   -6.1128211    43.101187  0.033567902  0.037048819           12 
  108000    1.0989924   -6.1639335     43.52088  0.033580926  0.037012394           10 
  109000     1.067278   -6.1014978    44.275431  0.033849718  0.036985371            3 
  110000     1.078499   -6.1263588    44.349504  0.033598109  0.036955677            8 
  111000     1.088808   -6.1624708    44.581046  0.033469254  0.036912266            5 
  112000    1.0905015   -6.1835716    44.952773  0.033447003  0.036868697            4 
  113000    1.0840298   -6.1646185    45.339968  0.033436555  0.036823853            5 
  114000    1.0676913   -6.1726785    45.524734  0.033278314  0.036778003            4 
  115000     1.059902   -6.1526592    45.976992  0.033316661  0.036720353            7 
  116000    1.0849066   -6.1608917    46.249277  0.033225055  0.036662696            3 
  117000    1.0543018   -6.1879606    46.616961  0.033202963  0.036604438            3 
  118000    1.0710643    -6.167361      46.7081  0.032985946  0.036538718            3 
  119000    1.0823816   -6.1593604     47.18088  0.033039832  0.036470655           10 
  120000    1.0629093   -6.1747184    47.411572  0.032924703  0.036403882            6 
  121000    1.0663974   -6.1962387    47.774822   0.03290277  0.036335364            5 
  122000    1.0698936   -6.1697041    47.893147  0.032713898  0.036263148            6 
  123000    1.0855558   -6.2414489    48.255638  0.032693521  0.036187162            5 
  124000    1.0737902   -6.1799279    48.546576  0.032625387  0.036113854            5 
  125000     1.060611    -6.191986    49.074869  0.032716579  0.036038344            7 
  126000    1.0900211   -6.1906955    49.329926  0.032625612  0.035962547           13 
  127000    1.0689817   -6.1963483    49.485605  0.032470869  0.035886581           15 
  128000     1.071254   -6.1979735    49.913573  0.032495815  0.035812323            3 
  129000    1.0792849   -6.1786567     50.10448  0.032367235  0.035734721            8 
  130000    1.0694094   -6.1857204    50.410248  0.032314261  0.035653303           10 
  131000    1.0364653   -6.1925909     50.52795  0.032142462  0.035568123            2 
  132000    1.0430062   -6.1887294    51.027104  0.032214081  0.035487137            3 
  133000    1.0456471   -6.1793419    51.250614  0.032111913  0.035408345            3 
  134000    1.0512098   -6.2342101    51.555912  0.032062134  0.035328688            4 
  135000     1.072119   -6.2345119    52.166434  0.032201502  0.035250324            6 
  136000    1.0509325   -6.2141398    52.485325  0.032160126  0.035172331            4 
  137000    1.0494924   -6.2119405    52.768771  0.032097792  0.035094655            7 
  138000    1.0473149   -6.1876545    53.106588  0.032069195  0.035018002            5 
  139000    1.0491369   -6.1891782    53.630404  0.032152521  0.034945558            2 
  140000    1.0326556   -6.2308858     53.62285  0.031918363  0.034875886            5 
  141000    1.0240249   -6.2359406    53.864837   0.03183501  0.034799721            3 
  142000    1.0368222    -6.232983    54.166862  0.031788064  0.034721907            3 
  143000     1.019504   -6.2222459    54.737753  0.031898457  0.034646485            6 
  144000    1.0478597   -6.2229529    54.852791  0.031743513  0.034571814            5 
  145000    1.0359724   -6.2097202    55.257719   0.03175731  0.034499499            2 
  146000    1.0497298   -6.2534355    55.648953  0.031763101   0.03442877            3 
  147000    1.0455146   -6.2230424    55.969209  0.031728576  0.034359921            5 
  148000    1.0122587     -6.26831    56.313891  0.031708272  0.034293537            6 
  149000    1.0107694   -6.2471215    56.545397  0.031624942  0.034225903            8 
  150000   0.99728743   -6.2625975    56.980109  0.031655616   0.03415965            7 
  151000    1.0289789   -6.2218375    57.419088  0.031688238  0.034094593            6 
  152000     1.011676   -6.2529094    57.601281   0.03157965   0.03402747            5 
  153000    1.0330363   -6.2818363    57.978432  0.031578666   0.03396176            7 
  154000    1.0262812   -6.2514894    58.046833  0.031410624  0.033894951            8 
  155000    1.0260615   -6.3036893    58.274267  0.031330251  0.033826156           13 
  156000    1.0131739   -6.2479575    58.609429  0.031308455  0.033757904            7 
  157000   0.99285669   -6.2720167    59.018356  0.031326091  0.033689873            7 
  158000    1.0273532   -6.3037609    59.286416  0.031269206  0.033622856            4 
  159000    1.0313832   -6.2763111    59.639042  0.031257359  0.033555531            5 
  160000     1.034682   -6.2916692     59.81908  0.031155771  0.033488546            8 
  161000    1.0122896   -6.2073577    60.225959  0.031172856  0.033422376            6 
  162000    1.0247887   -6.2995436    60.245808  0.030990642  0.033354015            5 
  163000    1.0136809   -6.3047708    60.593223   0.03097813  0.033282534            6 
  164000     1.009208   -6.3178422    60.656024   0.03082115  0.033209559            7 
  165000   0.98999638   -6.3415863    61.107806  0.030862528  0.033137442           12 
  166000    1.0037151   -6.2962362    61.560215  0.030903722  0.033068898            5 
  167000    1.0027677   -6.3157864     61.49923  0.030688239  0.032998721           10 
  168000    0.9917133   -6.3204582    61.808427  0.030658942  0.032928863           11 
  169000    1.0061083   -6.3108371    62.105069  0.030623801  0.032860655            8 
  170000   0.98100738   -6.3190336    62.403758  0.030590077  0.032790871            8 
  171000    1.0218625   -6.3328286    62.563769  0.030489166  0.032719968            6 
  172000   0.97963927   -6.3190152    63.083926  0.030563918  0.032650012            6 
  173000   0.98327237    -6.334563    63.132095   0.03041045  0.032577905            8 
  174000   0.99366804   -6.3035168    63.455038  0.030390344  0.032504661            5 
  175000   0.99533168   -6.3026547    63.706066  0.030336222  0.032432892            6 
  176000     1.014877   -6.2946473    63.851045  0.030232502  0.032361904            5 
  177000   0.97244934   -6.3814906    63.750776   0.03001449  0.032287787            4 
  178000    1.0081571   -6.3387576    64.245927  0.030077681  0.032211852            6 
  179000   0.98508298    -6.331641    64.474251  0.030015945  0.032137341            9 
  180000   0.99059575   -6.3291094     64.89378  0.030043417  0.032065076            8 
  181000   0.99180649   -6.3377586    65.041752  0.029945558  0.031992619            5 
  182000   0.96261695   -6.3207948    65.410955  0.029950071  0.031922356            5 
  183000   0.97591504   -6.3210546    65.525589   0.02983861  0.031851105           11 
  184000   0.97938944    -6.333352    65.745358  0.029775977  0.031779102            6 
  185000   0.98240031   -6.3586363    65.788281  0.029634361  0.031706032            4 
  186000   0.98157225   -6.3734636    66.194067   0.02965684  0.031632363            5 
  187000   0.96448231   -6.3325602     66.49658  0.029633057  0.031557307           14 
  188000   0.97493291    -6.363306    66.538204  0.029493885  0.031482858            9 
  189000   0.95923681   -6.3489135    66.883431  0.029490049  0.031410407            6 
  190000   0.94639858    -6.372696    66.779931  0.029289444  0.031335345            9 
  191000    0.9561587   -6.3648498     66.98476  0.029225462  0.031257306            7 
  192000   0.97538312   -6.3432178     67.28014   0.02920145  0.031182636            4 
  193000   0.97059875   -6.4042442    67.627548   0.02920015  0.031107229            5 
  194000   0.95867771   -6.4376966     67.69033  0.029076602  0.031032493            8 
  195000   0.97593026   -6.3755878    67.895816  0.029015306  0.030956403            5 
  196000   0.94548111   -6.3533497    68.335265  0.029054109  0.030883211           13 
  197000   0.94609044   -6.3819117    68.724872  0.029071435  0.030811062            8 
  198000    0.9601618   -6.3642757    68.807054  0.028959198  0.030739759            6 
  199000   0.95162757   -6.3678989    68.945853  0.028871798   0.03066607           11 
  200000   0.95206223    -6.380983    69.071619  0.028779841  0.030592281            4 
  201000   0.93234967   -6.3745041    69.419904  0.028781055  0.030518677            5 
  202000   0.95393294    -6.422081    69.484246  0.028665118  0.030444237            5 
  203000   0.95006685   -6.4130049    69.576747  0.028561883  0.030370239            4 
  204000   0.95571449   -6.4166332    69.965345  0.028580615   0.03029673           11 
  205000   0.95707389   -6.4075752    70.089743  0.028491765  0.030222342            9 
  206000   0.94186444   -6.4100798    70.149542  0.028377646  0.030147253            7 
  207000   0.94929215   -6.4173089     70.33658  0.028315853  0.030072441            8 
  208000   0.92718134   -6.4621378    70.445053  0.028223178  0.029997992           12 
  209000   0.93682558   -6.4371399    70.734304  0.028203471  0.029923351            7 
  210000   0.94529021   -6.4215243    70.905172  0.028136973   0.02984744            7 
  211000   0.92256002   -6.4184453    71.178913  0.028111735  0.029773309            6 
  212000   0.92902454   -6.3970512    71.388711    0.0280616   0.02969947            9 
  213000   0.92097863   -6.4295815    71.426934   0.02794481  0.029626949           11 
  214000   0.91293609   -6.3958195    71.748283  0.027939363  0.029553124           11 
  215000   0.92988474   -6.4468892    71.868993  0.027856199  0.029480165            5 
  216000   0.92748632   -6.4130091    72.232082  0.027867315  0.029409001            7 
  217000   0.94161809   -6.4105435    72.631501  0.027892282  0.029338321            5 
  218000   0.91003702    -6.451621     72.88938  0.027862913  0.029267805            5 
  219000   0.90682243   -6.4341166    72.909163  0.027743213  0.029197127            5 
  220000   0.93746937   -6.4580291    73.165096  0.027714052  0.029126864           14 
  221000    0.9158456   -6.4721887     73.38069  0.027669944  0.029058175           12 
  222000   0.91397252    -6.457719    73.405544  0.027554634  0.028989106            8 
  223000    0.9114473   -6.4650498    73.770947  0.027567618  0.028919626           12 
  224000   0.90005595   -6.4850786    73.973476  0.027519894  0.028851355            8 
  225000   0.89714707   -6.4779766    73.998305  0.027406779  0.028781199           13 
  226000   0.92146881   -6.4752637    74.226735   0.02736974  0.028711667           10 
  227000   0.91232572   -6.4888013    74.399042  0.027312424  0.028642557            6 
  228000   0.90408296   -6.4597386    74.569794  0.027255042  0.028573677           13 
  229000   0.91949448   -6.4948113    75.041527  0.027307688  0.028505842            9 
  230000   0.87391945   -6.5531776    74.919126  0.027144611  0.028438265            9 
  231000   0.89888675   -6.4810575    75.124889  0.027101331  0.028369749            6 
  232000   0.90595888   -6.4963834     75.03852  0.026953491  0.028301391            8 
  233000   0.88287135   -6.5260564    75.308423  0.026934343  0.028232441           11 
  234000   0.90095083   -6.4788541    75.526974  0.026897071  0.028162766            6 
  235000   0.89398468   -6.5044398     75.86933  0.026904018  0.028093881           13 
  236000   0.88196318   -6.5111502      75.7881  0.026761335  0.028025493           18 
  237000   0.87681131   -6.4897707     76.01148  0.026726962  0.027957322           14 
  238000   0.88423634   -6.5324893    76.154563  0.026664763  0.027889088            7 
  239000   0.87935458   -6.5236752    76.304796  0.026605577   0.02782018           15 
  240000   0.89973734   -6.5281169    76.293194  0.026490692  0.027751516           17 
  241000   0.87953898   -6.5005817    76.370864  0.026407629  0.027681891            7 
  242000   0.88102431   -6.5041449     76.85915  0.026466649  0.027613776           12 
  243000   0.87096987    -6.513692    76.937392  0.026384565  0.027545034            8 
  244000   0.87423842    -6.535591    76.965847   0.02628615  0.027476136           21 
  245000   0.89110058   -6.5504046    76.857493  0.026142005  0.027406781            3 
  246000   0.85986062   -6.5380017    77.277322  0.026177954  0.027337549           11 
  247000   0.86856511   -6.5194947    77.459531  0.026133445  0.027268187            6 
  248000   0.86687201   -6.5012929     77.63807  0.026088061  0.027200317           13 
  249000   0.85560048   -6.5546581    77.776199  0.026029518  0.027132869            8 
  250000   0.85734658   -6.5508065    77.857781  0.025952594  0.027065385            7 
  251000   0.86327455   -6.5459469     78.19448  0.025960983  0.026998214           19 
  252000   0.87816658   -6.5552755    78.246304    0.0258751  0.026932136           17 
  253000   0.87041146   -6.5328636    78.470119  0.025846548  0.026866512           22 
  254000   0.84635582   -6.5614498    78.667126  0.025809424  0.026801259            9 
  255000   0.85591357   -6.5540167    78.776699  0.025744019  0.026735915           13 
  256000   0.87096533   -6.5842147    79.071053  0.025739275  0.026669881            7 
  257000   0.87178588   -6.5679376    79.172479   0.02567201  0.026604965           11 
  258000   0.85452779   -6.5686847    79.390595  0.025642957  0.026539455            9 
  259000    0.8451887   -6.5509816     79.15622  0.025468539  0.026473678            8 
  260000     0.845465   -6.5936584    79.557128   0.02549908  0.026408032            8 
  261000   0.85248086   -6.5533485    79.636207  0.025426631  0.026341871           19 
  262000   0.87242314   -6.5674984    79.580873  0.025311982  0.026276117           34 
  263000   0.84668898   -6.5857481    79.725702  0.025261629  0.026210338           17 
  264000   0.84784385   -6.5832216    79.876205  0.025213448  0.026144664           12 
  265000   0.83599142   -6.5887726    80.050763  0.025173196  0.026078169            6 
  266000   0.86238445   -6.5755971    80.102851  0.025094878  0.026012338           10 
  267000   0.82749148   -6.5864169    80.131909  0.025009959  0.025946733            6 
  268000   0.86046056   -6.5779411    80.368018  0.024990055  0.025881166            8 
  269000   0.82868437   -6.5932103    80.875056  0.025054231  0.025816361           15 
  270000   0.83613231   -6.6206394    81.000935  0.025000288  0.025752769            7 
  271000   0.84441688    -6.592436    81.000228  0.024907819  0.025689872           13 
  272000   0.84344952   -6.5879976    80.931261  0.024795117  0.025626328           23 
  273000   0.81588754   -6.6208884    81.302953  0.024817751  0.025563018           19 
  274000   0.82241383   -6.6158384    81.068717  0.024655936  0.025499079           13 
  275000   0.82752078    -6.607563    81.432545  0.024676529  0.025435275            9 
  276000   0.83954352   -6.6105508    81.568441  0.024628152  0.025372322           14 
  277000   0.80782154   -6.5905859     81.66499  0.024568288  0.025310142           21 
  278000   0.83779652   -6.6312547    81.848659   0.02453497  0.025247932           10 
  279000   0.82075484   -6.6482709     81.91095  0.024465636  0.025185846           17 
  280000   0.84141731   -6.6382287    82.019356  0.024410523  0.025123254           17 
  281000   0.80563765   -6.6292354    82.487049  0.024462351  0.025061247           13 
  282000   0.82942365   -6.6473676     82.58141   0.02440349  0.025000204           11 
  283000   0.81457923   -6.6545658    82.870325  0.024402333  0.024939858           25 
  284000   0.81791045   -6.6552599     82.98677  0.024350578  0.024880183           25 
  285000   0.80329237   -6.6657692    83.077214  0.024291583  0.024820502           15 
  286000   0.80043851   -6.6695826    83.039549  0.024195673  0.024760965           16 
  287000    0.8093464   -6.6600937    83.326938  0.024194814  0.024701678           19 
  288000   0.79652976   -6.6508829    83.396468  0.024130922  0.024642547           13 
  289000   0.81358598   -6.6685286    83.552555  0.024092432  0.024583377            9 
  290000   0.81239364   -6.6552927    83.582287  0.024017899  0.024524235           15 
  291000   0.81131315   -6.6909462    83.443451  0.023895605  0.024464229           19 
  292000   0.79480398   -6.6992684    83.466373  0.023820312   0.02440411           24 
  293000   0.79945665   -6.6819659    83.621051  0.023783007  0.024343313           15 
  294000    0.7958038   -6.6618413    83.579129  0.023690229  0.024282532           17 
  295000   0.79521362   -6.6814415    83.810722  0.023675345  0.024221873           23 
  296000   0.79920594   -6.6698721    83.652549   0.02355083  0.024161129           37 
  297000   0.79571067   -6.7029246    83.831283  0.023521684  0.024099652           44 
  298000   0.79995696    -6.683975      84.0351  0.023499748  0.024038326           59 
  299000   0.78669295   -6.7057633    83.965828  0.023401847  0.023977105           26 
  300000    0.7956146   -6.6967493    84.074215  0.023353949  0.023916647           29 
  301000    0.7927337   -6.7088818    84.201317  0.023311549  0.023855436           32 
  302000   0.78193288   -6.7079125    84.378458  0.023283239   0.02379479           58 
  303000   0.78712162    -6.745088    84.390342  0.023209665  0.023733975           34 
  304000   0.78520684   -6.7270118    84.461266  0.023152759  0.023673327           24 
  305000   0.77147554   -6.7526641    84.471784  0.023079722  0.023612192           21 
  306000   0.75797078   -6.7274542    84.715629  0.023070705  0.023551603           26 
  307000   0.78729207    -6.753007    84.638029  0.022974492  0.023491005           24 
  308000   0.78607822   -6.7251127     85.12962  0.023032906  0.023430724           38 
  309000    0.7673343   -6.7513628    84.877361  0.022890335  0.023370732           15 
  310000    0.7769223   -6.7304376    84.804811  0.022796992  0.023310264           19 
  311000   0.75362875   -6.7281403    85.020919  0.022781597  0.023250159           27 
  312000     0.774146   -6.7343697    85.099202  0.022729488  0.023189853           10 
  313000   0.76476503   -6.7402449    85.008788  0.022632798  0.023129927           30 
  314000   0.76201423   -6.7329447    85.133771  0.022593888  0.023070047           34 
  315000   0.77520374   -6.7315428    85.179304  0.022534207  0.023010235           38 
  316000   0.76664359   -6.7483639     85.29815  0.022494238  0.022950039           13 
  317000   0.75090347   -6.7722957    85.508167  0.022478488  0.022889846           36 
  318000   0.73390157   -6.7546685    85.472697  0.022398505   0.02282972           26 
  319000   0.76918134   -6.7523053    85.518696  0.022340307  0.022770001           23 
  320000   0.74250914   -6.7448264    85.599083  0.022291428  0.022710329           26 
  321000   0.76177097   -6.7616668    85.688968  0.022245319  0.022650665           15 
  322000    0.7447191   -6.7339097    85.847421  0.022217241  0.022591539           17 
  323000   0.74593691   -6.7632607     85.66078  0.022100304  0.022532134           22 
  324000   0.76070891   -6.7789945    85.831707  0.022076056  0.022472412           23 
  325000   0.74761102   -6.7823827    85.930494   0.02203346  0.022413337           20 
  326000   0.74829736   -6.7722139    85.985777  0.021980004  0.022354265           51 
  327000   0.74409006    -6.788448     86.26126  0.021982992  0.022295226           49 
  328000   0.74014448   -6.7862966    86.120803  0.021880285  0.022236482           36 
  329000    0.7526758   -6.8188942    86.166949  0.021825468  0.022177594           38 
  330000     0.714304    -6.824664    86.269127  0.021785133  0.022118472           64 
  331000   0.73515014   -6.8113446    86.480314  0.021772486   0.02205928          107 
  332000   0.73112299   -6.8365975    86.352583  0.021674845  0.022000391           49 
  333000   0.75390532   -6.7929369    86.613247  0.021674987  0.021941457           81 
  334000   0.71700899   -6.8223941    86.504327  0.021582916  0.021882763           52 
  335000    0.7340402   -6.8315413    86.166487  0.021434449  0.021823778           61 
  336000   0.73111196   -6.7976738    86.599291  0.021477999  0.021765015           78 
  337000   0.74337686   -6.8319734    86.506051  0.021391209  0.021706093           97 
  338000    0.7301894   -6.8288009    86.533252  0.021334628  0.021647095          136 
  339000   0.71817396   -6.8527725    86.397486   0.02123832  0.021588149           90 
  340000    0.7396279   -6.8425899    86.555114  0.021214489  0.021529503           74 
  341000   0.72238135   -6.8478773    86.787591  0.021209089  0.021471086          169 
  342000   0.70715249   -6.8454532    86.668123  0.021117964  0.021412889          143 
  343000   0.71947564   -6.8349603    86.978578  0.021131822  0.021354791          150 
  344000   0.72335273   -6.8399943    86.780385   0.02102238  0.021297094           95 
  345000   0.70179095   -6.8423821    87.016826  0.021018557   0.02123954          195 
  346000   0.72124957   -6.8529486    87.043175  0.020964156  0.021181992          248 
  347000   0.70418444   -6.8348014     87.11647  0.020921342  0.021124233          248 
  348000   0.71957959   -6.8518656    87.085036  0.020853696  0.021066706           94 
  349000   0.73705047   -6.8542284    86.857839  0.020739694  0.021008985          232 
  350000   0.71142795   -6.8837028     87.07165  0.020731345   0.02095129          248 
  351000   0.71743869   -6.8891743    87.088444  0.020676269  0.020893557          280 
  352000   0.70545411   -6.8638321    86.917147  0.020576976  0.020835397          246 
  353000   0.68653489    -6.892378    87.077723  0.020556592  0.020777332          263 
  354000   0.70649295   -6.8772764    86.855671   0.02044625  0.020719035          124 
  355000   0.69324547   -6.8855477    87.186868  0.020466401  0.020661268          147 
  356000   0.68884463   -6.9009705    87.093911  0.020387151  0.020604103          352 
  357000   0.69674114   -6.9012339    87.240483  0.020364258  0.020546577          318 
  358000   0.69559124   -6.9376474    87.046694  0.020262266   0.02048908          522 
  359000   0.70031399   -6.9080448    87.036056  0.020203356  0.020431374          538 
  360000   0.69353113    -6.904128    87.270737  0.020201559  0.020373875          484 
  361000   0.68753243   -6.9134755    87.232019  0.020136662  0.020316337          435 
  362000   0.68987924    -6.938938     87.52008  0.020147348  0.020258808          588 
  363000   0.69524067   -6.9431824    87.388657  0.020061675  0.020201697          587 
  364000   0.68457668   -6.9305854    87.197642   0.01996283  0.020144407          660 
  365000    0.6852156   -6.9241458    87.206322  0.019910119  0.020086927          573 
  366000   0.67955966   -6.9482154    87.350358  0.019888515  0.020029502          593 
  367000    0.6743598   -6.9326809    87.551973  0.019880103  0.019972499          629 
  368000   0.68507354   -6.9404561    87.298437  0.019768668   0.01991567          626 
  369000   0.68161834   -6.9748773    87.397125  0.019737381  0.019858988          806 
  370000   0.68075226   -6.9509736    87.334143  0.019669852  0.019802321          837 
  371000   0.67507323   -6.9865973    87.517182  0.019657947  0.019745304          892 
  372000   0.67342475   -6.9725354     87.44274  0.019588427  0.019688713         1035 
  373000   0.67125624   -7.0107303    87.361593  0.019517782  0.019632057         1049 
  374000   0.66929387   -7.0086408    87.502985    0.0194971  0.019575389         1143 
  375000   0.69469603   -7.0202891    87.422171  0.019427149  0.019518623         1165 
  376000   0.68104397   -7.0273493    87.228561  0.019332571  0.019461597         1111 
  377000   0.64986597   -7.0348745    87.119039  0.019257082   0.01940431         1197 
  378000      0.66214   -7.0396002    87.298219  0.019245639  0.019347111         1192 
  379000   0.65372257   -7.0489915    87.200882  0.019173457  0.019289736         1259 
  380000   0.65811915    -7.057322    87.119422  0.019105136  0.019232517         1368 
  381000   0.65634797   -7.0606771    87.266104  0.019087074  0.019175645         1277 
  382000   0.67642843   -7.0522305     87.08685  0.018998004  0.019118914         1439 
  383000    0.6365109   -7.0724612    87.220345  0.018977447  0.019062147         1619 
  384000    0.6402971   -7.0757525    87.204131  0.018924508   0.01900543         1531 
  385000   0.64589418    -7.083559     87.26281  0.018888054  0.018948668         1697 
  386000   0.65202702   -7.1049764    87.056671  0.018794618  0.018891843         1766 
  387000   0.64805638    -7.104208    87.051315    0.0187449  0.018835044         1824 
  388000   0.63680659   -7.1173416    87.147778  0.018717306  0.018778231         1851 
  389000   0.65042385   -7.1273416     86.98033  0.018633318  0.018721582         2029 
  390000   0.64185501   -7.1128771    87.131337  0.018617807  0.018664998         2017 
  391000   0.64322988   -7.1460812    86.953287  0.018532244  0.018608337         2083 
  392000   0.64435482   -7.1551826    86.985023  0.018491714   0.01855185         2188 
  393000   0.64046932    -7.146682    87.019206   0.01845191  0.018495267         2205 
  394000   0.64000681   -7.1686926    86.874724  0.018374519  0.018438769         2211 
  395000    0.6296146   -7.1604563    87.094393  0.018374344  0.018382519         2204 
  396000   0.63293147   -7.1938673    86.899942  0.018287025  0.018326263         2340 
  397000   0.63239271   -7.1657128    86.931819  0.018247653  0.018270159         2356 
  398000   0.62163865   -7.1897071    86.883108  0.018191605  0.018214148         2475 
  399000   0.62917163   -7.1909397    86.907376  0.018151081   0.01815826         2570 
  400000   0.62986277   -7.2217256    86.745801  0.018072042  0.018102277         2543 
  401000   0.61584448   -7.1969585    86.900302  0.018059082  0.018046547         2550 
  402000   0.63605462    -7.210535    86.895051   0.01801307  0.017990895         2590 
  403000   0.61536594   -7.2255638    86.673785  0.017922619  0.017935191         2694 
  404000   0.62201863   -7.2214767    86.827653  0.017909994  0.017879727         2768 
  405000   0.61852332   -7.2363041    86.747864  0.017849355  0.017824282         2816 
  406000    0.6275439   -7.2657297    86.755259  0.017806909  0.017768926         2894 
  407000   0.62003237    -7.249299    86.822195  0.017776862  0.017713481         2883 
  408000   0.60905074    -7.268342    86.871614  0.017743385   0.01765807         2954 
  409000   0.61125562   -7.2716281    86.719155   0.01766894  0.017602848         2892 
  410000   0.60749348   -7.2531158    86.593271  0.017600258  0.017547829         2984 
  411000   0.60730762   -7.2633716    86.623262  0.017563516  0.017492812         2989 
  412000   0.59924989   -7.2669498    86.711387  0.017538711  0.017438027         3073 
  413000    0.6002607   -7.2684621     86.68358  0.017490633  0.017383384         3066 
  414000   0.59892301   -7.2692228    86.613043  0.017434187  0.017328792         3023 
  415000    0.6104595   -7.2910982    86.543193  0.017378151  0.017274512         3117 
  416000   0.60185866    -7.298335    86.614532  0.017350667   0.01722029         3080 
  417000   0.60080887     -7.29933    86.563423  0.017298846  0.017166195         3114 
  418000   0.61234641   -7.3021827    86.539154  0.017252622  0.017112185         3104 
  419000   0.60284967   -7.3003582     86.62551  0.017228622  0.017058402         3117 
  420000   0.61048185   -7.2912141    86.655603  0.017193572  0.017004816         3152 
  421000   0.59370374   -7.3169409    86.553171  0.017132457   0.01695136         3133 
  422000   0.61104654   -7.2814852    86.582599   0.01709767  0.016898073         3145 
  423000   0.58469276   -7.3145388    86.571369  0.017055037  0.016844851         3131 
  424000   0.59200928   -7.3192968    86.509674  0.017002687  0.016791881         3195 
  425000   0.59742834   -7.2982495    86.350954   0.01693156  0.016738899         3124 
  426000   0.58819798   -7.3401189    86.562678  0.016933231  0.016686234         3201 
  427000   0.59216876   -7.3158748    86.659513  0.016912473  0.016633594         3211 
  428000   0.58728358   -7.3497164    86.637624  0.016868696  0.016581142         3183 
  429000   0.58628565   -7.3360176    86.504439  0.016803504  0.016528811         3282 
  430000   0.59511183   -7.3306541    86.712411  0.016804731   0.01647666         3348 
  431000   0.57336011   -7.3672422    86.417004  0.016708624  0.016424642         3280 
  432000   0.57318844   -7.3605279    86.517952   0.01668942  0.016372809         3317 
  433000    0.5850816   -7.3350214    86.445475  0.016636927  0.016321009         3301 
  434000   0.57497457   -7.3638566    86.304073  0.016571443  0.016269329         3324 
  435000   0.57759683   -7.3630558     86.37173  0.016546308  0.016217776         3364 
  436000   0.56501128   -7.3586363    86.419937  0.016517572  0.016166374         3317 
  437000   0.56123084   -7.3559467    86.611682  0.016516339  0.016115221         3336 
  438000   0.58270124   -7.3655461    86.427863  0.016443657  0.016064216         3335 
  439000   0.56947616   -7.3653839     86.38475  0.016398016  0.016013302         3334 
  440000   0.57038222   -7.3843471    86.442189  0.016371627  0.015962615         3340 
  441000   0.57608355   -7.3897892    86.402281  0.016326962  0.015912005         3317 
  442000    0.5521689   -7.3728235    86.265517  0.016264238  0.015861545         3381 
  443000   0.55828224   -7.3762587    86.382941  0.016249613   0.01581121         3391 
  444000   0.55340527   -7.3730138    86.247619  0.016187616  0.015760986         3400 
  445000   0.55810288   -7.4019937    86.318909   0.01616459  0.015710996         3397 
  446000   0.54426186   -7.3900538    86.268675   0.01611896  0.015661153         3357 
  447000   0.54795168   -7.3822075    86.232486  0.016076153   0.01561154         3365 
  448000   0.55117056   -7.3991399    86.278834   0.01604889  0.015561984         3370 
  449000    0.5395276   -7.4041483    86.219987  0.016002225  0.015512646         3369 
  450000   0.53575856   -7.4080345    86.118329  0.015947839  0.015463416         3450 
  451000   0.54487775    -7.402439    86.173085  0.015922595  0.015414314         3452 
  452000   0.54184112    -7.419896    86.093025  0.015872608    0.0153653         3466 
  453000   0.55350901   -7.4153113    86.065838  0.015832568  0.015316459         3469 
  454000   0.53325804   -7.4073458    86.104688  0.015804825  0.015267852         3427 
  455000   0.54306802   -7.4084135    85.988534  0.015748816  0.015219371         3464 
  456000   0.52959187   -7.4335822    86.099361  0.015734532  0.015171081         3517 
  457000    0.5268139   -7.4293521    86.188339  0.015716327  0.015122894         3518 
  458000   0.53633467   -7.4410366    86.148382  0.015674742  0.015074992         3461 
  459000   0.53136197   -7.4487081    85.998639  0.015613406  0.015027188         3530 
  460000   0.53489956   -7.4427091    86.066437  0.015591746  0.014979616         3541 
  461000   0.52473054   -7.4457559    86.097213  0.015563487  0.014932156         3541 
  462000   0.53153149   -7.4473984     85.94479  0.015502307  0.014884864         3507 
  463000   0.53542908   -7.4689966    86.057115  0.015489042  0.014837728         3525 
  464000   0.52350092   -7.4481282     86.01586  0.015448251  0.014790803         3523 
  465000   0.53121704    -7.450228    86.061294  0.015423171  0.014744029         3512 
  466000   0.52078633   -7.4599115    86.055354  0.015389012  0.014697464         3533 
  467000   0.52746709   -7.4551276     86.03237  0.015351958  0.014651108         3477 
  468000   0.51123768    -7.448037    85.950543  0.015304584  0.014604905         3476 
  469000   0.51617597   -7.4720747    86.043025  0.015288384  0.014558747         3489 
  470000   0.50720268   -7.4561613    86.087497  0.015263741  0.014512769         3480 
  471000    0.5130278   -7.4655385    85.999349  0.015215738  0.014466956         3509 
  472000    0.5102186   -7.4614006    85.895286  0.015165128  0.014421334         3491 
  473000   0.50739516   -7.4945624    85.888157  0.015131811  0.014375839         3495 
  474000   0.50917356   -7.4671171    86.014812  0.015122154   0.01433052         3472 
  475000   0.51332379   -7.4857592    85.868267  0.015064608  0.014285377         3506 
  476000   0.51195979   -7.4751076    85.854267  0.015030509  0.014240338         3566 
  477000   0.50948344   -7.4838231    85.914047  0.015009442  0.014195517         3510 
  478000    0.5086743   -7.4675773     85.96954  0.014987716  0.014150851         3483 
  479000   0.50805157   -7.4876949    85.941072  0.014951474  0.014106436         3477 
  480000   0.49871859   -7.4870048    85.810853  0.014897717  0.014062177         3497 
  481000   0.49877394   -7.4859372    85.878893  0.014878533  0.014018002         3491 
  482000   0.50750182   -7.4811623    85.958398   0.01486141  0.013974035         3528 
  483000   0.49474637   -7.4878616    85.928041  0.014825404   0.01393034         3483 
  484000   0.48506818   -7.4887744    85.839803   0.01477958  0.013886742         3473 
  485000   0.49127653   -7.4846259    86.031277  0.014782006  0.013843271         3517 
  486000   0.48750741   -7.4990919    85.887487  0.014726935  0.013799946         3555 
  487000   0.49901709   -7.4877924    85.856376  0.014691372  0.013756821         3530 
  488000   0.48894372   -7.5074576    85.783712  0.014648858  0.013713821         3513 
  489000   0.48538744   -7.4996433    86.015758  0.014658445  0.013671018         3456 
  490000   0.49785314   -7.5045918      85.8607   0.01460216  0.013628414         3521 
  491000   0.47605306   -7.5191048    85.962925   0.01458977  0.013585924         3542 
  492000   0.49356765   -7.5145719    85.756426   0.01452514   0.01354354         3531 
  493000   0.47778489   -7.5134088    85.851299  0.014511714  0.013501316         3538 
  494000   0.48872787   -7.5079154    85.895309  0.014489762  0.013459297         3526 
  495000   0.47708531   -7.5146103    85.895211  0.014460473   0.01341743         3542 
  496000    0.4729647   -7.5176872     85.91253  0.014434229  0.013375724         3491 
  497000   0.48044123   -7.5186638    85.763801  0.014380248  0.013334134         3544 
  498000    0.4726435   -7.5332267    85.719367  0.014343937  0.013292718         3564 
  499000   0.46292841   -7.5273552     85.73501  0.014317804  0.013251442         3538 
  500000   0.47170025   -7.5421114    85.743839   0.01429064  0.013210309         3471 
  501000   0.47378146   -7.5368269     85.73587   0.01426079  0.013169305         3521 
  502000   0.47253012   -7.5411644    85.718044  0.014229423  0.013128465         3549 
  503000   0.46011008   -7.5416667    85.690041  0.014196494  0.013087753         3559 
  504000   0.46425628   -7.5392611    85.738744   0.01417638  0.013047175         3546 
  505000   0.45620961   -7.5552915    85.743971   0.01414917  0.013006795         3569 
  506000   0.45950918   -7.5343692    85.784247   0.01412784  0.012966513         3506 
  507000   0.46232978   -7.5319325    85.667329  0.014080758  0.012926422         3541 
  508000   0.45381953   -7.5473932    85.572532  0.014037489  0.012886454         3564 
  509000   0.45043281   -7.5501436    85.568119  0.014009188  0.012846595         3558 
  510000      0.44951   -7.5470623     85.47301  0.013966178   0.01280693         3529 
  511000   0.43799868   -7.5643017    85.707574  0.013977099  0.012767389         3563 
  512000   0.44548275   -7.5707558    85.642839  0.013939264  0.012728028         3543 
Loop time of 1054.92 on 48 procs for 500000 steps with 4000 atoms

Performance: 81902.053 tau/day, 473.970 timesteps/s
99.4% CPU use with 48 MPI tasks x no OpenMP threads

MPI task timing breakdown:
Section |  min time  |  avg time  |  max time  |%varavg| %total
---------------------------------------------------------------
Pair    | 64.462     | 67.195     | 69.911     |  12.7 |  6.37
Neigh   | 6.6403     | 6.788      | 7.1669     |   3.6 |  0.64
Comm    | 56.943     | 59.227     | 61.606     |  15.8 |  5.61
Output  | 0.91321    | 0.91435    | 0.92307    |   0.2 |  0.09
Modify  | 906.74     | 909.91     | 913.51     |   5.3 | 86.25
Other   |            | 10.89      |            |       |  1.03

Nlocal:        83.3333 ave          91 max          77 min
Histogram: 5 2 7 7 4 10 4 7 1 1
Nghost:        1728.73 ave        1748 max        1714 min
Histogram: 5 4 7 7 4 6 9 2 2 2
Neighs:        10407.6 ave       11315 max        9400 min
Histogram: 3 3 0 9 10 5 6 4 3 5
FullNghs:      20815.4 ave       22696 max       18862 min
Histogram: 2 3 5 6 9 7 2 7 6 1

Total # of neighbors = 999140
Ave neighs/atom = 249.78500
Neighbor list builds = 27015
Dangerous builds = 0

#clear
#
#next RN
#
#jump SELF
Total wall time: 0:17:37
