
units lj                  # Use reduced LJ style units
atom_style atomic         # Uncharged point particles
atom_modify map hash      # Needed for indexing of clusters etc
                          # Used to be able to find where atoms are in relation to each other.

lattice fcc 1.0 spacing 1 1 1
Lattice spacing in x,y,z = 1.5874011 1.5874011 1.5874011
region box block 0 10 0 10 0 10 units lattice
create_box 2 box
Created orthogonal box = (0.0000000 0.0000000 0.0000000) to (15.874011 15.874011 15.874011)
  3 by 4 by 4 MPI processor grid
create_atoms 1 box
Created 4000 atoms
  using lattice units in orthogonal box = (0.0000000 0.0000000 0.0000000) to (15.874011 15.874011 15.874011)
  create_atoms CPU = 0.004 seconds
set type 1 type/fraction 2 0.94 78393
Setting atom values ...
  3760 settings made for type/fraction
mass 1 1.0
mass 2 1.0
pair_style lj/cut  3.5
pair_modify tail  yes
pair_coeff 1  1  1.0  1.0   # Intearaction between 1 and 1 set with epsilon = 1 and sigma = 1
pair_coeff 1  2  1.5  0.8
pair_coeff 2  2  0.5  0.88

write_data data.0
System init for write_data ...
Neighbor list info ...
  update every 1 steps, delay 10 steps, check yes
  max neighbors/atom: 2000, page size: 100000
  master list distance cutoff = 3.8
  ghost atom cutoff = 3.8
  binsize = 1.9, bins = 9 9 9
  1 neighbor lists, perpetual/occasional/extra = 1 0 0
  (1) pair lj/cut, perpetual
      attributes: half, newton on
      pair build: half/bin/atomonly/newton
      stencil: half/bin/3d
      bin: standard
WARNING: Not all mixed pair coeffs generated from mixing. Use write_data with 'pair ij' option to store all pair coeffs. (../write_data.cpp:312)


#############################
#   M E L T   S Y S T E M   #
#############################

velocity all create 2.4 5300450 mom yes dist gaussian # Assign velocities
                                                    # Temperature 2.4, random number seed, zero linear momentum
                                                                                # Gaussian distribution

timestep 0.002   # simulation timestep
thermo 1000       # output thermodynamic data every 1000 steps bf 100

# Define a fix  in this case with index 1 applied to all
# particles in the simulation. This fix is for simulations
# in the anisotropic NPT ensemble. Note that we use the MTK
# correction.
fix 1 all npt temp 2.4 2.4 0.1 iso 5.68 5.68 0.5 mtk yes tchain 5 pchain 5 # Use NPT ensemble
                                                                         # Set temperature and pressure and damping
                                                                         # Numbers of thermostats in chain and in barostat
run 10000          # run for 10000 steps
Per MPI rank memory allocation (min/avg/max) = 3.642 | 3.644 | 3.648 Mbytes
Step Temp E_pair E_mol TotEng Press Volume 
       0          2.4   -2.9877486            0    0.6113514   -2.2401145         4000 
    1000    2.3984119   -1.8658902            0    1.7308282    5.8541523    4113.3926 
    2000    2.3790319    -1.943371            0    1.6242847    5.4561253     4103.543 
    3000     2.410954   -1.8886386            0    1.7268883    5.6827111    4111.2197 
    4000     2.377511   -1.8705447            0    1.6948303    5.9996598    4080.7563 
    5000    2.3693027    -1.846954            0    1.7061115    5.6081523    4159.1162 
    6000    2.3962534   -1.9129766            0     1.680505    5.6384523    4107.6423 
    7000    2.3841063   -1.8931875            0     1.682078    5.3979419    4152.4667 
    8000    2.4086613   -1.8695109            0    1.7425778    5.8327381    4110.5312 
    9000    2.4355558   -1.9176614            0     1.734759    5.5259066    4126.8401 
   10000    2.3663206   -1.8952654            0    1.6533281    5.7201536    4109.7716 
Loop time of 2.49684 on 48 procs for 10000 steps with 4000 atoms

Performance: 692075.333 tau/day, 4005.066 timesteps/s
99.6% CPU use with 48 MPI tasks x no OpenMP threads

MPI task timing breakdown:
Section |  min time  |  avg time  |  max time  |%varavg| %total
---------------------------------------------------------------
Pair    | 1.0468     | 1.1348     | 1.2674     |   3.5 | 45.45
Neigh   | 0.20705    | 0.21536    | 0.2297     |   1.0 |  8.63
Comm    | 0.74449    | 0.8581     | 0.95848    |   4.7 | 34.37
Output  | 0.00024965 | 0.00025349 | 0.00032251 |   0.0 |  0.01
Modify  | 0.23909    | 0.27324    | 0.30378    |   3.3 | 10.94
Other   |            | 0.01512    |            |       |  0.61

Nlocal:        83.3333 ave          92 max          73 min
Histogram: 1 1 3 10 6 7 8 6 2 4
Nghost:        1611.83 ave        1638 max        1571 min
Histogram: 1 0 4 4 4 6 11 9 4 5
Neighs:        9289.40 ave       10769 max        7862 min
Histogram: 1 1 7 7 6 11 6 8 0 1

Total # of neighbors = 445891
Ave neighs/atom = 111.47275
Neighbor list builds = 910
Dangerous builds = 244

# Equilibrate just above the melting temperature to avoid step fn in T

fix 1 all npt temp 1.25 1.25 0.1 iso 5.68 5.68 0.5 mtk yes tchain 5 pchain 5
run 2000
Per MPI rank memory allocation (min/avg/max) = 3.643 | 3.645 | 3.649 Mbytes
Step Temp E_pair E_mol TotEng Press Volume 
   10000    2.3663206   -1.8952654            0    1.6533281    5.7201536    4109.7716 
   11000    1.2415945   -2.8544317            0  -0.99250563    5.6710392    3209.9904 
   12000    1.2519307   -2.8731073            0  -0.99568072    5.6436879    3199.2121 
Loop time of 0.607205 on 48 procs for 2000 steps with 4000 atoms

Performance: 569165.512 tau/day, 3293.782 timesteps/s
99.7% CPU use with 48 MPI tasks x no OpenMP threads

MPI task timing breakdown:
Section |  min time  |  avg time  |  max time  |%varavg| %total
---------------------------------------------------------------
Pair    | 0.2634     | 0.28896    | 0.32896    |   2.3 | 47.59
Neigh   | 0.039075   | 0.041532   | 0.046504   |   0.7 |  6.84
Comm    | 0.18363    | 0.22576    | 0.25773    |   3.0 | 37.18
Output  | 5.3372e-05 | 5.4756e-05 | 7.1937e-05 |   0.0 |  0.01
Modify  | 0.041461   | 0.046107   | 0.050225   |   1.1 |  7.59
Other   |            | 0.00479    |            |       |  0.79

Nlocal:        83.3333 ave          92 max          75 min
Histogram: 2 6 5 2 9 7 8 4 3 2
Nghost:        1905.27 ave        1930 max        1878 min
Histogram: 2 4 4 5 6 8 5 5 7 2
Neighs:        11943.9 ave       13350 max       10246 min
Histogram: 3 1 3 6 4 9 8 6 7 1

Total # of neighbors = 573305
Ave neighs/atom = 143.32625
Neighbor list builds = 143
Dangerous builds = 16

#############################
# L I N E A R  Q U E N C H  #
#############################

# Define solid atoms. This closely follows ten Wolde  Ruiz-Montero and Frenkel  Faraday Discuss  1996  104  93-110
# Compute components of the per-atom q6 vector
compute q6 all orientorder/atom degrees 1 6 components 6 nnn NULL cutoff 1.3 # compute the Q6 parameter.
                                                                             # Use all neighbours within 1.3 unit cell.

# get number of connections
compute coord_number all coord/atom orientorder q6 0.5

# An atom is solid if it has 8 or more connections (of a possible 14)
variable is_solid atom c_coord_number>=8
group solid dynamic all var is_solid    # Must be dynamic to update
dynamic group solid defined

# do clustering
compute cluster solid cluster/atom 1.3 # Create a cluster where all atoms within are solid and max 1.3 units from another member

# define chunks one chunk per cluster
compute clus_chunks solid chunk/atom c_cluster nchunk every compress yes  # Says which atoms are in which chunk

# count the size of each chunk
compute size_chunks solid property/chunk clus_chunks count


# Find the maximum entry in the vector of chunk sizes
variable max_n equal max(c_size_chunks)


# Thermo style which includes this variable
# thermo_style custom step temp pe vol v_max_n

thermo ${N}  # Print the thermo information every 100 steps
thermo 1000  

# Reset the npt fix at a lower temperature (below freezing)
fix 1  all npt temp  ${temp} ${temp}  0.1  iso  5.68  5.68  0.5  mtk yes tchain  5  pchain  5
fix 1  all npt temp  0.45 ${temp}  0.1  iso  5.68  5.68  0.5  mtk yes tchain  5  pchain  5
fix 1  all npt temp  0.45 0.45  0.1  iso  5.68  5.68  0.5  mtk yes tchain  5  pchain  5

dump dmp2 all dcd ${N} traj.dcd
dump dmp2 all dcd 1000 traj.dcd


compute msd all msd com yes
variable twopoint equal c_msd[4]/6/(step*dt+1.0e-6)
fix 9 all vector 10 c_msd[4]
variable fit equal slope(f_9)/6/(10*dt)
thermo_style custom step temp pe c_msd[4] v_twopoint v_fit v_max_n

fix 1 all npt temp 1.25 ${temp} 0.1 iso 5.68 5.68 0.5 mtk yes tchain 5 pchain 5
fix 1 all npt temp 1.25 0.45 0.1 iso 5.68 5.68 0.5 mtk yes tchain 5 pchain 5
run 500000 # 5000000  # Run for this many steps
Neighbor list info ...
  update every 1 steps, delay 10 steps, check yes
  max neighbors/atom: 2000, page size: 100000
  master list distance cutoff = 3.8
  ghost atom cutoff = 3.8
  binsize = 1.9, bins = 8 8 8
  4 neighbor lists, perpetual/occasional/extra = 1 3 0
  (1) pair lj/cut, perpetual
      attributes: half, newton on
      pair build: half/bin/atomonly/newton
      stencil: half/bin/3d
      bin: standard
  (2) compute orientorder/atom, occasional
      attributes: full, newton on
      pair build: full/bin/atomonly
      stencil: full/bin/3d
      bin: standard
  (3) compute coord/atom, occasional
      attributes: full, newton on
      pair build: full/bin/atomonly
      stencil: full/bin/3d
      bin: standard
  (4) compute cluster/atom, occasional
      attributes: full, newton on
      pair build: full/bin/atomonly
      stencil: full/bin/3d
      bin: standard
Per MPI rank memory allocation (min/avg/max) = 9.816 | 9.822 | 9.827 Mbytes
Step Temp PotEng c_msd[4] v_twopoint v_fit v_max_n 
   12000    1.2519307   -2.8731073 1.896816e-30 1.3172333e-32 8.3333333e+20            1 
   13000    1.2418677   -2.8919645    1.0951948 0.0070204791   0.09384647            2 
   14000    1.2295131   -2.8667183    2.3099766   0.01374986  0.097326353            2 
   15000     1.228077   -2.8717231    3.5419533  0.019677517   0.09941362            3 
   16000    1.2338031   -2.8798877    4.6482601  0.024209687  0.098991847            1 
   17000    1.2668571   -2.8805862    5.8770559  0.028809097  0.098851458            1 
   18000    1.2403226   -2.8603774     7.042799   0.03260555  0.099124333            3 
   19000     1.233859   -2.8750252    8.1446606  0.035722194  0.098345721            1 
   20000    1.2604481    -2.902077    9.2428161  0.038511733  0.097556625            2 
   21000    1.2378258   -2.9113208    10.363217  0.041123876  0.096956868            1 
   22000    1.2401851    -2.857106    11.441291  0.043338221  0.096364401            2 
   23000    1.2359781   -2.8957999    12.507821   0.04531819   0.09560303            1 
   24000     1.233517   -2.8991495    13.514697  0.046926029  0.094908404            1 
   25000    1.2198323    -2.890178    14.582418  0.048608059   0.09413059            3 
   26000    1.2295201   -2.8843172    15.531273   0.04977972  0.093389959            2 
   27000    1.2232236   -2.9039561    16.696531  0.051532503  0.092890654            1 
   28000    1.2150748    -2.892556    17.812049   0.05301205  0.092487006            2 
   29000    1.2230374   -2.9245536    18.849275  0.054164582  0.092208191            1 
   30000    1.2312658   -2.8996553    19.740922  0.054835895  0.091739554            1 
   31000    1.2353388   -2.9003775    21.027959   0.05652677  0.091414025            2 
   32000     1.230806   -2.8914045    22.260219  0.057969318  0.091378026            2 
   33000    1.2165296   -2.8886752    23.454362  0.059228186  0.091367769            3 
   34000    1.2453553   -2.9070494    24.414376  0.059839157  0.091396112            1 
   35000    1.2241954   -2.9267389    25.662759  0.061101806  0.091489477            1 
   36000    1.1910967    -2.920487    26.602088  0.061578907  0.091491083            1 
   37000    1.1825818   -2.8671459    27.647868  0.062269972   0.09149261            1 
   38000    1.2263287   -2.9408586    28.726106  0.062995845  0.091483594            2 
   39000    1.2003099   -2.9119496    29.814169  0.063705488  0.091424057            2 
   40000    1.2052599   -2.9315412    30.897951   0.06437073  0.091357599            2 
   41000     1.216084   -2.8530705    32.009703  0.065060372  0.091289633            1 
   42000    1.2241688   -2.9264516    32.777848  0.065035412  0.091169239            1 
   43000    1.1812849   -2.9241676    34.007635  0.065906268   0.09099373            3 
   44000     1.205862   -2.9338493    35.004488  0.066296378  0.090869815            2 
   45000    1.1970988   -2.9420291    36.065193  0.066787394  0.090715128            2 
   46000    1.1835065   -2.8991222     37.12431  0.067254184  0.090590946            2 
   47000    1.1887082   -2.8943408    38.117098  0.067583506  0.090478747            2 
   48000    1.2001091   -2.9415312    39.162811  0.067990991  0.090395601            1 
   49000    1.2046565   -2.9191825    40.326595  0.068582644  0.090268592            2 
   50000    1.2038466   -2.9324361    41.433709  0.069056181  0.090178424            2 
   51000    1.1798965    -2.938301    42.438222  0.069343499  0.090146186            2 
   52000    1.1767149   -2.9279697    43.637365  0.069931673  0.090101851            1 
   53000    1.1866678   -2.9830721    44.540418  0.070032104  0.090052409            1 
   54000    1.1535731   -2.9625091    46.065005  0.071087971  0.090012813            5 
   55000    1.1711002   -2.9461244    46.977102  0.071177427  0.090006067            1 
   56000    1.1818068   -2.9400819    47.962067  0.071372123  0.090016823            1 
   57000    1.1469652   -2.9569344    49.167643  0.071882518  0.090009031            2 
   58000    1.1658422   -2.9628082    50.131316  0.072027753  0.089991941            3 
   59000    1.2027082    -2.983619    50.882747  0.071868286  0.089959907            2 
   60000    1.1539571   -2.9413467    51.865636  0.072035604  0.089918766            3 
   61000     1.176666    -2.965874    53.313866  0.072833149  0.089879311            2 
   62000    1.1803414   -2.9365932    54.266588  0.072938962  0.089835293            2 
   63000    1.1688116   -2.9529502    55.419872  0.073306708  0.089800645            1 
   64000    1.1660919   -2.9483459    56.456824  0.073511489  0.089755552            2 
   65000    1.1533814   -2.9748848    57.739846  0.074025443  0.089750099            1 
   66000    1.1519822   -2.9679131    58.461463  0.073814978  0.089714417            4 
   67000    1.1497031   -2.9968016    58.972485  0.073348861   0.08966429            1 
   68000    1.1694585   -2.9896513    60.239159  0.073822498  0.089568652            3 
   69000    1.1584625   -2.9766576    61.671613  0.074482624  0.089528422            2 
   70000    1.1680708   -2.9716836    62.572571  0.074491156  0.089479272            3 
   71000    1.1535394    -2.948933    63.561007   0.07460212  0.089430705            2 
   72000    1.1448823   -2.9855804    64.668385  0.074847667  0.089404913            3 
   73000    1.1544045     -2.98778    65.521328  0.074796035  0.089362516            3 
   74000    1.1545275   -2.9761608    67.043383  0.075499305   0.08931512            1 
   75000    1.1615016   -3.0071353    67.407267  0.074896963  0.089247603            2 
   76000    1.1471846   -3.0002143     67.88045  0.074430318  0.089130279            2 
   77000    1.1645142   -2.9747397    69.286451  0.074985336  0.089021963            1 
   78000    1.1377173   -2.9923072    70.631555  0.075461063  0.088908089            2 
   79000     1.166114   -3.0281871     70.84725  0.074733386  0.088780635            2 
   80000     1.127058   -2.9862009    71.922582  0.074919356  0.088660231            2 
   81000     1.147851    -2.985866    72.844961  0.074943375  0.088515581            1 
   82000    1.1235267   -2.9833925    73.792337  0.074992211  0.088377707            2 
   83000    1.1295123   -2.9992903    74.408633  0.074707463  0.088226548            1 
   84000    1.1445456   -3.0187696    75.659535  0.075059062  0.088091387            1 
   85000    1.1225755   -3.0109273    76.380886  0.074883221  0.087963453            2 
   86000    1.1313802   -2.9870563    77.108784  0.074717813   0.08780927            4 
   87000    1.1377469   -3.0518378    78.128109  0.074835353   0.08765782            3 
   88000    1.1265583   -3.0120582    79.057196  0.074864769  0.087506505            3 
   89000    1.1378669   -3.0290644     80.23175  0.075123361  0.087352462            1 
   90000    1.1334627   -3.0110533    81.163932  0.075151788  0.087183421            3 
   91000    1.1068497   -3.0303701    81.843092  0.074947886  0.087037117            3 
   92000    1.1160835   -3.0382457    82.899241  0.075089892  0.086896468            2 
   93000     1.132103   -3.0376337    84.110743  0.075368049  0.086770124            2 
   94000    1.0875732   -3.0323956    85.575683  0.075864967  0.086676977            1 
   95000    1.1399813   -3.0230501    87.033787  0.076345427  0.086600881            2 
   96000    1.1289557   -3.0371613    87.487062   0.07594363  0.086518757            3 
   97000     1.131813   -3.0293668    88.099206  0.075686603  0.086426786            2 
   98000    1.0989462   -3.0380606    89.210488  0.075859258  0.086337879            1 
   99000    1.1276417   -3.0620904    90.017662  0.075772443  0.086240079            2 
  100000    1.1226367   -3.0382321    91.118916   0.07593243  0.086121499            2 
  101000    1.0984518   -3.0318294     91.95215   0.07586811  0.086014452            2 
  102000     1.121685   -3.0385113    92.208014  0.075333345  0.085902821            4 
  103000    1.1016695   -3.0804196     92.84724  0.075119126  0.085769059            2 
  104000    1.0796323   -3.0378324     93.89153  0.075233597  0.085640915            2 
  105000    1.1092308   -3.0490851    95.118424  0.075490813  0.085508533            3 
  106000    1.1037119   -3.0520479    95.886706   0.07538263  0.085376983            2 
  107000     1.089599   -3.0437108    96.115875    0.0748566  0.085225184            3 
  108000    1.0875731   -3.0550712    96.808237  0.074697713  0.085064814            1 
  109000    1.0859894   -3.0558296    97.526674  0.074561677  0.084902266            3 
  110000    1.0892991   -3.0748877    98.050838  0.074280937  0.084741029            2 
  111000    1.0855886   -3.0469193    99.366628   0.07459957  0.084580488            1 
  112000    1.0841201   -3.0571103    100.60267  0.074853173  0.084423227            1 
  113000    1.0979952   -3.0586572    101.30659  0.074709871  0.084256655            2 
  114000    1.0873441   -3.0601917    101.56738  0.074245159  0.084086778            4 
  115000    1.0650082    -3.087487    101.80749  0.073773545  0.083909351            1 
  116000    1.0883075   -3.0527135    102.88416  0.073911034  0.083723319            2 
  117000    1.1277099   -3.0662387    103.19807  0.073502899  0.083524156            2 
  118000    1.0575342   -3.0577518    104.09712  0.073514912  0.083319376            2 
  119000    1.0836324   -3.0750975    104.68712  0.073310308  0.083119631            3 
  120000    1.0440987   -3.0835406    105.42555  0.073212189  0.082917286            2 
  121000    1.0870172   -3.0782787    106.61461  0.073426038  0.082713833            2 
  122000    1.0758795   -3.0985965    106.84668  0.072982705  0.082524553            4 
  123000    1.0723516   -3.0689734     108.3751  0.073424863  0.082335473            2 
  124000    1.0560219   -3.0819141    108.69015  0.073044456  0.082157036            3 
  125000     1.073483   -3.0869766    109.96433   0.07330955  0.081985993            2 
  126000     1.083043   -3.0574112    111.55305  0.073778473  0.081821623            4 
  127000    1.0523857   -3.0932633    111.22687  0.072983509  0.081659782            1 
  128000    1.0509527   -3.0805132    112.66434  0.073349178  0.081494835            3 
  129000    1.0730645   -3.0930951    113.51926  0.073332853  0.081336523            4 
  130000    1.0704897   -3.0944543    114.25168  0.073238254  0.081179444            1 
  131000    1.0781043   -3.0870145    115.02941  0.073173927   0.08103333            2 
  132000    1.0730226   -3.0755284    116.71682   0.07368486  0.080885069            3 
  133000    1.0561271   -3.0995159    116.78764  0.073175215  0.080752026            2 
  134000    1.0411613   -3.1138565    118.22439  0.073522629  0.080626188            1 
  135000    1.0737615   -3.0820669    118.77613  0.073318596  0.080498231            2 
  136000    1.0364354   -3.0993791    119.19501  0.073036156  0.080366371            2 
  137000    1.0381491    -3.108316    119.98087  0.072981067  0.080236868            4 
  138000    1.0579161   -3.1146352    120.72466  0.072901364  0.080102545            2 
  139000    1.0555455   -3.1185564     121.9478  0.073110189  0.079971699            4 
  140000    1.0508027   -3.1352775    122.16102  0.072714894  0.079845462            1 
  141000     1.049125   -3.1119918    124.14399  0.073371153   0.07971883            2 
  142000    1.0318743   -3.1261862    124.01031  0.072776006  0.079593315            3 
  143000    1.0174171   -3.1130595    125.08328  0.072892353  0.079470291            2 
  144000    1.0615524   -3.0999685    126.18911  0.073026104  0.079342655            2 
  145000    1.0236059   -3.1377265    126.95572  0.072963059   0.07922147            1 
  146000    1.0344553   -3.1159208    127.83582   0.07296565  0.079111306            2 
  147000    1.0588215   -3.1194158     128.2738  0.072717574  0.078996562            1 
  148000     1.013778   -3.1451921    129.89901  0.073141332  0.078885544            3 
  149000    1.0498273   -3.1302342    130.29358  0.072871132  0.078774507            4 
  150000    1.0371108   -3.1276769    130.82469  0.072680385  0.078657066            2 
  151000    1.0171952   -3.1665625    131.46484  0.072552338  0.078541165            4 
  152000    1.0459855   -3.1452899    132.13134  0.072440429  0.078422452            1 
  153000    1.0243895   -3.1117618    133.31314  0.072610641  0.078308459            3 
  154000    1.0446051   -3.1203125     133.4782  0.072228461  0.078192142            3 
  155000     1.011526    -3.156222     134.2672  0.072186666  0.078070486            2 
  156000    1.0028083   -3.1776477    134.60364  0.071903656  0.077948089            3 
  157000    1.0254882   -3.1377929    135.86714  0.072116316  0.077823338            3 
  158000    1.0290293   -3.1597948    135.91172  0.071683396  0.077697508            2 
  159000    1.0113306     -3.15722    136.63518  0.071611728  0.077565262            2 
  160000    1.0272514   -3.1581557    137.47227  0.071600142  0.077437421            3 
  161000    1.0029981   -3.1541643    138.46041  0.071666879  0.077311571            4 
  162000    1.0201954   -3.1589803    139.55544  0.071787778  0.077194277            3 
  163000    1.0317775   -3.1648583    140.39715  0.071777681  0.077074525            3 
  164000    1.0101088   -3.1875129    141.09281  0.071693499  0.076960757            3 
  165000    1.0073473   -3.1772433    141.66286  0.071546901  0.076845352            1 
  166000    1.0115727   -3.1711444    142.83505  0.071704344  0.076736008            2 
  167000   0.97893667   -3.1535499    144.40283    0.0720573  0.076632567            2 
  168000   0.99849688   -3.1851255    143.98423  0.071420748  0.076531351            7 
  169000   0.97734721   -3.1877213    145.60463  0.071797157  0.076432392            3 
  170000   0.98780599   -3.1380527    146.44694  0.071787716  0.076337561            4 
  171000   0.98691515   -3.1792644    146.67937  0.071481174  0.076237836            3 
  172000   0.97425939   -3.1949892    146.36807  0.070914761  0.076132288            3 
  173000    1.0102641   -3.1634668    147.84136  0.071214526  0.076022935            5 
  174000   0.98989078    -3.206801    147.92012  0.070842967   0.07591813            3 
  175000   0.99645464   -3.1658426    149.00443  0.070954489  0.075810234            4 
  176000   0.95909836   -3.1918166    150.54359   0.07128011  0.075704535            5 
  177000   0.97722345   -3.1708571    150.65911  0.070931783  0.075602936            3 
  178000    1.0036367   -3.2105928    151.17201  0.070773415  0.075492361            1 
  179000   0.97678049   -3.1989245    151.60675  0.070580425  0.075383511            1 
  180000   0.99424962   -3.2065929    153.79912  0.071203298  0.075282508            1 
  181000   0.99088374    -3.168874    154.11047  0.070953253  0.075186722            3 
  182000   0.98908747   -3.2135202    154.15502  0.070583799  0.075090291            2 
  183000   0.97370645   -3.2357293    154.72454   0.07045744  0.074988626            3 
  184000   0.95665537   -3.2377476    155.64635  0.070492006  0.074888653            4 
  185000   0.97172205   -3.2203476    156.27867  0.070395799  0.074784886            3 
  186000   0.97223299   -3.2240389    157.16516  0.070414499   0.07468512            2 
  187000   0.98964669   -3.2211021    157.19453  0.070051039  0.074579602            3 
  188000   0.98641205   -3.2287133    158.39345  0.070209861  0.074470496            2 
  189000   0.97705209   -3.2200036    158.78465  0.070010867  0.074364248            2 
  190000   0.96168149   -3.2366971    159.76563  0.070072646  0.074259405            3 
  191000   0.97394735   -3.2500985    160.04504  0.069827677  0.074155205            3 
  192000    0.9680545   -3.2258239    160.70926  0.069752281  0.074046753            5 
  193000   0.95390571   -3.2129503    161.69964  0.069818498  0.073933987            2 
  194000   0.95315186   -3.2192002    162.32402  0.069726813  0.073824032            5 
  195000   0.97142639   -3.2444365    161.63076  0.069072975  0.073710999            2 
  196000   0.96771176   -3.2488821    162.48353  0.069083132  0.073595792            2 
  197000   0.94678415   -3.2134613    162.82734  0.068877891  0.073476136            3 
  198000   0.96534994   -3.2357798    163.84166  0.068956926  0.073355993            2 
  199000   0.92918019   -3.2108965    163.91017  0.068639101   0.07323536            2 
  200000   0.93784121   -3.2525763    165.23632  0.068848468  0.073115538            2 
  201000   0.95543742   -3.2640759    165.04753  0.068427666  0.072991705            3 
  202000   0.94018077   -3.2489536    165.67293  0.068346916  0.072867874            4 
  203000   0.95697774   -3.2600108    166.54017  0.068366242  0.072745176            2 
  204000   0.94678561   -3.2801094    167.47365  0.068412439  0.072620486            6 
  205000   0.92114769   -3.2676554    167.94593  0.068270702  0.072496823            1 
  206000   0.91849308   -3.2390106    168.13587  0.068016129  0.072374253            3 
  207000   0.94270799   -3.2457936    168.81173  0.067959633   0.07225389            3 
  208000   0.92302847   -3.2558818    169.17227   0.06777735  0.072134362            2 
  209000    0.9339762   -3.2975007    169.91165  0.067747868  0.072015554            3 
  210000   0.92711046   -3.2700639    170.71904  0.067745652  0.071892908            3 
  211000   0.91592261   -3.2988792    171.75317  0.067833005  0.071774124            2 
  212000   0.91317561   -3.2944871    171.89184  0.067567548  0.071656291            8 
  213000   0.91912455   -3.2744764    172.37829  0.067440645  0.071533673            6 
  214000   0.91843395   -3.2897316    172.35211  0.067115307  0.071410733            4 
  215000   0.93139734   -3.2618428    174.20209  0.067520191  0.071289079            1 
  216000   0.91038282   -3.2717713    174.16734   0.06719419  0.071166908            2 
  217000   0.91812847   -3.2971757    174.07378  0.066848611  0.071040999            9 
  218000   0.90262349   -3.2971825    174.28664  0.066623332  0.070915348            2 
  219000   0.89291907   -3.2917001    175.98407  0.066965018  0.070793309            3 
  220000    0.9137492   -3.3046427    175.07597  0.066316657  0.070668202            3 
  221000   0.92803611   -3.2722773    176.18547  0.066434944  0.070539336            3 
  222000   0.89832888   -3.2876174    176.89367  0.066401528  0.070413155            2 
  223000    0.9242736   -3.2825448    177.37451  0.066283447  0.070285305            2 
  224000   0.91456341   -3.2969873    178.04263  0.066236099  0.070158076            4 
  225000   0.90276181   -3.3045558    178.59314  0.066145609  0.070034632            4 
  226000   0.91710328   -3.3010328    179.87546  0.066325761  0.069908669            9 
  227000   0.90766282   -3.2959945    179.51429  0.065900987  0.069785584            3 
  228000   0.91443983   -3.2859728    180.05142  0.065808269  0.069659857            3 
  229000   0.89680909   -3.3338649     180.1979    0.0655742  0.069536216            3 
  230000   0.89505106   -3.2933664    180.75881  0.065492323  0.069410696            4 
  231000   0.89885102   -3.3349221    181.63788  0.065525932  0.069283378            7 
  232000   0.88523136   -3.3156555    182.64555  0.065605442  0.069159581            3 
  233000   0.87828636    -3.314106    182.80859  0.065382184  0.069037667            2 
  234000   0.91803254   -3.3135234    183.33333  0.065289647  0.068914411            2 
  235000   0.89923268   -3.3156635    184.31597  0.065360274  0.068793965            4 
  236000   0.87967801   -3.3298217    184.88461  0.065284113  0.068673661            3 
  237000   0.88872715   -3.3399602    184.83052  0.064989634  0.068549881            3 
  238000   0.87564393   -3.3294258    185.02731  0.064785473  0.068424865            2 
  239000   0.86974854   -3.3254726     185.3879  0.064640134  0.068297084            2 
  240000   0.89032749   -3.3385689    185.96458  0.064571036  0.068169236            2 
  241000    0.8844065   -3.3326786    186.08751  0.064345613  0.068041258            2 
  242000   0.87758069    -3.339718    186.16884  0.064107727  0.067910849            3 
  243000   0.90149095    -3.330457    186.49515  0.063955813  0.067780243            4 
  244000   0.87745449    -3.355954    187.07364  0.063891271  0.067650615            4 
  245000   0.85866657   -3.3544988    187.64819  0.063825915  0.067521373            5 
  246000    0.8614233    -3.359776    188.71236   0.06392695   0.06739086            2 
  247000   0.87711646   -3.3636088    188.84773   0.06371381  0.067259824            4 
  248000   0.88492963   -3.3302959    188.98667  0.063503585  0.067130185            6 
  249000   0.87126066   -3.3417961     190.0773  0.063613552   0.06700057            3 
  250000   0.87901309   -3.3602301    190.45828  0.063486093  0.066872068           10 
  251000   0.86080175   -3.3710278    190.26131  0.063167765  0.066741129            2 
  252000   0.86553333   -3.3439988    191.12452  0.063202554  0.066608336            4 
  253000   0.87121465   -3.3669705    191.64698  0.063124829  0.066479293            3 
  254000   0.85480829   -3.3772832    192.14608  0.063040051  0.066352928            3 
  255000   0.86265743   -3.3398206    193.43198  0.063213065  0.066228531            4 
  256000   0.86575656   -3.3528074    193.73833  0.063065863  0.066106379            3 
  257000   0.87305597   -3.3958547      193.619  0.062781777  0.065983123            8 
  258000   0.85958854   -3.3852939    194.07404  0.062685412  0.065858946            4 
  259000   0.84579417   -3.3858512    195.17004  0.062796022  0.065735737            4 
  260000   0.85135962   -3.3892977    195.42682  0.062636802  0.065612806            3 
  261000   0.86517889   -3.3870451    195.71923  0.062490175  0.065494596            6 
  262000   0.85289738   -3.3763099    196.27147  0.062427311  0.065375285            3 
  263000   0.85327242   -3.3813036    197.32229  0.062522904  0.065255645            4 
  264000   0.86154626   -3.3984556    198.20019  0.062563192  0.065138432            4 
  265000   0.85409247   -3.4216024    196.93872  0.061930416  0.065019357            6 
  266000   0.82797468   -3.3985225    198.24275  0.062106125  0.064900525            5 
  267000    0.8241344   -3.4157632     197.9637  0.061786422  0.064779673            3 
  268000   0.84714054   -3.3820562    199.47796   0.06202673  0.064659846            7 
  269000   0.84594001   -3.4235985    198.18011  0.061394087  0.064537349            4 
  270000    0.8207117   -3.4135069    199.79616  0.061665481  0.064416242            4 
  271000   0.84334521   -3.4022875    200.19673  0.061561111  0.064296763            7 
  272000    0.8354743   -3.4148786    200.35715  0.061383931  0.064176191            6 
  273000   0.81359104   -3.4255122    201.09191  0.061383366  0.064055673            4 
  274000    0.8130884    -3.427707    200.57957  0.061003519  0.063935107            4 
  275000   0.83902736   -3.4323831     201.8599  0.061169665  0.063815009            7 
  276000   0.84540557   -3.4176947     201.9413  0.060972616  0.063695117            6 
  277000   0.84550166   -3.4192524    203.45242  0.061207105   0.06357789            2 
  278000   0.83400006   -3.4224747    203.69934  0.061060953   0.06346218            4 
  279000   0.82683513   -3.4213483     204.1554  0.060978315  0.063348339            5 
  280000   0.82465768   -3.4646767    204.06064  0.060732332  0.063234292            2 
  281000   0.81764459   -3.4234731    205.30045  0.060883883  0.063119998            2 
  282000   0.83143224   -3.4118339    205.15706   0.06062561  0.063008219            4 
  283000   0.79860501   -3.4350993    205.50539  0.060513954  0.062894796            7 
  284000   0.82216557    -3.454969    205.97208  0.060437816  0.062781059            4 
  285000   0.81322033   -3.4484686    206.75855  0.060455716  0.062668829           11 
  286000   0.81156757   -3.4705183    206.68814  0.060223816  0.062553499           11 
  287000   0.79231337   -3.4466943    206.71241  0.060021024  0.062437773            3 
  288000   0.80304812   -3.4484604    207.59049  0.060066693  0.062321815            6 
  289000   0.81165017   -3.4539978    207.57057  0.059853105  0.062207777            4 
  290000   0.79145033   -3.4476008    208.13807  0.059809791  0.062091378            4 
  291000   0.80659013    -3.443831    208.34851  0.059664521  0.061973899            4 
  292000   0.79084057   -3.4570008    207.58088   0.05924112  0.061857499            3 
  293000   0.78571965   -3.4588193    209.20286  0.059500244  0.061740551            5 
  294000   0.79051831   -3.4638484    209.31345  0.059329209  0.061623549            6 
  295000   0.78808647   -3.4596581    210.21354  0.059382355  0.061507435            4 
  296000   0.80722346   -3.5022356    209.42164  0.058958796  0.061391319            5 
  297000   0.79458134   -3.4903056    209.74769  0.058851764  0.061273475            7 
  298000   0.78791701   -3.4816464    210.43844  0.058847438  0.061154583            5 
  299000   0.78558547   -3.4803295    210.85138  0.058765713  0.061035404            6 
  300000   0.80747681   -3.4874578    210.75431  0.058542862  0.060918322            8 
  301000   0.78718293   -3.5021571    211.80549  0.058639393  0.060801978            4 
  302000   0.78363566   -3.5013675    212.39459  0.058607778  0.060685023            4 
  303000    0.7837895   -3.5000751    212.73359  0.058507589  0.060569654            3 
  304000   0.79848864     -3.50075    213.41938  0.058503119  0.060455224            5 
  305000    0.7793657   -3.4829179    213.69223  0.058385854  0.060341094            3 
  306000   0.77310086    -3.463447    214.44515  0.058400096   0.06022791            4 
  307000   0.77169325   -3.4615574    214.81736    0.0583109  0.060115897            3 
  308000   0.77515525   -3.5135037    214.41416  0.058012489  0.060003895            6 
  309000   0.75867663   -3.4894297    214.84317  0.057940446  0.059889131            7 
  310000   0.76206232   -3.5159483    214.62379  0.057694566  0.059773843            8 
  311000   0.76981203   -3.5020907    215.36036   0.05770642   0.05965898            3 
  312000   0.77984245   -3.5133285    215.65012  0.057598856  0.059545021            8 
  313000   0.76226538   -3.4891356    216.22028  0.057566634  0.059432413            4 
  314000   0.77009561   -3.5130927    216.55553  0.057472275   0.05932057            4 
  315000   0.78303635   -3.5255294    216.09939   0.05716915  0.059207055            6 
  316000   0.74227064   -3.5297141    216.43318   0.05707626  0.059092116            3 
  317000   0.78362697   -3.5365429    216.35271  0.056875055  0.058977306            4 
  318000   0.76205469   -3.5520089    216.67514  0.056780696  0.058862856            3 
  319000   0.75649939    -3.578314    217.33979   0.05677633  0.058747598            4 
  320000   0.74459781   -3.5275432    218.05681  0.056785628  0.058631887            4 
  321000   0.77298285    -3.531433    219.09452  0.056878121  0.058517226            5 
  322000   0.75179044   -3.5395642     218.8421  0.056636154  0.058403692            5 
  323000   0.74274701   -3.5570905    218.00285  0.056244286  0.058289075            5 
  324000   0.75063599   -3.5460073      219.479  0.056450359  0.058174637            9 
  325000   0.73955635   -3.5207647    218.97577  0.056147633  0.058060975            3 
  326000   0.74745207   -3.5596999    219.49925  0.056109216  0.057948266            3 
  327000   0.73574866    -3.529344     220.7453  0.056255172  0.057835435            8 
  328000   0.73437746   -3.5462387    220.14231  0.055930466  0.057721378            6 
  329000   0.72859507   -3.5653547    220.05864   0.05573927  0.057605992            5 
  330000   0.73701894   -3.5249743    221.00489  0.055809316  0.057491124            5 
  331000   0.73985101   -3.5463593    220.61644  0.055542909  0.057376981            4 
  332000   0.73808942   -3.5742061    221.22417  0.055528156  0.057262924            3 
  333000   0.72701751   -3.5895936    220.67411   0.05522375  0.057147448            4 
  334000   0.72058698   -3.5605666    221.39629  0.055238596  0.057032104            9 
  335000   0.73482613    -3.577472     221.1935  0.055023258  0.056918031            5 
  336000   0.73841335   -3.5688667     222.0649  0.055075619  0.056804017            6 
  337000   0.74010126   -3.5651324    222.11172  0.054923769  0.056690761            9 
  338000   0.71898189   -3.5629055    222.07048  0.054751105  0.056576638            2 
  339000   0.73394151   -3.5901031    223.11019  0.054845179     0.056464            3 
  340000   0.72535141   -3.5894686    222.19954  0.054460673  0.056350327            4 
  341000   0.71839135   -3.6098993    222.39595   0.05434896  0.056235871            5 
  342000   0.73684272   -3.5657769    223.51011  0.054461527  0.056121065            6 
  343000    0.7214076   -3.6001648     223.2117  0.054230249  0.056006677            5 
  344000   0.73712074    -3.594717    223.84703  0.054226509  0.055891809            8 
  345000   0.72533032   -3.6035086    223.98214  0.054101967   0.05577745            5 
  346000   0.71493238   -3.5911377    224.39582  0.054045236  0.055664069            3 
  347000    0.7228269   -3.6025882    224.90102  0.054010811  0.055551057            8 
  348000   0.69993516   -3.6053882    224.93736  0.053864309   0.05543739            5 
  349000   0.71489948   -3.6058227    225.10486  0.053749966  0.055323941            3 
  350000   0.71579547   -3.6100707    226.08249  0.053829165  0.055211552            6 
  351000   0.70082797   -3.6162204     226.0225  0.053661561  0.055099932            5 
  352000   0.70060968   -3.6163941    225.78827  0.053453663  0.054987817            8 
  353000   0.71173143   -3.6185352    226.99365  0.053586792  0.054876199            5 
  354000   0.69737149   -3.6348815    226.90978  0.053415674  0.054765497            6 
  355000   0.70375484   -3.6098048    227.23298  0.053341075  0.054654588            5 
  356000   0.68566422   -3.6182254    226.48441  0.053016013  0.054543273            3 
  357000   0.68069889    -3.660203    227.10444   0.05301224  0.054431155            4 
  358000   0.69164658   -3.6146424    226.91747  0.052820641  0.054318311            7 
  359000   0.68313634   -3.6361149    227.75823   0.05286867  0.054206038            3 
  360000   0.69538795    -3.634759    227.47798   0.05265694  0.054094297            4 
  361000   0.70009297   -3.6238226    227.68112  0.052557968  0.053981327            5 
  362000   0.69079244     -3.63589    227.70453  0.052418169   0.05386832            4 
  363000   0.67890041   -3.6371452    228.54643  0.052467041  0.053755656            6 
  364000   0.67866893   -3.6711286     227.8428  0.052161813  0.053643567            9 
  365000   0.69324688   -3.6586741    228.19831  0.052100071  0.053530358            6 
  366000   0.66956381   -3.6418349    228.41886  0.052007937  0.053417112            5 
  367000   0.68461913    -3.643393    228.44849  0.051872954  0.053305006            4 
  368000   0.68365992   -3.6538691    228.78636  0.051808506  0.053192441            4 
  369000   0.68853006    -3.658203    229.37067  0.051800061  0.053080908            6 
  370000   0.68010972   -3.6881228    229.68144  0.051730055   0.05297049            8 
  371000   0.67350542   -3.6586237    229.74972  0.051605956  0.052859068            5 
  372000   0.66530796   -3.6709353    229.54489  0.051421346  0.052748652            8 
  373000   0.66743342   -3.6644353    230.22546  0.051435536  0.052637874            2 
  374000   0.65672885   -3.6739219     229.8298  0.051209848  0.052526691            6 
  375000   0.67188089   -3.6560834    229.32859   0.05096191  0.052415129            6 
  376000   0.67643264   -3.6803997    229.97797  0.050970294  0.052303839            3 
  377000    0.6515092   -3.6693079    230.48388  0.050946924  0.052192466            8 
  378000    0.6717923   -3.6764533    230.59542  0.050836733  0.052080082            4 
  379000   0.66962837   -3.6943909    230.41274  0.050662432  0.051967747            6 
  380000   0.64755953    -3.689532    229.67959  0.050368331  0.051854507            5 
  381000   0.64984371   -3.6723692    231.08305    0.0505431  0.051742332           11 
  382000   0.66328136   -3.7296384    230.18393  0.050214644  0.051631053            6 
  383000   0.67375501   -3.7076595    231.53192  0.050376831  0.051519665           16 
  384000   0.64509381    -3.704549    231.44721   0.05022726  0.051408602           12 
  385000   0.66198658   -3.6959189    232.14878  0.050248653  0.051297975            7 
  386000    0.6425594   -3.7242237    231.77116  0.050036952  0.051187332            5 
  387000   0.64703022   -3.7003242    230.81409  0.049701571  0.051075349           14 
  388000    0.6468563   -3.7011786    232.03654  0.049836026  0.050964112            8 
  389000   0.63618835   -3.7094099    232.09764  0.049721003  0.050853423            2 
  390000   0.63331315   -3.7367221     232.1483  0.049604338  0.050742155           10 
  391000   0.64276738   -3.7065802    233.17366  0.049696005  0.050630892            9 
  392000   0.64117276   -3.7323507    232.24166  0.049371101  0.050519759            9 
  393000    0.6340886   -3.7364037    231.58548  0.049106337  0.050408834            7 
  394000   0.64405454   -3.7296773    232.62895    0.0492024  0.050297492           13 
  395000   0.63881122   -3.7474601    232.79114  0.049112055  0.050186655            7 
  396000   0.63810462   -3.7334351    233.37649  0.049111214  0.050075721           10 
  397000   0.64036353   -3.7503773    233.23587   0.04895799  0.049966077            8 
  398000   0.63281394   -3.7441161    233.34099  0.048856991  0.049856441            6 
  399000   0.63277654   -3.7394053    233.63092  0.048795097  0.049747143            6 
  400000   0.62143929   -3.7546882    233.42323  0.048629839  0.049637641            6 
  401000   0.63256733   -3.7590492    233.53096  0.048530955  0.049528888            7 
  402000   0.62939665    -3.735025    233.88976  0.048484611  0.049420233            5 
  403000   0.63490997   -3.7559759    234.06956   0.04840148  0.049312099            6 
  404000   0.61256872   -3.7678441    234.50093  0.048370654  0.049203454           14 
  405000   0.61008311   -3.7435655    234.29937  0.048209748  0.049094823            4 
  406000   0.61313424   -3.7456044    234.82441  0.048198771  0.048986742           14 
  407000   0.60925622    -3.772871    234.35301  0.047983827  0.048879608            6 
  408000    0.6159484   -3.7656407    234.67973  0.047932951  0.048772085            9 
  409000   0.62048356   -3.7475603    235.17828  0.047917336  0.048664922            6 
  410000   0.62130158   -3.7799452    234.71469  0.047706238  0.048557999            5 
  411000   0.61872403   -3.7955077    234.87355  0.047622374  0.048450736           12 
  412000   0.60485798   -3.7793631    235.70439  0.047674836  0.048343536            7 
  413000   0.61471692    -3.793404    235.29808  0.047477418  0.048236785            5 
  414000   0.60038716   -3.7721326     235.9597  0.047495914   0.04813059           10 
  415000   0.61151758   -3.7728621    235.98917  0.047387383  0.048024851            7 
  416000   0.58272877   -3.7858014    235.64216  0.047203957  0.047919119            7 
  417000    0.5958546   -3.7853172    235.89708  0.047141702  0.047814053           11 
  418000   0.58913047   -3.7961807    235.80963  0.047011489  0.047708653           16 
  419000   0.59585187    -3.792624     236.4478  0.047026213  0.047603252            9 
  420000   0.59990835   -3.8069636    235.75549  0.046776883  0.047497438           17 
  421000   0.59377401    -3.799526     235.7019  0.046655166  0.047390692            7 
  422000   0.58908796   -3.7870789    236.21221   0.04664538  0.047284826            9 
  423000   0.58753274   -3.8055344    237.10469  0.046710931  0.047179225            7 
  424000   0.59576884    -3.824405    236.72473  0.046526088  0.047074234           18 
  425000   0.59326641   -3.8391995    236.44234  0.046361244  0.046969086            8 
  426000    0.5925882    -3.830283    236.96916   0.04635547   0.04686396            8 
  427000   0.58054672   -3.8232477    236.75453  0.046205021  0.046758519           17 
  428000   0.57762286   -3.8410211    236.83774  0.046113267  0.046653082           10 
  429000   0.58399703    -3.838604    236.79954  0.045998357  0.046548131            6 
  430000    0.5707195   -3.8080474    236.88954  0.045908826  0.046443796           14 
  431000   0.57795234   -3.8191231      236.524  0.045731632  0.046338595           12 
  432000    0.5868922   -3.8246536    236.17748  0.045558927  0.046233265           11 
  433000   0.56999577   -3.8412529    236.32507  0.045482114  0.046127849           15 
  434000   0.57563755   -3.8302545    236.72684  0.045454462  0.046022846           11 
  435000   0.57938329   -3.8549291    236.96165  0.045394951  0.045917415           10 
  436000   0.57575672   -3.8351397    237.21123  0.045338538  0.045812113           11 
  437000   0.57545125   -3.8694615    236.73182  0.045143368  0.045707122            6 
  438000    0.5725743    -3.833694    236.87028  0.045066643  0.045602073           19 
  439000   0.56468366   -3.8637242    236.59307  0.044911364  0.045497166           11 
  440000   0.57498875   -3.8691398    236.69505  0.044828609  0.045392182            7 
  441000   0.55695403   -3.8482894    237.15775  0.044814389  0.045287972            7 
  442000   0.56283196   -3.8451309    236.87519  0.044659727  0.045183913           15 
  443000   0.55693762   -3.8681217    237.21695  0.044623204  0.045079785            9 
  444000   0.55108062   -3.8712229    237.43674  0.044563952  0.044975714           19 
  445000   0.54631383   -3.8701267    237.76237  0.044524789   0.04487222           10 
  446000   0.55021296   -3.8594882    237.76437  0.044425331   0.04476808           15 
  447000   0.55369269   -3.8810994    237.58905   0.04429326  0.044663922           10 
  448000   0.54328336   -3.8972837    237.18072  0.044118438  0.044559695            6 
  449000   0.55046293   -3.8800246    236.75827  0.043941772  0.044455681           14 
  450000   0.54015362   -3.8937685     237.5241  0.043985945  0.044351995           12 
  451000   0.55319152   -3.8892341    237.77222   0.04393426  0.044248118           20 
  452000   0.54799986   -3.8813037    237.52657  0.043791771   0.04414456            9 
  453000   0.55427224    -3.898957    237.59395  0.043707496  0.044041483           11 
  454000   0.54052848   -3.8956141    237.70593  0.043631779  0.043937985           26 
  455000   0.54318023   -3.9115353    237.65266  0.043526128  0.043834484           15 
  456000   0.53669127   -3.9074216    237.43317  0.043390565  0.043730806           35 
  457000   0.54127092   -3.8906784    237.37407  0.043284841  0.043627264           10 
  458000   0.54068873   -3.9182853    237.28284  0.043173734  0.043524136           12 
  459000   0.54302522   -3.9146219    237.11015  0.043048321  0.043421148           15 
  460000   0.53836809   -3.9311031    237.19627  0.042970338  0.043317742           14 
  461000   0.53646599   -3.9215535    237.12375  0.042864019  0.043213904           36 
  462000   0.52661444   -3.9382465    236.66998  0.042689391  0.043110098           20 
  463000   0.52800191   -3.9441834    236.80365  0.042621247  0.043006112           22 
  464000   0.52699786   -3.9353624    237.44241  0.042644111  0.042902868           34 
  465000   0.52384344   -3.9347614    237.13562  0.042497423  0.042799776            8 
  466000   0.52400779    -3.953731    237.17132  0.042412611  0.042697055            9 
  467000   0.52853543   -3.9471838    237.17261  0.042322021  0.042593952           14 
  468000   0.52538213   -3.9552426    237.38884  0.042270093  0.042490938           22 
  469000   0.52166812    -3.943146    237.01209  0.042113022   0.04238859           11 
  470000   0.51029721   -3.9397177    237.05296  0.042030667  0.042287066           10 
  471000   0.52367211   -3.9419739    238.06755  0.042120939   0.04218525           20 
  472000    0.5087769   -3.9496672    237.88626  0.041999692  0.042084128           18 
  473000   0.50791587   -3.9671616    237.69908  0.041877921  0.041983265           22 
  474000   0.50686742   -3.9681834     237.7387  0.041796537  0.041882761           16 
  475000   0.51324978    -3.951248    237.17877   0.04161031  0.041782598           23 
  476000   0.51004339   -3.9827707    237.46095  0.041572295  0.041682318           43 
  477000   0.50449139   -3.9597403    237.93754  0.041568403  0.041582257           27 
  478000   0.50778418   -3.9666281    237.42875   0.04139274  0.041482133           12 
  479000   0.49288979   -3.9675094    237.38707  0.041299073  0.041382265            5 
  480000   0.49959139   -3.9760242    237.62683  0.041254659  0.041282517            9 
  481000   0.50532198   -3.9799788    238.29101  0.041283959  0.041183094           11 
  482000    0.5064205   -3.9764165    238.14966   0.04117387  0.041083856           20 
  483000   0.49742692    -3.981924    237.55859  0.040986645  0.040985128           17 
  484000   0.50478025   -3.9873901    237.76065  0.040936751  0.040886071           18 
  485000   0.49638197   -3.9846413    237.41714  0.040793322   0.04078699           22 
  486000    0.4956637   -3.9847048    238.63887  0.040918874  0.040688104           14 
  487000   0.48089247   -3.9993898    238.26461  0.040770809  0.040589854           23 
  488000   0.48943445   -3.9919213    238.29487   0.04069243  0.040492226           17 
  489000   0.48985791   -3.9986776    238.46403  0.040638041   0.04039499           16 
  490000   0.48504491   -4.0050369    238.23526  0.040516201  0.040297697           19 
  491000   0.48397268   -4.0153974    237.81822  0.040362903  0.040200586            9 
  492000   0.47538315   -4.0112719    237.88377  0.040291966  0.040102879           14 
  493000   0.48064716   -4.0207774    237.64032  0.040169088   0.04000591           11 
  494000   0.47319636   -4.0223103    237.80616  0.040115749  0.039909121           18 
  495000   0.46942274   -4.0290857    237.96467  0.040061392  0.039812471           12 
  496000   0.47952297   -4.0267146     238.2147  0.040022631  0.039715723           19 
  497000   0.46317081   -4.0384758    238.09109  0.039921377  0.039619235           23 
  498000    0.4763046    -4.037089    237.81595  0.039795172  0.039523003           37 
  499000    0.4711995   -4.0409465    238.02916  0.039751028  0.039426837           11 
  500000   0.47206855   -4.0338893    238.13441  0.039689069  0.039330588           18 
  501000   0.46757311   -4.0428673    238.10708  0.039605303  0.039234493           16 
  502000   0.45992581   -4.0425196    238.29522  0.039557639  0.039138675           20 
  503000    0.4610222   -4.0461907    238.25599  0.039472497  0.039043107            8 
  504000    0.4544524   -4.0685957    237.92255  0.039339046  0.038947829           31 
  505000    0.4570621   -4.0453203    238.14139   0.03929726  0.038852763           21 
  506000   0.46593494   -4.0612958    237.86185  0.039173559  0.038758244           14 
  507000   0.46643245   -4.0582896    238.13526  0.039141232  0.038663791           21 
  508000   0.44834938   -4.0514891    238.12566  0.039062609  0.038569643           20 
  509000   0.45386117   -4.0695065    238.11811  0.038984628   0.03847557           16 
  510000   0.45095404   -4.0567142     238.0835  0.038902532  0.038381539           19 
  511000   0.45186536   -4.0731617    237.96203  0.038806594  0.038287805           17 
  512000    0.4439123   -4.0726738    237.44408  0.038646497  0.038193882           22 
Loop time of 1232.88 on 48 procs for 500000 steps with 4000 atoms

Performance: 70079.750 tau/day, 405.554 timesteps/s
99.4% CPU use with 48 MPI tasks x no OpenMP threads

MPI task timing breakdown:
Section |  min time  |  avg time  |  max time  |%varavg| %total
---------------------------------------------------------------
Pair    | 80.741     | 84.851     | 89.573     |  25.1 |  6.88
Neigh   | 8.2374     | 8.5546     | 8.8763     |   6.6 |  0.69
Comm    | 81.078     | 86.216     | 91.772     |  29.5 |  6.99
Output  | 0.87815    | 0.87869    | 0.88825    |   0.1 |  0.07
Modify  | 1038       | 1040.9     | 1043.2     |   4.4 | 84.43
Other   |            | 11.5       |            |       |  0.93

Nlocal:        83.3333 ave          90 max          78 min
Histogram: 5 6 4 4 5 12 5 4 1 2
Nghost:        2219.42 ave        2232 max        2208 min
Histogram: 5 2 3 8 5 12 3 5 2 3
Neighs:        14791.8 ave       16406 max       13241 min
Histogram: 4 2 2 6 13 5 9 2 2 3
FullNghs:      29583.6 ave       32204 max       27742 min
Histogram: 5 6 5 5 7 9 6 2 1 2

Total # of neighbors = 1420011
Ave neighs/atom = 355.00275
Neighbor list builds = 27126
Dangerous builds = 0

#clear
#
#next RN
#
#jump SELF
Total wall time: 0:20:36
