
units lj                  # Use reduced LJ style units
atom_style atomic         # Uncharged point particles
atom_modify map hash      # Needed for indexing of clusters etc
                          # Used to be able to find where atoms are in relation to each other.

lattice fcc 1.0 spacing 1 1 1
Lattice spacing in x,y,z = 1.5874011 1.5874011 1.5874011
region box block 0 10 0 10 0 10 units lattice
create_box 2 box
Created orthogonal box = (0.0000000 0.0000000 0.0000000) to (15.874011 15.874011 15.874011)
  3 by 4 by 4 MPI processor grid
create_atoms 1 box
Created 4000 atoms
  using lattice units in orthogonal box = (0.0000000 0.0000000 0.0000000) to (15.874011 15.874011 15.874011)
  create_atoms CPU = 0.003 seconds
set type 1 type/fraction 2 0.95 78393
Setting atom values ...
  3802 settings made for type/fraction
mass 1 1.0
mass 2 1.0
pair_style lj/cut  3.5
pair_modify tail  yes
pair_coeff 1  1  1.0  1.0   # Intearaction between 1 and 1 set with epsilon = 1 and sigma = 1
pair_coeff 1  2  1.5  0.8
pair_coeff 2  2  0.5  0.88

write_data data.0
System init for write_data ...
Neighbor list info ...
  update every 1 steps, delay 10 steps, check yes
  max neighbors/atom: 2000, page size: 100000
  master list distance cutoff = 3.8
  ghost atom cutoff = 3.8
  binsize = 1.9, bins = 9 9 9
  1 neighbor lists, perpetual/occasional/extra = 1 0 0
  (1) pair lj/cut, perpetual
      attributes: half, newton on
      pair build: half/bin/atomonly/newton
      stencil: half/bin/3d
      bin: standard
WARNING: Not all mixed pair coeffs generated from mixing. Use write_data with 'pair ij' option to store all pair coeffs. (../write_data.cpp:312)


#############################
#   M E L T   S Y S T E M   #
#############################

velocity all create 2.4 9580093 mom yes dist gaussian # Assign velocities
                                                    # Temperature 2.4, random number seed, zero linear momentum
                                                                                # Gaussian distribution

timestep 0.002   # simulation timestep
thermo 1000       # output thermodynamic data every 1000 steps bf 100

# Define a fix  in this case with index 1 applied to all
# particles in the simulation. This fix is for simulations
# in the anisotropic NPT ensemble. Note that we use the MTK
# correction.
fix 1 all npt temp 2.4 2.4 0.1 iso 5.68 5.68 0.5 mtk yes tchain 5 pchain 5 # Use NPT ensemble
                                                                         # Set temperature and pressure and damping
                                                                         # Numbers of thermostats in chain and in barostat
run 10000          # run for 10000 steps
Per MPI rank memory allocation (min/avg/max) = 3.642 | 3.644 | 3.648 Mbytes
Step Temp E_pair E_mol TotEng Press Volume 
       0          2.4   -2.9371918            0   0.66190816   -2.1469233         4000 
    1000    2.4400573   -1.7716701            0    1.8875009    5.8862673    4148.5188 
    2000    2.3553648   -1.8171348            0    1.7150292    5.5539817     4141.872 
    3000     2.390332   -1.8218556            0     1.762746    5.7002976    4126.3718 
    4000    2.4111574   -1.8218334            0    1.7939985     5.647965    4123.8016 
    5000    2.3997664   -1.8400861            0    1.7586636    5.3843209    4170.8898 
    6000    2.3782492   -1.7935299            0    1.7729521    5.7803561    4140.8971 
    7000    2.3663159   -1.8384767            0    1.7101098    5.7051827    4094.7302 
    8000    2.3934535   -1.8392696            0    1.7500131    5.7082132    4117.0259 
    9000    2.3198812   -1.8127318            0      1.66622    5.5072496    4165.5272 
   10000    2.3981548   -1.8196992            0    1.7766338    5.6108229    4149.7265 
Loop time of 2.48577 on 48 procs for 10000 steps with 4000 atoms

Performance: 695156.205 tau/day, 4022.895 timesteps/s
99.7% CPU use with 48 MPI tasks x no OpenMP threads

MPI task timing breakdown:
Section |  min time  |  avg time  |  max time  |%varavg| %total
---------------------------------------------------------------
Pair    | 1.0483     | 1.1167     | 1.1819     |   2.8 | 44.92
Neigh   | 0.20707    | 0.21592    | 0.34972    |   4.2 |  8.69
Comm    | 0.71646    | 0.86791    | 0.99492    |   6.7 | 34.92
Output  | 0.00024052 | 0.00024916 | 0.00039306 |   0.0 |  0.01
Modify  | 0.21369    | 0.27033    | 0.33804    |   9.3 | 10.87
Other   |            | 0.01467    |            |       |  0.59

Nlocal:        83.3333 ave          93 max          70 min
Histogram: 1 0 2 6 3 12 14 6 2 2
Nghost:        1598.58 ave        1619 max        1570 min
Histogram: 1 1 2 5 10 6 9 5 7 2
Neighs:        9205.98 ave       10586 max        7670 min
Histogram: 2 2 2 3 14 7 9 5 2 2

Total # of neighbors = 441887
Ave neighs/atom = 110.47175
Neighbor list builds = 915
Dangerous builds = 267

# Equilibrate just above the melting temperature to avoid step fn in T

fix 1 all npt temp 1.25 1.25 0.1 iso 5.68 5.68 0.5 mtk yes tchain 5 pchain 5
run 2000
Per MPI rank memory allocation (min/avg/max) = 3.643 | 3.645 | 3.649 Mbytes
Step Temp E_pair E_mol TotEng Press Volume 
   10000    2.3981548   -1.8196992            0    1.7766338    5.6108229    4149.7265 
   11000    1.2662101   -2.7651099            0  -0.86626963    5.6878781     3217.511 
   12000    1.2592627    -2.769438            0   -0.8810162     5.730876    3205.4482 
Loop time of 0.608476 on 48 procs for 2000 steps with 4000 atoms

Performance: 567976.822 tau/day, 3286.903 timesteps/s
99.7% CPU use with 48 MPI tasks x no OpenMP threads

MPI task timing breakdown:
Section |  min time  |  avg time  |  max time  |%varavg| %total
---------------------------------------------------------------
Pair    | 0.26246    | 0.28211    | 0.31045    |   1.9 | 46.36
Neigh   | 0.038781   | 0.041378   | 0.068213   |   2.0 |  6.80
Comm    | 0.20186    | 0.23462    | 0.25883    |   2.6 | 38.56
Output  | 5.2589e-05 | 5.396e-05  | 6.8737e-05 |   0.0 |  0.01
Modify  | 0.040575   | 0.045549   | 0.050667   |   1.2 |  7.49
Other   |            | 0.004765   |            |       |  0.78

Nlocal:        83.3333 ave          93 max          73 min
Histogram: 1 1 3 10 5 10 6 7 2 3
Nghost:        1906.60 ave        1924 max        1890 min
Histogram: 6 2 7 3 2 8 8 8 1 3
Neighs:        11916.0 ave       13836 max       10088 min
Histogram: 2 2 4 10 7 7 11 0 3 2

Total # of neighbors = 571967
Ave neighs/atom = 142.99175
Neighbor list builds = 144
Dangerous builds = 13

#############################
# L I N E A R  Q U E N C H  #
#############################

# Define solid atoms. This closely follows ten Wolde  Ruiz-Montero and Frenkel  Faraday Discuss  1996  104  93-110
# Compute components of the per-atom q6 vector
compute q6 all orientorder/atom degrees 1 6 components 6 nnn NULL cutoff 1.3 # compute the Q6 parameter.
                                                                             # Use all neighbours within 1.3 unit cell.

# get number of connections
compute coord_number all coord/atom orientorder q6 0.5

# An atom is solid if it has 8 or more connections (of a possible 14)
variable is_solid atom c_coord_number>=8
group solid dynamic all var is_solid    # Must be dynamic to update
dynamic group solid defined

# do clustering
compute cluster solid cluster/atom 1.3 # Create a cluster where all atoms within are solid and max 1.3 units from another member

# define chunks one chunk per cluster
compute clus_chunks solid chunk/atom c_cluster nchunk every compress yes  # Says which atoms are in which chunk

# count the size of each chunk
compute size_chunks solid property/chunk clus_chunks count


# Find the maximum entry in the vector of chunk sizes
variable max_n equal max(c_size_chunks)


# Thermo style which includes this variable
# thermo_style custom step temp pe vol v_max_n

thermo ${N}  # Print the thermo information every 100 steps
thermo 1000  

# Reset the npt fix at a lower temperature (below freezing)
fix 1  all npt temp  ${temp} ${temp}  0.1  iso  5.68  5.68  0.5  mtk yes tchain  5  pchain  5
fix 1  all npt temp  0.45 ${temp}  0.1  iso  5.68  5.68  0.5  mtk yes tchain  5  pchain  5
fix 1  all npt temp  0.45 0.45  0.1  iso  5.68  5.68  0.5  mtk yes tchain  5  pchain  5

dump dmp2 all dcd ${N} traj.dcd
dump dmp2 all dcd 1000 traj.dcd


compute msd all msd com yes
variable twopoint equal c_msd[4]/6/(step*dt+1.0e-6)
fix 9 all vector 10 c_msd[4]
variable fit equal slope(f_9)/6/(10*dt)
thermo_style custom step temp pe c_msd[4] v_twopoint v_fit v_max_n

fix 1 all npt temp 1.25 ${temp} 0.1 iso 5.68 5.68 0.5 mtk yes tchain 5 pchain 5
fix 1 all npt temp 1.25 0.45 0.1 iso 5.68 5.68 0.5 mtk yes tchain 5 pchain 5
run 500000 # 5000000  # Run for this many steps
Neighbor list info ...
  update every 1 steps, delay 10 steps, check yes
  max neighbors/atom: 2000, page size: 100000
  master list distance cutoff = 3.8
  ghost atom cutoff = 3.8
  binsize = 1.9, bins = 8 8 8
  4 neighbor lists, perpetual/occasional/extra = 1 3 0
  (1) pair lj/cut, perpetual
      attributes: half, newton on
      pair build: half/bin/atomonly/newton
      stencil: half/bin/3d
      bin: standard
  (2) compute orientorder/atom, occasional
      attributes: full, newton on
      pair build: full/bin/atomonly
      stencil: full/bin/3d
      bin: standard
  (3) compute coord/atom, occasional
      attributes: full, newton on
      pair build: full/bin/atomonly
      stencil: full/bin/3d
      bin: standard
  (4) compute cluster/atom, occasional
      attributes: full, newton on
      pair build: full/bin/atomonly
      stencil: full/bin/3d
      bin: standard
Per MPI rank memory allocation (min/avg/max) = 9.817 | 9.823 | 9.829 Mbytes
Step Temp PotEng c_msd[4] v_twopoint v_fit v_max_n 
   12000    1.2592627    -2.769438 1.1543007e-30 8.0159769e-33 8.3333333e+20            2 
   13000    1.2237899   -2.7731048    1.0885865 0.0069781186  0.093038208            1 
   14000     1.244278   -2.7535043    2.2486805  0.013385003  0.095201145            1 
   15000    1.2089698   -2.7502069    3.4124726   0.01895818  0.095478956            1 
   16000    1.2521997   -2.7865112    4.5706788  0.023805618  0.096540665            2 
   17000    1.2426281   -2.8118221    5.7058543  0.027969873  0.097067085            2 
   18000    1.2536335    -2.767458    6.7861539  0.031417378  0.096230493            2 
   19000    1.2363155   -2.7527405    8.0166094  0.035160567  0.095994328            3 
   20000    1.2401523   -2.7900641    9.2586278  0.038577615  0.096552492            2 
   21000    1.2485159   -2.7620673    10.444926  0.041448119  0.097192057            3 
   22000    1.2415235   -2.7455947     11.61873  0.044010338  0.097342232            2 
   23000    1.2195755   -2.7584647    12.882472  0.046675621  0.097568482            1 
   24000    1.2078956   -2.7947964    14.144443   0.04911265  0.098015724            1 
   25000    1.2309559   -2.7768246      15.2722  0.050907334  0.098324018            3 
   26000    1.2121859   -2.7742146    16.484838  0.052836018  0.098609684            2 
   27000    1.2387429   -2.7789209    17.757197  0.054806161  0.098821522            2 
   28000    1.2168674   -2.7729025    18.951657  0.056403739  0.099153981            1 
   29000    1.2017581   -2.7872601    20.098043  0.057752997  0.099211581            1 
   30000    1.2221681   -2.7973449    21.271416  0.059087266  0.099302751            3 
   31000    1.2181519   -2.7615225    22.485968   0.06044615  0.099246699            1 
   32000    1.2174864   -2.7479193    23.780959  0.061929579  0.099333255            1 
   33000    1.2174323   -2.8003632    25.076553  0.063324628  0.099498437            1 
   34000    1.2178325   -2.8186464    26.197598  0.064209798  0.099560283            1 
   35000    1.2229929   -2.7930631     27.71297  0.065983262  0.099781357            2 
   36000    1.2253325   -2.7990275    28.889022  0.066872735   0.10011285            1 
   37000    1.1939069   -2.7923166    30.098553  0.067789533   0.10038473            1 
   38000    1.1671401   -2.8225673    31.436804  0.068940359   0.10061477            2 
   39000    1.2361676   -2.8105523    32.414216  0.069261144   0.10075525            1 
   40000    1.1894541   -2.7905195    33.964105  0.070758552   0.10096898            3 
   41000    1.2182111   -2.8272356    34.989677  0.071117229   0.10116236            1 
   42000    1.1999311   -2.8278285    36.245662  0.071915996   0.10130409            1 
   43000    1.2143835   -2.8345281    37.044081  0.071790853   0.10133839            2 
   44000    1.2126835    -2.820113     38.44701  0.072816306   0.10128256            2 
   45000    1.2074821   -2.8402558    39.528207  0.073200383   0.10121287            1 
   46000    1.1946937    -2.797153    40.580361  0.073515146   0.10116137            1 
   47000    1.2013676    -2.810952    41.718521  0.073969008   0.10108578            2 
   48000    1.1880285   -2.8129471    42.964096  0.074590444   0.10097001            1 
   49000    1.1849653   -2.8266197       44.293   0.07532823    0.1008839            1 
   50000      1.19441    -2.845698    45.561015  0.075935024     0.100849            2 
   51000    1.1727369   -2.8200224    46.822969  0.076508118   0.10081719            1 
   52000    1.1992438   -2.8238999    47.719403  0.076473402   0.10076396            1 
   53000    1.1589128    -2.837479    49.232802  0.077410066   0.10072384            2 
   54000     1.185094   -2.8153983    50.304027  0.077629671   0.10071208            4 
   55000    1.1649935   -2.8329519    51.083896  0.077399842   0.10062761            2 
   56000    1.1865228   -2.8531923    51.827853  0.077124781   0.10046737            3 
   57000    1.1803225   -2.8307741    53.309084  0.077937257   0.10025199            3 
   58000    1.2057549   -2.8227443    54.177625  0.077841414   0.10003263            2 
   59000    1.1601874   -2.8515669    54.801657   0.07740347  0.099771883            1 
   60000    1.1715901   -2.8523268    55.879477  0.077610385  0.099454668            2 
   61000    1.1728688   -2.8276965    57.056093  0.077945481  0.099161372            4 
   62000    1.1876331   -2.8364745    58.373133  0.078458511  0.098889351            3 
   63000    1.1562245   -2.8681442    59.169148  0.078266068  0.098653722            3 
   64000    1.1582241   -2.8662884    60.255103  0.078457165  0.098438549            1 
   65000    1.1610983   -2.8707269    61.473945  0.078812749  0.098202667            1 
   66000    1.1510077   -2.8580942    61.814697  0.078048859  0.097899278            1 
   67000    1.1544125   -2.8314526    63.082935  0.078461361  0.097629464            1 
   68000    1.1616082   -2.8552823    63.981284  0.078408436  0.097331701            1 
   69000    1.1365173   -2.8179111    65.150477   0.07868415  0.097048886            2 
   70000    1.1586406   -2.8673356    66.274086  0.078897721   0.09679651            3 
   71000    1.1577909   -2.8486361    67.454763  0.079172256  0.096571395            2 
   72000    1.1671554   -2.8855129    68.417049  0.079186399   0.09635561            3 
   73000    1.1288866   -2.8798543    69.569673  0.079417434  0.096133729            3 
   74000    1.1549819    -2.867586    70.677786    0.0795921  0.095927196            2 
   75000    1.1481489   -2.8706625    71.747737  0.079719707  0.095745037            1 
   76000    1.1654852   -2.8806234    72.570528  0.079572947  0.095554997            5 
   77000    1.1519295   -2.8782467    73.865476   0.07994099   0.09536548            1 
   78000    1.1570785   -2.8819853     74.20378  0.079277543  0.095163173            1 
   79000    1.1350233   -2.8673874    75.989313  0.080157502  0.094987195            1 
   80000    1.1472083   -2.8700628    76.661692  0.079855929   0.09480995            1 
   81000    1.1377778   -2.8953117    77.557751  0.079791924  0.094619544            2 
   82000    1.1358973   -2.8888772    78.563779  0.079841239  0.094437268            1 
   83000    1.1262694   -2.8922921    79.440516  0.079759554    0.0942546            2 
   84000    1.1375776   -2.8654799    80.515814  0.079876799  0.094082875            1 
   85000    1.1258654   -2.8880309    82.028287  0.080419889  0.093920342            2 
   86000    1.1276521   -2.8825313    82.362131  0.079808266  0.093736698            2 
   87000    1.1330062   -2.8685323    83.783958  0.080252833  0.093550102            2 
   88000     1.129408   -2.8948537    84.974967  0.080468718  0.093389758            2 
   89000    1.1149032   -2.9115122    85.395883  0.079958692  0.093229342            1 
   90000    1.1073683    -2.899479    86.421766  0.080020153  0.093052948            2 
   91000    1.1592134    -2.893902    87.095804  0.079758062  0.092859133            3 
   92000    1.0981817   -2.8871921    88.555804   0.08021359  0.092654444            2 
   93000    1.1208442   -2.8861956    89.014622  0.079762205   0.09245503            1 
   94000    1.1021142    -2.892803    90.017468   0.07980272  0.092260925            2 
   95000    1.1108688   -2.9151639    91.143644  0.079950564   0.09207769            3 
   96000    1.1094708   -2.9249078    91.466894  0.079398345  0.091894848            2 
   97000    1.1262328   -2.8983761    92.840757    0.0797601  0.091707997            2 
   98000    1.0991484   -2.9118186     94.20549  0.080106709  0.091536284            1 
   99000    1.1120521   -2.9062311    95.345221   0.08025692  0.091375017            1 
  100000    1.0874022   -2.9313413    95.913158  0.079927631  0.091219398            3 
  101000    1.1360525   -2.9015843    97.185413  0.080185984  0.091060621            3 
  102000    1.0945192   -2.9018871    98.294436  0.080305912  0.090909515            1 
  103000    1.1242896   -2.9436991    99.138685  0.080209291   0.09076987            2 
  104000     1.137279   -2.9115628    99.937378  0.080078027  0.090636837            5 
  105000    1.1140664   -2.9329699    101.19448  0.080313077  0.090518932            5 
  106000    1.1034263   -2.9443214    101.89348  0.080104936  0.090385787            2 
  107000    1.1171763   -2.9338662    103.32417  0.080470538  0.090257408            2 
  108000    1.1077875   -2.9545561    103.62338  0.079956313  0.090140209            3 
  109000    1.0887663   -2.9655341    104.80502   0.08012616  0.090005055            2 
  110000    1.0838692   -2.9001493    105.43235  0.079872993   0.08987162            2 
  111000    1.0856248   -2.9309583     106.3525  0.079844221  0.089725595            1 
  112000    1.0802813   -2.9366609    107.28296  0.079823631  0.089573059            2 
  113000     1.093086   -2.9349656    107.61686  0.079363465  0.089409803            1 
  114000    1.1012104   -2.9540093    108.50842  0.079319022  0.089250237            2 
  115000    1.0984106   -2.9402156    109.47088  0.079326723  0.089076519            2 
  116000    1.0812488    -2.958856    110.03066  0.079045016  0.088903276            1 
  117000    1.0714088   -2.9759265    110.63025  0.078796475  0.088732502            3 
  118000    1.0673027   -2.9649457    111.72946  0.078904984   0.08856838            2 
  119000    1.0822281   -2.9202172    113.37318   0.07939298  0.088404841            1 
  120000    1.1084759   -2.9182491    113.33629  0.078705754  0.088235959            2 
  121000    1.0838095   -2.9748925    114.76068  0.079036282  0.088057069            2 
  122000    1.0632085   -2.9417272    115.07194  0.078601051  0.087865157            6 
  123000    1.0837971   -2.9898236    115.46883  0.078230914  0.087669417            3 
  124000    1.0737144   -2.9283013    116.63987  0.078387012  0.087479731            3 
  125000    1.0717143   -2.9608756    117.29054   0.07819369  0.087299472            3 
  126000    1.0539321    -2.988866    118.33905  0.078266565   0.08712171            1 
  127000    1.0622072   -2.9656352    119.58376  0.078467031  0.086947689            1 
  128000    1.0640065    -2.950955    120.01178  0.078132666  0.086776517            2 
  129000    1.0749238   -2.9529282    120.59794  0.077905646  0.086607939            4 
  130000    1.0707896   -2.9561977    121.41162  0.077827964  0.086433647            3 
  131000    1.0694657   -2.9796738    121.92552  0.077560761   0.08624617            2 
  132000    1.0623293   -2.9782389    123.32751  0.077858277  0.086066951            2 
  133000    1.0600393   -2.9695378    124.24865   0.07785003  0.085900396            4 
  134000    1.0452885   -2.9714419    125.32763  0.077940068  0.085742165            2 
  135000    1.0426291   -2.9906395    126.57498  0.078132706  0.085595204            2 
  136000    1.0649842   -2.9899661    127.20916  0.077946792  0.085446564            2 
  137000    1.0645033     -2.97443    128.32439  0.078056199  0.085312838            3 
  138000    1.0313824    -2.994417    129.89486  0.078438927    0.0851804            3 
  139000    1.0666498   -3.0045015    130.47057  0.078219767  0.085058565            2 
  140000    1.0523821   -2.9892027    130.96955  0.077958064  0.084933345            2 
  141000    1.0547579    -2.972492    131.69481  0.077833811   0.08479572            4 
  142000     1.041554    -3.000354     132.5903  0.077811206  0.084659026            5 
  143000    1.0423118   -3.0104666    132.60072  0.077273148  0.084522579            2 
  144000    1.0336666   -2.9836503    133.36581  0.077179287  0.084377502            4 
  145000    1.0764043   -2.9959058    134.72716    0.0774294  0.084232637            3 
  146000     1.034121   -3.0006342    134.94175  0.077021545  0.084084565            3 
  147000    1.0305582    -3.004614    135.51762  0.076824045  0.083933087            1 
  148000    1.0361713   -2.9895341    136.12907  0.076649251  0.083774447            1 
  149000    1.0279215   -2.9726616    137.14596  0.076703556  0.083619219            1 
  150000    1.0105545   -3.0411246     137.5118  0.076395444  0.083470368            2 
  151000    1.0241209   -3.0158026    139.15691   0.07679741  0.083330085            1 
  152000    1.0375899   -3.0193241    139.72381  0.076602968  0.083188086            2 
  153000    1.0330726   -3.0291401    140.86125  0.076721812  0.083045353            1 
  154000    1.0148623    -3.026343    141.14814  0.076378863  0.082899004            2 
  155000    1.0019169   -3.0177848    142.52277  0.076625143  0.082753199            2 
  156000   0.99559308   -3.0317163    142.71882  0.076238686  0.082614092            1 
  157000    1.0140866   -3.0382801    143.83224  0.076344075   0.08247274            3 
  158000    1.0058409   -3.0173199    144.49046   0.07620805   0.08233381            3 
  159000    1.0015713   -3.0306842     144.9364  0.075962472  0.082187262            3 
  160000    1.0059773   -3.0384957     145.7134  0.075892397  0.082043942            2 
  161000    1.0112922   -3.0370478    146.67205  0.075917212  0.081898653            2 
  162000    1.0002477   -3.0418647     147.0379  0.075636782  0.081758385            2 
  163000     1.021536   -2.9905249    148.22597  0.075780149  0.081613993            3 
  164000   0.97942827   -3.0669236    148.42661  0.075420026  0.081470912            2 
  165000   0.99392747   -3.0506764    149.43662  0.075473042  0.081329254            3 
  166000   0.98901429   -3.0450614    149.88068  0.075241307  0.081187142            2 
  167000   0.99921432   -3.0570162    151.03974  0.075369134  0.081045619            1 
  168000    1.0132186   -3.0675797    151.73997  0.075267841  0.080906615            3 
  169000    1.0019214   -3.0638023    152.29041   0.07509389   0.08076346            7 
  170000   0.99257192    -3.048798    152.81693   0.07491026  0.080613252            2 
  171000    0.9996778   -3.0597872    153.37344  0.074743391  0.080465552            3 
  172000    1.0105868   -3.0825624    153.46377    0.0743526  0.080319954            2 
  173000    0.9862598     -3.08147    155.18752   0.07475314  0.080174417            2 
  174000   0.98610057   -3.0537492    155.75063  0.074593215   0.08002555            4 
  175000   0.98572352   -3.0385067    155.64813  0.074118155   0.07987027            6 
  176000   0.97811264   -3.0754663    156.27079  0.073991853  0.079713147            4 
  177000   0.99126192   -3.0914849    157.24447  0.074032238  0.079558024            2 
  178000   0.98527526   -3.0720224    157.79734  0.073875158  0.079406529            3 
  179000    1.0024673   -3.0835639    158.28176   0.07368797  0.079250552            5 
  180000   0.97489809   -3.0433762      158.435  0.073349538  0.079092166            3 
  181000   0.97171889   -3.0735658      159.045  0.073225138  0.078933703            3 
  182000   0.99953628   -3.0709918    160.00724  0.073263387  0.078778791            3 
  183000   0.96693102   -3.0857836     160.2145  0.072957421  0.078622955            5 
  184000   0.98984763   -3.0781759    161.85414  0.073303505  0.078471299            4 
  185000    0.9818225   -3.0696003    162.47201   0.07318559  0.078316838            6 
  186000   0.97494166   -3.1115666    162.67192  0.072881686  0.078168656            1 
  187000   0.96989536   -3.0992101    163.97289    0.0730717  0.078018505            2 
  188000   0.97887176   -3.1001755    164.24376  0.072803084  0.077868998            2 
  189000   0.96435945    -3.120347    164.50244  0.072531938  0.077717602            2 
  190000   0.96691913   -3.1046016    166.09512  0.072848738  0.077567379            4 
  191000   0.95965592   -3.1056932    166.13316  0.072483928  0.077410535            3 
  192000   0.94849496   -3.0996987    166.46401  0.072250002  0.077256192            2 
  193000    0.9585509   -3.0693154    167.47487   0.07231212   0.07710315            3 
  194000   0.97680943   -3.1001387    168.40553  0.072339146  0.076956837            1 
  195000   0.93605512   -3.1207229    169.36327  0.072377468  0.076809759            2 
  196000   0.93716416   -3.0920155    169.44048  0.072041022  0.076668183            1 
  197000   0.93757784   -3.0968772    170.74463  0.072227002  0.076530506            1 
  198000   0.95478037   -3.1226914    171.24157  0.072071369  0.076387723            4 
  199000   0.94533507   -3.1268197    172.21507  0.072116862  0.076249094            3 
  200000   0.93914958   -3.1105609    171.97219  0.071655081  0.076109015            2 
  201000   0.93044305   -3.1338571    172.74627  0.071619514  0.075967925            4 
  202000   0.95018129   -3.1106461    173.14215  0.071428282  0.075828917            3 
  203000   0.94895169     -3.11302    174.16104  0.071494679  0.075687436            2 
  204000    0.9286002   -3.1399835    174.51906  0.071290467  0.075547272            2 
  205000   0.94914999   -3.1121645    174.86144  0.071081884  0.075403771            3 
  206000   0.90948217   -3.1386334    176.28387  0.071312243  0.075262896            4 
  207000   0.94940933   -3.1170343    176.19558  0.070932198   0.07512397            3 
  208000   0.92453002   -3.1390479    177.40353  0.071075134  0.074991802            3 
  209000   0.95298466   -3.1493434    178.14487  0.071030651  0.074858523            6 
  210000   0.93827007   -3.1444411    177.69916  0.070515538  0.074719832            1 
  211000   0.94459497   -3.1432537     178.8462  0.070634361  0.074584737            1 
  212000   0.94252417   -3.1474574    179.03814  0.070376629  0.074447386            3 
  213000   0.93836842   -3.1537295     180.0339  0.070435796  0.074308872            8 
  214000   0.93114304   -3.1279211    180.44066  0.070265055  0.074172597            3 
  215000   0.93234195   -3.1778941    180.45632  0.069944309  0.074032107            3 
  216000   0.92216959   -3.1270728    180.65989  0.069699032  0.073888982            2 
  217000   0.92195403   -3.1453178    181.62484  0.069748403  0.073743381            2 
  218000   0.92197367   -3.1781297    182.53974  0.069778189  0.073593472            4 
  219000   0.93047461   -3.1493509    183.28929  0.069744783   0.07344785            5 
  220000   0.89567899    -3.144106    183.80691  0.069623828   0.07330765            5 
  221000    0.9403523   -3.1640857    183.95871  0.069366031  0.073172339            4 
  222000   0.91832222   -3.1752533    184.73309  0.069344252  0.073035049            6 
  223000   0.92142497    -3.150834    185.11767  0.069177005  0.072896907            2 
  224000   0.92896432   -3.1630673    186.45952  0.069367381  0.072763867            6 
  225000   0.92987376   -3.1842855    186.49569  0.069072479  0.072633381            4 
  226000   0.91500084   -3.1932761    187.14089  0.069004751  0.072502366            2 
  227000   0.91398562   -3.1694329    188.26536  0.069113569  0.072370816            3 
  228000   0.91837254   -3.2067834    187.61529  0.068572841  0.072236002            3 
  229000   0.88685723   -3.1914916    188.65232  0.068650772  0.072102125            5 
  230000   0.90078466   -3.1763407    189.19014  0.068547152  0.071968774            3 
  231000   0.87836044   -3.1817545    190.44908  0.068704573  0.071835029            3 
  232000   0.89314236   -3.1778229    190.45721  0.068411354  0.071703832            2 
  233000   0.90102601   -3.1959942    191.71423  0.068567323  0.071571816            2 
  234000   0.90872942   -3.1989495    190.90389  0.067985715  0.071435564            4 
  235000   0.88568874   -3.2233759    191.75154  0.067996998  0.071300928            2 
  236000   0.90254918   -3.2016354    191.65455  0.067674628  0.071162948            3 
  237000   0.87464539   -3.1879748    192.28028    0.0676091  0.071026711            4 
  238000   0.88797976   -3.2220686    193.81156  0.067861191  0.070890709            5 
  239000   0.86667302   -3.1754671    194.10742  0.067680411  0.070755213            1 
  240000   0.89054102   -3.2077064    194.70318  0.067605271  0.070622176            5 
  241000   0.87827474   -3.2280967    195.02532  0.067436141  0.070489458            3 
  242000   0.89586452   -3.2096608     195.5374  0.067333814  0.070359041            3 
  243000   0.87540406    -3.201806    196.63629  0.067433569  0.070231602            5 
  244000   0.86815726   -3.2088317    197.18479  0.067344532  0.070107321            4 
  245000   0.85270352   -3.2255856    197.31167  0.067112811  0.069979685            5 
  246000   0.86177824   -3.2173911     198.1785  0.067133639  0.069855041            2 
  247000   0.86129036   -3.2399924    197.99609  0.066800301   0.06972682            3 
  248000   0.88534798   -3.2256199    198.93068  0.066844985  0.069599428            4 
  249000   0.88619225   -3.2286691    198.51515  0.066437466  0.069467588            3 
  250000   0.86815963   -3.2389939    198.85043  0.066283476  0.069335193            2 
  251000   0.86320662   -3.2466373    199.60543  0.066270064  0.069201561            4 
  252000    0.8701073   -3.2381678     200.2528  0.066221164  0.069068168            2 
  253000   0.86865041   -3.2454576    200.27666  0.065967278  0.068936599            4 
  254000   0.85697212   -3.2307137    200.92194   0.06591927  0.068807451            3 
  255000   0.85669025    -3.253455    201.47709  0.065842186  0.068675147            2 
  256000   0.85313346   -3.2562297    202.27831  0.065845802  0.068546773            3 
  257000   0.87482869   -3.2444384    202.59194  0.065691291  0.068416817            4 
  258000   0.82165821   -3.2507731    203.50913  0.065732924  0.068289585            2 
  259000   0.86170067   -3.2254454    203.83633  0.065584403  0.068165033            3 
  260000   0.84030444   -3.2323432    205.56125  0.065885017  0.068039701            2 
  261000   0.86101375   -3.2548275    204.53528  0.065305007  0.067913913            2 
  262000    0.8370977   -3.2880048    205.84773  0.065473196  0.067789363            5 
  263000   0.85617101    -3.256888    206.14775  0.065319312  0.067666896            5 
  264000   0.84066867   -3.2655425    206.47845  0.065176279  0.067541784            3 
  265000   0.85548075    -3.219882     207.2835  0.065183489  0.067417768            5 
  266000   0.84945579   -3.2643087    207.82417  0.065107824  0.067294365            4 
  267000   0.82970766   -3.2553967    207.34926  0.064715749  0.067170653            6 
  268000   0.84785792   -3.2685666    208.67308  0.064885909  0.067046631            2 
  269000   0.83064879   -3.2821761    208.94766  0.064729759  0.066924176            3 
  270000   0.83940826   -3.2874515    208.72622  0.064421672  0.066799707            6 
  271000   0.83683008   -3.2634242    209.97636  0.064568378  0.066677678            3 
  272000   0.84789015   -3.2790298    210.58484  0.064517414  0.066558526            2 
  273000   0.83398458   -3.2981758    211.82145  0.064658561  0.066441594            4 
  274000   0.83543085   -3.2994235    211.79269  0.064413836  0.066323121            5 
  275000   0.82723778   -3.2899866    212.25051  0.064318335  0.066205899            3 
  276000   0.83762085   -3.2779984    211.89747  0.063978706  0.066085849            2 
  277000   0.83274449   -3.2897831    212.27824  0.063862286  0.065964219            2 
  278000   0.82867727   -3.3051116      212.418   0.06367446   0.06584279            2 
  279000   0.81430074   -3.3282886    212.75013  0.063545438  0.065719466            2 
  280000   0.82838043   -3.2884129    213.07838  0.063416184  0.065594727            2 
  281000   0.81043813   -3.2784431    214.24972  0.063537878  0.065473419            3 
  282000   0.80178144   -3.2993289    214.27895  0.063321201  0.065353106            5 
  283000   0.82492596   -3.3007811    214.83172  0.063260224  0.065234573            6 
  284000   0.84294674   -3.3136971    215.05024  0.063101596  0.065115508            3 
  285000   0.80989141   -3.3054744    216.20536  0.063217941   0.06499931            2 
  286000   0.79719167   -3.3243293    217.16593  0.063276785  0.064883699            6 
  287000   0.80299694   -3.3223212    217.34474  0.063108229  0.064766807            3 
  288000   0.79046682   -3.3293182    217.14186  0.062830399  0.064650546            6 
  289000   0.81994774   -3.2878094    218.33102  0.062955887  0.064534223            3 
  290000   0.80711396   -3.3522746     217.7181  0.062562672  0.064417061            7 
  291000   0.80975092   -3.3174166    218.94479  0.062698966   0.06430333            2 
  292000   0.79958405   -3.3158023    219.74648  0.062713037  0.064187777            6 
  293000   0.80103477   -3.3226915    219.63334  0.062466821  0.064072041            5 
  294000    0.8151515   -3.3343262    219.76861  0.062292691  0.063955713            4 
  295000   0.78890519   -3.3347594    220.50252  0.062288849   0.06384035            3 
  296000   0.77663747    -3.336573    220.44813  0.062063101  0.063722528            9 
  297000    0.7805779   -3.3139821    221.61064  0.062180315  0.063607454            6 
  298000   0.80453735   -3.3344457    221.38904  0.061909686  0.063491005            2 
  299000   0.79524794   -3.3359756    221.51036  0.061736444  0.063375885            4 
  300000   0.79670947   -3.3610611    221.58209  0.061550581  0.063259729            4 
  301000   0.77597533   -3.3442722    221.83298  0.061415554   0.06314389            8 
  302000   0.78835702   -3.3364157    223.12598  0.061568978  0.063028421           18 
  303000   0.78297355   -3.3525204    223.39899  0.061440867  0.062914398            3 
  304000    0.7951443   -3.3745431     224.5158  0.061544902  0.062801513            3 
  305000   0.77560516   -3.3595103    223.77138   0.06113972   0.06268833            3 
  306000   0.79464479   -3.3435426    224.98682  0.061270921  0.062574693            5 
  307000   0.78066625   -3.3624953    224.03219  0.060812212  0.062460885            4 
  308000   0.78320217   -3.3787609    224.25205  0.060674255  0.062343893            6 
  309000   0.76760884   -3.3843656    225.86952  0.060914109  0.062228454            4 
  310000   0.77402543   -3.3713902    226.00748  0.060754698  0.062114875           12 
  311000   0.75784693   -3.4006461    226.09698  0.060583328  0.061999841            6 
  312000    0.7676146   -3.3716402    226.92178   0.06060945  0.061886373            3 
  313000   0.78190288   -3.3773083    226.97165  0.060429086  0.061773339            3 
  314000   0.78856127   -3.3864726     227.2616  0.060313588   0.06166049            4 
  315000   0.76304181   -3.3926949    227.31454  0.060136121  0.061547307           11 
  316000   0.76315334   -3.3684816    229.11967  0.060421854  0.061437001            5 
  317000   0.78027739    -3.400904    228.98627  0.060196181  0.061325558            4 
  318000   0.76320517    -3.390119    228.50637  0.059881123  0.061212642            4 
  319000   0.74441744   -3.4031044    229.35985  0.059916367  0.061100201            5 
  320000   0.74761243   -3.3961268    228.60096  0.059531499  0.060986306            7 
  321000   0.74982762   -3.3965183    229.30468  0.059528732  0.060871765            4 
  322000   0.74713917   -3.4055657    230.09389  0.059548107  0.060756888            4 
  323000   0.73093652   -3.3856467    230.19252  0.059389194  0.060642787            9 
  324000   0.73581491   -3.3991178    229.61039   0.05905617  0.060526746            5 
  325000   0.74433076   -3.3992227    229.55384  0.058859959  0.060410281            3 
  326000   0.74951684   -3.4323605    229.62563  0.058697757  0.060293003            3 
  327000   0.75252809   -3.4045672    230.33911  0.058700078  0.060173818            5 
  328000   0.74723545   -3.4334802    230.13731  0.058469846  0.060055986            5 
  329000   0.73332885   -3.4133942    230.49074  0.058381647  0.059938355            8 
  330000   0.73229024   -3.4033429    231.13723  0.058367987  0.059822277            3 
  331000   0.73471086   -3.4352148    232.12859  0.058441235  0.059705379            5 
  332000   0.73507946   -3.4385803    231.54799  0.058119476  0.059589903            4 
  333000   0.74244102   -3.4141001    231.58057  0.057953095  0.059472646            4 
  334000   0.73751328   -3.4429506    232.27938  0.057953938  0.059355147            5 
  335000   0.70747674   -3.4300795    232.66818  0.057877657  0.059237135            9 
  336000    0.7219761   -3.4217167    233.01839   0.05779226   0.05912024            8 
  337000   0.73901653   -3.4453761    232.34294  0.057453743  0.059002769            5 
  338000   0.73068842    -3.436927    233.17903    0.0574899  0.058884328            4 
  339000   0.73064388   -3.4343136    233.47477  0.057393012  0.058767568            4 
  340000   0.72953459   -3.4320786    233.97118  0.057345878  0.058650787           16 
  341000   0.72094146   -3.4477335     233.6037  0.057087903  0.058533042            7 
  342000   0.70537602    -3.441385    234.25236  0.057079035  0.058415828            5 
  343000   0.71639331   -3.4770168    234.21528  0.056903616  0.058298561            5 
  344000   0.70426376   -3.4453613    234.55711  0.056821005  0.058181181            9 
  345000    0.7202301   -3.4731042    234.99651  0.056762442  0.058065753            6 
  346000   0.72017354    -3.488456    235.53532  0.056728161  0.057948641            4 
  347000   0.70655526   -3.4513673    236.01968     0.056681  0.057830831            3 
  348000    0.7001693   -3.4881213    236.18772  0.056558361  0.057713485            3 
  349000    0.6950071   -3.4765748    236.12068  0.056380297  0.057595917            5 
  350000   0.70005447   -3.4683758    235.80343  0.056143673    0.0574779            4 
  351000   0.70151829   -3.4875215    236.32527  0.056107614  0.057358781            8 
  352000    0.7030041   -3.4689932    235.94383  0.055857914  0.057240107           14 
  353000   0.71237495   -3.4733143    236.74265  0.055888255  0.057121264           10 
  354000   0.71514623   -3.4885179    236.36956  0.055642552  0.057002454            4 
  355000    0.7111858   -3.5029686    237.93326  0.055852879  0.056884595            8 
  356000   0.70191345   -3.4948114    236.73079   0.05541451  0.056766074            7 
  357000    0.7191728   -3.4836919    237.00556  0.055323426  0.056648257            4 
  358000   0.69438519   -3.4820803     237.9579  0.055390572  0.056530645           11 
  359000   0.69813865   -3.4832604    237.94175  0.055232532  0.056413244            7 
  360000   0.69646378    -3.506159    237.77043  0.055039452  0.056294958            8 
  361000   0.68733253   -3.5142453    238.15848  0.054976566  0.056176523            6 
  362000   0.68246636   -3.4963273    237.48576  0.054669834   0.05605811            4 
  363000   0.68652719    -3.518995     237.5712  0.054538843  0.055939593            4 
  364000   0.68298706   -3.4994184    238.68833  0.054644764  0.055820884           10 
  365000   0.68365992   -3.5082689    237.68684  0.054266403  0.055701901            6 
  366000   0.67120755   -3.5217215    238.91175  0.054397028  0.055582603            7 
  367000   0.67191548   -3.5018237    238.79639  0.054222613  0.055464047            7 
  368000   0.66956848    -3.501891    239.57089  0.054250655  0.055345894            6 
  369000   0.66205625    -3.534565    239.18273  0.054015974  0.055226776            7 
  370000   0.69478391   -3.5177609    239.62616  0.053969857  0.055108137            5 
  371000   0.66957234   -3.5021305    240.15187  0.053942467  0.054991352            5 
  372000   0.68543861   -3.5445956    240.09911  0.053785643   0.05487348            6 
  373000   0.66054412    -3.534922    240.05184  0.053630885  0.054755553            7 
  374000    0.6810005   -3.5351659    241.35725  0.053778353  0.054639028            6 
  375000   0.66955907   -3.5571332    240.34756  0.053410569  0.054522091            6 
  376000   0.65815199   -3.5548842    240.87455  0.053385318  0.054404262            3 
  377000   0.67762862    -3.580562    241.14116  0.053302645  0.054286497            9 
  378000   0.66336265   -3.5537857    241.43077  0.053225479  0.054170095            7 
  379000   0.65495287   -3.5502375    240.81546   0.05294975  0.054053804            5 
  380000     0.667307     -3.55877    242.05855  0.053083015   0.05393763            5 
  381000   0.66034132   -3.5735646    241.28674  0.052774877  0.053821545            6 
  382000   0.66248831   -3.5368299    242.27684  0.052852715  0.053705158           10 
  383000   0.63586761   -3.5896117    241.65257  0.052578888  0.053588726           12 
  384000   0.64686562   -3.5270483    242.34502  0.052592235  0.053472975            5 
  385000   0.63277833    -3.557791     242.5597    0.0525021  0.053357563            8 
  386000   0.64863577   -3.5654285    242.65788   0.05238728  0.053241734            8 
  387000   0.65555946   -3.5610249    242.76035  0.052273976  0.053126947            8 
  388000   0.64142412    -3.585691    242.31468  0.052043532  0.053010882           10 
  389000   0.65113335   -3.5847103    242.73765  0.052000353  0.052895517           14 
  390000   0.64927289   -3.5792916    242.96267  0.051915101  0.052781052            9 
  391000   0.64397585   -3.5882503    243.56319  0.051910313  0.052667307           11 
  392000   0.63450168    -3.577587    244.26347  0.051926758   0.05255378            7 
  393000    0.6476608   -3.6015213    244.00378  0.051739564   0.05244076            5 
  394000   0.62624656   -3.5954519    243.81635  0.051568602  0.052327116           12 
  395000   0.62371943   -3.6067986    244.35048  0.051550733  0.052213779            8 
  396000   0.62506207   -3.5886933     244.6543  0.051484492  0.052102251            5 
  397000   0.64429678   -3.5943582    244.89626  0.051405597  0.051989771            8 
  398000   0.63824906   -3.5884191     243.6532  0.051016164  0.051876595           20 
  399000    0.6330282   -3.5897233    244.32301  0.051028198  0.051763915            7 
  400000   0.62992775   -3.6210087    245.03713  0.051049402  0.051650722           13 
  401000   0.62013746    -3.595984    244.73073  0.050858423  0.051537632            8 
  402000   0.62543776   -3.5995763     245.5782  0.050907587   0.05142483           13 
  403000   0.61854355   -3.6171346    245.66026  0.050798234  0.051312914           25 
  404000   0.61843104   -3.6140794     245.0585   0.05054837  0.051200558            8 
  405000   0.62398451   -3.6288561    244.75185  0.050360462  0.051087081            5 
  406000   0.61486535   -3.6204314    244.73548  0.050233062  0.050973999            5 
  407000   0.62394057    -3.635969     245.0195  0.050167793  0.050860707            7 
  408000   0.61530631   -3.6425846    245.40781  0.050124143  0.050747429           12 
  409000   0.60826973    -3.631723    245.46322  0.050012882  0.050634913            7 
  410000   0.63377667   -3.6358773    245.89394  0.049978442  0.050522871            6 
  411000   0.61626216   -3.6338735    246.68088    0.0500164  0.050410436           11 
  412000   0.60923326   -3.6310642    245.59462  0.049675288  0.050298687            7 
  413000   0.60824813   -3.6400449    245.91923  0.049620506   0.05018792           10 
  414000   0.60115204   -3.6307457    246.47214  0.049611945   0.05007589           12 
  415000   0.61540665   -3.6336057    246.57455  0.049512961  0.049964489           22 
  416000   0.61431965    -3.656262    245.97904  0.049274647  0.049853243           17 
  417000   0.60382043   -3.6500237    246.63333  0.049287237  0.049742244            8 
  418000   0.60254784   -3.6512384    246.97719  0.049237876  0.049630938           14 
  419000   0.60335638   -3.6477669    247.46189  0.049216764   0.04952078            6 
  420000   0.59982979   -3.6638229    247.44182    0.0490956   0.04941093           10 
  421000   0.57983407    -3.675452    246.34434  0.048761746  0.049300023           18 
  422000   0.59487871   -3.6725374    246.51862  0.048680612  0.049189575            9 
  423000   0.59433427   -3.6503767    247.31794  0.048722998  0.049079982            7 
  424000   0.59012875   -3.6411998    247.48149   0.04864023  0.048970964            9 
  425000   0.59019151   -3.6551794    247.75069  0.048578566  0.048862821            7 
  426000   0.58468778   -3.6915296    247.55643  0.048426532  0.048752842           11 
  427000   0.58931093   -3.6846697    247.45488  0.048293302   0.04864258           18 
  428000   0.58656219   -3.6892181    247.73977  0.048235937  0.048533118            5 
  429000   0.58776372   -3.6834284    248.03518  0.048180883  0.048423882            5 
  430000   0.57203434   -3.7009066    247.71996  0.048007744  0.048314808            7 
  431000   0.57616034    -3.697558    247.72392  0.047897123  0.048205851            8 
  432000   0.57878838   -3.6987293    247.03265  0.047652903  0.048095865            8 
  433000   0.57224128   -3.7033689    247.26205     0.047587  0.047985423            8 
  434000   0.57448838   -3.7250392    247.63755  0.047549453  0.047876065            8 
  435000   0.56911184    -3.708326    247.96015  0.047501945   0.04776642            8 
  436000   0.57578108   -3.7192095    247.22497   0.04725248  0.047656542           11 
  437000   0.57450585   -3.7189567     247.7947  0.047252994  0.047546463           13 
  438000   0.57257375   -3.6883021    247.99744  0.047183684   0.04743689            8 
  439000   0.55062462    -3.705658    247.62404  0.047005322  0.047328037            6 
  440000   0.56815932   -3.7035665    248.47726  0.047060088  0.047219257           11 
  441000   0.57162137   -3.7233804    248.39908  0.046938602  0.047110803           10 
  442000   0.57042903   -3.7240213    248.33536  0.046820391  0.047003135           13 
  443000   0.55385131   -3.7421952    248.21999     0.046693  0.046894844            7 
  444000   0.55000201   -3.7411491    248.04068  0.046554181  0.046786553           17 
  445000   0.55424302   -3.7227611    249.25233  0.046676466   0.04667906           10 
  446000   0.55579933   -3.7236055    249.19845  0.046561744  0.046572449           15 
  447000   0.54832916   -3.7260214     249.2243  0.046462398  0.046466267           15 
  448000   0.55784885   -3.7393903    249.25592  0.046364569  0.046360973            6 
  449000   0.56051546   -3.7448585    249.88592  0.046378232  0.046256073            7 
  450000    0.5469649   -3.7457436    249.06653  0.046123431  0.046150788           12 
  451000   0.54469842   -3.7542058    249.83868  0.046163837  0.046046058            6 
  452000   0.54687726   -3.7551886    250.55307  0.046193413  0.045941694            7 
  453000   0.54013241   -3.7591609    250.06394  0.046001461  0.045838076           10 
  454000   0.55509545   -3.7566076    249.86911  0.045864373  0.045734697           11 
  455000   0.53811669   -3.7698603    250.09005  0.045804038  0.045630437           23 
  456000   0.54245593   -3.7503125    250.35044  0.045751178  0.045526171            9 
  457000   0.53902271   -3.7756181    249.99486  0.045586226  0.045422679            8 
  458000   0.52502682   -3.7807621    250.72925  0.045620316  0.045319544           11 
  459000   0.53281013    -3.774332    250.60269  0.045497946  0.045216911           16 
  460000   0.53624985   -3.7734251    250.54307  0.045388238  0.045114089            9 
  461000   0.52369635   -3.7743101     250.2645  0.045239425  0.045010358            9 
  462000   0.52922273   -3.7761176     251.0773  0.045288113  0.044907698           15 
  463000   0.52632499   -3.7692322    250.88061  0.045154897  0.044805667           11 
  464000   0.52023823   -3.7886055    250.35243  0.044962721  0.044703815           16 
  465000   0.53394151   -3.7856626     250.2104  0.044840573   0.04460194           10 
  466000   0.52355758   -3.7791485    250.88037  0.044864158  0.044500303           12 
  467000   0.51542027   -3.7935477    250.61188  0.044720179  0.044398677            8 
  468000   0.51782289   -3.7950078     250.7855  0.044655538  0.044296972           12 
  469000   0.51982869   -3.7977399    250.64122  0.044534687  0.044195533           15 
  470000   0.52010263   -3.8201913    250.48433  0.044412115  0.044093999           15 
  471000    0.5096859   -3.8188402    251.08825  0.044424672  0.043992334           21 
  472000   0.50661917   -3.8001482    251.12319  0.044336721  0.043890899           20 
  473000   0.51050709   -3.8112697    250.85214  0.044195233   0.04378994           11 
  474000   0.51254113   -3.8233765    250.32527  0.044009366   0.04368966           16 
  475000   0.50831911   -3.8310649    251.35646  0.044097625  0.043589366           10 
  476000   0.49912067   -3.8261582    251.14488  0.043967941  0.043488851           11 
  477000   0.51106692   -3.8193953     251.8761  0.044003511  0.043389051            6 
  478000    0.5002683   -3.8251289     251.4329  0.043834187  0.043289417           14 
  479000    0.4990714   -3.8335636    251.36552  0.043730953  0.043189251           16 
  480000   0.50071166   -3.8378099    250.74238  0.043531663  0.043088784           42 
  481000   0.50057912   -3.8632941    250.80995  0.043452867  0.042988693            8 
  482000   0.50317878   -3.8309905    251.41852  0.043467931  0.042888942           13 
  483000     0.498002   -3.8347039    251.37007  0.043369577  0.042789554           24 
  484000   0.49409931    -3.861968    251.23222  0.043256236  0.042689868           18 
  485000   0.48933392   -3.8416024    251.30865  0.043180181  0.042590354           11 
  486000   0.49665648   -3.8588107    251.16179   0.04306615  0.042491173            9 
  487000   0.49009853   -3.8471461    250.61746  0.042884576   0.04239199           12 
  488000   0.47814563   -3.8460231    251.05286  0.042871049   0.04229286           12 
  489000   0.49451516   -3.8794459    251.38001   0.04283913  0.042194094           10 
  490000   0.47600859   -3.8656059    250.76117  0.042646458  0.042095157           16 
  491000   0.49237702   -3.8738311    251.03095  0.042605389    0.0419965           17 
  492000   0.48079126   -3.8704304    250.93453   0.04250246  0.041897863           12 
  493000   0.48121023    -3.875014    250.52099  0.042346348  0.041798995           30 
  494000   0.49516232   -3.8632663    251.02237  0.042345203  0.041700678           64 
  495000   0.46816434    -3.878371    251.15473  0.042281941   0.04160287           67 
  496000   0.47080681   -3.9005371    251.05963  0.042180718  0.041504692           44 
  497000   0.48235867   -3.8672257    251.70279  0.042203687   0.04140689           20 
  498000   0.46542042   -3.9086865    251.53967  0.042091645  0.041309029           23 
  499000   0.46602956   -3.8953897    250.51446  0.041836082  0.041210915           19 
  500000   0.46427135   -3.8870284    251.34178  0.041890297  0.041113194           27 
  501000   0.46904536   -3.8798973    250.92318  0.041737056   0.04101565           26 
  502000   0.46153417   -3.8930866    250.88084  0.041646885   0.04091785           15 
  503000   0.46576617   -3.9213924    250.60649  0.041518636  0.040819848           23 
  504000   0.47153557   -3.9149843    250.76503  0.041462471  0.040722133           12 
  505000   0.45523794    -3.909702    249.96634  0.041248571  0.040624363           24 
  506000   0.45771622   -3.9107194    250.75672  0.041297221  0.040527037           34 
  507000   0.46693314   -3.9145402    250.69497  0.041205616  0.040430206           36 
  508000   0.45940424   -3.9252552     250.4001  0.041076132  0.040333489           21 
  509000   0.45746992   -3.9140192    250.49922   0.04101166  0.040236948           25 
  510000   0.44090774   -3.9304416    250.54721  0.040939086  0.040140154           29 
  511000   0.45210805    -3.920467    250.58816  0.040865648  0.040043398           30 
  512000   0.44573687   -3.9276292    250.81356  0.040822519  0.039946937           60 
Loop time of 1232.29 on 48 procs for 500000 steps with 4000 atoms

Performance: 70113.458 tau/day, 405.749 timesteps/s
99.4% CPU use with 48 MPI tasks x no OpenMP threads

MPI task timing breakdown:
Section |  min time  |  avg time  |  max time  |%varavg| %total
---------------------------------------------------------------
Pair    | 80.91      | 85.112     | 89.935     |  25.3 |  6.91
Neigh   | 8.2705     | 8.6957     | 14.39      |  28.8 |  0.71
Comm    | 77.225     | 85.465     | 89.709     |  32.2 |  6.94
Output  | 1.1639     | 1.1643     | 1.1739     |   0.1 |  0.09
Modify  | 1037       | 1040.4     | 1043.2     |   5.4 | 84.43
Other   |            | 11.44      |            |       |  0.93

Nlocal:        83.3333 ave          88 max          75 min
Histogram: 2 0 2 4 3 5 13 5 6 8
Nghost:        2200.04 ave        2225 max        2185 min
Histogram: 1 6 7 16 7 4 4 1 0 2
Neighs:        14656.9 ave       15957 max       12817 min
Histogram: 3 1 0 2 10 9 11 3 3 6
FullNghs:      29314.2 ave       31024 max       26312 min
Histogram: 2 1 2 3 4 8 5 10 6 7

Total # of neighbors = 1407083
Ave neighs/atom = 351.77075
Neighbor list builds = 27120
Dangerous builds = 0

#clear
#
#next RN
#
#jump SELF
Total wall time: 0:20:35
