
units lj                  # Use reduced LJ style units
atom_style atomic         # Uncharged point particles
atom_modify map hash      # Needed for indexing of clusters etc
                          # Used to be able to find where atoms are in relation to each other.

lattice fcc 1.0 spacing 1 1 1
Lattice spacing in x,y,z = 1.5874011 1.5874011 1.5874011
region box block 0 10 0 10 0 10 units lattice
create_box 2 box
Created orthogonal box = (0.0000000 0.0000000 0.0000000) to (15.874011 15.874011 15.874011)
  3 by 4 by 4 MPI processor grid
create_atoms 1 box
Created 4000 atoms
  using lattice units in orthogonal box = (0.0000000 0.0000000 0.0000000) to (15.874011 15.874011 15.874011)
  create_atoms CPU = 0.003 seconds
set type 1 type/fraction 2 0.89 78393
Setting atom values ...
  3550 settings made for type/fraction
mass 1 1.0
mass 2 1.0
pair_style lj/cut  3.5
pair_modify tail  yes
pair_coeff 1  1  1.0  1.0   # Intearaction between 1 and 1 set with epsilon = 1 and sigma = 1
pair_coeff 1  2  1.5  0.8
pair_coeff 2  2  0.5  0.88

write_data data.0
System init for write_data ...
Neighbor list info ...
  update every 1 steps, delay 10 steps, check yes
  max neighbors/atom: 2000, page size: 100000
  master list distance cutoff = 3.8
  ghost atom cutoff = 3.8
  binsize = 1.9, bins = 9 9 9
  1 neighbor lists, perpetual/occasional/extra = 1 0 0
  (1) pair lj/cut, perpetual
      attributes: half, newton on
      pair build: half/bin/atomonly/newton
      stencil: half/bin/3d
      bin: standard
WARNING: Not all mixed pair coeffs generated from mixing. Use write_data with 'pair ij' option to store all pair coeffs. (../write_data.cpp:312)


#############################
#   M E L T   S Y S T E M   #
#############################

velocity all create 2.4 6229865 mom yes dist gaussian # Assign velocities
                                                    # Temperature 2.4, random number seed, zero linear momentum
                                                                                # Gaussian distribution

timestep 0.002   # simulation timestep
thermo 1000       # output thermodynamic data every 1000 steps bf 100

# Define a fix  in this case with index 1 applied to all
# particles in the simulation. This fix is for simulations
# in the anisotropic NPT ensemble. Note that we use the MTK
# correction.
fix 1 all npt temp 2.4 2.4 0.1 iso 5.68 5.68 0.5 mtk yes tchain 5 pchain 5 # Use NPT ensemble
                                                                         # Set temperature and pressure and damping
                                                                         # Numbers of thermostats in chain and in barostat
run 10000          # run for 10000 steps
Per MPI rank memory allocation (min/avg/max) = 3.642 | 3.644 | 3.648 Mbytes
Step Temp E_pair E_mol TotEng Press Volume 
       0          2.4   -3.2438273            0   0.35527274   -2.6679874         4000 
    1000    2.3894648   -2.3524698            0    1.2308313    5.6494527    3952.1705 
    2000    2.3888871   -2.3652624            0    1.2171725    5.5061618    3966.0145 
    3000    2.4342632   -2.3210053            0    1.3294766    5.7108401    3981.8196 
    4000    2.3765454   -2.3241035            0    1.2398235    5.4738318    4006.2768 
    5000    2.3638476   -2.3727364            0    1.1721485    5.4639796    3956.0371 
    6000    2.4700894   -2.2933074            0    1.4109004    5.7858202    3996.0878 
    7000    2.4047289    -2.339143            0    1.2670486    5.6819067     3964.901 
    8000     2.366352   -2.3062729            0    1.2423677    5.6227727    3994.8774 
    9000    2.4421772   -2.3565727            0    1.3057773    5.6728586    3947.8096 
   10000    2.3329087   -2.3290169            0    1.1694714    5.5622499    3988.8946 
Loop time of 2.51126 on 48 procs for 10000 steps with 4000 atoms

Performance: 688100.823 tau/day, 3982.065 timesteps/s
99.6% CPU use with 48 MPI tasks x no OpenMP threads

MPI task timing breakdown:
Section |  min time  |  avg time  |  max time  |%varavg| %total
---------------------------------------------------------------
Pair    | 1.0678     | 1.1626     | 1.2513     |   3.6 | 46.29
Neigh   | 0.20247    | 0.2153     | 0.2336     |   1.2 |  8.57
Comm    | 0.75694    | 0.85576    | 0.95123    |   4.8 | 34.08
Output  | 0.00023906 | 0.00024466 | 0.0003097  |   0.0 |  0.01
Modify  | 0.23786    | 0.26239    | 0.29219    |   3.0 | 10.45
Other   |            | 0.01498    |            |       |  0.60

Nlocal:        83.3333 ave          92 max          73 min
Histogram: 1 1 3 7 9 10 3 8 3 3
Nghost:        1646.96 ave        1682 max        1619 min
Histogram: 5 5 4 8 6 5 7 6 0 2
Neighs:        9580.08 ave       11009 max        8157 min
Histogram: 2 3 2 9 10 7 7 3 2 3

Total # of neighbors = 459844
Ave neighs/atom = 114.96100
Neighbor list builds = 906
Dangerous builds = 194

# Equilibrate just above the melting temperature to avoid step fn in T

fix 1 all npt temp 1.25 1.25 0.1 iso 5.68 5.68 0.5 mtk yes tchain 5 pchain 5
run 2000
Per MPI rank memory allocation (min/avg/max) = 3.643 | 3.645 | 3.649 Mbytes
Step Temp E_pair E_mol TotEng Press Volume 
   10000    2.3329087   -2.3290169            0    1.1694714    5.5622499    3988.8946 
   11000    1.2412149   -3.4529844            0   -1.5916276    5.7815194    3079.2794 
   12000    1.2646638   -3.4763032            0   -1.5797817    5.4856005    3088.1768 
Loop time of 0.605762 on 48 procs for 2000 steps with 4000 atoms

Performance: 570521.049 tau/day, 3301.626 timesteps/s
99.7% CPU use with 48 MPI tasks x no OpenMP threads

MPI task timing breakdown:
Section |  min time  |  avg time  |  max time  |%varavg| %total
---------------------------------------------------------------
Pair    | 0.26468    | 0.29249    | 0.34198    |   2.5 | 48.28
Neigh   | 0.038507   | 0.041005   | 0.048916   |   0.8 |  6.77
Comm    | 0.1717     | 0.22558    | 0.25424    |   3.2 | 37.24
Output  | 4.9852e-05 | 5.073e-05  | 6.4722e-05 |   0.0 |  0.01
Modify  | 0.036779   | 0.042061   | 0.046046   |   1.2 |  6.94
Other   |            | 0.004579   |            |       |  0.76

Nlocal:        83.3333 ave          89 max          76 min
Histogram: 3 2 0 8 7 6 7 6 3 6
Nghost:        1956.65 ave        1976 max        1935 min
Histogram: 2 1 6 6 6 8 8 4 3 4
Neighs:        12378.0 ave       13787 max       11176 min
Histogram: 3 5 10 4 6 4 6 5 2 3

Total # of neighbors = 594142
Ave neighs/atom = 148.53550
Neighbor list builds = 142
Dangerous builds = 15

#############################
# L I N E A R  Q U E N C H  #
#############################

# Define solid atoms. This closely follows ten Wolde  Ruiz-Montero and Frenkel  Faraday Discuss  1996  104  93-110
# Compute components of the per-atom q6 vector
compute q6 all orientorder/atom degrees 1 6 components 6 nnn NULL cutoff 1.3 # compute the Q6 parameter.
                                                                             # Use all neighbours within 1.3 unit cell.

# get number of connections
compute coord_number all coord/atom orientorder q6 0.5

# An atom is solid if it has 8 or more connections (of a possible 14)
variable is_solid atom c_coord_number>=8
group solid dynamic all var is_solid    # Must be dynamic to update
dynamic group solid defined

# do clustering
compute cluster solid cluster/atom 1.3 # Create a cluster where all atoms within are solid and max 1.3 units from another member

# define chunks one chunk per cluster
compute clus_chunks solid chunk/atom c_cluster nchunk every compress yes  # Says which atoms are in which chunk

# count the size of each chunk
compute size_chunks solid property/chunk clus_chunks count


# Find the maximum entry in the vector of chunk sizes
variable max_n equal max(c_size_chunks)


# Thermo style which includes this variable
# thermo_style custom step temp pe vol v_max_n

thermo ${N}  # Print the thermo information every 100 steps
thermo 1000  

# Reset the npt fix at a lower temperature (below freezing)
fix 1  all npt temp  ${temp} ${temp}  0.1  iso  5.68  5.68  0.5  mtk yes tchain  5  pchain  5
fix 1  all npt temp  0.45 ${temp}  0.1  iso  5.68  5.68  0.5  mtk yes tchain  5  pchain  5
fix 1  all npt temp  0.45 0.45  0.1  iso  5.68  5.68  0.5  mtk yes tchain  5  pchain  5

dump dmp2 all dcd ${N} traj.dcd
dump dmp2 all dcd 1000 traj.dcd


compute msd all msd com yes
variable twopoint equal c_msd[4]/6/(step*dt+1.0e-6)
fix 9 all vector 10 c_msd[4]
variable fit equal slope(f_9)/6/(10*dt)
thermo_style custom step temp pe c_msd[4] v_twopoint v_fit v_max_n

fix 1 all npt temp 1.25 ${temp} 0.1 iso 5.68 5.68 0.5 mtk yes tchain 5 pchain 5
fix 1 all npt temp 1.25 0.45 0.1 iso 5.68 5.68 0.5 mtk yes tchain 5 pchain 5
run 2000000 # 5000000  # Run for this many steps
Neighbor list info ...
  update every 1 steps, delay 10 steps, check yes
  max neighbors/atom: 2000, page size: 100000
  master list distance cutoff = 3.8
  ghost atom cutoff = 3.8
  binsize = 1.9, bins = 8 8 8
  4 neighbor lists, perpetual/occasional/extra = 1 3 0
  (1) pair lj/cut, perpetual
      attributes: half, newton on
      pair build: half/bin/atomonly/newton
      stencil: half/bin/3d
      bin: standard
  (2) compute orientorder/atom, occasional
      attributes: full, newton on
      pair build: full/bin/atomonly
      stencil: full/bin/3d
      bin: standard
  (3) compute coord/atom, occasional
      attributes: full, newton on
      pair build: full/bin/atomonly
      stencil: full/bin/3d
      bin: standard
  (4) compute cluster/atom, occasional
      attributes: full, newton on
      pair build: full/bin/atomonly
      stencil: full/bin/3d
      bin: standard
Per MPI rank memory allocation (min/avg/max) = 9.824 | 9.829 | 9.834 Mbytes
Step Temp PotEng c_msd[4] v_twopoint v_fit v_max_n 
   12000    1.2646638   -3.4763032 1.9721523e-34 1.3695501e-36 8.3333333e+20            3 
   13000    1.2401319   -3.4683332   0.95846872   0.00614403  0.080944955            2 
   14000    1.2433445   -3.4531722    1.9881983  0.011834513  0.082975656            3 
   15000    1.2244585   -3.4544921     3.014561   0.01674756  0.085161324            1 
   16000    1.2420736   -3.4588089    4.0664765  0.021179564  0.085811521            3 
   17000    1.2448198    -3.437093    5.1495226  0.025242757  0.086409794            1 
   18000    1.2482833   -3.4167413    6.2218706  0.028804955  0.087150317            1 
   19000    1.2497381   -3.4387937    7.3004316  0.032019436  0.087585786            3 
   20000    1.2326307    -3.473096    8.2120159  0.034216732  0.087495278            1 
   21000    1.2529075   -3.4500902    9.2233958  0.036600776  0.086936771            3 
   22000    1.2467651   -3.4685082     10.09273  0.038230035  0.086283408            2 
   23000     1.232212   -3.4462044    11.325775  0.041035417  0.085877467            2 
   24000    1.2659369   -3.4436396    12.574415  0.043661163  0.086185843            3 
   25000    1.2593306    -3.476803    13.588292  0.045294306  0.086718217            2 
   26000    1.2729134   -3.4506006    14.587607  0.046755151  0.087033841            1 
   27000    1.2462192    -3.499874     15.63612  0.048259628  0.087204579            1 
   28000    1.2674092   -3.4740987     16.90979  0.050326754  0.087413804            2 
   29000    1.2496807   -3.4717012    17.877997  0.051373552  0.087764025            2 
   30000    1.2456365   -3.4729491    19.124779  0.053124385  0.088039961            3 
   31000    1.2565885   -3.4871058      20.0061  0.053779838  0.088259751            2 
   32000    1.2642061   -3.4695358    21.205904  0.055223707   0.08838607            2 
   33000    1.2495601   -3.4766224    21.954889  0.055441639  0.088389389            1 
   34000     1.233369   -3.4747578    23.110322  0.056642944  0.088351747            1 
   35000    1.2570475   -3.4683037    24.203868  0.057628256  0.088353031            2 
   36000    1.2300069   -3.4543499    25.353694  0.058689105  0.088307788            1 
   37000    1.2406107   -3.4695808     26.20299  0.059015743  0.088227209            2 
   38000    1.2362612   -3.4730952    27.387099  0.060059426  0.088214132            4 
   39000    1.2440851   -3.4436089    28.258846  0.060382149   0.08817293            2 
   40000     1.239774   -3.4546859     29.35716  0.061160748  0.088095834            5 
   41000    1.2528771   -3.4635116    30.288292  0.061561568  0.087999168            1 
   42000    1.2504293   -3.4766386    31.306637  0.062116342  0.087895497            3 
   43000    1.2393275   -3.4803062    32.347419  0.062688796  0.087796364            2 
   44000    1.2640612   -3.4571384    33.251425  0.062976182  0.087685013            1 
   45000     1.255453   -3.4826958    34.497846  0.063884899  0.087574114            3 
   46000     1.220209   -3.4504101    35.882836  0.065005136  0.087635034            5 
   47000    1.2432087   -3.4751206    37.085695  0.065754778   0.08776744            1 
   48000     1.203735   -3.5124864    38.071385  0.066096154  0.087913256            3 
   49000     1.256128   -3.5208156    39.147045  0.066576606  0.088030941            2 
   50000    1.2161861   -3.4683758    40.227132  0.067045219  0.088099013            3 
   51000    1.2379556   -3.4863396    40.922862   0.06686742  0.088128657            2 
   52000    1.2301882   -3.4479374    42.297452  0.067784377  0.088150584            4 
   53000    1.2513535   -3.4763095    43.287427  0.068061992  0.088169586            1 
   54000    1.2501458   -3.4530909     44.35271   0.06844554  0.088160899            1 
   55000    1.2231569   -3.5064405    45.100481  0.068334061   0.08813475            1 
   56000    1.2324253   -3.4661253    46.131011  0.068647336  0.088096083            2 
   57000    1.2281465    -3.480039    47.413121  0.069317428  0.088080172            1 
   58000    1.2202244   -3.4902759    48.476571  0.069650246  0.088064741            1 
   59000    1.2249113    -3.457123    49.253213  0.069566685  0.088009141            5 
   60000     1.218994   -3.4799187    50.004935  0.069451298  0.087924718            2 
   61000    1.2263391   -3.4628571    51.044672  0.069733158  0.087813628            3 
   62000    1.2229356   -3.5091312     52.04758  0.069956424  0.087745157            4 
   63000    1.2468311   -3.4743758    53.351578   0.07057087  0.087679374            1 
   64000    1.2264261   -3.5028663    54.249218  0.070637002  0.087611655            1 
   65000    1.2388639   -3.4859141     55.50258  0.071157153   0.08756688            1 
   66000    1.2284576   -3.4907246    56.356731  0.071157488  0.087521073            4 
   67000    1.2554249   -3.4826806    57.767508  0.071850133  0.087513453            1 
   68000    1.2174461   -3.4856083    58.601124  0.071815102  0.087495977            1 
   69000    1.2263063   -3.5108518    59.688776  0.072087893  0.087489041            1 
   70000    1.2125557   -3.4946871    61.060371  0.072690917  0.087504265            1 
   71000    1.2101462   -3.5197337    62.399537  0.073238892  0.087535625            1 
   72000    1.2232926   -3.5305863    62.777273   0.07265888   0.08756612            2 
   73000    1.2285504   -3.4848239    64.151388  0.073232178  0.087572967            2 
   74000    1.2161662   -3.5026245    64.944214  0.073135376  0.087582926            3 
   75000    1.2473643   -3.4445455    65.990254  0.073322504  0.087584857            1 
   76000    1.2219297   -3.4938095    66.307344  0.072705421  0.087525943            5 
   77000    1.2430319   -3.4464139    67.888835  0.073472765   0.08745879            1 
   78000    1.2382537   -3.4898095    68.554102  0.073241561  0.087406262            1 
   79000    1.2020089    -3.495846    69.514297  0.073327317  0.087350898            1 
   80000    1.2315075   -3.4806856    70.731254  0.073678389  0.087264112            1 
   81000    1.2349594   -3.5052544    71.212907  0.073264307  0.087179977            1 
   82000    1.2225626   -3.5321117    71.560679  0.072724267  0.087056788            1 
   83000    1.1976652   -3.4561567    72.925346  0.073218218  0.086918803            1 
   84000    1.2632683   -3.5241903    73.617722  0.073033454  0.086783176            2 
   85000     1.229787   -3.4796876    74.637143  0.073173669  0.086647979            1 
   86000    1.2006748   -3.5078454    76.022751  0.073665456  0.086539503            1 
   87000    1.2055888   -3.4968713    76.925844  0.073683758  0.086443479            4 
   88000    1.2337252   -3.4842051    77.893115   0.07376242  0.086347442            1 
   89000    1.2045988   -3.4997752    79.202936  0.074160052  0.086273972            2 
   90000    1.2283458   -3.5016034    80.367557  0.074414404  0.086221446            1 
   91000     1.220377   -3.5071238    81.704897  0.074821334   0.08619393            1 
   92000    1.2010021   -3.5148273    82.312199  0.074558151   0.08615239            2 
   93000    1.2221612   -3.4939077    83.435502  0.074762994  0.086120685            1 
   94000    1.2207817   -3.4931005    84.517582  0.074926934  0.086078715            2 
   95000    1.2328904   -3.4857254    85.482092  0.074984291  0.086031607            2 
   96000    1.1969039    -3.517696    86.195886  0.074822817  0.085979549            2 
   97000    1.2182641   -3.5176857    87.245882  0.074953506  0.085924411            2 
   98000    1.2111532   -3.5246176    87.791866  0.074652947  0.085845644            1 
   99000    1.1989629   -3.4864904    88.969219  0.074889914  0.085776652            3 
  100000    1.1975066   -3.4648627    90.117671  0.075098058  0.085697987            1 
  101000     1.245967   -3.5109035    90.769257  0.074892126  0.085628749            2 
  102000    1.2162097   -3.5062888     91.47893  0.074737688  0.085549792            2 
  103000    1.2412728   -3.5044946    92.549158  0.074877959  0.085481335            3 
  104000    1.2169128   -3.5459894    93.731364  0.075105259  0.085424979            1 
  105000    1.2367936   -3.4915241    94.841357  0.075270918  0.085370488            4 
  106000    1.2089615   -3.5188304    95.611084  0.075165946  0.085303402            4 
  107000    1.2403663   -3.4921737    96.730646  0.075335394  0.085239126            2 
  108000    1.2293665   -3.5230478    97.417602  0.075167903  0.085161592            2 
  109000    1.2055187   -3.5323045    98.262199  0.075124005  0.085083343            4 
  110000    1.1909652   -3.5181426    99.163297   0.07512371  0.085010884            3 
  111000    1.2126641   -3.5048217    100.12934  0.075172178  0.084938468            1 
  112000    1.2004171   -3.4419838    101.53883  0.075549723  0.084869363            1 
  113000    1.2287963   -3.5063744    101.95159   0.07518554  0.084795068            1 
  114000    1.2030699   -3.4846751    103.41684  0.075597106  0.084711071            3 
  115000    1.1957817   -3.5101799    103.47137  0.074979251  0.084627527            1 
  116000    1.2055135   -3.5272544    103.87625  0.074623742  0.084537761            3 
  117000    1.1998869   -3.4617424    105.99382  0.075494173  0.084443927            1 
  118000    1.2245207   -3.5428506    106.40968   0.07514808  0.084341006            2 
  119000    1.1844784   -3.4893087    107.51909   0.07529348  0.084248177            1 
  120000    1.2097659   -3.4787026     108.0176  0.075012222  0.084159625            1 
  121000    1.1926454   -3.5221096    109.00419  0.075071756  0.084063204            2 
  122000    1.1903691   -3.5171317     109.8076  0.075005188   0.08398469            1 
  123000    1.2063773   -3.5609906     110.6952  0.074996749  0.083898874            1 
  124000      1.21494   -3.5183287    112.24452  0.075433146  0.083822802            1 
  125000    1.2077303     -3.52685    113.45962  0.075639748  0.083760445            1 
  126000    1.2092949   -3.5410597    114.67862   0.07584565  0.083707577            5 
  127000     1.211965   -3.5121264     115.6299   0.07587264  0.083659457            2 
  128000    1.2123098   -3.5107489    115.93223  0.075476714  0.083617255            2 
  129000    1.2047357   -3.5092862    117.52097   0.07591794  0.083577624            1 
  130000    1.1954819   -3.5241064    117.80341  0.075515003  0.083531888            2 
  131000    1.2083851     -3.53715    119.28898  0.075883575  0.083492738            1 
  132000    1.2071705   -3.5386108    120.78188  0.076251184  0.083460168            4 
  133000      1.20432   -3.5296901    121.42192  0.076078897  0.083419066            3 
  134000    1.1917244   -3.5436398    122.49775  0.076180192  0.083379036            1 
  135000    1.2161393   -3.5408168    123.73105  0.076377189  0.083352351            2 
  136000    1.2219969   -3.5244862    123.91001  0.075925253  0.083314964            3 
  137000    1.2025257   -3.5340676     124.8324  0.075932117   0.08327468            1 
  138000    1.1860405   -3.5680512    125.95924  0.076062342  0.083226261            1 
  139000    1.1845895   -3.4920039    126.81861   0.07603034    0.0831807            4 
  140000    1.1801324   -3.4928005    128.34973  0.076398649  0.083140848            2 
  141000    1.2045318   -3.5408688    129.36028  0.076454066  0.083104079            3 
  142000    1.2286576   -3.5240761    129.92337  0.076246109  0.083074291            1 
  143000    1.1852194   -3.5289308    131.19757  0.076455461  0.083048679            5 
  144000    1.1951275   -3.5277079    132.73857  0.076816302  0.083028359            2 
  145000    1.1925211    -3.507263     133.7608  0.076874025  0.083012613            3 
  146000    1.1794684   -3.5209057    134.44593  0.076738543  0.083003396            2 
  147000    1.2067289   -3.5406335    135.74319  0.076951921  0.082994119            2 
  148000    1.2197721   -3.5477175    137.25413  0.077282731    0.0829935            5 
  149000    1.1851357   -3.5382492    138.60422  0.077519139  0.082996425            3 
  150000    1.1845408   -3.5561512    139.03975  0.077244306   0.08300221            2 
  151000    1.1992221   -3.5663387    139.28718  0.076869304  0.083005839            2 
  152000    1.1772618   -3.5210573    141.13063  0.077374248  0.083008502            4 
  153000    1.1934966   -3.5581758    141.54079  0.077091935  0.083008897            4 
  154000    1.1918129   -3.5491391     142.8141  0.077280358   0.08300724            2 
  155000    1.1734513   -3.5257475    143.49297  0.077146759  0.082999739            3 
  156000    1.1814089   -3.5005717    145.41785  0.077680474  0.082991378            2 
  157000    1.2010592   -3.5461989    146.17867  0.077589528  0.082982856            2 
  158000    1.1989784   -3.5344964    146.61171  0.077326851  0.082974897            2 
  159000    1.1897639   -3.5487701    148.02935  0.077583518  0.082967486            3 
  160000    1.1974358   -3.5893857    148.11665  0.077144087  0.082959471            1 
  161000    1.1966095   -3.5154933    149.88452   0.07757998  0.082951028            1 
  162000    1.1736589    -3.521811    150.08193  0.077202638  0.082941067            2 
  163000    1.1967014    -3.557015    151.15292  0.077276544  0.082926633            3 
  164000    1.2126693   -3.5505185    152.19146   0.07733306  0.082914143            2 
  165000    1.1945879   -3.5300994    153.06903   0.07730759  0.082897442            2 
  166000       1.1622   -3.5415018    154.57144  0.077596107  0.082880107            1 
  167000    1.1926565   -3.5595471    155.32281  0.077506394  0.082865679            2 
  168000    1.1975127   -3.5726276    155.96412  0.077363154  0.082851439            5 
  169000    1.1840882   -3.5391217    157.15835  0.077494253  0.082831892            3 
  170000    1.1837546   -3.5362061    157.68909  0.077298572   0.08281364            2 
  171000    1.1951718   -3.5638681    158.32899  0.077158379  0.082785811            1 
  172000    1.1894722   -3.5407827    158.72352  0.076900932  0.082753446            1 
  173000    1.1825184   -3.5271727    160.26322  0.077198081  0.082722973            2 
  174000    1.1884063   -3.5661115    161.02503  0.077119269  0.082686228            3 
  175000    1.1795361   -3.5482997    160.95327  0.076644412  0.082656261            3 
  176000     1.185681   -3.5540595    161.73436   0.07657877  0.082622945            2 
  177000     1.184954    -3.524969     164.0267  0.077225377  0.082591925            4 
  178000    1.1642115   -3.5802847    163.91532  0.076739383  0.082566468            1 
  179000    1.2057043   -3.5595703    165.77263  0.077175342  0.082539528            2 
  180000    1.1957059   -3.5689572    166.43021  0.077051022  0.082516619            2 
  181000    1.1974591    -3.545584    167.72001  0.077219156  0.082499227            1 
  182000     1.166743    -3.534063    168.57977  0.077188537  0.082474594            3 
  183000    1.1689239   -3.5743499    169.96302  0.077396638   0.08245231            2 
  184000    1.1453303   -3.5198218    170.12333  0.077048608  0.082423796            2 
  185000    1.1938221   -3.5716935     170.6751  0.076880676  0.082389736            2 
  186000    1.1687279   -3.5713321    172.01046  0.077065619  0.082353851            1 
  187000    1.1589825   -3.5672263    172.49312  0.076868589  0.082316627            3 
  188000    1.1768443   -3.5382981    173.66296  0.076978261  0.082276149            1 
  189000    1.1661965   -3.5879062    174.21018  0.076812247   0.08223735            2 
  190000    1.1497942   -3.5824978    174.85151  0.076689259  0.082196837            2 
  191000    1.1969784    -3.525863    176.65505  0.077074627  0.082161648            2 
  192000    1.1563142   -3.5362349    177.58162  0.077075357  0.082123791            2 
  193000     1.169879   -3.5748518     177.8712  0.076801036  0.082082099            1 
  194000    1.1836926   -3.5339306    179.50526  0.077107072  0.082047129            3 
  195000    1.1991399   -3.5362879    181.07288  0.077381571  0.082017632            1 
  196000    1.1740524   -3.5748858    181.14722  0.077018375  0.081983076            2 
  197000    1.2019655   -3.5447017    183.59372  0.077662317  0.081953867            1 
  198000    1.1684134   -3.5311786    182.85232  0.076958046  0.081924707            2 
  199000    1.1743087   -3.5576539    184.32948  0.077189898  0.081891427            4 
  200000     1.181885   -3.5942126    183.91063  0.076629428  0.081849333            2 
  201000    1.1619779   -3.5735704    185.81962  0.077039643  0.081808685            1 
  202000    1.1623235   -3.5966424    185.21181  0.076407511  0.081759688            2 
  203000     1.147343    -3.562182    186.28557  0.076471911  0.081711504            2 
  204000    1.1819119   -3.5526491    187.27568  0.076501501  0.081662797            3 
  205000    1.1613966   -3.5791162    187.34205  0.076155305  0.081609186            1 
  206000    1.1676537   -3.5496151    188.78966   0.07637122  0.081552625            2 
  207000     1.187648   -3.5831192    189.40909  0.076251645  0.081502097            2 
  208000    1.1880252   -3.5641798    190.14858  0.076181323  0.081445553            1 
  209000    1.1774006   -3.5602739    190.77003  0.076064606  0.081387097            1 
  210000    1.1536538   -3.5459441     191.8447   0.07612885  0.081329573            2 
  211000    1.1990791   -3.5902664    192.19812  0.075907631  0.081271646            3 
  212000    1.1449543   -3.5808596    192.70952  0.075750596  0.081209145            3 
  213000    1.1866302   -3.5461169    193.99771  0.075898946  0.081150593            3 
  214000    1.1593613   -3.6010235    194.40847  0.075704233  0.081092251            6 
  215000    1.1875962   -3.5567522    196.16132   0.07603152  0.081034968            4 
  216000    1.1692145   -3.5736451    196.73793   0.07590198  0.080980862            2 
  217000    1.1842784   -3.5596683    197.15052  0.075710645  0.080923366            1 
  218000    1.1615597   -3.5726536    198.52656  0.075889356  0.080864701            3 
  219000    1.1941325   -3.5855509    198.07027  0.075369205    0.0808016            1 
  220000    1.1615751   -3.5707719    199.39982  0.075530234  0.080735823            3 
  221000     1.182287   -3.5848882    199.59058  0.075260399  0.080675145            3 
  222000    1.1585798   -3.6008036    201.97209  0.075815351  0.080616048            1 
  223000    1.1982672    -3.582523    202.19377  0.075558209  0.080558228            1 
  224000    1.1528099   -3.5657022    203.30567  0.075634548  0.080501398            1 
  225000    1.1691024   -3.5892284    203.90264  0.075519495  0.080444534            2 
  226000    1.1798297   -3.5616965      205.434  0.075749999  0.080387379            2 
  227000    1.1739702   -3.5708962    206.01943  0.075631215  0.080332401            2 
  228000    1.1403501   -3.6011283    206.99591    0.0756564  0.080281344            1 
  229000    1.1777253   -3.5873694    207.56756  0.075534045  0.080234779            3 
  230000    1.1549823   -3.5812354    209.26137  0.075819336  0.080188253            2 
  231000    1.1690258    -3.567864    210.15528  0.075813593  0.080142147            1 
  232000     1.165587   -3.5706089    210.57954  0.075639202  0.080092675            3 
  233000    1.1313274    -3.562385    211.18773  0.075532091  0.080045269            3 
  234000    1.1502037   -3.5685118    211.10947  0.075181433  0.079993335            2 
  235000    1.1425061   -3.5701475    213.36593  0.075661676  0.079944795            5 
  236000    1.1615841   -3.5637202    214.16623  0.075623669  0.079894865            1 
  237000    1.1540591   -3.5963746    214.87145   0.07555255  0.079851417            2 
  238000    1.1428286   -3.5974736    216.00655  0.075632547  0.079805517            1 
  239000    1.1443586   -3.5819487    217.25186  0.075750301  0.079764706            1 
  240000    1.1486564   -3.5960799    218.29778   0.07579784  0.079724572            3 
  241000    1.1718745   -3.5682145    220.06362  0.076093921  0.079692168            2 
  242000    1.1330102   -3.5730109     219.7884   0.07568471  0.079657624            2 
  243000    1.1765932   -3.6168926    221.53602  0.075972572  0.079623797            3 
  244000    1.1864697    -3.561077    222.61871  0.076030981  0.079589007            4 
  245000    1.1494207   -3.5785388    222.40633  0.075648412  0.079552792            4 
  246000    1.1661704   -3.5567088    223.22586  0.075618515  0.079515607            1 
  247000    1.1257758   -3.5877225    223.68177  0.075466185  0.079479876            2 
  248000    1.1071793   -3.5781791    224.99344  0.075602633  0.079441011            2 
  249000    1.1435017   -3.5877721    226.49057  0.075800057  0.079404602            2 
  250000    1.1352529   -3.6141121    227.33623  0.075778743  0.079367687            3 
  251000    1.1381618    -3.575315    228.07328   0.07572154  0.079330022            1 
  252000    1.1539625   -3.5837405    228.16843  0.075452525   0.07929184            1 
  253000    1.1550658   -3.5859209    229.85334  0.075709269  0.079256587            1 
  254000      1.15133   -3.5991896    230.07112   0.07548265  0.079222515            2 
  255000    1.1724653   -3.5887048    231.38175  0.075614951  0.079187256            1 
  256000    1.1288243   -3.6045419     231.5185  0.075364093  0.079148188            3 
  257000    1.1660357   -3.5841839     233.4478  0.075696432  0.079112405            1 
  258000    1.1323762   -3.5876741    233.38702  0.075383405  0.079073459            2 
  259000      1.13288   -3.5661873    235.60236  0.075805135  0.079037253            1 
  260000    1.1414624   -3.5719196    235.52283  0.075488086  0.078998632            2 
  261000    1.1408087    -3.587798    237.61905  0.075868152  0.078963793            1 
  262000     1.152773    -3.597338    238.49196  0.075856222  0.078926793            2 
  263000    1.1512725   -3.5975814    238.87142  0.075688029  0.078894418            1 
  264000    1.1585872   -3.5800278    239.92988  0.075735442  0.078860824            2 
  265000      1.13849   -3.6184252    239.92442  0.075447931  0.078827862            1 
  266000    1.1464447   -3.5907802    240.79271  0.075436311  0.078793078            1 
  267000    1.1636081   -3.6248289    241.37096  0.075334258   0.07875848            6 
  268000    1.1532972   -3.6283014    241.75782  0.075173452  0.078727351            3 
  269000    1.1570551    -3.605914    243.63898  0.075476759  0.078692629            1 
  270000     1.174519   -3.6001449    245.51939  0.075777588  0.078660253            2 
  271000    1.1489017   -3.5967138    245.49284  0.075489803  0.078631362            4 
  272000    1.1450893   -3.5976207    246.68103  0.075576296  0.078603336            1 
  273000    1.1658822   -3.5623395    248.07966  0.075726392   0.07857374            2 
  274000    1.1402921   -3.6019698    248.51828  0.075583418  0.078543806            4 
  275000    1.1431934   -3.5903657     247.5288  0.075008726  0.078511075            1 
  276000    1.1668607   -3.5904846    250.12616  0.075521182  0.078474249            1 
  277000    1.1566923    -3.591166    249.75103  0.075135687  0.078438667            2 
  278000    1.1505471   -3.6008773    249.46931  0.074780968  0.078403219            2 
  279000    1.1159414   -3.6440519    251.57658  0.075142349  0.078367441            2 
  280000    1.1654806   -3.5949399    252.16336  0.075048619  0.078330861            2 
  281000     1.136711   -3.5834794    252.47798  0.074874846  0.078295654            2 
  282000    1.1242623   -3.6039347    253.66202  0.074959226  0.078253922            3 
  283000    1.1464616    -3.609703    254.94883  0.075073271   0.07821467            1 
  284000     1.125116   -3.5773045    257.04005  0.075422551  0.078179991            2 
  285000    1.1325492   -3.5938503    256.45528  0.074986924  0.078145661            2 
  286000    1.1284621   -3.5661051    255.98237  0.074586937  0.078110579            2 
  287000     1.128292   -3.5998292    258.20042  0.074971087  0.078075648            1 
  288000    1.1445608   -3.6107279    258.34594  0.074752875  0.078040608            2 
  289000    1.1540018   -3.6134604    260.05341  0.074986567   0.07800618            3 
  290000    1.1470325   -3.5958654    260.91466  0.074975478  0.077975538            4 
  291000    1.1507046   -3.6017867     261.9913  0.075026146  0.077943139            2 
  292000    1.1510614   -3.5883972    262.22893  0.074837024  0.077913347            3 
  293000    1.1356482   -3.6457982     263.6534  0.074986746  0.077879252            3 
  294000    1.1607153   -3.6176419    263.84935  0.074787231  0.077846674            2 
  295000    1.1107318   -3.5903991    265.65341  0.075043337  0.077812387            3 
  296000    1.1505192    -3.613969    266.23834  0.074954488  0.077779724            3 
  297000    1.1227112   -3.6192156    267.07084  0.074935702  0.077749118            2 
  298000     1.136739   -3.6519395    266.83078  0.074617109  0.077718629            3 
  299000    1.1284062   -3.6167679    268.60208  0.074861226  0.077688743            3 
  300000    1.1432527   -3.6285607    270.88814  0.075246705  0.077660564            3 
  301000    1.1328908   -3.6341041    270.48813  0.074885972  0.077634974            1 
  302000    1.1221812   -3.6026809     272.1895  0.075107477  0.077607204            2 
  303000    1.1253589   -3.6380668    273.64171  0.075258997  0.077578861            2 
  304000    1.1661352   -3.6198146    272.58269  0.074721131  0.077551128            1 
  305000    1.1405546   -3.6002511    275.50566  0.075274769  0.077525731            1 
  306000     1.144146   -3.6271397    276.24994  0.075231465  0.077503411            1 
  307000    1.1265017   -3.6404578    275.21652  0.074705895  0.077479938            2 
  308000    1.1419775   -3.6074556    277.70423  0.075136425  0.077457096            6 
  309000    1.1285984   -3.6345791    278.54321  0.075119528  0.077432329            1 
  310000    1.1469499   -3.6297434    278.48488  0.074861528  0.077407398            1 
  311000    1.1210673   -3.6332459     279.6006  0.074919776  0.077379901            5 
  312000    1.1286483    -3.624126    279.38749  0.074622727   0.07735133            2 
  313000    1.1521822   -3.6287591    281.19896  0.074866604  0.077325321            1 
  314000    1.1132043   -3.6172019    282.08845  0.074864237  0.077299248            3 
  315000     1.137192   -3.6268765     283.0581  0.074883096  0.077272631            1 
  316000     1.113663   -3.6105151    283.74838  0.074828159  0.077246721            1 
  317000    1.1118469   -3.5928323    284.12212  0.074690357  0.077218097            2 
  318000    1.1159625   -3.6410923    284.71716  0.074611416  0.077189167            3 
  319000    1.1271754   -3.6216588    285.59947  0.074608011  0.077159316            3 
  320000    1.1461685   -3.6413244    285.53153  0.074357169  0.077128197            2 
  321000    1.1250374   -3.6648501    285.89633  0.074220232  0.077095985            5 
  322000    1.1094739   -3.6365189    286.07575  0.074036166  0.077064261            4 
  323000    1.1251816   -3.6369895    286.89511  0.074018347  0.077031223            4 
  324000    1.1123188   -3.6494435    288.97524  0.074324907  0.076997031            2 
  325000    1.1281477   -3.6075763    290.23955  0.074420398  0.076961857            2 
  326000    1.1240166   -3.6256831    291.42869  0.074496086  0.076929223            2 
  327000     1.110909    -3.630566     291.7236  0.074343425  0.076898034            2 
  328000    1.1180862   -3.6214926    293.17167  0.074484672  0.076866387            2 
  329000    1.1349037   -3.6416158    293.98963  0.074465458  0.076836418            2 
  330000    1.1306167   -3.5982421     293.9523  0.074230378  0.076804971            2 
  331000    1.1026624   -3.6325748    294.34002  0.074103731  0.076773843            2 
  332000    1.1275359   -3.6423675    294.86176  0.074011485  0.076741978            6 
  333000    1.1206961   -3.6244652    296.46791  0.074191169  0.076711506            3 
  334000    1.1332393   -3.5813143    297.45464   0.07421523  0.076683185            2 
  335000    1.1164699   -3.6177637    299.24198  0.074438302  0.076653532            3 
  336000    1.1261051   -3.6515567    297.47471  0.073778449  0.076624374            3 
  337000    1.1211946   -3.6290239    301.87355  0.074647267  0.076593316            3 
  338000    1.1134105   -3.6343144    302.40608  0.074557713  0.076566359            2 
  339000    1.1394476   -3.6439781     300.7888  0.073940217  0.076537266            1 
  340000    1.1104868   -3.6332275     302.8666   0.07423201   0.07650776            3 
  341000    1.1415536   -3.6555437    302.93433  0.074030872  0.076477726            1 
  342000    1.1219112   -3.6596947    303.70077  0.074001163  0.076448004            1 
  343000    1.0985634    -3.667607    304.97135  0.074094107  0.076415638            2 
  344000     1.127771   -3.6150872    305.37351   0.07397614  0.076382812            1 
  345000    1.1342037    -3.646215     305.4309   0.07377558  0.076351396            2 
  346000    1.1312917   -3.6606338    306.34279  0.073781982  0.076317684            3 
  347000    1.1126756   -3.6253973    307.05513  0.073740424  0.076284258            2 
  348000    1.1155276   -3.6175689    309.12425  0.074024007   0.07625279            2 
  349000    1.1081526   -3.6622874    309.24715  0.073841249  0.076222797            1 
  350000    1.0939273   -3.6491274    308.97368  0.073565161  0.076190214            4 
  351000    1.1411119   -3.6351911    309.86792  0.073567883  0.076157124            1 
  352000    1.1246568   -3.6618548    309.86451  0.073358074  0.076119908            1 
  353000    1.1337321   -3.6616457    312.31782  0.073729418  0.076083861            2 
  354000    1.1183543   -3.6075842     312.7748  0.073628718  0.076048262            2 
  355000    1.1365304    -3.664132    313.82762  0.073668455  0.076013464            2 
  356000     1.129103   -3.6406597    314.68062  0.073661193  0.075979245            2 
  357000    1.1206875   -3.6640678    315.55353   0.07365862  0.075944985            3 
  358000    1.1092441   -3.6121629    315.54212  0.073450215  0.075912415            1 
  359000    1.1106361   -3.6578717    314.45864  0.072994114  0.075879762            5 
  360000    1.1043288   -3.6486357    318.39513  0.073702576  0.075846184            2 
  361000    1.0914599   -3.6541164     318.7109  0.073571306  0.075813445            2 
  362000    1.1338813   -3.6441678    318.21805  0.073254616  0.075781043            1 
  363000    1.0981658   -3.6416392    319.54537  0.073357524  0.075749691            2 
  364000    1.1027853   -3.6721587    320.38993  0.073349344  0.075716808            2 
  365000    1.1167256   -3.6407738    321.90517  0.073494331  0.075685033            2 
  366000     1.104881   -3.6545446    323.57011  0.073672611   0.07565252            2 
  367000    1.1010222    -3.696319    320.84219  0.072852451  0.075617242            1 
  368000    1.1157819   -3.6490949    322.79379   0.07309642  0.075581379            3 
  369000    1.1088347   -3.6835511    324.00107  0.073170974  0.075548099            1 
  370000    1.0972994   -3.6299232    324.98594  0.073195031  0.075513802            2 
  371000    1.1208149   -3.6312726    326.26885  0.073285904  0.075481265            1 
  372000    1.1086495   -3.6652199    328.14696  0.073509624  0.075450655            4 
  373000    1.0985762   -3.6765791    328.15446  0.073314222  0.075420766            4 
  374000     1.108187   -3.6609352    329.54685  0.073428442  0.075391507            1 
  375000    1.1190262   -3.6326489      331.683  0.073707333  0.075362546            1 
  376000    1.0822969   -3.6267444    330.81445  0.073318806  0.075335376            1 
  377000    1.1261531   -3.6252461    331.87357  0.073358437  0.075305827            1 
  378000    1.0994889   -3.6664065    331.04825  0.072982418  0.075275476            5 
  379000    1.1130464   -3.6568874    334.33326   0.07351215  0.075245744            2 
  380000    1.1133519   -3.6680024     332.6084  0.072940438  0.075217089            1 
  381000    1.1091044   -3.6297326    334.50948  0.073164803  0.075187635            2 
  382000    1.0913894   -3.6582826    335.15265  0.073113581  0.075155896            3 
  383000    1.0854282   -3.6520806     334.6435  0.072811901  0.075127262            1 
  384000    1.1204671   -3.6916606    336.45801   0.07301606  0.075097976            4 
  385000     1.106935   -3.6551991    337.51555  0.073055314  0.075066745            5 
  386000    1.0813513   -3.6729491    338.09918   0.07299205  0.075037125            2 
  387000    1.0851681   -3.6847763    339.07859   0.07301434  0.075005627            2 
  388000    1.1158117   -3.6943167    339.39626  0.072894387  0.074972783            5 
  389000    1.1171307   -3.6639212    339.58978  0.072748453  0.074939154            2 
  390000    1.1096643   -3.6699129    339.78559  0.072603759  0.074905105            5 
  391000    1.1063829   -3.6619763    342.09958  0.072911248  0.074872006            3 
  392000    1.0757281   -3.7031168    341.10766  0.072514384  0.074839447            2 
  393000    1.1018875   -3.7063736     342.6224   0.07265106  0.074807078            3 
  394000    1.0850231   -3.6626213    343.59958  0.072673346  0.074774844            3 
  395000    1.0909558   -3.6722175    344.74417  0.072730838  0.074742411            2 
  396000    1.0891567   -3.6640451       343.72  0.072331651  0.074709526            7 
  397000     1.111383   -3.6724952    345.74712  0.072574962  0.074675247            2 
  398000    1.0964258   -3.6735601    346.11677   0.07247001   0.07464259            3 
  399000    1.1130905   -3.7151154    345.23553  0.072104329  0.074610519            6 
  400000    1.0962099    -3.674357    348.39923  0.072583173  0.074578969            3 
  401000    1.0864471   -3.6691229    349.03879  0.072535076  0.074547587            3 
  402000    1.1040404   -3.6750309    349.50307  0.072450885  0.074515758            2 
  403000    1.0758011   -3.6691536    352.15034  0.072818516  0.074483738            4 
  404000      1.07708   -3.6731324    352.70251  0.072752168   0.07445458            1 
  405000    1.0838581   -3.6934021    353.41092  0.072718296  0.074425874            2 
  406000     1.088426   -3.6568626    355.78103  0.073025662  0.074396517            2 
  407000    1.0736024   -3.6740143    353.59396  0.072398435  0.074367495            2 
  408000    1.0949242   -3.6799489     355.7243  0.072656107  0.074338601            2 
  409000    1.0950402   -3.6652048    357.94796  0.072931532  0.074311329            2 
  410000    1.0839883   -3.6734623     357.5874  0.072680367  0.074282323            3 
  411000     1.075064   -3.6750225     357.6764  0.072521574  0.074252584            1 
  412000    1.1084163   -3.6663044     358.0267  0.072416404  0.074220939            3 
  413000    1.0916507   -3.6785587    359.60998  0.072560529  0.074190022            1 
  414000    1.0920591   -3.6612075     359.5359   0.07237035   0.07415984            1 
  415000    1.1027667   -3.6594404     359.3573  0.072160101  0.074130813            3 
  416000     1.132558   -3.6746082    361.16685  0.072349128  0.074102028            3 
  417000    1.0715172   -3.6610318     361.5497  0.072252137  0.074070247            5 
  418000    1.0934468   -3.6786516    361.59981  0.072089277  0.074039487            5 
  419000    1.1007706   -3.6913086    361.96069     0.071989  0.074006905            3 
  420000    1.0927947   -3.6911078    363.45903  0.072114886   0.07397671            2 
  421000    1.0799151   -3.6964656    364.38197  0.072126281  0.073945993            1 
  422000    1.0874393   -3.6933266    364.71724  0.072021572  0.073915352            3 
  423000    1.0541007   -3.7048036    366.66183  0.072234402  0.073885732            2 
  424000    1.0924874   -3.7025975    366.07989  0.071949664  0.073854957            5 
  425000    1.1061793   -3.6913822    368.93586  0.072340364  0.073825523            1 
  426000    1.0801801   -3.6983764    367.72703  0.071934082  0.073795363            2 
  427000    1.0724182   -3.7045862    367.43156  0.071707954  0.073763457            2 
  428000    1.0884923   -3.6984914    368.77049  0.071801108  0.073731291            5 
  429000    1.0903771   -3.7068071    368.65905  0.071612093  0.073697045            4 
  430000    1.0821032   -3.6614591    368.42495  0.071400185   0.07366234            4 
  431000    1.0505351   -3.7038977    369.19606  0.071383615  0.073628322            3 
  432000    1.0738868   -3.6972715    371.27174  0.071618776  0.073594154            3 
  433000    1.0861579   -3.6842942    371.65579  0.071527288  0.073560569            3 
  434000    1.0693873   -3.7303284    372.50692  0.071525905  0.073526477            4 
  435000    1.0784146   -3.7324972     373.3197  0.071517184  0.073492164            2 
  436000    1.0752379   -3.6935503    372.54872  0.071205795  0.073461137            2 
  437000    1.0978065   -3.7418092    373.13636  0.071154913  0.073428506            1 
  438000    1.0977675   -3.7165816    373.91821  0.071141211  0.073394966            3 
  439000    1.0687158   -3.7080619    376.27646  0.071426814  0.073361143            1 
  440000    1.0899747   -3.7209686    375.92791  0.071198468  0.073328406            2 
  441000    1.0584844   -3.6927839    379.48468  0.071709123  0.073295474            1 
  442000    1.0751036   -3.7463492    376.72109  0.071025847  0.073261237            3 
  443000    1.0779469   -3.6987699    378.27938  0.071158649  0.073226527            3 
  444000      1.07921   -3.7035841     378.8575  0.071106888  0.073191582            2 
  445000    1.0626892   -3.7003547    378.67548   0.07091301  0.073156119            2 
  446000    1.0625863   -3.6684922    381.02982  0.071193913  0.073121472            2 
  447000    1.0890762   -3.7207875    380.14697  0.070870053  0.073086741            2 
  448000    1.0797652   -3.7210429    380.88123  0.070848443  0.073050125            2 
  449000    1.0922759   -3.7255501    381.43525  0.070793476  0.073012604            3 
  450000     1.081778   -3.6992897    383.45637  0.071010438  0.072977724            1 
  451000    1.0663809   -3.7065856    382.69245  0.070711834  0.072944527            3 
  452000    1.0725805    -3.679489    385.35962  0.071047128  0.072910294            3 
  453000    1.0788137   -3.7264611    385.81044  0.070973222  0.072874864            3 
  454000    1.0372157   -3.7227746    385.61323  0.070780696  0.072839409            4 
  455000    1.0884083    -3.714382    384.36424  0.070396381   0.07280265            2 
  456000    1.0605548   -3.6960094    387.97519  0.070901899   0.07276639            2 
  457000    1.0636792   -3.7041106    386.39042  0.070457771  0.072729295            2 
  458000    1.0535028   -3.7171832    387.77385   0.07055565  0.072692479            2 
  459000    1.0664733    -3.718311    388.30532  0.070498423  0.072656333            3 
  460000    1.0706927   -3.7075089    390.92919  0.070820505  0.072620625            2 
  461000    1.0681618   -3.7178403    389.35795  0.070382854  0.072585001            1 
  462000    1.0729386   -3.7115996    389.57424  0.070269524  0.072547865            2 
  463000    1.0637877   -3.7227508    390.48702  0.070282041  0.072510735            1 
  464000    1.0525318   -3.7058217    391.27197  0.070271546  0.072474261            2 
  465000     1.070274   -3.7213947    394.11935  0.070630708  0.072438346            4 
  466000    1.0694743   -3.7245207    392.63803   0.07021424  0.072402543            3 
  467000    1.0642932    -3.722812    394.61963  0.070417493  0.072366655            1 
  468000    1.0583803   -3.6980686    395.17489  0.070365898  0.072331022            2 
  469000    1.0722388   -3.7241616    394.77603  0.070144995  0.072295487            3 
  470000    1.0598322   -3.7018223    395.34988  0.070097496  0.072256806            2 
  471000    1.0798676   -3.7025611    397.62974  0.070352043  0.072221181            2 
  472000     1.048018   -3.7111241    398.87241  0.070422388  0.072186114            2 
  473000    1.0731593   -3.7102795    399.01311  0.070298292   0.07214926            1 
  474000    1.0706754   -3.7423962    399.78206  0.070285172   0.07211109            2 
  475000    1.0528242   -3.7068128     399.9437  0.070165561  0.072072946            3 
  476000    1.0738405   -3.7191883    399.53892   0.06994729   0.07203511            5 
  477000    1.0573893   -3.7423979    400.25015  0.069924904  0.071997402            2 
  478000    1.0603718   -3.7481659    399.87876  0.069713871  0.071960987            3 
  479000    1.0328879   -3.7284464    400.99808  0.069763061  0.071923306            2 
  480000     1.062726   -3.7266643    403.26098  0.070010586  0.071884893            2 
  481000    1.0766536   -3.6758727    404.66082  0.070107558  0.071848256            2 
  482000     1.056655   -3.6844314    405.33094  0.070077963  0.071812303            4 
  483000    1.0784514   -3.7174183    403.80298  0.069669252  0.071775885            3 
  484000    1.0716026   -3.6886038    406.67839  0.070020384   0.07173876            3 
  485000    1.0597233   -3.7314877    406.93356  0.069919855  0.071701676            4 
  486000    1.0511533   -3.7371153    405.25587  0.069488318  0.071663477            1 
  487000    1.0609192   -3.7213899    406.67605  0.069588646  0.071624538            3 
  488000     1.062248   -3.7113674    407.04645  0.069509297  0.071586093            2 
  489000    1.0509423   -3.7076188    407.77215  0.069490823  0.071548993            2 
  490000    1.0713742   -3.7047022    408.19372  0.069420701  0.071510629            1 
  491000     1.076152   -3.7356344    408.95681  0.069408827  0.071472752            2 
  492000    1.0769992    -3.728043    410.47867   0.06952552  0.071435244            2 
  493000    1.0812218   -3.7408841    411.96636  0.069635964  0.071399872            3 
  494000    1.0695493   -3.7458681    409.93058  0.069151583  0.071362553            2 
  495000    1.0433665   -3.7327363    411.55691  0.069285675  0.071325321            3 
  496000    1.0380113   -3.7250114    414.42169    0.0696273  0.071289552            5 
  497000    1.0523178   -3.7448846    413.00537  0.069249727  0.071254531            5 
  498000    1.0174652   -3.7239535    414.76821  0.069405658  0.071216948            3 
  499000     1.043315   -3.7308371    414.20291  0.069172163  0.071179709            2 
  500000    1.0509316   -3.7316299    415.29074  0.069215123  0.071141611            2 
  501000    1.0381054   -3.7247742     415.6081  0.069129756  0.071104321            3 
  502000    1.0780866   -3.7237096    416.31867  0.069110004  0.071067483            2 
  503000    1.0431524   -3.6994415    417.98004  0.069247852  0.071030715            1 
  504000    1.0484298   -3.7551942    418.08078  0.069127112  0.070993216            3 
  505000    1.0537634   -3.7346243    419.10979  0.069160032  0.070958124            1 
  506000    1.0475477   -3.7221921    418.49846   0.06892267  0.070921536            2 
  507000    1.0609376   -3.7359378     419.2084  0.068903419  0.070883699            1 
  508000    1.0432984   -3.7494939    420.31361  0.068949083  0.070846572            3 
  509000    1.0267009   -3.7207034    421.38558  0.068989126  0.070809829            2 
  510000    1.0603313   -3.7409889    421.92213  0.068941524   0.07077163            1 
  511000    1.0627687   -3.7495344    422.49067  0.068899326  0.070733443           11 
  512000    1.0470463   -3.7550539     422.1625  0.068711345  0.070694805            2 
  513000     1.038125   -3.7493129    423.67514  0.068823122  0.070657327            4 
  514000    1.0598526   -3.7031713    425.91691  0.069052677  0.070620947            3 
  515000    1.0551792   -3.7344598    425.96645   0.06892661  0.070584308            3 
  516000    1.0778634   -3.7680917    425.25693  0.068678445  0.070548034            6 
  517000    1.0123607   -3.7261531      426.998  0.068826242  0.070511441            4 
  518000    1.0467554   -3.7313007    426.95247  0.068686048  0.070474773            1 
  519000    1.0462551   -3.7290819    427.76374  0.068683965  0.070437689            3 
  520000    1.0471678   -3.7346969    429.74999   0.06887019  0.070401546            2 
  521000    1.0528011   -3.7465867    428.42689  0.068526375  0.070366595            5 
  522000    1.0536917   -3.7276125    428.97086  0.068481938  0.070329868            2 
  523000    1.0361307   -3.7388574     429.3465  0.068410851  0.070291879            1 
  524000    1.0175062   -3.7358643    431.93737  0.068692329  0.070255893            5 
  525000    1.0443504   -3.7251217    429.80865  0.068223595   0.07021939            2 
  526000    1.0491631   -3.7332577    433.46667  0.068673426  0.070183451            4 
  527000    1.0584981   -3.7671611    433.38762  0.068530617   0.07014785            3 
  528000    1.0476984    -3.745442    433.48804  0.068416674  0.070111833            2 
  529000    1.0501493    -3.773446    432.63482  0.068152934  0.070074285            3 
  530000    1.0229564   -3.7574431    434.01464  0.068241296  0.070036906            4 
  531000    1.0233308   -3.7506459    433.99107  0.068109082  0.069998498            2 
  532000    1.0723484   -3.7559496    435.14624  0.068162005  0.069959459            1 
  533000    1.0263673   -3.7682893    434.30472  0.067902551  0.069920937            2 
  534000    1.0453931   -3.7272295       437.44  0.068264669   0.06988202            2 
  535000    1.0439243   -3.7878481    434.14482  0.067623804  0.069843699            3 
  536000    1.0471511   -3.7340768    437.31397  0.067990357  0.069804734            2 
  537000    1.0239033   -3.7756609    437.04352  0.067821776   0.06976669            2 
  538000    1.0623367   -3.7078494    440.48946   0.06822947  0.069728376            1 
  539000    1.0339499   -3.7742632    437.99456  0.067717156  0.069690349            4 
  540000    1.0246835   -3.7597972    440.14875   0.06792419  0.069652128            3 
  541000    1.0488197   -3.7339671    442.53394  0.068166041  0.069613623            2 
  542000     1.045691   -3.7923906    439.44962  0.067566054  0.069575496            2 
  543000    1.0453006   -3.7616342    442.40616  0.067895358  0.069537343            3 
  544000    1.0144571   -3.7351234    443.39381  0.067921847  0.069499745            2 
  545000    1.0558432   -3.7582216    440.37305  0.067335329  0.069462098            3 
  546000    1.0161673   -3.7582519    444.20581  0.067796979  0.069424797            5 
  547000    1.0369656   -3.7812305    444.00839  0.067642959  0.069387808            2 
  548000     1.031847   -3.7555085    446.66769  0.067923919  0.069350458            1 
  549000    1.0236034   -3.7808511    444.91288  0.067533831  0.069312626            3 
  550000    1.0213618   -3.7819404    447.02898  0.067731663  0.069275375            3 
  551000     1.044731   -3.7520896    449.16225  0.067931374  0.069238519            5 
  552000    1.0449749    -3.742446    447.76393  0.067597211  0.069201992            3 
  553000    1.0306114   -3.7882748    448.93462   0.06765139  0.069166684            3 
  554000    1.0275556   -3.7747296    448.69149  0.067492703  0.069130928            3 
  555000   0.99716999   -3.7502716    451.36572   0.06777263  0.069095493            3 
  556000    1.0374606   -3.7704999    451.38401  0.067653479  0.069060295            2 
  557000    1.0375092   -3.7617592    454.19478   0.06795254   0.06902495            1 
  558000    1.0073122    -3.782954    450.56657  0.067288914  0.068988777            2 
  559000    1.0110432   -3.7795016    451.42073  0.067295874  0.068952954            3 
  560000    1.0243083   -3.7845733    451.94671  0.067253975  0.068917604            1 
  561000    1.0454555   -3.7626852    453.74076  0.067400588  0.068883189            2 
  562000    1.0407215   -3.8051974    452.88747  0.067154133  0.068849085            4 
  563000    1.0200983    -3.786368     456.1266  0.067514298   0.06881616            2 
  564000    1.0282919   -3.7617415    457.79982  0.067641818  0.068782564            2 
  565000    1.0275577   -3.7794709    457.23439  0.067438701  0.068749895            4 
  566000    1.0075796   -3.8092777    458.28339  0.067473998  0.068719305            3 
  567000    1.0290657   -3.8016287    458.53178  0.067391502  0.068687003            2 
  568000    1.0142026   -3.7878187    461.77576  0.067748791  0.068655849            3 
  569000    1.0439987   -3.7556504     461.9958   0.06766195  0.068624019            4 
  570000    1.0448522   -3.7806111     462.6192  0.067634385  0.068593922            2 
  571000    1.0498748   -3.7532569    463.47204  0.067640403  0.068563926            1 
  572000    1.0104455   -3.7498783    463.19741  0.067482139  0.068532593            2 
  573000    1.0286389   -3.8087355    464.48395  0.067551476  0.068501733            3 
  574000    1.0303858   -3.7595328    464.04146   0.06736955  0.068471105            2 
  575000     1.025576   -3.7755362    465.84501   0.06751377   0.06844013            2 
  576000    1.0122945   -3.7583034    466.00573   0.06741981   0.06840937            2 
  577000    1.0236316   -3.7362205    468.91318  0.067722874  0.068379353            2 
  578000    1.0176761   -3.7586901    468.53041   0.06755052  0.068349009            2 
  579000     1.013632   -3.7862833     467.6188  0.067302648  0.068318848            3 
  580000    1.0350156   -3.7564285    469.20552  0.067414586  0.068288281            2 
  581000    1.0225673   -3.7721407    468.20445   0.06715497  0.068257335            3 
  582000    1.0259094   -3.7513011    468.57148  0.067092136  0.068224189            4 
  583000    1.0358114   -3.8180311     468.3344  0.066943168  0.068189836            9 
  584000    1.0365126   -3.7983666    469.88283   0.06704949  0.068156328            2 
  585000    1.0355546   -3.8026897    468.45507  0.066731491   0.06812302            2 
  586000    1.0074105   -3.7878465    469.60785  0.066781549  0.068090107            5 
  587000    1.0145743   -3.7897018    471.79021  0.066977599  0.068057017            4 
  588000   0.99694277   -3.7874926    472.39068  0.066948792  0.068025198            3 
  589000    1.0114063   -3.8084841    473.12406  0.066938888  0.067993995            2 
  590000    1.0257682   -3.7785331    474.99418  0.067089574  0.067963122            4 
  591000    1.0059517   -3.7839298    473.92706  0.066825586  0.067932129            4 
  592000    1.0120456   -3.7910579    475.48363  0.066931817  0.067901429            3 
  593000     1.006601   -3.7907937    476.72664  0.066993626  0.067872245            4 
  594000   0.98452699   -3.7749842    480.25105  0.067375287  0.067843025            2 
  595000    1.0179409   -3.7644363    479.98064   0.06722418  0.067814713            2 
  596000    1.0209534   -3.8071811    478.57971  0.066915507  0.067785778            5 
  597000    1.0085536   -3.7911333    479.59966  0.066945793  0.067756523            3 
  598000    1.0207527   -3.8071338    477.83277  0.066587621  0.067726817            3 
  599000    1.0117587    -3.803588    480.15622  0.066799697  0.067697852            3 
  600000   0.98822336   -3.8256363    480.25942  0.066702697  0.067668756            3 
  601000    1.0025272   -3.8166296    482.94254  0.066963746   0.06763922            2 
  602000    1.0038596   -3.7969244    481.88241  0.066705759  0.067609163            2 
  603000    1.0058006   -3.7910271    482.88515  0.066733713  0.067579643            2 
  604000    1.0078113    -3.782838    483.24112   0.06667234  0.067550937            3 
  605000    1.0148076   -3.7734679    485.71581  0.066903004  0.067522815            2 
  606000    1.0098491   -3.8147719    485.32303   0.06673859  0.067494419            3 
  607000    1.0118954   -3.8042785    487.01102  0.066860381  0.067466417            2 
  608000    1.0124465   -3.8265153    484.85548  0.066454972  0.067438436            4 
  609000    1.0096553    -3.819474    486.83083   0.06661615  0.067410253            6 
  610000    1.0272841   -3.7835778     490.6344  0.067026557  0.067382728            3 
  611000    1.0150661    -3.824689    488.91951  0.066682966  0.067354998            2 
  612000    1.0030806   -3.8280097     489.1259   0.06660211   0.06732594            2 
  613000   0.99275421   -3.8086684     489.3819  0.066528262  0.067298617            1 
  614000   0.98342198   -3.8025763     490.2563  0.066538586   0.06727073            2 
  615000   0.99656675   -3.8131436     490.9258  0.066521112  0.067243456            3 
  616000    1.0001238   -3.8128513    490.44823  0.066348515  0.067215245            3 
  617000    1.0038374   -3.8051252    492.36378    0.0664997  0.067186348            3 
  618000    1.0231345   -3.8132616    491.27163  0.066244826  0.067157899            3 
  619000    1.0149941   -3.8177547    492.55683  0.066310827  0.067128497            4 
  620000   0.98021295   -3.8141494     494.0337  0.066402378  0.067099732            6 
  621000    1.0102844   -3.7844226    494.30472   0.06633182  0.067070818            5 
  622000    1.0025505   -3.7861784    496.38727  0.066504189  0.067042899            3 
  623000    1.0158454   -3.7936253    495.04554  0.066217969  0.067014419            4 
  624000    1.0039881   -3.7939928    496.76416  0.066341368  0.066985778            1 
  625000    1.0236379   -3.8112944    498.31795  0.066442393  0.066958291            6 
  626000    1.0104915   -3.7967641    499.24558  0.066459742  0.066930837            4 
  627000   0.98903535   -3.7881688    499.41265  0.066375951  0.066903027            2 
  628000     0.995237     -3.81611    499.12348  0.066231884  0.066875887            7 
  629000   0.98784256   -3.7873854     502.5605  0.066581943   0.06684937            2 
  630000    1.0129552   -3.8089228     500.8032   0.06624381  0.066822545            3 
  631000    1.0210419   -3.7871575    502.69477  0.066388638  0.066795374            2 
  632000    1.0056467   -3.8294151    502.18119  0.066215874  0.066769517            3 
  633000    1.0039323   -3.8167703    501.62687  0.066038292  0.066742174            4 
  634000   0.98374929   -3.7949927    503.61285   0.06619517  0.066715442            3 
  635000    1.0086259    -3.799721    506.40473  0.066457313  0.066688357            3 
  636000   0.99445539   -3.8041455    504.74399  0.066135219  0.066661008            4 
  637000   0.99923899   -3.8443953    505.03079  0.066068915   0.06663322            2 
  638000   0.98266411   -3.8144077    505.14707  0.065980547  0.066606939            3 
  639000    1.0300839   -3.8089389    508.14391  0.066268116  0.066580297            5 
  640000    1.0182824   -3.8393969    507.27794  0.066051815  0.066553657            2 
  641000   0.99848883   -3.8341436    506.24125  0.065813995  0.066526933            4 
  642000   0.99650194   -3.8474117    507.07548  0.065819767  0.066500033            2 
  643000    1.0086263    -3.819586    509.68719  0.066055882  0.066472594            3 
  644000   0.98220153   -3.8242838    510.15892  0.066014353  0.066445985            3 
  645000   0.98103919   -3.8053648    509.22519  0.065791368  0.066419892            3 
  646000   0.98656227   -3.8480731     509.1782  0.065683462  0.066393542            2 
  647000   0.98575489   -3.8329478    512.51423  0.066011621  0.066366517            3 
  648000   0.96606049   -3.8047622    512.80541  0.065947198   0.06633974            2 
  649000   0.97935162   -3.8487633    513.01276  0.065872209  0.066312953            1 
  650000    1.0023163   -3.8313048    513.82558  0.065875074  0.066286522            2 
  651000    1.0006515   -3.8299954    513.87436  0.065780129  0.066260457            4 
  652000   0.98000756   -3.8351975    513.95574  0.065689639  0.066234166            1 
  653000   0.99421012   -3.8521197    515.03952   0.06572735  0.066207569            3 
  654000   0.99008007   -3.8390895    516.95015  0.065870305  0.066181593            3 
  655000   0.99547678   -3.8114125    516.95315   0.06577012  0.066156462            2 
  656000   0.99630651   -3.8517835    517.47353  0.065735966  0.066130342            1 
  657000    1.0073082   -3.8365448    517.23723   0.06560594  0.066106352            2 
  658000   0.98091144   -3.8329099    517.20567  0.065502238  0.066080627            4 
  659000   0.97247026   -3.8505291    519.15147  0.065648896  0.066054525            4 
  660000    0.9739979   -3.8033964    521.24397  0.065813632  0.066030126            4 
  661000    1.0187217   -3.8298559    522.02225  0.065812185  0.066005464            6 
  662000   0.99220889   -3.8174452    523.26242  0.065868884  0.065980447            2 
  663000    1.0047131   -3.8206355    522.48731   0.06567211  0.065956565            2 
  664000   0.98344396   -3.8098579    523.79118  0.065736845  0.065932129            5 
  665000   0.99423065   -3.8731933    523.69632  0.065626106  0.065907608            3 
  666000   0.99272776   -3.8403187    524.24957  0.065596793  0.065883389            3 
  667000   0.99583451   -3.8608612     524.2946  0.065504073   0.06585811            2 
  668000   0.98848126   -3.8072379    527.37528  0.065790329  0.065834646            5 
  669000     1.013419   -3.8366932    525.40285  0.065446295  0.065809773            2 
  670000   0.98224606   -3.8484949    527.96309  0.065667051  0.065784237            3 
  671000   0.98929522    -3.841428    529.09091  0.065709253   0.06575999            4 
  672000   0.99539496   -3.8587861    530.38469   0.06577191  0.065735541            3 
  673000   0.97588186   -3.8450361    529.87208  0.065610708  0.065710906            4 
  674000   0.98383616   -3.7904841    529.32327  0.065445508  0.065686588            2 
  675000   0.98264317   -3.8551659    528.49121  0.065245829  0.065661386            5 
  676000   0.99190085   -3.8480539    529.58228  0.065283812  0.065637081            4 
  677000   0.95029343   -3.8310402    531.37067  0.065407517  0.065612404            2 
  678000   0.99013615   -3.8335856    531.51735  0.065329074  0.065588301            1 
  679000   0.97718467   -3.8072162    535.31675  0.065699159  0.065564344            2 
  680000   0.99529296   -3.8134257    535.19514   0.06558764  0.065540776            2 
  681000   0.97362311   -3.8496499    535.17821  0.065489257  0.065518405            2 
  682000   0.97565672   -3.8451812    533.52758  0.065191543  0.065494279            3 
  683000   0.94769668   -3.8279861    535.20171  0.065300355  0.065470038            4 
  684000   0.98068932   -3.8571295    533.88616   0.06504461  0.065446059            5 
  685000   0.99653642   -3.8360125    538.79684  0.065547061  0.065421473            3 
  686000   0.99968883   -3.8531204    536.92041  0.065223567  0.065398004            4 
  687000   0.99063349   -3.8386624    538.45268  0.065314493  0.065374413            2 
  688000   0.98790891   -3.8400011    537.57599  0.065113371  0.065351369            4 
  689000   0.97405205   -3.8677071    539.17468  0.065212225  0.065327678            4 
  690000    0.9784289   -3.8412655    539.29881  0.065132706  0.065303399            3 
  691000    0.9607784   -3.8709148     539.8201  0.065101314  0.065279627            8 
  692000   0.99436749   -3.8517683    540.01677  0.065030921  0.065255674            2 
  693000   0.97274479   -3.8460028    542.63314  0.065251701  0.065232206            1 
  694000   0.97163791   -3.8628961    539.79226  0.064816553  0.065208941            6 
  695000   0.97385189   -3.8416077    542.62195  0.065062584   0.06518506            2 
  696000   0.95565235   -3.8721334    543.50828  0.065075225  0.065161335            4 
  697000    1.0054473   -3.8502719    544.83197  0.065140121  0.065137506            5 
  698000   0.97697122   -3.8513986    545.38549   0.06511288  0.065114406            6 
  699000   0.97538521   -3.8769407    545.08081  0.064983406  0.065091456            6 
  700000    0.9692153   -3.8814061    545.32118  0.064919188  0.065066296            4 
  701000   0.98260837   -3.8424357     545.1651  0.064808024  0.065041594            4 
  702000   0.98142873   -3.8792398    544.63214  0.064652438  0.065017634            2 
  703000   0.98460806   -3.8677062    546.29317  0.064757369  0.064992286            3 
  704000    0.9708088   -3.9107918    543.53084  0.064338404  0.064965703            5 
  705000   0.98847448   -3.8495494    545.76574  0.064511317  0.064939029            4 
  706000   0.97986932   -3.8777648    546.35711  0.064489743  0.064912711            2 
  707000   0.97406463    -3.877858    545.39609  0.064285254  0.064887223            3 
  708000   0.98200944   -3.8605095    547.84713  0.064482948  0.064861225            3 
  709000   0.96186455   -3.8660424    549.61614  0.064599922   0.06483612            3 
  710000   0.95987221   -3.8785245    549.43559  0.064487746  0.064810553            2 
  711000   0.98360329   -3.8699252     549.4248  0.064395781  0.064784822            5 
  712000   0.94807239   -3.8728477    549.87406  0.064357919  0.064759414            3 
  713000   0.97408102   -3.8536282    551.40803  0.064446941  0.064733851            1 
  714000   0.97419242   -3.8323874    552.40651  0.064473215  0.064708598            4 
  715000   0.96828513   -3.8477017    549.98109   0.06410036  0.064683241            3 
  716000   0.96976793   -3.8515655    555.29514  0.064629323  0.064658272            3 
  717000   0.96307108   -3.8758717    551.25628  0.064069768  0.064632953            4 
  718000   0.96549554   -3.8631608    553.92652   0.06429045  0.064607235            3 
  719000   0.96778507   -3.8884626    553.15924  0.064112105  0.064581548            8 
  720000   0.97600747   -3.8685668    554.89165   0.06422357  0.064555461            3 
  721000   0.95104068   -3.8939797    553.70324  0.063997138   0.06452932            4 
  722000   0.96217517   -3.8751081    556.10469  0.064185676  0.064503652            3 
  723000   0.97846591   -3.8849843    557.31564  0.064236473   0.06447876            2 
  724000   0.95735571   -3.8893671    560.12078  0.064470624  0.064453458            2 
  725000   0.95492434   -3.8982259    557.52589  0.064083436  0.064429023            2 
  726000   0.97084664   -3.8490708    559.33243  0.064202529  0.064403987            2 
  727000   0.95380502   -3.8864393    560.99904  0.064305255  0.064379733            2 
  728000    0.9584548   -3.8860237    558.86571  0.063972723  0.064354424            5 
  729000   0.96040763   -3.8531471    560.22353  0.064040184  0.064328999            2 
  730000   0.95285659   -3.9042386    558.75543  0.063784866  0.064303633            2 
  731000   0.96731961   -3.8612386    564.04925    0.0643011  0.064278465            3 
  732000   0.97185035   -3.8639768    563.95851  0.064202927  0.064254289            3 
  733000   0.97302949   -3.8672109    563.69362  0.064085222  0.064229481            5 
  734000   0.95641986   -3.8735159    562.30396   0.06384014  0.064204621            3 
  735000   0.94667505   -3.8657888    564.87605  0.064044904  0.064179753            4 
  736000   0.94642465   -3.8897253    565.39427  0.064016562  0.064154838            3 
  737000   0.95745728   -3.8699059    564.29784  0.063805726   0.06412933            3 
  738000   0.95928134   -3.8755659    562.75398  0.063544939  0.064105012            4 
  739000   0.97084352    -3.894136    565.23215  0.063738402  0.064079665            6 
  740000   0.94915048   -3.9078027    566.40678  0.063784547  0.064054296            5 
  741000   0.95204654   -3.8776854    567.41228  0.063811547  0.064028383            6 
  742000   0.95789457   -3.8656789    567.53065  0.063738842  0.064002348            3 
  743000   0.95746425   -3.9018422    567.27214  0.063624062  0.063976358            3 
  744000   0.97294241   -3.8681601     570.3253  0.063880522  0.063950904            6 
  745000   0.96233384    -3.908565     568.0304  0.063538077  0.063925666            3 
  746000   0.95062139   -3.8741049    568.33094  0.063486477  0.063900379            3 
  747000   0.92243964   -3.8856567    569.93363  0.063580279  0.063874826            4 
  748000   0.95608738   -3.8594228    571.14604  0.063630352  0.063848979            8 
  749000   0.94156173   -3.9224106    569.60684  0.063374148  0.063823689            5 
  750000    0.9728507   -3.9077971     570.8201  0.063424456  0.063798648            3 
  751000   0.95842603   -3.9146501     570.0134  0.063250488  0.063773421            4 
  752000   0.95197704   -3.8896521    573.10262  0.063508712  0.063747456            2 
  753000   0.96936593   -3.8818621    574.51894  0.063581114  0.063722233            2 
  754000   0.93970734   -3.8621236    572.36635  0.063258881  0.063696827            3 
  755000   0.94589482   -3.8921862    573.77723   0.06333082  0.063671337            4 
  756000   0.93642838   -3.8663657    574.85367  0.063365705  0.063645555            5 
  757000   0.95221793   -3.9028192    575.20634  0.063320822  0.063620219            2 
  758000   0.92809353   -3.9127148    574.00748  0.063105483  0.063594877            2 
  759000   0.94729517   -3.8883674    579.13498  0.063585307  0.063569759            4 
  760000   0.96660491   -3.8965218    577.65063  0.063338885  0.063544768            2 
  761000   0.94412329   -3.9031572    577.30435  0.063217734  0.063519974            3 
  762000   0.95794471   -3.9109441    577.66001  0.063173667  0.063495458            5 
  763000   0.94023498   -3.8909401    578.82114  0.063217687  0.063470922            2 
  764000   0.95637068   -3.9011837    579.10943  0.063166386  0.063446097            8 
  765000   0.95631389   -3.8895087    579.40486  0.063115997  0.063421655            2 
  766000   0.94611233   -3.8877775    580.75166   0.06318012  0.063396817            2 
  767000    0.9482161   -3.9275049    579.14118  0.062922771  0.063371783            5 
  768000    0.9461471   -3.8848838    580.29269  0.062965787  0.063346386            1 
  769000   0.93687396   -3.9327525    580.24105   0.06287831  0.063320293            5 
  770000    0.9462696   -3.9018562    581.56757  0.062940213   0.06329418            3 
  771000   0.94518369   -3.9117496    580.86202  0.062782319  0.063267653            3 
  772000   0.94878499   -3.8757292      584.534  0.063097366  0.063241134            4 
  773000   0.94400477   -3.9347072    578.50416  0.062365692  0.063214369            2 
  774000   0.96704046   -3.9269136    582.48655  0.062713884  0.063186668            4 
  775000   0.94954899   -3.8943781    581.85163  0.062564691  0.063159449            9 
  776000   0.92991216   -3.8803359    582.56287  0.062560446  0.063133445            2 
  777000   0.93582931     -3.91429    584.41615  0.062678695  0.063107254            5 
  778000   0.95217568   -3.9018144    584.51632   0.06260886  0.063081254            2 
  779000   0.94337022   -3.9058306    584.44757  0.062521135  0.063054705            7 
  780000   0.93213968   -3.9202425    585.09334  0.062509972  0.063028534            1 
  781000   0.95472607   -3.9099697    585.71354  0.062496109  0.063001657            5 
  782000   0.95055845   -3.8993165    587.03701  0.062557226  0.062975201            2 
  783000   0.94904478   -3.9043952      589.536  0.062743295   0.06294901            2 
  784000   0.95543418   -3.8891877    590.39304  0.062754362  0.062923343            3 
  785000   0.92497619   -3.9193346     591.3055  0.062771285  0.062897568            3 
  786000   0.92163765   -3.8994461    589.88312  0.062540619  0.062871664            3 
  787000   0.96155918   -3.8997913    592.13886  0.062700006  0.062845731            6 
  788000   0.92105857   -3.9202337    590.59691  0.062457373  0.062819598            4 
  789000   0.93079454   -3.9156851    591.08167  0.062429412  0.062793437            3 
  790000   0.94345905   -3.9129603     592.5602   0.06250635  0.062767618            3 
  791000    0.9213988   -3.9211541    590.47188  0.062207319  0.062741231            2 
  792000   0.95875639   -3.9320539    590.20276  0.062100458  0.062714424            3 
  793000   0.93156625   -3.9017224    593.24877  0.062342242  0.062687378            5 
  794000    0.9402553   -3.9352463      591.966  0.062129093  0.062660518            7 
  795000   0.93108578   -3.8970589    593.25849  0.062186425  0.062633474            7 
  796000    0.9342944   -3.9102726     591.7366  0.061948974  0.062606304            2 
  797000   0.93816193   -3.8975204    594.78414  0.062189894  0.062579106            3 
  798000   0.92886181   -3.8923959    595.89495  0.062227961  0.062552184            4 
  799000   0.94270736   -3.9120883    596.89631  0.062254518  0.062525162            6 
  800000   0.92639298   -3.9048193    593.29379  0.061801436   0.06249767            4 
  801000   0.92677758   -3.9185933    595.02548   0.06190444  0.062469342            3 
  802000   0.94059395   -3.9172357    596.11304  0.061940258  0.062441793            6 
  803000   0.92914227     -3.91928    595.79146  0.061829749  0.062413904            5 
  804000    0.9243455   -3.8824072    597.14508  0.061893147  0.062386326            6 
  805000   0.93744821   -3.9049553     597.4561  0.061848457  0.062359312            6 
  806000   0.91810679   -3.9293634    597.46811  0.061772964  0.062331124            2 
  807000   0.92941235   -3.9175794    598.66712  0.061820231  0.062303554            4 
  808000   0.93193231   -3.9183348    597.43951  0.061617111  0.062275364            3 
  809000   0.94869691   -3.9146677    600.61274  0.061867814  0.062247063            2 
  810000   0.93336992   -3.9078406    598.98764  0.061624243   0.06221877            4 
  811000   0.94078851    -3.929741    600.13607  0.061666262  0.062190683            5 
  812000   0.94178131   -3.9220981    599.42932  0.061517787  0.062162424            2 
  813000   0.92556978   -3.8955669    603.20213  0.061828837  0.062134649            8 
  814000    0.9264817   -3.8991201    604.27502  0.061862717  0.062106769            4 
  815000   0.94378329   -3.9276337    602.28193  0.061583019  0.062078715            4 
  816000    0.9163834   -3.9348036    599.22563  0.061195428  0.062050299            2 
  817000   0.91063424    -3.905841    602.49362  0.061453857  0.062021928            3 
  818000   0.94351937   -3.9225231    600.62439  0.061188304  0.061992767            2 
  819000   0.92746111   -3.9105364    600.60171  0.061111285  0.061963682            2 
  820000   0.96523607   -3.8833639     603.3296  0.061313984  0.061934458            4 
  821000   0.91844036   -3.9320744    603.62372  0.061269155  0.061905184            6 
  822000   0.91526904    -3.947312    599.76748  0.060803678  0.061875308            2 
  823000   0.92706052   -3.9519972    605.35472  0.061295537  0.061846587            2 
  824000   0.92671469   -3.9298263    602.48618  0.060931045  0.061817905            3 
  825000   0.91972101   -3.9363112    606.29676  0.061242097  0.061788881            4 
  826000   0.93363183   -3.9136451    604.81112  0.061018071  0.061759694            2 
  827000   0.92229281   -3.9012251    607.57964   0.06122326  0.061731471            4 
  828000   0.92013682   -3.9404052    604.03138  0.060792208  0.061702067            3 
  829000   0.94326146   -3.9341689    607.18768  0.061036156  0.061672947            2 
  830000   0.92690519   -3.9061772    607.91567   0.06103571  0.061644443            3 
  831000   0.92593291   -3.9365307    609.22817   0.06109388  0.061615928            7 
  832000   0.93887908   -3.9421281    609.28873  0.061026516  0.061587965            4 
  833000   0.91745303   -3.9655035    609.48035  0.060972424  0.061559503            3 
  834000   0.91015857   -3.9258752    610.94272  0.061045436  0.061531347            3 
  835000   0.92507679   -3.9577255     611.4052  0.061018483  0.061503301            5 
  836000   0.90862429   -3.9246386    610.87464  0.060892608  0.061475416            3 
  837000   0.92884962   -3.9211664    608.33159  0.060566666  0.061447182            3 
  838000   0.90585711   -3.9405701    612.99991  0.060958623    0.0614192            5 
  839000   0.92726828   -3.9486756    613.93264  0.060978609  0.061391451            4 
  840000   0.92255413   -3.9222333    612.64331  0.060778106  0.061363444            3 
  841000   0.93071078   -3.9560682    611.41392  0.060584019  0.061334845            6 
  842000   0.90784173   -3.9364313    614.29258   0.06079697  0.061306122            5 
  843000   0.92901035   -3.9432295    614.09546  0.060705364    0.0612771            5 
  844000   0.90354843   -3.9618649    615.48588  0.060770722  0.061248791            3 
  845000   0.93124069    -3.938073    614.86694  0.060637766  0.061220121            3 
  846000   0.89151693    -3.968166    614.74671  0.060554246  0.061191623            4 
  847000   0.90858965   -3.9450339    616.27098  0.060632721    0.0611629            4 
  848000   0.91480733   -3.9597577    617.40562  0.060672722  0.061134695            2 
  849000   0.91757068   -3.9417846    616.74296  0.060536215  0.061105633            4 
  850000   0.89507022   -3.9327049     617.5409  0.060543226  0.061076464            4 
  851000   0.92194655   -3.9654653    614.26104  0.060150904  0.061046495            2 
  852000   0.92385877    -3.969862    616.18847  0.060268825  0.061016368            2 
  853000   0.90493187   -3.9485839    615.69437    0.0601499  0.060986448            3 
  854000   0.91526258   -3.9647843    615.63173  0.060073353  0.060956913            3 
  855000   0.90909148   -3.9419874    617.55856  0.060190893  0.060928186            2 
  856000   0.91716171     -3.94531     617.2069  0.060086342  0.060899029            4 
  857000   0.91599716   -3.9702315    618.64223  0.060155798  0.060869723            6 
  858000   0.90463132   -3.9166538    618.76959  0.060098056  0.060840504            4 
  859000   0.89594329   -3.9632108     616.4559  0.059803638  0.060810705            3 
  860000   0.90089212   -3.9709367    622.34335  0.060304588  0.060780768            3 
  861000   0.90600851   -3.9489941    620.57816  0.060063701  0.060751123            2 
  862000   0.88659838   -3.9664032    620.75412  0.060011033  0.060721231            5 
  863000    0.9115857   -3.9603848    623.31183  0.060188473  0.060691665            3 
  864000   0.89429757   -3.9936071    620.38764  0.059836771  0.060661418            3 
  865000   0.92627938   -3.9583635    622.68232  0.059988662  0.060631143            3 
  866000   0.91324629    -3.952886    620.06305  0.059667345  0.060601283            3 
  867000   0.89142045   -3.9717679    621.71025  0.059756849  0.060571153            8 
  868000   0.92696958   -3.9527276    622.31444   0.05974601  0.060541053            4 
  869000   0.89416194   -3.9583865    621.41862  0.059591352  0.060511382            4 
  870000   0.89699365   -3.9671085    624.33184    0.0598019  0.060481894            3 
  871000   0.90293869   -3.9642305    624.51594  0.059750855  0.060452309            7 
  872000   0.93117701   -3.9708473    622.96093  0.059533728  0.060422059            5 
  873000   0.92043245   -3.9653865    622.18541  0.059391506  0.060391552            2 
  874000   0.89823972   -3.9660499    624.48052  0.059542383  0.060360264            4 
  875000   0.89400042    -3.965043    623.38775  0.059370262   0.06032904            4 
  876000   0.90973505   -3.9384486    626.68639  0.059616286  0.060298151            5 
  877000   0.91027961    -3.937203     624.8478  0.059373603  0.060266786            3 
  878000   0.90108145   -3.9984792    621.85687  0.059022103  0.060235473            2 
  879000   0.89500543   -3.9587359    624.65307  0.059220048  0.060203429            3 
  880000   0.90619793   -3.9591083    624.98399   0.05918409  0.060171858            2 
  881000    0.9162986   -3.9927267    624.33864  0.059055869   0.06014002            7 
  882000   0.89651909   -3.9672961    624.85272  0.059037483  0.060108423            6 
  883000   0.90199063   -3.9875344    626.65037  0.059140277  0.060076263            1 
  884000   0.89470421    -3.952187    625.79278  0.058992532  0.060044676            3 
  885000   0.88680794   -3.9777611    625.91918  0.058937776   0.06001275            6 
  886000   0.88784491   -3.9131971     628.7243  0.059135092  0.059980423            3 
  887000   0.88574322   -3.9808661    625.55578  0.058770742  0.059949594            4 
  888000   0.88245909   -3.9899459    627.14345  0.058853552  0.059918533            7 
  889000   0.89212964   -3.9567182    629.46553  0.059005018  0.059887566            5 
  890000   0.89401653   -3.9350302    631.18251  0.059099486  0.059856137            3 
  891000   0.91546264   -3.9700412    629.77535  0.058901548  0.059824744            3 
  892000   0.89373608   -3.9790458    631.31659  0.058979502  0.059792809            3 
  893000   0.89485134   -3.9852394    631.99427  0.058976696  0.059761038            3 
  894000   0.89516694   -4.0124765    629.68856  0.058695801  0.059729449            5 
  895000   0.89834428   -3.9815197    628.19752  0.058491389  0.059697234            3 
  896000   0.91908677   -4.0167352    629.53615  0.058550609  0.059665307            3 
  897000   0.90067833   -3.9743336    630.64478   0.05858833  0.059633807            5 
  898000   0.89957861   -3.9907871    633.34906  0.058774041  0.059602159            3 
  899000    0.9007693   -3.9800684    635.02914  0.058864399   0.05957092            2 
  900000   0.91955144   -4.0203268    633.18102  0.058627872  0.059540431            2 
  901000   0.89259583   -3.9682653    633.72752  0.058613348  0.059509426            5 
  902000   0.89400524   -3.9733764     633.7376  0.058549297  0.059478671            3 
  903000   0.92048274    -3.992867    634.28702  0.058535162  0.059447291            5 
  904000   0.89110333   -3.9693014    635.25847  0.058559962  0.059416212            1 
  905000   0.89113851   -4.0074464    635.06045  0.058477021  0.059385151            2 
  906000   0.90220672   -4.0152722    635.00447  0.058407328  0.059354076            5 
  907000   0.87876823   -3.9511452    638.68195  0.058680811  0.059323754            3 
  908000   0.90447828   -3.9926642    638.12148  0.058564747  0.059293396            4 
  909000   0.88102635   -3.9866079    639.73379  0.058648129   0.05926342            8 
  910000   0.89653317   -3.9987917    639.18739  0.058533644  0.059232813            3 
  911000   0.88014473   -3.9656731    644.19648  0.058927596  0.059202717            4 
  912000   0.90416332   -3.9728237    639.82782    0.0584638  0.059172972            4 
  913000   0.89404484   -4.0113976    640.26859  0.058439995   0.05914277            2 
  914000   0.89979885   -4.0127077    641.97597  0.058531726  0.059112401            5 
  915000   0.88576249   -3.9889277    642.46363   0.05851217  0.059082044            2 
  916000   0.88781522   -3.9989326    638.83021  0.058117741  0.059051502            3 
  917000   0.87312878   -3.9749433    641.10223  0.058260835  0.059020734            3 
  918000   0.90265035   -4.0140905    641.44058  0.058228085  0.058990177            4 
  919000   0.89740747   -3.9633557    644.38814  0.058432004  0.058960094            2 
  920000   0.87405648   -3.9828164    641.59269   0.05811528  0.058929817            5 
  921000   0.88112946   -4.0170109    642.83864  0.058164915  0.058899291            4 
  922000   0.89151765   -4.0077468     642.0762  0.058032918  0.058868578           10 
  923000   0.89520452    -3.962275    645.50829  0.058279911  0.058838307            4 
  924000   0.89308005   -4.0036289    644.27824  0.058105902  0.058807779            6 
  925000   0.86867092   -4.0198153    641.27766  0.057772762  0.058776559            4 
  926000   0.88400017   -3.9951643    642.93819  0.057859808  0.058745479            3 
  927000   0.88193974    -3.983709    644.26302  0.057916489   0.05871495            2 
  928000   0.88562495   -4.0223247    644.49833  0.057875209  0.058683926            3 
  929000   0.88886105   -4.0183687    646.45226  0.057988183  0.058653418            3 
  930000   0.88068228   -4.0100195    646.11549  0.057895653  0.058622346            3 
  931000    0.9082986   -3.9747047     644.8051  0.057716175  0.058591375            3 
  932000    0.8637488   -4.0031236    645.35146  0.057703099  0.058560679            5 
  933000   0.87233856   -4.0191299     645.7439  0.057676304  0.058529575            2 
  934000   0.88042008   -4.0230613    645.00971  0.057549046    0.0584986            3 
  935000   0.86932762   -4.0245124    646.20825  0.057594319  0.058467721            3 
  936000   0.90744721   -4.0259913    644.90508  0.057416763  0.058436426            4 
  937000   0.87616735   -4.0123138    646.17291  0.057468241  0.058405133            2 
  938000    0.8846007   -4.0122705    645.66923  0.057362227  0.058373822            2 
  939000   0.89248906   -4.0273606    648.83983  0.057582519  0.058342903            5 
  940000    0.8788482   -4.0395024    648.43409  0.057485292  0.058311609            6 
  941000   0.89845705   -4.0041266    650.63361  0.057618988  0.058281262            3 
  942000   0.86694024   -4.0319274    647.61841  0.057291084  0.058250799            3 
  943000    0.8588747   -4.0355072     650.7173   0.05750418  0.058220155            5 
  944000    0.8628871   -4.0106348    652.31964  0.057584714  0.058189696            6 
  945000   0.87424304   -4.0045673    653.16113  0.057597983  0.058159081            6 
  946000   0.88925261   -4.0346542    650.48076  0.057300983  0.058128105            6 
  947000   0.87957324   -4.0082197    651.29663  0.057312269  0.058097877            2 
  948000   0.88658583   -3.9836835    653.44479  0.057440646  0.058067439            5 
  949000   0.88085645   -4.0289513    652.00779  0.057253933    0.0580372            6 
  950000   0.90405689   -4.0077566    652.82017  0.057264927  0.058006717            4 
  951000   0.87376221   -4.0088611    652.39924  0.057167827  0.057976657            5 
  952000   0.87688404   -4.0502657    654.50722  0.057292299  0.057946664            5 
  953000   0.85578741   -4.0269879    653.55825    0.0571492  0.057916438            4 
  954000   0.87900841   -4.0216081    653.45769  0.057080511   0.05788655            2 
  955000   0.88713674   -4.0133632    656.55524  0.057291033  0.057856687            4 
  956000   0.87692981   -3.9996936    658.19486  0.057374029  0.057826817            5 
  957000   0.88674422   -4.0039041    657.16338  0.057224258   0.05779685            2 
  958000   0.89199755   -4.0160339    658.91798  0.057317152  0.057766671            3 
  959000    0.8628857   -4.0578022     655.9156  0.056996489  0.057736769            2 
  960000   0.86889795   -4.0251694     657.1268  0.057042257  0.057706692            7 
  961000   0.89202513   -3.9987161     658.4062  0.057093843  0.057676641            7 
  962000   0.87081936   -4.0009291    658.41792  0.057035509  0.057647108            4 
  963000   0.87514211   -4.0295921    657.38327  0.056886749  0.057617563            5 
  964000   0.86196378   -4.0490051    657.28309  0.056819077  0.057587667            4 
  965000   0.87654629   -4.0366228     659.8091  0.056978333  0.057557746            6 
  966000   0.88384206     -4.03014    659.32256  0.056877377  0.057527991            2 
  967000   0.88596404   -4.0319808    659.14393  0.056803165   0.05749813            4 
  968000   0.85666886   -4.0133203    661.28913  0.056929161  0.057468198            8 
  969000   0.87182652   -4.0392856    660.76553  0.056825381  0.057438613            6 
  970000   0.87841694   -4.0245201    662.98706  0.056957651  0.057409132            4 
  971000   0.85725136   -4.0202145    662.88259  0.056890027  0.057380202            2 
  972000   0.88500903   -4.0383464    660.56986  0.056633219  0.057350827            2 
  973000   0.86257089   -4.0306967    663.00476  0.056783552  0.057321448            3 
  974000   0.86035258   -4.0408075    664.03317  0.056813242  0.057292296            4 
  975000   0.85994055   -4.0161526    664.91721   0.05683053  0.057263258            3 
  976000    0.8503277   -4.0373906    663.74918  0.056672574  0.057234348            7 
  977000   0.84914713   -4.0283973    664.60691  0.056687727  0.057205278            3 
  978000   0.84905631   -4.0253972    666.70466  0.056808509   0.05717629            2 
  979000   0.86562124   -4.0482946    664.20557  0.056537757  0.057147177            5 
  980000   0.87658728    -4.057702    666.42345   0.05666866  0.057117903            4 
  981000   0.85417669   -4.0391125    666.45367  0.056613462  0.057088814            5 
  982000   0.85807439   -4.0215165    666.14671  0.056529761  0.057059393            2 
  983000    0.8551226   -4.0257292    667.89915  0.056620817  0.057030632            4 
  984000   0.85050406   -4.0615505    666.73287  0.056464505  0.057001726            5 
  985000   0.85057751   -4.0293309    668.94642  0.056594452  0.056972726            3 
  986000   0.86403469   -4.0264126    668.02016  0.056458769  0.056944384            5 
  987000   0.86403174   -4.0488586    668.33666  0.056428289  0.056915566            3 
  988000   0.84827038   -4.0458917    669.43793  0.056464063  0.056887167            3 
  989000   0.86957878   -4.0593842    667.64236  0.056255676  0.056858218            2 
  990000   0.84183993    -4.030595    669.67559  0.056369999  0.056829254            4 
  991000   0.85902112   -4.0355264    669.28157  0.056279984  0.056800707            4 
  992000   0.86327392   -4.0274833    671.89388  0.056442698  0.056772316            6 
  993000   0.86167216   -4.0304866     672.2051  0.056411976  0.056743518            5 
  994000   0.85241805   -4.0580746    670.92634  0.056248016  0.056714943            4 
  995000    0.8630539   -4.0352306    671.66379  0.056253249  0.056686856            3 
  996000   0.83904347   -4.0421936    671.26208  0.056163159  0.056658342            3 
  997000   0.85900365   -4.0497055    671.66704  0.056140676  0.056629841            7 
  998000   0.86217109    -4.021296    676.05578  0.056450884  0.056601869            3 
  999000   0.84874842   -4.0718003     673.0266  0.056141692  0.056573605            9 
 1000000   0.86753494   -4.0342647    676.41807  0.056368172  0.056545183            5 
 1001000   0.84269918   -4.0586027    674.68646  0.056167704  0.056517184            7 
 1002000   0.86532103   -4.0752614    677.72168  0.056364078  0.056489008            4 
 1003000   0.83427543   -4.0588555    676.23035  0.056183977  0.056460732            4 
 1004000   0.83878272   -4.0406389    677.66074  0.056246741  0.056432666            2 
 1005000    0.8601189   -4.0555578    678.08106  0.056225626  0.056405141            4 
 1006000   0.82399663   -4.0652636    674.96127  0.055911305  0.056377001            2 
 1007000   0.84943813   -4.0619713    675.96149  0.055938554  0.056348932            5 
 1008000   0.85762408   -4.0553145    678.80886  0.056118457  0.056320898            5 
 1009000   0.85688648   -4.0575455    679.15066  0.056091068  0.056293466            6 
 1010000   0.86411184   -4.0794457     678.5322  0.055984505  0.056265954            7 
 1011000   0.87603911   -4.0640632    681.28388  0.056155941  0.056238047            2 
 1012000   0.85252797   -4.0614355    680.66535  0.056049518  0.056210393            8 
 1013000   0.85421766   -4.0907416     680.4202  0.055974021   0.05618303            4 
 1014000   0.86364549   -4.0865824    677.76943  0.055700972  0.056155409            6 
 1015000    0.8359799   -4.0548613    682.21038  0.056010704  0.056127987            2 
 1016000   0.84984031   -4.0327873    681.41594  0.055890415  0.056100706            4 
 1017000   0.84797604   -4.0629587    681.35804  0.055830715  0.056073382            4 
 1018000   0.84832595   -4.0444829    681.31981  0.055772742  0.056045978            6 
 1019000   0.83092313   -4.0635923     681.9413  0.055768834   0.05601846            3 
 1020000    0.8308347   -4.0698797    679.86731  0.055544715   0.05599076            4 
 1021000   0.86758309   -4.0615893    682.49232  0.055704565  0.055963188            4 
 1022000   0.85318031   -4.0788809    684.32675  0.055799637    0.0559357            7 
 1023000   0.84489174   -4.0772829    683.25378  0.055657689  0.055908252            5 
 1024000   0.85284448   -4.0434745     684.7867  0.055728084  0.055880908            2 
 1025000    0.8455958   -4.0330395    685.92452  0.055766221  0.055853754            5 
 1026000   0.85934882   -4.0714706    686.97182  0.055796931  0.055827206            4 
 1027000   0.84030279   -4.0662675    688.09025  0.055833354  0.055800413            4 
 1028000    0.8553569   -4.0682109    688.34797  0.055799933  0.055774167            6 
 1029000   0.86307941   -4.0758236    688.89238  0.055789794  0.055747709            4 
 1030000   0.85315275   -4.0556371    688.72224  0.055721864  0.055721235            3 
 1031000   0.85102621   -4.0863877    690.92567  0.055845916  0.055694923            2 
 1032000   0.84799137   -4.0737504    689.85766  0.055705561  0.055668303            3 
 1033000   0.83836228   -4.0513867    690.93929  0.055738891  0.055641855            2 
 1034000   0.85039148   -4.0780028    689.62074  0.055578719  0.055615086            4 
 1035000   0.84955132   -4.1298992    687.58969  0.055361488  0.055588669            3 
 1036000   0.83765847   -4.0553578    690.38257  0.055532704   0.05556207            5 
 1037000   0.84461808   -4.0624061    690.47463   0.05548655  0.055535744            5 
 1038000   0.83104397   -4.0933543     689.1824  0.055329351  0.055509076            2 
 1039000   0.85407193    -4.068385    689.95903  0.055338389  0.055481866            2 
 1040000   0.85057322   -4.0855216    690.15411   0.05530081  0.055455212            5 
 1041000   0.84653189   -4.0616268    691.85296  0.055383682   0.05542842            7 
 1042000    0.8535854   -4.0679532    691.72299  0.055320137  0.055401401            5 
 1043000   0.83911115   -4.0566138    690.25714  0.055149979  0.055374093            5 
 1044000   0.85275511   -4.0803572    690.73459  0.055135264  0.055347293            7 
 1045000   0.82715906   -4.0937447    691.99205  0.055182779  0.055320203            2 
 1046000   0.84895909   -4.0794652    692.70577  0.055186884  0.055293008            6 
 1047000   0.84529513   -4.0748558    691.12989  0.055008747  0.055265467            6 
 1048000   0.83092575   -4.0918888    692.22844   0.05504361  0.055237871            3 
 1049000   0.82344461   -4.0835688    690.77772  0.054875892  0.055210337            4 
 1050000   0.82734291    -4.092631    693.30673  0.055024343   0.05518291            6 
 1051000   0.84154513   -4.0940515    693.20364  0.054963815  0.055155345            4 
 1052000   0.83178224   -4.0765257    693.27097  0.054916902  0.055127973            9 
 1053000   0.83489594   -4.1024908    691.87354  0.054754158  0.055100568            4 
 1054000   0.84119592    -4.065559    693.55379  0.054835056  0.055073104            3 
 1055000   0.82714919   -4.0904332    695.52828  0.054939043  0.055045262            4 
 1056000   0.81016465   -4.1017664     693.2512  0.054707323  0.055017537            6 
 1057000   0.79720281   -4.0941315    694.29336  0.054737729  0.054989792            7 
 1058000    0.8257064   -4.0807636    694.77297  0.054723769  0.054961842            6 
 1059000   0.82458483   -4.1014848    696.38598  0.054799023  0.054933766            4 
 1060000   0.83697966   -4.0881652    697.38143  0.054825584  0.054905916            4 
 1061000   0.83045607   -4.0935485    695.52946  0.054628452  0.054877785            6 
 1062000   0.83595217   -4.1098135    696.57501  0.054659056  0.054849596            5 
 1063000   0.83212565   -4.1046087    696.84463  0.054628773  0.054821101            5 
 1064000   0.81730091   -4.1031898    699.51988  0.054786958  0.054793108            4 
 1065000   0.82602006   -4.0873429    697.74935  0.054596976  0.054765577            4 
 1066000   0.82585969   -4.1025006    695.00109  0.054330917  0.054737429            4 
 1067000   0.82167274   -4.0839846    700.05177  0.054674459  0.054709701            2 
 1068000   0.81947836   -4.0947774    697.37317  0.054414261    0.0546819            4 
 1069000   0.83329612   -4.1021128    695.68933  0.054232096  0.054653975            6 
 1070000    0.8362204   -4.0954731    696.97863  0.054281825  0.054625395            6 
 1071000   0.83329831   -4.0928103    697.94143  0.054306055  0.054597205            3 
 1072000   0.82552883   -4.0714354    699.25147  0.054357235  0.054568727            4 
 1073000    0.8141058    -4.097761    697.62575  0.054180316  0.054540574            3 
 1074000   0.81866454   -4.0630297    700.12808  0.054324029  0.054512266            2 
 1075000   0.82018687   -4.1240294     699.2303  0.054203899  0.054484151            5 
 1076000   0.83624523    -4.065839    701.25573  0.054310388  0.054455969            5 
 1077000   0.82074479   -4.1089729    697.93921  0.054003343   0.05442773            3 
 1078000    0.8194988   -4.1340022    698.44473  0.053992326   0.05439901            7 
 1079000   0.81668736   -4.1314495     699.8076  0.054047544  0.054370888            4 
 1080000   0.82910804   -4.1396334     702.6047  0.054213326  0.054342512            3 
 1081000   0.82028505   -4.1494082    698.80652  0.053870376  0.054314417            5 
 1082000   0.81992456   -4.1268654    700.25098  0.053931837  0.054286374            4 
 1083000   0.83111438   -4.1046163    703.30724  0.054117208  0.054258712            4 
 1084000   0.83233398   -4.1127613    701.69256  0.053943155  0.054230991            3 
 1085000   0.80623763   -4.1031082    702.74599  0.053974347  0.054203261            3 
 1086000   0.80551052   -4.1421576    702.89666  0.053936208  0.054175517            5 
 1087000   0.83723603   -4.1316584    702.55878  0.053860686  0.054147298            5 
 1088000   0.83094337   -4.1023685    703.06882  0.053850247  0.054119311            3 
 1089000   0.82757875   -4.1306128     700.6306  0.053614218  0.054091281            1 
 1090000   0.83451271   -4.1266558    701.56563  0.053636516  0.054063047            6 
 1091000   0.80471505   -4.1131739    702.66478  0.053671309  0.054034747            5 
 1092000   0.80635044   -4.1072172    704.02464  0.053725934  0.054006665            4 
 1093000    0.8318254   -4.1070653    699.98035  0.053368432  0.053978459            4 
 1094000   0.81351954   -4.0766839    706.23451  0.053796047  0.053950248            2 
 1095000   0.81187767    -4.141395    703.45293   0.05353523  0.053921776            3 
 1096000   0.83732443   -4.1118587    702.42647  0.053408339  0.053892784            4 
 1097000   0.82126518   -4.1040628    705.58383  0.053599501  0.053863826            8 
 1098000   0.80291279   -4.0973189    703.41732  0.053386256  0.053834575            5 
 1099000   0.82484652    -4.122108    705.31822  0.053481818  0.053805722            2 
 1100000    0.8242284   -4.1213183    705.55824  0.053451382  0.053777123            6 
 1101000   0.81132456   -4.1014217    705.18837  0.053374839  0.053748325            5 
 1102000   0.80358591   -4.1244532    705.41385  0.053343455  0.053719537            6 
 1103000   0.82780056   -4.1169032    706.03639  0.053342127  0.053690909            4 
 1104000   0.81008685   -4.1400558      706.992  0.053365942  0.053662193            3 
 1105000   0.81084758   -4.1485857    705.21724  0.053183804  0.053633874            4 
 1106000   0.81833119   -4.1263883    705.77625  0.053177837  0.053605451            4 
 1107000   0.80662392   -4.1168015    708.86198  0.053362088  0.053577086            5 
 1108000   0.81601449   -4.1029781    705.58646  0.053067574  0.053548831           10 
 1109000   0.80784624   -4.1408144    708.78764  0.053260267    0.0535204            4 
 1110000   0.79607773   -4.1147091    709.44905  0.053261941  0.053492256            4 
 1111000   0.80566206   -4.1076874    708.71651  0.053159054  0.053464192            4 
 1112000   0.80700063   -4.1129589    708.35865  0.053084431  0.053436138            5 
 1113000   0.80624398   -4.1181502    712.07776  0.053315196  0.053408225            5 
 1114000    0.8077922   -4.1507926    708.12805  0.052971877  0.053379943            7 
 1115000    0.8032486   -4.1089985    708.84938  0.052978279  0.053351607            5 
 1116000   0.81819473   -4.1626808    710.05154  0.053020575  0.053323326            5 
 1117000   0.79902087   -4.1436466    709.09442  0.052901703  0.053294793           10 
 1118000   0.80537955   -4.1388843     710.2155  0.052937947  0.053266487            3 
 1119000   0.79375899   -4.1345711    712.15826  0.053035318  0.053238312            3 
 1120000   0.79935648    -4.139917    712.92712  0.053045173  0.053210319            8 
 1121000   0.79331854   -4.1476464    711.53478  0.052894349  0.053182212            6 
 1122000   0.83736684   -4.1405347    714.21066  0.053045949  0.053154201            6 
 1123000    0.8098149   -4.1416633    712.35834   0.05286126  0.053126599            6 
 1124000   0.78558273   -4.1491098    715.17676  0.053023188  0.053099206            5 
 1125000   0.80592507   -4.0942439    715.18913  0.052976973  0.053071843            8 
 1126000   0.79372231   -4.1372603    716.25467  0.053008782  0.053044217            6 
 1127000   0.80212841   -4.1662191    713.06611  0.052725976  0.053016441            3 
 1128000   0.79376572   -4.1432601    712.74783   0.05265572  0.052988508            6 
 1129000   0.79478344   -4.1242268    716.15742  0.052860748  0.052960937            5 
 1130000   0.80102841   -4.1315566    714.62246  0.052700771  0.052933137            4 
 1131000   0.79703197   -4.1322569     715.3616  0.052708635  0.052905606            6 
 1132000   0.80244953   -4.1308579    715.37488  0.052663051  0.052877794            5 
 1133000   0.80960978   -4.1465184    716.51201  0.052700206  0.052850151            4 
 1134000   0.81562444   -4.1608699    717.87807   0.05275412   0.05282243            4 
 1135000   0.79384513   -4.1391086    719.68275  0.052840143  0.052794827            6 
 1136000   0.78570475   -4.1583219    717.14105  0.052607178  0.052767133            4 
 1137000   0.78515259   -4.1283633    716.05882   0.05248159  0.052739289            5 
 1138000   0.80415409   -4.1380812    719.30787  0.052673394  0.052711675            5 
 1139000   0.78800198   -4.1437198    718.59185  0.052574762  0.052683953            6 
 1140000   0.81427892   -4.1373502    717.68761  0.052462545   0.05265592            4 
 1141000    0.7933485   -4.1618614    717.66123  0.052414638  0.052627954            8 
 1142000   0.82114319    -4.159431    715.82348  0.052234638  0.052599884            4 
 1143000   0.79279198   -4.1331647     718.7523  0.052402471  0.052571906           10 
 1144000    0.8080473   -4.1432205    718.08464  0.052308031  0.052543817            8 
 1145000   0.80487779   -4.1479868     717.6346  0.052229592  0.052515829            6 
 1146000   0.79616223   -4.1424521    719.05969  0.052287645  0.052487947            5 
 1147000   0.79704783   -4.1745679    717.97694  0.052163393   0.05246002            7 
 1148000   0.79866762    -4.127608    717.25018  0.052065199  0.052431795            4 
 1149000   0.79113549    -4.152352    718.68712  0.052124102  0.052403615            4 
 1150000   0.79622509   -4.1692229    718.80381  0.052087233  0.052375517           10 
 1151000   0.79632011    -4.172695    719.35368   0.05208179  0.052347511            4 
 1152000   0.79396326   -4.1553256    719.43815   0.05204269  0.052319547            5 
 1153000   0.79653508   -4.1447384    719.84786  0.052027166  0.052291577           14 
 1154000   0.77145856   -4.1452995    719.82497  0.051980428  0.052263629            5 
 1155000   0.78295787   -4.1619492    718.60497    0.0518474  0.052235434            4 
 1156000   0.79891765   -4.1445101    721.05972  0.051979507  0.052207667            5 
 1157000   0.79454229   -4.1464098    721.09245  0.051936938  0.052179461            4 
 1158000   0.79630941    -4.167196    720.63927  0.051859475  0.052151316            8 
 1159000   0.79949657   -4.1540269    719.97144  0.051766712   0.05212272            2 
 1160000   0.79980504    -4.175632    721.13451   0.05180564   0.05209422           10 
 1161000   0.78563774   -4.1436662    720.12943  0.051688877  0.052065447            6 
 1162000   0.77584174   -4.1654905    721.17139  0.051719119  0.052037045           11 
 1163000   0.79404007   -4.1654371    721.87951  0.051725388  0.052008993            4 
 1164000   0.77829396    -4.178507    721.77104  0.051673184  0.051980829            4 
 1165000   0.77756622   -4.1378239    725.49775  0.051895404  0.051952385            4 
 1166000   0.77930881   -4.1814963    721.75227   0.05158321  0.051923973            9 
 1167000   0.77019441   -4.1783187    725.13188   0.05178034   0.05189557            3 
 1168000   0.78217584   -4.1637047    724.20091  0.051669585  0.051867307           10 
 1169000   0.78593779   -4.1677459    721.48687  0.051431913  0.051838622            6 
 1170000   0.78173984   -4.1348438    724.94834  0.051634497  0.051810029            4 
 1171000   0.77799447   -4.1724555    722.66509  0.051427917  0.051781529            4 
 1172000   0.78561508   -4.1906881    722.24261  0.051353997  0.051753176            8 
 1173000   0.79217474   -4.1576592    725.23865  0.051523064  0.051724641            5 
 1174000   0.79168027   -4.1888979      725.523  0.051499361  0.051695904           10 
 1175000    0.7793572   -4.1598591    724.52505  0.051384756  0.051667135            2 
 1176000   0.78318086   -4.1716953    726.81469  0.051503308  0.051638509            6 
 1177000   0.79950735   -4.2014501    722.43332  0.051149343  0.051610059            5 
 1178000   0.78065394   -4.1652384    723.36168  0.051171596  0.051581319            4 
 1179000   0.77642256   -4.1537639    728.19628   0.05146991  0.051552932            6 
 1180000   0.79446274   -4.1900678    723.45696  0.051091593  0.051524493            4 
 1181000   0.77788201   -4.1474833    726.66553  0.051274734  0.051495749            5 
 1182000   0.77702447   -4.1759855     726.0216  0.051185956  0.051467226            6 
 1183000   0.79299228   -4.1821302    726.58298  0.051182233  0.051438686            7 
 1184000   0.77600396   -4.2027733     723.7189  0.050937422  0.051409729            3 
 1185000   0.78119098   -4.1929769    726.55671  0.051094002  0.051380498            8 
 1186000    0.7645715   -4.1924107    725.32222  0.050964181  0.051351664            4 
 1187000   0.78279144   -4.2011123    724.51735  0.050864739  0.051322444            5 
 1188000   0.77543545   -4.1800701     724.8622  0.050846114  0.051293613            5 
 1189000   0.77760882   -4.1744368    725.29952     0.050834  0.051264732            7 
 1190000   0.75846338   -4.1905179    727.88155  0.050972097  0.051235814            7 
 1191000   0.78049298   -4.1911416    727.22002  0.050883013   0.05120695            6 
 1192000   0.78395737   -4.1669548     726.6649  0.050801517  0.051178627            4 
 1193000    0.7696706   -4.1859212    726.94314   0.05077837  0.051150031            5 
 1194000   0.77814938   -4.1960903    730.19607  0.050962874  0.051121541            6 
 1195000   0.79490797   -4.1882266    730.21303  0.050921411  0.051093145            6 
 1196000   0.78934741   -4.2013621    730.59385  0.050905368   0.05106479            5 
 1197000    0.7646932   -4.1857124    728.31688  0.050704322  0.051036518           10 
 1198000   0.76060609   -4.1815996    728.55074  0.050678265  0.051008232            5 
 1199000   0.76919314   -4.1932071    729.26652  0.050685747  0.050980022            5 
 1200000    0.7702774    -4.196097    729.01684  0.050626169  0.050951707            6 
 1201000   0.75116486   -4.1935811    731.73241   0.05077244  0.050923581            6 
 1202000   0.79197344   -4.1810885    731.04861  0.050682793  0.050895667            8 
 1203000   0.78599702   -4.2032169    730.59933  0.050609541  0.050867514           10 
 1204000   0.76996216   -4.2040521    730.56333  0.050565015  0.050839398            3 
 1205000   0.76869676    -4.198958    731.69444  0.050601275  0.050811227            5 
 1206000   0.77018651   -4.1918216    730.96461  0.050508887   0.05078286            7 
 1207000   0.76600912   -4.2021503    731.96146  0.050535864  0.050754614            5 
 1208000   0.76356836   -4.2005025     731.7361  0.050478484  0.050726026            5 
 1209000   0.77490894   -4.1909658    730.69257  0.050364803  0.050697577            4 
 1210000   0.78293817   -4.1976725    730.96551  0.050341977  0.050669324            3 
 1211000   0.75472235   -4.2022731    730.50891  0.050268986   0.05064091            4 
 1212000   0.76750232   -4.1672324    730.51022  0.050227601   0.05061236            9 
 1213000   0.76404227   -4.1995294    729.95103  0.050147776  0.050584289            5 
 1214000   0.74624077   -4.2147034    733.76303  0.050368138  0.050555899            8 
 1215000   0.79651851   -4.2063703    732.69231  0.050253245  0.050527567            5 
 1216000   0.76645752   -4.1914796    734.39732  0.050328764  0.050499555            5 
 1217000   0.77759722   -4.1936039    735.14898  0.050338878  0.050471618            6 
 1218000   0.77691832   -4.1816552    733.60889  0.050192179   0.05044348            6 
 1219000   0.76841986   -4.2366181    735.06845  0.050250783  0.050415048            7 
 1220000   0.75237472    -4.211899    733.89619  0.050129521  0.050386836            6 
 1221000   0.77530039   -4.1934432     736.8581  0.050290615  0.050358515            5 
 1222000   0.74861291   -4.2238132    733.73605  0.050036556  0.050330225            4 
 1223000   0.74162928   -4.2374102    734.23997  0.050029979  0.050301604            5 
 1224000   0.76698022   -4.2184364    735.00308   0.05004106  0.050272943            5 
 1225000   0.76495452   -4.2362075    736.60248  0.050109012  0.050244512            4 
 1226000   0.76687652   -4.2051959     734.9171  0.049953582  0.050216199            4 
 1227000   0.76075097   -4.2005314    739.48833  0.050223331  0.050187875            4 
 1228000   0.75498744   -4.2232503    735.19463  0.049891058  0.050159742            5 
 1229000   0.75743086   -4.2050494    734.50679  0.049803824  0.050131148            4 
 1230000   0.78611684   -4.2137311    736.19064  0.049877415  0.050102864            6 
 1231000   0.77097619   -4.2183305    739.80197  0.050081368  0.050074536            4 
 1232000   0.75364401   -4.2042534    737.10082   0.04985801  0.050046401            5 
 1233000   0.75310922     -4.22424    737.41059   0.04983851  0.050018317            9 
 1234000   0.75482805   -4.2085325    736.15536  0.049713355  0.049990187            4 
 1235000   0.76455614   -4.2146346    737.24678  0.049746746  0.049961891            4 
 1236000   0.76911277   -4.2235054    738.42485  0.049785925  0.049933423            3 
 1237000   0.74201801   -4.2515356     735.4604  0.049545971  0.049904755           10 
 1238000   0.78707918   -4.1967482    741.74587  0.049929044  0.049876659           10 
 1239000   0.75965962   -4.2045527     741.0839  0.049844222  0.049848715            7 
 1240000   0.76908678   -4.2414956    736.20294  0.049476004  0.049820484            5 
 1241000   0.75691636   -4.2026152    738.42303  0.049585216  0.049792449            5 
 1242000   0.75589601   -4.2067385    738.68234   0.04956269  0.049764295            3 
 1243000   0.74806421   -4.2158524    739.44367  0.049573858  0.049736427            4 
 1244000   0.76185892   -4.2271401    739.45948  0.049535067   0.04970842            5 
 1245000   0.74474479   -4.2205074    740.57401   0.04956988  0.049680868            4 
 1246000   0.73907985   -4.2348229    740.44965   0.04952178  0.049653074            6 
 1247000   0.74649827    -4.230116    741.72414  0.049567237  0.049625379            3 
 1248000   0.74418255   -4.2386447    741.14199  0.049488647  0.049597831            7 
 1249000    0.7282083   -4.2139493    743.96096  0.049637107  0.049570034            5 
 1250000   0.77631826    -4.223067    742.69779  0.049513186  0.049542538            3 
 1251000   0.74798115   -4.2313053    742.27644  0.049445539  0.049514877            7 
 1252000   0.75046385   -4.2253264    743.24642  0.049470608  0.049487592            4 
 1253000   0.75972206   -4.2521864    740.58268  0.049253969  0.049460119            3 
 1254000   0.75132586   -4.2324375    743.74703  0.049424976  0.049432689            6 
 1255000   0.73224599   -4.2339177    744.62844  0.049444119  0.049404957            5 
 1256000   0.76444414   -4.2440883     741.0123  0.049164829  0.049377057            4 
 1257000   0.75303093   -4.2383515    741.39204  0.049150891  0.049348945            4 
 1258000   0.76235837   -4.2530778    743.03302  0.049220523  0.049320919            3 
 1259000   0.75695877   -4.2149386    745.08892  0.049317509  0.049293405            4 
 1260000   0.75244841   -4.2530323    744.26261  0.049223718  0.049265741            4 
 1261000   0.73206279   -4.2398284    744.44765   0.04919691  0.049237926            5 
 1262000   0.73827943   -4.2758699    742.11738  0.049004053  0.049209945            9 
 1263000   0.75415522   -4.2371634    743.13386  0.049032321  0.049182133            4 
 1264000   0.74558788   -4.2440097     745.3743  0.049141238  0.049154237            5 
 1265000   0.74251041   -4.2747307    744.38876  0.049037468  0.049126599            5 
 1266000   0.74638226   -4.2403106    746.20718  0.049118429  0.049099196            5 
 1267000   0.75975026   -4.2512906     745.8563  0.049056584  0.049071743            5 
 1268000   0.75659899   -4.2530399    746.10975  0.049034552  0.049044263            6 
 1269000   0.75602655   -4.2314064    743.94596  0.048853819  0.049016538            3 
 1270000   0.76761126    -4.249469    743.47444  0.048784412  0.048988856            7 
 1271000   0.72833543   -4.2430484    744.59594  0.048819561  0.048961251            5 
 1272000   0.76621968   -4.2315682    746.91757  0.048933279  0.048933891            6 
 1273000   0.74143188    -4.243137    747.85128  0.048955963  0.048906586            9 
 1274000   0.75187827   -4.2631958     746.0489   0.04879964  0.048879144            7 
 1275000   0.74187096   -4.2467836    746.89295  0.048816533  0.048851911            4 
 1276000   0.76068276   -4.2321947    747.19415  0.048797946  0.048824542            4 
 1277000   0.75477422   -4.2443349    750.03425   0.04894507  0.048797341            4 
 1278000   0.75304405   -4.2496832    750.25676   0.04892128  0.048770154            4 
 1279000   0.74039928   -4.2549828    748.99693  0.048800947  0.048743162            8 
 1280000   0.75286625   -4.2557464    750.64096  0.048869854  0.048716118            5 
 1281000   0.74057526   -4.2673876    748.50248  0.048692589  0.048689192            5 
 1282000   0.74298632   -4.2492966    749.68654  0.048731574  0.048661931           14 
 1283000    0.7370059   -4.2375255    750.10106  0.048720516  0.048635005            5 
 1284000   0.75143628   -4.2704695    747.15581  0.048491421  0.048607977            5 
 1285000   0.73955306   -4.2513668    750.85577   0.04869363  0.048580711            7 
 1286000   0.74000989   -4.2579793    749.47928  0.048566568   0.04855366            7 
 1287000   0.73013486   -4.2475537    749.04674  0.048500825  0.048526475           13 
 1288000   0.74367111   -4.2436601    751.28397  0.048607917  0.048499404            5 
 1289000    0.7324435   -4.2524085    751.97656  0.048614983  0.048472272            5 
 1290000   0.73562544    -4.262963    749.23173  0.048399983  0.048445162            4 
 1291000   0.74392311   -4.2673731    751.61985  0.048516644  0.048418133            4 
 1292000   0.74566211   -4.2840206    750.01453   0.04837555  0.048391039            6 
 1293000   0.72468834   -4.2332644    751.35335  0.048424423  0.048363893            7 
 1294000   0.72729807   -4.2647471     751.5783  0.048401488   0.04833666            7 
 1295000   0.72812962   -4.2663223    752.19217  0.048403614  0.048309544            2 
 1296000   0.74479601   -4.2619325    750.35676  0.048248248  0.048282346            8 
 1297000   0.73417815   -4.2777017    753.17728  0.048392269  0.048255076            4 
 1298000   0.73890046   -4.2743754     751.2192  0.048229276  0.048227848            6 
 1299000   0.73086936   -4.2548418    752.29245  0.048260999  0.048200759            9 
 1300000   0.71716044    -4.255563    751.24995  0.048157048  0.048174026            3 
 1301000   0.73103274   -4.2452289    754.51704    0.0483293  0.048147248            4 
 1302000   0.74059369   -4.2656093    756.12097   0.04839484  0.048120772            6 
 1303000    0.7345706   -4.2678281    754.48184  0.048252868  0.048094085            7 
 1304000   0.73376185   -4.2944114    754.35553  0.048207792  0.048067538            7 
 1305000   0.73895426   -4.2617404    754.51561  0.048181074  0.048040701            9 
 1306000   0.73200599   -4.2944554    753.13472  0.048056069  0.048013968            7 
 1307000   0.73454998   -4.2390891    755.29396  0.048156973  0.047987237            5 
 1308000   0.70696946   -4.2688696    754.89264  0.048094587  0.047960706            4 
 1309000   0.73015903   -4.2939414    755.04928  0.048067818  0.047934254            8 
 1310000   0.72340821   -4.2800123    756.20978  0.048104948  0.047907765           12 
 1311000   0.73988145   -4.2615767    756.54238  0.048089396  0.047881348            7 
 1312000   0.74950723   -4.2904215    754.40455  0.047916955  0.047854825            4 
 1313000    0.7186613   -4.2713302     756.3424  0.048003453  0.047828284           13 
 1314000   0.73822173   -4.2788746    758.68494  0.048115483  0.047801786            9 
 1315000   0.72830238   -4.2805896    756.11246  0.047915872  0.047775338            4 
 1316000   0.71782955   -4.2897302    754.83715  0.047798705  0.047748653            8 
 1317000   0.72725683   -4.2787528    757.17052  0.047910056  0.047722083            9 
 1318000   0.73290711    -4.267665    757.25333  0.047878941  0.047695551            5 
 1319000   0.72548376   -4.2724984    756.96661  0.047824527   0.04766904            7 
 1320000   0.72919836   -4.2591366    757.90374  0.047847458  0.047642226            3 
 1321000    0.7229733   -4.2672216    756.27234  0.047708323  0.047615638            2 
 1322000   0.72884253   -4.2840485    757.54351  0.047752364  0.047589148            6 
 1323000   0.72109558   -4.2812463    758.40464  0.047770512  0.047562545            8 
 1324000   0.69909243   -4.2818775    759.79038   0.04782165  0.047536173            4 
 1325000    0.7213531   -4.2839283    757.47244  0.047639776  0.047509864           16 
 1326000   0.73925876   -4.2863098    755.90766  0.047505509  0.047483518            8 
 1327000   0.73059364   -4.2785024    759.14635  0.047673094  0.047457187           12 
 1328000   0.73930212   -4.2905406    759.71361  0.047672792  0.047430646            4 
 1329000   0.71595295    -4.298439    757.68053  0.047509439  0.047403907            3 
 1330000   0.72983688   -4.2608796    760.53479  0.047652556  0.047377479            4 
 1331000   0.71351007   -4.2816182    758.48509  0.047488423  0.047351331            6 
 1332000   0.72742443    -4.318889    758.34681   0.04744412   0.04732498            6 
 1333000   0.71687228   -4.2901639    760.82642  0.047563542  0.047298551            6 
 1334000   0.71801904   -4.2804029    757.55544  0.047323553  0.047272176           10 
 1335000   0.71495193   -4.2774318    760.12862  0.047448728  0.047245826            8 
 1336000   0.71404626    -4.295066    759.52123  0.047375326  0.047219397            9 
 1337000   0.71223123   -4.2719173    758.27684  0.047262331  0.047193131           11 
 1338000   0.71586594   -4.3036261    760.66916  0.047376006  0.047166985            4 
 1339000   0.71031314   -4.3054696    759.65782  0.047277684  0.047140704            9 
 1340000   0.71255191   -4.2956778    759.45838  0.047229999  0.047114387            8 
 1341000   0.72392223   -4.2951711    763.86616   0.04746869  0.047088248            3 
 1342000   0.71851889   -4.2904965    759.88476  0.047186088  0.047062016            9 
 1343000   0.70769528   -4.2770329    761.16949  0.047230671  0.047035797            4 
 1344000   0.71871632   -4.3094143    761.45379  0.047213157  0.047009414            4 
 1345000   0.72120422   -4.2860658      760.255  0.047103779  0.046983091            5 
 1346000   0.72865549   -4.3244361    761.78155  0.047163296  0.046956746            5 
 1347000   0.71821303   -4.2877913     761.4409  0.047107207  0.046930328            6 
 1348000   0.72762533   -4.3120026    761.19484   0.04705705  0.046903807            3 
 1349000   0.70138626   -4.2733175    762.19294  0.047083824  0.046877328            4 
 1350000   0.71256635   -4.3229067    760.65014  0.046953712  0.046850998            4 
 1351000   0.71568846   -4.3020568    762.92256  0.047059126  0.046824653            4 
 1352000   0.70522635   -4.3169867    764.65239  0.047130941  0.046798264            2 
 1353000   0.70499143   -4.2983093    763.65066  0.047034409  0.046772016            5 
 1354000   0.72519708   -4.2805762    765.16666  0.047092975  0.046745815            4 
 1355000   0.72194248   -4.3189054    760.71929  0.046784704  0.046719597            9 
 1356000   0.71115981   -4.3157347    765.30774  0.047032186  0.046693444            3 
 1357000   0.71284387   -4.3384677    762.86147  0.046847302  0.046667239            4 
 1358000   0.71577635    -4.304644    763.60124  0.046858201  0.046640964            5 
 1359000   0.69958181   -4.3288662    764.26733  0.046864565  0.046614873            8 
 1360000   0.70095134   -4.3278093    762.59391  0.046727568  0.046588817            3 
 1361000   0.71944297   -4.3226814    764.16971   0.04678972  0.046562734            5 
 1362000   0.70557451   -4.3277995    764.22819  0.046758945  0.046536346            3 
 1363000   0.71260395   -4.3286484    762.44612  0.046615683  0.046510012            6 
 1364000   0.69854625   -4.3182704    761.80236  0.046542178  0.046483496            5 
 1365000   0.69881908    -4.314917    764.07047  0.046646549  0.046457235           12 
 1366000   0.70587413    -4.314436    765.89392  0.046723641  0.046430709            5 
 1367000   0.71926138    -4.333469    762.30324  0.046470571  0.046404448           15 
 1368000   0.71830922   -4.3090939     765.1101  0.046607584  0.046378189            7 
 1369000   0.70487399   -4.3420405    763.98833  0.046505255  0.046351741            8 
 1370000   0.69696754   -4.3252652    765.34827  0.046554031  0.046325304            6 
 1371000   0.69758306   -4.3289666     762.5414  0.046349465   0.04629882            6 
 1372000   0.71478436   -4.3018372    765.52358  0.046496816  0.046272448            8 
 1373000   0.71105513   -4.3456742     765.3926  0.046455001  0.046246186            7 
 1374000   0.69451956   -4.3201668    765.35301   0.04641879  0.046219834           12 
 1375000     0.715508   -4.3264317    766.46584  0.046452475  0.046193474           13 
 1376000   0.70715103    -4.325104    765.15057   0.04633906  0.046166961            7 
 1377000    0.7009216   -4.3427855    764.25536  0.046251232  0.046140528            7 
 1378000   0.70045797   -4.3190616    763.25632  0.046157252  0.046114005            4 
 1379000   0.71649032   -4.3186473    766.52772  0.046321472  0.046087444            9 
 1380000   0.70552161   -4.3313608     765.3534  0.046216993  0.046061014            5 
 1381000   0.69383932   -4.3331035    766.52993  0.046254522  0.046034767            4 
 1382000   0.70168212   -4.3429221    766.13299  0.046197117  0.046008535            3 
 1383000   0.69840048   -4.3178245    765.22989  0.046109297  0.045982502            6 
 1384000   0.70942541   -4.3024515    768.76932  0.046289097  0.045956348            6 
 1385000   0.69961816    -4.321897     768.9602   0.04626716  0.045930486            5 
 1386000   0.67773388   -4.3186792      767.434  0.046142016   0.04590425            7 
 1387000   0.71129428   -4.3252533    766.23879  0.046036938   0.04587779            8 
 1388000   0.67983764   -4.3174831     768.6879   0.04615081  0.045851474            7 
 1389000   0.70425857   -4.3398308    770.24329  0.046210901  0.045825314           25 
 1390000   0.71389525   -4.3212001    768.30494  0.046061448  0.045799011            4 
 1391000    0.7004725   -4.3315642    767.06761  0.045954206  0.045772671            9 
 1392000   0.69524351   -4.3504947    768.06081  0.045980652  0.045746469            7 
 1393000   0.68829251   -4.3402812    768.69083  0.045985333  0.045720332           14 
 1394000   0.70011489   -4.3280839    767.72224  0.045894443  0.045694148            5 
 1395000   0.68287425   -4.3218837    769.72493  0.045981178  0.045668078            4 
 1396000   0.69827854   -4.3365036    770.48482  0.045993602  0.045642095            9 
 1397000    0.6920759   -4.3343541    769.75828  0.045917339  0.045615944           13 
 1398000   0.69385878   -4.3669208    766.95132  0.045717175  0.045589573           14 
 1399000   0.68683986   -4.3622737    767.93732  0.045743228  0.045563431            9 
 1400000   0.69792191    -4.348487    768.10369  0.045720458  0.045537067            5 
 1401000   0.70499163   -4.3425219    767.80122  0.045669832  0.045510983            9 
 1402000   0.68825798   -4.3481584    769.86339  0.045759831   0.04548483            7 
 1403000   0.69359889   -4.3169986    770.18291  0.045746193  0.045458678           19 
 1404000   0.69046769   -4.3481908    768.37497  0.045606302  0.045432495            5 
 1405000   0.68495706   -4.3436427    770.08026  0.045674986  0.045406078            6 
 1406000   0.68468212   -4.3314005     770.4611  0.045665072  0.045379835            7 
 1407000   0.69839338   -4.3658593    766.19085    0.0453797  0.045353637            4 
 1408000   0.71533704   -4.3331566    770.15483   0.04558208  0.045327385            3 
 1409000   0.67287236   -4.3552034    769.43061  0.045506897  0.045301208           18 
 1410000   0.70483385   -4.3180865     772.3692  0.045648298  0.045275138            2 
 1411000   0.70502167   -4.3618384    768.78176  0.045404073  0.045249002           10 
 1412000   0.68323973      -4.3454    770.59462  0.045478908  0.045222819            6 
 1413000   0.68389842   -4.3565687    772.39433  0.045552862  0.045196836            5 
 1414000   0.68237024   -4.3551166    770.00292   0.04537971  0.045170836            8 
 1415000   0.69444669   -4.3405143    772.59332  0.045500195  0.045144986            7 
 1416000   0.68436384   -4.3361662    772.09673  0.045438837  0.045119107            6 
 1417000   0.69648168   -4.3606974    773.61422  0.045496014  0.045093496            4 
 1418000   0.69052925   -4.3497628    772.11925  0.045376072  0.045067705            8 
 1419000   0.69139322   -4.3497618    771.69368  0.045319102  0.045041894            6 
 1420000   0.68462942   -4.3422676    772.14788  0.045313843  0.045015883            7 
 1421000   0.68352604   -4.3524392    771.80986  0.045262131  0.044990141            6 
 1422000    0.6841705   -4.3274508    774.52709  0.045389539  0.044964444            6 
 1423000   0.69708158   -4.3757131    771.11883  0.045158048  0.044938558            8 
 1424000   0.68371632   -4.3508537    773.27227  0.045252357  0.044912594            7 
 1425000   0.67878633    -4.350561    772.99412  0.045204334  0.044886649           10 
 1426000   0.66588773   -4.3580782    772.15134  0.045123384  0.044860638            5 
 1427000   0.69365408   -4.3798428     772.4707  0.045110412  0.044834823            7 
 1428000   0.69124579   -4.3452139    773.11795  0.045116594  0.044808889            6 
 1429000   0.68181208   -4.3606688    771.01352    0.0449623  0.044783028            5 
 1430000   0.68109206   -4.3553081     773.8761  0.045097675  0.044757268           13 
 1431000   0.69084363   -4.3661291    773.81164  0.045062406   0.04473149            8 
 1432000   0.68721536   -4.3778081    775.19385  0.045111374  0.044705685           10 
 1433000   0.68462286   -4.3619476     776.3497   0.04514711  0.044679972            4 
 1434000   0.68062583   -4.3541498    774.72962   0.04502148   0.04465434            6 
 1435000   0.67889838   -4.3647266    775.07667  0.045010259  0.044628486            7 
 1436000   0.66611826   -4.3519979    773.20603  0.044870359   0.04460264            5 
 1437000   0.69008823    -4.371522    773.04338  0.044829702  0.044576937            6 
 1438000    0.6661033   -4.3466914     776.5611  0.045002382  0.044551449            6 
 1439000   0.68092646   -4.3496314    775.70417  0.044921483  0.044525846           10 
 1440000   0.66489661   -4.3738486    774.54748   0.04482335  0.044500214            4 
 1441000   0.66207103   -4.3801123    773.55076  0.044734603  0.044474476            8 
 1442000   0.68509223   -4.3676413     776.6688  0.044883772  0.044448926            8 
 1443000   0.66633604   -4.3589636    775.88689  0.044807513  0.044423206            4 
 1444000   0.67959284   -4.3663427    773.82058  0.044657236  0.044397434            8 
 1445000   0.67544553   -4.4024325    775.61578   0.04472986   0.04437172            9 
 1446000   0.68426541   -4.3563882    775.50797  0.044692714  0.044345862            5 
 1447000   0.68408379   -4.3677454    776.56226  0.044722544  0.044320246            3 
 1448000   0.68390531   -4.4050781    771.99541  0.044428833   0.04429434            7 
 1449000   0.67846194   -4.3751053    776.18693   0.04463923  0.044268417            4 
 1450000   0.66108102   -4.3868965    773.48075  0.044452916  0.044242622           10 
 1451000   0.67095315    -4.403836    773.62146  0.044430362  0.044216778           12 
 1452000   0.68427371   -4.3679036    776.70741  0.044576872  0.044190994            8 
 1453000   0.66241899   -4.3887295    777.46301  0.044589528  0.044165409           10 
 1454000   0.66244048   -4.3597335    777.34331  0.044552001  0.044139902            6 
 1455000     0.667982   -4.3877591    776.79033   0.04448971  0.044114288            4 
 1456000   0.65947503   -4.3874139    775.91099  0.044408825  0.044088832           11 
 1457000    0.6859431   -4.3953294    778.14421  0.044506075  0.044063331           21 
 1458000   0.66821014   -4.3780079    776.45098  0.044378771  0.044037863           14 
 1459000   0.66309962   -4.3764321    775.73476  0.044307445  0.044012259            7 
 1460000   0.68656821   -4.4118939    778.41359      0.04443  0.043986758            5 
 1461000   0.66168915   -4.3515792    778.41541  0.044399693  0.043961543            5 
 1462000   0.65735057   -4.3936028    777.28463  0.044304869  0.043936258            9 
 1463000   0.65429378   -4.3986553    778.21821  0.044327763  0.043910634            5 
 1464000   0.66424457   -4.3782579    776.47188  0.044198081  0.043885033            5 
 1465000   0.67625708   -4.4124592    777.18745  0.044208615  0.043859535            6 
 1466000   0.67769751   -4.3764687    777.78384   0.04421236  0.043834123            8 
 1467000   0.65866238    -4.379999    778.09692  0.044200007  0.043808581            8 
 1468000   0.65830762   -4.3839224    778.13817  0.044172239  0.043783039            9 
 1469000   0.65640542   -4.4160384    776.31808   0.04403892  0.043757326           12 
 1470000   0.65367195   -4.3968848    778.28071  0.044120222  0.043731534            5 
 1471000   0.66903265   -4.3910024    777.64843  0.044054409  0.043705851            5 
 1472000   0.67318057   -4.4056449     778.9813  0.044099938  0.043680194           10 
 1473000   0.66221268   -4.4054799    776.61779  0.043936286  0.043654529            9 
 1474000   0.67640723   -4.3687554    778.15677  0.043993485  0.043629069            7 
 1475000    0.6492246    -4.375242    780.51002  0.044096611  0.043603513            6 
 1476000   0.67074342    -4.402287    778.82949  0.043971855  0.043578151            5 
 1477000   0.67737326   -4.4040002     778.1701   0.04390488  0.043552582            8 
 1478000    0.6742022   -4.4011814    778.69283  0.043904648  0.043527058           11 
 1479000   0.66166818   -4.4056885    779.92158  0.043944196  0.043501603            6 
 1480000   0.67082897   -4.4228535    779.78497  0.043906811  0.043476163            5 
 1481000   0.66195281   -4.4136484    779.89726  0.043883483  0.043450718            9 
 1482000   0.65753058   -4.4024396    781.57891  0.043948432  0.043425295            5 
 1483000   0.65878596   -4.4052391    780.69479  0.043869116  0.043399979           12 
 1484000   0.66396366   -4.4219339    779.99994  0.043800536   0.04337478           13 
 1485000   0.65991697   -4.3856164    781.12121  0.043833963  0.043349433            5 
 1486000   0.65220062   -4.4238309    782.54154  0.043884115  0.043324297            5 
 1487000     0.658647   -4.4156339     780.8192  0.043758081  0.043299015            5 
 1488000   0.66852617   -4.4051732    782.26718  0.043809766  0.043273817           38 
 1489000   0.66466383   -4.4300866    782.72665  0.043806058  0.043248676            4 
 1490000   0.66146477    -4.379614    781.22072  0.043692434  0.043223419           12 
 1491000   0.67224694   -4.4165439    780.98645  0.043650037  0.043198393            5 
 1492000   0.64851866   -4.4152619    783.29061  0.043749475  0.043173289            5 
 1493000   0.66167615    -4.415258    782.42835  0.043672045  0.043148286            8 
 1494000   0.64429977   -4.3976624    781.40131  0.043585526  0.043123217           25 
 1495000   0.65054998   -4.4064461    782.79895  0.043634278   0.04309825            8 
 1496000   0.66243438   -4.4018796    783.87729  0.043665179  0.043073234            8 
 1497000   0.65889706   -4.4083868    781.42689  0.043499604  0.043048142            6 
 1498000   0.65071103   -4.4122238     783.6884  0.043596373  0.043023231           12 
 1499000   0.65273491   -4.4131412    784.37646  0.043605541  0.042998295            9 
 1500000   0.66218213    -4.404975    783.80126  0.043544515  0.042973302           19 
 1501000   0.67309714   -4.4250983    782.22915  0.043428223  0.042948499            7 
 1502000   0.65354313   -4.4165529    783.07019  0.043445971  0.042923446            7 
 1503000   0.66672544   -4.4143447    782.79989  0.043402079  0.042898721            5 
 1504000   0.65142601   -4.4177295    784.86742  0.043487778  0.042873958            5 
 1505000   0.66087346   -4.3990268    784.50379  0.043438748  0.042849191           12 
 1506000   0.65482637    -4.425854    783.77694  0.043369684  0.042824288            6 
 1507000   0.65811979   -4.4461627    784.53564   0.04338286  0.042799339            8 
 1508000   0.65087067   -4.4352301    785.38069   0.04340079  0.042774472            7 
 1509000   0.64106128   -4.4313728    785.64283  0.043386505  0.042749818            5 
 1510000   0.64848739   -4.4341052    784.97793  0.043321078  0.042725176            6 
 1511000   0.64468108   -4.4352493     786.5405  0.043378585  0.042700619            8 
 1512000    0.6363213   -4.4236799    786.61237  0.043353857   0.04267598            7 
 1513000   0.64242854   -4.4205237    783.99179  0.043180865  0.042651447            7 
 1514000   0.65823623   -4.4427026     784.0982  0.043158201  0.042626757            7 
 1515000   0.65159583   -4.4234171     784.0301  0.043125968   0.04260201           12 
 1516000   0.65015997   -4.4103904    783.50294  0.043068543  0.042577201            7 
 1517000   0.64069051   -4.4194243    784.89108  0.043116407  0.042552579           11 
 1518000   0.65639228   -4.4067906    787.14892  0.043211952  0.042528057            3 
 1519000   0.66381727   -4.4191465    786.47679  0.043146631  0.042503661            5 
 1520000   0.65657756   -4.4169811     787.4413  0.043171124  0.042479297            9 
 1521000   0.65658631   -4.4321747    785.17893  0.043018788  0.042454819            7 
 1522000   0.64776362   -4.4316077    785.09395  0.042985871  0.042430231            7 
 1523000    0.6505272   -4.4353364    787.32868  0.043079923  0.042405742            9 
 1524000   0.65343533   -4.4319824    788.10851  0.043094297  0.042381244            8 
 1525000   0.63028001   -4.4630309     787.0708  0.043009333   0.04235675            9 
 1526000   0.64589405   -4.4444505    786.67947  0.042959779  0.042332177           17 
 1527000   0.63635089   -4.4336232    789.09848  0.043063659  0.042307693           13 
 1528000   0.63154923   -4.4314252    787.59796  0.042953641   0.04228326            8 
 1529000   0.65200338   -4.4604508    785.53569  0.042813151  0.042258939            5 
 1530000   0.64368151   -4.4031826    786.57061  0.042841537   0.04223461            9 
 1531000   0.64237896   -4.4407549    788.15517  0.042899802  0.042210332            5 
 1532000   0.64314857   -4.4401564    788.24628  0.042876756  0.042186112           13 
 1533000   0.63566589   -4.4358162    787.27435  0.042795953   0.04216177            6 
 1534000   0.63679882   -4.4450355    788.77463  0.042849556  0.042137495           13 
 1535000   0.65573403   -4.4575702    788.54636  0.042809249  0.042113121           17 
 1536000   0.65204116   -4.4292703    789.58051  0.042837484  0.042088738            9 
 1537000   0.63313969   -4.4509815    788.78371  0.042766412  0.042064454           12 
 1538000    0.6489084   -4.4813939    789.16489  0.042759259  0.042040018            9 
 1539000   0.63297462   -4.4311341    790.59826  0.042809089  0.042015605           11 
 1540000   0.64560079   -4.4398389    788.21562   0.04265236  0.041991405           18 
 1541000   0.64553223   -4.4505341    789.73913   0.04270707  0.041967256            6 
 1542000   0.63976227   -4.4631909    789.09294  0.042644452   0.04194301           10 
 1543000   0.65074378   -4.4610837    788.66147  0.042593512  0.041918597            8 
 1544000   0.63129427   -4.4428388    790.56823  0.042668838  0.041894328           17 
 1545000   0.64267969   -4.4263703    791.53253  0.042693233  0.041870135            8 
 1546000   0.63909733   -4.4369922    789.97295  0.042581552  0.041845865            4 
 1547000   0.62810937   -4.4522396    790.23845  0.042568329  0.041821605           12 
 1548000   0.62812977   -4.4493736    789.17031  0.042483329  0.041797488           10 
 1549000   0.62744144   -4.4717494    789.96302  0.042498548  0.041773275           13 
 1550000   0.64628607   -4.4451688    790.53035  0.042501632  0.041749047           15 
 1551000   0.63833197   -4.4556217    789.54632  0.042421358  0.041724795           11 
 1552000    0.6428074   -4.4764995    791.30855  0.042488646  0.041700632           12 
 1553000   0.63420172   -4.4682776    790.13883  0.042398521  0.041676391            6 
 1554000   0.64002299   -4.4611343    790.12299  0.042370387  0.041652147            6 
 1555000   0.63602024   -4.4683327    792.04739  0.042446269  0.041628115            8 
 1556000   0.60871733   -4.4418126    790.52694  0.042337561  0.041604084            6 
 1557000   0.63235109   -4.4659749    790.42446  0.042304885  0.041579925            6 
 1558000   0.62861243   -4.4568483    790.77305  0.042296376  0.041555916            8 
 1559000   0.63832811   -4.4575587    791.52775  0.042309587  0.041531757           14 
 1560000   0.63501258   -4.4669647    789.65791  0.042182581  0.041507552            6 
 1561000   0.62486329   -4.4714463    789.98986  0.042173279  0.041483385            5 
 1562000   0.62677821   -4.4600774    790.06748   0.04215042  0.041459291           10 
 1563000   0.63654289   -4.4598361     791.8399  0.042217951  0.041435375           10 
 1564000   0.64199301   -4.4682131    790.27409  0.042107528  0.041411174           10 
 1565000   0.63326918   -4.4684319    790.63046  0.042099598  0.041387065            4 
 1566000   0.63504223   -4.4803177    792.62327  0.042178761  0.041363099            9 
 1567000   0.63834956   -4.4580023    791.85659  0.042111072  0.041339009            9 
 1568000   0.63887467   -4.4683398    790.15295  0.041993673  0.041314944            9 
 1569000   0.63005334   -4.4656262    793.25007  0.042131404  0.041290891           13 
 1570000   0.63586436   -4.4703982    793.23236  0.042103629  0.041266958            5 
 1571000   0.62334539   -4.4694146    792.76415  0.042051992  0.041242996           14 
 1572000    0.6221471   -4.4698481    792.25693  0.041998353   0.04121896            5 
 1573000   0.62176343   -4.4784762    791.08854  0.041909755  0.041194869           19 
 1574000   0.62730455   -4.4846746    791.08294  0.041882832  0.041170878           13 
 1575000   0.62704389    -4.480329    790.30447  0.041815052  0.041146717            7 
 1576000   0.62067802   -4.4848694     791.9082  0.041873318  0.041122653            9 
 1577000   0.62203482   -4.4603758    790.40968   0.04176758  0.041098498            7 
 1578000   0.62193223   -4.4807044    789.70914  0.041704116  0.041074299            7 
 1579000   0.62731133   -4.4782713    789.93389  0.041689566  0.041050099           10 
 1580000   0.62537651   -4.4984665    791.41743  0.041741426  0.041025873           21 
 1581000    0.6273332   -4.4919989    792.57057  0.041775805  0.041001562            9 
 1582000   0.61560501   -4.4741444    790.73767  0.041652848  0.040977431            5 
 1583000   0.61689711    -4.497939    792.74114  0.041732004   0.04095333            9 
 1584000   0.61070642   -4.4891149    790.38521  0.041581714  0.040929019            9 
 1585000   0.60633546    -4.494814    791.67086  0.041623073   0.04090475           17 
 1586000   0.61655662   -4.4862815    791.12074  0.041567924  0.040880504            9 
 1587000   0.62635068   -4.4937165    791.05232  0.041538139  0.040856369           10 
 1588000   0.62661919   -4.4749998    791.24856   0.04152228  0.040832264           28 
 1589000   0.62388169   -4.5010782    790.36898   0.04145002  0.040808117            5 
 1590000   0.62241301    -4.486238     789.8912   0.04139891  0.040784058            6 
 1591000   0.60476746   -4.5094851    792.60531  0.041515049  0.040759828            9 
 1592000   0.61308595   -4.5219238    789.28148  0.041314986  0.040735575           17 
 1593000   0.62024582    -4.492155    790.07373  0.041330494  0.040711283            7 
 1594000   0.60741714   -4.4917133    793.33409  0.041475015  0.040687217            8 
 1595000   0.61649252   -4.4939753    790.20285  0.041285415  0.040663241           10 
 1596000   0.61735662   -4.4908491    793.17119  0.041414536  0.040639115            9 
 1597000   0.60594766    -4.507713    793.00558  0.041379961   0.04061504            8 
 1598000   0.61177606   -4.4837389    790.87699  0.041243064   0.04059101            6 
 1599000   0.60533276   -4.4916485    793.38183  0.041347812  0.040566985            5 
 1600000    0.6145693   -4.4808844    793.71699  0.041339427  0.040542998           18 
 1601000   0.60320539   -4.5079832    791.76098  0.041211794  0.040518931           14 
 1602000   0.61734467   -4.5080649    793.50106  0.041276584  0.040494845            7 
 1603000   0.61516387   -4.5260594    792.54673  0.041201223  0.040470951            9 
 1604000   0.62061321   -4.5028403    792.73617  0.041185379  0.040447029           23 
 1605000   0.61265383   -4.5016903    791.72994  0.041107473  0.040423023           11 
 1606000   0.60723664   -4.5054214    793.01364  0.041148487  0.040399047           10 
 1607000   0.63282891   -4.5211384    793.67254   0.04115705  0.040375108            9 
 1608000   0.60609131   -4.5208257    793.19275  0.041106589  0.040351144            8 
 1609000   0.60533591   -4.5288165     793.3912   0.04109132  0.040327144           12 
 1610000   0.60755938   -4.5131514    793.72012  0.041082822  0.040303054           12 
 1611000   0.60669402   -4.5069032    793.46415   0.04104408  0.040279043           11 
 1612000   0.61256891   -4.5232495    794.14405  0.041053766  0.040255195           26 
 1613000   0.61274577   -4.5218845    793.08258  0.040973475  0.040231203            7 
 1614000   0.59660839   -4.5119743    794.47551  0.041020008  0.040207535           16 
 1615000   0.62495048   -4.5231603    793.63906  0.040951448  0.040183702           12 
 1616000   0.60290828   -4.5178958     793.9405  0.040941651   0.04015987           12 
 1617000   0.60829655    -4.516323    795.37716  0.040990371  0.040136171           11 
 1618000   0.60430788   -4.5155173    795.80452  0.040987048  0.040112559           11 
 1619000   0.62435751   -4.5252563    795.61871  0.040952167   0.04008876           11 
 1620000   0.61385842   -4.5198176    795.07533  0.040898937  0.040065056           14 
 1621000   0.60415046   -4.5054683    795.65775  0.040903647   0.04004141           16 
 1622000   0.60262574   -4.5090059    794.53891  0.040820947  0.040017827           19 
 1623000   0.59668718   -4.5238012    796.83452  0.040913664   0.03999425           10 
 1624000   0.60665603   -4.5171016    794.55309  0.040771402  0.039970644            9 
 1625000   0.60172335   -4.5006065    795.47844  0.040793766  0.039947134            7 
 1626000   0.60183342   -4.5069938    798.25362  0.040910907  0.039923619            8 
 1627000   0.61411193   -4.5185152    796.28255  0.040784806  0.039900332           12 
 1628000   0.59537793   -4.5208177    795.50943   0.04072018  0.039876969           21 
 1629000   0.60227225    -4.542524    794.88989  0.040663489  0.039853652           15 
 1630000   0.59898325   -4.5090875    794.41828  0.040614431  0.039830168            9 
 1631000    0.6056128   -4.5228896    797.55452  0.040749771  0.039806752           10 
 1632000   0.60943478   -4.5094926    795.68724  0.040629455  0.039783411            9 
 1633000   0.59376491   -4.4955672    799.01913  0.040774603  0.039760086            6 
 1634000   0.59137439   -4.5145246    797.00261  0.040646808   0.03973666            6 
 1635000   0.59241399   -4.5232677    795.81947  0.040561645   0.03971328            6 
 1636000   0.59618561   -4.5222412    797.15073  0.040604662   0.03968995            6 
 1637000   0.60737839   -4.5233358    798.95725  0.040671821  0.039666609           16 
 1638000   0.59740284   -4.5313466    797.66744  0.040581371  0.039643196            7 
 1639000   0.60539581   -4.5242243    796.44888  0.040494655  0.039619668           20 
 1640000   0.59078265   -4.5454812    796.34275   0.04046457  0.039596304            9 
 1641000    0.5927551   -4.5271605    796.74135  0.040460154  0.039572999           10 
 1642000   0.59674867   -4.5430742    796.42065  0.040419237  0.039549607           16 
 1643000   0.59073661   -4.5426896    797.02011  0.040425041  0.039526315            6 
 1644000   0.60207645   -4.5282801    797.95392  0.040447786  0.039502919            7 
 1645000   0.60209302   -4.5454178    797.71369  0.040411028  0.039479718            8 
 1646000   0.60066171   -4.5289324    798.91885  0.040447491  0.039456347            9 
 1647000   0.60871484   -4.5209581     797.6485  0.040358657  0.039433193            9 
 1648000   0.60008788   -4.5247778    798.99914  0.040402465  0.039410087           21 
 1649000   0.59051116   -4.5249716    799.25301  0.040390793  0.039386937            9 
 1650000   0.58948141   -4.5347635    797.89837  0.040297898  0.039363796           23 
 1651000   0.59023043   -4.5431583    798.94573  0.040326354  0.039340586           13 
 1652000   0.60132143   -4.5423423    796.88439  0.040197962  0.039317285            7 
 1653000   0.59457942    -4.542859    799.61367  0.040311235   0.03929411           10 
 1654000   0.58530992    -4.540447    797.14598  0.040162534  0.039271037           11 
 1655000   0.59445338    -4.521243     797.0566  0.040133766  0.039247864           10 
 1656000   0.59189477    -4.540395    799.03002  0.040208838   0.03922487           10 
 1657000   0.60048702    -4.528984    799.59515  0.040212993  0.039201899            6 
 1658000   0.58965739   -4.5312408    800.13095  0.040215669  0.039178823           22 
 1659000   0.58900721   -4.5564808    796.72203  0.040020194  0.039155718           18 
 1660000   0.59805699   -4.5418714    799.52091  0.040136592  0.039132523            6 
 1661000   0.58628749   -4.5487112     797.9636  0.040034297  0.039109336            7 
 1662000   0.60646781   -4.5639714    796.31303  0.039927449  0.039086155           10 
 1663000   0.58723614   -4.5450242    797.76689  0.039976292  0.039062946           12 
 1664000   0.58948875   -4.5714683    797.54201  0.039941006  0.039039753           14 
 1665000    0.5952694   -4.5293696    797.10145  0.039894967  0.039016598            8 
 1666000   0.59051455   -4.5533964    799.75707  0.040003855  0.038993436           13 
 1667000   0.58612429   -4.5731696    799.19106  0.039951563  0.038970467            8 
 1668000   0.59700756   -4.5514928    799.21304  0.039928709  0.038947423           13 
 1669000   0.58913465   -4.5267348    798.53048  0.039870705  0.038924349           13 
 1670000   0.59565003   -4.5433748    799.21096  0.039880787   0.03890124           10 
 1671000   0.59488722   -4.5600281    798.51731  0.039822327   0.03887817           17 
 1672000   0.58199285    -4.544396    798.57143  0.039801208  0.038855049            8 
 1673000   0.58129184   -4.5507435    799.39961   0.03981867  0.038831961           12 
 1674000   0.57754766    -4.548449    798.41076  0.039745657  0.038808898           17 
 1675000   0.58991657   -4.5633631    800.32932  0.039817379  0.038785771           16 
 1676000    0.5877809   -4.5482181    798.57944  0.039706615  0.038762727           14 
 1677000    0.5796643   -4.5796251     797.9152  0.039649931  0.038739592           16 
 1678000   0.57844331   -4.5503501    798.90943  0.039675677   0.03871671           12 
 1679000   0.59215233   -4.5429451    800.80284  0.039746021  0.038693678           21 
 1680000   0.57364423   -4.5606292    800.11915   0.03968845  0.038670776            8 
 1681000   0.58208959   -4.5575498    799.66404  0.039642279  0.038647798           18 
 1682000   0.58898098   -4.5577669    799.45387  0.039608297  0.038624778           26 
 1683000   0.57456873   -4.5562079    798.49755  0.039537411  0.038601768           10 
 1684000   0.58733532   -4.5464912      800.358  0.039605998  0.038578806           14 
 1685000   0.57144795   -4.5559686    800.65005  0.039596936  0.038556054            7 
 1686000    0.5660779   -4.5659217    799.60596  0.039521845  0.038533122           24 
 1687000   0.58322778   -4.5784941    799.95808  0.039515811  0.038510022            9 
 1688000   0.59052605   -4.5685728    801.18484  0.039552964  0.038487081           11 
 1689000   0.57464909   -4.5708724      799.334  0.039438228  0.038464087            9 
 1690000   0.59152497    -4.560909    799.45419  0.039420818  0.038441174           14 
 1691000   0.58203208   -4.5719197     800.4848  0.039448295  0.038418305           11 
 1692000   0.57642069   -4.5628386    798.84829   0.03934438  0.038395441            9 
 1693000   0.57800714   -4.5742051    799.30814  0.039343775  0.038372573           11 
 1694000    0.5756825   -4.5536944    799.64656  0.039337198  0.038349753           12 
 1695000   0.56713361   -4.5673777    800.62641  0.039362164  0.038326942           16 
 1696000   0.57340827   -4.5544265    801.28153  0.039371144   0.03830409           12 
 1697000   0.56524653   -4.5779912    799.78175  0.039274295  0.038281229           10 
 1698000   0.56919116    -4.578763     800.6678   0.03929465  0.038258288           21 
 1699000   0.57437749   -4.5458615     801.6188  0.039318168  0.038235453           14 
 1700000    0.5657414   -4.5576583    797.17216  0.039077067  0.038212597           17 
 1701000   0.56300973   -4.5761388    800.48344  0.039216316  0.038189743           15 
 1702000   0.57041775    -4.583917    801.72933  0.039254276  0.038166928            5 
 1703000   0.57001968   -4.5914275     799.9791  0.039145581  0.038144033           19 
 1704000   0.56776756   -4.5624541    802.58821  0.039250206  0.038121256           18 
 1705000   0.56302839   -4.5845629    801.38738  0.039168494  0.038098466           10 
 1706000   0.57030044   -4.5851881    799.76496  0.039066284  0.038075661            5 
 1707000   0.57124463   -4.5789843    800.17925  0.039063623  0.038052929           20 
 1708000   0.55989739   -4.5929089    800.67448  0.039064914  0.038030189           20 
 1709000   0.56828177   -4.5805396    802.94293  0.039152669  0.038007384           30 
 1710000   0.57045703   -4.5654291    799.64585  0.038969096  0.037984662           17 
 1711000   0.55212213   -4.5925985    799.37469  0.038933114  0.037961678           21 
 1712000   0.55992983   -4.6110457    798.51972  0.038868756  0.037938729           24 
 1713000   0.56856675    -4.605808    800.79928  0.038956961  0.037915772            7 
 1714000   0.56851802   -4.6170548    802.21321  0.039002976  0.037892825           16 
 1715000   0.58142045   -4.5995336    799.63431  0.038854923  0.037870009           13 
 1716000   0.57425374   -4.5916688    800.29641  0.038864433  0.037847296           26 
 1717000   0.56601744   -4.5939565    802.35587  0.038941752    0.0378246           12 
 1718000   0.56921589   -4.5896799    800.73237  0.038840336  0.037801914           15 
 1719000   0.56864584   -4.5829313    800.74058  0.038818139  0.037779318           22 
 1720000   0.57446832   -4.5729267    800.64918  0.038791143  0.037756731           27 
 1721000   0.56280499    -4.587811    802.04489  0.038836185  0.037734136            5 
 1722000   0.56796079   -4.5743154    803.31351  0.038875025  0.037711508           20 
 1723000   0.56112824   -4.5827475    800.90126  0.038735793  0.037688902           20 
 1724000   0.56653022   -4.6135048     800.9772  0.038716995  0.037666269            6 
 1725000    0.5618873   -4.6067282    800.17742  0.038655914  0.037643681           10 
 1726000   0.56242141   -4.5957917    803.45432   0.03879173  0.037620951           10 
 1727000   0.55388281   -4.5954608    801.22881  0.038661881  0.037598247           21 
 1728000   0.57066192   -4.5977405    800.87451   0.03862242  0.037575626           10 
 1729000   0.55808964   -4.6022822    800.87133  0.038599929  0.037552951           10 
 1730000   0.55548709   -4.5980717    799.79545  0.038525792  0.037530388           10 
 1731000   0.56260645   -4.5958466    801.91277  0.038605467   0.03750776           14 
 1732000   0.56046761   -4.6121855    801.96133  0.038585515  0.037485187           14 
 1733000   0.56328492   -4.6105513    800.88885  0.038511678  0.037462566           17 
 1734000   0.55871957   -4.5916894    804.87624  0.038681096  0.037439992           13 
 1735000   0.56627401    -4.606278    801.91794  0.038516712  0.037417484           11 
 1736000   0.55962645   -4.6060139    803.35622  0.038563567  0.037394938           13 
 1737000   0.55785805   -4.5981368    801.49701  0.038452169  0.037372429           14 
 1738000   0.57330866   -4.6180042    800.98943  0.038405707  0.037349934           10 
 1739000   0.55559606   -4.6163826    801.74092  0.038419634  0.037327362           15 
 1740000   0.56369191   -4.5867307    803.48879  0.038481264  0.037304936           10 
 1741000   0.55405866   -4.6050292    801.57853  0.038367726  0.037282551            8 
 1742000   0.56350493   -4.6220575    803.68993  0.038446706  0.037260108           18 
 1743000   0.55281623   -4.6139002    803.65967  0.038423201  0.037237549           14 
 1744000   0.55758437   -4.6092629    803.34678  0.038386218  0.037215118           10 
 1745000   0.55712413   -4.6142275    804.26194  0.038407924  0.037192729           17 
 1746000   0.55601484   -4.6290649    801.50307  0.038254251  0.037170387           42 
 1747000   0.55313565   -4.6331144    800.07932   0.03816444  0.037147984           18 
 1748000   0.56498692   -4.6114144    803.15037  0.038289015  0.037125592           19 
 1749000    0.5504375   -4.6126386    801.95708  0.038210267  0.037103152           11 
 1750000   0.56160409   -4.6161186     803.8014  0.038276257  0.037080833           12 
 1751000   0.55350787   -4.6366978    801.57734   0.03814855  0.037058441           18 
 1752000   0.56402262   -4.5993654    801.48656  0.038122458  0.037036085            8 
 1753000   0.56105281   -4.6138867    802.98444  0.038171917  0.037013689           17 
 1754000   0.54226974   -4.6096065    802.18341  0.038112097  0.036991331           18 
 1755000   0.54324613   -4.6015927    803.27341  0.038142137  0.036969017           14 
 1756000   0.55688764   -4.6266229    804.12913  0.038161026  0.036946804           13 
 1757000   0.55649568   -4.6252595    802.29988  0.038052546  0.036924571           17 
 1758000   0.55533847   -4.6086754    804.12384  0.038117361  0.036902348            6 
 1759000   0.55903368   -4.6142478    802.34548   0.03801144  0.036880066           11 
 1760000   0.53402494   -4.6250614    802.38252  0.037991597  0.036857787           11 
 1761000   0.56961253   -4.6430556    802.73427  0.037986668  0.036835456            9 
 1762000   0.54950566   -4.6390597    802.43671  0.037951036  0.036813088           13 
 1763000   0.54694128   -4.6179239    802.63487  0.037938877  0.036790685            9 
 1764000   0.54879554   -4.6323362    802.71583  0.037921194  0.036768335            9 
 1765000   0.56309884   -4.6272881     802.2288  0.037876714  0.036745996           11 
 1766000   0.54310877   -4.6276573     802.9015  0.037887009  0.036723647           18 
 1767000    0.5577098   -4.6312665    803.09685  0.037874781  0.036701341           12 
 1768000   0.54794236   -4.6166343    800.53915  0.037732803  0.036679041           10 
 1769000   0.56008298   -4.6455616    802.92444  0.037823838  0.036656653            5 
 1770000   0.55253295   -4.6129085    800.13061  0.037670933  0.036634246            6 
 1771000   0.54877039    -4.651977    801.90774  0.037733284  0.036611859           24 
 1772000   0.54635702   -4.6343723    801.44256  0.037690113  0.036589534           23 
 1773000    0.5459162   -4.6408634    801.01662  0.037648835   0.03656718           15 
 1774000   0.53702675   -4.6318533    801.30402  0.037641113  0.036544806           11 
 1775000   0.53287695   -4.6509526    802.56262  0.037678996  0.036522473           18 
 1776000    0.5393094   -4.6504816    800.08723   0.03754163  0.036500151           17 
 1777000   0.53847357   -4.6308846    803.19481  0.037666236  0.036477879           25 
 1778000   0.55067808   -4.6518766    801.51477  0.037566309  0.036455717           38 
 1779000   0.54153717   -4.6416319    803.00157  0.037614838   0.03643347           11 
 1780000   0.54858321   -4.6400948    802.14214  0.037553471   0.03641119            9 
 1781000   0.53326398   -4.6444365    802.75386  0.037561008  0.036388999           62 
 1782000   0.55006843   -4.6302874    803.37913   0.03756917  0.036366855           16 
 1783000   0.53634546   -4.6497523    803.95409  0.037574972  0.036344768            9 
 1784000   0.54789307   -4.6190509    804.25583  0.037568004   0.03632283           19 
 1785000   0.55583707   -4.6280518    801.95373  0.037439483  0.036300886           15 
 1786000   0.53831351   -4.6521062    801.57322  0.037400766  0.036278887           19 
 1787000   0.54957046   -4.6396493    803.41521  0.037465734  0.036256927           25 
 1788000   0.53266595   -4.6457019    802.93036  0.037422183  0.036234937           15 
 1789000   0.54281727    -4.647981    802.30372  0.037372075  0.036212901           16 
 1790000   0.54198964    -4.654349    803.66964  0.037414788  0.036190895           17 
 1791000   0.55007166   -4.6575895    805.07451  0.037459264  0.036168918           17 
 1792000    0.5380587   -4.6577786    803.90752  0.037384092  0.036146904           20 
 1793000   0.53554807   -4.6512392    802.98128  0.037320193  0.036124823           87 
 1794000   0.53400782   -4.6631897    801.56026  0.037233383  0.036102751            7 
 1795000   0.52006298   -4.6517289    803.96632  0.037324342  0.036080745           12 
 1796000   0.54311251   -4.6631464    803.37194  0.037275981  0.036058727           16 
 1797000   0.53309251   -4.6598353    804.20364  0.037293806  0.036036795           10 
 1798000   0.53753524   -4.6458682    803.34513  0.037233274  0.036014778            7 
 1799000   0.53804577   -4.6579837    803.36434  0.037213468  0.035992775           12 
 1800000   0.52776018   -4.6767111    804.09942  0.037226825  0.035970829           16 
 1801000   0.52501966    -4.677145    802.67583  0.037140285  0.035948891           15 
 1802000   0.53223293   -4.6729889     803.6682  0.037165566  0.035926892            8 
 1803000   0.52626601   -4.6659359    804.14695   0.03716708  0.035904962            9 
 1804000   0.55226346   -4.6596978    801.99742  0.037047183  0.035882994           12 
 1805000   0.54368086   -4.6514045    804.06806  0.037122256  0.035861085            9 
 1806000   0.53957586    -4.664778    802.83281  0.037044703  0.035839183           20 
 1807000   0.54258782   -4.6603879    802.85955  0.037025436  0.035817213            9 
 1808000   0.53258146    -4.675492    802.87513  0.037005675  0.035795287            6 
 1809000   0.53697751   -4.6590705    802.83204  0.036983234  0.035773324           19 
 1810000    0.5210848   -4.6590151    804.86789  0.037056532   0.03575143           12 
 1811000   0.53321028   -4.6735972    803.08293  0.036953936  0.035729473           13 
 1812000   0.53388367   -4.6688426    802.78524  0.036919851  0.035707489           10 
 1813000   0.52616253   -4.6636138    800.40921  0.036790274    0.0356856            8 
 1814000   0.53871583   -4.6543456    804.71137   0.03696763  0.035663775           10 
 1815000   0.53565226   -4.6818653    805.45113  0.036981227  0.035641898           25 
 1816000   0.52933329   -4.6542874    804.19855  0.036903384  0.035620117           13 
 1817000    0.5247498   -4.6752084     801.1823  0.036744739  0.035598294           18 
 1818000   0.52416613    -4.669783    803.55273  0.036833183  0.035576345           15 
 1819000    0.5299862   -4.6780072    802.78165  0.036777609  0.035554462           22 
 1820000   0.53263223   -4.6771171    801.76005  0.036710625  0.035532505            6 
 1821000   0.51043709   -4.6537744     804.1889  0.036801615  0.035510691           11 
 1822000   0.51812052   -4.6495866    804.53697  0.036797337  0.035488946            5 
 1823000   0.53747086    -4.668043    803.87637  0.036746954  0.035467285           15 
 1824000   0.52317275    -4.678896    802.33001  0.036656159  0.035445528           11 
 1825000   0.52169799   -4.6789529    805.40992  0.036776709  0.035423745           11 
 1826000   0.53248958   -4.6861891    803.27925   0.03665933  0.035402029           19 
 1827000   0.51453708   -4.6875762    804.37814  0.036689388  0.035380291           13 
 1828000   0.52071137   -4.6855474    804.62211  0.036680439  0.035358567           15 
 1829000   0.51364376   -4.6787558    804.70922  0.036664353  0.035336876           29 
 1830000   0.53492507   -4.6739666    803.74423  0.036600375  0.035315182           14 
 1831000   0.53039172   -4.6897357    802.98106  0.036545652  0.035293413           17 
 1832000   0.52100391   -4.6722432    803.69634   0.03655824   0.03527169           24 
 1833000   0.52170837   -4.6781487    802.71744  0.036493791  0.035250018           25 
 1834000   0.52762592   -4.6794317    804.49296  0.036554569   0.03522835           21 
 1835000   0.52490902   -4.6837353    803.15828  0.036474036  0.035206786           16 
 1836000    0.5216748   -4.6876881    803.03074  0.036448381  0.035185184           17 
 1837000   0.52833686    -4.692674    804.56544   0.03649816  0.035163492           15 
 1838000   0.52220926    -4.699448     803.3454  0.036422987  0.035141837           34 
 1839000   0.51569189   -4.6811482     802.0767   0.03634569  0.035120142           34 
 1840000   0.52353113   -4.7032111     804.9395  0.036455593  0.035098475           16 
 1841000   0.52580725   -4.6986805    801.02471  0.036258587   0.03507686           48 
 1842000   0.50932153   -4.7000065    804.75305  0.036407575  0.035055231           27 
 1843000   0.51186481   -4.6898295    803.07856  0.036312107  0.035033613           21 
 1844000   0.53163259   -4.7056984    803.91685  0.036330299  0.035012006           21 
 1845000   0.50133768   -4.7073269    803.84316  0.036307279  0.034990429           16 
 1846000    0.5173222   -4.7028183    802.29697  0.036217812  0.034968781           19 
 1847000   0.51364236   -4.7019653    805.05167   0.03632249  0.034947135           17 
 1848000   0.50826985   -4.6994026    803.27893  0.036222895   0.03492551           29 
 1849000   0.52416713   -4.7047275    802.43111  0.036165094  0.034903878           69 
 1850000   0.49765366   -4.6942555    803.29309  0.036184373  0.034882337           32 
 1851000   0.50691946   -4.7092032    804.47521  0.036218045  0.034860761           20 
 1852000   0.52045868   -4.6970007    804.21421  0.036186744  0.034839162           35 
 1853000   0.51363465   -4.6855165    803.49622  0.036134926  0.034817579           19 
 1854000    0.5091075   -4.6923432    801.54278  0.036027633  0.034796059           30 
 1855000   0.52094514   -4.7100068    802.52842   0.03605249  0.034774444           16 
 1856000   0.51325358   -4.7140074    804.39363  0.036116812  0.034752787           22 
 1857000   0.49586775   -4.7057746    803.31157  0.036048805  0.034731192           21 
 1858000   0.52106376   -4.7116725    803.69095  0.036046419  0.034709632           32 
 1859000   0.50419925   -4.6935752    804.65405  0.036070201  0.034688161           19 
 1860000   0.50853356    -4.703148    803.69732  0.036007944  0.034666663           18 
 1861000   0.52621442   -4.6913594    801.52843  0.035891476  0.034645199           24 
 1862000    0.5090626   -4.6981368    803.03873  0.035939793  0.034623732           17 
 1863000   0.51476953   -4.7037531    805.42996  0.036027463  0.034602337           20 
 1864000   0.50982976   -4.7067435    803.41669  0.035918128  0.034580962            8 
 1865000    0.4973524   -4.7136761    805.03614   0.03597123  0.034559543            9 
 1866000   0.50955268   -4.7102119    803.69809  0.035892198  0.034538169           14 
 1867000   0.50112225   -4.7158315    804.61106  0.035913724  0.034516811           17 
 1868000    0.5072204   -4.7214809    802.75001  0.035811474  0.034495368           13 
 1869000   0.50579652    -4.704847    804.64707  0.035876898  0.034473928           10 
 1870000   0.50702806   -4.7234452    802.35924  0.035755759  0.034452532           32 
 1871000   0.50542845   -4.7260954     804.3709  0.035826247  0.034431088           23 
 1872000   0.50195302   -4.7178182    803.64428  0.035774763  0.034409646           12 
 1873000   0.50555446   -4.7236976    802.24664  0.035693479   0.03438821           39 
 1874000   0.50515542   -4.7449756    804.00767  0.035752742  0.034366761           74 
 1875000   0.48959535   -4.7249701    803.00522  0.035689121  0.034345376           52 
 1876000   0.50379473   -4.7130409    804.24926  0.035725358  0.034324066           28 
 1877000   0.49205196   -4.7154298    804.33286  0.035710036  0.034302818           14 
 1878000   0.51384498    -4.707545    802.22662   0.03559756  0.034281452           22 
 1879000   0.51188907   -4.7246829    803.09197  0.035616993  0.034260152            7 
 1880000   0.50504379   -4.7213999    804.18334  0.035646425  0.034238825           30 
 1881000   0.50133284   -4.7145024    802.24545   0.03554162  0.034217496           15 
 1882000   0.50203712   -4.7350569    806.14824  0.035695547  0.034196217           20 
 1883000   0.51191622   -4.7259181    804.40659  0.035599513  0.034175078           20 
 1884000   0.48591524   -4.7141337    803.16288  0.035525605   0.03415393           33 
 1885000   0.48770548   -4.7105307    805.23033  0.035598158   0.03413282           17 
 1886000   0.49939337    -4.736944    804.14596   0.03553137  0.034111752           21 
 1887000   0.50136528   -4.7153949    805.30679  0.035563804  0.034090673           11 
 1888000    0.5080792   -4.7270085    805.19689  0.035540117  0.034069591           18 
 1889000   0.49761405   -4.7189418    805.16776  0.035520018  0.034048561           29 
 1890000   0.49901194   -4.7132064    803.31158  0.035419382  0.034027456           24 
 1891000   0.50540674   -4.7158436    806.15712   0.03552605  0.034006388            8 
 1892000   0.49350221   -4.7194618    803.81902  0.035404291  0.033985361           11 
 1893000   0.50761244    -4.707352    806.20014  0.035490409  0.033964384           53 
 1894000   0.50563595   -4.7482163    803.25063  0.035341897  0.033943347           43 
 1895000   0.49665925   -4.7335914    804.03759  0.035357854  0.033922234           23 
 1896000    0.4967209   -4.7454163    803.39058  0.035310767  0.033901087           33 
 1897000   0.50423542   -4.7378491    803.61163  0.035301864  0.033879925           19 
 1898000   0.49929606   -4.7515536    802.47856  0.035233516   0.03385874           34 
 1899000   0.49682408   -4.7396962    802.62433  0.035221359  0.033837552           22 
 1900000   0.50309209   -4.7500483    803.97657   0.03526213  0.033816475           85 
 1901000   0.48741275   -4.7450906    803.34348  0.035215829  0.033795384           38 
 1902000   0.49460398   -4.7570092    803.95727  0.035224206  0.033774312           63 
 1903000   0.50192021   -4.7374464     805.5325  0.035274676   0.03375321           35 
 1904000   0.49926181   -4.7498748    801.56695  0.035082587  0.033732108           43 
 1905000       0.4946   -4.7602683    803.60113  0.035153155  0.033711054           41 
 1906000   0.48651387   -4.7527002    804.78944  0.035186667  0.033690019           90 
 1907000   0.48738056   -4.7619678    803.10294  0.035094518  0.033668947           85 
 1908000   0.48802674   -4.7411226    803.38418  0.035088408  0.033647916           47 
 1909000   0.49067889   -4.7452017    804.92346  0.035137221  0.033626853           75 
 1910000   0.47322953   -4.7648711    804.16374  0.035085678  0.033605816           78 
 1911000   0.49664998   -4.7553595    803.14986  0.035023106  0.033584714           54 
 1912000   0.49543655   -4.7683834    802.35271  0.034970045  0.033563614           65 
 1913000    0.4891614   -4.7589771    804.13964  0.035029606  0.033542571           45 
 1914000   0.47934169   -4.7652606    804.59267  0.035031029  0.033521566           21 
 1915000   0.48308115   -4.7575656    802.61205  0.034926547  0.033500477           18 
 1916000   0.48013239   -4.7598853     803.9802  0.034967824  0.033479448           36 
 1917000   0.49027344    -4.751924    802.94438  0.034904555  0.033458415           28 
 1918000    0.4985434   -4.7600559    802.84743  0.034882144  0.033437475           32 
 1919000   0.49291248   -4.7689051    802.16203  0.034834203  0.033416549           73 
 1920000   0.48037115   -4.7595376    803.71546  0.034883483  0.033395665           28 
 1921000   0.49243385    -4.750598     804.3557  0.034893098  0.033374807           34 
 1922000   0.48667341   -4.7423005     803.1699   0.03482353  0.033353884           33 
 1923000   0.48843946   -4.7640433    803.14662  0.034804413  0.033332929           25 
 1924000   0.49101366   -4.7537342    802.37342  0.034752833   0.03331199           35 
 1925000   0.48776933   -4.7610629    802.09705  0.034722816  0.033291069           34 
 1926000   0.48960752   -4.7540044    803.98692  0.034786557  0.033270189           88 
 1927000    0.4973762   -4.7684331    802.35164  0.034697788  0.033249282           33 
 1928000   0.48336386   -4.7503707     804.0583  0.034753557  0.033228366           26 
 1929000   0.47393819   -4.7656954     801.5826   0.03462859  0.033207369           33 
 1930000   0.48862374   -4.7526385     803.4386  0.034690786  0.033186428           24 
 1931000   0.47710189   -4.7793609    803.28606  0.034666238  0.033165505           21 
 1932000   0.49286586   -4.7608349    804.06755  0.034682003  0.033144669           54 
 1933000   0.47392666   -4.7666637    803.27177  0.034629754  0.033123849           72 
 1934000   0.48398533   -4.7643864    801.80412  0.034548609  0.033103036           45 
 1935000   0.47559744   -4.7636621    804.14385  0.034631518  0.033082251           40 
 1936000   0.47503524   -4.7685747     803.5759  0.034589183  0.033061417           31 
 1937000   0.47526586   -4.7722996    802.37533  0.034519675  0.033040561           29 
 1938000   0.48034379   -4.7694495    803.03016  0.034530021   0.03301977           19 
 1939000   0.47294701   -4.7626848    805.07644  0.034600157  0.032998991           27 
 1940000   0.47314606   -4.7582908    805.40314  0.034596355  0.032978259           20 
 1941000   0.47382177   -4.7633046    803.00951  0.034475765  0.032957527           12 
 1942000   0.47516656   -4.7899881    803.62845  0.034484571  0.032936802           14 
 1943000   0.46581725   -4.7837914    802.78474  0.034430637  0.032916056           20 
 1944000   0.47195316   -4.7655967    802.72898  0.034410536  0.032895281           57 
 1945000   0.48442908   -4.7760652    801.70567     0.034349  0.032874531           62 
 1946000   0.48821359   -4.7580101    805.07022  0.034475429   0.03285388           32 
 1947000   0.47760396   -4.7715294    804.30986  0.034425178  0.032833289           28 
 1948000   0.47468596    -4.780695    804.82998  0.034429756  0.032812733           31 
 1949000   0.47061082   -4.7772481    801.75461  0.034280597  0.032792156           38 
 1950000   0.46589457   -4.7702169    803.16254  0.034323185  0.032771515           30 
 1951000    0.4699873    -4.777105    802.15497  0.034262556  0.032750884           29 
 1952000   0.47895984   -4.7668259    801.62317  0.034222301  0.032730246           31 
 1953000   0.45864416    -4.773852    801.93121  0.034217921  0.032709597           44 
 1954000   0.47392612   -4.7922369    802.54786  0.034226708  0.032688936           36 
 1955000    0.4854218   -4.7938671     802.2857  0.034198026  0.032668214           62 
 1956000   0.46903261   -4.7843318    803.12079  0.034216121  0.032647574           41 
 1957000    0.4694882    -4.777231    801.49276  0.034129312  0.032626933           25 
 1958000   0.47342954   -4.7904205     802.5687  0.034157674    0.0326064           25 
 1959000   0.46982471   -4.7818267    802.84416  0.034151955   0.03258584           29 
 1960000   0.47779273   -4.7922679    802.91603  0.034137586  0.032565317           24 
 1961000    0.4734763   -4.7966769    804.15927   0.03417301   0.03254481           39 
 1962000   0.47061692   -4.7982774    801.40253  0.034038504  0.032524242           62 
 1963000   0.46226616   -4.8073896    802.14493   0.03405268  0.032503685           65 
 1964000   0.46746515   -4.7812432    801.41297  0.034004284  0.032483173           75 
 1965000   0.46711648   -4.8099283    802.73586  0.034043081  0.032462643          105 
 1966000   0.45765475   -4.8147606    803.50018  0.034058163  0.032442136           63 
 1967000   0.46591307   -4.7787497    803.09373  0.034023629  0.032421703           40 
 1968000   0.46523745   -4.7791343    803.09788  0.034006516  0.032401271           20 
 1969000    0.4661475   -4.7987769    803.13458  0.033990798  0.032380824           25 
 1970000   0.46542363   -4.7978482    803.48549  0.033988388  0.032360388           50 
 1971000   0.46763838   -4.8045096    802.56953  0.033932417  0.032339959           48 
 1972000   0.47704014   -4.8052806    800.25357  0.033817342  0.032319473           37 
 1973000   0.46372937   -4.8096251    802.48597  0.033894491  0.032299051           30 
 1974000   0.46795189   -4.8133018    802.57802  0.033881206  0.032278597           41 
 1975000   0.47094131    -4.815708    802.50501  0.033860971   0.03225818           33 
 1976000   0.46929543   -4.8059877    801.60842  0.033806023  0.032237715           61 
 1977000   0.46571341   -4.8351388    802.21425   0.03381446  0.032217312           49 
 1978000   0.46342864   -4.8102566    803.10487  0.033834887  0.032196914           56 
 1979000   0.46555166   -4.8149999    802.63849  0.033798151  0.032176631           36 
 1980000   0.46833724   -4.8204808    801.18238  0.033719797  0.032156266           43 
 1981000   0.46622512   -4.8148053    802.31582  0.033750455  0.032135931          103 
 1982000   0.45682711   -4.8215891    802.78389  0.033753107  0.032115563          142 
 1983000   0.46081161   -4.8186961     802.5218  0.033725071  0.032095216           44 
 1984000   0.46602063   -4.8173653    801.63877  0.033670983  0.032074832           45 
 1985000   0.45441182   -4.8161014    802.35487  0.033684084  0.032054478          171 
 1986000   0.45623359   -4.8085222    802.55648  0.033675583  0.032034162           73 
 1987000   0.46882093   -4.8246273     801.5224  0.033615266  0.032013857           71 
 1988000   0.44748277   -4.8158308    801.37846  0.033592323  0.031993563           42 
 1989000   0.46227068   -4.8241326    801.24832  0.033569982  0.031973261           51 
 1990000   0.46696267   -4.8198433    802.07136  0.033587578  0.031952955           90 
 1991000   0.45901596   -4.8115894    801.59845  0.033550914  0.031932594           72 
 1992000   0.45157587   -4.8221667    803.06017  0.033595221   0.03191227          165 
 1993000   0.46951305   -4.8352143    802.05716  0.033536426  0.031891945           83 
 1994000   0.46364071   -4.8363145    800.13638  0.033439334  0.031871648           97 
 1995000   0.46170224   -4.8397662    802.42514  0.033518176  0.031851345           82 
 1996000   0.45371051    -4.836571    802.51932  0.033505316  0.031831042          100 
 1997000   0.46079013     -4.82942    801.65725  0.033452564  0.031810723           98 
 1998000   0.44231487   -4.8400559    801.92041  0.033446797  0.031790426           82 
 1999000   0.44974563   -4.8356787    799.47477  0.033328113  0.031770123           91 
 2000000   0.46202855   -4.8327951    802.43771  0.033434904  0.031749862          163 
 2001000   0.45110709   -4.8235578    799.95854  0.033314948  0.031729591           97 
 2002000   0.45405273   -4.8437891    801.38898   0.03335785  0.031709326          138 
 2003000   0.46447168   -4.8319023    799.23971  0.033251777  0.031689087          134 
 2004000   0.44462827   -4.8317268    801.49301  0.033328884  0.031668866           45 
 2005000   0.45697171   -4.8305253    801.57836  0.033315809  0.031648704           91 
 2006000   0.45141529   -4.8494151    800.91348   0.03327158  0.031628516           36 
 2007000    0.4454861   -4.8445863    800.14667  0.033223163  0.031608307          178 
 2008000   0.45906732   -4.8307483    800.62112  0.033226308  0.031588177           83 
 2009000    0.4558171   -4.8414899    802.78158  0.033299385  0.031568078           35 
 2010000   0.45852396   -4.8229773     801.2814  0.033220622  0.031548086           94 
 2011000   0.45243754   -4.8199383    802.38546  0.033249853  0.031527972           80 
 2012000    0.4548203   -4.8279226    801.82788  0.033210234  0.031507903          193 
Loop time of 4974.4 on 48 procs for 2000000 steps with 4000 atoms

Performance: 69475.774 tau/day, 402.059 timesteps/s
99.4% CPU use with 48 MPI tasks x no OpenMP threads

MPI task timing breakdown:
Section |  min time  |  avg time  |  max time  |%varavg| %total
---------------------------------------------------------------
Pair    | 331.97     | 353.69     | 379.43     |  57.7 |  7.11
Neigh   | 33.46      | 34.93      | 37.688     |  12.8 |  0.70
Comm    | 315.88     | 340.46     | 361.35     |  59.3 |  6.84
Output  | 4.1462     | 4.148      | 4.1798     |   0.2 |  0.08
Modify  | 4184       | 4195.6     | 4210.6     |   9.5 | 84.34
Other   |            | 45.57      |            |       |  0.92

Nlocal:        83.3333 ave          90 max          76 min
Histogram: 1 1 9 4 2 12 8 8 1 2
Nghost:        2264.38 ave        2282 max        2244 min
Histogram: 2 3 6 4 6 9 5 4 3 6
Neighs:        15287.1 ave       16636 max       13803 min
Histogram: 1 3 6 3 10 8 4 5 4 4
FullNghs:      30575.0 ave       33169 max       27787 min
Histogram: 1 5 3 6 4 11 8 4 5 1

Total # of neighbors = 1467598
Ave neighs/atom = 366.89950
Neighbor list builds = 108033
Dangerous builds = 2

#clear
#
#next RN
#
#jump SELF
Total wall time: 1:22:57
