
units lj                  # Use reduced LJ style units
atom_style atomic         # Uncharged point particles
atom_modify map hash      # Needed for indexing of clusters etc
                          # Used to be able to find where atoms are in relation to each other.

lattice fcc 1.0 spacing 1 1 1
Lattice spacing in x,y,z = 1.5874011 1.5874011 1.5874011
region box block 0 10 0 10 0 10 units lattice
create_box 2 box
Created orthogonal box = (0.0000000 0.0000000 0.0000000) to (15.874011 15.874011 15.874011)
  3 by 4 by 4 MPI processor grid
create_atoms 1 box
Created 4000 atoms
  using lattice units in orthogonal box = (0.0000000 0.0000000 0.0000000) to (15.874011 15.874011 15.874011)
  create_atoms CPU = 0.003 seconds
set type 1 type/fraction 2 0.0 78393
Setting atom values ...
  0 settings made for type/fraction
mass 1 1.0
mass 2 1.0
pair_style lj/cut  3.5
pair_modify tail  yes
pair_coeff 1  1  1.0  1.0   # Intearaction between 1 and 1 set with epsilon = 1 and sigma = 1
pair_coeff 1  2  1.5  0.8
pair_coeff 2  2  0.5  0.88

write_data data.0
System init for write_data ...
Neighbor list info ...
  update every 1 steps, delay 10 steps, check yes
  max neighbors/atom: 2000, page size: 100000
  master list distance cutoff = 3.8
  ghost atom cutoff = 3.8
  binsize = 1.9, bins = 9 9 9
  1 neighbor lists, perpetual/occasional/extra = 1 0 0
  (1) pair lj/cut, perpetual
      attributes: half, newton on
      pair build: half/bin/atomonly/newton
      stencil: half/bin/3d
      bin: standard
WARNING: Not all mixed pair coeffs generated from mixing. Use write_data with 'pair ij' option to store all pair coeffs. (../write_data.cpp:312)


#############################
#   M E L T   S Y S T E M   #
#############################

velocity all create 2.4 6583654 mom yes dist gaussian # Assign velocities
                                                    # Temperature 2.4, random number seed, zero linear momentum
                                                                                # Gaussian distribution

timestep 0.002   # simulation timestep
thermo 1000       # output thermodynamic data every 1000 steps bf 100

# Define a fix  in this case with index 1 applied to all
# particles in the simulation. This fix is for simulations
# in the anisotropic NPT ensemble. Note that we use the MTK
# correction.
fix 1 all npt temp 2.4 2.4 0.1 iso 5.68 5.68 0.5 mtk yes tchain 5 pchain 5 # Use NPT ensemble
                                                                         # Set temperature and pressure and damping
                                                                         # Numbers of thermostats in chain and in barostat
run 10000          # run for 10000 steps
Per MPI rank memory allocation (min/avg/max) = 3.642 | 3.644 | 3.648 Mbytes
Step Temp E_pair E_mol TotEng Press Volume 
       0          2.4   -8.3859253            0   -4.7868253   -2.2405722         4000 
    1000    2.3598253   -4.4579732            0  -0.91912021    5.7048558     5164.517 
    2000     2.383198   -4.3267451            0  -0.75284184    5.6269769    5254.7565 
    3000    2.3959107   -4.3928818            0  -0.79991422     5.588546    5225.7026 
    4000    2.3503695   -4.3411931            0  -0.81652021    5.7615114    5222.8281 
    5000    2.4078932   -4.3773591            0  -0.76642224     5.842355    5206.2315 
    6000    2.3685535   -4.3425818            0  -0.79063978    5.8509925    5210.9665 
    7000    2.4291595   -4.3522661            0   -0.7094378    5.9515757    5198.0937 
    8000    2.3617408   -4.3121771            0   -0.7704516    5.6392411    5264.1378 
    9000    2.4234401   -4.2878093            0  -0.65355804    5.6601748    5289.4475 
   10000    2.4312157    -4.405655            0  -0.75974307    5.6958754     5201.985 
Loop time of 2.14457 on 48 procs for 10000 steps with 4000 atoms

Performance: 805757.591 tau/day, 4662.949 timesteps/s
99.5% CPU use with 48 MPI tasks x no OpenMP threads

MPI task timing breakdown:
Section |  min time  |  avg time  |  max time  |%varavg| %total
---------------------------------------------------------------
Pair    | 0.82569    | 0.90127    | 0.98663    |   2.9 | 42.03
Neigh   | 0.16688    | 0.17096    | 0.18069    |   0.7 |  7.97
Comm    | 0.68146    | 0.76435    | 0.88977    |   5.5 | 35.64
Output  | 0.00023887 | 0.00024512 | 0.00038938 |   0.0 |  0.01
Modify  | 0.20849    | 0.29366    | 0.37031    |   9.1 | 13.69
Other   |            | 0.01407    |            |       |  0.66

Nlocal:        83.3333 ave          93 max          75 min
Histogram: 2 1 8 9 4 11 7 3 2 1
Nghost:        1380.21 ave        1407 max        1356 min
Histogram: 2 2 4 10 9 5 10 4 1 1
Neighs:        7319.10 ave        8317 max        6342 min
Histogram: 1 4 2 10 8 9 4 8 0 2

Total # of neighbors = 351317
Ave neighs/atom = 87.829250
Neighbor list builds = 902
Dangerous builds = 204

# Equilibrate just above the melting temperature to avoid step fn in T

fix 1 all npt temp 1.25 1.25 0.1 iso 5.68 5.68 0.5 mtk yes tchain 5 pchain 5
run 2000
Per MPI rank memory allocation (min/avg/max) = 3.642 | 3.644 | 3.648 Mbytes
Step Temp E_pair E_mol TotEng Press Volume 
   10000    2.4312157    -4.405655            0  -0.75974307    5.6958754     5201.985 
   11000     1.276113   -5.8036341            0   -3.8899432    5.7854896    4352.1755 
   12000    1.2485076   -5.8329942            0    -3.960701    5.6011079    4351.8865 
Loop time of 0.443393 on 48 procs for 2000 steps with 4000 atoms

Performance: 779444.029 tau/day, 4510.671 timesteps/s
99.7% CPU use with 48 MPI tasks x no OpenMP threads

MPI task timing breakdown:
Section |  min time  |  avg time  |  max time  |%varavg| %total
---------------------------------------------------------------
Pair    | 0.19171    | 0.20571    | 0.21871    |   1.2 | 46.39
Neigh   | 0.030264   | 0.031628   | 0.033445   |   0.3 |  7.13
Comm    | 0.138      | 0.15426    | 0.17679    |   1.9 | 34.79
Output  | 5.1573e-05 | 5.3107e-05 | 6.4847e-05 |   0.0 |  0.01
Modify  | 0.039282   | 0.047499   | 0.054906   |   1.8 | 10.71
Other   |            | 0.004238   |            |       |  0.96

Nlocal:        83.3333 ave          90 max          76 min
Histogram: 3 0 6 4 4 12 6 7 5 1
Nghost:        1557.19 ave        1583 max        1542 min
Histogram: 4 6 7 13 8 5 1 2 1 1
Neighs:        8759.38 ave        9529 max        7767 min
Histogram: 2 1 4 4 7 7 7 8 7 1

Total # of neighbors = 420450
Ave neighs/atom = 105.11250
Neighbor list builds = 143
Dangerous builds = 11

#############################
# L I N E A R  Q U E N C H  #
#############################

# Define solid atoms. This closely follows ten Wolde  Ruiz-Montero and Frenkel  Faraday Discuss  1996  104  93-110
# Compute components of the per-atom q6 vector
compute q6 all orientorder/atom degrees 1 6 components 6 nnn NULL cutoff 1.3 # compute the Q6 parameter.
                                                                             # Use all neighbours within 1.3 unit cell.

# get number of connections
compute coord_number all coord/atom orientorder q6 0.5

# An atom is solid if it has 8 or more connections (of a possible 14)
variable is_solid atom c_coord_number>=8
group solid dynamic all var is_solid    # Must be dynamic to update
dynamic group solid defined

# do clustering
compute cluster solid cluster/atom 1.3 # Create a cluster where all atoms within are solid and max 1.3 units from another member

# define chunks one chunk per cluster
compute clus_chunks solid chunk/atom c_cluster nchunk every compress yes  # Says which atoms are in which chunk

# count the size of each chunk
compute size_chunks solid property/chunk clus_chunks count


# Find the maximum entry in the vector of chunk sizes
variable max_n equal max(c_size_chunks)


# Thermo style which includes this variable
# thermo_style custom step temp pe vol v_max_n

thermo ${N}  # Print the thermo information every 100 steps
thermo 1000  

# Reset the npt fix at a lower temperature (below freezing)
fix 1  all npt temp  ${temp} ${temp}  0.1  iso  5.68  5.68  0.5  mtk yes tchain  5  pchain  5
fix 1  all npt temp  0.45 ${temp}  0.1  iso  5.68  5.68  0.5  mtk yes tchain  5  pchain  5
fix 1  all npt temp  0.45 0.45  0.1  iso  5.68  5.68  0.5  mtk yes tchain  5  pchain  5

dump dmp2 all dcd ${N} traj.dcd
dump dmp2 all dcd 1000 traj.dcd


compute msd all msd com yes
variable twopoint equal c_msd[4]/6/(step*dt+1.0e-6)
fix 9 all vector 10 c_msd[4]
variable fit equal slope(f_9)/6/(10*dt)
thermo_style custom step temp pe c_msd[4] v_twopoint v_fit v_max_n

fix 1 all npt temp 1.25 ${temp} 0.1 iso 5.68 5.68 0.5 mtk yes tchain 5 pchain 5
fix 1 all npt temp 1.25 0.45 0.1 iso 5.68 5.68 0.5 mtk yes tchain 5 pchain 5
run 2000000 # 5000000  # Run for this many steps
Neighbor list info ...
  update every 1 steps, delay 10 steps, check yes
  max neighbors/atom: 2000, page size: 100000
  master list distance cutoff = 3.8
  ghost atom cutoff = 3.8
  binsize = 1.9, bins = 9 9 9
  4 neighbor lists, perpetual/occasional/extra = 1 3 0
  (1) pair lj/cut, perpetual
      attributes: half, newton on
      pair build: half/bin/atomonly/newton
      stencil: half/bin/3d
      bin: standard
  (2) compute orientorder/atom, occasional
      attributes: full, newton on
      pair build: full/bin/atomonly
      stencil: full/bin/3d
      bin: standard
  (3) compute coord/atom, occasional
      attributes: full, newton on
      pair build: full/bin/atomonly
      stencil: full/bin/3d
      bin: standard
  (4) compute cluster/atom, occasional
      attributes: full, newton on
      pair build: full/bin/atomonly
      stencil: full/bin/3d
      bin: standard
Per MPI rank memory allocation (min/avg/max) = 9.728 | 9.732 | 9.738 Mbytes
Step Temp PotEng c_msd[4] v_twopoint v_fit v_max_n 
   12000    1.2485076   -5.8329942 1.0430713e-30 7.2435506e-33 8.3333333e+20            3 
   13000    1.2145644   -5.8564268   0.56167195 0.0036004611  0.046280888            3 
   14000    1.2467661   -5.8825025    1.1320074 0.0067381392  0.046531174            1 
   15000    1.2309958   -5.8146284    1.7436346 0.0096868584  0.047649063            4 
   16000       1.2611   -5.8098718    2.3194002  0.012080209   0.04821208            2 
   17000    1.2442916   -5.8321219    2.8911485  0.014172296  0.048476173            4 
   18000    1.2432616   -5.8757726    3.4075435  0.015775664  0.047973934            7 
   19000    1.2596967   -5.8265127    3.9433739  0.017295499  0.047515721            2 
   20000    1.2265698   -5.8666327     4.456372  0.018568216  0.046827152            3 
   21000    1.2517556   -5.8527952    5.0758364  0.020142208  0.046547976            3 
   22000    1.2542924   -5.8425272    5.6176014  0.021278793  0.046629093            3 
   23000    1.2504971   -5.8581459    6.1293876  0.022207926  0.046456774            2 
   24000    1.2824924   -5.8463273    6.6407536  0.023058172  0.046250912            2 
   25000    1.2339972   -5.8412239    7.1683793  0.023894597  0.045992815            5 
   26000    1.2468588    -5.889555    7.6810241  0.024618667  0.045806916            5 
   27000    1.2587988   -5.8610437    8.1882847  0.025272483  0.045576632            3 
   28000    1.2297803   -5.8302931    8.7235883   0.02596306  0.045345068            5 
   29000    1.2233799   -5.8414939     9.365428  0.026912149  0.045252144            6 
   30000    1.2471524   -5.8978921    9.7668516  0.027130143  0.045153722            4 
   31000    1.2402444   -5.8747308    10.373048  0.027884537   0.04504967            2 
   32000    1.2548126   -5.8504973    11.031889  0.028728877  0.045069891            2 
   33000     1.256833   -5.8329869    11.678642  0.029491521  0.045203191            3 
   34000     1.223471   -5.8749031    12.169959  0.029828332  0.045374835            3 
   35000    1.2499827   -5.8645155    12.842636  0.030577703  0.045513403            2 
   36000     1.244312   -5.8260972    13.314696  0.030821054  0.045671744            2 
   37000    1.2585409   -5.8671762     13.82531  0.031138086  0.045744442            5 
   38000    1.2309523   -5.8569778    14.422497  0.031628282  0.045806744            4 
   39000    1.2272964   -5.8544295    15.053861  0.032166369  0.045908399            3 
   40000    1.2099111   -5.8444894    15.569663  0.032436797  0.045994491            3 
   41000     1.231972   -5.8789132     16.01308  0.032546911  0.046043739            2 
   42000    1.2143137   -5.8342779    16.592554  0.032921733   0.04602784            6 
   43000    1.2272069   -5.8594601    17.094738  0.033129337  0.045987483            3 
   44000    1.2331327   -5.8481157    17.759405  0.033635237  0.045997825            2 
   45000    1.2179456   -5.8964292    18.339444  0.033961933  0.046017417            3 
   46000    1.2537152   -5.8516985    18.841828  0.034133745  0.046039205            5 
   47000    1.2355597   -5.9006705     19.37462  0.034352163   0.04604932            2 
   48000    1.2522577   -5.8641579    19.924142  0.034590523   0.04604528            5 
   49000    1.2619685   -5.8656284     20.42777  0.034741105  0.046024714            3 
   50000    1.2683746   -5.8429649    21.081454  0.035135756  0.046015255            3 
   51000    1.2329632   -5.8492627     21.66006  0.035392254  0.046045375            3 
   52000    1.2205697   -5.8279609    22.129929  0.035464629  0.046059559            3 
   53000    1.2193361   -5.8803691    22.687675  0.035672444  0.046058929            4 
   54000    1.2196016    -5.850971    23.225038  0.035841108  0.046056693            3 
   55000    1.2184848   -5.8645116    23.930944  0.036259005  0.046073109            8 
   56000    1.2239915   -5.8465085    24.372535  0.036268653  0.046070572            4 
   57000    1.2679808   -5.8560836    24.770373  0.036213995  0.046066069            4 
   58000     1.230224   -5.8493233    25.449815  0.036565826   0.04606701            3 
   59000    1.2269203   -5.8643412    26.063033  0.036812193  0.046062738            6 
   60000    1.2448492   -5.8659307    26.567135  0.036898798  0.046080562            4 
   61000    1.2315019   -5.8447329    26.919822  0.036775712  0.046070635            4 
   62000    1.2149381   -5.8448023    27.294094   0.03668561  0.046001502            5 
   63000    1.2365633   -5.8838117    27.801409   0.03677435  0.045919462            3 
   64000    1.2177424   -5.8663588    28.305981  0.036856746  0.045841409            4 
   65000    1.2305305   -5.8287278     28.86864  0.037011077  0.045760677            2 
   66000    1.1910695   -5.8847634     29.29805  0.036992487  0.045676275            3 
   67000    1.2220813   -5.8564682    29.984482  0.037294131  0.045631361            4 
   68000    1.2184809   -5.8536787    30.369876  0.037217985  0.045593727            1 
   69000      1.22247   -5.8615815     30.68993  0.037065132  0.045516414            5 
   70000    1.2320847   -5.8562103    31.290002  0.037250003   0.04543785            2 
   71000    1.2473385   -5.8738556    31.814911  0.037341445  0.045372634            3 
   72000    1.2395338   -5.8779944    32.394315  0.037493419  0.045307927            2 
   73000    1.2370765     -5.87694    32.911176  0.037569835  0.045253395            3 
   74000    1.2564559   -5.8868198    33.394976  0.037606955  0.045204066            3 
   75000    1.2508994   -5.9214795    33.921716  0.037690796  0.045148902            4 
   76000    1.2321882   -5.8866333    34.483503  0.037810858  0.045093974            3 
   77000    1.2315171    -5.878707     35.27882  0.038180541  0.045061115            7 
   78000    1.2050271   -5.8529175    35.714429  0.038156441  0.045035612            4 
   79000    1.1839092   -5.8678201    36.115458  0.038096474  0.044999334            7 
   80000    1.2032931   -5.8624352    36.622044  0.038147962  0.044962859            3 
   81000    1.2145054   -5.8552199    37.289072  0.038363243  0.044927305            2 
   82000    1.2690887   -5.8784474    37.748032  0.038361821  0.044900264            2 
   83000    1.2217309   -5.9036181    38.410509  0.038564768  0.044879844            4 
   84000     1.244038   -5.8974137    38.996037  0.038686544  0.044866656            5 
   85000    1.2294704     -5.88728    39.432821  0.038659628  0.044852699            5 
   86000    1.2334938   -5.8752054    39.967512  0.038728209  0.044838956            3 
   87000    1.2472565   -5.9205262    40.495962  0.038789235  0.044825974            2 
   88000    1.1982427   -5.8978116     41.04572  0.038869053  0.044807915            5 
   89000    1.2076689   -5.8696719    41.638042  0.038986931  0.044796762           10 
   90000    1.2112126   -5.9042996    42.076373  0.038959605  0.044781942           10 
   91000    1.2098001   -5.8869881    42.573597   0.03898681  0.044768657            1 
   92000    1.2044934   -5.8890247    43.386295   0.03929918  0.044762405            5 
   93000    1.2136339   -5.9028933    43.964698  0.039394891  0.044773261            3 
   94000    1.1874385   -5.9012404     44.58709  0.039527562  0.044782414            8 
   95000    1.1963046   -5.9179591    45.253898  0.039696401  0.044795367            3 
   96000    1.2053357   -5.8759024    45.872661  0.039820018  0.044819468            2 
   97000    1.1726792   -5.9108252    46.581309  0.040018306  0.044849344            3 
   98000    1.2169275   -5.8888567    47.061469  0.040018255  0.044875112            2 
   99000    1.2118095   -5.9206387    47.563529  0.040036641    0.0449097            2 
  100000    1.2259201   -5.9198858    48.213756  0.040178129  0.044944432            4 
  101000    1.2157855   -5.9108366    48.662196  0.040150327  0.044973302            3 
  102000    1.1990665   -5.8897119    49.623788   0.04054231   0.04500736            3 
  103000    1.2398831   -5.8978801    50.310412  0.040704217  0.045053568            3 
  104000    1.2029745   -5.9305056    50.783091  0.040691579  0.045102913            6 
  105000    1.2335002   -5.8764853    51.136663  0.040584653  0.045142911            4 
  106000     1.193253   -5.9066613     51.69025  0.040636989  0.045171347            6 
  107000    1.2038629   -5.9103983    51.857255   0.04038727  0.045194538            2 
  108000    1.2164251   -5.8893385    52.433652  0.040458064   0.04521221            3 
  109000    1.2230015    -5.906476    53.049088  0.040557407  0.045227174            3 
  110000    1.1951366   -5.9541806    53.420066  0.040469747  0.045241275            4 
  111000    1.2076653   -5.8768283    54.388297  0.040832055  0.045257141            2 
  112000    1.2181263   -5.9189792     54.94687  0.040883088  0.045284495            5 
  113000    1.2159775   -5.9276334    55.709298  0.041083553  0.045318712            4 
  114000    1.2049676   -5.9053452    56.350943  0.041192209  0.045358774            3 
  115000    1.2173508   -5.9086807    56.839318  0.041187912  0.045395962            2 
  116000    1.2183369   -5.8922473    57.197722  0.041090318  0.045429547            6 
  117000    1.2144035   -5.9308271    57.844473  0.041199767  0.045450156            2 
  118000    1.2013995   -5.9240896    58.296149  0.041169597   0.04547162            8 
  119000    1.2070766   -5.8920956    58.938147  0.041273212  0.045494718            7 
  120000    1.2190838   -5.8935368    59.373452  0.041231564  0.045513607            3 
  121000    1.1842421   -5.9062404    59.846832  0.041216826  0.045525439            3 
  122000    1.2238826   -5.8867588    60.704724  0.041464975  0.045538194            8 
  123000    1.2001788   -5.9072553    60.974802  0.041310841  0.045551158            2 
  124000    1.2254388   -5.8651815    61.534677  0.041353949  0.045558107            3 
  125000    1.2148729   -5.9425668    61.941063  0.041294042  0.045566765            5 
  126000    1.1837784   -5.9407146    62.335537  0.041227207  0.045567912            2 
  127000    1.1962041   -5.9186936    62.949302  0.041305316  0.045565049            2 
  128000    1.1949639   -5.9209017    63.442244  0.041303544  0.045560011            4 
  129000    1.2154114   -5.9415433    63.714325  0.041159125  0.045547407            4 
  130000    1.1989413   -5.9397498    63.995486  0.041022747  0.045532779            6 
  131000    1.2237238   -5.8822665    64.664173   0.04113497  0.045513495            5 
  132000    1.2065248   -5.9153781    65.092335  0.041093645  0.045497481            4 
  133000    1.1991859   -5.8898368    65.392419  0.040972694  0.045482858            4 
  134000    1.2029842   -5.9103799    65.788704  0.040913373  0.045457728            4 
  135000    1.2041446   -5.9266433    66.486925  0.041041312  0.045436072            2 
  136000    1.2168003   -5.8856919    67.325308  0.041253253  0.045418093            6 
  137000    1.1896588   -5.9517084    67.534229  0.041079215  0.045401513            5 
  138000     1.201042   -5.9310375    68.028365  0.041079931  0.045380878            2 
  139000    1.2108842   -5.9063174    68.595101  0.041124161   0.04535579            3 
  140000    1.2191003   -5.9404098     69.32155  0.041262827   0.04533622            3 
  141000    1.1886684   -5.9165536    69.519715  0.041087302  0.045313039            5 
  142000    1.2203051   -5.9388375    70.240078  0.041220703   0.04528895            6 
  143000    1.2005906   -5.9503418    70.551172  0.041113736  0.045266713            3 
  144000    1.2059118   -5.9900962    70.660504  0.040891496  0.045237577            3 
  145000    1.2186303   -5.9415207    70.862703  0.040725691  0.045199161            4 
  146000    1.1770481   -5.9030581     71.27951  0.040684652  0.045158499            4 
  147000    1.1788791   -5.9233408    71.429052   0.04049266  0.045113981            5 
  148000    1.1679893   -5.9288816    72.116073  0.040605897  0.045064386            2 
  149000     1.209128   -5.8984937    72.524492  0.040561796  0.045016813            2 
  150000    1.1959501   -5.9369722    73.078506   0.04059917  0.044971374            6 
  151000    1.2051303   -5.8800779    73.493376  0.040559258   0.04492221            2 
  152000    1.1978914   -5.9351212    73.697807  0.040404499  0.044870422           11 
  153000    1.1685903   -5.9107358    74.277492   0.04045615  0.044820009            3 
  154000    1.2029071   -5.9199453    74.599964  0.040367946  0.044769234            3 
  155000    1.1976922   -5.9153019    75.155322  0.040406087  0.044715932            3 
  156000    1.1723222   -5.9150748    75.607214  0.040388469  0.044666267            4 
  157000    1.1842059   -5.8948675    76.106442  0.040396201  0.044619267            3 
  158000    1.1897336   -5.9585732    76.437387  0.040315078  0.044568819            4 
  159000    1.1924911    -5.945662    76.614628  0.040154417  0.044511111            5 
  160000    1.1758121   -5.9122304    77.264493  0.040241924  0.044453834            3 
  161000    1.1573304   -5.9585712     77.51332  0.040120766  0.044399382            3 
  162000    1.1904543   -5.9049278    77.915529  0.040080004  0.044343151            2 
  163000    1.2200913   -5.9751214     78.00845  0.039881621  0.044283514            5 
  164000     1.204023    -5.948816    78.720061  0.040000031   0.04422353            3 
  165000    1.1804696   -5.9333471     79.08376  0.039941293  0.044161715            6 
  166000    1.1984393   -5.9163992    79.678778  0.039999386  0.044102832            9 
  167000    1.1814606   -5.9261641    80.161255  0.040000626  0.044045352            6 
  168000      1.18099   -5.9437912    80.433331  0.039897485  0.043987677            6 
  169000    1.1710294   -5.9397059    80.720498  0.039803007  0.043930525            3 
  170000     1.203783   -5.9440002    81.084813  0.039747457  0.043871898            3 
  171000    1.1755744   -5.9223196    81.774517  0.039851129  0.043814602            4 
  172000    1.1714756   -5.9220698    81.732081  0.039598877  0.043756144            3 
  173000    1.1733599   -5.9217769    82.787228  0.039878241  0.043695948            2 
  174000     1.182622   -5.8981297    83.172121  0.039833391  0.043638641            4 
  175000    1.2160643   -5.9463975     83.42257  0.039725033  0.043581725            6 
  176000    1.1864644   -5.9337083    84.097869  0.039819067    0.0435274            8 
  177000    1.1895813   -5.9458938    84.441054  0.039755675  0.043474225            4 
  178000    1.1859261   -5.9163254    84.933651  0.039762945  0.043422836            3 
  179000    1.1799662   -5.9427703    85.011397     0.039577  0.043372198            2 
  180000    1.1658113   -5.9617035     85.90658  0.039771565  0.043321206            3 
  181000    1.1574847   -5.9393893    86.205775  0.039689583  0.043272214            5 
  182000    1.2184586   -5.9964788    86.878388  0.039779481  0.043222872            5 
  183000    1.1617169   -5.9560762     87.40918  0.039803816   0.04317574            3 
  184000    1.1361512   -5.9582821    87.806123  0.039767266  0.043130665            2 
  185000    1.1598243   -5.9347092    88.486407  0.039858742   0.04308796            5 
  186000    1.1607534   -5.9333701    89.226045  0.039975826  0.043049401            3 
  187000    1.1805924   -5.9337391    89.452807  0.039863105  0.043009872            3 
  188000    1.2086388   -5.9614648    89.489348  0.039667264  0.042968285            4 
  189000    1.2018618   -5.9720692    90.058677  0.039708411  0.042925242            4 
  190000    1.1909764    -5.977855    90.728259  0.039793096  0.042883721            2 
  191000    1.1592996   -5.9313887    90.783263  0.039608754  0.042841128            5 
  192000    1.1717091   -5.9713367    91.216523  0.039590505  0.042797364            3 
  193000    1.1793634   -5.9394701    92.205013  0.039812182  0.042754252            3 
  194000    1.1898397   -5.9869697    92.449162  0.039711839  0.042713872            3 
  195000    1.1831478   -5.9489028    93.040883  0.039761061  0.042674797            6 
  196000    1.1585539   -5.9752899    93.410322  0.039715273  0.042638732            7 
  197000    1.1477977   -5.9682729    93.854587  0.039701602  0.042600851            4 
  198000    1.1923134   -5.9750276    94.238657  0.039662734  0.042564323            4 
  199000    1.1708967   -5.9541492    94.855839  0.039721875   0.04252888            5 
  200000    1.1708587   -5.9854608    95.608699  0.039836958  0.042495368            4 
  201000    1.1449929   -5.9435013    95.739825  0.039693128  0.042457904            8 
  202000    1.1711417   -5.9794772     96.09016  0.039641155  0.042419547            4 
  203000    1.1956368   -5.9870799    96.721703  0.039705133  0.042382531            3 
  204000    1.1903929   -6.0080232    97.171264  0.039694143  0.042348822            2 
  205000    1.1676278   -5.9679313    97.749736  0.039735665  0.042315419            4 
  206000    1.1752612   -5.9383606    97.986828  0.039638684  0.042282698            3 
  207000    1.1722883   -5.9425339    98.385704  0.039607771  0.042248369            5 
  208000    1.1659256   -5.9862736    98.812074  0.039588171  0.042216937            4 
  209000    1.1685344   -5.9765881    99.088357  0.039508914  0.042185057            4 
  210000    1.1808359   -5.9750362     99.71403  0.039569059  0.042153739            8 
  211000    1.1348418   -5.9738335    100.12148  0.039542448  0.042120119            2 
  212000    1.1860907   -5.9981446    100.34068  0.039442089  0.042083778            5 
  213000    1.1752548   -5.9755753    100.97487  0.039505034  0.042048012            4 
  214000    1.1632953   -5.9700501     101.4145  0.039491628  0.042012982            5 
  215000    1.1726973   -5.9362902    101.99727  0.039533827  0.041981162            3 
  216000    1.1608769   -5.9938473    102.25612  0.039450665  0.041949617            2 
  217000    1.1511052   -6.0016736    102.63497  0.039414349  0.041915763            4 
  218000    1.1654065   -6.0037882    103.25332  0.039469924  0.041882843            2 
  219000    1.1713897   -5.9750415     103.4821   0.03937675  0.041849468            7 
  220000    1.1542228   -5.9912024    104.06168  0.039417305  0.041814475            5 
  221000    1.1730781   -5.9828205    104.49775  0.039403374  0.041780183            3 
  222000    1.1506153   -6.0113654    105.23595  0.039502983  0.041749444            9 
  223000    1.1744447   -5.9699668    105.63515  0.039475018  0.041717642            2 
  224000    1.1532704   -6.0006341    105.21459  0.039142334  0.041683532            5 
  225000    1.1565687   -5.9797853    106.33788  0.039384398  0.041648955            2 
  226000    1.1797092   -6.0079775    106.36606  0.039220525    0.0416169            5 
  227000    1.1401178    -5.981332    106.58071  0.039126545  0.041580984            3 
  228000    1.2010761   -5.9774226    107.58961  0.039323686  0.041546565            6 
  229000    1.1579445   -5.9719177    107.56898  0.039144463  0.041511836            4 
  230000    1.1670506   -6.0057924    108.02339  0.039138908  0.041479448            3 
  231000    1.1775914   -5.9848016    109.07484  0.039348787   0.04144947            5 
  232000    1.1403687   -5.9872287    109.19114  0.039220956  0.041419749            8 
  233000    1.1687644   -5.9881061    109.66202  0.039221038  0.041389823            3 
  234000    1.1796866   -5.9879427    110.21743  0.039251221  0.041360312            3 
  235000    1.1533802   -5.9817992    110.78963  0.039287104  0.041330686           12 
  236000    1.1850568   -5.9814335    111.02697  0.039204438  0.041302148            5 
  237000      1.14879   -6.0166364    111.27025   0.03912456  0.041273226            5 
  238000    1.1846752   -6.0234735    111.89298  0.039178215  0.041243242            3 
  239000    1.1583308   -6.0118862    112.23883  0.039134879  0.041212473            2 
  240000    1.1516112    -6.016595    113.11816  0.039277138  0.041184118            2 
  241000    1.1371431   -6.0024193    113.22274  0.039150324  0.041156582            4 
  242000     1.157049   -6.0159258     113.7259   0.03916181  0.041130101            3 
  243000    1.1581345   -5.9492526    113.92891  0.039070271  0.041102402            4 
  244000    1.1634713   -6.0093696    114.09745  0.038967707  0.041073618            5 
  245000    1.1287947   -6.0119913    115.04125  0.039129678  0.041046191            5 
  246000    1.1618861   -5.9835514    115.71727  0.039199618   0.04101969            1 
  247000     1.156498   -5.9802948    115.87178  0.039093042  0.040995461           11 
  248000     1.187376   -6.0146806    116.81865  0.039253578  0.040971469            4 
  249000    1.1419813   -6.0095063    117.28965  0.039253565  0.040948524            5 
  250000    1.1646198   -5.9947122    117.31912  0.039106372  0.040924601           11 
  251000    1.1479531   -6.0415117    117.50049  0.039010786  0.040900356            5 
  252000    1.1657304   -6.0274539    118.04527  0.039036133  0.040876799            5 
  253000     1.141005   -6.0454227    118.29767  0.038964977  0.040853557            8 
  254000    1.1379171   -6.0011527    119.15358  0.039092383  0.040828181            5 
  255000    1.1634851   -5.9996141    119.27406  0.038978451  0.040802854            4 
  256000    1.1725728   -5.9795387     120.0054  0.039064259   0.04077683            7 
  257000    1.1532969   -5.9846116    119.97775   0.03890329  0.040749689            4 
  258000    1.1338105   -6.0240805    120.21986  0.038830705  0.040721235            3 
  259000    1.1647385   -6.0243753    120.57126  0.038793841  0.040692538            8 
  260000    1.1655775   -6.0352803    120.74879  0.038701535  0.040662786            4 
  261000    1.1537314   -5.9986624    121.59779  0.038824325  0.040633611            3 
  262000    1.1406593   -6.0127684    121.38859  0.038609602  0.040604287            6 
  263000    1.1663121   -5.9936226    122.35688  0.038769609  0.040575531            3 
  264000    1.1407695   -6.0043695    122.98438  0.038820825  0.040549268            6 
  265000     1.157188   -6.0095317    123.46938   0.03882685  0.040521324            3 
  266000    1.1509165   -6.0372824    123.42434  0.038666774  0.040494811            4 
  267000    1.1340676   -6.0452799    124.02443  0.038709249  0.040466588            6 
  268000    1.1691805   -5.9700119    124.83219   0.03881598  0.040440895            7 
  269000    1.1543194   -5.9796496    125.41281  0.038851552  0.040416848            3 
  270000    1.1398002   -6.0204169    125.87648  0.038850764  0.040393375            4 
  271000    1.1520772   -6.0055438    126.25484  0.038823753  0.040371066            4 
  272000    1.1430449   -6.0477472    127.08785  0.038936227  0.040349045            2 
  273000    1.1088995    -6.020546    127.38929   0.03888562  0.040329243            4 
  274000    1.1748867   -6.0010301    127.95277  0.038915076  0.040310041            3 
  275000    1.1256233   -6.0579271    127.93061  0.038766852  0.040290398            6 
  276000    1.1362313   -5.9720873    129.03593  0.038960125  0.040269411            3 
  277000     1.148301   -6.0108778    129.09606  0.038837564  0.040249055            7 
  278000    1.1483941   -5.9913392     129.5456  0.038832615  0.040227601            3 
  279000    1.1278257   -6.0218103    129.81997  0.038775379  0.040205192            6 
  280000    1.1548044   -6.0042385    130.21538  0.038754579  0.040183812            4 
  281000    1.1193144   -6.0252799    130.52152  0.038707449  0.040163024            5 
  282000    1.1252581   -6.0358462    130.79737  0.038651706  0.040140318            3 
  283000    1.1574382    -6.013442    130.92095  0.038551515  0.040116993            6 
  284000    1.1445328   -6.0163559     131.2698  0.038518135   0.04009208            2 
  285000    1.1441417   -6.0059846    131.38062  0.038415385  0.040067071            4 
  286000    1.1683418    -6.034987    131.66212   0.03836309  0.040040984            7 
  287000    1.1297249   -6.0457352    131.93261   0.03830796  0.040014572            8 
  288000    1.1218638   -5.9930868    132.92006  0.038460666   0.03998819            2 
  289000    1.1064609   -6.0242792    133.13156   0.03838857  0.039962575            3 
  290000      1.14605   -6.0020722    133.50434  0.038363316   0.03993674            2 
  291000    1.1433268   -6.0052893    133.86144  0.038333746   0.03991053            9 
  292000    1.1271645   -6.0239396    134.53433    0.0383945   0.03988447            3 
  293000    1.1617269   -6.0173309    135.38876  0.038506473  0.039858819            2 
  294000    1.1438287   -6.0163045    135.15196  0.038308377  0.039832758           13 
  295000    1.1312176   -6.0299732    135.43374  0.038258118  0.039807674            4 
  296000    1.1229676   -6.0254139    136.28623  0.038368871  0.039781821            6 
  297000    1.1065898   -6.0439111    136.25833  0.038231854  0.039757156            4 
  298000     1.123277   -6.0354268     137.0452  0.038323602  0.039732307            8 
  299000    1.1118622   -6.0204864    137.68681   0.03837425  0.039709494            8 
  300000    1.1356404   -6.0644388    138.44686  0.038457461  0.039687059            3 
  301000    1.1262807   -6.0121072    138.52715  0.038351925  0.039665516            4 
  302000    1.1325591   -6.0452546     138.8855  0.038323813  0.039643673            4 
  303000    1.1112374    -6.051333     139.3305  0.038319718  0.039621738            4 
  304000    1.1206881   -6.0342963    139.09091   0.03812799  0.039599039            7 
  305000    1.1202345   -6.0855795    139.42971   0.03809555  0.039574213            5 
  306000    1.1409467   -6.0415087    140.01325  0.038129971  0.039549187            2 
  307000    1.1256473   -6.0263889    140.74915  0.038205523  0.039525169            6 
  308000    1.1453036   -6.0388796    140.36055  0.037976339  0.039500642            5 
  309000    1.1240767   -6.0276564    140.89795   0.03799837  0.039475974            6 
  310000    1.1421061   -6.0444407    141.71505  0.038095443  0.039451604            9 
  311000    1.1366981    -6.023596    142.34685  0.038142242  0.039428776            4 
  312000    1.1246669   -6.0439237    142.83002  0.038149044  0.039406681            5 
  313000    1.1440802   -6.0626967    142.99936  0.038072247  0.039384522            5 
  314000    1.1294187   -6.0525366    143.44047  0.038068064  0.039362897            4 
  315000    1.1301248   -6.0357454    144.16971  0.038140136  0.039341658            2 
  316000     1.126211   -6.0448375    144.24673  0.038039749  0.039320909            3 
  317000    1.1383302    -6.008825    145.11203   0.03814722  0.039300409            4 
  318000    1.1396861   -5.9765112    146.21617  0.038316608  0.039281226            7 
  319000    1.1089535    -6.024694    146.04727  0.038152369  0.039261783            2 
  320000     1.123063   -6.0377273    145.69217  0.037940669  0.039241833            6 
  321000    1.1347458   -6.0310261    146.44751  0.038018564  0.039220622            6 
  322000    1.1502458   -6.0782961    147.19017  0.038092695  0.039200864            4 
  323000    1.1050666   -6.0315998    147.75204   0.03811972  0.039180815            2 
  324000    1.1296608    -6.045179    147.85706   0.03802908  0.039161495            4 
  325000    1.1515262   -6.0608997    148.11255  0.037977576  0.039141682            6 
  326000    1.1213475    -6.043881    148.94032  0.038072678  0.039122409            3 
  327000    1.1208088   -6.0521812    149.40662  0.038075081  0.039101915            3 
  328000    1.1154488   -6.0644082    149.17094   0.03789912   0.03908113            4 
  329000    1.1103837   -6.0498792    149.38635  0.037838487  0.039059717            3 
  330000    1.1355844   -6.0461256    150.61501  0.038034093  0.039039119            5 
  331000    1.1390867   -6.0513551    150.33636  0.037849032  0.039018779            4 
  332000    1.1299683   -6.0948118    151.01332  0.037904949  0.038997411            4 
  333000    1.1135014   -6.0186847    151.41273  0.037891073  0.038976526            4 
  334000    1.1236464   -6.0565346    151.65551  0.037838201  0.038955435            6 
  335000    1.1109842   -6.0642552    152.26315  0.037876405  0.038936036            4 
  336000    1.0972598   -6.0708971    152.47292  0.037815705  0.038915431            4 
  337000    1.1204047    -6.063431    153.10391  0.037859522  0.038893696            4 
  338000     1.112267   -6.0463385    153.46887  0.037837491  0.038872755            7 
  339000    1.1248951   -6.0841445    153.24385  0.037670563  0.038850405            5 
  340000     1.107431     -6.10242    153.37842  0.037592751  0.038827734            6 
  341000    1.1309745   -6.0676521    153.58171  0.037532188  0.038805292            3 
  342000    1.1108419   -6.0396225    154.26834  0.037589752  0.038783505            6 
  343000    1.1288218   -6.0719981    155.35204  0.037743449  0.038761139            8 
  344000    1.1211265   -6.0401964    155.54024  0.037679323  0.038740452            4 
  345000    1.1106073   -6.0607853    155.81951  0.037637562  0.038720925            3 
  346000    1.1009984   -6.0505015    156.56141  0.037707469  0.038701129            6 
  347000    1.1282313   -6.0704196    156.36638  0.037551964  0.038681439            4 
  348000    1.1234547   -6.0181259    157.25606  0.037657102  0.038660392            4 
  349000    1.1147043   -6.0400131    157.33457  0.037567949  0.038639098            3 
  350000    1.1139204    -6.073723    157.56032  0.037514363  0.038617679            4 
  351000    1.0915525   -6.0653881    158.14019  0.037545155   0.03859721            6 
  352000    1.1103526   -6.0532955    158.90134  0.037618689   0.03857678            4 
  353000    1.0942033   -6.0473205     158.5544  0.037430216  0.038555904            3 
  354000    1.1097179   -6.0546688    159.56398  0.037562143  0.038534331            6 
  355000    1.0990336   -6.0708739    159.77224  0.037505221  0.038512322            6 
  356000    1.1173328   -6.0381133    160.12875  0.037483321    0.0384912           10 
  357000    1.0945806   -6.0628675    160.85072  0.037546854  0.038470739            3 
  358000    1.1199713   -6.1071215    160.52286  0.037365656  0.038449782            5 
  359000    1.1196889   -6.0849851    160.87634  0.037343625  0.038428187            4 
  360000    1.1356355   -6.0671017    161.26351  0.037329517  0.038405918            4 
  361000    1.1277873   -6.0487314    161.60345  0.037304583  0.038383417            3 
  362000    1.0827876   -6.0781961    162.35438  0.037374396  0.038361771            4 
  363000    1.1192662   -6.0636692    162.56988  0.037320908  0.038341298            6 
  364000    1.1115198   -6.0472044    162.86188   0.03728523  0.038320819            5 
  365000    1.1023757   -6.0805603    163.56279  0.037343103  0.038300557            4 
  366000    1.1293245    -6.069564    164.04809   0.03735157  0.038281564            4 
  367000    1.0985963   -6.0727937    164.53266  0.037359822  0.038262203            6 
  368000    1.1057894   -6.0737113    164.65409  0.037285799  0.038241878            4 
  369000    1.0883159   -6.1175716    165.13517  0.037293398  0.038221405            2 
  370000     1.128536   -6.0694853    165.29714  0.037229085  0.038201209            4 
  371000    1.0841351   -6.0917157    165.55513  0.037186688  0.038180291            3 
  372000    1.0966315   -6.0938421    165.93184  0.037171112   0.03815921            3 
  373000    1.1029244   -6.0457666    166.63894  0.037229433  0.038139453            4 
  374000    1.1000092   -6.1036607    166.91746  0.037191948  0.038119627            8 
  375000    1.1252515    -6.058681    167.12138  0.037138085  0.038099236            4 
  376000    1.1126575   -6.0988996    167.75966  0.037180775  0.038078573            6 
  377000    1.0966277   -6.0848118    167.83515   0.03709884  0.038058057            5 
  378000    1.1182021   -6.1043231    167.73423  0.036978445  0.038037231            8 
  379000    1.0950241   -6.0831579    168.26696  0.036998013  0.038016656            4 
  380000    1.1022942   -6.1182963    169.30526  0.037128347   0.03799632            9 
  381000    1.1145298   -6.0802486    169.84296  0.037148503  0.037976412            3 
  382000    1.0972765   -6.0802944     170.1773  0.037124194  0.037956124            6 
  383000    1.0978722   -6.1042182    169.87682  0.036961884  0.037936662            5 
  384000    1.0807361   -6.0747693    171.05191   0.03712064  0.037917249           10 
  385000    1.0932495   -6.1091029    170.56116  0.036918001  0.037897377            3 
  386000    1.1021784   -6.1187316    170.97114  0.036910868  0.037877696            3 
  387000    1.0920243   -6.0808464    171.47574  0.036924147  0.037857913            4 
  388000    1.1109067   -6.0654036    172.23668  0.036992414   0.03783909            8 
  389000    1.0847252   -6.0929044    173.43548  0.037154131  0.037820768            3 
  390000    1.1096354   -6.1025259    173.32921  0.037036156  0.037802452            3 
  391000    1.1147791   -6.1169817    173.44209  0.036965491  0.037784397            6 
  392000    1.0953391   -6.1342791    173.69435  0.036924818  0.037765706            3 
  393000    1.1277764   -6.1080398    174.30294  0.036959912  0.037747839            5 
  394000    1.0939184   -6.0675906    174.94803  0.037002545  0.037730316            6 
  395000    1.1005846   -6.0824408    174.63003  0.036841778  0.037713214            9 
  396000    1.0890926   -6.0953001    175.82142  0.036999458  0.037696409            3 
  397000    1.1147116   -6.1265193     175.9623  0.036935832  0.037678766            3 
  398000    1.0807943   -6.0745783    177.29326  0.037121704  0.037661699           10 
  399000    1.0798383   -6.0888192    176.56774  0.036877138  0.037644447            6 
  400000    1.0962627   -6.0941413    176.72259  0.036817205  0.037626346            2 
  401000    1.1062177   -6.0705848    177.86779  0.036963381  0.037607793            3 
  402000    1.1074215   -6.1264357    178.22961  0.036946437  0.037590053            4 
  403000    1.0911894   -6.0677023    178.75902  0.036964231  0.037572563           11 
  404000    1.0923987    -6.138397    178.21656  0.036760841  0.037553908            5 
  405000    1.1108063   -6.0832778    179.09575  0.036850977  0.037534611            3 
  406000    1.1053936   -6.0908858    179.03016  0.036746749  0.037515616            3 
  407000    1.0824652    -6.126035     179.2398  0.036699386  0.037497338            3 
  408000    1.1091476   -6.0747696    179.43474  0.036649253  0.037479106            2 
  409000    1.0850368   -6.0712812    180.40904  0.036758158  0.037461001            7 
  410000    1.0979377   -6.0738745    180.14978   0.03661581  0.037442554            4 
  411000    1.0743248   -6.1083912    181.09773  0.036718924  0.037423869            3 
  412000    1.0901281   -6.0842217    181.46755  0.036704601  0.037405032            3 
  413000    1.0937481   -6.1477668    181.52644   0.03662761  0.037386372            6 
  414000    1.0836548   -6.1463943    181.95844  0.036626095  0.037367672            4 
  415000     1.067324    -6.069824    182.13842   0.03657398  0.037347874            4 
  416000    1.0676163   -6.1323017    181.74475  0.036407202  0.037327984            2 
  417000    1.0819061   -6.1152668    182.41778  0.036454392  0.037307675            4 
  418000    1.1001969   -6.0887361    182.60587  0.036404679  0.037286966            5 
  419000    1.1118462   -6.1040076    183.18358  0.036432692  0.037267193            8 
  420000    1.0977906   -6.1172242     184.0718  0.036522183  0.037247295            3 
  421000    1.0905669   -6.1270308    184.14053  0.036449035  0.037227232            3 
  422000    1.1032105   -6.1719999    184.25573  0.036385413   0.03720724            5 
  423000     1.062752   -6.1111002    184.37695  0.036323276  0.037186711            5 
  424000    1.0765032   -6.0914098    184.58682  0.036278856  0.037166554            3 
  425000    1.0709322   -6.1396889     185.1924  0.036312236  0.037146474            4 
  426000     1.077744   -6.1512543    186.00985  0.036386904  0.037127387            6 
  427000    1.0878711   -6.1210604    186.68028   0.03643253  0.037108134            5 
  428000    1.0583051   -6.1022743    186.34917  0.036282937  0.037089826            6 
  429000     1.097573   -6.1246448    187.65259  0.036451552  0.037072144            4 
  430000     1.078926   -6.1064519    187.59584  0.036355782  0.037054405            8 
  431000     1.091089   -6.1265043    188.30752  0.036409032  0.037036388           11 
  432000    1.0847948   -6.1332206    188.61556  0.036384174  0.037019032            6 
  433000    1.0661905   -6.1443985    189.27534  0.036427124   0.03700244            5 
  434000     1.102687   -6.1259564    189.63449  0.036412152  0.036985008            8 
  435000    1.0785195    -6.100623    190.25948  0.036448176  0.036968206            4 
  436000    1.0707869   -6.1500218    189.93155  0.036301902  0.036951172            3 
  437000    1.0784006   -6.1468488    190.22687  0.036275148  0.036934574            6 
  438000    1.0919947   -6.1580075    190.77091  0.036295836  0.036917509            6 
  439000    1.0553304   -6.1526586    191.42641  0.036337587  0.036900553            5 
  440000    1.0898964   -6.1407068    192.05681  0.036374395  0.036883646            7 
  441000    1.0599609    -6.137106    192.20341  0.036319616  0.036867611            8 
  442000    1.0701579   -6.1133643    192.50395  0.036294108  0.036851717            4 
  443000    1.0667487   -6.1338736    193.93523  0.036481421  0.036836222            4 
  444000     1.062812   -6.1754682    193.08931  0.036240486  0.036820346            9 
  445000     1.071362   -6.1254025    193.97104  0.036324165  0.036803907            4 
  446000    1.0697538   -6.1464417    194.43297   0.03632903  0.036788242            3 
  447000    1.0677987   -6.0937089    195.15949  0.036383201  0.036772852            4 
  448000    1.0736386   -6.1256154    195.30832  0.036329672  0.036757611            5 
  449000    1.0782262   -6.1491828    194.65834  0.036128126  0.036741848            3 
  450000    1.0687683   -6.1412594    195.39104  0.036183525  0.036725363            4 
  451000     1.042036   -6.1090364    196.09034  0.036232508  0.036708526            7 
  452000    1.0612316   -6.1003583    195.71966  0.036084008  0.036690252            6 
  453000    1.0640584   -6.1668421    195.39509  0.035944645  0.036672029            5 
  454000    1.0835153   -6.1380044    195.85346  0.035949608   0.03665373            7 
  455000    1.0584666   -6.1112698      196.445  0.035978938  0.036635014            3 
  456000    1.0780034   -6.1701044    195.63462  0.035751941  0.036615926            5 
  457000    1.0816039   -6.1487643    196.27855  0.035791129  0.036595785            6 
  458000    1.0712634   -6.1474855     196.6548  0.035781441  0.036575453            5 
  459000    1.0711644   -6.1261665    197.41581   0.03584165  0.036554769            6 
  460000    1.0665439   -6.1521875    197.66341  0.035808589  0.036534245            3 
  461000     1.065151   -6.1683898     197.5785  0.035715564  0.036512942           11 
  462000     1.058202   -6.1088229    197.85691  0.035688476  0.036491577            9 
  463000    1.0976345   -6.1287134    198.19424   0.03567211   0.03647102            5 
  464000    1.0833799   -6.1320041    198.00501  0.035561244  0.036450349            3 
  465000    1.0782163   -6.1125559    199.06936  0.035675512  0.036429063            3 
  466000    1.0943112   -6.1149638    199.15371   0.03561404  0.036407833            3 
  467000    1.0474295   -6.1394014    199.48364  0.035596653  0.036387008            4 
  468000    1.0633606    -6.149176    199.89486  0.035593814  0.036365486            5 
  469000    1.0916097   -6.1697662    200.38775    0.0356055  0.036344381            4 
  470000    1.0726515     -6.12598    200.01697  0.035464002  0.036323162            6 
  471000     1.080501   -6.1639492    200.81341  0.035529619   0.03630172            7 
  472000     1.075921   -6.1387339    200.21182  0.035348132  0.036280053            6 
  473000     1.055864   -6.1412692    200.96241  0.035405639  0.036258531            5 
  474000    1.0694485   -6.1331214    200.93838  0.035326719  0.036236695            7 
  475000    1.0537757   -6.1451912    202.09018  0.035454417  0.036215199            8 
  476000    1.0746242   -6.1472116    202.04125  0.035371367  0.036194509            5 
  477000    1.0702056   -6.1574149    202.86609  0.035441315  0.036174063            6 
  478000     1.058204   -6.1618437    202.55519  0.035312969  0.036153035            7 
  479000    1.0584588   -6.1522424    202.62799  0.035251911  0.036131777           11 
  480000    1.0507199   -6.1859073    203.69893  0.035364397  0.036110966            3 
  481000    1.0560855   -6.1519391    203.42272  0.035243021  0.036089955            4 
  482000    1.0534982   -6.1610124    204.02707   0.03527439  0.036068982            6 
  483000    1.0116765   -6.1511385    204.50549  0.035283901   0.03604817            7 
  484000    1.0503032   -6.1377006    205.11508  0.035315958  0.036027165            4 
  485000     1.073586   -6.1700304    204.54204   0.03514468  0.036006299            4 
  486000    1.0570538   -6.1764283    204.79117  0.035115083  0.035984817            5 
  487000    1.0635767   -6.1695368    205.67706  0.035194569  0.035963287            5 
  488000    1.0504458   -6.1665856    206.42859  0.035250784   0.03594256            6 
  489000    1.0550797   -6.1782518    206.79125  0.035240499  0.035921867            7 
  490000    1.0683226   -6.1643371    207.31606  0.035257834  0.035901523           12 
  491000    1.0512797   -6.2081408     206.9682  0.035126986  0.035880563            3 
  492000     1.065787   -6.1577066    207.29612  0.035111131  0.035859707            3 
  493000    1.0613004   -6.1955053    207.44847  0.035065664  0.035838134            5 
  494000    1.0562702   -6.1764363    207.82672  0.035058489  0.035816874            8 
  495000    1.0596634     -6.19113    208.39237   0.03508289  0.035796287            5 
  496000    1.0769929   -6.1527031     209.0528  0.035123119  0.035776116            5 
  497000    1.0568058   -6.1508167     209.8075  0.035178991  0.035756519            8 
  498000    1.0594178   -6.2068299     209.0895  0.034988203  0.035736445            8 
  499000    1.0659982   -6.1488144    209.52647  0.034991061  0.035716003            8 
  500000    1.0512535    -6.163026    209.94245  0.034990409  0.035695916            4 
  501000    1.0591767   -6.1797916    210.41432  0.034999055  0.035675441            8 
  502000    1.0493466   -6.1737326    210.37112  0.034922165  0.035654411            8 
  503000    1.0546496    -6.184981    210.54504  0.034881551  0.035633374            6 
  504000    1.0334687   -6.1918563    210.19651  0.034754713  0.035611627            3 
  505000    1.0256039   -6.2010159    210.74469  0.034776351  0.035590267            4 
  506000    1.0480837   -6.1905978    211.06695  0.034760697  0.035568526            4 
  507000    1.0469608    -6.170242    211.96235  0.034839307  0.035547084            3 
  508000    1.0624325    -6.187893    211.91952  0.034763701  0.035525868            4 
  509000    1.0485198   -6.1769212    212.47905  0.034787009  0.035504875           18 
  510000    1.0410148   -6.2053232    212.32564  0.034693732  0.035483788            4 
  511000    1.0390397   -6.1596698    212.61173  0.034672493   0.03546261            6 
  512000    1.0305887   -6.1756613    212.95567  0.034660753   0.03544105            8 
  513000    1.0628558   -6.1568153    212.93948   0.03459056  0.035419153            3 
  514000    1.0201484   -6.1532823    213.77658  0.034658978  0.035397469            7 
  515000    1.0582822   -6.1974896    214.00361  0.034628416  0.035376112            3 
  516000     1.040699   -6.1907802    214.45177  0.034633683  0.035354619            6 
  517000    1.0689139    -6.195153    214.17298  0.034521757   0.03533259            5 
  518000    1.0620948   -6.1896743    214.61874  0.034526824  0.035310664            4 
  519000     1.057624   -6.1828337    215.39511  0.034584957  0.035289199           10 
  520000    1.0450607   -6.1671361    215.72524  0.034571352   0.03526721            6 
  521000    1.0474096    -6.147702    215.82187  0.034520453   0.03524581            4 
  522000    1.0477698   -6.1771079    216.49005  0.034560991  0.035224288            5 
  523000    1.0489543   -6.1843271    215.84651  0.034392369  0.035202335            5 
  524000    1.0247184   -6.1816245    216.31389  0.034401063  0.035180579            4 
  525000    1.0516419   -6.1752153    216.82521  0.034416701  0.035158965            3 
  526000    1.0351918   -6.2056336     216.5305  0.034304579  0.035137294            5 
  527000    1.0414228   -6.1620903    218.27464  0.034515281  0.035115578            3 
  528000    1.0283545    -6.229025    216.72443  0.034205244  0.035093595            7 
  529000    1.0310612    -6.179457    218.48509  0.034417941  0.035072077            6 
  530000    1.0354254   -6.1622201    218.84233  0.034409171  0.035051502            5 
  531000    1.0422263   -6.2042278     217.9851  0.034209839  0.035029856            4 
  532000    1.0348749   -6.1856635    219.52984  0.034387507  0.035008653            4 
  533000    1.0468139   -6.1708197    219.18784  0.034269518  0.034987329            6 
  534000     1.040133   -6.1803259    220.03028   0.03433681   0.03496602            5 
  535000    1.0227282   -6.1978783    219.96371   0.03426226  0.034944722            3 
  536000    1.0338913   -6.1901182    220.68071  0.034309813  0.034923217            6 
  537000      1.02928   -6.2270583     219.6132   0.03408026    0.0349016            8 
  538000    1.0359934   -6.1924075    220.56367  0.034164137  0.034879977            5 
  539000    1.0487269   -6.2079973    221.49879   0.03424533  0.034858453            4 
  540000      1.04538   -6.1991119    221.53511  0.034187517   0.03483777            6 
  541000    1.0428453    -6.214304    221.88647  0.034178446  0.034816883            7 
  542000    1.0435739   -6.1836547    221.67366  0.034082666  0.034795948            3 
  543000    1.0454617   -6.2200642    222.06342  0.034079715  0.034774817            3 
  544000    1.0167887   -6.1815995    223.48444  0.034234749  0.034753983            5 
  545000    1.0335703   -6.2306899    222.72999  0.034056573  0.034732913            4 
  546000    1.0621278   -6.2164055    222.54832  0.033966472   0.03471188            5 
  547000    1.0399386   -6.1971779    223.56322  0.034058991  0.034691085           10 
  548000    1.0217495   -6.2211578    224.06979  0.034073873   0.03467001            9 
  549000    1.0563346   -6.2420454    224.19655  0.034031049  0.034648948           11 
  550000    1.0120804   -6.2190691    224.30655  0.033985841  0.034628143            7 
  551000    1.0217594   -6.2118173    225.00851  0.034030326  0.034608016            4 
  552000    1.0203463   -6.2137983    225.75693  0.034081661  0.034587777           13 
  553000    1.0183139   -6.1707814    225.97121  0.034052322  0.034568005            4 
  554000    1.0230589   -6.1885324    226.06381  0.034004786  0.034548177            4 
  555000    1.0311621   -6.1796578    226.62336  0.034027531  0.034527648            8 
  556000    1.0217313   -6.2229389    225.77706  0.033839487  0.034507447            3 
  557000    1.0358902   -6.2206816    225.95498  0.033805353  0.034486837            3 
  558000    1.0472636   -6.2073922    227.28273   0.03394306  0.034466367            5 
  559000    1.0568346   -6.2086508    227.31532  0.033887198  0.034445896            6 
  560000    1.0453041   -6.2324851    227.26479  0.033819166  0.034425635            5 
  561000    1.0467891   -6.2219346    227.85518  0.033846581  0.034405227            4 
  562000    1.0110193   -6.1794373    227.52359  0.033737188  0.034384702            7 
  563000    1.0314555   -6.2234446    228.47492  0.033818075  0.034364944            8 
  564000    1.0424096   -6.2079551    228.38095   0.03374423  0.034344795           10 
  565000    1.0395331    -6.211378    228.81818  0.033748994  0.034324286            7 
  566000    1.0265748   -6.2325837    228.29344  0.033612109  0.034303423            6 
  567000    1.0382298   -6.2137657    228.58735  0.033596025  0.034282121            6 
  568000    1.0228137   -6.2384719    229.50526  0.033671546  0.034260781            6 
  569000    1.0315851   -6.1928853     229.7079  0.033642048  0.034239395           11 
  570000     1.021707   -6.2352584     229.5808  0.033564444  0.034218178           10 
  571000    1.0194203   -6.1887037    229.27537  0.033461087  0.034196841            7 
  572000    1.0212382   -6.1957081    230.38592  0.033564383  0.034175566            6 
  573000     1.041959   -6.2275827    230.05303  0.033457392  0.034154148            4 
  574000    1.0299258   -6.1785201      230.495   0.03346327  0.034132112            8 
  575000    1.0077911   -6.2296423    230.64065  0.033426181  0.034110628            7 
  576000    1.0610894   -6.1680465    231.10969  0.033436009  0.034088809            4 
  577000    1.0370999   -6.2160917    231.60694  0.033449875  0.034067158            5 
  578000    1.0128667   -6.2292556    232.01548  0.033450905  0.034045914            8 
  579000     1.043892   -6.2799517    231.52577   0.03332265  0.034023858            7 
  580000    1.0412143   -6.2197082    231.95044  0.033326213  0.034001991            6 
  581000    1.0167608   -6.2313416    232.43093   0.03333777  0.033980238            7 
  582000    1.0290109   -6.2413171    232.39083  0.033274747   0.03395868           17 
  583000    1.0222403   -6.2081446    233.10306  0.033319476  0.033937065            5 
  584000    1.0206287    -6.196934    233.63104  0.033337763  0.033915276            5 
  585000     1.036836   -6.2522414    233.65792  0.033284604   0.03389345            6 
  586000    1.0038066   -6.2283203    233.30761  0.033177988  0.033872047            5 
  587000    1.0524802   -6.2573051    233.76537  0.033186452   0.03385038            8 
  588000    1.0332908   -6.2293149    233.38614  0.033076266  0.033828372            6 
  589000    1.0267855   -6.2512449    234.35624  0.033157363    0.0338066            6 
  590000    1.0160514   -6.2478272    234.62317  0.033138866  0.033784553            4 
  591000    1.0016587   -6.2099018     234.5984  0.033079301  0.033762731            7 
  592000    1.0315421   -6.2475354    234.19841  0.032967118  0.033740656           10 
  593000     1.024353   -6.2620687    234.63299  0.032972596  0.033718609            5 
  594000    1.0149068   -6.2462517    236.29069  0.033149648  0.033697291            9 
  595000    1.0418533   -6.2315012    236.95593  0.033187105  0.033676301            6 
  596000    1.0257954   -6.2352995    236.25922  0.033034007     0.033655            3 
  597000    1.0085209   -6.2479351    236.59615  0.033025704  0.033633937            6 
  598000    1.0067021   -6.2479099    237.04336  0.033032798  0.033612935            7 
  599000   0.99335431   -6.2314416    237.59598  0.033054532  0.033592444            6 
  600000    1.0499939   -6.2660925    237.75167  0.033021065  0.033571695            7 
  601000   0.99833364   -6.2347951     238.5149   0.03307195  0.033550978            5 
  602000    1.0308019    -6.206424     238.6794  0.033039784  0.033530302            3 
  603000    1.0095679   -6.2727368    238.18426  0.032916564  0.033509568            5 
  604000    1.0250931    -6.277814    238.61517   0.03292152  0.033488715            8 
  605000    1.0268951   -6.2336059    238.92169  0.032909324  0.033467803            6 
  606000    1.0232267   -6.2298514    239.45059  0.032927749  0.033447504            7 
  607000     1.038597   -6.2519218    239.98328  0.032946634  0.033426673           11 
  608000   0.99779996   -6.2611377      239.648  0.032846491  0.033405681            4 
  609000   0.99198487   -6.2879924    239.61832  0.032788495  0.033384797            4 
  610000    1.0145251   -6.2665727    240.58857  0.032867291  0.033364196            9 
  611000    1.0224604   -6.2470059    241.14079  0.032888814  0.033343518            6 
  612000    1.0020293   -6.2731124    240.60389  0.032761968  0.033322584            6 
  613000   0.97551933   -6.2452625    240.00926  0.032627686  0.033301427            7 
  614000    1.0184491    -6.238316    242.06974  0.032854199  0.033280517            5 
  615000   0.99860939   -6.2644384    241.49735  0.032723218  0.033259532            5 
  616000    1.0125338   -6.2260439    242.75592  0.032840357  0.033238686           10 
  617000     1.003982   -6.2612093    242.37814  0.032736108  0.033218236            3 
  618000    1.0111641   -6.2659062    242.52461  0.032702888  0.033197293            3 
  619000    1.0159266   -6.2739955    242.53696  0.032651717  0.033176376            5 
  620000   0.98396953   -6.2833168    242.59661  0.032607071  0.033155264            7 
  621000   0.99434627   -6.2465936    243.57709  0.032686137  0.033134395            4 
  622000    1.0220142   -6.2561024    243.32926  0.032600383  0.033113734            8 
  623000    1.0308983   -6.2529495    243.80806    0.0326121  0.033093344            6 
  624000    1.0261511   -6.2692836    244.20035  0.032612226  0.033072992            3 
  625000    1.0060679   -6.2555836    244.46077   0.03259477  0.033052262            8 
  626000     1.005782   -6.2706264    244.38265  0.032532302  0.033031762            7 
  627000   0.99144732   -6.2695572    244.83237  0.032540187   0.03301115            5 
  628000    1.0294597   -6.2795647    245.25773  0.032544815  0.032990719            9 
  629000   0.98237142   -6.2567867    245.95822   0.03258588  0.032970637           11 
  630000   0.99207669   -6.2584225    245.46119  0.032468412  0.032950361           26 
  631000   0.99871522   -6.2412112    246.59544  0.032566752  0.032930298            4 
  632000    1.0335671   -6.2608311    246.12911  0.032453733  0.032910041            4 
  633000    1.0010428    -6.257721    246.16098  0.032406659  0.032889719           17 
  634000    1.0069043   -6.2513352    246.76539  0.032434988   0.03286944            4 
  635000   0.99427683   -6.2572595    246.93991  0.032406812  0.032849572            5 
  636000   0.99029981   -6.2817226    246.69423  0.032323667  0.032829477           10 
  637000    1.0162541     -6.28055    247.37587  0.032362097  0.032809386           10 
  638000    1.0077942   -6.2658377    247.69158   0.03235261  0.032789326            9 
  639000    1.0004905   -6.2519975    248.30462  0.032381927    0.0327696            9 
  640000    1.0035633   -6.2688285    249.11914  0.032437388  0.032750203            8 
  641000   0.98669212   -6.2655711    250.02415   0.03250444  0.032731076           12 
  642000    1.0127944   -6.2703683    249.66651  0.032407387  0.032712229            4 
  643000   0.99070804    -6.244951    249.85044  0.032380824  0.032693289            4 
  644000   0.98542337   -6.2555374    249.95054  0.032343497  0.032674353            4 
  645000   0.98324179   -6.2627382    250.27491  0.032335259   0.03265542            6 
  646000   0.99744491   -6.3013126    250.48429  0.032312215  0.032636339            8 
  647000    1.0045074   -6.2717466    250.40522  0.032252089  0.032617212            7 
  648000    1.0102083   -6.2616747     251.4515   0.03233687  0.032598199            5 
  649000   0.98650556   -6.2587829    251.17921  0.032252082  0.032579737           13 
  650000   0.98516021   -6.2812551    252.20973   0.03233458  0.032561361            6 
  651000   0.98615492    -6.283988    252.41406  0.032311068   0.03254279            7 
  652000    0.9947911    -6.275614    252.38983  0.032258414  0.032524314           22 
  653000   0.98876645   -6.2869432     252.5629    0.0322311  0.032505476            4 
  654000    1.0127295   -6.3119924    252.87919  0.032222119     0.032487            5 
  655000     1.012611   -6.2762962    253.50934  0.032253096    0.0324688            6 
  656000   0.98197618   -6.2810049    253.16744  0.032160498  0.032450664            9 
  657000   0.99017517   -6.2950635    253.32242  0.032131205  0.032432206            4 
  658000    0.9925416   -6.2988492    253.61492  0.032119418  0.032413687            7 
  659000   0.99259764   -6.2820634    254.23738  0.032149391  0.032395042            7 
  660000   0.98578178    -6.315356    254.06864  0.032079373  0.032376221            5 
  661000     1.012096   -6.3099644    254.52327  0.032088158  0.032357358            7 
  662000   0.99713977   -6.2978752    255.75507  0.032194747  0.032338449            7 
  663000     0.994792   -6.2793906    255.34687  0.032094881  0.032319909            3 
  664000   0.96507173   -6.3229099    255.26619   0.03203642  0.032301101            4 
  665000   0.98053246   -6.3173857    255.33339  0.031996665  0.032282058           15 
  666000   0.98843909   -6.2795491    255.73249   0.03199856  0.032263208           10 
  667000   0.97912455   -6.3006448     255.6861   0.03194479  0.032244288            7 
  668000    1.0096554    -6.295736    255.87574  0.031920627  0.032224945            5 
  669000   0.96955304   -6.2959159    256.30685  0.031926613  0.032205619            4 
  670000   0.99897783   -6.2586834    256.88983  0.031951472  0.032186687            7 
  671000   0.99054406   -6.3280669     256.4773  0.031852621   0.03216751            6 
  672000   0.98576634   -6.3312534    256.88183  0.031855385  0.032148132            5 
  673000   0.99769091   -6.3264882    256.99918  0.031822583  0.032128486            6 
  674000   0.97102099   -6.2948472    256.30436  0.031689461  0.032109127           15 
  675000    1.0065591   -6.2999596    257.15712  0.031747793  0.032089677           13 
  676000   0.99213978   -6.3222134     257.5859  0.031753686  0.032070348            9 
  677000   0.96614754   -6.2984672    257.32437  0.031674591  0.032050828            9 
  678000    1.0065403   -6.2868945    258.03306  0.031714978  0.032031525            9 
  679000   0.98845041   -6.2795814    258.91212  0.031776156  0.032012667            3 
  680000   0.99964936   -6.3296256    258.78995  0.031714454  0.031993287           20 
  681000   0.98134111   -6.2827087    258.97778  0.031690869  0.031974047            7 
  682000   0.97744978   -6.2757964     258.8242  0.031625635   0.03195499            4 
  683000    1.0000597   -6.2993835    258.89186  0.031587587  0.031935871           21 
  684000   0.98652607   -6.3254312    259.00744  0.031555487  0.031916728            8 
  685000   0.98098891   -6.2795095    259.76236  0.031601261  0.031897612            5 
  686000   0.97840818   -6.3216698    260.78369  0.031679263  0.031878967            6 
  687000    0.9680404   -6.2919592    260.25867  0.031569465  0.031860201            7 
  688000   0.97074835    -6.313567    260.59624  0.031564467  0.031841362            5 
  689000   0.98127545   -6.2845727    260.72407  0.031534115  0.031822664           10 
  690000   0.98093558   -6.3251619    261.07317  0.031530576  0.031803573            8 
  691000   0.96999269   -6.2970592     260.5032  0.031416208  0.031784177            5 
  692000   0.98852197   -6.3038981    261.04334  0.031435855  0.031764716            3 
  693000   0.97392533   -6.3079181    261.03148  0.031389067  0.031745088           33 
  694000   0.96275156   -6.3250912    261.01286  0.031341602  0.031725292            7 
  695000    0.9777573   -6.3195413    261.19361  0.031318179   0.03170561            7 
  696000   0.96232179   -6.2944931    261.98892  0.031368405  0.031686062            6 
  697000    0.9658447   -6.2792024    262.41218  0.031374006  0.031666394            5 
  698000   0.98188082   -6.3415818    261.54991  0.031226112  0.031646503            6 
  699000   0.98883129   -6.2933725    263.18542  0.031376421  0.031626892            7 
  700000   0.99760497   -6.3158061     263.3383  0.031349798  0.031607565            6 
  701000    0.9646278   -6.3101773    263.10563  0.031277417  0.031588278            4 
  702000    1.0028248    -6.321823    263.71067  0.031304685  0.031569226            9 
  703000   0.95116933   -6.2868688    264.10463  0.031306855  0.031550199           15 
  704000   0.97323381   -6.2961757    264.49609  0.031308723   0.03153159            6 
  705000   0.98902553   -6.3233488    265.06344  0.031331376  0.031512816           12 
  706000   0.96649131   -6.2862139     265.4119  0.031328128  0.031494094            5 
  707000   0.98319976   -6.3153809     265.0653  0.031242963  0.031475627            5 
  708000   0.98615121   -6.3174526    264.75291  0.031162065  0.031457076            7 
  709000   0.96585849   -6.3739532    265.24421  0.031175859  0.031438185            5 
  710000   0.98276587   -6.3510304    265.39384  0.031149512  0.031419215            4 
  711000   0.95139807   -6.3064324    265.37286  0.031103242  0.031400088            5 
  712000    0.9801469   -6.3786551    264.94967  0.031010027  0.031380749            7 
  713000    0.9790792   -6.3588766    266.37705  0.031133363   0.03136144           11 
  714000   0.96680442   -6.3243359    266.12273  0.031060076  0.031342094            5 
  715000   0.95051516    -6.323598    267.66267  0.031196115   0.03132322            9 
  716000   0.96309069   -6.3287175    266.32763  0.030997164  0.031304457            7 
  717000    0.9817027   -6.3304463    267.54457  0.031095371  0.031285695           12 
  718000   0.97113877   -6.3065209    268.37989  0.031149012   0.03126731           10 
  719000   0.98240396   -6.3543976    268.48597  0.031117984   0.03124903            2 
  720000   0.95012532   -6.3178986    268.50656  0.031077148  0.031230759            8 
  721000   0.96621889   -6.3558973    267.81414  0.030954015  0.031212339            5 
  722000   0.97174263   -6.2876915     268.6647  0.031009315  0.031194084            6 
  723000   0.97427377   -6.3298713    269.53684  0.031066948   0.03117572            5 
  724000   0.95188084   -6.3148337    270.55593  0.031141337  0.031157894            5 
  725000   0.96954993   -6.3341472    269.72085  0.031002397  0.031140148            3 
  726000   0.97391952   -6.2942306    269.48352  0.030932452  0.031122079           11 
  727000   0.98012508   -6.3357887    269.33014  0.030872322  0.031104105            8 
  728000   0.99355502   -6.3521356    270.23584   0.03093359  0.031085816            7 
  729000   0.94178533   -6.3118812    270.38702  0.030908438  0.031067577            6 
  730000   0.95750665   -6.3469983    271.26952   0.03096684  0.031049697            5 
  731000   0.95581686   -6.3432644    271.42992  0.030942763  0.031031753           12 
  732000   0.94404827   -6.3235584    270.49508  0.030794067   0.03101352            8 
  733000   0.96172368   -6.3649406    271.11761   0.03082283  0.030995071            5 
  734000   0.98744433   -6.3284247    271.71258  0.030848386  0.030976893            4 
  735000   0.94756842   -6.3633777    271.52041  0.030784627  0.030958777           16 
  736000   0.94464788   -6.3221283     272.6769  0.030873743  0.030940679            5 
  737000   0.95807548   -6.3504104    272.06586  0.030762762   0.03092271           15 
  738000   0.98130467   -6.3542768    272.32519   0.03075036  0.030904444            6 
  739000   0.94736302   -6.3562065    272.79627   0.03076187  0.030886108           10 
  740000   0.97860307   -6.3334651    272.88194  0.030729948  0.030867778           17 
  741000    0.9206298   -6.3920766    271.92591  0.030580961  0.030849446            6 
  742000   0.95095913   -6.3446706    273.32085  0.030696412  0.030830917            8 
  743000   0.94228759   -6.3539378    273.18471  0.030639829  0.030812401            8 
  744000   0.94494219   -6.3546563    274.02651  0.030692934  0.030794022            8 
  745000    0.9778595   -6.3539352     273.4549  0.030587797  0.030775959            6 
  746000   0.94183733     -6.33175    274.81251  0.030698448  0.030757874            7 
  747000   0.94014176   -6.3594163    274.16702  0.030585344  0.030739877           13 
  748000   0.96500478   -6.3150398    274.87681   0.03062353  0.030721681            6 
  749000   0.96703061   -6.3426908    274.61235  0.030553221  0.030703947           11 
  750000   0.96925425   -6.3659483    275.26783  0.030585314  0.030685912            7 
  751000   0.95753188   -6.3465959    275.15235  0.030531774  0.030668049            5 
  752000   0.97400833   -6.3640433    275.37392  0.030515727  0.030650135            6 
  753000     0.939299   -6.3475355     276.0179   0.03054647  0.030632431            8 
  754000   0.96068558   -6.3612821    276.49619  0.030558819  0.030614869            7 
  755000   0.95882995   -6.3668224    276.13807  0.030478815  0.030597169            7 
  756000   0.92237703   -6.3600032     276.3565  0.030462578  0.030579395           30 
  757000   0.94934613   -6.3652344    277.05027  0.030498709  0.030561507           21 
  758000   0.96111977   -6.4195032    276.93104  0.030445365  0.030543717            9 
  759000   0.96904252   -6.3802805    277.10818  0.030424702  0.030525752           11 
  760000   0.93264455   -6.3520462     277.7542  0.030455505  0.030507973           12 
  761000   0.95191699   -6.3912563    277.82782  0.030423546  0.030490372            5 
  762000   0.97608339    -6.380265    278.53615  0.030461083   0.03047279           11 
  763000   0.97021104   -6.3597432    279.00855  0.030472756  0.030455653            7 
  764000   0.95352832   -6.3838516    278.86133  0.030416811    0.0304382            6 
  765000   0.95627228    -6.326786    279.60604  0.030458174  0.030420887            5 
  766000   0.93821853   -6.3337167    280.14017   0.03047652  0.030403729            5 
  767000   0.96560268   -6.3837492     279.8676  0.030407171  0.030386854            3 
  768000   0.94692411   -6.3877651    280.06232  0.030388706  0.030369608            8 
  769000   0.94547355    -6.345825     279.9932  0.030341699  0.030352274           10 
  770000   0.94065045   -6.3928045     280.2946  0.030334914  0.030334969            6 
  771000    0.9514263   -6.3890387    279.94967  0.030258287  0.030317504           12 
  772000   0.97309367   -6.3865202     279.9449  0.030218578  0.030300247            5 
  773000   0.94390644    -6.353694    280.84637  0.030276668  0.030283248            5 
  774000   0.95072247   -6.3509404    281.97046  0.030358577  0.030266194           19 
  775000   0.93446294    -6.359678    281.88671  0.030310399  0.030249404            8 
  776000   0.94326584   -6.3748682    281.09106  0.030185895  0.030232511            7 
  777000   0.93622243   -6.3703991    280.87655  0.030124041  0.030215276            7 
  778000   0.94198644   -6.3995637     281.4402  0.030145694  0.030198099            6 
  779000   0.94575466   -6.3706338    281.00628  0.030060578  0.030180739            6 
  780000   0.95033672   -6.3539846    281.94098  0.030121899  0.030163488            7 
  781000   0.94516702   -6.4057977    281.77807  0.030065949  0.030146036            6 
  782000   0.94832455   -6.3833434    282.89089  0.030146088   0.03012848           10 
  783000   0.94791051   -6.3782124    283.21869  0.030142475  0.030111098            6 
  784000    0.9603855   -6.3659213     283.1551  0.030097268  0.030093821           10 
  785000   0.95227761   -6.3857509      283.732   0.03012017  0.030076613            4 
  786000   0.95093242   -6.4187355    284.10801  0.030121714  0.030059346            5 
  787000   0.93837362    -6.384093    283.89635  0.030061028   0.03004221            9 
  788000   0.95264437   -6.3946267    284.26452  0.030061815  0.030025302            6 
  789000   0.94016016    -6.381876    284.59583  0.030058706  0.030008219            7 
  790000   0.93150053   -6.3598085    284.88916  0.030051599  0.029991196           10 
  791000   0.95168595   -6.3894687     285.0746  0.030033144  0.029974372            8 
  792000   0.94505114   -6.4022474    285.03079  0.029990613  0.029957643            7 
  793000    0.9246514   -6.3987608    284.91629  0.029940762  0.029940475            7 
  794000   0.91880303   -6.4137596    285.69015  0.029984273   0.02992354            5 
  795000   0.92229703   -6.3876968    285.33905  0.029909754  0.029906731            8 
  796000    0.9309044   -6.3724163    285.11919  0.029849162  0.029889708            5 
  797000   0.94267342   -6.4115258    285.08616  0.029808256  0.029872519            6 
  798000   0.93773789   -6.3812057    286.35003  0.029902886  0.029855241            7 
  799000   0.94747604    -6.426979    286.26945  0.029857056  0.029838143            5 
  800000   0.93697664   -6.4080555    286.12631  0.029804824  0.029820903           11 
  801000   0.92237175   -6.3837071    286.04479  0.029759133    0.0298038           11 
  802000   0.93973045    -6.389169    286.61761  0.029781547  0.029786669            6 
  803000   0.92969772   -6.4263253    286.48008  0.029730187  0.029769166            9 
  804000   0.91402207    -6.411867    286.49776  0.029695041  0.029751837            7 
  805000   0.93205908   -6.4149733    285.83698  0.029589749  0.029734364            8 
  806000    0.9216843   -6.4032396    287.43273  0.029718024  0.029716779           14 
  807000   0.92103013   -6.3929201    288.19465  0.029759878  0.029699492           12 
  808000   0.91683791   -6.3947947     288.0183  0.029704858   0.02968224           18 
  809000   0.94591042   -6.3665346    287.38647  0.029603056  0.029664867            8 
  810000   0.93302588   -6.4060299     286.9025  0.029516718  0.029647285            8 
  811000   0.92850158   -6.3812882    288.38277  0.029632426  0.029629714            4 
  812000   0.90586995   -6.3842781    287.82651  0.029538846  0.029612199           14 
  813000   0.93636615   -6.3934961     289.1208  0.029635178  0.029594544           21 
  814000   0.91130243   -6.3775793    288.68997  0.029554665  0.029577239            6 
  815000   0.94750394   -6.3977684     289.4636  0.029597505  0.029560011            9 
  816000   0.93115868   -6.4066149    288.71142  0.029484418  0.029542727           15 
  817000   0.91397534   -6.4426869    289.49353  0.029528104  0.029525371            7 
  818000   0.93726758   -6.3999561        290.1  0.029553789  0.029507958            5 
  819000   0.92728893   -6.4053851    288.83002  0.029388484  0.029490685           10 
  820000   0.91629112   -6.3931569    289.81084  0.029452321  0.029473432           22 
  821000   0.93761367   -6.4207548    290.70516  0.029507223  0.029456145           31 
  822000   0.91875284   -6.4178756    291.15757   0.02951719  0.029439019            7 
  823000   0.93859537   -6.4161596    291.33682  0.029499475  0.029422238            9 
  824000   0.92308324   -6.4161827    290.67356  0.029396598  0.029405135           14 
  825000   0.92160888    -6.400271    291.87049  0.029481868  0.029387918            7 
  826000   0.93054744   -6.4165451     290.7111  0.029329207  0.029370691            6 
  827000   0.92706189   -6.3989095    290.73422  0.029296072  0.029353362            7 
  828000    0.9356973    -6.395512    291.95729  0.029383785  0.029336203            7 
  829000   0.92403698   -6.4006039     291.8778  0.029340349  0.029318949            9 
  830000    0.9139813   -6.4010277     292.3383  0.029351235  0.029301851            6 
  831000   0.94147107   -6.4184646    293.04075  0.029386356  0.029285153           12 
  832000   0.91558292   -6.4117942    293.22638   0.02936963  0.029268349            8 
  833000   0.92936016   -6.4264392    292.59004  0.029270713  0.029251531           13 
  834000   0.92163268   -6.3994136    292.68736   0.02924534   0.02923462            6 
  835000   0.93579965     -6.40102    293.46099  0.029287524  0.029217691            7 
  836000   0.92163043   -6.4318109    293.19746  0.029226222  0.029200785           11 
  837000   0.92360796    -6.417548     293.4043  0.029211898  0.029183835            7 
  838000   0.92020406   -6.4286409    293.88779  0.029225118   0.02916694           16 
  839000   0.93464192   -6.3930795    294.62783  0.029263789  0.029150147           11 
  840000   0.91884582   -6.4117381    293.98789  0.029165465   0.02913323            9 
  841000   0.90728262   -6.4349956    294.30038   0.02916175  0.029116554           10 
  842000   0.91213436   -6.4082555     295.4239  0.029238312  0.029099903           16 
  843000   0.92291422   -6.4296626    294.12686  0.029075411  0.029083303           11 
  844000   0.91315154   -6.3992226    296.12496  0.029238246  0.029066836           10 
  845000   0.90376706   -6.4336006    294.82715  0.029075656  0.029050152            8 
  846000   0.92290069   -6.4257159    294.79072  0.029037699  0.029033544            5 
  847000   0.91209457   -6.4249827    296.05671  0.029127972  0.029016859            8 
  848000   0.91953801   -6.4373444    296.23464  0.029111109  0.029000386            9 
  849000   0.90802249   -6.4227628    296.30192  0.029083424  0.028983826            4 
  850000   0.92545634   -6.4292668    297.11219  0.029128647  0.028967293           12 
  851000    0.9183755   -6.4028446    297.39593  0.029122202  0.028950785            7 
  852000   0.93063888   -6.4288238    296.51029  0.029001397   0.02893428           12 
  853000   0.90471255   -6.4192934    296.91537  0.029006973  0.028917807            9 
  854000   0.91518243   -6.4118925    297.26269  0.029006898  0.028901304            7 
  855000   0.92339349   -6.4374284    297.42873  0.028989155  0.028884638            5 
  856000   0.92003275   -6.4196365    297.83812  0.028995144  0.028867992            7 
  857000   0.90741277   -6.4389866    297.68707  0.028946623  0.028851228            8 
  858000   0.89705854   -6.4619581    297.29856  0.028875151  0.028834261           12 
  859000   0.92554219   -6.4324289    298.01226  0.028910774  0.028817532           14 
  860000    0.9069833   -6.4690106    297.79846   0.02885644  0.028800674            6 
  861000   0.91407162   -6.4511447    297.53814  0.028797729  0.028784008           14 
  862000   0.90367691   -6.4426926    297.73118  0.028782984  0.028767169            7 
  863000   0.91424202   -6.4536783    298.37175  0.028811486  0.028750348           16 
  864000   0.90512608   -6.4338957    297.79582   0.02872259  0.028733445           10 
  865000   0.91419235   -6.4529088    298.78759  0.028784932  0.028716452           11 
  866000   0.90670791   -6.4412258    298.88402  0.028760972  0.028699473           16 
  867000   0.91460307   -6.4104615    300.07539  0.028842309  0.028682627            6 
  868000   0.92033027   -6.4284208    298.87252  0.028693599  0.028665851            9 
  869000   0.90337355   -6.4549034     299.6672  0.028736786  0.028648923            5 
  870000   0.90462108    -6.460511    300.07283  0.028742608  0.028631978           27 
  871000   0.90779582   -6.4430076    299.89908  0.028692985  0.028615131            9 
  872000   0.90175226   -6.4294008    300.13537  0.028682662  0.028598243            7 
  873000    0.8793672   -6.4580825    300.42417  0.028677374  0.028581268           11 
  874000    0.8850642   -6.4725385    299.52345  0.028558681  0.028564166            8 
  875000   0.89354347   -6.4880709     300.1608  0.028586743  0.028547044           14 
  876000   0.90112294   -6.4754787    300.93245  0.028627516   0.02852989           13 
  877000   0.88979237   -6.4272515    300.68087  0.028570968  0.028512975            6 
  878000   0.91350293   -6.4910704    300.52701  0.028523824  0.028496055           11 
  879000   0.91878606    -6.415978    300.68793   0.02850663  0.028479295            6 
  880000   0.88266246   -6.4363533    301.52784  0.028553773  0.028462543           14 
  881000   0.92098238   -6.4393629    302.39837  0.028603705  0.028445818           23 
  882000   0.88704337   -6.4445319    301.60198   0.02849603  0.028428999            5 
  883000   0.88693225   -6.4577386    301.41444  0.028446059  0.028412075           12 
  884000   0.90807196   -6.4471646    301.74695  0.028445225  0.028395113           23 
  885000   0.90958609   -6.4740051    300.53832  0.028299277   0.02837798           11 
  886000   0.91662524   -6.4677278    302.04046  0.028408621  0.028360686           10 
  887000    0.8849321   -6.4491294    301.30599   0.02830759  0.028343493            8 
  888000   0.91349928   -6.4383334    302.25976  0.028365218  0.028326512           11 
  889000   0.91551256   -6.4719837    302.42207  0.028348525  0.028309423            5 
  890000   0.89472259   -6.4593109    302.85969  0.028357649  0.028292353            7 
  891000    0.8882521   -6.4838416    303.21236  0.028358806  0.028275495           17 
  892000   0.90705669   -6.4674049    302.66768  0.028276129  0.028258508           14 
  893000   0.90250579   -6.4612502     303.2753  0.028301166  0.028241432           14 
  894000   0.90032201   -6.4478242    303.20027  0.028262516  0.028224501            4 
  895000   0.87060407   -6.4817766    303.94081   0.02829989  0.028207604            8 
  896000   0.90102685     -6.47612    303.68525  0.028244536  0.028190675           18 
  897000   0.90407684   -6.4732881    304.19701  0.028260592  0.028173761           11 
  898000   0.91582361   -6.4396162    304.60034  0.028266549  0.028156948            9 
  899000   0.88769681   -6.4707106     304.7552  0.028249463  0.028140348            5 
  900000   0.90046666   -6.4548754    305.17304  0.028256763   0.02812371           14 
  901000    0.8863087   -6.4723501    305.85065  0.028288074  0.028107167            8 
  902000    0.8847604   -6.4605445    305.64441  0.028237658  0.028090807           14 
  903000   0.91021308    -6.457174    305.33556  0.028177885  0.028074382            7 
  904000   0.86607086   -6.4830798    305.05687  0.028121024  0.028057809            8 
  905000   0.87937668   -6.4475902    305.76035  0.028154729   0.02804114            8 
  906000   0.89047869   -6.4605323    306.27992  0.028171443  0.028024613           12 
  907000   0.89288484   -6.4523922    306.28849   0.02814117   0.02800789           27 
  908000   0.89139815   -6.4698999    305.69524   0.02805573  0.027991081            9 
  909000   0.87239074    -6.489051     306.5343  0.028101788  0.027974393           12 
  910000   0.89654894   -6.4730618    304.90875  0.027922047  0.027957648            7 
  911000   0.90429069   -6.5059697    306.15632  0.028005517  0.027940777           15 
  912000   0.89048077   -6.4768242    305.81042  0.027943204  0.027923919           10 
  913000    0.8804991   -6.4679158    306.41507  0.027967787  0.027907057           10 
  914000   0.89393166   -6.4584596    306.25059  0.027922191  0.027890202           19 
  915000     0.885924   -6.4917649     306.8303  0.027944472  0.027873335           27 
  916000   0.87820792   -6.4660712    307.98939  0.028019413  0.027856535            6 
  917000   0.88368469   -6.4461425    307.72644  0.027964961  0.027839823            7 
  918000   0.87701034   -6.4936317    306.96373  0.027865262  0.027823064           12 
  919000   0.88174231   -6.4662402    307.39708  0.027874237   0.02780619           12 
  920000   0.88571567   -6.4580596    306.28576  0.027743276  0.027789315            6 
  921000   0.89476564   -6.4797233    307.35054  0.027809496   0.02777241           16 
  922000    0.8857396   -6.4842038    308.31276  0.027866301  0.027755468            9 
  923000   0.88757468   -6.4917075    308.99527  0.027897732  0.027738794            9 
  924000   0.88832188   -6.4941217     308.7683  0.027847069  0.027722047            8 
  925000   0.86992902   -6.4681098    308.92465  0.027831049  0.027705223            5 
  926000   0.87545991   -6.4878465    308.17235  0.027733293  0.027688263           22 
  927000   0.87713718   -6.4903686    308.38648  0.027722625  0.027671199           13 
  928000   0.89758723   -6.4873982    308.06194  0.027663608  0.027654099           24 
  929000   0.91676216   -6.4867925    307.83289  0.027613284  0.027636971           12 
  930000   0.87760921   -6.5138548    307.67269  0.027569238  0.027619779           15 
  931000   0.89191197   -6.5015537    308.60159   0.02762277  0.027602575           17 
  932000   0.88959611   -6.4553585    309.48446  0.027672073  0.027585585           10 
  933000   0.88225162   -6.4773046    308.39021  0.027544678  0.027568419            8 
  934000   0.88127445   -6.4639656    309.07197  0.027576015  0.027551123           11 
  935000    0.8976111   -6.4629807    309.27038  0.027564205  0.027533858           10 
  936000     0.866285   -6.5039074    308.26169  0.027444951  0.027516442           12 
  937000   0.86480767   -6.5039548    309.06715  0.027487295  0.027498965           16 
  938000   0.86284753   -6.4819674    308.92033  0.027444948  0.027481669           14 
  939000    0.8811094   -6.5008305    309.22741  0.027442972  0.027464414            8 
  940000     0.874457   -6.4675464    310.04269  0.027486054  0.027447255            5 
  941000    0.8804179   -6.4837881    309.89101  0.027443412    0.0274303            7 
  942000   0.88432443   -6.5152656    309.33133  0.027364768  0.027413139            7 
  943000   0.88666146   -6.4594547    310.17715  0.027410494  0.027395829           17 
  944000   0.89380154   -6.4975676    311.05536  0.027458983  0.027378594            8 
  945000   0.88269586    -6.515055     309.8551  0.027324083  0.027361438           14 
  946000   0.87909114   -6.4836173     311.0277  0.027398494  0.027344241            8 
  947000   0.85699388    -6.486973    310.58765  0.027330839   0.02732689           14 
  948000   0.85839596   -6.5263096    310.16464  0.027264824  0.027309428           12 
  949000   0.87782229   -6.4989991    310.14084  0.027234004  0.027291976           25 
  950000   0.89068859   -6.4736437    310.97812  0.027278782  0.027274659           21 
  951000   0.87982692   -6.5003925      310.702  0.027225903  0.027257434           11 
  952000   0.87524521   -6.5205133    310.83845  0.027209248  0.027239919           11 
  953000   0.87413823   -6.5250845    310.76001  0.027173838  0.027222522           20 
  954000   0.87021558   -6.4863993    311.24596  0.027187802  0.027205101            9 
  955000    0.8713229   -6.4932024    311.62397  0.027192319  0.027187758           18 
  956000   0.87982017   -6.5075903    311.52644  0.027155373   0.02717019            8 
  957000   0.86621138   -6.4839295    312.03393  0.027171189   0.02715267           18 
  958000   0.87719316   -6.5097215    310.97094   0.02705036  0.027135052           17 
  959000   0.86813353   -6.4929815    311.64299  0.027080552  0.027117538            8 
  960000   0.89231547   -6.4917208    312.76617  0.027149841  0.027100137           15 
  961000   0.87638977   -6.5470482    311.73174  0.027031889  0.027082861            9 
  962000   0.85002135   -6.4826768    312.27351   0.02705072  0.027065517           14 
  963000    0.8595902   -6.4895156    312.25198  0.027020767  0.027048157            9 
  964000   0.86313691   -6.5096858    312.85598   0.02704495  0.027030616           13 
  965000   0.86569185   -6.5017616    312.69533  0.027003051  0.027013357            5 
  966000   0.88687219   -6.5096178    313.14421  0.027013821  0.026996062           14 
  967000    0.8632217   -6.5081922    313.78786  0.027041353   0.02697891           13 
  968000   0.86080505   -6.5240013    313.24517  0.026966698  0.026961571            7 
  969000   0.85499864   -6.4952197    312.28611  0.026856391  0.026944259            7 
  970000   0.86812736   -6.5084195     313.1108  0.026899554  0.026926824           21 
  971000   0.87283547   -6.5575805    312.42975  0.026813401   0.02690943           17 
  972000   0.87210971   -6.5241907    312.48161  0.026790262  0.026891925           13 
  973000   0.86736296   -6.5303534    313.81654  0.026877059  0.026874437           43 
  974000   0.87040863   -6.5356662    313.89541  0.026856212  0.026856985            8 
  975000    0.8547823   -6.5311798    314.31611  0.026864625  0.026839577           30 
  976000   0.86976523   -6.5126007    313.92533  0.026803734  0.026822126           14 
  977000   0.87162485   -6.5480155    313.20704  0.026715032  0.026804681            7 
  978000   0.87541708   -6.5016897    313.81875  0.026739839  0.026787218           19 
  979000   0.85253435   -6.5289009    314.85072  0.026800368  0.026769808           12 
  980000   0.88562543   -6.5390631    314.51359  0.026744353  0.026752387           17 
  981000   0.86132236   -6.5150664    314.86139  0.026746635  0.026734966           20 
  982000   0.87129848   -6.5434261    314.46385  0.026685663  0.026717434           17 
  983000   0.83784466   -6.5232642    315.23334  0.026723749   0.02669999            9 
  984000   0.87081467   -6.5557281    314.79456  0.026659431  0.026682521           14 
  985000   0.87014399   -6.5353078    314.87222  0.026638935  0.026665145           22 
  986000   0.87071475   -6.5259548    315.20736  0.026640243  0.026647633           19 
  987000   0.84476888   -6.5281187    315.42647  0.026631752  0.026630112           17 
  988000   0.87174142   -6.5153851    315.80102  0.026636388  0.026612692           16 
  989000   0.86206869   -6.5626817    315.27737  0.026565333  0.026595136           30 
  990000   0.84538972   -6.5385621    315.71691  0.026575498  0.026577679            8 
  991000   0.85430422   -6.5292417    315.47651  0.026528466  0.026560138            7 
  992000   0.84540368    -6.541514    315.37142  0.026492895  0.026542609           17 
  993000    0.8679512   -6.5390907    315.29035  0.026459411  0.026525158            9 
  994000   0.86317788   -6.5481864    315.70912  0.026467901  0.026507749           22 
  995000   0.84929259   -6.5251796    315.87667  0.026455333  0.026490385           12 
  996000   0.85525505   -6.5173116    316.49619  0.026480605  0.026473092           22 
  997000   0.85446458   -6.5488489    315.76866  0.026393235  0.026455574           31 
  998000    0.8545692   -6.5553719    316.16059  0.026399515  0.026437865           35 
  999000   0.85501297   -6.5445423    316.21609  0.026377718  0.026420346           24 
 1000000   0.84600593   -6.5339314    316.31635  0.026359696  0.026402759           29 
 1001000   0.84750513   -6.5387053    316.12101    0.0263171  0.026385144           13 
 1002000   0.84638363   -6.5489463    316.92782  0.026357936  0.026367672           16 
 1003000   0.86196845   -6.5452677    316.56245  0.026301301  0.026350198           12 
 1004000    0.8525269   -6.5285675    317.34692  0.026340216    0.0263328           19 
 1005000   0.88258062   -6.5297581    317.60474  0.026335385  0.026315472           17 
 1006000   0.84805684   -6.5376769    317.53379  0.026303329  0.026298206            9 
 1007000   0.84279487   -6.5540108    317.64828  0.026286683  0.026280754            6 
 1008000   0.84998002   -6.5633626    316.90171  0.026198885  0.026263153           14 
 1009000   0.85420586   -6.5424671    316.80021  0.026164537   0.02624542            7 
 1010000   0.83749707   -6.5615027    317.25508  0.026176162  0.026227567           12 
 1011000   0.83714537   -6.5688907    316.65243  0.026100596  0.026209705            9 
 1012000   0.85198988   -6.5582036    317.68225  0.026159606  0.026191835            9 
 1013000   0.84666553   -6.5677897    317.55774  0.026123539  0.026174068           23 
 1014000   0.85635974   -6.5550063    317.25995  0.026073303  0.026156207           18 
 1015000   0.84861297   -6.5564232    318.07656   0.02611466  0.026138364           16 
 1016000   0.84015352   -6.5459089    317.05379  0.026005068  0.026120477           12 
 1017000   0.85981726    -6.525777    317.11821  0.025984776  0.026102585           14 
 1018000   0.85981302   -6.5692566    317.33452  0.025976958  0.026084541           13 
 1019000   0.86108431   -6.5330594    317.76808  0.025986922  0.026066699           24 
 1020000   0.84112075   -6.5362522    318.33286  0.026007586  0.026048807            8 
 1021000   0.83590406   -6.5856938    317.21621  0.025890974    0.0260308           14 
 1022000   0.82356192   -6.5619841    317.67269  0.025902861  0.026012719            9 
 1023000   0.83539307   -6.5454575    317.41992   0.02585695  0.025994754           12 
 1024000   0.85364009   -6.5513476    318.36187  0.025908355    0.0259768            8 
 1025000   0.84840657   -6.5685569    317.81679  0.025838764  0.025958755           24 
 1026000   0.86389255   -6.5645028    318.35107  0.025856975   0.02594067           13 
 1027000    0.8440556   -6.5489263    318.23146  0.025822092  0.025922558           25 
 1028000   0.84612024   -6.5702053    318.33153  0.025805085  0.025904594           53 
 1029000   0.84727787   -6.5792864    319.90098  0.025907109   0.02588663           21 
 1030000   0.84245314   -6.6140449     318.1232  0.025738123  0.025868609           14 
 1031000   0.84986712   -6.5571788    318.72806  0.025762048  0.025850586           27 
 1032000   0.82469794   -6.5212519    319.13878   0.02577025  0.025832653           41 
 1033000   0.83169947    -6.568219    318.92096  0.025727731  0.025814721            8 
 1034000   0.84517142   -6.5753779      318.474  0.025666828   0.02579679           11 
 1035000   0.83590143    -6.576148    319.75799   0.02574541  0.025778751           19 
 1036000   0.84440506   -6.5719127    319.06865   0.02566511  0.025760797           17 
 1037000   0.82362087   -6.5704994    319.01633  0.025636157  0.025742729           45 
 1038000   0.83631821   -6.5521703    318.68318  0.025584713  0.025724613           40 
 1039000   0.83138313   -6.5204608    319.71914  0.025643178   0.02570661           32 
 1040000   0.83695465   -6.5572643    318.61367  0.025529941  0.025688585           24 
 1041000   0.83546459   -6.5789593    320.04944  0.025620352  0.025670634           16 
 1042000   0.83378926   -6.5671249    318.78527  0.025494664  0.025652557           19 
 1043000   0.85010492   -6.5634057    319.82649   0.02555341  0.025634517            9 
 1044000   0.82229232   -6.5978377    319.62229  0.025512635  0.025616463           15 
 1045000   0.84684661   -6.5902026    319.57006  0.025484056  0.025598467            7 
 1046000   0.83139394   -6.5626558    320.56088   0.02553863  0.025580605            7 
 1047000   0.82828993   -6.5674919    320.37178  0.025499187  0.025562767            9 
 1048000    0.8550532   -6.5769358    320.33201  0.025471693  0.025544926            5 
 1049000   0.84368974   -6.5654149    321.01994   0.02550206  0.025527208           20 
 1050000   0.82551821   -6.5602535     321.5061  0.025516357  0.025509558           11 
 1051000   0.83235201   -6.6007777     320.5995  0.025420195  0.025491824            6 
 1052000   0.84648845   -6.5979675    320.88051  0.025418292  0.025474007           10 
 1053000   0.84474499   -6.5726049     320.6545  0.025376266  0.025456199           10 
 1054000   0.81794692    -6.567344    320.95092  0.025375626  0.025438409           12 
 1055000   0.83528547   -6.5845865    320.88915  0.025346695  0.025420582           13 
 1056000   0.83422425   -6.5981975    321.23807  0.025350226  0.025402857           11 
 1057000   0.84023863   -6.5996816    321.10993  0.025316141  0.025385126           12 
 1058000   0.83158179   -6.5871405    321.04496  0.025287095   0.02536734            8 
 1059000   0.84530424   -6.5901696     321.3672  0.025288574  0.025349643           20 
 1060000   0.81426564   -6.5802192    321.76279  0.025295817  0.025331897           17 
 1061000   0.82452649   -6.5927453    322.53943  0.025332974  0.025314195           17 
 1062000   0.82996874   -6.6038076    322.39348  0.025297668  0.025296581           12 
 1063000    0.8272895   -6.5553447    322.74192  0.025301185   0.02527901            9 
 1064000   0.82143299   -6.5752492    322.27772   0.02524105  0.025261414           15 
 1065000   0.82907162   -6.5918571     321.7624  0.025177026  0.025243663           10 
 1066000   0.83924642   -6.5802648    321.55634    0.0251373  0.025225856           12 
 1067000   0.82720938   -6.6003578    322.22383  0.025165873  0.025208023           13 
 1068000   0.83629309   -6.5687827    321.95901  0.025121646  0.025190236           33 
 1069000   0.81784651   -6.6299827    322.20623  0.025117417  0.025172483           14 
 1070000   0.81772766   -6.5843884    322.75844   0.02513695  0.025154879            9 
 1071000   0.83220633    -6.596757    322.67466  0.025106961  0.025137187            7 
 1072000   0.83669653    -6.588731     321.8317  0.025018011  0.025119502           10 
 1073000   0.80734644   -6.6160604    322.32665  0.025033135  0.025101559           10 
 1074000   0.81960489   -6.5814661    321.29947  0.024930127  0.025083622           16 
 1075000   0.82010958   -6.5861886    323.04869  0.025042534  0.025065691           16 
 1076000   0.82336628   -6.6158601     322.6809  0.024990776  0.025047775            9 
 1077000   0.82536397   -6.5963168    322.35072  0.024942024  0.025029945           20 
 1078000    0.8063685   -6.5943356     323.2513  0.024988505  0.025012082           11 
 1079000   0.82101048   -6.6215756     322.7302    0.0249251  0.024994207            8 
 1080000   0.81158296   -6.6154901    322.85274  0.024911477  0.024976433            6 
 1081000   0.81903198   -6.6216762    323.62424  0.024947906  0.024958463            6 
 1082000   0.84066759    -6.594393    323.19284  0.024891623  0.024940682           24 
 1083000   0.81198694   -6.5988553    323.39288  0.024884032  0.024922775           15 
 1084000   0.81428438   -6.6176844    322.93843   0.02482614  0.024904975           13 
 1085000   0.81351826    -6.593902    323.31992  0.024832559  0.024887199           11 
 1086000   0.84948581   -6.6263694    324.07086  0.024867316  0.024869648            9 
 1087000   0.81899965   -6.5806338    324.84476  0.024903769  0.024852096           22 
 1088000   0.83769687   -6.6259531    324.25173  0.024835457    0.0248345           25 
 1089000   0.82436754   -6.6325712    324.08227  0.024799684  0.024816823           16 
 1090000    0.8348064   -6.6227583    324.96339  0.024844296  0.024799367           16 
 1091000   0.81365805   -6.6342869    324.70025  0.024801425  0.024781854           22 
 1092000   0.79434701   -6.6133056    323.45678   0.02468382  0.024764386           23 
 1093000   0.83699262   -6.6124847    324.60406  0.024748708  0.024746968           27 
 1094000   0.80905226   -6.5984257    325.53964  0.024797353  0.024729682           12 
 1095000   0.83072978   -6.6132074    325.51025   0.02477247  0.024712292           19 
 1096000   0.81593744   -6.6148569    325.26995  0.024731596  0.024694997           23 
 1097000   0.82180426   -6.6062884    325.32541  0.024713264  0.024677677            9 
 1098000    0.8158706   -6.6067739    325.77011  0.024724508  0.024660334           29 
 1099000   0.81560574    -6.593798    325.61325  0.024690116  0.024643056           16 
 1100000    0.8157184   -6.6262154     325.4256  0.024653454  0.024625794           23 
 1101000   0.80892691   -6.6063418    325.82224  0.024661084  0.024608576           10 
 1102000   0.80876049    -6.622587    325.96204  0.024649277  0.024591326           21 
 1103000   0.82577391   -6.6472279     325.7148   0.02460825  0.024574057           53 
 1104000   0.81765962   -6.6137164    326.53532  0.024647895  0.024556867            7 
 1105000   0.82681757   -6.5996588    326.12525  0.024594664  0.024539687            6 
 1106000   0.79380854   -6.6345725    326.40958   0.02459385  0.024522598           16 
 1107000   0.82170001   -6.5842025    327.21811  0.024632498  0.024505475           13 
 1108000   0.81374638   -6.6179659    326.48298  0.024554978  0.024488386           10 
 1109000   0.83336658   -6.5950795    327.21328  0.024587713  0.024471364           19 
 1110000   0.81636483   -6.5887975    327.34065  0.024575124  0.024454421           19 
 1111000   0.80021842    -6.631009    327.42377  0.024559239  0.024437445           33 
 1112000   0.80650913   -6.6205738    326.92731  0.024499948  0.024420446           31 
 1113000   0.81087485   -6.6239596    326.38575  0.024437388  0.024403451           19 
 1114000   0.80496268   -6.6359829    327.37101  0.024489154  0.024386439           14 
 1115000   0.79273651   -6.6618797    327.11173  0.024447813  0.024369401           16 
 1116000   0.79683059   -6.6359711    327.17791  0.024430848  0.024352363           35 
 1117000   0.81751451   -6.6541481    328.00302  0.024470532  0.024335352           26 
 1118000   0.79725437   -6.6591327    327.58465  0.024417461  0.024318315           25 
 1119000   0.82328717   -6.6585199    327.70254  0.024404419  0.024301279           51 
 1120000    0.8251636    -6.605072    327.92273  0.024399013   0.02428432           17 
 1121000   0.80728527    -6.653594    327.76928   0.02436584  0.024267282           31 
 1122000    0.8053672   -6.6285934     327.7485   0.02434258  0.024250289           30 
 1123000   0.77466636   -6.6374756    328.22009  0.024355898  0.024233299          107 
 1124000   0.80827545   -6.6247199    328.34177  0.024343251  0.024216364           30 
 1125000   0.79601008   -6.6323353    328.77048  0.024353369  0.024199554           23 
 1126000   0.79156957   -6.6511049    327.90297  0.024267538  0.024182564           26 
 1127000   0.79836189   -6.6506119    328.16656  0.024265495  0.024165629           26 
 1128000    0.8099247   -6.6297964    328.95094  0.024301931   0.02414885           14 
 1129000   0.80511572   -6.6387347    329.65867  0.024332645  0.024131924           13 
 1130000   0.80214909    -6.638394    329.12028  0.024271407  0.024114992           21 
 1131000   0.79793178   -6.6415435    328.99537  0.024240744  0.024098022           12 
 1132000   0.81788327   -6.6990175     328.8149  0.024206044  0.024081071           28 
 1133000   0.78594461   -6.6213049    329.13001  0.024207856  0.024064177           11 
 1134000   0.80849856   -6.6627398    328.14014  0.024113767  0.024047246           21 
 1135000   0.77999374   -6.6438665    328.94609  0.024151696  0.024030168           44 
 1136000   0.80792545   -6.6454123    328.70547  0.024112784  0.024013192           21 
 1137000   0.79187721   -6.6648701    328.23933  0.024057412  0.023996196           19 
 1138000   0.81533235   -6.6421695    328.04647  0.024022149  0.023979177           36 
 1139000   0.79863184   -6.6406713    329.21465  0.024086527  0.023962183           47 
 1140000   0.79419109   -6.6548258    329.16227  0.024061569  0.023945302           22 
 1141000    0.7881206   -6.6566681    329.09932  0.024035883  0.023928309           32 
 1142000    0.7928368   -6.6576095    329.43373  0.024039239  0.023911332           19 
 1143000   0.80370948   -6.6519207    328.80202  0.023972151  0.023894274           32 
 1144000   0.79579453   -6.6579906    329.43985  0.023997658  0.023877199           17 
 1145000   0.79253926   -6.6606982    330.02975  0.024019633  0.023860123           47 
 1146000   0.79519532   -6.6644655    328.83486  0.023911784  0.023843121           53 
 1147000   0.80765815   -6.6726663    329.28432  0.023923592  0.023826025           38 
 1148000   0.80512826   -6.6790084    329.42713  0.023913119  0.023809015           22 
 1149000   0.79843849   -6.6516764    329.47707  0.023895929  0.023792053           44 
 1150000   0.80783625   -6.6400469    330.05626   0.02391712    0.0237752           19 
 1151000   0.79764249   -6.6596148    330.12593  0.023901385  0.023758441           17 
 1152000   0.77762445   -6.6803689    330.27819  0.023891652   0.02374158           10 
 1153000   0.79770764   -6.6928092    329.02994  0.023780713  0.023724662           19 
 1154000   0.79293922   -6.6654548    329.96678  0.023827757  0.023707686           51 
 1155000   0.79471266   -6.6634677    330.65754  0.023856965  0.023690858           17 
 1156000    0.7996579   -6.6757788    330.69424  0.023838974  0.023674035           12 
 1157000   0.79408451   -6.6677198    330.48674  0.023803424  0.023657269           10 
 1158000    0.7649979    -6.623844    331.15915  0.023831257  0.023640458           16 
 1159000   0.78667253   -6.6720552     330.4327  0.023758463  0.023623593           20 
 1160000   0.79205089   -6.6617283    330.64873  0.023753501  0.023606845           31 
 1161000   0.77290086   -6.6711194    330.04143  0.023689451  0.023590022           10 
 1162000   0.78661308   -6.6505129    330.57264   0.02370716  0.023573181           14 
 1163000   0.77615217   -6.6557523    330.55226  0.023685315  0.023556366           28 
 1164000   0.78874381   -6.6663297    331.10465  0.023704514  0.023539437           25 
 1165000    0.7902286   -6.6464933    330.57706  0.023646428  0.023522635           14 
 1166000   0.78857384   -6.6604976    330.90651  0.023649694  0.023505902           13 
 1167000   0.78159206   -6.6276322     331.6415  0.023681913  0.023489192           17 
 1168000   0.77376397   -6.6588816    332.18673  0.023700537  0.023472452            7 
 1169000   0.78913942   -6.6595584    332.05284  0.023670718  0.023455806           19 
 1170000   0.77507361   -6.6831763    330.66272  0.023551476  0.023439042           15 
 1171000   0.79429905   -6.6784995    331.44472  0.023587014  0.023422178           16 
 1172000    0.7826212   -6.6731742    331.19382  0.023549048  0.023405426           21 
 1173000   0.78253097   -6.6932005    331.44866  0.023547077  0.023388765           23 
 1174000   0.79001573   -6.6700525    330.96786  0.023492892  0.023372044           18 
 1175000   0.78005718   -6.6694196    331.68014  0.023523414  0.023355256           18 
 1176000   0.77596244   -6.6648379     330.9505  0.023451707  0.023338529           41 
 1177000   0.79483702   -6.6934305     331.5989  0.023477691  0.023321831           66 
 1178000   0.78621712   -6.6335143    331.65488  0.023461721  0.023305198           23 
 1179000   0.79191563   -6.7125849    331.09267  0.023402083  0.023288432           25 
 1180000   0.78740095   -6.6982277     331.6863  0.023424174  0.023271712           45 
 1181000   0.77790515    -6.670941    332.83046  0.023485073  0.023255029           14 
 1182000   0.80506446   -6.6856152    332.65523   0.02345285  0.023238477           47 
 1183000   0.77825828    -6.649591    332.13137  0.023396124  0.023221992           52 
 1184000   0.76483798   -6.6638461    331.75418  0.023349816  0.023205504           21 
 1185000   0.78592083   -6.6924158    332.55056  0.023386115  0.023189013           13 
 1186000   0.79247382   -6.6921977    332.40243  0.023355989  0.023172643           14 
 1187000    0.7812556   -6.6686627     333.4454  0.023409534  0.023156263           53 
 1188000   0.79568403   -6.6858628    333.52208  0.023395208  0.023139943           26 
 1189000   0.77389212   -6.6915356    334.08365   0.02341489  0.023123602           20 
 1190000   0.76971356   -6.6973068    333.47209  0.023352387  0.023107243           25 
 1191000   0.75305425   -6.6576393    333.24281  0.023316737  0.023090873           20 
 1192000   0.76872863   -6.6653165    333.05418  0.023283989  0.023074599           18 
 1193000   0.77475651   -6.6925888    333.82506  0.023318319  0.023058349           15 
 1194000   0.76696193   -6.6741753     333.8286  0.023299037  0.023042102           18 
 1195000   0.77593871   -6.6755596    333.57688  0.023261986  0.023025834           18 
 1196000   0.76893762   -6.6586067    333.70164  0.023251229  0.023009623           37 
 1197000   0.77717874   -6.6752244    334.81317  0.023309188  0.022993418           25 
 1198000   0.78150331   -6.7070848     334.1615    0.0232444  0.022977296           24 
 1199000   0.76640592   -6.6816574    335.01903  0.023284615  0.022961152           32 
 1200000   0.77619123   -6.6703704    334.52678  0.023231027  0.022945012           24 
 1201000   0.78557605   -6.7173852    333.48621  0.023139481  0.022928861           25 
 1202000    0.7858266   -6.6924302    334.13463  0.023165185  0.022912565           19 
 1203000   0.77847507   -6.7046328    334.29176  0.023156813  0.022896339           16 
 1204000    0.7798826   -6.7392168    333.56578  0.023087332  0.022880007           41 
 1205000   0.76530028   -6.6837725    334.52732   0.02313467  0.022863749           86 
 1206000   0.76398214   -6.7165005    334.25914  0.023096956  0.022847536           47 
 1207000   0.76768976   -6.6969987     333.9257  0.023054798  0.022831139           37 
 1208000   0.77338767   -6.7185926    334.98546   0.02310882  0.022814858           50 
 1209000   0.77302423   -6.7153067    334.46077  0.023053541  0.022798631           69 
 1210000   0.77078966   -6.6992916    333.79722  0.022988789  0.022782272           41 
 1211000   0.75881599    -6.724009    334.58368  0.023023925   0.02276605           83 
 1212000   0.77576423   -6.6955358    334.66776  0.023010709  0.022749873           46 
 1213000   0.76723926   -6.7131675    333.78638  0.022931188  0.022733678           46 
 1214000   0.77202348   -6.7108809    335.10418  0.023002758  0.022717426           36 
 1215000    0.7641114   -6.7346505    334.77664  0.022961361  0.022701166           21 
 1216000   0.76790539   -6.7100243    334.69898  0.022937156  0.022685139           28 
 1217000   0.77742537   -6.7048159    335.26884   0.02295733  0.022669153           17 
 1218000   0.76686615   -6.6844458    335.49462  0.022953928  0.022653144            9 
 1219000   0.74912569   -6.7070194    335.41767  0.022929838  0.022637155           21 
 1220000   0.76340379   -6.7091347    336.09531   0.02295733  0.022621174           44 
 1221000    0.7555929   -6.7032486     335.4262  0.022892861  0.022605115           36 
 1222000   0.76647137   -6.7212545    335.54688  0.022882357  0.022589062           22 
 1223000   0.75822635   -6.7091641    335.98869  0.022893751  0.022572997           22 
 1224000   0.77115571   -6.7345672    335.98083  0.022874512  0.022557034           27 
 1225000   0.76670672   -6.7184119    335.21283  0.022803594  0.022540973           28 
 1226000   0.76236218   -6.6993373    335.98185  0.022837266  0.022524992           41 
 1227000    0.7593028   -6.7204658    335.92452   0.02281476  0.022508973           46 
 1228000   0.75807508   -6.7114032    336.15419  0.022811766  0.022493038           36 
 1229000   0.74854904   -6.7096145    335.83974  0.022771884  0.022477139           21 
 1230000   0.77581004   -6.6976151    337.01856  0.022833236  0.022461268           35 
 1231000   0.75201663   -6.7197564    335.75087   0.02272887   0.02244543           22 
 1232000    0.7642355   -6.7201537    336.37233  0.022752457  0.022429541           28 
 1233000   0.77240513   -6.7171749    336.02592  0.022710592  0.022413714           20 
 1234000   0.75694294   -6.7337743    336.09056  0.022696553  0.022397849           49 
 1235000   0.75754926   -6.7306323    337.23041  0.022755088  0.022382049           19 
 1236000    0.7632247   -6.7277582    336.60561  0.022694553  0.022366223           28 
 1237000   0.74976275   -6.7209164    336.77971  0.022687936  0.022350398           19 
 1238000   0.77197776   -6.7414113    336.13698  0.022626345  0.022334624           35 
 1239000   0.75603921   -6.7118583    336.85402   0.02265631   0.02231888           18 
 1240000   0.76758953   -6.7065822    337.39933  0.022674686  0.022303205           24 
 1241000   0.76907109   -6.7544425    337.22141  0.022644468  0.022287512           20 
 1242000   0.75591857   -6.7154474    337.19429  0.022624416  0.022271826           16 
 1243000   0.76279297   -6.7332856     337.4072  0.022620488   0.02225618           14 
 1244000   0.74745759   -6.7360284    337.42811  0.022603705  0.022240548           24 
 1245000   0.75939035   -6.7605533    336.89693  0.022549995  0.022224848           28 
 1246000   0.75328481   -6.7303466    337.53631   0.02257466  0.022209118           23 
 1247000    0.7578354   -6.7093503    337.05032  0.022524079  0.022193507           49 
 1248000   0.75210984   -6.7315206    337.55104  0.022539466   0.02217784           44 
 1249000   0.75511884   -6.7582007    338.37671  0.022576509   0.02216229           60 
 1250000   0.74082429   -6.7827966    337.28064  0.022485376  0.022146609           35 
 1251000   0.75021439   -6.7771072    338.21098  0.022529375  0.022130943           34 
 1252000   0.75226156   -6.7186813    337.62816  0.022472588  0.022115364           31 
 1253000   0.75893331   -6.7408728    338.45475  0.022509627    0.0220999           53 
 1254000   0.75800086   -6.7377485    338.18561  0.022473791  0.022084417           14 
 1255000   0.75527631   -6.7335509    339.15258  0.022520092  0.022068921           17 
 1256000   0.75399773   -6.7471671    337.78027  0.022411111  0.022053421           20 
 1257000   0.74298915   -6.7355352    338.44998  0.022437681  0.022037954           13 
 1258000   0.74775747   -6.7652432     338.3132  0.022410784  0.022022412           23 
 1259000   0.76241563   -6.7519108    338.51333   0.02240623  0.022006897           28 
 1260000   0.75348052   -6.7299038    339.01174  0.022421411  0.021991442           46 
 1261000   0.75440817   -6.7471933    339.22985  0.022418045  0.021976052           31 
 1262000    0.7306038   -6.7360916    339.61552  0.022425747  0.021960724           23 
 1263000   0.74447111   -6.7785671    338.90649  0.022361209  0.021945238           70 
 1264000   0.75106078   -6.7516238    338.66166  0.022327378  0.021929731           20 
 1265000   0.75369244   -6.7632751    337.76197  0.022250459   0.02191421           40 
 1266000   0.74873977   -6.7719698    339.12151  0.022322374  0.021898762           27 
 1267000   0.75600597   -6.7413766     338.9584  0.022294028  0.021883215           32 
 1268000   0.75447585   -6.7731885    338.32778  0.022235001   0.02186769           29 
 1269000   0.75849408   -6.7583227    338.63876  0.022237901   0.02185219           15 
 1270000   0.75469066   -6.7448327     339.2542  0.022260774   0.02183671           15 
 1271000   0.75161542   -6.7592757    339.32493  0.022247897   0.02182127           29 
 1272000   0.74051943   -6.7593239    339.29649  0.022228543  0.021805786           32 
 1273000   0.75067953   -6.7310228     338.6575  0.022169253  0.021790328           31 
 1274000   0.72741162     -6.74569    339.30547  0.022194236  0.021774843           70 
 1275000   0.75252363   -6.7666976    338.56031  0.022128125  0.021759363           83 
 1276000   0.74998377   -6.7894774    339.34738  0.022162185   0.02174391           95 
 1277000   0.74921744    -6.750166    339.87089  0.022178993   0.02172854           52 
 1278000   0.74334446   -6.7835968    338.97951  0.022103515  0.021713118           64 
 1279000   0.75093307   -6.7418966      339.947   0.02214927  0.021697761           71 
 1280000   0.74020295   -6.7629175     338.6693  0.022048783  0.021682314           52 
 1281000   0.74523677   -6.7935499    339.07674  0.022058076  0.021666806          107 
 1282000   0.73035203   -6.7619349    338.90429   0.02202966  0.021651355          100 
 1283000   0.72675289    -6.763512    339.88318   0.02207607  0.021635858           79 
 1284000   0.75421509   -6.7586132    339.57167  0.022038659  0.021620425           32 
 1285000    0.7449836    -6.766467    339.46603  0.022014658  0.021605053           26 
 1286000    0.7386076   -6.7785325    340.11566  0.022039636  0.021589683           52 
 1287000   0.73312547   -6.7644177    339.26542  0.021967458  0.021574246           33 
 1288000   0.73374538   -6.7793923    339.51211  0.021966363  0.021558752           38 
 1289000   0.71893709   -6.7785971    338.88215  0.021908595  0.021543324           37 
 1290000    0.7320801   -6.7749997    338.98604  0.021898323  0.021527829           75 
 1291000    0.7505408   -6.7738287    339.59191  0.021920469  0.021512372           29 
 1292000   0.72883432   -6.7736173    339.71514  0.021911451  0.021496882           40 
 1293000   0.73589422   -6.7710641    340.09738   0.02191914  0.021481489           29 
 1294000   0.75007873   -6.7818051     339.6993  0.021876565  0.021466098           93 
 1295000   0.74496436   -6.7786587    340.23842  0.021894364  0.021450679           28 
 1296000   0.73106931   -6.7973496    339.99261  0.021861665  0.021435259           33 
 1297000   0.75085473   -6.7960426    339.87433   0.02183721  0.021419917           25 
 1298000   0.74624358   -6.7896878     340.8042  0.021880084  0.021404566           26 
 1299000    0.7518395   -6.7965642     339.2839  0.021765711  0.021389199           36 
 1300000   0.71822861   -6.7917805    340.92612  0.021854239  0.021373831           40 
 1301000   0.73042003   -6.7794908    340.64687  0.021819554  0.021358459           67 
 1302000   0.73584227   -6.7906305     340.8126  0.021813402  0.021343147           42 
 1303000   0.74291799   -6.7887848    340.44632  0.021773236  0.021327853           58 
 1304000   0.72470064   -6.7890366     339.3024  0.021683435  0.021312522           58 
 1305000   0.73903495   -6.7888583    339.43467  0.021675266  0.021297194           42 
 1306000   0.72964594   -6.7744538    340.59929  0.021732982  0.021281829           42 
 1307000   0.74209628   -6.7800009    339.94767  0.021674807  0.021266479           30 
 1308000   0.74966014   -6.8058918    340.21848  0.021675489  0.021251155           50 
 1309000   0.71804229   -6.8074777    340.46541   0.02167465  0.021235871          164 
 1310000   0.72697109   -6.7728883    340.05227  0.021631824  0.021220611          129 
 1311000   0.72635888   -6.8082422    340.59672  0.021649931  0.021205338          217 
 1312000   0.72999797   -6.8076782    340.75157  0.021643265  0.021190091          180 
 1313000   0.73651392   -6.8052011    340.57972  0.021615875  0.021174834          244 
 1314000   0.71958047   -6.7975114    339.93311  0.021558416  0.021159593          178 
 1315000   0.72293495   -6.8193185    339.85492  0.021537067  0.021144326          243 
 1316000   0.75227196   -6.8101915    340.04661   0.02153284  0.021128983          194 
 1317000   0.73612228   -6.8146353    340.36406  0.021536577  0.021113638          220 
 1318000   0.73864648   -6.7999007    339.99487  0.021496894  0.021098311          233 
 1319000   0.72809159   -6.7827276       340.42  0.021507455  0.021083029          171 
 1320000   0.73416089   -6.8271101    340.75258  0.021512158  0.021067762          189 
 1321000   0.72065198   -6.8144068    339.84221  0.021438444  0.021052468          179 
 1322000   0.71677381    -6.835917    340.11095  0.021439168  0.021037194          255 
 1323000   0.72154773   -6.8353373    340.64772  0.021456773  0.021021925          362 
 1324000   0.74090193   -6.8412469    339.80373  0.021387446  0.021006638          408 
 1325000   0.72146373   -6.8422265    340.47867  0.021413753   0.02099137          563 
 1326000   0.72252878   -6.8309816    340.46213  0.021396564  0.020976086          619 
 1327000   0.72920013   -6.8308862    341.20401  0.021427029  0.020960817          624 
 1328000   0.73407753   -6.8300623    339.89984  0.021329056  0.020945562          729 
 1329000   0.72657397   -6.8473892    340.80277  0.021369625  0.020930235          809 
 1330000   0.72476733   -6.8207261    339.64108   0.02128077   0.02091486          917 
 1331000   0.72262539   -6.8689988    340.08743  0.021292727  0.020899466          977 
 1332000   0.72613743   -6.8747642    339.75448  0.021255911  0.020883937          956 
 1333000   0.71490503   -6.8979794    339.88478  0.021248111  0.020868421         1062 
 1334000   0.72024623   -6.8698971    339.93279  0.021235182  0.020852828         1074 
 1335000    0.7163178   -6.9183976    339.54486   0.02119506  0.020837224         1150 
 1336000    0.7151714   -6.8883904    339.28974  0.021163282  0.020821603         1215 
 1337000   0.71917971   -6.9040371    340.41099  0.021217339  0.020805964         1330 
 1338000   0.72222477   -6.8799353    339.10585  0.021120195  0.020790282         1481 
 1339000   0.72505824   -6.9404015    339.59092   0.02113461  0.020774528         1561 
 1340000   0.72308198   -6.9517313    338.55726  0.021054556  0.020758797         1727 
 1341000   0.70852003   -6.9613689    338.89929   0.02106011  0.020742931         1868 
 1342000   0.72778092   -6.9960712    338.03461  0.020990724  0.020726962         2061 
 1343000   0.71405874   -7.0061686    337.17178  0.020921555  0.020710921         2075 
 1344000   0.71765916   -7.0065331    338.26218  0.020973597  0.020694815         2144 
 1345000   0.70981848   -7.0235711    337.56637  0.020914893   0.02067865         2117 
 1346000   0.72525292   -7.0390812    337.34951  0.020885928  0.020662402         2177 
 1347000    0.7258566   -7.0326124    336.80653  0.020836831   0.02064613         2351 
 1348000   0.72445941   -7.0887291    336.60556  0.020808949  0.020629786         2527 
 1349000   0.72018581    -7.082613    337.74569  0.020863954  0.020613335         2641 
 1350000   0.71373906   -7.1207409    336.34941  0.020762309  0.020596817         2755 
 1351000   0.71650167   -7.0994696     335.6909  0.020706323   0.02058026         2780 
 1352000   0.70877378   -7.1379146    335.62668  0.020687049  0.020563636         2881 
 1353000   0.73294183   -7.1504134    335.39384  0.020657418  0.020546982         3015 
 1354000   0.71203739   -7.1723398    334.66175  0.020597105   0.02053021         3126 
 1355000   0.70289796   -7.2038989    334.59772  0.020577966  0.020513391         3196 
 1356000   0.69629067   -7.1909096    334.66224  0.020566755  0.020496536         3256 
 1357000   0.71097661     -7.17307    334.66288  0.020551638  0.020479611         3261 
 1358000   0.69918052   -7.2205539    334.28955  0.020513595  0.020462677         3281 
 1359000    0.7251975   -7.2651704    334.24346  0.020495675  0.020445689         3373 
 1360000   0.71856274   -7.2687946    334.06748  0.020469821  0.020428603         3433 
 1361000   0.69986482   -7.3280668    332.85843  0.020380751  0.020411412         3502 
 1362000    0.7199368   -7.3782695    333.15397   0.02038387  0.020394067         3712 
 1363000   0.72395358   -7.4164267    331.62065  0.020275168  0.020376499         3792 
 1364000   0.71570617   -7.4077571    330.91608  0.020217258  0.020358804         3788 
 1365000   0.70602411   -7.4199305    332.40257  0.020293197  0.020341087         3825 
 1366000   0.71972456   -7.4405349    330.48497  0.020161357  0.020323347         3884 
 1367000   0.69789674   -7.4165284    331.53807  0.020210806  0.020305553         3862 
 1368000   0.69998857   -7.4410016    331.48094  0.020192553   0.02028776         3892 
 1369000   0.72454105   -7.4711881    330.71967  0.020131463  0.020269956         3911 
 1370000   0.71060882   -7.4642654     331.0553  0.020137184  0.020252148         3885 
 1371000    0.7018685   -7.4312226    331.36353  0.020141231  0.020234355         3906 
 1372000   0.70760671    -7.479825    330.48769  0.020073353  0.020216563         3917 
 1373000    0.7104435   -7.4478528    331.03009  0.020091654  0.020198739         3918 
 1374000   0.70386443   -7.4595293    330.58707  0.020050162  0.020180919         3936 
 1375000   0.70511223   -7.4913315    330.54816  0.020033222  0.020163122         3947 
 1376000   0.69783184   -7.4510696    330.14034  0.019993964  0.020145329         3943 
 1377000   0.70518878   -7.4652065    330.90662  0.020025818  0.020127562         3955 
 1378000   0.70452737   -7.4523555    330.41651  0.019981647  0.020109791         3956 
 1379000    0.7162032   -7.4722045    330.35233  0.019963278  0.020092025         3961 
 1380000   0.70171989   -7.4787433    330.74983  0.019972816  0.020074241         3941 
 1381000   0.69149745   -7.4571775    330.23085  0.019927036   0.02005651         3941 
 1382000   0.68098122   -7.4748533    331.13157   0.01996693  0.020038804         3953 
 1383000   0.68912375   -7.4769609    330.45671  0.019911829  0.020021096         3955 
 1384000   0.69551995   -7.4802279    330.42818  0.019895724  0.020003402         3959 
 1385000   0.68913014   -7.4921537    329.92304  0.019850965  0.019985689         3943 
 1386000   0.69594447    -7.476686    330.19305  0.019852877  0.019968011         3949 
 1387000   0.71213349   -7.4693922    330.56239  0.019860754  0.019950318         3946 
 1388000    0.6847931   -7.4886929    330.24037  0.019827112  0.019932655         3954 
 1389000   0.71769351    -7.481638    330.10731  0.019804854  0.019915003         3941 
 1390000   0.70738471   -7.4807911    330.58035  0.019818966  0.019897369         3947 
 1391000   0.69817908   -7.4822409    330.68753  0.019811139  0.019879722         3966 
 1392000   0.70915059   -7.4898702     329.7727   0.01974214  0.019862123         3953 
 1393000   0.69451518   -7.4783232    330.22724  0.019755159  0.019844531         3949 
 1394000   0.69595153   -7.4984468    330.28975  0.019744725  0.019826942         3950 
 1395000   0.69267314   -7.4729741     330.1153   0.01972015  0.019809355         3928 
 1396000    0.7041404    -7.499628    330.04405   0.01970177   0.01979178         3955 
 1397000   0.69054615   -7.4853645    329.61953  0.019662344  0.019774225         3954 
 1398000    0.7054622   -7.4711359    330.98695  0.019729789  0.019756688         3933 
 1399000   0.67905479   -7.4901177    330.85296  0.019707705  0.019739176         3946 
 1400000   0.70334715   -7.4891251    330.80456  0.019690747  0.019721646         3952 
 1401000   0.70401451   -7.4920579    330.60244   0.01966467  0.019704134         3945 
 1402000   0.70597211   -7.4781279    330.03737  0.019617057  0.019686639         3943 
 1403000   0.68962839   -7.4582561    330.22445  0.019614187  0.019669132         3941 
 1404000   0.68652443   -7.4814899    329.78319  0.019574026  0.019651659         3931 
 1405000   0.67972658   -7.4825725    330.14638  0.019581636  0.019634179         3944 
 1406000   0.68006847   -7.4938338    329.94104  0.019555538  0.019616695         3949 
 1407000   0.70659838   -7.5045591    330.55142  0.019577791  0.019599232         3949 
 1408000   0.69033849   -7.5101666    329.97953  0.019530038  0.019581743         3955 
 1409000   0.69193288   -7.5189549    329.41159  0.019482588  0.019564246         3963 
 1410000   0.68041238    -7.522811    330.18517   0.01951449  0.019546724         3975 
 1411000   0.69133718   -7.5160604    329.72982  0.019473767  0.019529215         3976 
 1412000   0.69091478   -7.5188026    329.42227  0.019441824  0.019511712         3972 
 1413000   0.67998065   -7.5149935    329.69195   0.01944397  0.019494233         3984 
 1414000   0.68480007   -7.5189836    330.08681   0.01945349  0.019476753         3986 
 1415000   0.67469077   -7.5118276    329.90403  0.019428977  0.019459301         3971 
 1416000   0.69005549   -7.5118014    329.26486   0.01937764  0.019441853         3985 
 1417000   0.69680008   -7.5117179    329.63642  0.019385816  0.019424402         3975 
 1418000   0.68980033   -7.5231907    329.48511  0.019363253  0.019406984         3982 
 1419000     0.682722   -7.4981925     329.1977  0.019332729  0.019389585         3986 
 1420000    0.6985256   -7.5246277    330.11864   0.01937316   0.01937216         3983 
 1421000   0.67933149   -7.5195519    329.27186  0.019309868  0.019354777         3985 
 1422000   0.68948138   -7.5307091    329.89227  0.019332646  0.019337422         3978 
 1423000   0.68523055   -7.5135916    330.08976  0.019330625  0.019320062         3973 
 1424000   0.66023478   -7.5344734    329.89118   0.01930543  0.019302709         3981 
 1425000   0.70595307    -7.526347    329.89847  0.019292308  0.019285374         3978 
 1426000   0.68376494   -7.4933788    330.20486  0.019296684  0.019268054         3986 
 1427000   0.67280821   -7.5133971    329.35694  0.019233645  0.019250753         3983 
 1428000   0.66314123   -7.5284583    329.91939  0.019252999  0.019233443         3985 
 1429000   0.68360986   -7.5185373    329.91401  0.019239212  0.019216165         3984 
 1430000   0.67671137   -7.5249341    329.42993  0.019197549  0.019198895         3975 
 1431000   0.68905794   -7.5231906    329.69008  0.019199283   0.01918164         3988 
 1432000   0.67640731   -7.5040115    329.64723  0.019183382   0.01916442         3970 
 1433000   0.68239596   -7.5211789    329.36668   0.01915368  0.019147186         3984 
 1434000   0.68515634   -7.5497177    329.78429  0.019164591  0.019129973         3980 
 1435000   0.67084045   -7.5247637    329.72566  0.019147832  0.019112759         3980 
 1436000    0.6753096   -7.5376614    330.32162  0.019169082  0.019095565         3985 
 1437000   0.68043647   -7.5419005    329.55232   0.01911113    0.0190784         3987 
 1438000   0.68116873   -7.5320966     329.0647  0.019069582  0.019061252         3982 
 1439000   0.68665272   -7.5281339      329.422  0.019077021    0.0190441         3987 
 1440000    0.6956682    -7.532021    329.51693  0.019069267   0.01902697         3981 
 1441000   0.68870918   -7.5341674    329.53169  0.019056887  0.019009869         3987 
 1442000   0.68337492   -7.5250015    329.61472   0.01904847  0.018992769         3972 
 1443000   0.66096159   -7.5409297    329.25029  0.019014223  0.018975671         3982 
 1444000   0.67027591   -7.5347646    329.98475  0.019043441  0.018958587         3982 
 1445000   0.67452405   -7.5491913    329.69561  0.019013588  0.018941501         3989 
 1446000    0.6482214   -7.5282973    328.64118  0.018939672  0.018924437         3986 
 1447000   0.66952592   -7.5145268    330.03802  0.019007027  0.018907406         3981 
 1448000   0.65931186   -7.5456246    328.98747  0.018933441  0.018890395         3977 
 1449000   0.66052799   -7.5248081     329.3694  0.018942339  0.018873376         3984 
 1450000   0.66363698   -7.5157357    329.85925  0.018957428  0.018856372         3982 
 1451000   0.67074435   -7.5400806    329.37273  0.018916421  0.018839408         3976 
 1452000   0.68118213   -7.5503601    329.11419  0.018888555  0.018822412         3990 
 1453000   0.68899873   -7.5122766    329.23322  0.018882383  0.018805463         3989 
 1454000   0.67240995   -7.5335543    329.23492  0.018869493  0.018788505         3980 
 1455000   0.67242836   -7.5088517    329.39621  0.018865762  0.018771562         3980 
 1456000   0.65329023    -7.539646    329.53914  0.018860985  0.018754638         3973 
 1457000   0.64483225   -7.5294827    329.09547  0.018822665  0.018737733         3979 
 1458000   0.66524399   -7.5313118    329.53796  0.018835046   0.01872085         3987 
 1459000   0.67918738    -7.529293    329.77355  0.018835592  0.018703968         3980 
 1460000   0.68122973   -7.5795504     329.5523  0.018810063    0.0186871         3986 
 1461000   0.66284663   -7.5503494    329.65209   0.01880288  0.018670231         3979 
 1462000   0.66722126   -7.5308407     329.1576  0.018761833  0.018653401         3981 
 1463000   0.66789569   -7.5506317    328.95785  0.018737631  0.018636574         3989 
 1464000   0.66833975   -7.5476243     329.1642  0.018736578  0.018619777         3983 
 1465000    0.6717784   -7.5520731    330.04753  0.018774035  0.018602984         3968 
 1466000   0.65567913   -7.5278295    329.09796  0.018707251  0.018586209         3978 
 1467000   0.67800088   -7.5556263    329.42126  0.018712864  0.018569442         3974 
 1468000   0.65628032   -7.5406457    329.40106   0.01869897  0.018552678         3981 
 1469000   0.64507157   -7.5650508    329.13916  0.018671384  0.018535934         3969 
 1470000     0.667865   -7.5506204     329.1912  0.018661632  0.018519206         3981 
 1471000   0.66735734    -7.546234    328.88407  0.018631547   0.01850251         3991 
 1472000   0.67047788   -7.5562776    328.67692  0.018607163  0.018485824         3984 
 1473000   0.66770161   -7.5412555    329.12834  0.018620069  0.018469154         3982 
 1474000   0.66238432   -7.5506344    329.53612   0.01863049   0.01845248         3983 
 1475000   0.66958177   -7.5645172    329.20514  0.018599161   0.01843585         3987 
 1476000   0.67527966   -7.5568908    328.31296  0.018536188  0.018419222         3983 
 1477000   0.65677009   -7.5460447     329.2343  0.018575621  0.018402622         3979 
 1478000   0.64812661   -7.5476851    329.02178   0.01855107  0.018386012         3981 
 1479000   0.66649953   -7.5661022     329.8039  0.018582595  0.018369427         3984 
 1480000   0.67314775   -7.5464904    329.06967  0.018528698  0.018352849         3981 
 1481000   0.66172488   -7.5629096    329.32598  0.018530609  0.018336293         3975 
 1482000   0.67160436   -7.5627199    329.12517  0.018506814  0.018319745         3987 
 1483000   0.65454642   -7.5554244    329.92309  0.018539171  0.018303214         3986 
 1484000   0.65687478   -7.5517423    328.69785  0.018457876  0.018286692         3986 
 1485000   0.65689675   -7.5358613    328.74293  0.018447976  0.018270192         3981 
 1486000   0.66640104   -7.5406898    329.04343  0.018452413   0.01825372         3979 
 1487000   0.66895477   -7.5737467    328.36473  0.018401969  0.018237239         3981 
 1488000   0.66099428   -7.5397725    328.99224  0.018424745  0.018220791         3982 
 1489000   0.63962933   -7.5393473    328.91861   0.01840825  0.018204341         3982 
 1490000   0.66604917   -7.5633734    328.85656  0.018392425  0.018187914         3981 
 1491000    0.6557751    -7.539105    329.47654  0.018414741  0.018171508         3981 
 1492000   0.65475042   -7.5765007    329.07591  0.018380022  0.018155112         3980 
 1493000   0.65251122   -7.5637583    328.79569   0.01835207  0.018138733         3982 
 1494000   0.65893851   -7.5659966    329.26103  0.018365742  0.018122362         3978 
 1495000   0.66039226   -7.5502545    329.33225  0.018357427  0.018106016         3976 
 1496000    0.6605131   -7.5805095    328.89079  0.018320565  0.018089676         3987 
 1497000   0.66493701   -7.5129227    328.71614  0.018298605  0.018073338         3973 
 1498000   0.65245506   -7.5539228    328.86748  0.018294809  0.018057025         3981 
 1499000   0.67019803   -7.5608001    329.02672  0.018291457  0.018040706         3986 
 1500000   0.64985847    -7.578904    329.04347  0.018280193  0.018024413         3988 
 1501000   0.64760647   -7.5511698    328.88151  0.018259022  0.018008152         3986 
 1502000   0.65595147   -7.5656324    328.69847   0.01823671  0.017991887         3977 
 1503000   0.66410144   -7.5612567    328.74863  0.018227358  0.017975649         3977 
 1504000   0.64754737   -7.5630287    328.65606   0.01821011  0.017959423         3982 
 1505000   0.64983719   -7.5730578    328.86363  0.018209503  0.017943211         3983 
 1506000   0.63126451   -7.5785266    328.50752  0.018177707  0.017927022         3979 
 1507000   0.65768525   -7.5859697    328.86923  0.018185646  0.017910827         3983 
 1508000   0.64985268   -7.5743058    328.95929  0.018178564  0.017894647         3986 
 1509000   0.65251895   -7.5681995    328.37401  0.018134196  0.017878497         3989 
 1510000   0.63950087   -7.5760585    328.79549  0.018145447  0.017862351         3987 
 1511000   0.65597402   -7.5592924    328.73782  0.018130257  0.017846216         3978 
 1512000   0.64882828   -7.5729247    328.52073  0.018106301  0.017830095         3988 
 1513000    0.6588622    -7.592092    328.98466  0.018119887  0.017814018         3986 
 1514000   0.65306915   -7.5629411    328.69067  0.018091737  0.017797939         3986 
 1515000   0.65015481   -7.5719965    328.53431  0.018071194   0.01778186         3984 
 1516000    0.6414438   -7.5752676    328.88332  0.018078459  0.017765801         3981 
 1517000   0.65792244   -7.5522522    328.89208  0.018067022   0.01774977         3983 
 1518000   0.65325792   -7.5680578       329.67  0.018097826  0.017733751         3971 
 1519000   0.66025309   -7.5662962    328.60587  0.018027533  0.017717736         3978 
 1520000   0.64509729   -7.5719533    328.48313  0.018008943  0.017701748         3981 
 1521000   0.63914756   -7.5775091    329.12466  0.018032252  0.017685777         3981 
 1522000   0.63346978   -7.5899902    328.29014  0.017974712  0.017669806         3982 
 1523000      0.65969   -7.5733554    328.83202   0.01799256  0.017653848         3986 
 1524000   0.65385924    -7.561487    328.76111  0.017976876  0.017637923         3976 
 1525000    0.6328606   -7.5721972       328.73  0.017963388  0.017621997         3982 
 1526000   0.64269557   -7.5965161    328.75798  0.017953145  0.017606084         3981 
 1527000   0.63081436   -7.5599932    328.97343  0.017953145  0.017590197         3976 
 1528000   0.62757946    -7.563588    328.64666  0.017923575   0.01757432         3989 
 1529000   0.62355722   -7.5950765    329.28276   0.01794652  0.017558453         3990 
 1530000   0.64186722   -7.5618633    328.54268  0.017894482  0.017542611         3984 
 1531000   0.64353527   -7.5849028    328.46411  0.017878517  0.017526767         3982 
 1532000   0.63273285   -7.5745187    328.34325  0.017860273  0.017510941         3991 
 1533000   0.64034313   -7.5858825    328.51394  0.017857901  0.017495153         3985 
 1534000   0.64205504   -7.6155539       328.46  0.017843329   0.01747936         3981 
 1535000   0.65245671   -7.5703067    328.63639  0.017841281  0.017463582         3982 
 1536000   0.64537809   -7.5884033    328.17461  0.017804612  0.017447833         3982 
 1537000   0.64521128   -7.5712125    329.12659  0.017844643  0.017432092         3975 
 1538000   0.65738726   -7.5884779    328.13616  0.017779376  0.017416362         3992 
 1539000   0.62959187   -7.5844329    328.68775  0.017797691  0.017400646         3987 
 1540000   0.63097116   -7.5966052    329.32181  0.017820444  0.017384946         3984 
 1541000   0.63647187   -7.5916335    328.72722  0.017776726   0.01736927         3983 
 1542000   0.64262172   -7.5803533    328.33983  0.017744263  0.017353594         3982 
 1543000   0.63924363   -7.5660589    328.09676  0.017719635  0.017337942         3985 
 1544000   0.63286727   -7.5641879    328.88536  0.017750721  0.017322298         3981 
 1545000   0.63426594   -7.5898645    328.62558   0.01772522  0.017306675         3979 
 1546000   0.63673274   -7.5964179    328.34772  0.017698778  0.017291069         3984 
 1547000   0.62866216   -7.5767609    327.80429  0.017658064  0.017275482         3985 
 1548000     0.621155   -7.5762966    328.77089  0.017698691   0.01725992         3985 
 1549000   0.63615248   -7.5969135    327.62183  0.017625448  0.017244362         3993 
 1550000   0.64439666   -7.5731603    327.91241  0.017629699  0.017228816         3988 
 1551000   0.63404808    -7.596592    328.17117  0.017632235  0.017213291         3987 
 1552000   0.63262661   -7.6046258    328.01923  0.017612717  0.017197783         3981 
 1553000   0.63032603   -7.5778064    328.39838   0.01762172  0.017182282         3983 
 1554000   0.63696228   -7.5868737    328.28184  0.017604131  0.017166787         3980 
 1555000    0.6272685    -7.587767    328.47891  0.017603371  0.017151326         3980 
 1556000   0.63345509   -7.6067035    328.75543  0.017606867  0.017135862         3983 
 1557000   0.63283801   -7.5944833    327.91427  0.017550539  0.017120418         3980 
 1558000   0.61716996   -7.5970919    328.15058  0.017551914  0.017104989         3986 
 1559000    0.6262334   -7.5868583     328.2219  0.017544468  0.017089566         3987 
 1560000   0.63582407   -7.5942276    327.82055  0.017511782  0.017074164         3978 
 1561000   0.63080723   -7.6146683    328.32723  0.017527612  0.017058792         3987 
 1562000   0.63526494   -7.6054515     328.7265  0.017537692   0.01704342         3981 
 1563000   0.61530996   -7.5706696    328.02873  0.017489269  0.017028064         3983 
 1564000   0.62675766   -7.5858385    328.01249  0.017477222  0.017012723         3984 
 1565000   0.61336181   -7.6060971    328.74718  0.017505174  0.016997406         3975 
 1566000   0.62529253   -7.5987018    327.81872  0.017444589  0.016982088         3985 
 1567000    0.6287825   -7.6220969    328.91602  0.017491812  0.016966793         3984 
 1568000   0.62430108   -7.5868781    328.14202   0.01743952  0.016951508         3979 
 1569000   0.62842049   -7.5985203    328.46542  0.017445582  0.016936237         3977 
 1570000   0.62564977    -7.602743    328.60776  0.017442025  0.016920976         3991 
 1571000   0.63086785   -7.6025294    328.11381  0.017404721  0.016905745         3982 
 1572000   0.62949289    -7.609007    328.17563  0.017396927  0.016890528         3987 
 1573000   0.62007067    -7.601951    327.65544  0.017358309  0.016875324         3991 
 1574000   0.62068369   -7.6161992    328.46559  0.017390173   0.01686013         3982 
 1575000   0.62501263   -7.5944285    328.23961  0.017367175  0.016844953         3987 
 1576000   0.63024027   -7.6196676    328.47246  0.017368468  0.016829799         3986 
 1577000   0.61537007   -7.6065626    328.58487  0.017363394  0.016814664         3981 
 1578000   0.62687969   -7.6128785    328.33304  0.017339092  0.016799522         3985 
 1579000   0.61932306   -7.5952261    327.99135  0.017310078  0.016784403         3986 
 1580000   0.60491104   -7.6180301    327.98897  0.017298996  0.016769309         3987 
 1581000   0.64400113   -7.6168109    328.31511  0.017305245  0.016754224         3983 
 1582000   0.61431675    -7.636089    327.99312  0.017277345  0.016739151         3985 
 1583000   0.62310532   -7.6117686     327.9821  0.017265851  0.016724104         3986 
 1584000   0.62100696   -7.6107819    328.45673  0.017279921   0.01670906         3983 
 1585000   0.62139482   -7.6052793    328.47366  0.017269909  0.016694039         3985 
 1586000   0.62864675   -7.6333084    327.81398  0.017224358  0.016679022         3982 
 1587000   0.61402552   -7.6130695    327.73994  0.017209616  0.016664014         3988 
 1588000   0.62628036   -7.6140825    328.34683  0.017230627  0.016649034         3985 
 1589000    0.6304302   -7.6087442    327.52858  0.017176871   0.01663407         3978 
 1590000   0.60904543   -7.6092557    328.11726  0.017196921   0.01661912         3984 
 1591000   0.61366883    -7.617579    328.38516  0.017200144  0.016604194         3992 
 1592000   0.61722955    -7.642653    327.22494  0.017128609  0.016589256         3986 
 1593000   0.62117669   -7.6184253    327.78679  0.017147248  0.016574363         3978 
 1594000    0.6242117   -7.6124416     328.1724   0.01715665  0.016559475         3985 
 1595000    0.6190569   -7.6261025    328.37951  0.017156714   0.01654461         3988 
 1596000   0.62162835   -7.6210764    328.19931  0.017136556  0.016529735         3983 
 1597000   0.61627987   -7.6379616    327.33377   0.01708066  0.016514893         3984 
 1598000   0.60259048   -7.6218964     327.4169  0.017074307  0.016500048         3986 
 1599000   0.60795419   -7.5940119    328.10183  0.017099324   0.01648523         3988 
 1600000     0.622805   -7.6157802    327.92313   0.01707933  0.016470438         3987 
 1601000   0.60851244   -7.6273723    328.08602  0.017077141  0.016455648         3990 
 1602000   0.61070105   -7.5999882    327.84139  0.017053755  0.016440886         3988 
 1603000   0.61733752   -7.6198619    327.41824  0.017021119   0.01642611         3977 
 1604000   0.62079809   -7.5932702    327.76328  0.017028433  0.016411383         3977 
 1605000   0.62253506   -7.6227921     327.9975  0.017029984  0.016396658         3990 
 1606000   0.62080272   -7.6097156    328.09368  0.017024371   0.01638194         3988 
 1607000   0.59879237   -7.6177542    328.13833  0.017016093  0.016367252         3986 
 1608000   0.61669133   -7.5980802    327.99178  0.016997915  0.016352576         3977 
 1609000   0.61283577   -7.6415896    328.35579  0.017006204  0.016337916         3975 
 1610000   0.61170003   -7.5963379    327.36951  0.016944592  0.016323259         3983 
 1611000   0.60392559   -7.6062585    327.78574  0.016955604  0.016308607         3987 
 1612000   0.60289803   -7.6234506    327.62885  0.016936976   0.01629397         3976 
 1613000   0.59796423   -7.6256116    327.79523  0.016935071  0.016279364         3972 
 1614000   0.60969067   -7.6167352    327.46035  0.016907288  0.016264763         3984 
 1615000   0.61082704   -7.6292403    327.95207  0.016922191   0.01625019         3986 
 1616000   0.61783721   -7.6014197     326.7283  0.016848613  0.016235622         3977 
 1617000   0.60664844    -7.647786     328.2122  0.016914667   0.01622108         3985 
 1618000   0.61872665    -7.626726    327.72688  0.016879217  0.016206555         3989 
 1619000   0.61148246   -7.6203077    328.15097   0.01689062   0.01619203         3990 
 1620000     0.613503   -7.6234576    327.43652  0.016843442  0.016177543         3980 
 1621000    0.6167786    -7.621626    327.83885  0.016853735  0.016163044         3987 
 1622000   0.59745933   -7.6210355    327.84472  0.016843646  0.016148577         3986 
 1623000   0.59505527   -7.6394967    328.06983  0.016844826  0.016134121         3985 
 1624000   0.60709451   -7.6191975    327.80211  0.016820716   0.01611969         3986 
 1625000    0.6092756   -7.6215005    327.32808  0.016786055  0.016105257         3987 
 1626000   0.60706976   -7.6259652     328.0611  0.016813299  0.016090849         3978 
 1627000   0.60278703   -7.6150938    327.84697  0.016791998  0.016076455         3990 
 1628000   0.59258933   -7.6288902    327.61844  0.016769986  0.016062052         3972 
 1629000   0.59520523   -7.6457877    327.71833  0.016764801  0.016047685         3988 
 1630000   0.61579425   -7.6267514    327.84825  0.016761158  0.016033321         3987 
 1631000   0.61134463   -7.6318132     327.9457   0.01675586  0.016018972         3987 
 1632000   0.59984437   -7.6362323    327.82401   0.01673938  0.016004637         3985 
 1633000     0.605098   -7.6368193    327.65802  0.016720658    0.0159903         3984 
 1634000   0.61179557    -7.651747    327.12283  0.016683131  0.015975999         3980 
 1635000   0.61067788   -7.6397539    327.55981  0.016695199  0.015961709         3986 
 1636000   0.60550058   -7.6371467    327.67172  0.016690695  0.015947441         3989 
 1637000    0.6141853   -7.6324687    328.18278  0.016706515  0.015933181         3984 
 1638000   0.61733736   -7.6312493    327.45578  0.016659329   0.01591893         3985 
 1639000   0.60706927   -7.6435883    327.98659  0.016676154  0.015904708         3991 
 1640000   0.59415023   -7.6417916    327.73269  0.016653084  0.015890484         3983 
 1641000   0.58835511   -7.6584822    327.95932  0.016654444  0.015876282         3987 
 1642000    0.5878726   -7.6448387    327.39328  0.016615575   0.01586209         3994 
 1643000   0.60301081   -7.6374557    327.30371  0.016600919   0.01584791         3981 
 1644000   0.59933611   -7.6376939    327.85726   0.01661888  0.015833745         3985 
 1645000   0.58582232   -7.6379406    327.49177  0.016590262  0.015819603         3987 
 1646000   0.59946502   -7.6411418    327.79559  0.016595565  0.015805482         3984 
 1647000     0.602714   -7.6379733    327.50045  0.016570555  0.015791372         3985 
 1648000   0.59383613   -7.6339478     326.9128  0.016530785   0.01577728         3985 
 1649000   0.59179626   -7.6396515     327.2916  0.016539903  0.015763192         3990 
 1650000   0.59396149   -7.6315203    327.42634  0.016536684   0.01574912         3988 
 1651000   0.59525031   -7.6380415     327.2961  0.016520094  0.015735063         3986 
 1652000   0.60191332   -7.6354507    327.11645  0.016501032  0.015721012         3989 
 1653000    0.5946348   -7.6530432     327.0889   0.01648966  0.015706988         3989 
 1654000   0.58261217   -7.6516821    327.63699  0.016507305  0.015692979         3989 
 1655000   0.61447824   -7.6247476    327.22108  0.016476389  0.015678992         3985 
 1656000   0.60202627   -7.6618392    327.08293  0.016459487  0.015665004         3987 
 1657000   0.59356775   -7.6513951    327.27775  0.016459352  0.015651038         3985 
 1658000   0.59861492   -7.6525075    327.25144  0.016448102  0.015637083         3986 
 1659000   0.60094857   -7.6492615    327.50218  0.016450782  0.015623141         3988 
 1660000   0.59731556   -7.6495327      326.939    0.0164126  0.015609208         3983 
 1661000   0.58752035    -7.627943    327.50839  0.016431286  0.015595305         3983 
 1662000   0.58786469   -7.6532507    327.36289  0.016414104  0.015581414         3987 
 1663000   0.58467451   -7.6664812     327.8117  0.016426724  0.015567528         3982 
 1664000   0.59102594   -7.6418218     327.6876  0.016410637  0.015553655         3982 
 1665000   0.58452324   -7.6382195    327.53935  0.016393361  0.015539803         3983 
 1666000   0.58459324   -7.6670604    327.37255  0.016375178  0.015525962         3987 
 1667000   0.57914784   -7.6514631    327.63348  0.016378398  0.015512143         3985 
 1668000   0.58652336   -7.6546771    327.89318  0.016381554  0.015498319         3982 
 1669000   0.58815988   -7.6490211    327.23116  0.016338684  0.015484523         3983 
 1670000   0.58806254   -7.6684384    326.26997  0.016280937  0.015470736         3990 
 1671000    0.5886904   -7.6703781      327.437  0.016329394  0.015456974         3989 
 1672000   0.58760601   -7.6707635    327.31439  0.016313516  0.015443218         3988 
 1673000   0.58427043    -7.678546    326.83629  0.016279951  0.015429476         3989 
 1674000     0.591802   -7.6356353    327.41469  0.016299019  0.015415753         3986 
 1675000   0.57615176   -7.6655224    327.44301  0.016290697   0.01540205         3985 
 1676000   0.58343934   -7.6619282    327.23392  0.016270581  0.015388348         3985 
 1677000   0.57735771   -7.6475828    327.12508   0.01625547  0.015374663         3981 
 1678000   0.58837443   -7.6604578    326.70186  0.016224765  0.015361006         3991 
 1679000   0.58669873   -7.6592185    327.34308  0.016246927  0.015347357         3982 
 1680000   0.57914687   -7.6538261    327.37266  0.016238723  0.015333715         3983 
 1681000   0.58442871   -7.6721057    326.72095  0.016196756  0.015320088         3988 
 1682000   0.58560689   -7.6446882    327.05317  0.016203586  0.015306484         3991 
 1683000   0.58117407    -7.646268    326.85439  0.016184115  0.015292891         3991 
 1684000   0.57706302   -7.6583713    327.30488  0.016196797  0.015279304         3985 
 1685000   0.58564405   -7.6530498    327.31887  0.016187877  0.015265739         3982 
 1686000    0.5873369   -7.6583552    327.27643  0.016176178   0.01525219         3981 
 1687000   0.57517071   -7.6824997    327.47452  0.016176374  0.015238662         3984 
 1688000   0.58054675   -7.6735131    326.76147  0.016131589  0.015225134         3977 
 1689000   0.58465953   -7.6672336    326.91394  0.016129561   0.01521162         3977 
 1690000   0.58148516   -7.6602434    326.77397  0.016113115  0.015198118         3979 
 1691000   0.58520689   -7.6636473    326.36827  0.016083593  0.015184639         3982 
 1692000   0.58438363   -7.6528909     327.3322  0.016121562  0.015171181         3985 
 1693000   0.58703789   -7.6570864    327.07714  0.016099485  0.015157728         3986 
 1694000   0.56954288   -7.6619567    326.97018   0.01608472  0.015144286         3986 
 1695000   0.57406485   -7.6650735    327.09804  0.016081516  0.015130876         3992 
 1696000   0.58086663   -7.6646528     326.8835  0.016061493  0.015117473         3983 
 1697000   0.58416586   -7.6682506    326.65715  0.016040913   0.01510407         3991 
 1698000   0.58721939   -7.6672742    327.32254  0.016064122  0.015090694         3984 
 1699000   0.55577248    -7.648162    327.12694  0.016045073  0.015077351         3981 
 1700000   0.56350654    -7.680599    327.26312   0.01604231  0.015063998         3985 
 1701000   0.58009775   -7.6756093    327.34523  0.016036902  0.015050662         3987 
 1702000   0.59581265   -7.6868429    326.77634  0.015999625  0.015037338         3984 
 1703000   0.57024428   -7.6878827     327.6357  0.016032281  0.015024037         3987 
 1704000   0.56805395    -7.669878    327.15596  0.015999411  0.015010736         3982 
 1705000    0.5785621   -7.6697771    326.45096   0.01595557  0.014997453         3983 
 1706000   0.57503657   -7.6731943     326.9479  0.015970491  0.014984184         3984 
 1707000   0.56796434    -7.675184    327.15126  0.015971063   0.01497093         3986 
 1708000   0.57294566   -7.6882265    326.84296  0.015946671  0.014957702         3976 
 1709000   0.56892626   -7.6832244     326.4819  0.015919734  0.014944479         3991 
 1710000    0.5583316   -7.6922249    327.32208  0.015951368  0.014931266         3989 
 1711000   0.57475346   -7.6427194    326.40287  0.015897276  0.014918059         3981 
 1712000   0.57493353   -7.6788381    327.19786  0.015926687  0.014904871         3990 
 1713000   0.56568414   -7.6743358    327.29645  0.015922186  0.014891697         3987 
 1714000   0.57950749   -7.6797572    327.08538  0.015902634  0.014878542         3988 
 1715000   0.57237606   -7.6943217     327.1319  0.015895622  0.014865402         3981 
 1716000   0.57134254   -7.6678905    326.72526  0.015866611  0.014852273         3983 
 1717000   0.57206936   -7.6732614    326.34912  0.015839115  0.014839152         3985 
 1718000   0.57439299    -7.681317    326.91915  0.015857545  0.014826061         3986 
 1719000    0.5714771   -7.6798748    326.64567  0.015835062  0.014812964         3994 
 1720000   0.56502281   -7.6760097    327.18781  0.015852122  0.014799889         3985 
 1721000   0.55682213   -7.6819978    327.17329  0.015842209  0.014786822         3982 
 1722000   0.56920982   -7.6898766      326.838  0.015816783  0.014773789         3990 
 1723000   0.56870508   -7.6923165    326.64418  0.015798229   0.01476074         3991 
 1724000   0.55398384   -7.6957071    327.32655  0.015822049   0.01474773         3982 
 1725000   0.55937335   -7.6731799    326.67025  0.015781171  0.014734729         3968 
 1726000    0.5628723   -7.6788432    326.73673  0.015775238  0.014721747         3989 
 1727000   0.56330203   -7.6886949    327.25157  0.015790946  0.014708772         3986 
 1728000   0.56515837   -7.6956407    326.51066  0.015746077  0.014695808         3984 
 1729000   0.55950735   -7.6945952    326.20339  0.015722161  0.014682858         3989 
 1730000    0.5552397   -7.6946036    326.79957  0.015741791  0.014669921         3984 
 1731000   0.56488165   -7.7175226     326.7768    0.0157316  0.014656999         3978 
 1732000   0.55370515   -7.6946839    326.84915  0.015725998  0.014644086         3982 
 1733000    0.5555467   -7.7076078    326.32009  0.015691483  0.014631186         3984 
 1734000   0.56775085   -7.6839284    326.26502  0.015679787  0.014618297         3984 
 1735000   0.56755122   -7.6642209    326.28828  0.015671868  0.014605437         3983 
 1736000   0.55210676   -7.6944888    326.64881  0.015680146  0.014592588         3984 
 1737000   0.54647758   -7.6924751    326.83394  0.015680001  0.014579744         3990 
 1738000   0.55403633   -7.6891693    326.44272  0.015652221  0.014566916         3984 
 1739000   0.55286009   -7.6764906    326.73718  0.015657331  0.014554107         3990 
 1740000   0.56054064   -7.6988322    326.44607   0.01563439  0.014541314         3988 
 1741000   0.54392672   -7.6980281    326.75629  0.015640259  0.014528537         3989 
 1742000   0.55823954   -7.6939863     326.5074  0.015619374  0.014515765         3972 
 1743000   0.56175663    -7.695243    326.28865  0.015599955  0.014503018         3989 
 1744000   0.55362146    -7.704887    326.74285  0.015612713  0.014490279         3992 
 1745000   0.55035838    -7.703273    326.46464  0.015590479  0.014477542         3987 
 1746000   0.55082232   -7.6871336    325.64407  0.015542386  0.014464819         3984 
 1747000   0.55302072   -7.6795501    326.77257   0.01558732  0.014452115         3988 
 1748000   0.55418245   -7.7024579    326.07388  0.015545094  0.014439434         3985 
 1749000   0.55325713   -7.7082578    326.55192  0.015558982  0.014426753         3991 
 1750000   0.55289755   -7.6773486    326.21374  0.015533987  0.014414087         3988 
 1751000   0.56608314   -7.6983358    326.27011  0.015527799  0.014401438         3986 
 1752000   0.56028475   -7.7020368    326.76492  0.015542471  0.014388805         3991 
 1753000   0.55142675   -7.6977929    326.32745  0.015512809  0.014376196         3985 
 1754000   0.54574488   -7.6949918    326.72745  0.015522969  0.014363588         3976 
 1755000   0.55488701   -7.7100389     326.3434  0.015495888  0.014351001         3991 
 1756000   0.55391301   -7.6976791    326.69581  0.015503787  0.014338417         3991 
 1757000   0.54811904   -7.6931617    326.74632  0.015497359  0.014325854         3994 
 1758000   0.55367614   -7.7033044    325.87909  0.015447435  0.014313301         3989 
 1759000    0.5414276   -7.7000467    326.30872  0.015459007  0.014300759         3989 
 1760000   0.54675326   -7.7116511    326.22036   0.01544604   0.01428823         3988 
 1761000   0.55852311   -7.7088375    326.68889   0.01545944  0.014275716         3986 
 1762000   0.55950213   -7.7099877    325.75865  0.015406671  0.014263207         3988 
 1763000   0.54609645   -7.7204412    326.51755  0.015433804  0.014250717         3986 
 1764000    0.5460172   -7.7000366    326.14636  0.015407519  0.014238249         3992 
 1765000   0.55088962   -7.7109495    326.28145  0.015405168   0.01422579         3991 
 1766000    0.5599915   -7.7285654    326.48968   0.01540627  0.014213345         3983 
 1767000   0.54270086   -7.6972715    325.99354  0.015374153  0.014200919         3981 
 1768000   0.55242168   -7.6895239    326.25347  0.015377709  0.014188506         3988 
 1769000   0.53428227   -7.7044571    326.36442  0.015374243  0.014176116         3988 
 1770000   0.56008896   -7.6915141    326.21582   0.01535856  0.014163727         3989 
 1771000   0.54894582   -7.6984306    326.46754  0.015361733  0.014151352         3988 
 1772000   0.55106774   -7.7175177    326.25543  0.015343088  0.014138986         3990 
 1773000   0.53626999   -7.7086422    326.01348  0.015323063  0.014126637         3987 
 1774000   0.53334476   -7.7226183    326.67439  0.015345471    0.0141143         3982 
 1775000   0.53819554   -7.7015375    326.37161  0.015322611  0.014101972         3987 
 1776000   0.53873715   -7.7049425    326.67523   0.01532823  0.014089653         3984 
 1777000   0.54880864   -7.6965725     326.5334  0.015312952  0.014077359         3989 
 1778000   0.55296048   -7.7032097    326.03263  0.015280869  0.014065076         3986 
 1779000   0.54044293   -7.6869178     326.4062  0.015289779  0.014052808         3987 
 1780000    0.5383472     -7.70154     326.1599  0.015269658  0.014040552         3984 
 1781000   0.54417483   -7.7098933     326.4588   0.01527507  0.014028307         3984 
 1782000   0.54356703   -7.7017776    326.39984  0.015263741  0.014016073         3986 
 1783000    0.5337355   -7.7175254    326.13307  0.015242712  0.014003846         3988 
 1784000   0.53262774   -7.7121913    326.40642  0.015246937  0.013991644         3988 
 1785000   0.53698385   -7.7035099    326.65534  0.015250016  0.013979458         3989 
 1786000   0.53794693   -7.7115683    326.04633  0.015213061  0.013967275         3988 
 1787000   0.53228653   -7.7195519    326.34331  0.015218397  0.013955106         3983 
 1788000   0.54047579   -7.7181531    326.68395  0.015225762  0.013942951         3976 
 1789000   0.54507608    -7.711804    326.46337  0.015206977  0.013930814         3994 
 1790000   0.54185537   -7.7099467    325.96506  0.015175282   0.01391868         3991 
 1791000   0.53040652   -7.7204418    326.31501  0.015183092  0.013906566         3996 
 1792000   0.53782658    -7.724102    326.59505  0.015187642  0.013894458         3986 
 1793000   0.54355828   -7.7157833    326.03835  0.015153298   0.01388236         3990 
 1794000   0.53076873   -7.7235841    325.96407    0.0151414  0.013870292         3986 
 1795000   0.53880793    -7.735629    326.37181  0.015151895  0.013858226         3989 
 1796000   0.53399154   -7.7092003    325.76432  0.015115271  0.013846169         3985 
 1797000   0.54287188   -7.7303753    326.24492  0.015129147  0.013834136         3992 
 1798000   0.53330951   -7.7219609    326.29157  0.015122894  0.013822113         3989 
 1799000   0.54049384   -7.7043657    326.26768  0.015113381  0.013810106         3987 
 1800000   0.52425705   -7.7129094    325.72888  0.015080041  0.013798111         3990 
 1801000   0.53698519   -7.7309009     326.2244  0.015094595  0.013786128         3991 
 1802000    0.5232523   -7.7279263    326.15718   0.01508311  0.013774151         3988 
 1803000   0.53658007   -7.7286365    326.03724  0.015069201  0.013762182         3985 
 1804000   0.53510171   -7.7119846    325.95787  0.015057182   0.01375023         3988 
 1805000    0.5377116   -7.7401443    326.01438  0.015051449  0.013738296         3982 
 1806000   0.52024804   -7.7310048    326.40222   0.01506101  0.013726377         3986 
 1807000   0.53063815   -7.7360336    325.62882  0.015017009  0.013714468         3993 
 1808000   0.52537677   -7.7135187    326.09161  0.015030033  0.013702563         3987 
 1809000   0.53418257   -7.7255106    326.16858  0.015025271  0.013690672         3988 
 1810000    0.5306906   -7.7203757     326.3997   0.01502761  0.013678798         3986 
 1811000   0.53167644   -7.7124652    326.31987  0.015015639  0.013666945         3986 
 1812000   0.53514489   -7.7386928    326.34327  0.015008428  0.013655102         3984 
 1813000   0.52898593   -7.7278749    325.79996  0.014975177  0.013643266         3991 
 1814000   0.53051277   -7.7228343    326.18212  0.014984478  0.013631447         3990 
 1815000   0.52234755   -7.7313814     325.8906  0.014962838  0.013619638         3989 
 1816000   0.53320696   -7.7041277    326.16263  0.014967081  0.013607848         3981 
 1817000   0.52804993   -7.7345883     325.6307  0.014934448  0.013596062         3987 
 1818000   0.53348083   -7.7451828    325.77408  0.014932805  0.013584293         3981 
 1819000   0.52938055   -7.7390755     325.5058  0.014912305  0.013572537         3985 
 1820000   0.52377531   -7.7409917     325.9923  0.014926387  0.013560797         3987 
 1821000   0.52938613   -7.7291188    325.65152  0.014902596  0.013549067         3983 
 1822000   0.52904994   -7.7288716    325.72791   0.01489791  0.013537346         3989 
 1823000   0.51552374   -7.7192184    325.67327   0.01488724  0.013525641         3991 
 1824000   0.51722193   -7.7424197     325.9985  0.014893937  0.013513952         3986 
 1825000    0.5300741   -7.7434017    325.42403  0.014859545   0.01350226         3986 
 1826000   0.52314866   -7.7404635    325.78648  0.014867948   0.01349059         3987 
 1827000   0.52320299   -7.7374031    325.82354    0.0148615  0.013478933         3990 
 1828000   0.52257027   -7.7266688    326.02169  0.014862404  0.013467289         3988 
 1829000   0.52290696   -7.7409908    325.66301  0.014837936  0.013455651         3993 
 1830000   0.52844258   -7.7380258    325.76926  0.014834666  0.013444035         3989 
 1831000   0.52301245   -7.7255779    325.60445  0.014819063  0.013432428         3991 
 1832000   0.52549096   -7.7359818    325.84921  0.014822107  0.013420834         3993 
 1833000   0.52720906   -7.7318861    325.53818  0.014799881  0.013409255         3989 
 1834000   0.52428758   -7.7327575    325.43422  0.014787087  0.013397691         3984 
 1835000   0.52585615   -7.7483465    325.72921  0.014792425  0.013386131         3983 
 1836000   0.52942899   -7.7447823    325.61091  0.014778999  0.013374592         3987 
 1837000   0.54430571   -7.7277337    326.17109  0.014796366  0.013363059         3982 
 1838000   0.52234037   -7.7425527    325.71974  0.014767852  0.013351544         3993 
 1839000   0.51851425   -7.7471585    325.84484   0.01476549  0.013340056         3988 
 1840000   0.52367444    -7.745328    325.36201  0.014735598   0.01332856         3986 
 1841000   0.53324265   -7.7424248    325.35867  0.014727443  0.013317077         3977 
 1842000   0.53207276   -7.7358912     325.4369  0.014722987  0.013305606         3983 
 1843000   0.50831107   -7.7539483    325.91541  0.014736635  0.013294149         3990 
 1844000   0.49642878   -7.7294106    325.51501  0.014710548  0.013282697         3990 
 1845000   0.50948652   -7.7297864     325.5766  0.014705357   0.01327126         3982 
 1846000    0.5117838   -7.7210372    325.19782  0.014680291  0.013259853         3989 
 1847000   0.50914247   -7.7499287    325.54106   0.01468783  0.013248451         3990 
 1848000   0.51811192    -7.749381    325.46072  0.014676259   0.01323706         3987 
 1849000   0.52087127   -7.7370594    325.76408  0.014681994  0.013225684         3991 
 1850000   0.51652241   -7.7408452    326.03141    0.0146861  0.013214317         3987 
 1851000   0.51608916   -7.7475974    325.54175  0.014656121  0.013202958         3987 
 1852000   0.51513419   -7.7303554    325.59376  0.014650547  0.013191613         3986 
 1853000   0.50742513   -7.7642935    325.81876   0.01465276  0.013180279         3987 
 1854000   0.50564519    -7.741785    325.22086  0.014617982  0.013168951         3991 
 1855000   0.51520081   -7.7563793    325.71862  0.014632463  0.013157645         3989 
 1856000   0.51329591   -7.7473756    325.80902  0.014628638  0.013146352         3995 
 1857000    0.5223505   -7.7370471    325.70791  0.014616223  0.013135068         3987 
 1858000   0.50423819   -7.7491316    325.46837  0.014597613  0.013123795         3983 
 1859000   0.50714772   -7.7425539    325.23529  0.014579312  0.013112534         3985 
 1860000    0.5195143   -7.7394971    325.32003   0.01457527  0.013101289         3989 
 1861000   0.51369732   -7.7424015    325.62338  0.014581022  0.013090059         3992 
 1862000   0.49644924   -7.7474475    325.11363  0.014550377  0.013078837         3990 
 1863000   0.51822703   -7.7618399    325.43625  0.014556998  0.013067633         3985 
 1864000   0.51159846    -7.727832    325.38072  0.014546706  0.013056431         3985 
 1865000   0.51033724   -7.7670232    325.28735  0.014534734  0.013045252         3989 
 1866000   0.50482107   -7.7664641    325.35576      0.01453  0.013034075         3981 
 1867000   0.50327668   -7.7523559    325.35442  0.014522158  0.013022907         3987 
 1868000   0.52058697    -7.764452    325.63823  0.014527045  0.013011748         3989 
 1869000   0.50807269   -7.7647334     325.1425  0.014497169  0.013000614         3987 
 1870000   0.50616616   -7.7509008    325.88609  0.014522553  0.012989479         3991 
 1871000   0.49915617   -7.7471385    325.04045  0.014477127  0.012978362         3986 
 1872000   0.50736019   -7.7524432    325.56036  0.014492537  0.012967263         3986 
 1873000   0.51528484   -7.7637041    325.05892   0.01446249  0.012956168         3992 
 1874000   0.50111113   -7.7471581    325.48174  0.014473574  0.012945094         3987 
 1875000   0.49997945   -7.7472568     325.4609  0.014464929  0.012934026         3986 
 1876000   0.50319162   -7.7579838    325.14531  0.014443199  0.012922972         3985 
 1877000   0.50173807    -7.759799    325.03362  0.014430546  0.012911931         3988 
 1878000   0.50341358   -7.7613613    325.33639  0.014436297    0.0129009         3987 
 1879000   0.51807202   -7.7709233    325.27414  0.014425853  0.012889879         3984 
 1880000   0.50097285   -7.7661156    325.34426  0.014421288  0.012878879         3990 
 1881000   0.50299874   -7.7322617    325.07966  0.014401899  0.012867883         3990 
 1882000   0.50604795   -7.7686616    325.32723  0.014405209  0.012856899         3986 
 1883000   0.51148781   -7.7423784    325.26428  0.014394773  0.012845927         3988 
 1884000   0.49816966    -7.777359     325.4937   0.01439728   0.01283496         3987 
 1885000   0.50741465   -7.7568647    324.96355  0.014366204  0.012824009         3991 
 1886000   0.49214157   -7.7638053    325.05423  0.014362594  0.012813073         3986 
 1887000   0.49640378   -7.7740053    325.15163  0.014359284  0.012802147         3977 
 1888000   0.49228156   -7.7702844    325.58544  0.014370826  0.012791229         3987 
 1889000   0.49630044   -7.7467262    325.26148  0.014348927  0.012780333         3991 
 1890000   0.50007197   -7.7616697    324.92205  0.014326369  0.012769452         3987 
 1891000   0.49999424   -7.7868301    325.43374  0.014341342  0.012758575         3986 
 1892000   0.50616852   -7.7635457    325.60745  0.014341413  0.012747699         3991 
 1893000   0.49622687   -7.7503112    325.01255  0.014307649  0.012736845         3989 
 1894000   0.49021474   -7.7777174    325.27448  0.014311619  0.012726002         3989 
 1895000   0.50087555   -7.7876983    324.78594  0.014282583  0.012715169         3985 
 1896000   0.49992926    -7.765896    324.95577  0.014282514  0.012704347         3994 
 1897000   0.49362102   -7.7738646     325.3133  0.014290691  0.012693546         3989 
 1898000   0.50346323   -7.7744094    325.46004  0.014289605  0.012682755         3988 
 1899000   0.49988413   -7.7551342    325.28819  0.014274539  0.012671971         3989 
 1900000   0.49926113   -7.7666828     324.9659  0.014252891  0.012661197         3990 
 1901000   0.50085944   -7.7727567    325.54825  0.014270921  0.012650441         3985 
 1902000    0.4914099   -7.7931551    325.23162  0.014249545  0.012639695         3990 
 1903000   0.50196146   -7.7620108    325.58348  0.014257465  0.012628954         3989 
 1904000   0.48798958   -7.7739927    324.82168  0.014216635  0.012618227         3985 
 1905000    0.4811391   -7.7630129    324.82938  0.014209509  0.012607511         3987 
 1906000   0.48363613   -7.7665847    325.02339  0.014210536  0.012596803         3987 
 1907000   0.48998511   -7.7586497    325.05158  0.014204317  0.012586116         3990 
 1908000   0.49607372   -7.7744057    325.31514  0.014208383  0.012575437         3986 
 1909000    0.4890157   -7.7772552    324.97219   0.01418597  0.012564769         3994 
 1910000    0.4841799   -7.7582485    324.49083  0.014157541  0.012554111         3983 
 1911000   0.49206187   -7.7805202    325.03556  0.014173886  0.012543467         3989 
 1912000   0.49723409   -7.8006995    325.32837  0.014179235   0.01253284         3985 
 1913000   0.48526928   -7.7786061    325.01207  0.014158044  0.012522221         3986 
 1914000   0.49491186   -7.7716792     324.9343  0.014147261  0.012511614         3987 
 1915000   0.49223133   -7.7719941    325.08835  0.014146578  0.012501012         3982 
 1916000    0.4973812   -7.7985507    324.87424  0.014129882  0.012490422         3985 
 1917000    0.4931193   -7.7603231    324.55411  0.014108594  0.012479855         3986 
 1918000   0.48627206   -7.7812143    324.85337  0.014114241  0.012469293         3989 
 1919000   0.49083954   -7.7739065    324.73887  0.014101914  0.012458736         3983 
 1920000   0.48885234   -7.7495988    324.56098  0.014086848  0.012448202         3991 
 1921000   0.47675572    -7.787768    324.96301  0.014096955  0.012437679         3985 
 1922000   0.48578669   -7.7865933    325.04018  0.014092966  0.012427163         3988 
 1923000   0.49086572   -7.7731777    325.25213  0.014094823  0.012416664         3984 
 1924000   0.49143763   -7.7748047    324.55434  0.014057274  0.012406165         3984 
 1925000    0.4850537   -7.7799285    324.91682  0.014065663  0.012395686         3989 
 1926000   0.48481692   -7.7832809    325.32856  0.014076175  0.012385214         3990 
 1927000    0.4760161   -7.8010674    325.37988   0.01407109  0.012374759         3991 
 1928000   0.48029522    -7.794148     324.7029  0.014034531  0.012364311         3992 
 1929000   0.47911672   -7.7774917    324.48105  0.014017671  0.012353874         3993 
 1930000   0.47562091   -7.7700188    324.64759  0.014017599  0.012343436         3986 
 1931000   0.47885868   -7.7766612    324.76351  0.014015342  0.012333017         3990 
 1932000   0.48736588   -7.7936011    324.39731  0.013992292  0.012322613         3983 
 1933000    0.4702892   -7.7859988    324.64064  0.013995544  0.012312219         3990 
 1934000   0.47599969   -7.7734772    324.76294  0.013993577  0.012301837         3993 
 1935000   0.48303565   -7.7818013    324.85355  0.013990248  0.012291467         3991 
 1936000   0.47410466   -7.8052223    324.93947   0.01398672  0.012281108         3983 
 1937000   0.47267806   -7.7903276    325.50147  0.014003677  0.012270762         3991 
 1938000   0.48706891   -7.7869173    324.65345  0.013959987  0.012260416         3990 
 1939000   0.48123877   -7.7921837    325.02189  0.013968622  0.012250092         3985 
 1940000   0.48123055    -7.805903    324.43822   0.01393635  0.012239773         3993 
 1941000   0.48104002   -7.7891987    324.73289  0.013941821  0.012229466         3983 
 1942000   0.47214864     -7.77729    324.63991  0.013930652  0.012219173         3984 
 1943000   0.47429357   -7.7902519    324.15859  0.013902839  0.012208894         3993 
 1944000   0.48732434   -7.8078138    325.23602  0.013941873  0.012198626         3988 
 1945000   0.48621545   -7.7959071    324.55301  0.013905442  0.012188366         3988 
 1946000   0.47753372   -7.8011146    324.73795  0.013906216  0.012178122         3988 
 1947000   0.47041402   -7.7913423    324.94485  0.013907929  0.012167885         3986 
 1948000   0.47678747   -7.7890881    324.26838   0.01387185  0.012157662         3986 
 1949000   0.48543639   -7.7973088    324.71867  0.013883986  0.012147449         3991 
 1950000   0.47256051     -7.78853    325.16314  0.013895861  0.012137247         3985 
 1951000   0.47230864   -7.7949678    324.27889  0.013850969  0.012127055         3991 
 1952000   0.46186171   -7.7837446    324.24113  0.013842261  0.012116865         3993 
 1953000   0.46735553   -7.7930808    324.51822  0.013846997  0.012106693         3992 
 1954000   0.46821525   -7.8043926    324.41405  0.013835468  0.012096531         3993 
 1955000   0.47457851   -7.8020831    324.69522  0.013840376  0.012086379         3991 
 1956000   0.47417584   -7.7883698    324.54662  0.013826969  0.012076235         3991 
 1957000   0.47304369   -7.7934742    324.29719  0.013809283   0.01206611         3993 
 1958000   0.46204018   -7.8023727      324.787  0.013823076  0.012055992         3990 
 1959000   0.46965568   -7.7986121    324.52804  0.013805004  0.012045889         3989 
 1960000   0.47882395   -7.7962943    324.33036  0.013789556  0.012035788         3987 
 1961000   0.47396582   -7.8120298    324.99372  0.013810714  0.012025708         3993 
 1962000   0.47195564   -7.8002597    324.15802   0.01376818  0.012015622         3991 
 1963000    0.4721362   -7.8170437    324.56226  0.013778327  0.012005559         3992 
 1964000   0.47070041   -7.8192271    324.70624   0.01377742  0.011995504         3987 
 1965000   0.46001295   -7.8025363      324.586   0.01376531  0.011985465         3988 
 1966000   0.46135534   -7.8047401    324.54677  0.013756645   0.01197543         3985 
 1967000   0.47261268   -7.8034396    324.77932  0.013759504  0.011965407         3987 
 1968000   0.47023127   -7.8112612    324.98891  0.013761387    0.0119554         3988 
 1969000   0.47446661   -7.8123439    324.73667  0.013743722  0.011945399         3983 
 1970000   0.46535713   -7.7923363     324.8119  0.013739928  0.011935416         3980 
 1971000   0.45962616   -7.8084734    324.46413  0.013718253   0.01192545         3988 
 1972000   0.46054095   -7.8190138    324.39437  0.013708349  0.011915489         3987 
 1973000   0.46169811   -7.8022298    324.61522  0.013710729  0.011905534         3988 
 1974000   0.46091113   -7.7991353    324.30464  0.013690672   0.01189559         3988 
 1975000   0.46901115   -7.8214274    324.62116  0.013697095  0.011885664         3994 
 1976000   0.46471477   -7.8176727     324.8142  0.013698305  0.011875743         3986 
 1977000    0.4601745   -7.8059909    324.86883  0.013693678  0.011865834         3984 
 1978000   0.46718919   -7.8067987    324.52138  0.013672118  0.011855937         3988 
 1979000   0.46575716   -7.8091472    324.67039  0.013671483  0.011846043         3987 
 1980000   0.46513975   -7.8020621    324.24192  0.013646546  0.011836169         3988 
 1981000   0.45845388    -7.805745    324.46867  0.013649195  0.011826294         3991 
 1982000   0.47548216   -7.8200092    324.51865   0.01364441  0.011816436         3985 
 1983000   0.46314766   -7.8106418    324.48647  0.013636177  0.011806589         3989 
 1984000   0.45465374     -7.81779    324.55887  0.013632345  0.011796752         3987 
 1985000   0.44928968   -7.8160112    324.12022  0.013607062  0.011786931         3990 
 1986000   0.47018741   -7.8255367    324.22824  0.013604743  0.011777114         3989 
 1987000   0.45592935   -7.8162802    324.74628  0.013619622  0.011767314         3986 
 1988000   0.45873175   -7.8004025    324.06535  0.013584228   0.01175752         3984 
 1989000   0.46025335   -7.7990363    324.56872  0.013598488  0.011747739         3992 
 1990000   0.46530999   -7.8128912    324.16242  0.013574641  0.011737963         3987 
 1991000   0.45887673   -7.8040471    324.36223  0.013576186  0.011728202         3987 
 1992000   0.45135166   -7.8286468    324.50218  0.013575225  0.011718449         3995 
 1993000   0.45972899   -7.8164153    324.48982  0.013567897  0.011708713         3988 
 1994000   0.46222302   -7.8116835    324.61662  0.013566392  0.011698982         3990 
 1995000   0.45828335   -7.8223415    323.89129  0.013529294  0.011689264         3986 
 1996000   0.46110341   -7.8332998    324.31306  0.013540124  0.011679553         3990 
 1997000   0.45761263   -7.8200922    324.39638  0.013536821  0.011669855         3987 
 1998000   0.45993732   -7.8182463    324.30868  0.013526388  0.011660162         3992 
 1999000   0.45649186   -7.8074998    324.42804  0.013524597  0.011650486         3991 
 2000000   0.45913561   -7.8194808    324.17324  0.013507218  0.011640815         3983 
 2001000   0.45385337   -7.8301013    324.45667  0.013512272   0.01163116         3987 
 2002000    0.4549392   -7.8288328    324.14125  0.013492393  0.011621511         3985 
 2003000   0.45869266    -7.828824    324.07043  0.013482711  0.011611875         3988 
 2004000    0.4423948   -7.8245888    324.02679  0.013474168   0.01160225         3988 
 2005000   0.45861588   -7.8236532    324.27931  0.013477943  0.011592629         3987 
 2006000   0.45739393   -7.8139602    324.16649  0.013466537  0.011583021         3988 
 2007000   0.45019626    -7.832198    324.11531  0.013457703  0.011573425         3990 
 2008000   0.44995655   -7.8300101    324.48052  0.013466157  0.011563843         3987 
 2009000   0.44713816   -7.8143546    323.96489  0.013438066  0.011554267         3986 
 2010000   0.43529395   -7.8390563    324.71978  0.013462678  0.011544702         3987 
 2011000   0.45060631    -7.826662    324.19291   0.01343415  0.011535147         3989 
 2012000   0.45100695   -7.8293454     324.2353  0.013429229  0.011525602         3991 
Loop time of 4244.29 on 48 procs for 2000000 steps with 4000 atoms

Performance: 81427.006 tau/day, 471.221 timesteps/s
99.4% CPU use with 48 MPI tasks x no OpenMP threads

MPI task timing breakdown:
Section |  min time  |  avg time  |  max time  |%varavg| %total
---------------------------------------------------------------
Pair    | 253.54     | 266.27     | 275.71     |  29.3 |  6.27
Neigh   | 26.463     | 27.051     | 27.729     |   5.0 |  0.64
Comm    | 231.45     | 244.18     | 264.46     |  42.3 |  5.75
Output  | 4.5377     | 4.5396     | 4.5738     |   0.2 |  0.11
Modify  | 3631.8     | 3655.9     | 3671.3     |  16.6 | 86.14
Other   |            | 46.39      |            |       |  1.09

Nlocal:        83.3333 ave          88 max          76 min
Histogram: 2 1 1 1 7 9 9 9 5 4
Nghost:        1753.10 ave        1775 max        1735 min
Histogram: 2 4 6 6 11 6 5 3 2 3
Neighs:        10359.5 ave       11047 max        9295 min
Histogram: 1 1 2 3 5 10 13 3 6 4
FullNghs:      20719.5 ave       21891 max       18794 min
Histogram: 2 1 1 1 9 6 12 5 6 5

Total # of neighbors = 994537
Ave neighs/atom = 248.63425
Neighbor list builds = 108087
Dangerous builds = 0

#clear
#
#next RN
#
#jump SELF
Total wall time: 1:10:47
