
units lj                  # Use reduced LJ style units
atom_style atomic         # Uncharged point particles
atom_modify map hash      # Needed for indexing of clusters etc
                          # Used to be able to find where atoms are in relation to each other.

lattice fcc 1.0 spacing 1 1 1
Lattice spacing in x,y,z = 1.5874011 1.5874011 1.5874011
region box block 0 10 0 10 0 10 units lattice
create_box 2 box
Created orthogonal box = (0.0000000 0.0000000 0.0000000) to (15.874011 15.874011 15.874011)
  3 by 4 by 4 MPI processor grid
create_atoms 1 box
Created 4000 atoms
  using lattice units in orthogonal box = (0.0000000 0.0000000 0.0000000) to (15.874011 15.874011 15.874011)
  create_atoms CPU = 0.002 seconds
set type 1 type/fraction 2 0.58 78393
Setting atom values ...
  2338 settings made for type/fraction
mass 1 1.0
mass 2 1.0
pair_style lj/cut  3.5
pair_modify tail  yes
pair_coeff 1  1  1.0  1.0   # Intearaction between 1 and 1 set with epsilon = 1 and sigma = 1
pair_coeff 1  2  1.5  0.8
pair_coeff 2  2  0.5  0.88

write_data data.0
System init for write_data ...
Neighbor list info ...
  update every 1 steps, delay 10 steps, check yes
  max neighbors/atom: 2000, page size: 100000
  master list distance cutoff = 3.8
  ghost atom cutoff = 3.8
  binsize = 1.9, bins = 9 9 9
  1 neighbor lists, perpetual/occasional/extra = 1 0 0
  (1) pair lj/cut, perpetual
      attributes: half, newton on
      pair build: half/bin/atomonly/newton
      stencil: half/bin/3d
      bin: standard
WARNING: Not all mixed pair coeffs generated from mixing. Use write_data with 'pair ij' option to store all pair coeffs. (../write_data.cpp:312)


#############################
#   M E L T   S Y S T E M   #
#############################

velocity all create 2.4 5833274 mom yes dist gaussian # Assign velocities
                                                    # Temperature 2.4, random number seed, zero linear momentum
                                                                                # Gaussian distribution

timestep 0.002   # simulation timestep
thermo 1000       # output thermodynamic data every 1000 steps bf 100

# Define a fix  in this case with index 1 applied to all
# particles in the simulation. This fix is for simulations
# in the anisotropic NPT ensemble. Note that we use the MTK
# correction.
fix 1 all npt temp 2.4 2.4 0.1 iso 5.68 5.68 0.5 mtk yes tchain 5 pchain 5 # Use NPT ensemble
                                                                         # Set temperature and pressure and damping
                                                                         # Numbers of thermostats in chain and in barostat
run 10000          # run for 10000 steps
Per MPI rank memory allocation (min/avg/max) = 3.642 | 3.644 | 3.648 Mbytes
Step Temp E_pair E_mol TotEng Press Volume 
       0          2.4   -4.8268882            0   -1.2277882   -4.1002737         4000 
    1000    2.4341589   -4.5106108            0  -0.86028533      5.98173    3635.8061 
    2000      2.39197    -4.551821            0  -0.96476295    5.4770248    3643.4349 
    3000     2.401981    -4.510709            0  -0.90863824    5.7933452     3637.284 
    4000    2.3973302   -4.6228833            0    -1.027787     5.707915    3591.8105 
    5000    2.3959811     -4.62636            0   -1.0332869    5.6542433    3590.9067 
    6000    2.3974459   -4.5254374            0  -0.93016759    5.5851095    3649.7448 
    7000    2.4052482   -4.5222375            0  -0.91526713    5.9353651    3620.4505 
    8000    2.3384823    -4.573433            0   -1.0665865    5.8006356    3605.6124 
    9000    2.4068009   -4.5801575            0  -0.97085874    5.7656496     3613.356 
   10000     2.357458   -4.5629898            0   -1.0276867    5.4073749    3638.7299 
Loop time of 2.6827 on 48 procs for 10000 steps with 4000 atoms

Performance: 644128.370 tau/day, 3727.595 timesteps/s
99.6% CPU use with 48 MPI tasks x no OpenMP threads

MPI task timing breakdown:
Section |  min time  |  avg time  |  max time  |%varavg| %total
---------------------------------------------------------------
Pair    | 1.2309     | 1.2876     | 1.4314     |   2.7 | 48.00
Neigh   | 0.22252    | 0.22722    | 0.25257    |   1.0 |  8.47
Comm    | 0.76144    | 0.89693    | 0.96508    |   4.3 | 33.43
Output  | 0.00025744 | 0.00026371 | 0.00032944 |   0.0 |  0.01
Modify  | 0.21565    | 0.25482    | 0.29415    |   4.5 |  9.50
Other   |            | 0.01586    |            |       |  0.59

Nlocal:        83.3333 ave          90 max          71 min
Histogram: 1 0 2 3 8 5 5 14 6 4
Nghost:        1752.71 ave        1782 max        1725 min
Histogram: 3 5 5 4 8 5 8 5 2 3
Neighs:        10496.1 ave       11525 max        9227 min
Histogram: 5 3 3 6 1 6 5 7 7 5

Total # of neighbors = 503813
Ave neighs/atom = 125.95325
Neighbor list builds = 907
Dangerous builds = 218

# Equilibrate just above the melting temperature to avoid step fn in T

fix 1 all npt temp 1.25 1.25 0.1 iso 5.68 5.68 0.5 mtk yes tchain 5 pchain 5
run 2000
Per MPI rank memory allocation (min/avg/max) = 3.644 | 3.646 | 3.650 Mbytes
Step Temp E_pair E_mol TotEng Press Volume 
   10000     2.357458   -4.5629898            0   -1.0276867    5.4073749    3638.7299 
   11000     1.239734   -6.6142619            0   -4.7551257    5.8948501     2786.157 
   12000    1.2283235   -6.6935945            0   -4.8515699    5.4517137    2780.7088 
Loop time of 0.676053 on 48 procs for 2000 steps with 4000 atoms

Performance: 511202.528 tau/day, 2958.348 timesteps/s
99.6% CPU use with 48 MPI tasks x no OpenMP threads

MPI task timing breakdown:
Section |  min time  |  avg time  |  max time  |%varavg| %total
---------------------------------------------------------------
Pair    | 0.30986    | 0.33037    | 0.37552    |   2.3 | 48.87
Neigh   | 0.042976   | 0.045007   | 0.049644   |   0.7 |  6.66
Comm    | 0.20095    | 0.24936    | 0.27643    |   3.1 | 36.88
Output  | 5.3873e-05 | 5.506e-05  | 7.2086e-05 |   0.0 |  0.01
Modify  | 0.04189    | 0.046271   | 0.050688   |   1.2 |  6.84
Other   |            | 0.004986   |            |       |  0.74

Nlocal:        83.3333 ave          90 max          78 min
Histogram: 5 4 8 3 4 13 3 3 1 4
Nghost:        2101.56 ave        2132 max        2084 min
Histogram: 3 6 16 6 5 4 3 4 0 1
Neighs:        13726.3 ave       15015 max       12197 min
Histogram: 2 3 3 6 8 9 7 2 3 5

Total # of neighbors = 658864
Ave neighs/atom = 164.71600
Neighbor list builds = 144
Dangerous builds = 13

#############################
# L I N E A R  Q U E N C H  #
#############################

# Define solid atoms. This closely follows ten Wolde  Ruiz-Montero and Frenkel  Faraday Discuss  1996  104  93-110
# Compute components of the per-atom q6 vector
compute q6 all orientorder/atom degrees 1 6 components 6 nnn NULL cutoff 1.3 # compute the Q6 parameter.
                                                                             # Use all neighbours within 1.3 unit cell.

# get number of connections
compute coord_number all coord/atom orientorder q6 0.5

# An atom is solid if it has 8 or more connections (of a possible 14)
variable is_solid atom c_coord_number>=8
group solid dynamic all var is_solid    # Must be dynamic to update
dynamic group solid defined

# do clustering
compute cluster solid cluster/atom 1.3 # Create a cluster where all atoms within are solid and max 1.3 units from another member

# define chunks one chunk per cluster
compute clus_chunks solid chunk/atom c_cluster nchunk every compress yes  # Says which atoms are in which chunk

# count the size of each chunk
compute size_chunks solid property/chunk clus_chunks count


# Find the maximum entry in the vector of chunk sizes
variable max_n equal max(c_size_chunks)


# Thermo style which includes this variable
# thermo_style custom step temp pe vol v_max_n

thermo ${N}  # Print the thermo information every 100 steps
thermo 1000  

# Reset the npt fix at a lower temperature (below freezing)
fix 1  all npt temp  ${temp} ${temp}  0.1  iso  5.68  5.68  0.5  mtk yes tchain  5  pchain  5
fix 1  all npt temp  0.45 ${temp}  0.1  iso  5.68  5.68  0.5  mtk yes tchain  5  pchain  5
fix 1  all npt temp  0.45 0.45  0.1  iso  5.68  5.68  0.5  mtk yes tchain  5  pchain  5

dump dmp2 all dcd ${N} traj.dcd
dump dmp2 all dcd 1000 traj.dcd


compute msd all msd com yes
variable twopoint equal c_msd[4]/6/(step*dt+1.0e-6)
fix 9 all vector 10 c_msd[4]
variable fit equal slope(f_9)/6/(10*dt)
thermo_style custom step temp pe c_msd[4] v_twopoint v_fit v_max_n

fix 1 all npt temp 1.25 ${temp} 0.1 iso 5.68 5.68 0.5 mtk yes tchain 5 pchain 5
fix 1 all npt temp 1.25 0.45 0.1 iso 5.68 5.68 0.5 mtk yes tchain 5 pchain 5
run 500000 # 5000000  # Run for this many steps
Neighbor list info ...
  update every 1 steps, delay 10 steps, check yes
  max neighbors/atom: 2000, page size: 100000
  master list distance cutoff = 3.8
  ghost atom cutoff = 3.8
  binsize = 1.9, bins = 8 8 8
  4 neighbor lists, perpetual/occasional/extra = 1 3 0
  (1) pair lj/cut, perpetual
      attributes: half, newton on
      pair build: half/bin/atomonly/newton
      stencil: half/bin/3d
      bin: standard
  (2) compute orientorder/atom, occasional
      attributes: full, newton on
      pair build: full/bin/atomonly
      stencil: full/bin/3d
      bin: standard
  (3) compute coord/atom, occasional
      attributes: full, newton on
      pair build: full/bin/atomonly
      stencil: full/bin/3d
      bin: standard
  (4) compute cluster/atom, occasional
      attributes: full, newton on
      pair build: full/bin/atomonly
      stencil: full/bin/3d
      bin: standard
Per MPI rank memory allocation (min/avg/max) = 9.844 | 9.850 | 9.853 Mbytes
Step Temp PotEng c_msd[4] v_twopoint v_fit v_max_n 
   12000    1.2283235   -6.6935945            0            0 8.3333333e+20            3 
   13000    1.2233694   -6.7762073   0.49019518 0.0031422767  0.040162444            3 
   14000    1.2434311   -6.7600075   0.94905163 0.0056491166  0.038943097            2 
   15000    1.2689659   -6.7687489    1.4022727 0.0077904035  0.038579862            2 
   16000    1.2383227   -6.7837267    1.7716708 0.0092274517   0.03711407            3 
   17000    1.2169107   -6.7686418    2.1664426  0.010619816  0.035812711            2 
   18000    1.2317116   -6.8004756    2.5910129   0.01199543  0.035048738            2 
   19000    1.2488196   -6.7585275    3.0108618  0.013205534  0.034846111            3 
   20000    1.2278275   -6.7905894    3.4172201  0.014238417  0.034689616            1 
   21000    1.2572386   -6.8033737    3.8973095  0.015465514   0.03478025            2 
   22000    1.2486842   -6.8106981    4.3719225  0.016560312  0.035137357            2 
   23000    1.2309213   -6.8274324    4.8023299  0.017399746  0.035408842            1 
   24000    1.2257313   -6.8151583    5.1980684  0.018048848   0.03552834            4 
   25000    1.2254125   -6.8339761    5.6188591   0.01872953  0.035552421            4 
   26000    1.1910649   -6.8279717    6.0488283   0.01938727  0.035582627            2 
   27000    1.2279305   -6.8176434    6.4840901  0.020012623  0.035630573            4 
   28000    1.2247656   -6.8376399    6.7465105    0.0200789   0.03548526            2 
   29000    1.2002744   -6.8273806    7.0322771  0.020207693   0.03514195            8 
   30000    1.2253524   -6.8945919    7.3347232  0.020374231  0.034713894            2 
   31000    1.2172833   -6.8549951    7.7211359  0.020755741  0.034335725            3 
   32000    1.2192874   -6.8682372    8.1107991  0.021121872  0.034002404            2 
   33000    1.1968313   -6.8573297    8.5178951  0.021509836  0.033776794            3 
   34000    1.2286943   -6.8437534    8.9226547  0.021869251  0.033617645            2 
   35000    1.2384685   -6.8112411    9.4017751  0.022385178  0.033502118            2 
   36000    1.2204702   -6.8383392    9.8045864  0.022695802  0.033469783            2 
   37000    1.1770072   -6.8713535    10.129739  0.022814728  0.033392614            3 
   38000    1.2092454   -6.8041901    10.598252   0.02324178  0.033334825            1 
   39000      1.20139   -6.8706569    10.867284  0.023220693  0.033266055            1 
   40000    1.1833247   -6.8711928    11.198626   0.02333047  0.033173864            2 
   41000    1.2118721   -6.8788674    11.708423  0.023797607  0.033113641            2 
   42000    1.1951818   -6.9071091    12.093895  0.023995824  0.033090415            5 
   43000     1.216629   -6.8659229    12.389249  0.024010173  0.033008031            3 
   44000    1.2052224   -6.8892915    12.659614  0.023976542  0.032878339            1 
   45000    1.2103911    -6.876608    13.029301  0.024128334   0.03276408            8 
   46000    1.1936034   -6.9219063    13.413121  0.024299132  0.032662639            2 
   47000     1.167142   -6.9487794    13.742845  0.024366746  0.032572216            3 
   48000    1.1830153   -6.8835754    14.131095   0.02453315  0.032486044            1 
   49000    1.1822156   -6.9316688    14.544961  0.024736329   0.03240633            4 
   50000    1.1957364   -6.9175295    14.859216   0.02476536  0.032325674            5 
   51000    1.1978438   -6.9430385    15.135188  0.024730699  0.032235936            3 
   52000     1.199549   -6.9128557    15.488064  0.024820615   0.03213627            2 
   53000    1.1945767   -6.9994266    15.776124  0.024805225  0.032039026            5 
   54000    1.1731933   -6.9504352    16.038894  0.024751379  0.031916714            1 
   55000    1.1677436   -6.9451935    16.303556  0.024702357  0.031777846            7 
   56000    1.1835756   -6.9181005    16.720825   0.02488218  0.031647032            3 
   57000    1.1750984   -7.0066787    16.805668  0.024569689  0.031496426            3 
   58000    1.1728759    -6.959124    17.189395  0.024697406  0.031340468            2 
   59000    1.1781336   -6.9506532    17.513922  0.024737178  0.031186906            2 
   60000    1.1715342   -6.9532114    18.025723  0.025035726  0.031063615            1 
   61000    1.1647935   -6.9748751    18.419473  0.025163215  0.030971721            3 
   62000    1.1637712    -6.993885    18.820204  0.025295973   0.03089454            3 
   63000     1.153083   -6.9831424    19.155747   0.02533829  0.030823444            1 
   64000    1.1752541   -6.9484075    19.458266  0.025336284  0.030755858            5 
   65000    1.1683956   -6.9883933    19.867939  0.025471717  0.030688809            3 
   66000    1.1840884   -6.9753146    20.408022  0.025767705  0.030646558            4 
   67000    1.1610074   -7.0467997    20.477635  0.025469695  0.030606203            3 
   68000    1.1322106   -6.9560683    20.826887  0.025523146  0.030545583            4 
   69000    1.1775667   -7.0379531    21.113152  0.025498976  0.030485646            3 
   70000    1.1463027   -7.0059513    21.602149  0.025716844  0.030442486            3 
   71000    1.1603107   -7.0222308    21.979045  0.025797001   0.03040517            3 
   72000    1.1568443   -7.0450468    22.386536  0.025910343  0.030369856            4 
   73000    1.1428141   -7.0722379     22.66008  0.025867671  0.030340273            3 
   74000    1.1548941   -7.0606364    22.962922  0.025859146  0.030303461            3 
   75000    1.1609664   -7.0144869    23.071285  0.025634761   0.03025137            4 
   76000    1.1492878   -7.0006565    23.321805  0.025572155  0.030175359            1 
   77000    1.1595286   -7.0633981    23.615157  0.025557529  0.030096797            2 
   78000    1.1194528   -7.0476477    23.922041  0.025557736  0.030022551            3 
   79000      1.14732   -7.0357376    24.348093  0.025683642   0.02995391            3 
   80000    1.1688566   -7.0505776    24.517142  0.025538689  0.029876882            9 
   81000    1.1406581   -7.0702583    24.760503  0.025473768  0.029798222            3 
   82000    1.1451585   -7.0407127    25.123348  0.025531858  0.029723247            6 
   83000    1.1429763   -7.0631594    25.475767  0.025578079  0.029653394            4 
   84000    1.1197343   -7.0423924     25.71218  0.025508115  0.029578018            4 
   85000    1.1568242   -7.1008881    26.024723  0.025514435  0.029502889            3 
   86000    1.1489651   -7.0476182    26.329415  0.025512999   0.02943005            3 
   87000    1.1261901   -7.0853019    26.444418  0.025329902  0.029347252            3 
   88000    1.1165694   -7.0782489    26.729844  0.025312352  0.029259981            2 
   89000    1.1474633   -7.0549033    26.834867   0.02512628  0.029170787            2 
   90000     1.164136   -7.0796922    27.038647  0.025035784  0.029068092            2 
   91000    1.1245288   -7.0832384    27.321291  0.025019497  0.028966522            2 
   92000    1.1255381   -7.0900183    27.712965  0.025102324  0.028869004            3 
   93000    1.1279625   -7.0859062    27.703863   0.02482425  0.028771407            2 
   94000    1.1119724   -7.1200432    28.098597  0.024910103  0.028671627            3 
   95000    1.1268803   -7.0927466    28.335908  0.024856059  0.028571579            4 
   96000    1.1578499   -7.1284528    28.598767  0.024825319  0.028473511            4 
   97000    1.1241251   -7.1275492    29.015303  0.024927237  0.028383943            2 
   98000    1.0993097   -7.1321989    29.392669  0.024993766  0.028300935            3 
   99000    1.1217467   -7.1185211    29.761715  0.025051948  0.028226703            2 
  100000    1.1100211   -7.1788718    29.766944  0.024805786  0.028150653            6 
  101000    1.1316852   -7.1207087     30.18211  0.024902731  0.028067411            5 
  102000    1.0825297   -7.1536408    30.231527   0.02469896  0.027985875            2 
  103000    1.1080235    -7.191198    30.461451  0.024645187  0.027900827            6 
  104000    1.0748771   -7.1291689    30.826602  0.024700803  0.027813042            2 
  105000    1.1275315   -7.0942446    31.133618   0.02470922  0.027728315            6 
  106000    1.1105871   -7.1732682    31.180914  0.024513297  0.027641312            4 
  107000    1.0998867   -7.1918368     31.26659  0.024350926  0.027551165            1 
  108000    1.1000523   -7.1731735    31.470804  0.024283028  0.027457956            3 
  109000    1.0893867   -7.1764881    31.747317  0.024271649  0.027360027            9 
  110000    1.0815049   -7.1939633     31.92835  0.024188144  0.027258748            3 
  111000    1.0804448   -7.1981364    31.915148  0.023960322  0.027156388            3 
  112000    1.1002671   -7.2086107    32.173154  0.023938359  0.027050187            3 
  113000    1.1107694   -7.1907425    32.351657  0.023858154  0.026947728            6 
  114000    1.0934019   -7.1989066    32.654442  0.023870206  0.026845259            2 
  115000    1.0840983   -7.2319986    32.901368  0.023841571  0.026746027            9 
  116000    1.0991092   -7.2091588     32.99167  0.023700912  0.026643882            5 
  117000    1.0866614   -7.2425654    33.067418  0.023552292  0.026541367            3 
  118000    1.0984279   -7.2215607    33.359534  0.023558993  0.026435853            4 
  119000    1.0802586   -7.2152653    33.545712  0.023491395  0.026330663            4 
  120000    1.0490354   -7.2076058     33.89678  0.023539431  0.026229546            3 
  121000    1.0863018   -7.1880657     34.09204  0.023479366  0.026132619            2 
  122000    1.0989305   -7.2285305    34.171054  0.023340884  0.026034257            2 
  123000    1.0829196   -7.1736213    34.706253  0.023513721  0.025940342            2 
  124000    1.0801246   -7.2429888    34.772807  0.023368822  0.025849993            4 
  125000    1.1027683   -7.2639854    35.146951  0.023431301  0.025762553            5 
  126000    1.0607863   -7.2447304    35.292244  0.023341431  0.025677642            3 
  127000    1.0725103   -7.1948162    35.496903  0.023291931   0.02559101            4 
  128000    1.0514682   -7.2311622    35.859322  0.023345913  0.025508459            7 
  129000    1.0647534   -7.2376093    35.870001  0.023171835  0.025426828            4 
  130000    1.0769076   -7.2662959    36.239808  0.023230646  0.025346704            2 
  131000    1.0600653   -7.2402253    36.457846  0.023192014  0.025266347            4 
  132000     1.034864   -7.2569631     36.64997  0.023137608  0.025187416            5 
  133000    1.0873178   -7.2801521    36.915828  0.023130218  0.025110514            5 
  134000    1.0398144   -7.3518099    36.972447  0.022992815  0.025032709            2 
  135000    1.0410599   -7.3122271     37.19692  0.022961062  0.024952167            5 
  136000    1.0622491   -7.2948427    37.561431  0.023015583  0.024875726            3 
  137000    1.0506489   -7.2752714    37.882433  0.023042842  0.024803434            4 
  138000    1.0579647   -7.2813988    37.938551  0.022909753  0.024732507            5 
  139000    1.0312922   -7.3513282    38.170761  0.022884149   0.02466136            9 
  140000    1.0444113   -7.3620171    38.308673  0.022802782  0.024589155            4 
  141000    1.0469276   -7.2929002    38.560749   0.02279004  0.024516737            4 
  142000    1.0405613   -7.3218167    38.678359  0.022698567  0.024442806            3 
  143000    1.0554606    -7.307181    38.772529  0.022594714  0.024370482            3 
  144000    1.0512438   -7.3169193    39.058745   0.02260344  0.024298639            7 
  145000    1.0383085   -7.2995977    39.350179  0.022615046  0.024226927            3 
  146000    1.0247362   -7.3601482    39.297828  0.022430267  0.024158226            3 
  147000    1.0245899   -7.3652115    39.497581  0.022390919  0.024086724            5 
  148000    1.0224259   -7.3359853     39.62876  0.022313491  0.024015664            3 
  149000    1.0198368   -7.3398473    39.885839  0.022307516  0.023942037            5 
  150000    1.0362477   -7.3512325    40.075391  0.022264106  0.023867857            4 
  151000    1.0248688   -7.3740141    40.239992  0.022207501  0.023795271            5 
  152000      1.01008   -7.4526656    40.105801  0.021987829  0.023718542            3 
  153000    1.0164927   -7.3665445    40.423246  0.022017018  0.023642523            4 
  154000    1.0327469   -7.3924793    40.635193  0.021988741  0.023567849            4 
  155000    1.0232427   -7.3854854    40.755555  0.021911588  0.023493529            6 
  156000    1.0344454   -7.4046488    40.837869  0.021815101  0.023418191            3 
  157000    1.0154705   -7.3527005    41.224921  0.021881593  0.023344918            3 
  158000    1.0198784   -7.3815396    41.437513  0.021855228  0.023274909            4 
  159000    1.0032402   -7.4093555    41.559897  0.021781917  0.023205331            3 
  160000    1.0115177   -7.4403559    41.745994  0.021742705  0.023135763            4 
  161000    1.0226589   -7.4003273    42.008944   0.02174376  0.023065947            7 
  162000    1.0202874   -7.4104203    42.007226  0.021608655  0.022995533            6 
  163000    1.0161519   -7.4067793     42.25646  0.021603507  0.022926178            3 
  164000   0.98539867     -7.40939    42.449894  0.021570068  0.022858145            5 
  165000   0.99590244   -7.4121295    42.604174  0.021517259  0.022791766            5 
  166000    1.0082751   -7.4604238    42.878939  0.021525571  0.022725371            5 
  167000    1.0229774   -7.4545876    42.817688  0.021366111  0.022656597            4 
  168000   0.98976209   -7.3919567    42.953203  0.021306152  0.022587387            5 
  169000    1.0072079   -7.4253086    43.075655  0.021240461  0.022518864            3 
  170000   0.99878963    -7.416021    43.279412  0.021215398  0.022449309            2 
  171000    1.0128685   -7.4657711    43.328631  0.021115317  0.022377871            7 
  172000   0.99005294   -7.4881137    43.394305  0.021024373  0.022306561            4 
  173000   0.99219255   -7.4673836    43.665766  0.021033606  0.022235844            4 
  174000    1.0121609   -7.4711319    43.689055  0.020923877  0.022165498            3 
  175000   0.99473809   -7.4544856    43.792638  0.020853637  0.022094442            2 
  176000   0.97824256   -7.5352785    43.841705  0.020758383   0.02202342            6 
  177000   0.97693074   -7.5124893    44.141458  0.020782231  0.021953179            2 
  178000   0.99637207   -7.4988538    44.342067  0.020759395   0.02188238            2 
  179000   0.97668326   -7.4897203    44.639126  0.020781716  0.021813881            3 
  180000   0.99497561   -7.4552747    44.721317  0.020704314  0.021746341            3 
  181000   0.97370558   -7.5171601    44.684307  0.020572885  0.021678518            7 
  182000   0.97233866   -7.4357644    45.099576  0.020649989  0.021612714            6 
  183000   0.98567908   -7.4544106    45.269243  0.020614409  0.021548381            2 
  184000   0.98325746   -7.5066731    45.359645  0.020543317  0.021482598            4 
  185000   0.97732608   -7.5296276     45.43982  0.020468387  0.021417521            3 
  186000   0.97167656   -7.5426767    45.687574  0.020469343  0.021352789            6 
  187000    1.0015913   -7.5061993    45.739651  0.020383088  0.021288957            9 
  188000   0.97508678   -7.5834671    45.653983  0.020236695  0.021223175            2 
  189000   0.96350181   -7.5407911    45.750778  0.020172301  0.021156271            7 
  190000   0.95912204   -7.5739865    45.878094  0.020121971  0.021090309           16 
  191000   0.96301987   -7.5394053    46.219964  0.020165778  0.021025911            3 
  192000   0.98066762   -7.5684435    46.182547  0.020044508  0.020961678            6 
  193000   0.95402539   -7.5287025    46.597059  0.020119628  0.020898367            5 
  194000   0.95840976   -7.5852547     46.55987  0.019999944  0.020836902           15 
  195000    0.9362221   -7.5964847    46.770857  0.019987546  0.020775716            9 
  196000   0.94673079   -7.5627374    47.012664  0.019988377  0.020715164            7 
  197000   0.95288763   -7.5957915    46.965206  0.019866838  0.020653351            5 
  198000   0.96121234   -7.5747813    47.174086  0.019854413  0.020591227           12 
  199000   0.95745252   -7.5405817    47.332987  0.019821184  0.020530451            9 
  200000   0.97439201   -7.5789955    47.174985  0.019656244  0.020468322            6 
  201000   0.95699679   -7.5822578    47.416605  0.019658625  0.020404829           10 
  202000   0.92495243   -7.6259375    47.245998  0.019490923  0.020340496            8 
  203000   0.93399188   -7.5741778    47.369263   0.01944551  0.020275583            7 
  204000   0.93508296   -7.6247441    47.532323  0.019416799  0.020210551           10 
  205000    0.9316622   -7.6425648    47.544084  0.019326864  0.020145402            8 
  206000    0.9795489   -7.6366775    47.450163   0.01919505   0.02007913            8 
  207000   0.94755739   -7.6199164    47.783059  0.019236336  0.020012324            6 
  208000   0.93443411    -7.645358    47.662471  0.019095541  0.019945481            5 
  209000   0.95453326   -7.6254255    47.706441  0.019021707  0.019878034            7 
  210000   0.91577025   -7.6160663    47.805896  0.018970594  0.019810197           11 
  211000   0.92522803   -7.6526674    47.695611  0.018837129  0.019741407           11 
  212000    0.9500532   -7.6335605    47.916197  0.018834983  0.019672385           13 
  213000   0.91823944   -7.6294741     47.90387  0.018741733  0.019603999           22 
  214000   0.93702338   -7.6212317    47.937172  0.018667123  0.019535212            5 
  215000   0.92058962   -7.6677629    48.007727  0.018607646   0.01946598            4 
  216000    0.9146655   -7.6916846    47.979188  0.018510489  0.019396177            3 
  217000   0.91838812   -7.7009831    48.023621  0.018442251  0.019326145           12 
  218000   0.92132982   -7.6732214    48.030926  0.018360446  0.019255636           25 
  219000   0.93752789   -7.6928928    48.133258  0.018315547  0.019184422           20 
  220000   0.91946079   -7.7196508    48.237488  0.018271776  0.019113174            8 
  221000   0.91738178   -7.7016171    48.258496  0.018197019  0.019043149            8 
  222000    0.8946314   -7.7115626     48.40196  0.018168904  0.018972882            4 
  223000   0.92799332   -7.6872134    48.391114  0.018083376  0.018903125            5 
  224000   0.90206311   -7.7174648    48.483147  0.018036885  0.018833254           10 
  225000   0.90979856   -7.7007582    48.535982  0.017976289  0.018764316            6 
  226000   0.91453525   -7.7280143    48.638444   0.01793453  0.018695221            4 
  227000   0.90333053    -7.743287    48.624272   0.01785032  0.018625801            8 
  228000   0.89293447   -7.7338131    48.668646  0.017788248  0.018556739            6 
  229000   0.90670686   -7.7222291    48.791979  0.017755451  0.018487623            7 
  230000   0.92220718   -7.7291663    48.887139  0.017712731  0.018418924           12 
  231000   0.88170383   -7.6788643    49.004214  0.017678288  0.018350686            8 
  232000   0.90661447   -7.7540727    48.994756  0.017598691  0.018282633            9 
  233000   0.89588852   -7.7661509     49.01141  0.017529117  0.018214351           10 
  234000   0.89736622   -7.7538087    48.923508  0.017422902  0.018145829            6 
  235000   0.90513757   -7.7635755    49.135205  0.017423832  0.018077573            7 
  236000   0.90003937   -7.7711772    49.225663  0.017381943  0.018010333           10 
  237000   0.88088668    -7.805726    49.121507  0.017271978  0.017943286           16 
  238000   0.89406332   -7.7506419    49.264628  0.017249519  0.017875479            5 
  239000    0.8937146   -7.7955978    49.393783  0.017222379  0.017808455           23 
  240000   0.87913824   -7.7902291    49.338426  0.017131398  0.017741134           23 
  241000   0.89574811   -7.8094425    49.537187  0.017129041  0.017674635            9 
  242000   0.88889974    -7.814041    49.350253  0.016993889  0.017608123           23 
  243000   0.87657764   -7.7900175    49.553846  0.016993774  0.017541703           10 
  244000   0.86714556   -7.7879146    49.569453  0.016929458   0.01747575           14 
  245000    0.8695921   -7.7824341     49.83924  0.016952122  0.017410302            6 
  246000   0.87426998   -7.8124025    49.731511  0.016846718  0.017345183           22 
  247000   0.85067516   -7.8367264    49.594471  0.016732278  0.017279258           15 
  248000   0.87362342   -7.8272901    49.740553  0.016713895  0.017214258           13 
  249000   0.86600216    -7.839419    49.790703  0.016663555  0.017149986           21 
  250000   0.86270415   -7.8467156    49.965104  0.016655035  0.017085394            7 
  251000   0.85674471   -7.8423089    49.999937  0.016600245   0.01702108           11 
  252000   0.86177005   -7.8384412    49.990745  0.016531331  0.016956954            5 
  253000   0.83599314   -7.8648583    49.936083  0.016447985  0.016892389           11 
  254000   0.86884645   -7.8447965     49.92205  0.016378625  0.016827803           11 
  255000   0.85461502   -7.8838632    50.121172  0.016379468  0.016763658            7 
  256000   0.84963779   -7.8863921    50.136621  0.016320514  0.016699755           10 
  257000   0.87220512   -7.8745401    50.076023  0.016237362   0.01663625           10 
  258000   0.89435681   -7.8943187     50.22841  0.016223647  0.016572916           18 
  259000   0.84445925   -7.9054994     50.35871  0.016202931  0.016509986           15 
  260000   0.83603504   -7.9238669    50.253993  0.016107049   0.01644725           17 
  261000   0.85103719   -7.9143424    50.162853  0.016016237  0.016384348           15 
  262000   0.86584624   -7.9262853    50.295491  0.015997294  0.016321471            7 
  263000   0.85463175   -7.8975061    50.274858   0.01592993  0.016258761           15 
  264000   0.85871758   -7.9401696    50.250227  0.015861814  0.016195791            7 
  265000    0.8415879   -7.9461505    50.253305  0.015802926  0.016133306            7 
  266000   0.84002077   -7.9423576    50.344046  0.015771944  0.016070688           20 
  267000   0.83428596   -7.9157918    50.381964  0.015724708  0.016008259           17 
  268000   0.85223279   -7.8949924    50.253096  0.015625963  0.015946065            8 
  269000   0.84563524   -7.9337855    50.412092  0.015617129  0.015883883            5 
  270000   0.82610008   -7.9056085    50.558712  0.015604541  0.015822143            9 
  271000   0.83249466   -7.9540079    50.477686  0.015522044   0.01576089            5 
  272000   0.81150922   -7.9392987     50.60679  0.015504531  0.015700255            5 
  273000   0.83701988    -7.957712    50.460126  0.015402969   0.01563975           19 
  274000   0.83182943   -7.9861022    50.589841  0.015386205   0.01557903           17 
  275000   0.83854156   -7.9854213     50.63862  0.015345036  0.015519412            4 
  276000   0.80883788    -8.005417    50.651585  0.015293353  0.015459748           14 
  277000   0.81574639   -7.9762106    50.901889  0.015313444  0.015400777            9 
  278000   0.81211679   -7.9402863    50.926779  0.015265821  0.015342323           10 
  279000   0.83643359   -7.9851761     50.90122  0.015203471  0.015283716            9 
  280000   0.81544342   -7.9866862    50.949927  0.015163669  0.015224989           14 
  281000   0.81331611   -8.0023028    50.767258  0.015055533  0.015166767            8 
  282000   0.81385182   -8.0169613    50.876833  0.015034525   0.01510849            7 
  283000   0.82872184   -7.9709319    50.948095  0.015002384  0.015050249           10 
  284000   0.81984255   -8.0068334     50.91973  0.014941235  0.014992418           10 
  285000   0.78452811   -8.0146412    50.925878  0.014890607  0.014934402            8 
  286000    0.8074939   -8.0141012    50.986458  0.014856194  0.014876837           20 
  287000   0.81241265   -8.0332817     50.93284  0.014788862  0.014819882           17 
  288000   0.79478536   -8.0364898    51.110859  0.014789022  0.014763144           25 
  289000   0.79736077   -8.0442474    50.889453  0.014674006  0.014706912           13 
  290000   0.82339892   -8.0507363    51.083946  0.014679295  0.014650708            5 
  291000   0.80043969   -8.0344933    51.102333  0.014634116  0.014594718           10 
  292000   0.79739311   -8.0220847    51.065177  0.014573395  0.014538968           11 
  293000   0.80779322   -8.0389996     51.28212  0.014585358  0.014483522            6 
  294000   0.80483635   -8.0414272     51.29207  0.014538568  0.014428556           14 
  295000   0.80290489    -8.061855    51.130536  0.014443654  0.014373389           12 
  296000    0.7872633   -8.0307177    51.206612  0.014416276  0.014318399            6 
  297000   0.77947502   -8.0774921    51.058744  0.014326247  0.014263493           10 
  298000   0.79078243   -8.1118538    51.202781  0.014318451  0.014208524           18 
  299000   0.78309062   -8.1106477    51.226238  0.014277101  0.014153939           23 
  300000      0.79542   -8.0866769    51.306413  0.014251781  0.014099485           14 
  301000   0.79527821   -8.0790558    51.259241  0.014191374  0.014045176           15 
  302000   0.79972005   -8.0923401    51.328231  0.014163419  0.013991006           19 
  303000   0.80132306   -8.1034155    51.244055  0.014093525  0.013937269           33 
  304000   0.78229131   -8.0933333     51.30121  0.014062832  0.013883691           22 
  305000   0.79000174   -8.1453779    51.229257  0.013997065  0.013830305           22 
  306000   0.79085052   -8.1193083    51.286566   0.01396693  0.013777181           20 
  307000   0.76210814   -8.1104231    51.542774  0.013990981  0.013724411           25 
  308000   0.78008177   -8.1008688    51.417609  0.013911691  0.013671946           26 
  309000   0.78940541   -8.1326457    51.300243  0.013835017  0.013619279           14 
  310000   0.78030056   -8.1572234    51.289887  0.013787604  0.013566715           19 
  311000   0.74976027   -8.1500747    51.333851  0.013755051  0.013514273           26 
  312000   0.77769152   -8.1589664    51.414782  0.013732581  0.013462046           36 
  313000    0.7656848    -8.181876    51.261113  0.013647794  0.013409969           18 
  314000   0.76086615   -8.1584534    51.427269  0.013648426  0.013358023           20 
  315000   0.78667295   -8.1756394      51.4479  0.013610555  0.013306529           16 
  316000   0.76604161   -8.1826401    51.474103  0.013574394  0.013255131           45 
  317000   0.76988382   -8.1517083    51.332727  0.013494408   0.01320366           40 
  318000     0.763305   -8.1829521    51.437602  0.013479455  0.013152521           59 
  319000   0.74833684   -8.1999322    51.431724  0.013435665  0.013101713           47 
  320000    0.7469813   -8.1667423    51.552514  0.013425134  0.013051048           21 
  321000   0.77514137   -8.2053675    51.407863  0.013345759  0.013000647           45 
  322000    0.7563976   -8.1883305    51.410573  0.013305014  0.012950362           55 
  323000   0.76785176    -8.217381    51.408732  0.013263347  0.012900296           49 
  324000   0.74592228   -8.1841228    51.442266  0.013231035  0.012850375           32 
  325000   0.73831376    -8.220882    51.520744  0.013210447  0.012800701           64 
  326000   0.74253041   -8.2212877    51.476423  0.013158595  0.012751019           49 
  327000   0.75300362   -8.2281602    51.359021  0.013088435  0.012701497           65 
  328000   0.75967564   -8.2221075    51.394388  0.013057517  0.012652178           67 
  329000   0.70954834   -8.2511629    51.243647  0.012979647   0.01260281           58 
  330000   0.73791522    -8.236187    51.264195  0.012945504  0.012553363           42 
  331000   0.75106933   -8.2459404    51.325733  0.012921886  0.012504219           62 
  332000   0.75605306    -8.215759    51.315008  0.012880273  0.012455298           91 
  333000   0.73715914   -8.2506061      51.3802  0.012857908  0.012406476           75 
  334000   0.73948844   -8.2563674    51.358716  0.012814051   0.01235822           48 
  335000   0.73248221   -8.2552434    51.455969  0.012799992  0.012309831           65 
  336000   0.71565876     -8.27716    51.307848  0.012725161   0.01226186           92 
  337000    0.7332658   -8.2842427    51.377926   0.01270473  0.012213678           73 
  338000   0.73535129   -8.3042863    51.216039  0.012627228  0.012165844           55 
  339000   0.72211882    -8.304131    51.173585  0.012579544  0.012117914           39 
  340000   0.73864728   -8.3000997    51.356129  0.012587287  0.012070202           63 
  341000   0.72960619   -8.3029101    51.279781  0.012531716  0.012022801           55 
  342000   0.71072448   -8.3026314    51.310004  0.012502438  0.011975534           71 
  343000    0.7228934   -8.3039379    51.223467  0.012444963  0.011928377           67 
  344000   0.72301313   -8.3129671    51.258667  0.012417313   0.01188134           75 
  345000   0.72863345   -8.2898614    51.416962  0.012419556  0.011834798           93 
  346000   0.71256434   -8.2903533    51.379699  0.012374687   0.01178851           73 
  347000   0.71854694   -8.3131979    51.414467  0.012347374  0.011742409           80 
  348000   0.71558769   -8.3490561    51.339676  0.012293984  0.011696476           71 
  349000   0.71542376   -8.3269964    51.330694  0.012256613  0.011650907           68 
  350000   0.71539116   -8.3159657      51.3994  0.012237952  0.011605585           73 
  351000   0.71122557   -8.3294394    51.371385  0.012196435  0.011560458           81 
  352000   0.70746148   -8.3415393    51.487292  0.012189226  0.011515584           78 
  353000   0.70686321   -8.3391319    51.298619  0.012110156  0.011470865          129 
  354000   0.69912112   -8.3127938     51.41943  0.012104386  0.011426376          122 
  355000   0.68119806   -8.3339279    51.416481  0.012069596  0.011381987          135 
  356000   0.69975885   -8.3508866    51.235585  0.011993349  0.011337669          133 
  357000    0.7034647   -8.3450184    51.360506  0.011988914  0.011293641          122 
  358000   0.69788881   -8.3639577    51.492564  0.011986165   0.01124984          180 
  359000    0.7054051   -8.3704818    51.429394  0.011938114  0.011206353          112 
  360000   0.70300089   -8.3751226    51.312571   0.01187791  0.011163069           93 
  361000   0.67711027   -8.3578345    51.422742  0.011870439  0.011119804          134 
  362000   0.68323711   -8.3570012    51.422131  0.011837507  0.011076945          173 
  363000   0.68393036   -8.3632024    51.404929  0.011800948  0.011034303          134 
  364000   0.68779278   -8.3938381    51.421082  0.011772226  0.010991743          135 
  365000   0.67601742   -8.3927469    51.218528  0.011693728  0.010949288          111 
  366000   0.68190008   -8.3957409    51.307673  0.011682075  0.010907058          111 
  367000   0.68371913   -8.3880678     51.28408  0.011644886  0.010864833           98 
  368000   0.67569733   -8.4214216    51.310812  0.011619296  0.010822696          157 
  369000   0.70242549    -8.418314    51.337262  0.011593781  0.010780804          172 
  370000   0.67240463    -8.409039    51.309878  0.011556279  0.010739108          160 
  371000   0.67828377   -8.4292459    51.267199  0.011515543   0.01069751          160 
  372000   0.67164498   -8.4138802    51.361923  0.011505807  0.010655997          109 
  373000   0.66859349   -8.4159882      51.2916  0.011459249  0.010614873          125 
  374000   0.67753652    -8.415084    51.294934  0.011429352   0.01057385          157 
  375000   0.64880016    -8.446217     51.22285  0.011382856   0.01053285          149 
  376000   0.66633737   -8.4140589    51.269745  0.011362975  0.010492031          158 
  377000   0.66069492   -8.4621167    51.223615  0.011322638    0.0104514          103 
  378000   0.66464121   -8.4512846    51.235909  0.011295394  0.010411105          105 
  379000   0.66456573   -8.4358888    51.291409  0.011277794  0.010370988          119 
  380000   0.65721105   -8.4465842    51.259062  0.011241022  0.010331063          102 
  381000   0.66586272   -8.4466408     51.33173  0.011227412  0.010291229          111 
  382000   0.66726371   -8.4562028    51.228625  0.011175529  0.010251603          174 
  383000    0.6522758   -8.4465608    51.227796   0.01114617  0.010212101          103 
  384000   0.64716497   -8.4498867    51.259027  0.011123921  0.010172726          100 
  385000   0.65436895   -8.4739366    51.222841  0.011087195  0.010133515           92 
  386000   0.65173231   -8.4793828    51.379308  0.011092251  0.010094569           79 
  387000   0.65319428   -8.4660788     51.21135  0.011027422  0.010055799           80 
  388000     0.658041   -8.4970002    51.145247  0.010984804  0.010017284           73 
  389000   0.64641424   -8.5052017    51.126927  0.010952641 0.0099788695          103 
  390000   0.65490236   -8.4853618     51.14842   0.01092915 0.0099406064          126 
  391000   0.65876122   -8.4571583    51.228646  0.010918296 0.0099025331           90 
  392000   0.62975263   -8.4870911    51.104205  0.010863989 0.0098646892          149 
  393000   0.63925139   -8.4981254    51.158803  0.010847923 0.0098269218          109 
  394000   0.63687629   -8.5010869    51.147695   0.01081804 0.0097895128          111 
  395000   0.62164199   -8.5013045    51.126417  0.010786164 0.0097521166           84 
  396000   0.65193031   -8.4993756     51.14928  0.010763737 0.0097148121          160 
  397000   0.62526051   -8.5135376    51.278642  0.010763779  0.009677666           83 
  398000   0.62289203   -8.5265756    51.124994  0.010704563 0.0096407851          100 
  399000   0.61258292   -8.5153894    51.144968  0.010681906 0.0096039338          130 
  400000    0.6299497   -8.5281095    51.140302   0.01065423  0.009567319          304 
  401000   0.63066127   -8.5154492    51.176712  0.010635227 0.0095308468          169 
  402000   0.63114199   -8.5120696    51.217409  0.010617207 0.0094945831          109 
  403000   0.62707066   -8.5262983     51.13763  0.010574365 0.0094586441          195 
  404000    0.6118955   -8.5169002     51.09439  0.010539272  0.009422671          115 
  405000   0.61455989   -8.5502064    51.101437  0.010514699 0.0093868967          132 
  406000   0.63676493   -8.5614487    51.098422  0.010488182 0.0093513186          251 
  407000   0.60838496   -8.5321846      51.1005  0.010462838 0.0093159073          138 
  408000   0.61306133   -8.5428291    51.121381  0.010441459 0.0092806855          131 
  409000   0.61025465   -8.5710018    51.093018   0.01041015 0.0092455717          194 
  410000   0.60196037   -8.5436632    51.019556  0.010369829 0.0092105549          125 
  411000   0.60787274   -8.5375762    51.134236   0.01036785 0.0091756833          140 
  412000   0.59755999   -8.5587708     51.12703  0.010341228 0.0091410114          134 
  413000   0.60619909   -8.5776395     51.06939  0.010304558 0.0091065621          125 
  414000   0.60362867   -8.5507218    51.084425  0.010282694 0.0090722669          166 
  415000   0.59856691   -8.5657585    51.058904  0.010252792 0.0090380227          207 
  416000   0.59988206   -8.5713371    51.094043  0.010235185 0.0090039695           98 
  417000   0.60449248    -8.552407    51.010129  0.010193871 0.0089700815          152 
  418000   0.60611916   -8.5856939    51.090756  0.010185557 0.0089363963          115 
  419000   0.61189537   -8.5875168    51.048998  0.010152943 0.0089028081          251 
  420000   0.59678605   -8.5903754    51.082779  0.010135472 0.0088693243           91 
  421000    0.5923492   -8.5898117    50.979291  0.010090913 0.0088360178          240 
  422000   0.60074046   -8.6029011    51.007865  0.010072643 0.0088028941          206 
  423000   0.57752076   -8.5768652    50.989288  0.010045171 0.0087699905          185 
  424000   0.58541089   -8.5812665    51.038715  0.010031194  0.008737182          144 
  425000   0.57908273   -8.6004265    50.980572 0.0099961906 0.0087045087          108 
  426000   0.58144233   -8.5985715    50.965869 0.0099698491 0.0086720079          220 
  427000   0.59092375   -8.6003206     51.05991 0.0099648536 0.0086396514          154 
  428000   0.57503251   -8.6183573    50.872446 0.0099050712 0.0086073686          404 
  429000   0.57356735   -8.5816292    50.963832 0.0098997342 0.0085752651          315 
  430000   0.58077309   -8.6117357     50.88885 0.0098621802  0.008543342          232 
  431000   0.58415282   -8.6069517     50.91737 0.0098448124 0.0085115857          216 
  432000   0.58064176   -8.6002918    50.840004 0.0098070996  0.008479942          410 
  433000   0.56989447   -8.6280278    50.885865 0.0097932765  0.008448509          295 
  434000   0.57053495   -8.6280814    50.892335 0.0097719538 0.0084170972          387 
  435000   0.56344301   -8.6236092    50.877688 0.0097466836 0.0083859187          248 
  436000   0.58182002   -8.6315083    51.015832 0.0097507325 0.0083548626          240 
  437000   0.58168975   -8.6246044    50.950022 0.0097158699  0.008324038          285 
  438000   0.56903728   -8.6313079    50.934069 0.0096906525 0.0082933089          158 
  439000    0.5708966   -8.6454053    50.938322 0.0096693854 0.0082627647          247 
  440000   0.56352898   -8.6475468    50.987099 0.0096566475 0.0082323243          318 
  441000   0.56797147   -8.6600677    50.993343 0.0096359302 0.0082020152          222 
  442000   0.57630138   -8.6486685    50.877202 0.0095922327 0.0081718453          170 
  443000   0.56891775   -8.6100897    50.946198 0.0095835586 0.0081418342          179 
  444000   0.55873945   -8.6432967     50.94799 0.0095623104 0.0081119318          204 
  445000    0.5530719   -8.6494637    50.918359 0.0095352732 0.0080822178          375 
  446000   0.56300865   -8.6437689    50.848488 0.0095008385 0.0080525747          427 
  447000   0.56236197   -8.6590987     50.83361 0.0094768102 0.0080231184          240 
  448000   0.54275175   -8.6771743    50.890992 0.0094663304  0.007993778          244 
  449000   0.55274569   -8.6542043    50.862465 0.0094399527 0.0079645692          254 
  450000   0.56351581   -8.6753294    50.895979 0.0094251813  0.007935505          327 
  451000   0.54164758   -8.6654344    50.860545 0.0093977356  0.007906545          191 
  452000   0.53912841    -8.680062    50.853717 0.0093756854 0.0078777176          243 
  453000   0.54812476   -8.6774375    50.897387 0.0093630219 0.0078490569          236 
  454000   0.53307174   -8.6719447    50.836585 0.0093312381 0.0078204429          310 
  455000   0.54459781   -8.6811626    50.885662 0.0093197182 0.0077919511          170 
  456000   0.52631612   -8.6938882    50.780355 0.0092800356   0.00776361          233 
  457000   0.54961289   -8.6809245    50.725706  0.009249764 0.0077354934          313 
  458000    0.5454791   -8.6937212    50.764662 0.0092366561 0.0077074237          287 
  459000   0.54113407   -8.6838992    50.814049  0.009225499 0.0076795217          400 
  460000   0.54222711   -8.6986819    50.806634 0.0092041004 0.0076516929          387 
  461000   0.53460415   -8.6927127    50.785288 0.0091802761 0.0076239805          197 
  462000   0.52518022   -8.6927772    50.700187 0.0091450554 0.0075963909          235 
  463000   0.52327462   -8.7051732    50.697408 0.0091248034 0.0075689109          458 
  464000   0.52698544   -8.7165557     50.74526 0.0091137321 0.0075415192          309 
  465000   0.52995526     -8.71861    50.726903 0.0090908429 0.0075143403          352 
  466000    0.5092805    -8.713469    50.736474 0.0090730461 0.0074872983          324 
  467000   0.52105744   -8.7099157    50.762298 0.0090582259 0.0074604065          316 
  468000   0.51588029   -8.7048181    50.751178 0.0090368906 0.0074336333          263 
  469000   0.51951534   -8.7179644     50.84504 0.0090342999 0.0074069359          525 
  470000   0.51391339   -8.7107565    50.702439 0.0089897942 0.0073804044          432 
  471000   0.51281608    -8.712326    50.751433  0.008979376 0.0073539151          260 
  472000   0.51660195    -8.737366    50.752514 0.0089605427 0.0073276015          333 
  473000    0.5232788   -8.7424655    50.729373 0.0089375217 0.0073014272          444 
  474000   0.50292498   -8.7443614    50.669344 0.0089081125 0.0072753358          235 
  475000   0.49633875    -8.739014     50.66671 0.0088888964 0.0072493843          233 
  476000   0.49340345    -8.742221    50.723885 0.0088802319 0.0072235229          180 
  477000   0.51733728   -8.7465729     50.72105 0.0088611199  0.007197857          242 
  478000   0.50915912    -8.745154     50.69111 0.0088373623 0.0071722479          180 
  479000   0.50753139   -8.7497074    50.687646   0.00881831 0.0071467052          248 
  480000   0.50187653     -8.76449    50.695995  0.008801388 0.0071213258          296 
  481000   0.48109672   -8.7371049    50.705637 0.0087847604 0.0070960781          190 
  482000    0.4994215   -8.7517373    50.618044 0.0087513908 0.0070709532          513 
  483000   0.49093861   -8.7548416    50.687697 0.0087452894 0.0070459314          546 
  484000   0.49134899   -8.7706322    50.673758 0.0087248206 0.0070210362          365 
  485000   0.49275252   -8.7587258    50.627248 0.0086988398 0.0069962849          183 
  486000   0.48762712   -8.7463562    50.636846 0.0086825868 0.0069716128          212 
  487000   0.49639223   -8.7572067     50.60975 0.0086601214 0.0069470509          436 
  488000   0.49567658   -8.7734918    50.593094 0.0086395311 0.0069225978          498 
  489000    0.4818352   -8.7736934    50.551345 0.0086147486 0.0068982244          197 
  490000   0.48361847   -8.7787138    50.648907 0.0086137598 0.0068739878          237 
  491000   0.48620502   -8.7646216    50.590896 0.0085863707 0.0068498768          390 
  492000   0.48059796   -8.7759789    50.608818 0.0085719543 0.0068258377          240 
  493000   0.48068833   -8.7942714    50.581043  0.008549872 0.0068018974          246 
  494000   0.48071574   -8.7723875    50.562365 0.0085294137 0.0067780609          300 
  495000   0.47795281   -8.7831569    50.575072 0.0085143219 0.0067543561          580 
  496000   0.46785429   -8.7849264    50.553231 0.0084934863 0.0067307552          411 
  497000   0.47610946   -8.8103798    50.649319 0.0084925082 0.0067072893          613 
  498000   0.46869499   -8.7989032    50.511668  0.008452421 0.0066839088          426 
  499000   0.47643309   -8.7994024    50.528773 0.0084383388 0.0066606545          219 
  500000   0.47139143   -8.7935917    50.539612 0.0084232686 0.0066374962          219 
  501000   0.46823376    -8.804688    50.521749 0.0084034845 0.0066144307          349 
  502000   0.46742924   -8.7934009    50.533965 0.0083887724 0.0065915148          268 
  503000    0.4719402   -8.8046971    50.523407 0.0083703457 0.0065686782          396 
  504000   0.45361099   -8.8254221    50.570325 0.0083614956 0.0065459397          242 
  505000    0.4540485   -8.8181089     50.53085 0.0083384241 0.0065233059          238 
  506000   0.45743453   -8.8211579    50.562526 0.0083271617 0.0065007717          469 
  507000   0.45079266   -8.8183832    50.576835 0.0083130892 0.0064783432          303 
  508000   0.45197607   -8.8246377    50.497268 0.0082836726 0.0064560405          228 
  509000    0.4547652   -8.8281251    50.503234  0.008268375 0.0064338015          295 
  510000   0.45409842   -8.8169328    50.511736 0.0082535516 0.0064117024          162 
  511000   0.47075708   -8.7968124    50.459365 0.0082288593 0.0063896295          238 
  512000   0.44780024    -8.816481    50.481361 0.0082163674 0.0063677192          380 
Loop time of 1306.04 on 48 procs for 500000 steps with 4000 atoms

Performance: 66154.027 tau/day, 382.836 timesteps/s
99.4% CPU use with 48 MPI tasks x no OpenMP threads

MPI task timing breakdown:
Section |  min time  |  avg time  |  max time  |%varavg| %total
---------------------------------------------------------------
Pair    | 93.504     | 99.86      | 104.63     |  26.4 |  7.65
Neigh   | 9.1061     | 9.3921     | 9.7393     |   4.8 |  0.72
Comm    | 83.821     | 88.781     | 96.617     |  30.3 |  6.80
Output  | 0.97614    | 0.97693    | 1.0016     |   0.4 |  0.07
Modify  | 1091.9     | 1095.3     | 1099.2     |   5.0 | 83.87
Other   |            | 11.69      |            |       |  0.89

Nlocal:        83.3333 ave          88 max          79 min
Histogram: 5 3 3 5 7 10 5 6 2 2
Nghost:        2402.08 ave        2419 max        2388 min
Histogram: 1 3 6 12 9 6 4 5 1 1
Neighs:        16535.2 ave       18761 max       14499 min
Histogram: 4 4 9 3 5 6 6 2 6 3
FullNghs:      33070.3 ave       35108 max       31098 min
Histogram: 5 3 4 4 6 11 4 5 3 3

Total # of neighbors = 1587376
Ave neighs/atom = 396.84400
Neighbor list builds = 26606
Dangerous builds = 0

#clear
#
#next RN
#
#jump SELF
Total wall time: 0:21:49
