
units lj                  # Use reduced LJ style units
atom_style atomic         # Uncharged point particles
atom_modify map hash      # Needed for indexing of clusters etc
                          # Used to be able to find where atoms are in relation to each other.

lattice fcc 1.0 spacing 1 1 1
Lattice spacing in x,y,z = 1.5874011 1.5874011 1.5874011
region box block 0 10 0 10 0 10 units lattice
create_box 2 box
Created orthogonal box = (0.0000000 0.0000000 0.0000000) to (15.874011 15.874011 15.874011)
  3 by 4 by 4 MPI processor grid
create_atoms 1 box
Created 4000 atoms
  using lattice units in orthogonal box = (0.0000000 0.0000000 0.0000000) to (15.874011 15.874011 15.874011)
  create_atoms CPU = 0.031 seconds
set type 1 type/fraction 2 0.64 78393
Setting atom values ...
  2566 settings made for type/fraction
mass 1 1.0
mass 2 1.0
pair_style lj/cut  3.5
pair_modify tail  yes
pair_coeff 1  1  1.0  1.0   # Intearaction between 1 and 1 set with epsilon = 1 and sigma = 1
pair_coeff 1  2  1.5  0.8
pair_coeff 2  2  0.5  0.88

write_data data.0
System init for write_data ...
Neighbor list info ...
  update every 1 steps, delay 10 steps, check yes
  max neighbors/atom: 2000, page size: 100000
  master list distance cutoff = 3.8
  ghost atom cutoff = 3.8
  binsize = 1.9, bins = 9 9 9
  1 neighbor lists, perpetual/occasional/extra = 1 0 0
  (1) pair lj/cut, perpetual
      attributes: half, newton on
      pair build: half/bin/atomonly/newton
      stencil: half/bin/3d
      bin: standard
WARNING: Not all mixed pair coeffs generated from mixing. Use write_data with 'pair ij' option to store all pair coeffs. (../write_data.cpp:312)


#############################
#   M E L T   S Y S T E M   #
#############################

velocity all create 2.4 9580093 mom yes dist gaussian # Assign velocities
                                                    # Temperature 2.4, random number seed, zero linear momentum
                                                                                # Gaussian distribution

timestep 0.002   # simulation timestep
thermo 1000       # output thermodynamic data every 1000 steps bf 100

# Define a fix  in this case with index 1 applied to all
# particles in the simulation. This fix is for simulations
# in the anisotropic NPT ensemble. Note that we use the MTK
# correction.
fix 1 all npt temp 2.4 2.4 0.1 iso 5.68 5.68 0.5 mtk yes tchain 5 pchain 5 # Use NPT ensemble
                                                                         # Set temperature and pressure and damping
                                                                         # Numbers of thermostats in chain and in barostat
run 10000          # run for 10000 steps
Per MPI rank memory allocation (min/avg/max) = 3.642 | 3.644 | 3.648 Mbytes
Step Temp E_pair E_mol TotEng Press Volume 
       0          2.4   -4.5154638            0  -0.91636384   -3.9779215         4000 
    1000    2.4085865   -4.2884448            0  -0.67646826    5.4451793    3615.4613 
    2000    2.4239162    -4.262111            0  -0.62714578    6.0610492    3576.6002 
    3000    2.3807495   -4.2056414            0  -0.63540986    5.2766326    3661.9635 
    4000     2.365692   -4.2298195            0  -0.68216861    5.4384374    3644.2535 
    5000    2.3806316   -4.2685764            0  -0.69852173    5.8622388     3581.384 
    6000    2.4851136   -4.2304855            0  -0.50374696    5.9026901    3622.6646 
    7000    2.3650571    -4.242256            0  -0.69555719    5.3915392    3643.1348 
    8000    2.3890069   -4.2428159            0  -0.66020148    5.6607206    3615.8583 
    9000    2.3715766   -4.2834175            0  -0.72694194    5.9017076    3573.4836 
   10000    2.3603951   -4.2208708            0  -0.68116336    5.6857303    3623.7786 
Loop time of 2.64103 on 48 procs for 10000 steps with 4000 atoms

Performance: 654289.697 tau/day, 3786.399 timesteps/s
99.6% CPU use with 48 MPI tasks x no OpenMP threads

MPI task timing breakdown:
Section |  min time  |  avg time  |  max time  |%varavg| %total
---------------------------------------------------------------
Pair    | 1.1595     | 1.2674     | 1.4403     |   3.7 | 47.99
Neigh   | 0.21343    | 0.22338    | 0.25247    |   1.3 |  8.46
Comm    | 0.71912    | 0.89088    | 1.0453     |   6.2 | 33.73
Output  | 0.00023827 | 0.00024276 | 0.0003068  |   0.0 |  0.01
Modify  | 0.20209    | 0.24362    | 0.29791    |   6.3 |  9.22
Other   |            | 0.01548    |            |       |  0.59

Nlocal:        83.3333 ave          96 max          74 min
Histogram: 3 3 7 6 12 9 4 3 0 1
Nghost:        1749.58 ave        1785 max        1721 min
Histogram: 3 2 6 10 7 12 2 3 1 2
Neighs:        10535.5 ave       11916 max        9288 min
Histogram: 4 5 4 4 6 9 6 6 3 1

Total # of neighbors = 505706
Ave neighs/atom = 126.42650
Neighbor list builds = 904
Dangerous builds = 188

# Equilibrate just above the melting temperature to avoid step fn in T

fix 1 all npt temp 1.25 1.25 0.1 iso 5.68 5.68 0.5 mtk yes tchain 5 pchain 5
run 2000
Per MPI rank memory allocation (min/avg/max) = 3.644 | 3.646 | 3.650 Mbytes
Step Temp E_pair E_mol TotEng Press Volume 
   10000    2.3603951   -4.2208708            0  -0.68116336    5.6857303    3623.7786 
   11000    1.2437465   -6.2158254            0   -4.3506721    5.6471142    2766.6757 
   12000    1.2481901   -6.2699608            0   -4.3981437    5.8923387    2747.5226 
Loop time of 0.660178 on 48 procs for 2000 steps with 4000 atoms

Performance: 523495.467 tau/day, 3029.488 timesteps/s
99.7% CPU use with 48 MPI tasks x no OpenMP threads

MPI task timing breakdown:
Section |  min time  |  avg time  |  max time  |%varavg| %total
---------------------------------------------------------------
Pair    | 0.30084    | 0.32287    | 0.36834    |   2.6 | 48.91
Neigh   | 0.040868   | 0.043303   | 0.048614   |   0.8 |  6.56
Comm    | 0.19819    | 0.24606    | 0.27185    |   3.3 | 37.27
Output  | 5.2351e-05 | 5.4119e-05 | 6.8348e-05 |   0.0 |  0.01
Modify  | 0.039478   | 0.043107   | 0.046499   |   0.9 |  6.53
Other   |            | 0.004784   |            |       |  0.72

Nlocal:        83.3333 ave          92 max          77 min
Histogram: 3 5 9 5 7 6 7 3 0 3
Nghost:        2119.56 ave        2138 max        2103 min
Histogram: 2 2 7 8 10 3 6 5 3 2
Neighs:        13864.5 ave       15862 max       12411 min
Histogram: 3 5 11 5 5 7 7 2 2 1

Total # of neighbors = 665497
Ave neighs/atom = 166.37425
Neighbor list builds = 142
Dangerous builds = 8

#############################
# L I N E A R  Q U E N C H  #
#############################

# Define solid atoms. This closely follows ten Wolde  Ruiz-Montero and Frenkel  Faraday Discuss  1996  104  93-110
# Compute components of the per-atom q6 vector
compute q6 all orientorder/atom degrees 1 6 components 6 nnn NULL cutoff 1.3 # compute the Q6 parameter.
                                                                             # Use all neighbours within 1.3 unit cell.

# get number of connections
compute coord_number all coord/atom orientorder q6 0.5

# An atom is solid if it has 8 or more connections (of a possible 14)
variable is_solid atom c_coord_number>=8
group solid dynamic all var is_solid    # Must be dynamic to update
dynamic group solid defined

# do clustering
compute cluster solid cluster/atom 1.3 # Create a cluster where all atoms within are solid and max 1.3 units from another member

# define chunks one chunk per cluster
compute clus_chunks solid chunk/atom c_cluster nchunk every compress yes  # Says which atoms are in which chunk

# count the size of each chunk
compute size_chunks solid property/chunk clus_chunks count


# Find the maximum entry in the vector of chunk sizes
variable max_n equal max(c_size_chunks)


# Thermo style which includes this variable
# thermo_style custom step temp pe vol v_max_n

thermo ${N}  # Print the thermo information every 100 steps
thermo 1000  

# Reset the npt fix at a lower temperature (below freezing)
fix 1  all npt temp  ${temp} ${temp}  0.1  iso  5.68  5.68  0.5  mtk yes tchain  5  pchain  5
fix 1  all npt temp  0.45 ${temp}  0.1  iso  5.68  5.68  0.5  mtk yes tchain  5  pchain  5
fix 1  all npt temp  0.45 0.45  0.1  iso  5.68  5.68  0.5  mtk yes tchain  5  pchain  5

dump dmp2 all dcd ${N} traj.dcd
dump dmp2 all dcd 1000 traj.dcd


compute msd all msd com yes
variable twopoint equal c_msd[4]/6/(step*dt+1.0e-6)
fix 9 all vector 10 c_msd[4]
variable fit equal slope(f_9)/6/(10*dt)
thermo_style custom step temp pe c_msd[4] v_twopoint v_fit v_max_n

fix 1 all npt temp 1.25 ${temp} 0.1 iso 5.68 5.68 0.5 mtk yes tchain 5 pchain 5
fix 1 all npt temp 1.25 0.45 0.1 iso 5.68 5.68 0.5 mtk yes tchain 5 pchain 5
run 5000000 # 5000000  # Run for this many steps
Neighbor list info ...
  update every 1 steps, delay 10 steps, check yes
  max neighbors/atom: 2000, page size: 100000
  master list distance cutoff = 3.8
  ghost atom cutoff = 3.8
  binsize = 1.9, bins = 8 8 8
  4 neighbor lists, perpetual/occasional/extra = 1 3 0
  (1) pair lj/cut, perpetual
      attributes: half, newton on
      pair build: half/bin/atomonly/newton
      stencil: half/bin/3d
      bin: standard
  (2) compute orientorder/atom, occasional
      attributes: full, newton on
      pair build: full/bin/atomonly
      stencil: full/bin/3d
      bin: standard
  (3) compute coord/atom, occasional
      attributes: full, newton on
      pair build: full/bin/atomonly
      stencil: full/bin/3d
      bin: standard
  (4) compute cluster/atom, occasional
      attributes: full, newton on
      pair build: full/bin/atomonly
      stencil: full/bin/3d
      bin: standard
Per MPI rank memory allocation (min/avg/max) = 9.848 | 9.853 | 9.858 Mbytes
Step Temp PotEng c_msd[4] v_twopoint v_fit v_max_n 
   12000    1.2481901   -6.2699608 1.8510621e-30 1.2854597e-32 8.3333333e+20            7 
   13000    1.2598273   -6.3154937   0.52165716 0.0033439561  0.043336841            4 
   14000    1.2398678   -6.2945789   0.98619778 0.0058702246  0.040312006            2 
   15000    1.2516618    -6.294174    1.4729334 0.0081829633  0.040285485            2 
   16000    1.2442375   -6.3369945    1.9606376  0.010211654  0.040272018            2 
   17000    1.2556877   -6.3128955    2.4540957   0.01202988  0.040496227            5 
   18000    1.2312684   -6.3415551    2.9320572  0.013574339  0.040420573            3 
   19000     1.261664   -6.3476937    3.4202083  0.015000913  0.040344801            5 
   20000    1.2511248   -6.2804557    3.8773673  0.016155697  0.040273156            2 
   21000    1.2635869   -6.2954667    4.4315903  0.017585675  0.040326056            1 
   22000    1.2781418   -6.3297429    4.9712786    0.0188306  0.040651377            2 
   23000    1.2671514   -6.3129553      5.51179  0.019970253  0.041149298            1 
   24000    1.2539015   -6.2702826    6.1042244  0.021195223  0.041530375            1 
   25000    1.2327706   -6.3282654    6.6017698  0.022005899  0.041910177            3 
   26000    1.2308791   -6.3326733    7.0822175  0.022699415  0.042134911            2 
   27000    1.2250538   -6.2692446    7.5252213  0.023225991  0.042173836            2 
   28000    1.2381085   -6.3504728    7.9490048  0.023657752    0.0420685            4 
   29000    1.2374398   -6.3215377    8.4659975  0.024327579  0.041971049            4 
   30000    1.2474135   -6.3748604    8.9451462  0.024847628  0.041903232            2 
   31000    1.2330859   -6.2916746    9.4336165  0.025359184  0.041819066            5 
   32000    1.2165469   -6.3034607    9.8619123  0.025682063  0.041661191            3 
   33000    1.2208837   -6.3248224    10.333988   0.02609593  0.041497045            1 
   34000    1.2389658   -6.2903776     10.74319  0.026331347  0.041322508            1 
   35000     1.233725   -6.3484127    11.153661  0.026556335  0.041149774            1 
   36000    1.2622604   -6.3130939    11.718238   0.02712555   0.04099677            3 
   37000    1.2535482   -6.2964061     12.33453  0.027780472  0.040925615            2 
   38000     1.254418   -6.3759807    12.785939   0.02803934  0.040923943            2 
   39000    1.2586057   -6.3445317    13.257406   0.02832779  0.040922448            2 
   40000    1.2438009   -6.3174253     13.79003   0.02872923  0.040916231            2 
   41000    1.2526394   -6.3594821    14.233726  0.028930337  0.040899628            3 
   42000     1.255108   -6.3679557    14.522481  0.028814446  0.040851934            2 
   43000    1.2291688   -6.3142534    15.134004  0.029329465   0.04077979            2 
   44000    1.2535889   -6.3253873    15.539721  0.029431289  0.040705596            2 
   45000    1.2391531   -6.2802803    16.172058  0.029948255   0.04067224            2 
   46000    1.2266837   -6.3978884    16.616162  0.030101743  0.040679465            8 
   47000    1.2051888   -6.3218631    17.282529  0.030642781   0.04069855            6 
   48000    1.2381291    -6.290615    17.875755  0.031034296  0.040756856            3 
   49000    1.2345106   -6.3447761    18.334912  0.031181822  0.040827005            3 
   50000    1.2127639   -6.3519123    18.782078  0.031303463  0.040856261            2 
   51000    1.2259259    -6.350777    19.260067  0.031470698  0.040885293            2 
   52000    1.2578258   -6.3856678    19.867539  0.031839005  0.040935052            2 
   53000    1.2324933   -6.3182245    20.349729  0.031996429  0.040992102            2 
   54000    1.2361671   -6.3169255    20.796204  0.032092907  0.041056227            2 
   55000    1.2352776    -6.312199    21.344803   0.03234061  0.041083245            2 
   56000    1.2396617   -6.3080663    21.990238  0.032723568  0.041136214            4 
   57000    1.2330573   -6.3263612     22.36871  0.032702792  0.041164378            1 
   58000    1.2636567   -6.3283439    22.941754   0.03296229  0.041200741            3 
   59000    1.2126563   -6.2837807    23.731813  0.033519509  0.041268861            3 
   60000    1.2269028   -6.2993945    24.239701  0.033666251  0.041370408            2 
   61000    1.2303009   -6.3187541    24.590539  0.033593632  0.041434814            3 
   62000    1.2412511   -6.3093431    25.073349  0.033700738  0.041486022            2 
   63000    1.2416204   -6.3024875    25.490114  0.033717082  0.041504621            5 
   64000    1.2620326   -6.3229761    26.037644  0.033903182  0.041514607            3 
   65000    1.2425624   -6.3203496    26.677529   0.03420196  0.041563084            5 
   66000    1.2337733   -6.2578575    27.253729  0.034411274  0.041606616            6 
   67000    1.2373369   -6.3409402    27.757928  0.034524786  0.041670014            2 
   68000    1.2494326   -6.3026292       28.252  0.034622548  0.041723748            2 
   69000    1.2163754   -6.2946817    28.790667  0.034771337  0.041772907            3 
   70000    1.2431425   -6.3592045     29.28936  0.034868286  0.041824229            2 
   71000    1.2487455   -6.2671704    29.891981  0.035084484  0.041866203            1 
   72000    1.2478092   -6.2858531    30.413287  0.035200563  0.041908896            8 
   73000    1.2468187   -6.3478477     30.73329  0.035083664  0.041936684            3 
   74000    1.2413947   -6.3145466    31.286464  0.035232505   0.04195691            1 
   75000    1.2497953    -6.347116    31.636511  0.035151679  0.041975959            3 
   76000     1.241621   -6.3291537    32.157456  0.035260368  0.041974829            1 
   77000    1.2496618   -6.3520667    32.433138  0.035100798  0.041962954            3 
   78000    1.2510787    -6.329706    33.025755  0.035283926  0.041955008            4 
   79000    1.2372016   -6.3404567    33.556742  0.035397407  0.041950244            2 
   80000    1.2528616   -6.3326377    33.876845   0.03528838  0.041941269            2 
   81000    1.2410239   -6.3493646    34.587574  0.035583923  0.041932939            1 
   82000    1.2533439   -6.3758694    34.964786  0.035533319  0.041929394            2 
   83000    1.2183067    -6.342626    35.388135  0.035530255  0.041919254            4 
   84000    1.2426742   -6.3254871    35.863216  0.035578587  0.041898129            3 
   85000    1.2128799   -6.2966018    36.307633  0.035595718   0.04187686            3 
   86000    1.2252941   -6.3543117    36.478701  0.035347578  0.041843948            3 
   87000    1.2476253   -6.3329221    37.065472  0.035503326  0.041807611            7 
   88000    1.2428202   -6.2993906    37.669578  0.035671949  0.041769172            2 
   89000    1.2110952   -6.3203951    37.996625  0.035577364   0.04173011            1 
   90000    1.2292657   -6.3382205    38.324187  0.035485358  0.041685105            1 
   91000    1.2397421   -6.3150839    38.954596  0.035672706  0.041632003            5 
   92000    1.2242232   -6.3078069    39.693307  0.035954082  0.041604299            1 
   93000    1.2284604   -6.3552984    39.968868  0.035814398  0.041580316            2 
   94000    1.2223397   -6.2921264    40.569166  0.035965572  0.041551279            3 
   95000    1.2464354   -6.3519238    40.913855  0.035889347  0.041522704            1 
   96000    1.2033574   -6.3369077    41.458704  0.035988458  0.041497486            4 
   97000    1.2283262   -6.3207525    41.997989  0.036080746  0.041476484            3 
   98000    1.2642305   -6.2905984    42.530038  0.036164998  0.041468512            1 
   99000    1.2301993   -6.3718336    42.675438  0.035922085  0.041445685            1 
  100000    1.2592219   -6.3877474    43.107521  0.035922934  0.041405846            3 
  101000    1.2286811   -6.3460796    43.421924   0.03582667  0.041357651            2 
  102000     1.229936   -6.3112529    44.304852  0.036196775  0.041323692            2 
  103000    1.2508689   -6.3491803    44.654944  0.036128596  0.041287942            2 
  104000    1.2462331   -6.3510074    45.042769  0.036091962  0.041251073            4 
  105000    1.2527335   -6.2978245    45.820102   0.03636516  0.041220921            3 
  106000    1.2436421    -6.334574     46.26943  0.036375338  0.041199631            1 
  107000     1.246867   -6.3716583    46.508649  0.036221689  0.041178417            2 
  108000    1.2260997   -6.3203052     47.30278  0.036499059  0.041160884            1 
  109000    1.2383404   -6.3334208    47.765197  0.036517735   0.04114924            2 
  110000    1.2381399    -6.341117    48.099489  0.036439006  0.041132814            4 
  111000    1.2244179   -6.3234141     48.61239  0.036495788  0.041116641            2 
  112000     1.245281   -6.3679705    48.783732   0.03629742  0.041097065            2 
  113000    1.2533847    -6.361285    49.125438  0.036228199  0.041069149            4 
  114000    1.2358513   -6.3279696     49.70349  0.036332961  0.041032173            1 
  115000     1.246058    -6.321169    50.129208  0.036325513   0.04099797            2 
  116000    1.2354457   -6.3603753    50.591896  0.036344752  0.040961262            1 
  117000    1.2460987   -6.3505782     51.00733  0.036330007  0.040929104            2 
  118000    1.2460809   -6.3162795     51.53125  0.036392126  0.040897458            1 
  119000    1.1997943   -6.3276951     52.19335  0.036549965  0.040872192            1 
  120000    1.2315205    -6.376759    52.620686  0.036542143  0.040844095            1 
  121000    1.2461064   -6.3360348    53.060556  0.036543083  0.040813244            6 
  122000    1.2287216   -6.3627145    53.390352   0.03646882  0.040787092            3 
  123000    1.2288044   -6.3721352    53.965034  0.036561676  0.040760192            3 
  124000    1.2108414   -6.3799751    54.303032  0.036493973  0.040732687            2 
  125000     1.222356   -6.3576485    54.975299  0.036650199  0.040713274            2 
  126000    1.2376021   -6.3753992    55.227365  0.036526035  0.040691978            3 
  127000    1.2432782   -6.3671355     55.93588  0.036703333  0.040669791            2 
  128000    1.2385603   -6.4262202    56.294005  0.036649743  0.040652552            1 
  129000    1.2474216   -6.3307059    56.888131  0.036749438  0.040635453            1 
  130000    1.2335268   -6.3428666    57.246176  0.036696267  0.040616381            4 
  131000    1.2188612   -6.3763608    57.539275  0.036602592  0.040595837            2 
  132000    1.2276985   -6.3648774    58.060511  0.036654363  0.040571898            3 
  133000    1.2190224   -6.3669496    58.591994  0.036711776   0.04055258            2 
  134000    1.2235858   -6.3924896    58.846123  0.036595848  0.040534236            1 
  135000    1.1957791   -6.3539672    59.720233  0.036864341  0.040514274            2 
  136000    1.2456588   -6.3366831    60.044043  0.036791693  0.040491511            4 
  137000    1.2613983    -6.355141    60.227896  0.036634973  0.040469807            5 
  138000    1.2348771   -6.3823619    60.779926  0.036702854  0.040445837            2 
  139000    1.2475639   -6.3351139    61.142716  0.036656304  0.040425276            2 
  140000    1.2379436   -6.3314377    61.636427  0.036688349  0.040403411            2 
  141000    1.2267298   -6.3549197    61.734173  0.036485918  0.040370826            4 
  142000    1.2335248   -6.3892297    62.281343  0.036550084  0.040337666            2 
  143000    1.2295489    -6.385544    62.734608  0.036558629  0.040307722            3 
  144000    1.2237886   -6.3300182    63.644744  0.036831449  0.040285415            2 
  145000    1.2301982   -6.3317403    63.936222  0.036744955  0.040265377            7 
  146000    1.2281154   -6.3244207    64.368188  0.036739833  0.040242281            3 
  147000    1.2476805   -6.3451885    64.906581  0.036795114  0.040220504            2 
  148000    1.2285675   -6.3920106    65.206291  0.036715254  0.040195397            3 
  149000    1.2327248    -6.338008    65.959143  0.036889901  0.040173566            3 
  150000    1.2291729    -6.374226    66.189372  0.036771873  0.040154886            2 
  151000    1.2178452   -6.3442851    66.855651  0.036896055  0.040136294            4 
  152000     1.222993   -6.3589792    67.363042  0.036931492  0.040116939            1 
  153000    1.2437999   -6.3564248     67.77024  0.036911896  0.040097557            4 
  154000    1.2202037   -6.3919963    68.070534  0.036834704  0.040080278            2 
  155000    1.2207483   -6.4073725    68.689413  0.036929792  0.040063068            2 
  156000    1.1893203   -6.3411316    69.388908  0.037066724   0.04005054            3 
  157000    1.2290206   -6.3410413    70.111035  0.037213925  0.040041773            2 
  158000    1.1941136   -6.3319548    70.399909  0.037130754  0.040032277            1 
  159000    1.2174286    -6.339883    70.899382  0.037159005  0.040023942            2 
  160000    1.2369453   -6.4090194    71.027856  0.036993675  0.040011352            2 
  161000    1.1938439   -6.3552963    71.603421  0.037061812  0.039999888            6 
  162000    1.2289997   -6.3700867    72.233803  0.037157306  0.039993544            2 
  163000    1.2183903   -6.3473466    72.598637  0.037115868  0.039983456            2 
  164000    1.2478132   -6.3648321    73.258948  0.037225075  0.039974669            3 
  165000    1.2285928   -6.3668966     73.83103  0.037288399  0.039969115            2 
  166000    1.2312829   -6.3591284    74.404874  0.037351844   0.03996402            2 
  167000    1.2237981   -6.3750433    74.310546  0.037081111  0.039957462            4 
  168000    1.2366903   -6.3792465    74.815883  0.037111053  0.039945663            1 
  169000    1.2367171   -6.3508977    75.308569  0.037134403   0.03993221            1 
  170000    1.2358014   -6.3777651     75.37025  0.036946201  0.039918449            1 
  171000     1.204671   -6.3672206    76.273439  0.037170292  0.039906582            1 
  172000    1.2283675   -6.3639523    76.411741  0.037021192  0.039890855            1 
  173000     1.223797   -6.3679597     76.57675  0.036886681  0.039872346            6 
  174000    1.2382786   -6.3502948    77.282622   0.03701275  0.039853978            8 
  175000    1.2201219   -6.3544056    78.047235   0.03716535  0.039837787            3 
  176000    1.2416456   -6.3863176    78.220102  0.037036033  0.039823791            5 
  177000    1.2115645   -6.3755628    78.594811  0.037003207  0.039803885            4 
  178000    1.1869517   -6.3591351    78.928077  0.036951347  0.039784853            2 
  179000    1.2275105   -6.3591194    79.312752     0.036924   0.03976244            5 
  180000    1.2006038   -6.3562316     79.54176  0.036824889  0.039742501            2 
  181000    1.2392537   -6.4149492    80.080597   0.03686952  0.039721059            1 
  182000    1.2191763   -6.4040198    80.641665  0.036923839  0.039703562            2 
  183000    1.2560912   -6.3573209    81.740302   0.03722236  0.039689235            2 
  184000    1.2468032   -6.3765125    81.604789   0.03695869  0.039674079            2 
  185000    1.2327527   -6.3648298    82.084261  0.036974892  0.039658644            2 
  186000    1.2154485   -6.3799806    82.355838  0.036897777  0.039640648            3 
  187000    1.2390329   -6.3165833      83.4684  0.037196256  0.039625115            4 
  188000    1.2509809   -6.3603115    83.448866  0.036989745  0.039606794            3 
  189000    1.2186468   -6.4000957    83.604313  0.036862572  0.039588468            2 
  190000     1.208951   -6.3652828    84.351591  0.036996312  0.039570434            3 
  191000    1.2178589   -6.3754998    84.633563  0.036925638   0.03955118            2 
  192000    1.2398098   -6.4179554    85.112361  0.036941129  0.039531336            2 
  193000    1.2054728   -6.3532866    85.783477  0.037039498  0.039512919            1 
  194000    1.2506994   -6.3906094    86.078164  0.036975156  0.039495878            4 
  195000    1.2052377   -6.3551744    86.582107    0.0370009  0.039480663            1 
  196000    1.2117964   -6.3847501    87.225454  0.037085652   0.03946647            3 
  197000    1.2163946   -6.3577164    87.777919  0.037131099  0.039453379            2 
  198000    1.2091447   -6.3458516     88.17451  0.037110484  0.039440072            3 
  199000     1.230516   -6.3878582    88.146574  0.036912301  0.039425834            2 
  200000    1.2267762   -6.3691369    88.835949  0.037014979  0.039408818            3 
  201000    1.2471897   -6.3950864    89.120905  0.036948966   0.03939248            2 
  202000    1.2189451   -6.3937123    89.411301   0.03688585  0.039371796            5 
  203000    1.2228169   -6.3633525     90.07192  0.036975336  0.039352228            2 
  204000    1.2108634   -6.3892266    90.099461  0.036805335  0.039331859            2 
  205000    1.2406526   -6.3989709    90.845939  0.036929243  0.039312517            2 
  206000    1.2144858   -6.4065281    91.025021  0.036822419  0.039295159            4 
  207000    1.2163073   -6.3630919    91.676622  0.036906853  0.039275662            2 
  208000    1.2138826   -6.3728748    91.888637  0.036814358  0.039257561            8 
  209000     1.226443    -6.377518     92.65849  0.036945171  0.039241124            3 
  210000    1.1887085   -6.4148117    92.998143  0.036904025  0.039226302            2 
  211000    1.2156511   -6.4191593    93.162166  0.036793904  0.039207097            5 
  212000    1.2417378   -6.3637842    93.706076  0.036834149  0.039189758            2 
  213000    1.2431593   -6.4425895    94.212811  0.036859472  0.039169999            1 
  214000    1.2273302   -6.3189371    95.007699  0.036996767  0.039149257            1 
  215000    1.2073482   -6.4668193    94.596932  0.036665477  0.039128666            2 
  216000    1.2101712   -6.3704302    95.792264  0.036956892  0.039110536            4 
  217000     1.229779   -6.3949319     96.19134  0.036939839  0.039094446            2 
  218000    1.2077067   -6.3503777    96.331402   0.03682393  0.039077547            4 
  219000    1.1958503   -6.3455443    96.504471   0.03672164  0.039059033            2 
  220000    1.1857115   -6.3988006    97.139272  0.036795179  0.039037895            2 
  221000    1.2203801   -6.3446947    98.010662  0.036957263  0.039020263            2 
  222000    1.2118354   -6.3829062    98.616976  0.037018384   0.03900371            1 
  223000    1.2183181   -6.3727428    99.074776  0.037023459  0.038987665            3 
  224000     1.219317   -6.4227785    99.385688  0.036973842  0.038974011            5 
  225000    1.2192002   -6.3618761     99.80431  0.036964559  0.038961153            2 
  226000    1.2164683   -6.4149543    100.28511  0.036978285  0.038948466            3 
  227000    1.1867349   -6.3979706    100.44694  0.036874793  0.038933482            2 
  228000    1.2069555   -6.4020557    101.05438  0.036935081   0.03891677            2 
  229000    1.2428435   -6.3639968    101.44264  0.036915079  0.038901092            2 
  230000    1.2310611   -6.4022942    101.55858  0.036796588  0.038883996            3 
  231000    1.2258624    -6.407214    101.91203  0.036764803  0.038866404            3 
  232000    1.2418528   -6.4427182    102.01811  0.036644437   0.03884963            3 
  233000     1.205476   -6.4035134    102.89455  0.036800627  0.038831446            2 
  234000    1.1902684   -6.4213323     103.2518  0.036770582   0.03881487            3 
  235000    1.2460413   -6.3428054    104.21108  0.036954283  0.038796816            2 
  236000    1.1927751   -6.4224194    104.56402  0.036922324  0.038780992            2 
  237000    1.2325233   -6.3896029    104.81965  0.036856416  0.038767177            4 
  238000    1.2090251   -6.4225437    105.31219  0.036874017  0.038756736            2 
  239000    1.2195207   -6.4411348    105.66429  0.036842501  0.038742347            4 
  240000    1.2097288   -6.4331326    105.79125  0.036733074  0.038727773            2 
  241000    1.1991036   -6.4051532    106.83977  0.036943212  0.038713259            2 
  242000     1.219756   -6.4253093    107.15176  0.036897988  0.038698407            2 
  243000    1.1931879   -6.4164715    107.42835  0.036840999  0.038684378            2 
  244000    1.2368458   -6.3840688    107.75066  0.036800088  0.038671181            4 
  245000    1.1922322   -6.3671117    108.25579  0.036821697  0.038657096            2 
  246000    1.2214477   -6.4198909    108.64408  0.036803551  0.038642651            3 
  247000    1.2212362   -6.4188121    108.89839  0.036740346  0.038628632            1 
  248000    1.2166417   -6.3853552    109.26427  0.036715143  0.038613293            3 
  249000    1.1821115    -6.385381     110.2512  0.036897993  0.038599363            4 
  250000    1.1974523   -6.4008681    110.34052  0.036780173  0.038588832            2 
  251000    1.2127527   -6.4100078    111.39326  0.036983155  0.038576797            3 
  252000    1.2204832   -6.4090451    111.62105  0.036911724  0.038566109            2 
  253000    1.2221781   -6.4269745    111.81859  0.036830891  0.038552694            7 
  254000    1.2107694   -6.3690729    112.61058  0.036945728  0.038543809            2 
  255000    1.2188618   -6.3910398    112.94625  0.036910541  0.038535133            3 
  256000    1.1890335   -6.4135426    113.27607  0.036873722  0.038524401            4 
  257000    1.2213125   -6.3873599    113.87264  0.036923683  0.038516369            1 
  258000    1.2232534   -6.4082243    114.49802  0.036982565  0.038506765            4 
  259000    1.1771757   -6.3964023    114.84923  0.036952777    0.0384963            8 
  260000    1.1913668   -6.3832701     115.3622  0.036975063  0.038487982            1 
  261000    1.2082019   -6.3917955    115.69346  0.036939164  0.038479608            6 
  262000    1.2114472   -6.3632444    116.68168  0.037112495   0.03847381            2 
  263000    1.2070948   -6.4098313    116.84502  0.037023137  0.038467757            2 
  264000    1.2319224   -6.4079173    116.87861  0.036893502  0.038458879            5 
  265000    1.2033277    -6.411336    117.86502  0.037064472  0.038450663            5 
  266000    1.2171771   -6.3908357    118.90494  0.037250921  0.038445231            4 
  267000    1.1942544    -6.420111     118.8189   0.03708455  0.038439711            2 
  268000    1.2336448   -6.4296679    119.07585  0.037026072  0.038432923            3 
  269000    1.2319295   -6.4327978    119.68839  0.037078187  0.038426484            2 
  270000    1.2050929   -6.3526751    120.74722  0.037267659  0.038422862            2 
  271000    1.1910567   -6.4178229    120.77972  0.037140135  0.038422275            2 
  272000    1.2120637   -6.4493665    121.61121  0.037258335  0.038420499            1 
  273000    1.2220679   -6.4256322    122.00036  0.037240648  0.038418865            2 
  274000    1.2305458   -6.3908127    122.29709  0.037194979  0.038415823            2 
  275000    1.2322768   -6.4038943    122.83618  0.037223086  0.038413034            3 
  276000     1.205944   -6.4105253     123.5116  0.037292151  0.038410856            3 
  277000    1.2039497    -6.424117    123.89121  0.037271724   0.03841005            2 
  278000    1.2135334    -6.391275    124.77205  0.037401694  0.038408891            3 
  279000    1.2100394   -6.3995042    124.85175  0.037291443  0.038406918            2 
  280000    1.2069481   -6.4032766    124.96162   0.03719096   0.03840365            3 
  281000    1.2064718   -6.3878433    125.57916  0.037241742  0.038400333            5 
  282000    1.1998565   -6.4042395    126.17364  0.037285355  0.038398346            2 
  283000     1.220243   -6.4205892    126.12484  0.037139235  0.038397621            4 
  284000    1.1873278   -6.3860541    126.82082  0.037212682  0.038394549            2 
  285000    1.2033946   -6.4060128    127.28904  0.037219017  0.038391743            2 
  286000    1.2047018   -6.4261402    127.27253  0.037084069   0.03838709            3 
  287000     1.172217   -6.4082732    127.76665  0.037098332  0.038380761            4 
  288000    1.2009762   -6.4240834     127.9026  0.037008854   0.03837473            4 
  289000    1.2049593   -6.3856137    128.74942  0.037124976  0.038369183            1 
  290000    1.2120662   -6.3901574    128.75665  0.036999038  0.038363772            5 
  291000     1.221333    -6.447338    128.66906  0.036846809  0.038356625            5 
  292000    1.2017716   -6.4339817    129.35852  0.036917384  0.038348046            2 
  293000    1.2135752   -6.4232378    129.97603  0.036967017  0.038339324            4 
  294000    1.2278715   -6.4184704    130.57877  0.037012124  0.038331783            3 
  295000    1.2129019   -6.4336824    131.12012  0.037039581  0.038324007            3 
  296000    1.1958497   -6.4162963    131.61693  0.037054316  0.038316601            5 
  297000    1.1962505   -6.4486239    131.81357  0.036984728  0.038310413            2 
  298000    1.2142124   -6.4199702    132.55165  0.037067016  0.038304028            4 
  299000    1.1975581    -6.409976    133.11823  0.037100957  0.038298572            4 
  300000    1.2244401   -6.4372035     133.1373  0.036982582  0.038293536            1 
  301000    1.2121461   -6.4243479    133.71159  0.037018713  0.038287231            5 
  302000    1.2149352   -6.4032096     133.9865  0.036971993  0.038280153            1 
  303000    1.1673228   -6.4261568    134.91772  0.037106083  0.038274072            4 
  304000    1.1842079   -6.4089334    135.28658  0.037085137  0.038267123            2 
  305000    1.2131489   -6.4065549     135.4633  0.037011831  0.038260904            1 
  306000    1.1749227   -6.3941025     136.7545  0.037242511  0.038255501            4 
  307000    1.1929202   -6.4233569    136.80991  0.037136242  0.038250614            2 
  308000     1.204973   -6.4100842    137.28109  0.037143151  0.038246505            2 
  309000    1.2002827   -6.4093778    137.58249  0.037104232  0.038241388            2 
  310000    1.2134925   -6.4009002    137.87452  0.037063043  0.038236784            5 
  311000    1.1946708   -6.3828701    138.90915  0.037221102  0.038233067            2 
  312000    1.2067991   -6.3987725    139.18311  0.037174976  0.038227683            2 
  313000    1.1609928    -6.408053    139.50362   0.03714154  0.038220986            3 
  314000    1.2243428   -6.4510498     139.3567  0.036984262  0.038214394            2 
  315000    1.1693338   -6.4029959      139.739  0.036967989  0.038207034            4 
  316000    1.2064842   -6.3927196    140.29856  0.036998566  0.038200091            2 
  317000    1.1733224   -6.3853107    140.71034  0.036990101    0.0381915            1 
  318000    1.2119333   -6.4304605    140.29019  0.036763675  0.038182429            2 
  319000    1.1994304   -6.4562872    140.84711  0.036793917  0.038172613            2 
  320000    1.1775788   -6.4236974    141.50502  0.036850266  0.038163135            4 
  321000    1.1913181   -6.4686056    142.16744  0.036907435  0.038154246            2 
  322000    1.1723666    -6.415565    142.62642  0.036911598  0.038144896            4 
  323000    1.2162037   -6.3795053    142.61988  0.036795634  0.038135604            4 
  324000    1.2025896   -6.4254968    143.36069  0.036872606  0.038125955            4 
  325000    1.2010495   -6.4127149    143.17995  0.036712809  0.038116686            1 
  326000    1.1847077   -6.4730698    143.87668  0.036778292  0.038107199            3 
  327000    1.1795582   -6.4199561    144.68025  0.036870604   0.03809705            2 
  328000    1.1976827   -6.3837629    144.99347  0.036837771  0.038086956            2 
  329000    1.1772265   -6.4069575    145.94653  0.036967207  0.038077313            3 
  330000    1.1852186   -6.4705423    145.05813  0.036630841  0.038066275            2 
  331000    1.1940518   -6.4228675    146.09842   0.03678208  0.038056225            1 
  332000    1.2081596   -6.4378687    146.92313  0.036878294  0.038047199            2 
  333000    1.2011322   -6.4200775    147.20306  0.036837603  0.038037778            2 
  334000    1.2004255   -6.4649452    146.72752  0.036608663  0.038028116            2 
  335000    1.1887672    -6.415669    147.31199  0.036644774  0.038017136            3 
  336000    1.2064807   -6.4513434    148.22502  0.036762159  0.038006314            3 
  337000    1.1676554    -6.418337    148.92118  0.036825219  0.037995882            2 
  338000    1.2156129   -6.4348039    149.27375  0.036803193  0.037986325            5 
  339000    1.2130073   -6.4426427    149.45289  0.036738664  0.037976397            3 
  340000    1.1973085   -6.4583251    150.19103  0.036811526   0.03796685            3 
  341000    1.1718348   -6.4673315    150.54241  0.036789446  0.037959086            4 
  342000    1.1968946   -6.4418423    151.53016  0.036922554    0.0379511            2 
  343000    1.2038182   -6.4490393    150.36641  0.036532169  0.037941519            3 
  344000     1.189618   -6.4444318    151.24186  0.036638047  0.037930406            2 
  345000    1.2031086   -6.4204864    151.26253  0.036536843   0.03791923            4 
  346000    1.2002275    -6.455355    152.14112  0.036642851  0.037907645            5 
  347000     1.226964   -6.4340451    151.93468  0.036487675  0.037895346            2 
  348000    1.1860843   -6.4662559    152.58542  0.036538654  0.037882941            2 
  349000    1.2051985    -6.404068    153.26812  0.036596971  0.037871433            2 
  350000    1.1843232   -6.4410483    152.61478  0.036336852  0.037857902            3 
  351000    1.2172382   -6.4178757     153.8731  0.036532075  0.037843555            2 
  352000    1.1759602   -6.4374098    154.24638  0.036516661   0.03782879            6 
  353000    1.2056369   -6.4061515    154.37666  0.036443971   0.03781406            4 
  354000    1.1934863   -6.4684112    153.93614  0.036237322   0.03779923            3 
  355000     1.209268   -6.4791301    154.40319  0.036244881  0.037783943            3 
  356000     1.201603   -6.4107405    155.31042  0.036355435   0.03776872            6 
  357000    1.1953236    -6.411298    156.14586  0.036448613  0.037754681            2 
  358000    1.1728619   -6.4191902    156.24849  0.036370691  0.037740728            2 
  359000    1.2038927   -6.4170335    157.12521   0.03647289  0.037727946            3 
  360000    1.2104062   -6.4475909      156.912  0.036322222  0.037714223            3 
  361000    1.1941614   -6.4645794    156.98662  0.036238831  0.037699925            1 
  362000    1.1448354   -6.4226031     157.9732  0.036365837  0.037685836            3 
  363000    1.2026712    -6.427817    158.25743  0.036330907   0.03767145            1 
  364000    1.1643834   -6.4446611    158.24086  0.036227303  0.037657183            2 
  365000    1.1904741   -6.4493572    158.71482   0.03623626  0.037643077            3 
  366000    1.1921943   -6.4250233    159.19134  0.036245752  0.037629083            3 
  367000    1.1723069   -6.4170077    159.77268  0.036278991  0.037614553            1 
  368000     1.206762   -6.4447706    159.90515  0.036210405   0.03759947            2 
  369000    1.1657259    -6.429736    160.07811  0.036151335  0.037584782            3 
  370000    1.2071721   -6.4254936    160.84686  0.036226769  0.037570088            3 
  371000    1.1947976   -6.4631344    161.59782  0.036297803  0.037557326            3 
  372000    1.2117283   -6.4543424    162.22022  0.036339654  0.037546169            2 
  373000    1.2019413   -6.4681355     162.6162  0.036330698  0.037535597            3 
  374000    1.1759135   -6.4380263    163.45867  0.036421272  0.037523615            3 
  375000    1.1742639   -6.4293601    163.96197  0.036435994  0.037513131            3 
  376000    1.1766031   -6.4097745    164.76588  0.036517261  0.037503377            1 
  377000    1.1860718   -6.4469061    164.13442  0.036280817  0.037493954            1 
  378000    1.2157927   -6.3946079    165.30385  0.036442648  0.037484098            3 
  379000    1.1933887   -6.4393444     165.2445  0.036333444  0.037472328            5 
  380000    1.1888891   -6.4647987    165.29646  0.036249223  0.037461618            3 
  381000    1.1787654   -6.5015947    165.66333  0.036234324  0.037451307            1 
  382000    1.1836097   -6.4546051     166.8594  0.036400392  0.037441916            3 
  383000    1.2016089   -6.4584265    167.11519  0.036361007  0.037431289            3 
  384000    1.1900721   -6.4815409     167.6759  0.036387999  0.037421552            3 
  385000    1.1967363   -6.4257678    168.53436  0.036479298  0.037413059            2 
  386000    1.1686352   -6.4048313    168.79484  0.036441028  0.037404724            8 
  387000    1.1983267   -6.4348819    169.23081  0.036440742   0.03739493            2 
  388000    1.1738418   -6.4184817     169.3589  0.036374334  0.037385434            1 
  389000      1.16756   -6.4455714     169.3484  0.036278578  0.037375218            3 
  390000    1.1981304   -6.4092326    170.32425  0.036394071  0.037365648            2 
  391000    1.2084156   -6.4613955    169.88725  0.036207855  0.037355501            3 
  392000    1.1844689   -6.4563321     170.2826  0.036199533  0.037345186            3 
  393000    1.1944877   -6.4679588    170.46356  0.036145794  0.037335411            2 
  394000    1.2029556   -6.4531044    171.57153  0.036288395  0.037325606            5 
  395000     1.191922   -6.4544089    172.42643  0.036376884  0.037316573            3 
  396000    1.2027142   -6.4966056    172.37266  0.036273707  0.037306443            2 
  397000    1.2079907   -6.4527877    172.66294  0.036243271  0.037297402            2 
  398000    1.1941317   -6.4467461    173.33762  0.036293472  0.037288235            4 
  399000    1.2030306   -6.5012304     173.3603  0.036207246  0.037277782            1 
  400000    1.2191326   -6.4517517    173.96454  0.036242612  0.037266852            2 
  401000    1.1879793   -6.4768742    174.29367   0.03622063  0.037256969            4 
  402000    1.1983262   -6.4761826    174.10744  0.036091924  0.037246831            3 
  403000    1.1854927   -6.4763848    175.33948  0.036257129  0.037236913            4 
  404000    1.1941807   -6.4666235    175.72013  0.036245901  0.037227961            2 
  405000    1.2188763   -6.4444055    176.26765  0.036269064  0.037220317            4 
  406000    1.1671219   -6.4546985    176.49116  0.036225607  0.037212019            3 
  407000    1.2003244   -6.4242734    176.73777  0.036187094   0.03720203            2 
  408000    1.1927452   -6.4491074    177.04063   0.03616026  0.037191938            1 
  409000    1.1877285   -6.4660889    177.32527  0.036129842  0.037181706            3 
  410000    1.1951572   -6.4923379    177.94317   0.03616731  0.037171273            1 
  411000     1.175815   -6.4814949    179.05658  0.036305064  0.037162122            2 
  412000    1.1688527   -6.4957026    179.23694  0.036253427  0.037153724            4 
  413000    1.1862287   -6.4543249    179.98757  0.036317104  0.037144527            3 
  414000    1.1738542   -6.4653746    180.78959  0.036390819  0.037136297            7 
  415000    1.1844787   -6.4713102     180.4338  0.036231687  0.037127258            6 
  416000    1.1886827   -6.4055059    181.53939  0.036366063  0.037117862            2 
  417000    1.1795806   -6.4607721    181.08447  0.036187943  0.037108613            2 
  418000    1.1950942   -6.4466165    181.62792  0.036209713  0.037099529            4 
  419000    1.2003211   -6.4775405    181.75634  0.036148834  0.037090221            1 
  420000     1.164563   -6.4510356    181.91632  0.036094508   0.03708111            2 
  421000    1.1793006   -6.4829326    182.97692   0.03621871  0.037072419            1 
  422000    1.1840666   -6.4414664    183.47954  0.036232137  0.037064337            2 
  423000    1.1755554    -6.446161    183.56711  0.036163734  0.037056532            6 
  424000    1.2122708   -6.4555272     183.4913  0.036063541  0.037047598            1 
  425000    1.1589377   -6.4578026    184.81526  0.036238286  0.037039333            3 
  426000    1.1890225   -6.4956142    184.79035  0.036148347  0.037029485            5 
  427000    1.1909969   -6.4668052    185.29252  0.036161695   0.03702055            3 
  428000     1.206142   -6.4591094    185.76598  0.036169389  0.037012414            1 
  429000     1.201359   -6.4789688    186.19721  0.036168844  0.037003611            3 
  430000    1.1657837   -6.4374518     186.3374    0.0361119  0.036994956            3 
  431000    1.1779362   -6.4957145    185.87458  0.035938626  0.036985777            2 
  432000    1.1596437   -6.4701747    186.77587  0.036029296  0.036975675            1 
  433000    1.1912161   -6.4738439    187.22968  0.036033426  0.036964654            1 
  434000     1.175336   -6.4770739    187.09261  0.035924081  0.036953894            1 
  435000    1.2135952   -6.4510443     188.2109  0.036055728  0.036943263            2 
  436000    1.1850333    -6.477827    187.51644  0.035840299  0.036932224            4 
  437000     1.171204   -6.4373402    188.60363  0.035965605  0.036921847            3 
  438000    1.1884167   -6.4717956     188.9367   0.03594686  0.036910738            5 
  439000    1.1873439   -6.5047004    188.97952  0.035873106  0.036900548            2 
  440000    1.2077792    -6.483974    190.23637  0.036029616  0.036890338            3 
  441000    1.1642134   -6.4700316    189.80118  0.035865681  0.036879689            2 
  442000     1.163113   -6.4524371    190.97674  0.036006172  0.036869674            1 
  443000     1.185798   -6.4309644    191.16664  0.035960618   0.03686058            2 
  444000    1.2012911   -6.4719405     191.2584  0.035896846  0.036850999            2 
  445000    1.1747399   -6.5109179    191.47587  0.035856904  0.036840711            4 
  446000    1.1818835   -6.4096598    192.67107  0.035999826  0.036829444            3 
  447000    1.1720726    -6.483597    192.38525  0.035866004  0.036819164            2 
  448000    1.1655951   -6.4815971    191.86248  0.035688706  0.036808026            4 
  449000    1.1678705   -6.5133846    191.75537  0.035589341  0.036796178            3 
  450000    1.1625803   -6.5173244    192.95032  0.035731541  0.036785004            5 
  451000    1.1825548   -6.4727571    193.47785  0.035749787  0.036774315            2 
  452000    1.2109965   -6.4699088    193.94048  0.035755988  0.036762284            3 
  453000     1.206269   -6.4539965    195.03446  0.035878305  0.036751205            3 
  454000    1.1814774   -6.4917522    194.03815    0.0356164  0.036740393            3 
  455000    1.1837881    -6.496751    194.79739  0.035677177  0.036728549            4 
  456000    1.1983376   -6.4713488    195.81881  0.035785601  0.036716537            5 
  457000    1.1901601   -6.4938823    195.77772  0.035699803  0.036704126            7 
  458000    1.1930364   -6.4882116    196.06403   0.03567395   0.03669223            1 
  459000     1.175493   -6.4757784    196.51947  0.035678916  0.036680576            2 
  460000    1.1896104   -6.4780533    197.15288  0.035716102  0.036667974            2 
  461000    1.1814842   -6.4449833    198.04697  0.035800247  0.036655772            1 
  462000    1.1862321    -6.497302    197.32372  0.035592302  0.036642833            2 
  463000    1.1865161   -6.4712139     197.8397  0.035608297  0.036629722            3 
  464000    1.1724573   -6.4547765    198.74734  0.035694565  0.036617567            1 
  465000    1.1608298   -6.4825755    198.90161   0.03564545  0.036606489            1 
  466000     1.183047   -6.4990634    198.88633  0.035566225  0.036594916            2 
  467000    1.1698505   -6.4307222    199.84477  0.035661093  0.036583838            3 
  468000      1.20412   -6.4913475    200.01975  0.035616052  0.036572644            2 
  469000    1.1954933   -6.4838803    201.19318  0.035748611  0.036561116            2 
  470000    1.1922295   -6.4805575    200.95597  0.035630491  0.036550546            4 
  471000    1.1858528   -6.4799574    201.93987  0.035728923  0.036540415            2 
  472000    1.1944014   -6.4691321     202.0733  0.035676783  0.036530059            3 
  473000    1.1880812   -6.4461116    202.48505  0.035673899  0.036519649            2 
  474000    1.1849299   -6.4587001    202.47843  0.035597473  0.036509943            2 
  475000    1.1866834   -6.4766841    203.21682  0.035652074  0.036499532            3 
  476000     1.201205   -6.4974414    203.50498  0.035627623  0.036489873            4 
  477000    1.2013599   -6.4843337    203.81313  0.035606766  0.036479741            8 
  478000    1.1857234   -6.4194874    205.00859  0.035740689  0.036470796            2 
  479000     1.151905   -6.5058089    204.15928  0.035518316  0.036460718            3 
  480000    1.2010232    -6.486091    204.73084  0.035543548  0.036450029            5 
  481000    1.1627948   -6.4653735    205.73154  0.035643025  0.036439752            2 
  482000    1.1873755   -6.4351156    206.28856   0.03566538  0.036429148            2 
  483000    1.1806988   -6.4725648    206.06214  0.035552474  0.036419127            1 
  484000    1.1668059   -6.4842976    206.74291  0.035596231  0.036408606            3 
  485000    1.1654988   -6.4978011    206.47728  0.035477196  0.036398664            2 
  486000    1.1735987   -6.5009572    206.24806  0.035364893   0.03638819            3 
  487000     1.157113   -6.4844212    207.92453  0.035579146  0.036377466            3 
  488000    1.1671712   -6.4884682    208.61537  0.035624209  0.036366626            2 
  489000    1.1933289   -6.5036742     208.5733  0.035544189  0.036356009            1 
  490000    1.1497836   -6.5681773    208.69665  0.035492628   0.03634601            3 
  491000    1.1938814   -6.4591747    210.25248  0.035684398  0.036336223            3 
  492000     1.178018   -6.5042758     210.1228  0.035589905  0.036327645            4 
  493000    1.1361274   -6.4736145    210.69428  0.035614313  0.036318871            3 
  494000    1.1837445   -6.5023605    211.30129  0.035644618  0.036309607            3 
  495000    1.1979781   -6.4548372    212.53167  0.035779743  0.036301459            3 
  496000     1.167637   -6.4709451    212.98793  0.035784262  0.036293658            2 
  497000    1.2040123   -6.4632117    212.97232  0.035709644  0.036285959            6 
  498000    1.1736013   -6.5093211    213.13668  0.035665442  0.036278144            6 
  499000    1.1790404   -6.4943057    214.09626  0.035754219  0.036271078            3 
  500000    1.1856367   -6.4806742    214.80799  0.035801332  0.036264718            2 
  501000    1.1669746   -6.5038809    215.19488  0.035794224  0.036258062            2 
  502000    1.1755592   -6.5201617    215.08715  0.035705039  0.036251014            2 
  503000    1.1755171   -6.4528308    215.52897  0.035707251   0.03624362            3 
  504000    1.1549041   -6.5154326    216.53958  0.035803502  0.036237183            2 
  505000    1.1705007   -6.4874853    216.59031  0.035740975  0.036230274            4 
  506000      1.15611   -6.4910429    216.29231  0.035621263  0.036223608            1 
  507000    1.1757645   -6.5285173    216.83364  0.035639981  0.036216067            3 
  508000    1.1950072   -6.5251584    217.08947   0.03561179  0.036208882            1 
  509000     1.199433   -6.5247322    217.50375  0.035609652  0.036201532            2 
  510000     1.168459   -6.4979606    217.69377  0.035570877  0.036193461            2 
  511000    1.1601887    -6.501377    217.42914  0.035458111  0.036185528            2 
  512000    1.1743143   -6.5226849    217.95243  0.035474029  0.036178082            4 
  513000    1.1539297   -6.5110522    218.21806  0.035448027   0.03616952            2 
  514000    1.1677585   -6.4771941    219.53669  0.035592849  0.036162191            4 
  515000    1.1657944   -6.5360552     219.1872  0.035467185  0.036155791            2 
  516000     1.160213   -6.5335453     219.7421  0.035488065   0.03614831            4 
  517000    1.1463624   -6.5048032    221.37194   0.03568213  0.036141204            2 
  518000    1.1823419   -6.4968452    221.12348  0.035573275   0.03613412            2 
  519000    1.1645885   -6.4702073    221.92562  0.035633529   0.03612636            2 
  520000    1.1435309   -6.4948137    221.81376  0.035547077  0.036118624            2 
  521000     1.150097    -6.496754    222.41553  0.035575101  0.036110603            2 
  522000    1.1794506   -6.5055033    223.02088  0.035603588  0.036103545            2 
  523000    1.1861911   -6.5192199    222.79351  0.035499285  0.036095494            2 
  524000    1.1682234   -6.5137685    223.54049  0.035550332  0.036088191            3 
  525000    1.2008794   -6.4694164     223.8486  0.035531524  0.036080854            4 
  526000    1.1743373   -6.4875683    224.33749  0.035541428  0.036073489            2 
  527000    1.1549211   -6.5047785    224.49942  0.035499592  0.036066132            1 
  528000    1.1979222   -6.5294512     225.2938  0.035557733  0.036058468            2 
  529000    1.1589085   -6.5479988    225.27654  0.035487798  0.036051207            4 
  530000    1.1690336   -6.5128702    225.65047  0.035479633   0.03604422            2 
  531000    1.1587086   -6.5198883    225.65365  0.035413317  0.036036321            2 
  532000    1.1570686   -6.5353592    225.77895  0.035366377  0.036028999            1 
  533000    1.1627745   -6.5150866    226.31634  0.035384043  0.036020801            2 
  534000    1.1600634   -6.4905627    227.08439  0.035437639  0.036012447            2 
  535000    1.1743323   -6.5206431    226.75645  0.035320319  0.036003178            2 
  536000    1.1892662   -6.5246267    226.41665  0.035201594  0.035994081            3 
  537000    1.1571402   -6.5806003    226.16852  0.035097536  0.035984835            2 
  538000    1.1705556   -6.5507835    227.90047  0.035300569  0.035975518            2 
  539000    1.1853782   -6.4966092    228.11097  0.035267621  0.035966865            5 
  540000    1.1641051   -6.4946335      229.315  0.035388117  0.035957633            4 
  541000    1.1706475   -6.5184401    229.16473  0.035299558  0.035948509            3 
  542000    1.1710299   -6.5436619     229.0571  0.035217881  0.035939107            3 
  543000    1.1799195   -6.5493768    229.87684  0.035278828  0.035929654            3 
  544000    1.1574433   -6.5474544    229.25598  0.035118869  0.035920154            4 
  545000    1.1787644   -6.5001629    230.43345  0.035234472  0.035910035            3 
  546000    1.1525107   -6.5539971    229.62088  0.035045921  0.035900312            3 
  547000    1.1553612    -6.535908     230.0936   0.03505387  0.035890048            4 
  548000    1.1482481   -6.5382477    230.94743  0.035119743  0.035879379            2 
  549000    1.1572909   -6.5135019    231.62769   0.03515903  0.035868386            3 
  550000    1.1714009   -6.4814127    231.77373  0.035117231   0.03585815            3 
  551000    1.1523235    -6.517692      232.031  0.035092407  0.035848056            1 
  552000    1.1591356   -6.5187687    232.11201  0.035041064  0.035837395            3 
  553000    1.1874987   -6.4997384    231.96403    0.0349554  0.035826938            4 
  554000    1.1796232   -6.5003726    232.69477  0.035002221  0.035816231            2 
  555000    1.1509134   -6.5099263    233.08317  0.034997473  0.035805801            2 
  556000    1.1565802   -6.5111661     233.4737  0.034993061   0.03579582            2 
  557000    1.1596056   -6.5258618    233.49574  0.034933534  0.035784573            2 
  558000    1.1605914   -6.5053694    233.99774  0.034945899  0.035773684            6 
  559000    1.1677584   -6.5337912    234.82024  0.035005999  0.035762728            4 
  560000    1.1439487   -6.4583805    235.70326  0.035074891  0.035752795            1 
  561000    1.1475009   -6.4912585    235.37404  0.034963464  0.035742579            4 
  562000     1.183817    -6.562208    235.33391  0.034895302  0.035732094            4 
  563000    1.1775028   -6.5036861     236.1928   0.03496045  0.035722105            2 
  564000    1.1542499   -6.5114917    236.81061  0.034989748  0.035712678            2 
  565000    1.1525581   -6.5866798    236.33227  0.034857267  0.035702539            2 
  566000    1.1593339   -6.5172783    238.27188  0.035081254  0.035692613            2 
  567000     1.180587   -6.5523758    238.12337  0.034997556  0.035683005            4 
  568000    1.1581854   -6.5633092    238.15268   0.03494024  0.035673131            4 
  569000    1.1742299   -6.5090679    239.73516  0.035110597  0.035662977            2 
  570000    1.1643042   -6.5879144    237.72977  0.034755815  0.035652873            2 
  571000    1.1784029   -6.5348061    239.09009  0.034893475  0.035642842            4 
  572000    1.1614683   -6.5074379    240.05013  0.034972339  0.035632394            2 
  573000    1.1508374   -6.5764313      239.034  0.034763525  0.035621799            8 
  574000    1.1660891   -6.4708421    240.72626  0.034948644  0.035612225            2 
  575000    1.1701864   -6.5243465    240.47569  0.034851549  0.035602436            1 
  576000    1.1717974   -6.5175911    241.41527  0.034926978  0.035591677            5 
  577000    1.1444278   -6.5273818    241.20315   0.03483581  0.035581528            5 
  578000    1.1619307    -6.575922     240.5148  0.034676298  0.035571314            2 
  579000    1.1825012   -6.5685397    241.32611  0.034733177  0.035560274            2 
  580000    1.1718793     -6.52224    242.36277  0.034822237  0.035549467            5 
  581000    1.1673892   -6.4969663    243.96473  0.034992072  0.035539245            3 
  582000    1.1635251   -6.5703304    243.08282  0.034805673  0.035529844            1 
  583000    1.1587556   -6.5642169    243.94298  0.034868922  0.035520097            3 
  584000    1.1702644    -6.493666     245.0187  0.034962714  0.035510394            2 
  585000    1.1540398    -6.538952    245.01979  0.034903104  0.035501216            3 
  586000    1.1541429   -6.5642256    244.02804  0.034702509  0.035491682            2 
  587000    1.1677854   -6.5311155    245.01146  0.034783001  0.035481461            3 
  588000    1.1697227   -6.5348666     245.5176  0.034795578  0.035471574            3 
  589000    1.1615061   -6.5543961    244.73943  0.034626405  0.035461808            2 
  590000    1.1876316   -6.5772185    245.94786  0.034738398  0.035451736            4 
  591000    1.1492411   -6.5519125    247.38933  0.034882872    0.0354422            4 
  592000     1.162717     -6.47156    247.56041  0.034848031  0.035432863            3 
  593000    1.1602268   -6.5296754    247.86626  0.034832245  0.035423768            2 
  594000    1.1431927   -6.5606181     247.6088  0.034737486  0.035414252            3 
  595000     1.154482   -6.5822995    247.14458  0.034614086  0.035404116            4 
  596000     1.169189   -6.5320507    248.22039   0.03470643  0.035394674            3 
  597000    1.1585772   -6.5369517    248.82679  0.034732942  0.035385967            6 
  598000    1.1208855   -6.5797266    248.62246  0.034646386  0.035375982            3 
  599000    1.1613511   -6.5825916    248.70894  0.034600576  0.035365929            2 
  600000    1.1296471   -6.5678124      249.223  0.034614305  0.035355605            3 
  601000    1.1793681   -6.5437876    249.61956  0.034611698  0.035345724            4 
  602000     1.159705   -6.5681598    250.06393  0.034615716  0.035336111            4 
  603000    1.1403426   -6.5425576    251.13452  0.034706264  0.035325441            2 
  604000      1.18075   -6.5175313     251.8222  0.034743681  0.035315357            2 
  605000    1.1816641   -6.5537696    251.70678  0.034670355  0.035305579            4 
  606000    1.1346443   -6.5712602    251.47864  0.034581771  0.035295688            1 
  607000    1.1579461   -6.5552768    251.98495   0.03459431  0.035286173            3 
  608000     1.152546   -6.5498521    252.76215  0.034643935  0.035276125            2 
  609000    1.1539575   -6.5112095    253.80458  0.034729691  0.035267095            2 
  610000    1.1622921   -6.5971581    253.03221  0.034567242  0.035257589            5 
  611000    1.1297501   -6.5615779    253.76891  0.034611144   0.03524795            3 
  612000    1.1421767   -6.5586186     254.2436  0.034619227  0.035238618            2 
  613000    1.1439909   -6.5095251    255.91728  0.034790278  0.035228775            1 
  614000    1.1420059   -6.5600211    255.31689  0.034652129  0.035219295            3 
  615000    1.1506106   -6.5435625    254.67995  0.034509479  0.035209888            4 
  616000    1.1567411    -6.514362    256.39042  0.034684851  0.035200736            1 
  617000    1.1525088   -6.5295095    257.30372  0.034751987  0.035192075            3 
  618000    1.1417531   -6.5601379    256.69395  0.034613531  0.035183549            4 
  619000    1.1656073    -6.518778    257.95706   0.03472766  0.035175262            3 
  620000    1.1546052    -6.580722    256.59244  0.034488231  0.035166431            2 
  621000    1.1394981   -6.5480374    258.30502   0.03466251  0.035157645            3 
  622000    1.1685682   -6.5866147    257.75899  0.034533627  0.035148804            5 
  623000    1.1547134   -6.5638521    257.61595  0.034459062  0.035138733            2 
  624000    1.1603258   -6.5543831    258.23095  0.034485971  0.035128635            4 
  625000    1.1547274    -6.561834    257.30902   0.03430787   0.03511847            2 
  626000    1.1614366   -6.5364145    258.61899  0.034427448   0.03510783            2 
  627000    1.1788764   -6.5136696     259.6895  0.034514819  0.035097325            8 
  628000    1.1555918   -6.5018864     260.0207  0.034503808   0.03508685            3 
  629000    1.1346958   -6.5445876    259.56884  0.034389089  0.035076501            3 
  630000    1.1409365   -6.5235869    260.10394  0.034405283   0.03506612            2 
  631000    1.1424234   -6.5188779    261.97953  0.034598459  0.035056205            3 
  632000     1.153027   -6.5664913    260.48487  0.034346633  0.035046265            2 
  633000    1.1469644   -6.5269374     261.3327  0.034403989  0.035036652            2 
  634000    1.1406464   -6.5205266    262.43062  0.034494035  0.035026396            5 
  635000    1.1898867   -6.5501996    261.45138  0.034311204  0.035015803            4 
  636000    1.1525485   -6.5258928    262.81652  0.034436126  0.035005285            1 
  637000    1.1409947   -6.5855825    261.81118  0.034250547   0.03499423            3 
  638000    1.1549612   -6.5616071    261.52312  0.034159238  0.034983308            2 
  639000    1.1405176   -6.5643388    263.04297  0.034303987  0.034972887            2 
  640000    1.1566316   -6.5548975    263.93716  0.034366818  0.034962594            1 
  641000    1.1387158   -6.5352193    264.29422  0.034359623  0.034951862            6 
  642000    1.1511056    -6.564187    263.32804  0.034180691  0.034940899            3 
  643000    1.1477328   -6.5237888    264.63941  0.034297486  0.034930282            1 
  644000    1.1362908   -6.5451805    264.25686  0.034194728  0.034920109            4 
  645000    1.1549013   -6.5675612     264.6147  0.034187946  0.034909542            2 
  646000    1.1533699   -6.6037112    264.98153  0.034182344  0.034899111            2 
  647000    1.1646817   -6.5751225    266.22973   0.03429028  0.034888514            2 
  648000    1.1582304   -6.5810045    266.24981  0.034239945  0.034878164            3 
  649000    1.1414556   -6.5609648    267.05278   0.03429029  0.034867446            4 
  650000    1.1489673   -6.5420296    267.05258   0.03423751   0.03485692            2 
  651000    1.1599715   -6.5448448    267.71739  0.034270019  0.034846715            2 
  652000    1.1465041   -6.5943127    267.15323  0.034145351  0.034836544            6 
  653000    1.1479589   -6.5043263    269.19911  0.034354148  0.034826445            2 
  654000    1.1490965   -6.5875475     267.9829  0.034146648  0.034816444            3 
  655000    1.1321655   -6.5494398    268.80256  0.034198799   0.03480665            4 
  656000    1.1281209   -6.5838402     269.1021  0.034184717  0.034796402            5 
  657000    1.1480521   -6.5488786    268.97572  0.034116656  0.034785981            4 
  658000    1.1305887   -6.5380688    269.56044   0.03413886  0.034776161            2 
  659000    1.1420726   -6.5811549    270.09165   0.03415423  0.034765488            2 
  660000    1.1552401   -6.5639556    269.88995  0.034077013  0.034754592            4 
  661000    1.1673612   -6.5432793    270.68314  0.034125458  0.034743845            1 
  662000     1.132326   -6.5414989     270.8647  0.034096765  0.034733326            5 
  663000    1.1417468   -6.5737576    270.66537  0.034020282  0.034723123            3 
  664000    1.1374955   -6.5697942    271.48435  0.034071831  0.034712596            6 
  665000     1.173387   -6.5680614     271.8562  0.034067192  0.034702013            2 
  666000    1.1588724   -6.5694871    271.42577  0.033962183  0.034690956            3 
  667000    1.1360232   -6.5953054    271.95186  0.033976994  0.034679789            1 
  668000    1.1396767   -6.6075253    271.16566  0.033828051  0.034668458            4 
  669000    1.1497631   -6.5870704    272.88085  0.033991137   0.03465777            2 
  670000    1.1641947   -6.5927728     273.5246  0.034020472  0.034647007            3 
  671000    1.1287305   -6.5781458    273.32217  0.033944631   0.03463651            4 
  672000    1.1315866   -6.5839872    274.07637  0.033987645  0.034625845            2 
  673000    1.1568135   -6.5825772    274.74075   0.03401941  0.034615293            4 
  674000    1.1123907   -6.5223386    275.05479  0.034007763  0.034605141            3 
  675000     1.133157   -6.5284478    275.38552  0.033998213   0.03459518            2 
  676000    1.1488025   -6.6064179    274.11726  0.033791575  0.034584507            3 
  677000    1.1520816   -6.5524716    275.45558  0.033906398  0.034573932            1 
  678000    1.1145262   -6.5990751    276.60428  0.033997577  0.034563844            2 
  679000    1.1691689   -6.5897964    277.05728  0.034003103  0.034554158            3 
  680000    1.1532961   -6.5724601    278.74833  0.034160334  0.034545327            2 
  681000    1.1647671   -6.5399038    278.46287  0.034075241  0.034536166            3 
  682000    1.1323156   -6.5777607    278.90445  0.034079234  0.034527332            2 
  683000    1.1316197   -6.5701572    279.32912  0.034081152  0.034518493            3 
  684000    1.1506484   -6.6046996    279.63432  0.034068509  0.034509952            3 
  685000    1.1182353   -6.5827022    279.04908  0.033947576  0.034500901            4 
  686000    1.0973743   -6.6032136      279.875   0.03399842  0.034491762            7 
  687000    1.1169858   -6.5089945    281.20634  0.034110425  0.034482915            2 
  688000     1.145696   -6.5854641    280.45015  0.033969253  0.034473792            3 
  689000    1.1528655   -6.5966415    280.77549  0.033959299  0.034464278            4 
  690000    1.1665164   -6.5253807    281.99904  0.034057856  0.034455465            2 
  691000    1.1489337   -6.6210441     281.4146  0.033938085  0.034446354            2 
  692000    1.1339252   -6.5427073    282.74299  0.034049012  0.034437338            2 
  693000    1.1381578    -6.568649     282.0935  0.033921777  0.034428735            3 
  694000     1.131229   -6.5483454    282.84073  0.033962623  0.034419869            4 
  695000    1.1421058   -6.5374553    283.84194  0.034033806  0.034410827            4 
  696000    1.1510694   -6.5655362    283.77326  0.033976683  0.034401722            5 
  697000    1.1161672   -6.5603815    283.39962  0.033883264  0.034392706            2 
  698000    1.1266773   -6.5581951     283.4927  0.033845833  0.034383273            3 
  699000     1.119833   -6.5876442    284.62421  0.033932309  0.034373708            2 
  700000    1.1323701   -6.5969204    284.63969  0.033885678  0.034364749            2 
  701000    1.1240415   -6.5636459    285.35728  0.033922644  0.034355757            3 
  702000    1.1091917   -6.5837279    284.73592  0.033800561  0.034346601            1 
  703000    1.1400937   -6.6281481    285.47658  0.033840277  0.034337127            3 
  704000    1.1359514   -6.5763543    286.36531  0.033897409  0.034327816            3 
  705000     1.148257   -6.6028762    286.04182   0.03381109  0.034318493            6 
  706000    1.1261544   -6.5967141     286.9618  0.033871789  0.034309111            4 
  707000    1.1552859   -6.5406805    288.20205  0.033970067  0.034300128            2 
  708000    1.1509251   -6.5940863    286.38404  0.033708103  0.034291347            4 
  709000    1.1552892   -6.5624076    287.96451  0.033846322  0.034282048            4 
  710000    1.1249415   -6.6093302    287.88291  0.033789074  0.034272931            2 
  711000    1.1255793   -6.5937503      288.462  0.033809423  0.034263547            1 
  712000    1.1266564   -6.5707818    289.24159  0.033853183  0.034254449            2 
  713000    1.1693791   -6.5847499    289.18262  0.033798811  0.034245605            3 
  714000    1.1442669   -6.6099015    289.29482  0.033764568  0.034236717            3 
  715000    1.1508975   -6.5695609    290.20216  0.033823095  0.034227679            2 
  716000    1.1369611   -6.6327408    289.79795  0.033728811  0.034218692            3 
  717000     1.134483   -6.5519201    292.50926  0.033996892  0.034209846            4 
  718000    1.1193035   -6.6216308    290.63084  0.033731527  0.034201211            3 
  719000    1.1237426   -6.5790841    292.55008  0.033907056  0.034192936            1 
  720000    1.1283026   -6.6221336    291.88921  0.033783474  0.034184623            3 
  721000    1.1431881   -6.6328408    291.69613  0.033714301  0.034175896            4 
  722000    1.1199619   -6.5794677    292.67517  0.033780606  0.034167693            1 
  723000    1.1280016   -6.5973474    293.77225  0.033860333  0.034159094            3 
  724000    1.1268761   -6.5791462    293.71201   0.03380663   0.03415023            3 
  725000    1.1406165   -6.5793588    294.35186  0.033833547  0.034142197            2 
  726000    1.0925896   -6.5754885    295.46529  0.033914749  0.034134465            6 
  727000     1.142202     -6.53999    295.94859  0.033923497  0.034126992            4 
  728000    1.1145144   -6.5655409    296.38543  0.033926903  0.034119755            3 
  729000    1.1328202   -6.5946199    295.73814  0.033806371  0.034112532            4 
  730000    1.1500373   -6.6086769    296.29827  0.033824004  0.034105002            4 
  731000    1.1436128   -6.5446996    298.35111  0.034011755   0.03409732            6 
  732000    1.1302065   -6.5298615    299.01464  0.034040829  0.034090408            4 
  733000    1.1338801    -6.592881    298.07817  0.033887923  0.034083622            5 
  734000    1.1171548    -6.585907    298.99932  0.033946336  0.034076954            2 
  735000    1.1472145   -6.6312943    298.62345  0.033857534  0.034070288            4 
  736000    1.1393264   -6.5966061    298.06019  0.033747757  0.034063474            5 
  737000     1.126106   -6.6339061    299.67651  0.033884725  0.034056353            6 
  738000    1.1529883   -6.5584287    300.74854  0.033959863  0.034049746            1 
  739000    1.1109031   -6.5728337    300.87104  0.033927722  0.034043307            4 
  740000    1.1333544   -6.5959426    299.86321   0.03376838  0.034036525            3 
  741000    1.1339689   -6.6538447    298.89799  0.033614259  0.034029481            1 
  742000    1.1601971   -6.5855575    300.67749  0.033768811  0.034022035            3 
  743000    1.1724492   -6.5947726    300.57216  0.033711547  0.034014511            2 
  744000    1.1169962   -6.6238899     300.0463  0.033607336  0.034006903            3 
  745000    1.1192407   -6.5883318    301.80886   0.03375938  0.033999252            3 
  746000      1.11662   -6.6243316    300.70424  0.033590732  0.033991629            2 
  747000    1.1372347    -6.573756    301.45909  0.033629974  0.033983551            3 
  748000    1.1373588   -6.6270743    302.68028  0.033721064  0.033975216            4 
  749000    1.1278219   -6.5900221    302.65519  0.033673252  0.033967322            5 
  750000    1.1600279   -6.6353864    303.06399  0.033673776  0.033959198            3 
  751000    1.1461572   -6.6336011    302.79725   0.03359934  0.033950861            3 
  752000    1.1427962   -6.6112169    303.14335  0.033593013  0.033942554            6 
  753000    1.1403437   -6.5668673    303.21346   0.03355616  0.033934475            2 
  754000    1.1212557   -6.6165729    303.83654  0.033580519  0.033926433            2 
  755000    1.1225002   -6.6032122    304.19183  0.033575257  0.033917885            3 
  756000    1.1228693   -6.5969499    305.24751  0.033647212  0.033909706            4 
  757000    1.1151177   -6.5920688    304.51948   0.03352262  0.033901427            3 
  758000    1.1023879   -6.6014535    305.39685  0.033574851  0.033893187            7 
  759000    1.1198623   -6.6442275     304.1041   0.03338868   0.03388448            2 
  760000    1.1183872   -6.6266546    304.86265  0.033427923  0.033875752            2 
  761000      1.13147   -6.6534794    305.57019  0.033461475  0.033867155            2 
  762000    1.1459455   -6.5407323    307.04287  0.033578616  0.033858842            2 
  763000     1.128762   -6.5609338    307.55884  0.033590962  0.033851064            5 
  764000    1.1373115   -6.5687718    307.16394   0.03350392   0.03384305            3 
  765000     1.119583   -6.5986558    308.02923  0.033554382  0.033835337            1 
  766000    1.1266897   -6.6149042    307.90837  0.033497429  0.033827132            9 
  767000    1.1012689    -6.613528    307.89074   0.03345184  0.033818659            2 
  768000     1.149479   -6.5973815    308.58828  0.033483972   0.03381018            3 
  769000    1.1143599   -6.5818795     309.4078  0.033529237  0.033802236            3 
  770000    1.1183556   -6.6077047    308.50346  0.033387821  0.033793851            3 
  771000    1.1472374   -6.6061029    309.02894  0.033401313  0.033785303            1 
  772000    1.1397162   -6.5934441    310.54916  0.033522146  0.033776913            3 
  773000    1.1436471   -6.6187679    310.11343  0.033431805   0.03376824            4 
  774000    1.1269068   -6.5788242    310.77267   0.03345959  0.033759991            2 
  775000    1.1071307   -6.5987812    310.23154  0.033358231  0.033751596            3 
  776000    1.1115036   -6.6431128    310.81668   0.03337808  0.033742996            4 
  777000    1.1157759   -6.5558052    312.64226  0.033530916  0.033734829            4 
  778000    1.1333178   -6.6069622    312.28634  0.033449694  0.033726808            1 
  779000    1.1404312   -6.5782719    311.66843  0.033340653  0.033718698            3 
  780000     1.121906   -6.6237064     311.7402  0.033305577  0.033710453            3 
  781000    1.1417088    -6.588209     313.1879  0.033417403  0.033701934            2 
  782000    1.1424047   -6.6382742     313.1531  0.033370961  0.033693726            2 
  783000     1.148384   -6.5782413    314.30196  0.033450613  0.033685549            1 
  784000    1.1319556   -6.6078696    315.17272  0.033500501  0.033677674            6 
  785000    1.1105908   -6.6273436    314.97764  0.033437117  0.033669901           11 
  786000    1.1345248    -6.578229    315.64979  0.033465839  0.033662174            3 
  787000    1.1493461   -6.6296004    316.24478  0.033486317  0.033654863            6 
  788000    1.1239607   -6.6102358    315.55745  0.033371135  0.033647485            2 
  789000    1.1107232   -6.5990539    317.91379  0.033577713  0.033640085            1 
  790000     1.107629   -6.5932729    317.14338  0.033453943  0.033632685            4 
  791000    1.1291748   -6.6062136    318.20426  0.033523415  0.033625386            3 
  792000     1.143605   -6.5790442    318.32128  0.033493401  0.033618095            3 
  793000    1.1384327   -6.6124278    316.99967  0.033312281  0.033610393            4 
  794000    1.1230344   -6.6242406    317.70175  0.033344013  0.033602291            3 
  795000    1.1179772   -6.6391675    317.95914   0.03332905  0.033594284            5 
  796000    1.1187585   -6.5933041    318.38573  0.033331839  0.033586578            4 
  797000    1.1228006    -6.570204    319.14971  0.033369898  0.033579039            4 
  798000     1.119362   -6.5909537    320.13036  0.033430489  0.033571704            2 
  799000    1.1181722   -6.6284572    319.45935  0.033318664  0.033563838            1 
  800000    1.1334409   -6.6776934    319.01152  0.033230367  0.033556175            7 
  801000    1.1202551    -6.615223    320.41751  0.033335155   0.03354828            2 
  802000    1.1421737   -6.6190595    320.55956  0.033308349  0.033540416            7 
  803000     1.122576   -6.6027536    320.49293  0.033259955  0.033532436            3 
  804000    1.0982085   -6.6184171    321.26408  0.033298516  0.033524461            2 
  805000    1.1353821   -6.6328512    321.12881  0.033243148  0.033516742            2 
  806000    1.1210498   -6.6162629    320.74032  0.033161737   0.03350864            1 
  807000    1.0811281   -6.6094738    321.32906   0.03318144  0.033500684            2 
  808000    1.1066691   -6.5679172    323.83105  0.033398417   0.03349299            4 
  809000     1.123777   -6.6367993     322.1914  0.033188237  0.033485017            3 
  810000    1.1457814   -6.6365639    322.57964  0.033187206  0.033477247            2 
  811000    1.1153571   -6.6107857    323.25545  0.033215726   0.03346939            3 
  812000    1.1171109   -6.6670084    322.92717  0.033141129   0.03346145            2 
  813000    1.1085043   -6.6599471    322.91869  0.033099497  0.033453354            5 
  814000    1.1135507   -6.6116422    324.56771  0.033227653  0.033445108            8 
  815000    1.1026622   -6.5614972    325.56111  0.033288457  0.033437158            2 
  816000    1.1280045   -6.6076703    325.14831  0.033205505  0.033429464            3 
  817000     1.131023   -6.6132157    325.64764  0.033215794  0.033421974            3 
  818000     1.092987   -6.6284033    325.74704  0.033185313  0.033414451            2 
  819000    1.1310036   -6.6173858    326.75989  0.033247852  0.033406694            2 
  820000    1.1158749   -6.6777086    325.43286  0.033072445  0.033398984            4 
  821000    1.1321692   -6.6309223    326.76107  0.033166978  0.033391334            3 
  822000    1.1073361   -6.6178313     327.6453  0.033216271  0.033383669            2 
  823000    1.1190136   -6.6258403    326.72289  0.033082512  0.033375977            5 
  824000    1.1067325   -6.6239788    328.43034  0.033215042  0.033368448            3 
  825000    1.0850516   -6.6506127    328.81968  0.033214109  0.033360927            1 
  826000    1.1242427   -6.6041402    329.21241   0.03321352  0.033353674            2 
  827000     1.109246   -6.6276713    328.76573  0.033128348  0.033346454            4 
  828000     1.133888   -6.6279841    329.85456  0.033197922  0.033338864            1 
  829000    1.1216067   -6.6050423    329.60988  0.033133281   0.03333129            4 
  830000    1.1055943   -6.6330321    330.44125  0.033176832  0.033323709            3 
  831000    1.0971593   -6.6159165    330.04583  0.033097255  0.033315836            2 
  832000     1.134308   -6.6095768    331.79696  0.033232869  0.033308604            3 
  833000     1.105891   -6.6107013    331.36651  0.033149911  0.033301425            1 
  834000    1.1446804   -6.6215715    330.93932  0.033067478   0.03329386            1 
  835000    1.1033976   -6.6254307    330.96317  0.033030256  0.033286335            2 
  836000    1.1354212   -6.6017514    331.72144  0.033066332  0.033278723            4 
  837000    1.1132967   -6.6640972     331.1209  0.032967035  0.033270594            3 
  838000    1.1136794     -6.65044    331.63182  0.032978502  0.033262268            9 
  839000    1.1437605    -6.606975    332.27263  0.033002844  0.033254401            5 
  840000    1.1124614   -6.6313647    333.05809  0.033041477  0.033246577            5 
  841000    1.0832539   -6.6575958    333.07993  0.033004353  0.033238716            3 
  842000    1.1221068   -6.6432615    333.72734   0.03302923  0.033230899            3 
  843000    1.1047739   -6.6340307    333.95061   0.03301212   0.03322268            3 
  844000    1.1205148   -6.6172174    334.25689  0.033003247  0.033214679            1 
  845000    1.1217283    -6.663901    333.72358  0.032911596  0.033206338            2 
  846000    1.1343837   -6.6203117    334.25466  0.032925006  0.033198226            1 
  847000    1.0978356   -6.6022443    336.71008  0.033127713  0.033190313            5 
  848000    1.1145387   -6.6155644     335.2605  0.032946196  0.033182427            3 
  849000    1.1103006   -6.6376372    334.80947   0.03286312  0.033174255            2 
  850000    1.1379986   -6.6148086    335.06727  0.032849733  0.033165737            2 
  851000    1.1286516   -6.6402162    335.87847  0.032890567  0.033156927            3 
  852000    1.0883609   -6.6544791     335.4441  0.032809478  0.033148138            3 
  853000    1.1107303   -6.6101548    336.70017  0.032893725  0.033139657            7 
  854000    1.1181974    -6.647755    336.11745  0.032798346  0.033131274            5 
  855000    1.1186694   -6.6501611    335.87308  0.032736168  0.033122931            3 
  856000    1.0922328   -6.6354652    337.04764  0.032812271  0.033114584            7 
  857000    1.1325926   -6.6140826    337.09414  0.032778504  0.033106167            5 
  858000    1.1257555   -6.6434859    337.74266  0.032803289  0.033097243            2 
  859000    1.1248521   -6.6187953    338.81665  0.032869291  0.033088762            3 
  860000    1.1305884   -6.6251479    339.22606  0.032870743  0.033080194            3 
  861000    1.1164003   -6.6452973      337.838  0.032698219   0.03307192            5 
  862000    1.1217898   -6.6122488    339.82742  0.032852612   0.03306352            4 
  863000    1.1164631    -6.649471    338.86648  0.032721753  0.033054781            2 
  864000    1.1116175   -6.7010786    337.20488  0.032523619   0.03304609            2 
  865000    1.1060008   -6.6624565    339.46037  0.032703312  0.033037184            3 
  866000    1.1307732   -6.6549084    339.51193  0.032670509  0.033028447            5 
  867000    1.1305994   -6.6354356    340.88492  0.032764794  0.033019669            4 
  868000    1.1057753   -6.6595177     339.9132  0.032633756  0.033011124            6 
  869000    1.0893927   -6.6454307    340.16233  0.032620093  0.033002368            3 
  870000    1.1362101   -6.6676744    339.84645  0.032552342  0.032993438            7 
  871000    1.1166311   -6.6546609    340.01162  0.032530771  0.032984868            2 
  872000    1.1051472   -6.6390008     342.2482  0.032707206  0.032976389            1 
  873000    1.1128997   -6.5956807    342.29219   0.03267394  0.032968389            2 
  874000    1.1126752    -6.690184    341.80957  0.032590539  0.032960235            7 
  875000    1.1205002   -6.6526001    342.93402  0.032660383  0.032951887            7 
  876000     1.104428   -6.6753167    342.83981  0.032614137  0.032943307            3 
  877000    1.1092167   -6.6500969    342.90294  0.032582947  0.032934878            3 
  878000    1.1012763    -6.627822    344.37082  0.032685157  0.032926939            5 
  879000    1.1083635   -6.6611404    342.50594  0.032471174  0.032918739            2 
  880000    1.1063842   -6.6263719    345.25348  0.032694458  0.032910573            2 
  881000    1.1016897   -6.6389584    345.20574  0.032652832  0.032902473            2 
  882000    1.1336235   -6.6763154    344.76055  0.032573748  0.032894218            4 
  883000    1.1267726   -6.6401549    345.90637  0.032644996  0.032886046            2 
  884000    1.1095466   -6.6412121    346.18759  0.032634577  0.032877792            4 
  885000    1.1006666   -6.6312285    347.16897   0.03269011  0.032870388            4 
  886000    1.1247119   -6.6864962    346.70159  0.032609254  0.032862722            4 
  887000    1.1389586   -6.6596581    347.03266  0.032603595  0.032854842            2 
  888000    1.1142389   -6.6159325    347.98138  0.032655911  0.032847103            6 
  889000    1.1156498   -6.6994791    347.14795  0.032541053  0.032839289            5 
  890000    1.1178921   -6.6864308    348.52899    0.0326338  0.032831028            3 
  891000    1.1109902   -6.6600013    349.27164  0.032666633  0.032823196            2 
  892000    1.0951022   -6.6735437    348.80599  0.032586509  0.032815289            2 
  893000    1.1018334    -6.664104    348.84376  0.032553543  0.032807482            2 
  894000    1.1316365   -6.6670169    349.01347  0.032532948  0.032799796            5 
  895000    1.0894282   -6.6543657    348.68799  0.032466293  0.032791587            2 
  896000    1.1152553   -6.6710745    349.55381  0.032510585  0.032783387            4 
  897000    1.1011308    -6.613352    350.25401  0.032539391  0.032775589            3 
  898000    1.0933616   -6.6474497    351.18619  0.032589661   0.03276809            3 
  899000    1.1116278   -6.6163393    352.61803  0.032686136  0.032761018            6 
  900000    1.1243916    -6.663897    351.58178  0.032553868   0.03275345            3 
  901000    1.1027558   -6.6414369    353.74122  0.032717464  0.032745811            4 
  902000    1.1034153   -6.7157287    351.41927  0.032466673  0.032738045            3 
  903000    1.0953528   -6.6944791    352.13524  0.032496792  0.032730071            2 
  904000    1.1382525   -6.6368721    353.22908  0.032561678  0.032722105            3 
  905000    1.0855319   -6.6732955    352.16299  0.032427532  0.032714355            2 
  906000     1.094475   -6.6781685    352.49452  0.032422234  0.032706727            4 
  907000    1.1187538   -6.6875034    352.56968  0.032393392  0.032698696            2 
  908000    1.0995221    -6.657931    353.50632  0.032443678   0.03269096            3 
  909000    1.0906959   -6.6594348    354.00474  0.032453679  0.032683134            4 
  910000    1.0885375   -6.6756034    353.45178  0.032367379  0.032675058            2 
  911000    1.0963925   -6.6358012    355.07962  0.032480756  0.032666807            2 
  912000    1.1258313    -6.710305    355.23181  0.032459047  0.032658777            1 
  913000    1.0974954   -6.6636589    355.02781  0.032404875  0.032650406            2 
  914000    1.1046208   -6.6281576    355.80274  0.032440075  0.032642441            1 
  915000    1.0867152   -6.6617174    355.81921  0.032406121  0.032634372            4 
  916000    1.0854961   -6.6330407    355.71969   0.03236169  0.032625967            3 
  917000    1.0997057   -6.6406017    356.08518  0.032359613   0.03261797            3 
  918000    1.0820282   -6.6594029     356.4499  0.032357471  0.032609803            3 
  919000    1.0999122   -6.7086076    357.46536  0.032414342  0.032601574            4 
  920000    1.1049884   -6.7051195    356.86684  0.032324895  0.032593462            2 
  921000     1.093475   -6.6484574    357.96624  0.032389272  0.032585428            4 
  922000     1.095598    -6.677699    357.28777  0.032292821  0.032577151            4 
  923000     1.091118   -6.7093737    357.06468  0.032237693  0.032569043            5 
  924000    1.1226742   -6.6823638    357.65394  0.032255947   0.03256064            5 
  925000    1.0932057   -6.6892704    358.23633  0.032273543  0.032552515            3 
  926000    1.0973046   -6.6491131    357.90236  0.032208636  0.032544429            2 
  927000    1.1148014   -6.6828175    359.11505  0.032282906  0.032536537            4 
  928000    1.1022787   -6.6888343    359.14666  0.032250957  0.032528322            4 
  929000    1.1025039   -6.7135983    358.52458  0.032160439  0.032519756            4 
  930000    1.0918573    -6.638361    361.13067  0.032359379  0.032511562            7 
  931000    1.1148197   -6.6949623    359.93451  0.032217554  0.032503327            5 
  932000    1.1115911   -6.7049181    359.66121  0.032158549   0.03249501            3 
  933000    1.0972171   -6.6673957    360.59697   0.03220766  0.032486952            4 
  934000    1.1436626   -6.6629547    361.21232   0.03222808  0.032478841            8 
  935000    1.0999648   -6.6831308    361.34564  0.032205493  0.032470376            6 
  936000    1.0900658   -6.6507469    362.28406  0.032254635  0.032462354            4 
  937000    1.0904587   -6.6856716    361.96304  0.032191661  0.032454249            3 
  938000    1.0838206   -6.6693902      362.635   0.03221704  0.032446259            4 
  939000     1.117323   -6.6423743    363.35257  0.032246412  0.032438408            2 
  940000    1.0919116   -6.7178726    362.28557  0.032117515  0.032430137            2 
  941000    1.0988881    -6.690252    362.68148  0.032118445  0.032421813            2 
  942000    1.0823039   -6.6610062    364.41787  0.032237957  0.032413516            2 
  943000    1.1102059    -6.690608    363.99676  0.032166557  0.032405262            1 
  944000    1.0864937   -6.6963888    364.45098   0.03217258  0.032396975            2 
  945000    1.1075881   -6.7056827    364.41523  0.032135382  0.032388635            5 
  946000    1.1363265    -6.711919    364.19106  0.032081665  0.032380606            4 
  947000    1.1034034   -6.6538206     365.2031  0.032136844  0.032371833            4 
  948000    1.0871986   -6.6771019    364.93876  0.032079708  0.032363882            2 
  949000    1.1035333   -6.6771412    365.09716  0.032059814  0.032355923            3 
  950000    1.1017113    -6.662726    365.89887  0.032096392  0.032347565            3 
  951000    1.1060524   -6.6711168    364.89311   0.03197451  0.032338851            3 
  952000    1.0833714   -6.6942095    364.95571  0.031946403  0.032330153            2 
  953000    1.0762623   -6.6525847    366.20435  0.032022067  0.032321525            3 
  954000    1.1113221   -6.6458547    366.40169  0.032005738  0.032312904            8 
  955000    1.1057089   -6.6709853    367.44014  0.032062839  0.032304222            6 
  956000     1.078036   -6.6699224    367.21267  0.032009472  0.032295278            4 
  957000    1.0644756   -6.7022891    365.97264  0.031868046  0.032286315            5 
  958000    1.1178268   -6.6598939    367.95693  0.032007388   0.03227721            3 
  959000    1.1030168   -6.6806142    367.78885  0.031959407  0.032268534            3 
  960000    1.1108805   -6.7108206    367.47693  0.031899039  0.032259811            3 
  961000    1.0874634   -6.6930434    367.14199  0.031836801  0.032250983            3 
  962000     1.098295   -6.7234372    367.36893  0.031823365  0.032242107            3 
  963000    1.0926277   -6.7122588    367.36967  0.031790384   0.03223296            3 
  964000    1.0948381   -6.6521797    369.75798  0.031963864  0.032224198            5 
  965000    1.1095719   -6.6483456     370.1159  0.031961649  0.032215891            3 
  966000    1.0935946   -6.6892489    369.87706  0.031907959  0.032207511            4 
  967000    1.1015693   -6.6752212    369.29864  0.031825116  0.032198883            4 
  968000    1.0944252   -6.6446602     370.6249  0.031906414   0.03219029            5 
  969000    1.0956315    -6.687612     371.3635  0.031937005  0.032181879            4 
  970000    1.0681603   -6.7124456    370.18647  0.031802961  0.032173322            3 
  971000    1.0843172   -6.6828721    371.50756  0.031883587  0.032164683            4 
  972000    1.0692558   -6.7289912    371.48264  0.031848649  0.032155964            4 
  973000    1.1237376    -6.671163    371.61843  0.031827546  0.032146981            4 
  974000    1.1097425   -6.7157411     372.2245  0.031846723  0.032138383            3 
  975000    1.0860287    -6.658713    372.76793  0.031860507  0.032129637            2 
  976000    1.0994227    -6.679418    371.96502  0.031759308  0.032120763            3 
  977000    1.0898867   -6.7012862      372.251  0.031751194  0.032112029            6 
  978000    1.1323725   -6.6771018    372.47625  0.031737921  0.032102883            3 
  979000    1.0966211   -6.6656689    373.12464  0.031760695   0.03209399            3 
  980000     1.108707   -6.7211466    372.16876  0.031647003  0.032085487            4 
  981000    1.1024211   -6.7116879     372.9812  0.031683758  0.032076808            9 
  982000    1.1162921    -6.680254    374.62158  0.031790698  0.032068216            3 
  983000    1.1120623   -6.7344467    374.34609  0.031735003  0.032059347            5 
  984000    1.1101426   -6.6766235    374.19854  0.031690255  0.032050442            2 
  985000     1.061272   -6.6913099    375.50303  0.031768446  0.032041749            2 
  986000    1.0840073   -6.7054993    374.80919  0.031677585  0.032033063            4 
  987000    1.0887542   -6.7350957     375.1237  0.031672045  0.032024074            3 
  988000     1.086751   -6.7185512    376.14669  0.031726273  0.032015355            7 
  989000    1.0979174    -6.642593     376.6859  0.031739628  0.032006727            5 
  990000    1.0765622      -6.7429    376.63582  0.031703352  0.031998362            8 
  991000    1.0886131   -6.7244613    378.08374  0.031793116   0.03198976            4 
  992000     1.096764   -6.6775722    377.77831  0.031735409  0.031981135            3 
  993000    1.1033229   -6.6457451    378.81926  0.031790808  0.031972749            3 
  994000    1.1075913   -6.7218911    375.71822  0.031498844   0.03196408            1 
  995000    1.0893065   -6.7459701    377.81635   0.03164291  0.031955274            5 
  996000    1.0817161    -6.713692    376.83229  0.031528806  0.031946642            4 
  997000    1.0902374   -6.6895637    378.51597  0.031637911  0.031937839            5 
  998000     1.090625   -6.6571497    378.80669  0.031630485  0.031929136            2 
  999000    1.0809329   -6.7332598    377.95313  0.031527622  0.031920575            7 
 1000000    1.0964535     -6.69462    379.44494  0.031620412  0.031911952            4 
 1001000    1.1111462   -6.7011221    379.35031  0.031580945  0.031903173            4 
 1002000    1.1071011    -6.675095    380.36993  0.031634225  0.031894553            3 
 1003000    1.0789699   -6.6927124    379.95098  0.031567878  0.031885913            5 
 1004000    1.1101786   -6.6877203    380.66363  0.031595587  0.031877237            3 
 1005000    1.1030112   -6.6948397    380.91297  0.031584823   0.03186881            4 
 1006000    1.0850302   -6.6649712    382.45558  0.031681211  0.031860296            6 
 1007000     1.109604   -6.6977064    381.25005  0.031549987  0.031851643            4 
 1008000    1.1072363   -6.7450861     381.1478  0.031510234  0.031843119            2 
 1009000    1.1164254    -6.711047    381.66818  0.031521984  0.031834457            5 
 1010000    1.1117611   -6.6862143    383.17784  0.031615333   0.03182595            4 
 1011000    1.0826591   -6.7320523    382.23889  0.031506668  0.031817365            6 
 1012000    1.0677466   -6.7117399    382.94432  0.031533623  0.031808633            4 
 1013000       1.0872   -6.7266439    381.41785  0.031376921  0.031800026            3 
 1014000    1.1010279   -6.6972452    383.61696  0.031526706  0.031791446            4 
 1015000    1.0787704   -6.7274249     383.7364  0.031505451  0.031782865            3 
 1016000    1.0934426   -6.6967181    384.57496  0.031543221  0.031774318            6 
 1017000    1.0961173   -6.7289683    383.06189  0.031388225    0.0317658            5 
 1018000    1.0833438   -6.7058102    385.14401  0.031527833  0.031757311            5 
 1019000    1.0668214   -6.7164493    384.20179  0.031419839  0.031748974            6 
 1020000    1.0811958   -6.7248785     387.3992  0.031650261  0.031740619            3 
 1021000    1.0842536   -6.6940314    385.98657  0.031503964  0.031732412            7 
 1022000    1.0826969   -6.6892085    387.23954  0.031575305  0.031724256            4 
 1023000    1.0974979   -6.7062129    387.03667  0.031527914  0.031715838            3 
 1024000    1.0841741   -6.7325279     385.7109  0.031389234  0.031707314            4 
 1025000    1.0848268   -6.7047074    386.07815  0.031388468  0.031698907            3 
 1026000    1.0721002   -6.7531404    386.95868  0.031429393  0.031690295            7 
 1027000    1.0819492   -6.7443845    387.95904  0.031479961  0.031681788            6 
 1028000    1.0851355   -6.7329517    388.16178  0.031465773  0.031673228            5 
 1029000    1.0765231   -6.7213978    389.52584  0.031545663  0.031664636            6 
 1030000    1.1267149   -6.6842512    389.65059  0.031525128  0.031656396            5 
 1031000    1.0831521   -6.6966244    388.57986  0.031408007  0.031648267            5 
 1032000    1.0925317   -6.7427004    388.82351  0.031397247  0.031640277            3 
 1033000    1.0695226   -6.7961849    388.10919  0.031309228  0.031631622            4 
 1034000    1.0561919   -6.7001458    389.71231  0.031408149  0.031623109            3 
 1035000    1.1192257   -6.7430371    389.26842  0.031342063  0.031614612            3 
 1036000    1.0918417   -6.6995952    390.20393   0.03138706  0.031605955            3 
 1037000    1.0754139   -6.7307936    390.34624  0.031368229  0.031597222            3 
 1038000    1.0742732   -6.6882855    391.73996  0.031449901   0.03158875            2 
 1039000    1.0710113    -6.719487    390.62998  0.031330605  0.031580503            1 
 1040000    1.0977686     -6.74557    390.36409  0.031279173  0.031572007            3 
 1041000    1.0803356    -6.726614    391.13638   0.03131095  0.031563332            5 
 1042000      1.07675   -6.6825637      391.457  0.031306542  0.031554628            8 
 1043000    1.0936839    -6.688936    392.39741  0.031351663  0.031546179            3 
 1044000    1.0655407    -6.703718    392.54458   0.03133338  0.031537807            2 
 1045000    1.1184204   -6.7215272    391.78452  0.031242785  0.031529128            3 
 1046000    1.0763904   -6.7136643    391.65956   0.03120296   0.03152033            5 
 1047000     1.082988   -6.6989565    392.00324  0.031200513  0.031511857            4 
 1048000    1.0859196    -6.764196    391.34821  0.031118655   0.03150307            3 
 1049000    1.0772041   -6.7086035    392.46878  0.031178009   0.03149438            5 
 1050000    1.0759732   -6.7038404     394.3689  0.031299119  0.031485694            4 
 1051000    1.1020409   -6.6949912    394.36636  0.031269137  0.031477052            2 
 1052000    1.0838546   -6.7716605    393.20097  0.031147098  0.031468484            2 
 1053000     1.093899   -6.7188237    394.03249  0.031183325  0.031459773            7 
 1054000    1.0869228   -6.7447656    392.17857  0.031007161  0.031451086            6 
 1055000    1.0933187   -6.6945398    394.57995  0.031167453  0.031442406            4 
 1056000    1.0865006   -6.7528583    395.44482  0.031206189  0.031433762            3 
 1057000     1.102238   -6.7500574    395.15782  0.031154038  0.031424931            6 
 1058000    1.0836144   -6.7438561     395.9049  0.031183435  0.031415944            5 
 1059000    1.0857433   -6.7187955    395.03451  0.031085498   0.03140724            2 
 1060000     1.080518   -6.7589431    395.06778  0.031058788  0.031398501            5 
 1061000     1.098143   -6.7439473     395.4955  0.031063109  0.031389672            5 
 1062000    1.0787191   -6.7601143     395.5912  0.031041369  0.031380656            3 
 1063000    1.0900122   -6.7175686    396.43218  0.031078095  0.031371774            2 
 1064000    1.0734119   -6.7144967     396.3382  0.031041526  0.031362851            2 
 1065000    1.0782407   -6.7577849    396.11384  0.030994823  0.031353841            2 
 1066000    1.1023341   -6.6963039    398.36129  0.031141439  0.031345077            4 
 1067000    1.0645533   -6.7252811    397.75041  0.031064543    0.0313362            4 
 1068000    1.0853847   -6.7366549    396.31324  0.030923318  0.031327205            2 
 1069000    1.0958052   -6.7387737    397.45077  0.030983066   0.03131814            6 
 1070000    1.1029935   -6.7025158    398.20536  0.031012878  0.031309077            1 
 1071000    1.0784309   -6.7382115    397.73499  0.030947323  0.031300054           12 
 1072000    1.0661662   -6.7035567    398.12264  0.030948588     0.031291            2 
 1073000    1.0782107   -6.6752569    399.20008  0.031003423  0.031282418            2 
 1074000    1.0781418    -6.750029    398.33227  0.030907221  0.031273715            3 
 1075000    1.0655447   -6.7423392    398.54977  0.030895331  0.031264887            4 
 1076000    1.0789311   -6.7135923    400.36347  0.031007084  0.031255851            5 
 1077000    1.0720477   -6.7152022    401.30036  0.031050786  0.031246952            5 
 1078000    1.0899665   -6.7178433     399.2001  0.030859624  0.031237839            2 
 1079000     1.077254   -6.7738459    397.96225  0.030735422  0.031228681            4 
 1080000    1.0919108   -6.7436874    400.65342  0.030914615  0.031219394            2 
 1081000    1.0811704    -6.782806    399.69799  0.030812364  0.031210426            3 
 1082000    1.0645104   -6.7901149    400.95184  0.030880456  0.031201415            4 
 1083000     1.117355   -6.7868225     400.9501  0.030851808  0.031192484            4 
 1084000     1.046895   -6.7487431    403.47125  0.031017162  0.031183645            7 
 1085000    1.0801318   -6.7356894    403.23413  0.030970364  0.031174987            2 
 1086000    1.0806659   -6.7067746      403.752  0.030981584  0.031166718            4 
 1087000    1.0653418   -6.7242313    402.32896  0.030843986  0.031158345            3 
 1088000    1.0773615   -6.7107305    404.52424  0.030983781  0.031150008            3 
 1089000    1.0809741   -6.6957079    404.82855  0.030978616   0.03114169            5 
 1090000    1.0758303   -6.7514463    403.97883  0.030885232  0.031133032            4 
 1091000    1.0821992   -6.7482597    404.59012  0.030903614  0.031124772            6 
 1092000    1.0820473   -6.7608285    405.50718  0.030945298  0.031116445            3 
 1093000    1.0990726   -6.7242249    404.69419  0.030855001  0.031107955            7 
 1094000    1.0723765   -6.7469746    406.32718  0.030951187  0.031099635            3 
 1095000    1.0978179   -6.7517743    404.52385  0.030785681  0.031091061            3 
 1096000    1.0729468   -6.7041599    406.69262  0.030922492  0.031082397            2 
 1097000    1.0504454   -6.7468696    406.86744  0.030907584  0.031073739            6 
 1098000    1.0882412   -6.7301558    405.35121  0.030764361  0.031065359            4 
 1099000    1.0790373   -6.7842595    406.71165  0.030839524  0.031057067            7 
 1100000    1.0797987   -6.7803477    406.59226  0.030802444  0.031048323            3 
 1101000     1.082152    -6.733404    406.02958  0.030731878  0.031039621            5 
 1102000    1.0638985   -6.7318554    407.13664  0.030787707  0.031030943            4 
 1103000    1.0842116   -6.7338314    407.22366  0.030766369  0.031022092            2 
 1104000    1.0960114   -6.7375206    408.22658  0.030814204  0.031013367           10 
 1105000    1.0701773   -6.7520742     408.6003  0.030814502  0.031004763            4 
 1106000    1.0694584   -6.7099038    408.97541  0.030814904  0.030996543            2 
 1107000    1.0982759   -6.7434703    408.19674  0.030728451  0.030988223            3 
 1108000      1.07314   -6.7338256    409.04707  0.030764671  0.030979901            3 
 1109000    1.0806284   -6.7773613    409.13314  0.030743398  0.030971547            3 
 1110000    1.0772942   -6.7752973    410.53748  0.030821132  0.030963125            4 
 1111000    1.1029857   -6.7070478    411.35744  0.030854893  0.030954894            1 
 1112000    1.0875253   -6.7307591    410.69971  0.030777856   0.03094663            5 
 1113000    1.0574176   -6.7925632    409.24255  0.030641101   0.03093816            1 
 1114000    1.0664531   -6.6868922    411.81158  0.030805774  0.030929682            3 
 1115000    1.0910606   -6.7319312    411.85886  0.030781679  0.030921405            6 
 1116000    1.0801482   -6.7284809    412.48529  0.030800873  0.030913047            3 
 1117000    1.1009613   -6.7228864    411.31098   0.03068569  0.030904252            4 
 1118000    1.0785837   -6.7446987    411.51153  0.030673191  0.030895592            4 
 1119000    1.0641883   -6.7379841    411.53565  0.030647576  0.030886959            6 
 1120000    1.0545203   -6.7400562    411.69056  0.030631738  0.030878624            3 
 1121000    1.0801477   -6.7378078    412.01299  0.030628381  0.030870117            7 
 1122000    1.0747479   -6.7269733    412.09221  0.030606968  0.030861641            9 
 1123000    1.0667475    -6.809509    411.20171  0.030513632  0.030852919            2 
 1124000    1.0640939   -6.7287616    412.43649  0.030578031  0.030844006            4 
 1125000    1.0520403    -6.765789    410.78302  0.030428372  0.030834972            1 
 1126000    1.0936668   -6.7414478    411.74271  0.030472374  0.030826073            4 
 1127000    1.0680645   -6.7173448     413.6168   0.03058391  0.030817287            6 
 1128000    1.0867416   -6.7634152    414.30763  0.030607833   0.03080855            4 
 1129000    1.0684707   -6.8037439    411.79402  0.030395189  0.030799594            2 
 1130000    1.0425344   -6.7375886    413.80462  0.030516565  0.030790514            3 
 1131000    1.0678042   -6.7617482    414.57443  0.030546303  0.030781599            4 
 1132000    1.0673853   -6.7523737    413.73398  0.030457448  0.030772737            3 
 1133000    1.0979188   -6.7218788    415.22862  0.030540499  0.030764192            3 
 1134000    1.0715659   -6.7936536    413.36339  0.030376499  0.030755562            5 
 1135000    1.0758611   -6.7903175    415.04988   0.03047356  0.030746755            4 
 1136000     1.073597   -6.7626186     416.5546  0.030557115  0.030738035            3 
 1137000    1.0583086   -6.7400951    417.63941  0.030609749  0.030729537            4 
 1138000    1.0969619   -6.7373473    416.74629  0.030517449  0.030720838            8 
 1139000    1.0837699   -6.7560075    417.41261  0.030539407  0.030712102            4 
 1140000    1.0615389   -6.7649447    415.06098  0.030340715  0.030703271            4 
 1141000    1.0874719   -6.7535171    416.00873  0.030383343  0.030694307            3 
 1142000    1.0503151   -6.8194843    415.92548  0.030350663  0.030685382            5 
 1143000    1.0640219   -6.7360658    416.98114  0.030401075  0.030676679            4 
 1144000     1.087391   -6.7502427    417.16343  0.030387779  0.030667782            3 
 1145000    1.0803914   -6.7313535     418.5834  0.030464585  0.030658947            3 
 1146000    1.0629528   -6.7835925    418.40313  0.030424893  0.030650078            3 
 1147000    1.0676461   -6.7587599    417.56172  0.030337236  0.030641162            3 
 1148000    1.0624887    -6.760808    418.56833   0.03038388  0.030632366            4 
 1149000     1.076994   -6.7453665    419.31897  0.030411878  0.030623595            3 
 1150000     1.044773    -6.772096    418.48562  0.030325045  0.030614896            6 
 1151000    1.0407599   -6.7998451    418.34702  0.030288663  0.030606185            4 
 1152000    1.0725808   -6.8263654      417.635  0.030210865   0.03059714            8 
 1153000     1.068247   -6.7700484    419.27988  0.030303547  0.030588168            2 
 1154000    1.0601667   -6.7396806     419.4138  0.030286958  0.030579367            2 
 1155000    1.0658638   -6.7599636    419.96664  0.030300624  0.030570529            4 
 1156000    1.0795108   -6.7575433    420.89993   0.03034169  0.030561782            5 
 1157000    1.0548521   -6.7827139    420.82428  0.030310018  0.030553043            5 
 1158000     1.048558   -6.7539544    420.37279  0.030251352  0.030544435            3 
 1159000    1.0734824   -6.7179357    422.08788  0.030348568  0.030535741            2 
 1160000    1.0992257   -6.7727976    421.58737  0.030286449   0.03052703            3 
 1161000    1.0450907   -6.7695944    420.33562  0.030170515  0.030518111            7 
 1162000    1.0544363    -6.768904    421.80555  0.030249967  0.030509189            3 
 1163000    1.0598243    -6.730418    421.86917  0.030228516  0.030500328            4 
 1164000    1.0607769   -6.7815309    420.10548   0.03007628  0.030491506            4 
 1165000    1.0711988   -6.7482656    421.98989  0.030185257  0.030482387            3 
 1166000    1.0585183   -6.7630727    422.29205  0.030180964  0.030473316            5 
 1167000    1.0567669   -6.7568272    422.25372  0.030152365  0.030464462            5 
 1168000    1.0687065    -6.770494    422.80789  0.030166088  0.030455342            2 
 1169000    1.0773157   -6.7463612    423.26277  0.030172709  0.030446257            1 
 1170000    1.0785719   -6.7715841    422.56446  0.030097184   0.03043738            4 
 1171000    1.0407979   -6.7604507    422.62012  0.030075443  0.030428126            3 
 1172000    1.0495073   -6.7478479    424.45065  0.030179938  0.030418893            2 
 1173000    1.1070954   -6.7954716    422.85057  0.030040535  0.030409692            5 
 1174000     1.045395   -6.7652397    423.42281  0.030055566  0.030400466            4 
 1175000    1.0752418    -6.803516    424.18067  0.030083736   0.03039126            3 
 1176000    1.0627838   -6.7988163    424.60111  0.030087947  0.030382086            5 
 1177000    1.0705245    -6.792845    424.54589  0.030058474  0.030372913            6 
 1178000    1.0608499   -6.7325465    425.69645   0.03011435  0.030364075            5 
 1179000    1.0578534   -6.8145609    424.25938  0.029987233   0.03035507            4 
 1180000    1.0774949   -6.7693286    426.11414  0.030092807  0.030346218            2 
 1181000    1.0648863   -6.7655049    425.91269  0.030053111  0.030337414            3 
 1182000    1.0508063   -6.7184504     427.5857  0.030145636  0.030328578            3 
 1183000    1.0616436   -6.7771845    426.14023  0.030018331  0.030319837            3 
 1184000    1.0633536   -6.8056241     426.1857  0.029996178  0.030310945            6 
 1185000    1.0770439   -6.8310887    425.77037  0.029941657  0.030301825            4 
 1186000    1.0503701   -6.7925719    427.59793  0.030044824  0.030293054            7 
 1187000    1.0787471   -6.7892371    428.20002  0.030061782  0.030284329            3 
 1188000    1.0694256   -6.7782323    428.60426  0.030064833   0.03027575            4 
 1189000    1.0640941   -6.7861108    428.29782   0.03001807  0.030267078            7 
 1190000     1.080544   -6.7960974    428.69227  0.030020467  0.030258297            2 
 1191000    1.0830619   -6.7932502    428.24588  0.029964028  0.030249514            2 
 1192000    1.0697256   -6.7586111    429.06956  0.029996474  0.030240807            3 
 1193000    1.0524807   -6.7445983    430.01787  0.030037571  0.030232309            6 
 1194000    1.0686335   -6.7902514    429.79585  0.029996918   0.03022375            5 
 1195000     1.061725   -6.7818311    430.25278   0.03000368  0.030215023            7 
 1196000    1.0643347   -6.8074312    428.48435  0.029855376   0.03020633            3 
 1197000    1.0601518   -6.7787389    430.06009  0.029940135   0.03019728            5 
 1198000    1.0654125   -6.8191987    430.25226   0.02992851   0.03018843            2 
 1199000    1.0608464   -6.7660147    430.74896  0.029938071  0.030179672            2 
 1200000    1.0726404   -6.7616896    431.72898  0.029981179  0.030170922            6 
 1201000    1.0561574   -6.7910222    430.43082  0.029866141  0.030162051            4 
 1202000    1.0569455   -6.8082458    429.36339   0.02976729  0.030152973            3 
 1203000    1.0511495   -6.7737279     431.3513  0.029880251  0.030144022            2 
 1204000    1.0679314   -6.8185891    431.39215   0.02985826  0.030135099            2 
 1205000    1.0845511   -6.8054674    431.43661  0.029836557   0.03012606            9 
 1206000    1.0800975   -6.8020689    431.71601  0.029831123  0.030116772            4 
 1207000    1.0594614   -6.8053337    431.91875  0.029820405  0.030107559            4 
 1208000    1.0821861   -6.7943626    430.69574  0.029711351  0.030098405            4 
 1209000    1.0447459   -6.8130137    431.18798  0.029720704  0.030089281           11 
 1210000    1.0762632   -6.7857988    432.18779     0.029765  0.030080071            7 
 1211000    1.0611247   -6.7810504    432.18175  0.029740005  0.030070886            2 
 1212000    1.0652299   -6.8127268    432.08466  0.029708791  0.030061936            4 
 1213000    1.0591926   -6.7824201     433.2637    0.0297653  0.030052574            2 
 1214000    1.0793509   -6.7854517     432.0938  0.029660475   0.03004345            5 
 1215000     1.068881   -6.7687052    434.23452  0.029782889  0.030034529            3 
 1216000    1.0731211    -6.811608    432.41284  0.029633555  0.030025644            3 
 1217000    1.0687846   -6.7788217    435.01894  0.029787657  0.030016659            4 
 1218000    1.0551301   -6.7923894    434.86776  0.029752857  0.030007728            3 
 1219000    1.0459534   -6.7924177    434.88421  0.029729574  0.029998671            7 
 1220000    1.0492386   -6.7765007    434.38626  0.029671193  0.029989513            4 
 1221000    1.0429637   -6.7627689      436.006  0.029757439  0.029980269            5 
 1222000    1.0610177   -6.7934616     434.7003  0.029644046  0.029971043            2 
 1223000    1.0581881   -6.7967814    434.35233  0.029596098   0.02996172            9 
 1224000    1.0701432    -6.846726    434.37055  0.029573158  0.029952231            4 
 1225000    1.0654559   -6.8041773    435.07868  0.029597189  0.029942787            2 
 1226000    1.0595684   -6.7520601    435.21099  0.029582041  0.029933357            5 
 1227000    1.0620947    -6.806789    434.37863  0.029501401  0.029924098            5 
 1228000    1.0432375   -6.7837279    435.77965  0.029572452  0.029914646            3 
 1229000    1.0453196   -6.8231139     433.8356  0.029416572  0.029905062            3 
 1230000     1.058464   -6.8202187    434.79264  0.029457496  0.029895465            4 
 1231000    1.0345367   -6.7776357    436.58917  0.029555183  0.029885996            3 
 1232000    1.0513381   -6.7983368    436.09044  0.029497459  0.029876782            3 
 1233000    1.0562314     -6.79658    437.04479  0.029538036  0.029867369            4 
 1234000    1.0753591   -6.7941893    437.51419  0.029545799  0.029857893            4 
 1235000    1.0668313   -6.7737567    437.73598   0.02953684  0.029848709            2 
 1236000    1.0724605   -6.7995355    437.52276  0.029498568  0.029839346            3 
 1237000    1.0378452   -6.8557808    436.31026  0.029393038  0.029829996            5 
 1238000     1.063697   -6.8263439     437.1877  0.029428359  0.029820674            4 
 1239000    1.0670633   -6.8351919    437.12888  0.029400651  0.029811295            3 
 1240000    1.0462952   -6.7727177    438.05795  0.029439378  0.029801874            3 
 1241000    1.0858573   -6.7351184    440.07984  0.029551426  0.029792875            4 
 1242000      1.04993   -6.7929668    439.60789  0.029495967  0.029783719            4 
 1243000    1.0536385   -6.7656416    439.04841  0.029434729   0.02977456            8 
 1244000    1.0657232   -6.8107627    438.18205  0.029353031  0.029765509            4 
 1245000    1.0800008   -6.8291109    439.72167  0.029432508  0.029756162            2 
 1246000    1.0330825   -6.8123541    439.75355  0.029411018  0.029746887            6 
 1247000    1.0531015   -6.8466283    438.09027  0.029276281  0.029737604            4 
 1248000    1.0314989   -6.8439547    439.57727  0.029352114   0.02972814            4 
 1249000    1.0815551   -6.8235055    439.55061  0.029326836  0.029718949            4 
 1250000    1.0730112   -6.8321627    439.64777  0.029309851  0.029709657            7 
 1251000    1.0622208   -6.8233388    440.08961  0.029315855  0.029700356            5 
 1252000    1.0496791   -6.8138783    441.55298  0.029389842  0.029691069            2 
 1253000    1.0407632   -6.7984597    441.39225  0.029355696  0.029681937            2 
 1254000    1.0401498   -6.8117096    442.00414  0.029372949  0.029672832            3 
 1255000    1.0578686   -6.8020348    442.33811   0.02937172   0.02966353            7 
 1256000    1.0569162   -6.7775889    442.46714  0.029356896  0.029654318            4 
 1257000    1.0708832   -6.8292532    441.82953  0.029291271   0.02964499            6 
 1258000    1.0515907   -6.8286761     441.0815  0.029218435   0.02963541            5 
 1259000    1.0476622   -6.8085376     441.6171  0.029230679  0.029625864            7 
 1260000    1.0490129    -6.802243    440.29539  0.029120066  0.029616299            3 
 1261000    1.0595759   -6.8256586    442.07781  0.029214764   0.02960661            3 
 1262000    1.0654833   -6.8288195    441.60449   0.02916036  0.029597052            3 
 1263000    1.0415445   -6.8157974    442.35279  0.029186645  0.029587403            2 
 1264000    1.0554206   -6.8108086    442.10828  0.029147434  0.029577657            9 
 1265000    1.0595632    -6.829197     443.5251  0.029217727  0.029567796            5 
 1266000    1.0642372    -6.832426    443.58739  0.029198749  0.029558193            3 
 1267000    1.0388161    -6.807031    443.23383  0.029152448  0.029548631            5 
 1268000    1.0521236   -6.7967372    444.16294  0.029190519  0.029538972            3 
 1269000    1.0438219   -6.8402224    442.71322  0.029072316  0.029529379            3 
 1270000     1.033752   -6.8055555    445.96861  0.029263032  0.029519658            7 
 1271000    1.0481794   -6.8270651    445.36217  0.029200247  0.029510128            2 
 1272000    1.0569089   -6.8034447    443.88878  0.029080764  0.029500563            5 
 1273000    1.0621117   -6.8359793     443.6773  0.029044076  0.029490978            5 
 1274000    1.0435265   -6.8234763    444.94194  0.029103999  0.029481229            3 
 1275000    1.0532922   -6.8149985    445.77525  0.029135637   0.02947177            3 
 1276000    1.0338855   -6.8331983     445.1673  0.029073099  0.029462207            4 
 1277000    1.0318266   -6.8284176    444.68852  0.029019089   0.02945264            4 
 1278000    1.0584474   -6.7546917    446.42206   0.02910942  0.029443055            3 
 1279000    1.0635613   -6.8258491    446.85609   0.02911494  0.029433565            5 
 1280000    1.0245222   -6.8018781    445.38079  0.028996145  0.029423986            3 
 1281000    1.0492193    -6.857059    445.82277  0.029002262  0.029414358            6 
 1282000    1.0324739   -6.8792918    444.84589  0.028916139  0.029404449            5 
 1283000    1.0657307   -6.8412008    446.44101  0.028997208  0.029394723            2 
 1284000    1.0585991   -6.8316736    445.91125  0.028940242  0.029385243            3 
 1285000    1.0250691   -6.8430671    448.48194  0.029084432  0.029375842            2 
 1286000    1.0519652   -6.8516284    447.82635  0.029019333  0.029366517            4 
 1287000    1.0542611   -6.8207533     448.3727  0.029032161  0.029357293            5 
 1288000    1.0721136   -6.7937925    450.56571  0.029151508  0.029348315            2 
 1289000    1.0397406   -6.8043394    450.08422  0.029097765  0.029339305            3 
 1290000    1.0476393   -6.8495981    448.70307  0.028985986  0.029330004           13 
 1291000    1.0686737    -6.842497     449.1588  0.028992951   0.02932078            4 
 1292000    1.0528687   -6.8353875    448.58357  0.028933409  0.029311701            3 
 1293000    1.0544879   -6.7929078    450.41187  0.029028865  0.029302727            2 
 1294000    1.0487106   -6.7996202    453.27369  0.029190732  0.029293989            3 
 1295000    1.0168916   -6.8142715    452.53931  0.029120933  0.029285309            3 
 1296000    1.0637953   -6.8443674    452.65542   0.02910593  0.029276507            9 
 1297000    1.0485851   -6.8417221    451.90787  0.029035458  0.029267866            6 
 1298000    1.0255196   -6.8641829    452.02484  0.029020599  0.029259144           11 
 1299000    1.0343222   -6.7946116    453.25276  0.029077031    0.0292504            3 
 1300000    1.0183095   -6.8418278    450.41089  0.028872493  0.029241535            4 
 1301000    1.0535267   -6.8226661    453.73001  0.029062901  0.029232844            5 
 1302000    1.0421653   -6.7916497    455.10995  0.029128901  0.029224009            3 
 1303000    1.0520262   -6.8140669    453.14401  0.028980814  0.029215326            6 
 1304000    1.0220722   -6.8449395    454.15599  0.029023261  0.029206471            4 
 1305000    1.0617606   -6.8112734    453.54196  0.028961811  0.029197472            4 
 1306000    1.0592315    -6.834829    453.80615  0.028956492  0.029188761            5 
 1307000    1.0380241    -6.813229    454.24423  0.028962269  0.029179807            7 
 1308000    1.0491492   -6.8528859    453.08876  0.028866512  0.029170877            2 
 1309000    1.0635427   -6.8584186    452.99827  0.028838698  0.029161826            4 
 1310000    1.0285099   -6.8403283    453.71625  0.028862357  0.029152708            4 
 1311000    1.0554369   -6.8378359    454.17227  0.028869328  0.029143807            4 
 1312000     1.050989   -6.8330441    454.61475  0.028875429  0.029134704            9 
 1313000    1.0573681   -6.8751224    454.15983  0.028824564  0.029125919            2 
 1314000    1.0629724   -6.8559896      455.409  0.028881849   0.02911677            4 
 1315000     1.050477   -6.8971748    453.06389  0.028711273  0.029107655            5 
 1316000    1.0681408   -6.8282513    456.13921  0.028884195  0.029098626            5 
 1317000    1.0355783    -6.839053    456.15809  0.028863458  0.029089534            5 
 1318000    1.0346587   -6.7833128    458.36567  0.028981138  0.029080721            6 
 1319000    1.0101445   -6.8529965    456.73913  0.028856402  0.029071783            5 
 1320000    1.0243373   -6.8526937    457.65516  0.028892371  0.029062866            3 
 1321000    1.0075579   -6.8112791    458.09972  0.028898544  0.029053974            3 
 1322000    1.0199872   -6.8565305    456.72523  0.028790042  0.029045207            5 
 1323000    1.0339119   -6.8657581    458.11372   0.02885574  0.029036454            2 
 1324000    1.0473394   -6.8183527    458.66107  0.028868396  0.029027641            3 
 1325000    1.0300331   -6.8486126    457.83117  0.028794413  0.029018964            3 
 1326000    1.0380501   -6.8262215    459.43648  0.028873585  0.029010227            3 
 1327000    1.0678481    -6.808645    459.63475  0.028864277  0.029001695            2 
 1328000    1.0270196   -6.8549106    458.94817  0.028799459  0.028992909            6 
 1329000    1.0427421   -6.8634147      457.881  0.028710873     0.028984            7 
 1330000    1.0449522   -6.8542954    457.65845  0.028675341  0.028975276            6 
 1331000    1.0200284   -6.8379354    459.92303  0.028795581  0.028966357            8 
 1332000    1.0340982   -6.8386812    458.29318  0.028671996  0.028957429            3 
 1333000    1.0697839   -6.8540623    460.49285     0.028788  0.028948549           11 
 1334000    1.0421541   -6.8451657    460.34261  0.028757035  0.028939809            3 
 1335000     1.039159   -6.8736162    459.59583  0.028688878  0.028930802            3 
 1336000    1.0391208   -6.8676327    459.52865  0.028663214  0.028921801           10 
 1337000    1.0524063   -6.8609877    460.27398  0.028688231  0.028913011            5 
 1338000    1.0262229   -6.8885546    459.95927  0.028647189  0.028904206            8 
 1339000    1.0340267   -6.8531709    461.91852   0.02874773  0.028895226            5 
 1340000    1.0490781   -6.8365003    461.59761  0.028706319  0.028886533            4 
 1341000    1.0490554   -6.8557506    461.79992  0.028697484  0.028877906            5 
 1342000    1.0446111   -6.8225188    462.50109   0.02871964  0.028869369            6 
 1343000    1.0497137   -6.8383429    462.56444  0.028702186  0.028860838            4 
 1344000    1.0161102   -6.8168668    462.88257  0.028700556  0.028852343            4 
 1345000    1.0398167   -6.8810249    462.78989  0.028673475  0.028843777            6 
 1346000    1.0405556   -6.8458742    464.04068  0.028729611  0.028835142            3 
 1347000    1.0341791   -6.8167722    464.86168  0.028759075  0.028826679            2 
 1348000    1.0259625   -6.8438646    464.75124  0.028730912  0.028818181            3 
 1349000    1.0181945   -6.8218123    464.90447   0.02871908  0.028809567            5 
 1350000    1.0296721    -6.850704     464.5184  0.028673975  0.028800963            3 
 1351000    1.0423278   -6.7709095    466.69476  0.028786995  0.028792357            2 
 1352000     1.018855     -6.82708     464.7621  0.028646579  0.028783825            4 
 1353000    1.0274725    -6.842551    464.75324  0.028624861  0.028775217            6 
 1354000    1.0436979   -6.8539995    464.69589   0.02860019  0.028766645            4 
 1355000    1.0332364   -6.8417962    465.02037  0.028599039  0.028758013            5 
 1356000    1.0534134   -6.8478162    465.37418  0.028599692  0.028749454            7 
 1357000    1.0116745    -6.827069    467.10817    0.0286851  0.028740944            7 
 1358000     1.048863   -6.8547979    464.28239  0.028490574  0.028732308            5 
 1359000    1.0232191   -6.8622402    464.71153  0.028495924  0.028723634            2 
 1360000    1.0395279   -6.8329141    465.90905  0.028548349  0.028715002            3 
 1361000    1.0342221   -6.8564007    465.98425  0.028531977  0.028706256            7 
 1362000    1.0422778   -6.8488334     466.7887  0.028560248  0.028697584            3 
 1363000    1.0425968   -6.8189568    466.13643  0.028499415  0.028688708            4 
 1364000    1.0440152   -6.8237704     466.2043  0.028482668  0.028680009            5 
 1365000    1.0359138   -6.8409039      466.403  0.028473931    0.0286713            5 
 1366000    1.0492147   -6.8441598    466.43245  0.028454883  0.028662383            4 
 1367000     1.060995   -6.8473894    465.98025  0.028406501   0.02865348            3 
 1368000    1.0089851   -6.8315563    466.97245  0.028446177  0.028644581            2 
 1369000    1.0396932    -6.863781    466.26347  0.028382242  0.028635591            3 
 1370000     1.049055   -6.8891157    465.47143  0.028313347  0.028626698            2 
 1371000    1.0349287   -6.8525612    466.63022   0.02836313  0.028617728            4 
 1372000    1.0337989   -6.8195222    468.10492  0.028432029  0.028608958            6 
 1373000    1.0481127    -6.881832    467.23986  0.028358816  0.028600107            6 
 1374000    1.0329797   -6.8547001    466.94665  0.028320394  0.028591159            6 
 1375000    1.0308791   -6.9122709    468.30017  0.028381828  0.028582133            8 
 1376000    1.0197064   -6.8839371    468.83783  0.028393764  0.028573169            3 
 1377000    1.0275543   -6.8532728    470.18336  0.028454573  0.028564487            4 
 1378000    1.0344609    -6.831453    469.84153  0.028413252  0.028555766            5 
 1379000    1.0266309   -6.8789375    468.24456  0.028296142   0.02854706            6 
 1380000    1.0476754   -6.8540953    470.39557  0.028405529  0.028538445            2 
 1381000    1.0271657   -6.8915311    469.41549   0.02832582   0.02852983            4 
 1382000    1.0294063   -6.8609723    471.66848  0.028441177  0.028521121            4 
 1383000    1.0362808   -6.8681998      470.279  0.028336888  0.028512303            3 
 1384000    1.0199185   -6.8466356    470.71095  0.028342422  0.028503677            6 
 1385000    1.0431193   -6.8610842    472.46402  0.028427438  0.028495061            4 
 1386000    1.0498453   -6.8619205     472.0651  0.028382943  0.028486521            7 
 1387000    1.0391535   -6.8942586    471.73275  0.028342511  0.028477838            5 
 1388000    1.0225434   -6.9377308    470.95908  0.028275641  0.028469169            3 
 1389000    1.0429265   -6.9057547    472.23192  0.028331649  0.028460604            4 
 1390000    1.0190753   -6.8961332    472.08638  0.028302541  0.028452038            7 
 1391000    1.0399646   -6.9032902    471.32333   0.02823648   0.02844336            3 
 1392000    1.0221525   -6.8966919    472.30482  0.028274954  0.028434778            6 
 1393000     1.030363    -6.858851    473.66865  0.028336244  0.028426352            4 
 1394000    1.0480907   -6.8515859    473.97703  0.028334352  0.028417849            4 
 1395000    1.0282527   -6.8788061    474.03318  0.028317394  0.028409383            5 
 1396000    1.0262178   -6.8411221    473.68411  0.028276272  0.028400911            3 
 1397000    1.0128992   -6.8850543    472.59023   0.02819078  0.028392275           12 
 1398000    1.0365164   -6.9028723    473.20633  0.028207339  0.028383488            6 
 1399000    1.0207536   -6.8227054    474.69713  0.028275979  0.028374832            4 
 1400000    1.0210987   -6.9037632     475.0363   0.02827597   0.02836617            4 
 1401000    1.0423119   -6.9055621    474.02131  0.028195414  0.028357573            2 
 1402000    1.0168814   -6.8807753    475.00869  0.028233993  0.028348812            4 
 1403000    1.0461506     -6.87975    475.40456  0.028237382  0.028340258            4 
 1404000    1.0135825    -6.884048    474.15883   0.02814333  0.028331678            7 
 1405000    1.0535611    -6.866941    474.93105  0.028169101  0.028323065            6 
 1406000    1.0183999   -6.8753294    476.59282  0.028247559  0.028314612            2 
 1407000    1.0139369   -6.9179995    475.65893  0.028172171  0.028306139            3 
 1408000    1.0160739   -6.8217946    477.98715  0.028289959  0.028297695            5 
 1409000    1.0367888   -6.8617043    477.10807  0.028217889  0.028289436            5 
 1410000    1.0371601   -6.8544077    476.27587  0.028148692  0.028281018            1 
 1411000    1.0390598   -6.8159114    478.08876  0.028235811  0.028272566            7 
 1412000    1.0196195   -6.8546868    477.50603  0.028181423  0.028264225            3 
 1413000    1.0430873   -6.9233805    476.37623  0.028094847  0.028255774            2 
 1414000    1.0326878   -6.8711442    477.47351  0.028139646  0.028247332            2 
 1415000    1.0161013   -6.8914548    477.82476  0.028140445  0.028238765            5 
 1416000    1.0243304   -6.8948766    478.32367  0.028149933  0.028230328            5 
 1417000    1.0384957   -6.8707929    478.55965  0.028143946  0.028221787            3 
 1418000    1.0344685   -6.9497101    477.55434  0.028065018  0.028213304            5 
 1419000    1.0180102   -6.9363654    478.66416  0.028110416  0.028204715            6 
 1420000    1.0152668   -6.8804095    479.00025  0.028110343  0.028196243            3 
 1421000    1.0192905   -6.8928538    481.17364  0.028218018  0.028187977            4 
 1422000    1.0160331   -6.9104047    478.96555  0.028068774  0.028179701            6 
 1423000    1.0048774   -6.9058584    479.30507  0.028068931  0.028171387            5 
 1424000    1.0397977   -6.9163731    478.66005  0.028011473  0.028163053            3 
 1425000    1.0243408   -6.8911519    480.46952  0.028097633  0.028154571            4 
 1426000    1.0267532   -6.8667689    481.23896  0.028122894  0.028146319            5 
 1427000    1.0182387   -6.8648581    482.47881   0.02817559  0.028138225            5 
 1428000    1.0246369   -6.8968674    480.70831  0.028052539  0.028130086            5 
 1429000    1.0376509   -6.8861828    482.84267  0.028157375  0.028122089            5 
 1430000    1.0034915   -6.8493278    482.95018   0.02814395  0.028114094            3 
 1431000    1.0320222   -6.8510995    482.94851  0.028124185  0.028106166            5 
 1432000   0.99354311   -6.9125139    482.23603  0.028063084  0.028098231            3 
 1433000    1.0265325   -6.9147388    481.20075  0.027983296  0.028090183            7 
 1434000    1.0203338   -6.8614569    483.03036  0.028070105  0.028082075            4 
 1435000    1.0508839   -6.8582351     484.4365  0.028132201  0.028074029            5 
 1436000   0.99788308   -6.8750295     483.5517  0.028061264  0.028066178            8 
 1437000     1.036323   -6.8740303    483.59573  0.028044289  0.028058314            7 
 1438000    1.0219923   -6.9184915    483.45018  0.028016353  0.028050292            5 
 1439000    1.0317662   -6.8958815    485.19774  0.028098086  0.028042256            5 
 1440000    1.0401828   -6.8798327      483.389    0.0279739  0.028034295            4 
 1441000     1.002692   -6.8689462    486.21404   0.02811786  0.028026412            5 
 1442000    1.0400748   -6.8711348    484.58083  0.028003977  0.028018515            3 
 1443000    1.0069021   -6.9095158    484.78306   0.02799625  0.028010573            3 
 1444000    1.0335715   -6.8734203    486.45776  0.028073509  0.028002658            7 
 1445000    0.9905573   -6.9050737    485.73773  0.028012556  0.027994976            8 
 1446000    1.0329143   -6.8787124    486.67374  0.028047127   0.02798716            4 
 1447000    1.0028742   -6.9117229    485.88142  0.027982113  0.027979255            5 
 1448000     1.026629    -6.929195    485.04349  0.027914565  0.027971325            8 
 1449000    1.0296398   -6.9089438    486.95845  0.028005432   0.02796341            7 
 1450000    1.0264448   -6.9095138    485.88987  0.027924705  0.027955457            5 
 1451000    1.0067601   -6.8834641    488.47711   0.02805405  0.027947449            3 
 1452000   0.99009101    -6.937477    485.96279  0.027890426  0.027939398            3 
 1453000     1.015953   -6.9050016     486.2197  0.027885966  0.027931267            5 
 1454000     1.030084   -6.8808328    487.14719  0.027919944  0.027923311            7 
 1455000    1.0296641   -6.9308812    487.10857  0.027898544   0.02791532            7 
 1456000    1.0177171   -6.8865891    488.52724  0.027960579  0.027907412            5 
 1457000    1.0141693   -6.9218572    488.53644  0.027941915  0.027899384            7 
 1458000    1.0057779   -6.9022116    489.03904  0.027951477  0.027891363            5 
 1459000    1.0076846   -6.8886957    489.22658  0.027943031  0.027883407            9 
 1460000    1.0266453   -6.8672666    490.13852  0.027975943  0.027875651            3 
 1461000    1.0063636   -6.8807244    491.16086  0.028015107  0.027867993            3 
 1462000    1.0221528   -6.8599705    491.23649  0.028000256  0.027860389            6 
 1463000    1.0313758   -6.8594694    490.01182  0.027911359  0.027852659            2 
 1464000    1.0177188   -6.9147362    490.32936  0.027910369  0.027845039            2 
 1465000    1.0189551   -6.9055082     491.6914  0.027968794  0.027837226            5 
 1466000    1.0085795   -6.9270858    491.42115  0.027934354  0.027829521            3 
 1467000    1.0290185   -6.9278142    488.90861  0.027772587  0.027821712            6 
 1468000    1.0384479   -6.9231555    490.78973  0.027860453  0.027813744            5 
 1469000    1.0199873   -6.8879408    489.61338  0.027774755  0.027805815            4 
 1470000    1.0043238   -6.8991894    491.40551  0.027857455   0.02779805            8 
 1471000    1.0086577   -6.8993785    491.41965  0.027839318  0.027790395            7 
 1472000    1.0186064   -6.8587198    492.15132  0.027861828  0.027782741            2 
 1473000    1.0222303   -6.9101193     490.2631  0.027736089  0.027774959            5 
 1474000    1.0291828   -6.9289227    489.76515   0.02768912  0.027766939            7 
 1475000    1.0147651   -6.9630441    490.44637  0.027708835   0.02775891            4 
 1476000    1.0076619   -6.9237041    492.37679  0.027799051   0.02775099            4 
 1477000    1.0013691   -6.8817912    493.29137  0.027831831  0.027743187            1 
 1478000    1.0135117   -6.9199152    491.68184  0.027722251  0.027735229            5 
 1479000    1.0196025   -6.9368169    491.75576  0.027707672  0.027727242           10 
 1480000    1.0052749   -6.9361881    491.79402  0.027691105  0.027719227            2 
 1481000    1.0073122   -6.8973403    492.99024  0.027739716  0.027711401            2 
 1482000    1.0566476   -6.8782395    492.98165  0.027720515  0.027703618            3 
 1483000    1.0235624   -6.9098005    493.77427  0.027746363  0.027695767            3 
 1484000    1.0136267   -6.9639054    492.45747  0.027653721  0.027687761            7 
 1485000    1.0199258    -6.910739    493.48864  0.027692965  0.027679802            3 
 1486000    1.0168205   -6.9404554    493.62565  0.027682013  0.027671776            3 
 1487000    1.0243991   -6.9109679    494.98287  0.027739457  0.027663654            3 
 1488000   0.99453491   -6.8808412    493.85103  0.027657428  0.027655665            4 
 1489000    1.0181387   -6.9314568    492.22308  0.027547743  0.027647772            5 
 1490000    1.0095333   -6.9203307    495.37873  0.027705746  0.027639703            8 
 1491000    1.0073138   -6.8831781    496.55978  0.027753174  0.027631805            2 
 1492000    1.0211767   -6.9125204     495.6124  0.027681658  0.027623918           12 
 1493000    1.0191695   -6.9007309    493.68844  0.027555729  0.027615991            5 
 1494000    1.0100911   -6.8943482    493.84561  0.027546052  0.027608026            3 
 1495000   0.99567599   -6.9096229    494.53121  0.027565842  0.027600002            6 
 1496000    1.0107508   -6.9254342    495.76716  0.027616263  0.027591999            6 
 1497000    1.0208026   -6.9453321     494.1158   0.02750589  0.027583982            3 
 1498000    1.0208107   -6.9539297    496.85383  0.027639844  0.027576065            5 
 1499000    0.9770075   -6.8858548    497.24662  0.027643241  0.027568004            2 
 1500000     1.017116   -6.8956829    497.61915  0.027645509  0.027560269            5 
 1501000   0.98729342   -6.9230103    496.23289  0.027550127  0.027552458            3 
 1502000    1.0204322   -6.9356351    497.31732  0.027591951  0.027544525            4 
 1503000    1.0126148   -6.9217069    497.33549    0.0275746   0.02753672            4 
 1504000    1.0136632   -6.8992693    497.08664  0.027542478   0.02752874            6 
 1505000   0.99021292   -6.9446457    496.88537  0.027513033  0.027520704            4 
 1506000    1.0317616   -6.9351563    496.11956  0.027452388  0.027512779            3 
 1507000    1.0191743   -6.9330297    497.54952  0.027513245  0.027504761            4 
 1508000   0.99815609   -6.9319645    497.64639  0.027500353  0.027496765            3 
 1509000    1.0017529    -6.934816    497.89655  0.027495944  0.027488932           11 
 1510000    1.0328491   -6.9137083    498.18055  0.027493408  0.027480946            4 
 1511000    1.0283792   -6.9265874    498.28359  0.027480895   0.02747313           12 
 1512000    1.0247801   -6.9045041    499.58715  0.027534565  0.027465277            5 
 1513000    1.0169663   -6.9305019    499.01752  0.027484992  0.027457405            4 
 1514000    1.0054809   -6.9013042    499.33117  0.027484102  0.027449515            5 
 1515000    1.0193842   -6.9107566    498.78672  0.027436013   0.02744173            3 
 1516000    1.0141715   -6.9310245    499.44173  0.027453921  0.027433817            3 
 1517000    1.0145884   -6.9237642    500.96997  0.027519774  0.027425928            5 
 1518000    1.0158553   -6.9473224    500.85485  0.027495325  0.027418096           10 
 1519000    1.0279363   -6.9242567    501.87896  0.027533408  0.027410226            4 
 1520000     1.008895   -6.9135425    502.05023  0.027524684  0.027402465            3 
 1521000     1.027297   -6.9706181    500.35668    0.0274138  0.027394645            5 
 1522000    1.0051419    -6.941575    501.12708   0.02743797  0.027386842            4 
 1523000   0.98497239   -6.9125599     500.8837  0.027406637  0.027379054            6 
 1524000   0.99640598   -6.9206446    502.04901  0.027452374  0.027371224            3 
 1525000    1.0043496   -6.9127113     501.8797   0.02742512  0.027363563            4 
 1526000    1.0091937   -6.9441436    500.97434  0.027357707  0.027355752            5 
 1527000    1.0038414   -6.9441207    503.95755  0.027502595  0.027348053            4 
 1528000    1.0091267   -6.9273242    502.70197   0.02741612  0.027340293            8 
 1529000    1.0052713   -6.9224466    502.55849  0.027390369  0.027332583            6 
 1530000    1.0184191   -6.9445534    503.45535  0.027421315  0.027324966            2 
 1531000    1.0220975   -6.9004888    504.73546  0.027473082  0.027317423            8 
 1532000    1.0037648   -6.8777854     505.4797  0.027495632   0.02730992            3 
 1533000    1.0027245   -6.9141141     504.0223  0.027398472  0.027302434            3 
 1534000    1.0088444   -6.8677473    506.15987  0.027496733  0.027294873            6 
 1535000     1.000882   -6.9121522    503.34274  0.027325882  0.027287216            5 
 1536000   0.99956843   -6.9530603    504.29884  0.027359963  0.027279538            6 
 1537000    1.0153083   -6.9242315    503.44061   0.02729563   0.02727178            5 
 1538000    1.0139022   -6.9268798    504.38096  0.027328834  0.027264061            3 
 1539000    1.0088916   -6.9086147    506.04685   0.02740128  0.027256205           10 
 1540000    1.0253816   -6.9018114    505.03007  0.027328467  0.027248483            9 
 1541000    1.0174215   -6.9384206    504.73151  0.027294587  0.027240892            3 
 1542000   0.99855624    -6.934575     505.2872  0.027306918   0.02723316            4 
 1543000     1.004507   -6.9619833    504.89061  0.027267801  0.027225326            4 
 1544000    1.0071684   -6.9542752    505.29925  0.027272196  0.027217426            6 
 1545000    1.0278087   -6.9672763    505.08669  0.027243079  0.027209638            4 
 1546000   0.99082519   -6.9294916    505.88336    0.0272684  0.027201797            6 
 1547000    1.0116118   -6.9770634    505.52184  0.027231299  0.027193887            5 
 1548000   0.98441969   -6.9432817    505.79783  0.027228566  0.027186037            2 
 1549000   0.98980474   -6.9286264    506.78053  0.027263854  0.027178133            6 
 1550000    1.0201407   -6.9670264    504.43942  0.027120399  0.027170197            3 
 1551000    1.0175462   -6.9568179    506.67756  0.027223166  0.027162264            6 
 1552000    0.9986367   -6.9302663    506.73669    0.0272088  0.027154554            3 
 1553000    1.0054533    -6.955834    507.45348  0.027229742  0.027146806            5 
 1554000   0.99108031   -6.9443707    505.80207  0.027123663  0.027138983            4 
 1555000   0.99626025   -6.9191892    507.95122  0.027221395   0.02713111            2 
 1556000    1.0163656   -6.9233984    508.56207  0.027236615  0.027123473            5 
 1557000    1.0101363   -6.8989502    509.82166  0.027286537  0.027115791            3 
 1558000   0.98964236   -6.9124656    508.90121  0.027219791   0.02710816            5 
 1559000   0.96446652   -6.9213596    508.23495  0.027166717  0.027100482            7 
 1560000     1.004515   -6.9249176     508.9486  0.027187425  0.027092699            3 
 1561000    1.0043381   -6.9693567    506.77297  0.027053864  0.027084827            5 
 1562000   0.99495499   -6.9563985     508.9332  0.027151792  0.027076789            5 
 1563000    1.0024485   -6.9101292    508.79912  0.027127272  0.027068969            3 
 1564000    1.0143826   -6.9485713    509.70913  0.027158415  0.027061073            4 
 1565000    1.0042394   -6.9307322    508.95562  0.027100938  0.027053303            4 
 1566000    1.0024155   -6.9123553    510.75677  0.027179479  0.027045575            3 
 1567000    1.0051505    -6.960251    510.40351  0.027143348  0.027037879            5 
 1568000    1.0171813   -6.9973357    507.69049   0.02698185  0.027030219            6 
 1569000    1.0030115   -6.9321531    510.12884   0.02709416  0.027022561            4 
 1570000    1.0054592   -6.9490003    508.65229  0.026998529  0.027014842            4 
 1571000   0.99772674   -6.9336792    511.25737   0.02711953  0.027007189            4 
 1572000    1.0055544   -6.9428985    510.05833  0.027038716  0.026999645            7 
 1573000   0.99950131   -6.9602666    509.70787   0.02700296  0.026991922            6 
 1574000   0.96855184   -6.9345989    511.20017  0.027064812  0.026984365            4 
 1575000   0.99713741   -6.9628315    509.78756  0.026972887  0.026976644            3 
 1576000    1.0134809   -6.9919621    510.78168  0.027008337  0.026968937            7 
 1577000   0.98049624   -6.9302429    513.07461  0.027112376  0.026961183            5 
 1578000    1.0131218   -6.9540566     511.1196  0.026991952   0.02695356            9 
 1579000    1.0164715   -6.9320151    513.23854  0.027086687  0.026946006            5 
 1580000   0.99012227   -6.9424296    513.03523   0.02705882  0.026938473            2 
 1581000   0.99941926   -6.8773813    513.35279  0.027058444  0.026930887            3 
 1582000   0.99318663   -6.9440783     513.3072  0.027038938  0.026923201            5 
 1583000   0.99107264   -6.9444497    512.38171  0.026973137  0.026915478            4 
 1584000    1.0230146   -6.9278398    514.25394  0.027054605  0.026907632            4 
 1585000   0.99380898   -6.9624964    513.27506   0.02698607  0.026900013            2 
 1586000   0.99767792   -6.9395743    513.75264  0.026994149  0.026892425            8 
 1587000   0.99809543    -6.954224    511.23837  0.026845115  0.026884595            6 
 1588000     0.994295   -6.9726795    512.37706  0.026887965    0.0268768            4 
 1589000   0.99276139   -6.9851064    513.27846  0.026918316  0.026869115            6 
 1590000    1.0069154    -6.999466    511.84273  0.026826139  0.026861391           10 
 1591000   0.96994555    -6.956835    513.38816  0.026890224  0.026853568            6 
 1592000   0.99998962   -6.9850908    513.32702  0.026870133   0.02684581            4 
 1593000   0.99697269   -6.9637911    513.09611  0.026841186  0.026837991            3 
 1594000   0.99485514   -6.9700302    514.76648  0.026911673  0.026830246            3 
 1595000   0.98591702   -7.0388772    512.10828  0.026755918  0.026822452            7 
 1596000    1.0022878    -7.032483    513.91408  0.026833442  0.026814549            7 
 1597000     1.042622    -6.942265       515.79  0.026914527  0.026806771            3 
 1598000   0.98633198   -6.9260369    515.89764  0.026903298  0.026799136            2 
 1599000   0.98828273   -6.9694908    515.35324  0.026858101   0.02679153            5 
 1600000   0.99087991   -6.9844249    515.47274  0.026847538  0.026783745            5 
 1601000   0.98233522   -6.9564545    516.03368  0.026859967   0.02677604            5 
 1602000    0.9945256   -6.9775102    516.34982  0.026859645   0.02676839            5 
 1603000   0.97800893   -6.9973816     514.3097  0.026736832  0.026760682            6 
 1604000   0.99674262   -6.9520212    516.43307  0.026830479  0.026752854            4 
 1605000   0.99349309   -6.9719972    516.81747  0.026833721  0.026745213            4 
 1606000    1.0081391   -6.9544448    517.56839  0.026855977  0.026737591            2 
 1607000   0.99967752   -7.0138768    515.22001  0.026717486  0.026729836           18 
 1608000   0.98759091   -6.9551329    516.84583  0.026785128  0.026722093            5 
 1609000   0.99420882   -6.9562436    517.90064  0.026823112  0.026714291            4 
 1610000   0.99667897   -6.9305327    518.06779  0.026815103  0.026706504            5 
 1611000   0.99258361   -7.0085117    515.96104  0.026689481  0.026698694            6 
 1612000    1.0006679   -6.9597282     517.4949  0.026752217  0.026690809            6 
 1613000   0.99631628   -6.9681272    518.03658  0.026763617  0.026682969            5 
 1614000    0.9880434   -6.9769992    516.04142  0.026644022  0.026675123            3 
 1615000   0.99124941   -6.9756484    518.15455  0.026736561  0.026667209           15 
 1616000   0.98790687   -6.9783054    516.50368  0.026634885  0.026659176            2 
 1617000   0.99195523   -6.9773422    517.69041  0.026679572  0.026651234            3 
 1618000   0.99683268    -6.995483    518.61539  0.026710723  0.026643308            7 
 1619000   0.96893667   -6.9537629    518.56647  0.026691706  0.026635447            5 
 1620000    1.0069129   -6.9990485    517.05978  0.026597725  0.026627622            3 
 1621000   0.99506016   -6.9951723    519.57035  0.026710382  0.026619729            4 
 1622000   0.99659874   -6.9351183    519.70647  0.026700908  0.026611993            5 
 1623000   0.98451596   -6.9766719    519.49773  0.026673739  0.026604186            3 
 1624000   0.98549482   -6.9804869    517.45511    0.0265525  0.026596161            3 
 1625000    1.0294219   -7.0182906     518.3401  0.026581543  0.026588146            3 
 1626000   0.98839875    -6.947246    519.16907  0.026607681  0.026580141            4 
 1627000   0.99647923    -6.970926    518.98954  0.026582132   0.02657227            3 
 1628000   0.99194162   -6.9677461    518.73405  0.026552726  0.026564343            4 
 1629000    1.0040967   -6.9859313    520.81697   0.02664298  0.026556448            7 
 1630000   0.97963611   -6.9631132    519.91457  0.026580499  0.026548504            5 
 1631000    0.9752053   -6.9865003    519.42928  0.026539407  0.026540668            8 
 1632000   0.99182342   -6.9787731    520.29834  0.026567521  0.026532731            3 
 1633000   0.99075134   -6.9596933     520.4631   0.02655966  0.026524843            4 
 1634000     1.007013   -6.9479382    520.25961  0.026533028  0.026517005            3 
 1635000   0.98320731   -6.9834529    518.96849  0.026450993  0.026509133            3 
 1636000   0.98716907   -6.9703686    521.64493  0.026571156   0.02650123            5 
 1637000   0.99745829    -6.942892    520.80299  0.026512064  0.026493347           14 
 1638000   0.97735253   -6.9776773    520.98654  0.026505217  0.026485468            6 
 1639000    0.9896465   -6.9763852    521.36038  0.026508053  0.026477607            3 
 1640000   0.99259726    -6.988143    520.25783  0.026435865   0.02646985            7 
 1641000   0.97867905   -6.9960812    521.33693  0.026474555  0.026461981            7 
 1642000   0.98846505   -6.9807636    522.38129  0.026511433  0.026454147            5 
 1643000    1.0045022   -6.9503001    523.40919  0.026547433  0.026446324            5 
 1644000     1.009667    -7.000373    521.16855  0.026417708   0.02643838            5 
 1645000    1.0062997   -6.9524405    523.08513   0.02649874  0.026430564            5 
 1646000   0.98092717   -6.9489756    523.09633  0.026483208  0.026422947            3 
 1647000    1.0156364    -6.947809     522.5375  0.026438854  0.026415215            6 
 1648000   0.99490415   -7.0054614    521.79974  0.026385504  0.026407309            5 
 1649000   0.98020755    -6.979653    523.66657  0.026463845  0.026399465            6 
 1650000   0.99116046   -6.9741165    523.90685  0.026459942  0.026391663            4 
 1651000   0.98635361   -6.9957213    524.05406  0.026451346  0.026383883           14 
 1652000    1.0171784   -6.9779311    525.22026  0.026494161  0.026376202            9 
 1653000   0.99131404   -6.9990749    524.45762  0.026439687  0.026368502            6 
 1654000   0.99474689   -6.9820437    524.45997   0.02642382  0.026360749            9 
 1655000   0.98482668   -6.9778219    525.60187  0.026465351  0.026353027            4 
 1656000   0.99578144   -6.9337835    525.61414  0.026449987  0.026345574            6 
 1657000   0.99070887   -6.9455531    527.13031  0.026510275   0.02633795            4 
 1658000     0.951438   -6.9959859    526.31133  0.026453123  0.026330347            5 
 1659000   0.99562817   -7.0152855    525.03101  0.026372866  0.026322665           13 
 1660000    0.9852822   -7.0215143    527.06996  0.026459335  0.026314866            7 
 1661000   0.97021389   -7.0265602    527.27657  0.026453771   0.02630724            7 
 1662000   0.97660789   -6.9889032    526.57823   0.02640284  0.026299571            5 
 1663000    1.0056102   -7.0387732    525.73149  0.026344532  0.026291985            5 
 1664000   0.98807719    -6.962051    527.22304  0.026403397  0.026284411            6 
 1665000   0.97607243   -6.9813061    527.04945  0.026378851  0.026276728            3 
 1666000   0.96860912   -6.9808559    526.22871  0.026321964   0.02626919            5 
 1667000    1.0037031   -6.9585744    529.41466   0.02646544  0.026261621            2 
 1668000   0.99631339   -6.9898372    527.72836  0.026365326  0.026254034           18 
 1669000   0.96898891   -7.0099512    525.98612  0.026262538  0.026246303            7 
 1670000   0.96744215   -6.9596948      528.962  0.026395309  0.026238654            5 
 1671000   0.99116483   -6.9803828     527.7016  0.026316656  0.026231088            4 
 1672000   0.98358209   -6.9534742    529.66875  0.026398961  0.026223528            3 
 1673000   0.97556731   -6.9637283    528.75721  0.026337777  0.026215927            3 
 1674000   0.95608186   -6.9798823    528.51648   0.02631006  0.026208251            4 
 1675000   0.97821479     -6.99136    528.67831  0.026302403  0.026200532           11 
 1676000   0.98100703    -6.993923     528.2566  0.026265742  0.026192873           10 
 1677000     1.004907   -6.9773775    528.81033  0.026277596  0.026185134            6 
 1678000    1.0043938   -6.9980407    528.41994  0.026242547  0.026177396            3 
 1679000   0.98805391   -6.9872833    529.47789  0.026279427  0.026169651            3 
 1680000   0.97942792   -6.9945742    528.53262  0.026216896  0.026161941            4 
 1681000   0.98155787   -6.9911077    527.97146  0.026173481  0.026154187            3 
 1682000   0.96573179   -6.9914048     530.7498  0.026295571  0.026146599            6 
 1683000   0.99008188   -6.9636022    530.43113  0.026264168  0.026138933            3 
 1684000   0.97447455   -6.9879252    529.88488   0.02622154  0.026131317            3 
 1685000   0.98103293   -7.0205771    529.71707  0.026197679  0.026123604            9 
 1686000   0.98261448   -6.9865745    530.15853   0.02620396  0.026115911            4 
 1687000    1.0129472   -7.0088338    529.60961  0.026161313  0.026108288            6 
 1688000   0.99027712   -7.0165987    529.95381  0.026162807  0.026100471            8 
 1689000   0.98483403   -6.9855184    530.36879  0.026167791  0.026092861            4 
 1690000   0.95556313   -7.0530789    529.94152  0.026131239  0.026085144            6 
 1691000    1.0006239   -7.0183004     530.7011  0.026153218  0.026077347            5 
 1692000   0.97286145   -6.9954743    532.06456  0.026204913  0.026069692            5 
 1693000   0.97940345   -6.9900815    531.66806  0.026169918  0.026062035            6 
 1694000   0.97284029   -7.0154879    531.26964   0.02613487  0.026054345            6 
 1695000   0.97652251   -6.9921896     532.2958  0.026169902  0.026046701            6 
 1696000   0.96390551   -7.0099583     531.7441  0.026127363  0.026039085            4 
 1697000   0.98767853   -6.9877537    533.17146   0.02618206  0.026031525            7 
 1698000    0.9901033   -7.0146028    530.75278  0.026047938   0.02602381            5 
 1699000   0.98685812   -6.9780667     533.4778  0.026166265  0.026016106            2 
 1700000    1.0024901    -7.001163    532.61762  0.026108707  0.026008402            7 
 1701000   0.97484268   -7.0154976    531.95619  0.026060954  0.026000685            6 
 1702000   0.95348759   -6.9917026    533.70975    0.0261315  0.025992959            7 
 1703000    1.0006859   -6.9905026    532.77774  0.026070549  0.025985385            8 
 1704000   0.98076967   -7.0319918    531.72159  0.026003599  0.025977639            5 
 1705000   0.96543247   -7.0225814    532.78682  0.026040411   0.02596987            3 
 1706000   0.99079668   -6.9839329    534.06548  0.026087606  0.025962324            5 
 1707000    0.9816893   -7.0215981    532.75303  0.026008252  0.025954702            6 
 1708000   0.99621059   -7.0098925    532.03265  0.025957877  0.025947114            2 
 1709000   0.99940801   -7.0123663    535.08429  0.026091491  0.025939468            1 
 1710000   0.97146627   -7.0178335    534.94428   0.02606941  0.025931767            4 
 1711000   0.97495306   -6.9950888    533.81177  0.025999015  0.025923984            5 
 1712000   0.97780316   -7.0579228    533.16368  0.025952282  0.025916293            4 
 1713000   0.96207084   -7.0310182    533.00319  0.025929324  0.025908522            8 
 1714000   0.98398254    -7.010784    534.47736  0.025985869  0.025900753            7 
 1715000   0.97867216   -7.0222415    534.91904  0.025992179  0.025893049            5 
 1716000    0.9900037   -6.9963931    536.27542  0.026042901  0.025885347            8 
 1717000   0.97994494   -6.9992565    536.21441  0.026024772  0.025877643            6 
 1718000   0.97255533   -7.0166275    534.58774  0.025930721  0.025870058            4 
 1719000   0.98083008   -7.0545164    533.68562  0.025871903  0.025862229            6 
 1720000    0.9767695   -7.0548915    535.66958  0.025952984  0.025854412            3 
 1721000   0.97954138   -6.9580361    536.23904  0.025965477  0.025846799            2 
 1722000    0.9821448   -7.0465774    534.83885  0.025882639  0.025839157            3 
 1723000   0.96239838   -7.0086037    536.10598  0.025928902  0.025831465            2 
 1724000   0.99102558   -7.0544084     535.6637  0.025892484  0.025823729            4 
 1725000   0.98203993   -7.0269552    534.45859  0.025819255  0.025815932            2 
 1726000   0.98103276   -7.0215553    535.28505  0.025844199  0.025808091            6 
 1727000   0.97346471   -6.9949941    535.59677  0.025844276  0.025800318            3 
 1728000   0.96647625    -6.999397    535.86785  0.025842392  0.025792605           13 
 1729000   0.96031602    -6.963209    537.84364  0.025922674  0.025784978            7 
 1730000   0.96958411   -6.9902538    539.17007  0.025971583   0.02577733            4 
 1731000    0.9623306   -7.0304907     535.9305  0.025800621   0.02576968            5 
 1732000   0.96467632   -7.0331901    536.78434  0.025826806  0.025761971            3 
 1733000   0.98495294   -7.0326307     538.0908  0.025874726  0.025754255            6 
 1734000   0.97444663   -7.0538712    535.78618  0.025749048  0.025746524            4 
 1735000   0.96673849   -7.0402398    535.46809  0.025718929  0.025738731            7 
 1736000   0.98799288   -7.0175724     536.8019   0.02576814  0.025730814            3 
 1737000   0.98753668   -7.0226119      537.916  0.025806755   0.02572298            3 
 1738000   0.96742321   -7.0496213    535.28492  0.025665752  0.025715215            4 
 1739000   0.98723407   -7.0498971    536.67771  0.025717736  0.025707311            6 
 1740000   0.97471196   -7.0475055    536.06563  0.025673641  0.025699403            6 
 1741000   0.96663685    -7.006388     536.6712  0.025687881  0.025691568            3 
 1742000   0.98828935   -7.0763448    535.92119  0.025637256  0.025683661            5 
 1743000   0.96904206   -7.0356441    537.85054   0.02571479  0.025675725            7 
 1744000   0.97378271   -7.0292699    539.16051  0.025762639   0.02566795            4 
 1745000   0.98834756    -7.055052    538.34617  0.025708986  0.025660183            5 
 1746000   0.97806136   -7.0351204    538.42814  0.025698174  0.025652363            3 
 1747000   0.96677459   -7.0564914    539.26691  0.025723474  0.025644665            3 
 1748000   0.97632887   -7.0177055    539.99906  0.025743662  0.025636927            4 
 1749000   0.96818897   -7.0487876     538.9977  0.025681232  0.025629337            5 
 1750000   0.96626837   -7.0105599    540.98234  0.025761064  0.025621674            4 
 1751000   0.96796129   -7.0161708    541.18968   0.02575622  0.025614111            6 
 1752000   0.94591013   -7.0419533    539.93066  0.025681634  0.025606326            5 
 1753000   0.96468745    -7.054941    540.26907   0.02568307  0.025598582            6 
 1754000   0.99057782   -7.0539748    540.10116   0.02566045  0.025590767            4 
 1755000    0.9715154   -7.0650606    539.86191  0.025634469  0.025583024            9 
 1756000   0.96477621   -7.0323508      542.503  0.025745207  0.025575324            6 
 1757000   0.99436844   -7.0220829    541.76456   0.02569553  0.025567667            3 
 1758000   0.96004663   -7.0391353    541.55696  0.025671073  0.025559973            8 
 1759000   0.97493576   -7.0695989    540.35996  0.025599771  0.025552383            3 
 1760000   0.93700013   -7.0339745    542.72713  0.025697307  0.025544712            7 
 1761000   0.98015901    -7.045894    541.61153  0.025629923  0.025537018            7 
 1762000   0.99466062   -7.0275739    540.56583  0.025565921  0.025529304            8 
 1763000   0.96354071    -7.023241    542.14536  0.025626081   0.02552177            7 
 1764000   0.96255584   -7.0382484    542.39664  0.025623424  0.025514292            4 
 1765000   0.96385417   -7.0175096    544.05435  0.025687174  0.025506774            5 
 1766000   0.97555174   -7.0040572      542.078   0.02557937  0.025499159            4 
 1767000   0.94571874   -7.0462758    542.10635   0.02556623  0.025491539            3 
 1768000   0.97216518   -7.0319361    542.29115   0.02556048  0.025483908            5 
 1769000   0.95398921   -7.0370776    542.64431  0.025562668  0.025476295            3 
 1770000   0.97507564    -7.030163    541.76419  0.025506788  0.025468579            6 
 1771000   0.95237492    -7.055608    543.16938  0.025558507  0.025460844           13 
 1772000   0.96382088   -7.0495525     543.4109  0.025555441  0.025453088            3 
 1773000   0.98045191    -7.042594    543.04188  0.025523683  0.025445358            6 
 1774000      0.96751   -7.0327483      543.283  0.025520622  0.025437673            6 
 1775000   0.95854847     -7.09583    541.16713  0.025406907  0.025429834            5 
 1776000     0.977222   -7.0919277    542.45528  0.025453044  0.025421946            3 
 1777000   0.96410839   -7.0605442    543.31539  0.025479056   0.02541417            5 
 1778000    0.9778148   -7.0364497    542.09784   0.02540766  0.025406406            6 
 1779000   0.96637515   -7.0240522    544.76956  0.025518529  0.025398687           13 
 1780000       0.9853   -7.0092304    545.32201  0.025530057   0.02539095           10 
 1781000   0.95073019   -7.0032262    544.87113  0.025494625  0.025383244            3 
 1782000   0.95218418   -7.0277437    544.94962  0.025483989  0.025375542            3 
 1783000   0.98133665   -7.0429411    541.95151  0.025329572  0.025367753            7 
 1784000    0.9615022   -7.0478821    543.06209   0.02536725  0.025359862            9 
 1785000   0.96228421   -7.0393968    544.15871  0.025404235  0.025352059            3 
 1786000   0.94952205   -7.0423938    543.89977  0.025377929  0.025344141            4 
 1787000   0.96041537   -7.0613655    542.09539  0.025279584  0.025336205            4 
 1788000   0.97964531   -7.0507173    542.19362  0.025270023  0.025328239            2 
 1789000   0.96503587   -7.0439385    543.71132  0.025326594  0.025320337            5 
 1790000   0.97333822   -7.0192913    543.96086  0.025324062  0.025312458            5 
 1791000   0.97971951   -7.0494698    543.38537  0.025283146  0.025304569            4 
 1792000   0.95477043   -7.0682129    543.66701  0.025282134  0.025296615            7 
 1793000   0.95519302   -7.0519116    543.32591   0.02525218  0.025288625            6 
 1794000   0.97327833   -7.0884523    544.95221  0.025313648  0.025280823           13 
 1795000   0.95162514   -7.0400765    546.38917  0.025366257  0.025272917            4 
 1796000   0.95198407     -7.03124    547.57809  0.025407298  0.025265177            2 
 1797000   0.97167153   -7.0612385    545.50864  0.025297191  0.025257442            3 
 1798000   0.96074869   -7.0996023    544.16619  0.025220902  0.025249628            5 
 1799000   0.96621057   -7.0890717    542.94812  0.025150459  0.025241568            7 
 1800000   0.96635129   -7.0971368    544.19888  0.025194392  0.025233584            7 
 1801000   0.96293736   -7.0704401    543.98277  0.025170404  0.025225535            8 
 1802000    0.9544024   -7.0656306    545.98099  0.025248844  0.025217531            7 
 1803000   0.96244269   -7.0659058    545.00802   0.02518987  0.025209603            6 
 1804000   0.97118631   -7.0859295    544.79169  0.025165913  0.025201528            4 
 1805000   0.99213085   -7.0676816    545.48775  0.025184106  0.025193544            5 
 1806000   0.94023133   -7.0296984    547.47599  0.025261904  0.025185546            7 
 1807000   0.96025374   -7.0777501    546.25413  0.025191576  0.025177611           10 
 1808000    0.9647571   -7.0392845    547.57061  0.025238321  0.025169626            5 
 1809000    0.9446899   -7.1063939     544.3312  0.025075143  0.025161569            6 
 1810000    0.9716265   -7.0667779    545.48385  0.025114358  0.025153541            6 
 1811000    0.9677717   -7.0241472    547.29874  0.025184002  0.025145535            4 
 1812000   0.95423629    -7.092147     544.7241  0.025051697  0.025137546            5 
 1813000    0.9542931   -7.0073747    548.74692  0.025222785  0.025129511            6 
 1814000    0.9503434   -7.0408508    547.41171  0.025147543  0.025121533            6 
 1815000   0.97568929   -7.0334306    548.91916    0.0252029  0.025113606            5 
 1816000   0.98494967   -7.0581777    546.29428   0.02506857  0.025105614            5 
 1817000   0.96523036   -7.0907305    544.77199  0.024984956  0.025097477            7 
 1818000   0.95888357     -7.11481    545.28526  0.024994741  0.025089156           16 
 1819000   0.97448305   -7.0843865    544.56041  0.024947792  0.025080869            3 
 1820000   0.96226098    -7.083887    545.83855  0.024992608  0.025072541            3 
 1821000   0.95623429   -7.0883447    544.56545  0.024920623  0.025064328            8 
 1822000   0.96853981   -7.0762391    545.37904  0.024944157  0.025056076            4 
 1823000   0.93736085   -7.0794169    545.39925  0.024931398  0.025047811            4 
 1824000   0.96074661   -7.0359887    547.90182  0.025032064  0.025039616            3 
 1825000    0.9519068   -7.0703757      545.631  0.024914658  0.025031296            2 
 1826000   0.94170978   -7.0941191    546.05122  0.024920191  0.025023078            4 
 1827000   0.96806133    -7.080804    547.94009  0.024992706   0.02501486            4 
 1828000   0.96553774   -7.0982442    546.33876  0.024906034  0.025006615            8 
 1829000   0.95876476   -7.0812433    547.79386  0.024958714  0.024998201            9 
 1830000   0.97066681   -7.0858165    543.94524   0.02476982  0.024989839            4 
 1831000   0.97801462   -7.1020024    546.31902  0.024864328  0.024981488           10 
 1832000   0.96147611   -7.1043901     547.4534  0.024902356  0.024973087            8 
 1833000   0.99018082   -7.0635285    548.05697  0.024916211  0.024964851            3 
 1834000   0.94940915   -7.0937563    547.94531  0.024897551  0.024956625            9 
 1835000   0.95311618   -7.0697948    548.37312  0.024903411  0.024948255            5 
 1836000   0.92990548   -7.0938206    546.98797  0.024826977  0.024939914            4 
 1837000   0.96510936   -7.0519218    548.44866  0.024879725  0.024931542            7 
 1838000   0.96444879   -7.0766886     548.5377  0.024870226  0.024923228            2 
 1839000   0.96038262   -7.0617605    547.23419  0.024797634  0.024914983            4 
 1840000   0.96614424    -7.078209    548.03524  0.024820437  0.024906666            7 
 1841000   0.95942466    -7.067684    548.30421   0.02481913  0.024898353            5 
 1842000   0.95858189   -7.1079544    547.70136  0.024778382  0.024889994            8 
 1843000   0.95370944   -7.0815465    548.40801  0.024796889  0.024881582           11 
 1844000   0.93727735   -7.0588455    548.30671  0.024778864   0.02487317            5 
 1845000   0.95391964    -7.084479    548.02867  0.024752876  0.024864777            9 
 1846000   0.94526738   -7.0820144    548.08609  0.024742059  0.024856476            7 
 1847000    0.9410778   -7.0386022    549.52764  0.024793703  0.024848254            6 
 1848000   0.95618932    -7.091212    548.30633  0.024725213  0.024839956            6 
 1849000   0.94696118   -7.0652685    550.87791  0.024827741  0.024831756            3 
 1850000   0.96498154   -7.0786781    549.29634  0.024743078  0.024823471            3 
 1851000   0.95927557   -7.0685378    550.09082  0.024765479  0.024815236           21 
 1852000   0.96206011   -7.0894707    547.94549  0.024655574  0.024806977            8 
 1853000   0.96296118   -7.1016757    548.04861  0.024646906  0.024798679            2 
 1854000   0.93865441   -7.0730022    552.50875  0.024834086  0.024790343            7 
 1855000   0.96246392   -7.0922858    549.80367  0.024699177  0.024782046            6 
 1856000   0.95540208   -7.1095114    550.70619  0.024726391    0.0247737            5 
 1857000   0.95363805   -7.1082686    548.84598  0.024629599  0.024765442            3 
 1858000   0.94459728   -7.0669742    549.65722  0.024652728  0.024757145            5 
 1859000   0.95257375   -7.0878596     549.7735  0.024644679  0.024748822            4 
 1860000   0.95323462    -7.102703    550.18475  0.024649855  0.024740521            4 
 1861000   0.93071442   -7.0744393     551.3574  0.024689119  0.024732299            4 
 1862000   0.93045297   -7.0893952    551.23683  0.024670463  0.024724053            4 
 1863000    0.9358294   -7.0832208    552.05193  0.024693681  0.024715838            3 
 1864000   0.95254188   -7.1119224    550.44346  0.024608524  0.024707691            9 
 1865000   0.92823322   -7.0944069    552.50092  0.024687262  0.024699474            7 
 1866000   0.94539682   -7.1331005    550.57264  0.024587917   0.02469119            4 
 1867000   0.95897589    -7.074893    552.59489   0.02466501  0.024682925            3 
 1868000   0.95922326   -7.1056272    552.31094  0.024639139  0.024674732            3 
 1869000   0.94675583    -7.070349    551.25314  0.024578791  0.024666516            3 
 1870000   0.95290322   -7.0817609    552.71188  0.024630654  0.024658292            4 
 1871000   0.95167201   -7.1002045    554.72391  0.024707105  0.024650137            7 
 1872000   0.97559932   -7.0873694    552.81808  0.024609067   0.02464197            7 
 1873000   0.96514074   -7.1284517    552.47145  0.024580506  0.024633832            9 
 1874000   0.95946474   -7.0989554    552.10045  0.024550892  0.024625672            7 
 1875000   0.93674499   -7.0474475    554.29473  0.024635321  0.024617561            5 
 1876000   0.94936128   -7.0808419    553.84921  0.024602399  0.024609585            6 
 1877000   0.95277971   -7.0799491    553.39095  0.024568947  0.024601515            5 
 1878000   0.95238216   -7.0873826    554.18822  0.024591242  0.024593518            3 
 1879000   0.96003373   -7.0534262    554.42237  0.024588539  0.024585568            5 
 1880000   0.95863789   -7.0850824    553.81326   0.02454846  0.024577539            4 
 1881000   0.95749181   -7.0732856    554.24688   0.02455462  0.024569485            8 
 1882000   0.96913764   -7.0956907    554.69973  0.024561625  0.024561285            4 
 1883000   0.95476575   -7.0966159    554.16304  0.024524829   0.02455315            5 
 1884000   0.96368265   -7.1251394     553.8734     0.024499  0.024544919            5 
 1885000   0.93942539   -7.0941209    553.80322  0.024482901  0.024536731            6 
 1886000   0.95006778   -7.1054642    554.15579  0.024485498  0.024528596           15 
 1887000   0.94761055   -7.0812616    555.98794  0.024553433  0.024520466            6 
 1888000   0.97091904   -7.0778871    554.98644  0.024496223   0.02451243            6 
 1889000   0.94468794   -7.0866935     554.1915  0.024448187  0.024504306            4 
 1890000   0.93730854   -7.1164312    554.23978   0.02443738  0.024496209            8 
 1891000   0.93052707   -7.0819234     556.2386  0.024512542  0.024488228            5 
 1892000   0.94412324   -7.1106397    555.92066  0.024485582  0.024480258            7 
 1893000   0.94946339   -7.1092512    556.01516  0.024476807   0.02447226           10 
 1894000   0.94844363   -7.0888501    554.89443  0.024414574  0.024464257            4 
 1895000   0.94373446   -7.0864554    556.48245  0.024471524  0.024456234            6 
 1896000   0.93764935   -7.0880248    556.32387  0.024451647  0.024448239           12 
 1897000   0.95476361    -7.072325    557.57559  0.024493744  0.024440307            5 
 1898000   0.94563564   -7.1150016    556.36271  0.024427587  0.024432384            6 
 1899000   0.96172091   -7.0604129    557.40946  0.024460657  0.024424421            6 
 1900000   0.94475115   -7.1202094    556.75325  0.024419002  0.024416473            7 
 1901000   0.93576025   -7.0554192    557.78981  0.024451596  0.024408499            5 
 1902000   0.93414167   -7.1201014      556.072  0.024363477   0.02440052            8 
 1903000   0.93636508    -7.134705     555.9584    0.0243457  0.024392451           13 
 1904000   0.91785127   -7.0880449    556.17003  0.024342176  0.024384374            4 
 1905000   0.92789127   -7.1000341    556.57972   0.02434732   0.02437638           10 
 1906000   0.96367842   -7.0904558    558.35211  0.024412037  0.024368449            4 
 1907000   0.95635772   -7.1175832    556.19636  0.024305032  0.024360483            5 
 1908000   0.93647391   -7.0738929    559.06232  0.024417467  0.024352423           14 
 1909000   0.92750034   -7.0854811    558.58032  0.024383635  0.024344482            7 
 1910000   0.96279566   -7.0959178    559.65272  0.024417658  0.024336571            5 
 1911000   0.99423951   -7.1124446    558.24679  0.024343572  0.024328613            5 
 1912000   0.92688344   -7.1324314    558.63394  0.024347714  0.024320598           15 
 1913000   0.95184941   -7.1123547    557.77529  0.024297582  0.024312632            6 
 1914000   0.94955711   -7.0582225    558.55859  0.024318991  0.024304652            3 
 1915000   0.95545861     -7.06563     558.9105  0.024321606  0.024296653            2 
 1916000   0.95237396   -7.0884259     559.3552  0.024328253  0.024288724            2 
 1917000   0.94713868   -7.0513794    560.00421  0.024343775   0.02428092            6 
 1918000   0.93349124    -7.089833    559.97374  0.024329759  0.024273091            5 
 1919000   0.93173046   -7.0570545    560.56966  0.024342959  0.024265138           13 
 1920000   0.93903162   -7.1283917    557.77457  0.024208966  0.024257154            4 
 1921000   0.94046348    -7.142053    557.58294  0.024188051  0.024249089            3 
 1922000   0.94315034   -7.1324824    557.60302  0.024176336   0.02424092            6 
 1923000   0.95867996    -7.094509    558.92775  0.024221171   0.02423289            6 
 1924000   0.96315504   -7.1225891    560.46256  0.024275059  0.024224926            4 
 1925000   0.93593987    -7.115769    559.66953  0.024228118  0.024216981            4 
 1926000   0.93186347   -7.1356055    558.26757  0.024154879  0.024208918            5 
 1927000   0.93708346   -7.1174955    559.58818  0.024199454   0.02420089            3 
 1928000   0.94627307    -7.117843    557.52121  0.024097563   0.02419286            7 
 1929000     0.946639   -7.1332882    557.92975  0.024102719  0.024184801            3 
 1930000   0.94452751   -7.0621604    561.90294  0.024261785  0.024176644            6 
 1931000   0.94891505    -7.131304    559.34406  0.024138791  0.024168572            8 
 1932000   0.96790091   -7.0895135     560.4057  0.024172089  0.024160504           15 
 1933000   0.94076399   -7.1055199    560.19264  0.024150398  0.024152433            5 
 1934000   0.91857987    -7.088784     561.5433  0.024196109  0.024144374            7 
 1935000   0.93427386   -7.1191324    558.51465  0.024053172  0.024136269            4 
 1936000   0.95967029   -7.1638039    559.92733  0.024101555  0.024128117            6 
 1937000   0.95199051   -7.1255829    559.40825  0.024066781  0.024120031            7 
 1938000   0.92713919   -7.0942413    559.84043  0.024072946  0.024111951            9 
 1939000   0.93512109   -7.1383541     561.4569  0.024130003  0.024103867            7 
 1940000   0.93475087   -7.1337282    560.62834  0.024081974  0.024095716            2 
 1941000   0.93412726   -7.1109273    561.53782  0.024108613   0.02408761            5 
 1942000    0.9354219   -7.0862133    563.80676  0.024193562  0.024079671            6 
 1943000   0.93542258   -7.1065886    561.60506  0.024086681  0.024071735            4 
 1944000   0.94374691   -7.1366205    562.25457  0.024102134    0.0240637           10 
 1945000   0.92137647   -7.1212356    562.78825  0.024112607  0.024055763            8 
 1946000   0.94055657   -7.1140592    561.67656   0.02405261  0.024047782           16 
 1947000   0.95695611   -7.0834098    562.11819  0.024059159  0.024039836           10 
 1948000   0.94109224   -7.0942937    562.48016  0.024062293  0.024031874            3 
 1949000   0.93150594   -7.1270949    561.78535  0.024020239   0.02402396            5 
 1950000   0.93329132   -7.1262429    562.08749  0.024020833  0.024015937            7 
 1951000   0.92709667   -7.1239487    562.01469  0.024005412  0.024008031            3 
 1952000   0.93851692   -7.1133949    563.43577  0.024053781  0.024000129            5 
 1953000    0.9308772    -7.123583    564.22407  0.024075101   0.02399229            5 
 1954000   0.92231296   -7.1505224    562.14924  0.023974294  0.023984341            8 
 1955000   0.95111864   -7.1732194    562.06999  0.023958653  0.023976439            5 
 1956000   0.95696413   -7.1150268    564.19895  0.024037106  0.023968525            9 
 1957000   0.94156561   -7.0930264    564.68678  0.024045596  0.023960672            3 
 1958000   0.94527244   -7.1333255    565.26155  0.024057778  0.023952938            4 
 1959000   0.94105701   -7.1454746    563.61566  0.023975483  0.023945196            7 
 1960000   0.94857944   -7.1287963    563.26565  0.023948369  0.023937279            3 
 1961000   0.93315163   -7.0768598    564.39679  0.023984225  0.023929356           11 
 1962000   0.94238576   -7.1670717    562.02876  0.023871422  0.023921487            8 
 1963000   0.91306814   -7.1243784    562.78842   0.02389151  0.023913562            5 
 1964000   0.91988101   -7.1336948    563.43663  0.023906849  0.023905655            4 
 1965000   0.94337941   -7.1431755    564.41848  0.023936322  0.023897703            6 
 1966000   0.92989981   -7.1544191     564.6614  0.023934444  0.023889752            5 
 1967000    0.9262024   -7.1325079    564.57533  0.023918629  0.023881822            4 
 1968000   0.94425332   -7.1770982    563.93707  0.023879449   0.02387393            5 
 1969000   0.94321297   -7.1496694    566.23081  0.023964399  0.023866018            8 
 1970000     0.946135   -7.1707586    563.71002  0.023845602  0.023858097            4 
 1971000   0.91687633   -7.1441637    565.45641   0.02390734   0.02385018            6 
 1972000   0.93308246   -7.1550034    563.66877  0.023819674  0.023842318           13 
 1973000    0.9458381   -7.1192049    565.98009  0.023905224  0.023834501            3 
 1974000   0.92194619   -7.1174247    567.38607  0.023952468  0.023826672            7 
 1975000   0.91466534   -7.1369658    568.40856  0.023983484  0.023818911            8 
 1976000   0.93687088    -7.132509    566.02911  0.023870998  0.023811139            3 
 1977000   0.92568003   -7.1351608    565.38502  0.023831775  0.023803378            5 
 1978000   0.92512262   -7.1179095    566.94058  0.023885262  0.023795492            4 
 1979000   0.93229723   -7.1364185    566.98928  0.023875243   0.02378759           13 
 1980000   0.95182397   -7.1616457    565.43287   0.02379768  0.023779752            7 
 1981000   0.93890493   -7.1199559    566.90768  0.023847706  0.023771879            4 
 1982000   0.92041359   -7.1722524    565.38324  0.023771579   0.02376403           13 
 1983000   0.91788193   -7.1191641     567.9575  0.023867772   0.02375621           13 
 1984000   0.91487882    -7.152451    565.44157  0.023750066  0.023748485            5 
 1985000    0.9384188   -7.1371006    567.33454  0.023817571  0.023740743            6 
 1986000   0.92723712   -7.1779668    565.88719  0.023744847  0.023732932            8 
 1987000   0.92933355   -7.1712216    566.42998  0.023755661   0.02372504            7 
 1988000   0.91391046   -7.1524006    566.35521  0.023740577  0.023717217            7 
 1989000    0.9342112   -7.1662151    568.13579  0.023803242  0.023709415            4 
 1990000   0.92508432    -7.152915     568.8273  0.023820239  0.023701688            4 
 1991000   0.95121362   -7.1587783    567.15935  0.023738462  0.023693949            5 
 1992000   0.93621302   -7.1298775    569.13623  0.023809247  0.023686233            4 
 1993000   0.93718057   -7.1732922    568.47361  0.023769594  0.023678429            7 
 1994000   0.92626622   -7.1203243     567.9772  0.023736927  0.023670682            4 
 1995000   0.93848078   -7.1225108    569.89207  0.023805016  0.023662977            9 
 1996000    0.9435099   -7.1112215    569.55485   0.02377901  0.023655333            3 
 1997000   0.94075335   -7.1464743    569.03062  0.023745227  0.023647641            6 
 1998000     0.941938   -7.1657738    568.69613  0.023719392  0.023639947            5 
 1999000   0.93915561   -7.1562969    569.81512  0.023754174   0.02363214           10 
 2000000   0.90840643    -7.146828    570.23733  0.023759889   0.02362441            9 
 2001000   0.93597977   -7.1477834    570.51955  0.023759768   0.02361669           10 
 2002000   0.93013437   -7.1071807    570.28603   0.02373818  0.023609094            5 
 2003000   0.92874018   -7.1457164    569.53154  0.023694938  0.023601444            6 
 2004000   0.92597348    -7.134471    570.77783   0.02373494  0.023593747           14 
 2005000   0.93418105   -7.1513079    570.10052  0.023694951  0.023586063            5 
 2006000   0.90676075   -7.1690018    569.84386  0.023672477  0.023578353            2 
 2007000    0.9218185   -7.1807446    568.99069  0.023625257  0.023570561            3 
 2008000   0.92530833   -7.1438989    571.87874  0.023733347   0.02356295            4 
 2009000   0.92536202   -7.1673506    571.26379  0.023696026  0.023555304            3 
 2010000   0.92172608   -7.1429514    570.67569  0.023659855  0.023547673            9 
 2011000   0.94682526   -7.1277877    571.42933  0.023679319  0.023540019            5 
 2012000   0.93182797   -7.1350511     571.3957  0.023666157  0.023532473            6 
 2013000   0.93316771    -7.116683    571.05809  0.023640425  0.023524908            6 
 2014000   0.91761645   -7.1118933    571.78366  0.023658708  0.023517312            3 
 2015000   0.91242569   -7.1507216    569.80338   0.02356507  0.023509721            5 
 2016000   0.92864462   -7.1607726    569.57131  0.023543788  0.023501971            7 
 2017000   0.93986246   -7.1125928    572.86259  0.023668096  0.023494305            5 
 2018000   0.92711816   -7.1241766    571.36583  0.023594559  0.023486681            2 
 2019000   0.91050392    -7.164869    571.99169  0.023608704  0.023478998           10 
 2020000    0.9075963   -7.1724553    570.68005  0.023542906  0.023471278            5 
 2021000   0.91848503   -7.1480402    572.08524  0.023589198  0.023463634            5 
 2022000   0.91759988   -7.1974733    570.60734  0.023516623  0.023455974            3 
 2023000   0.92316835   -7.1566156    572.71998  0.023592024  0.023448261            6 
 2024000   0.89824094   -7.1692725    572.65615   0.02357774  0.023440536            3 
 2025000   0.94449693   -7.1599568    572.55497  0.023561933  0.023432783            6 
 2026000   0.92704569    -7.158783     571.2843  0.023498038  0.023424994           12 
 2027000   0.93722732   -7.1764748    571.71283  0.023504063  0.023417271            3 
 2028000   0.92547739    -7.147822     573.2012  0.023553632  0.023409552            4 
 2029000   0.93388775   -7.1932493    571.81749  0.023485193  0.023401757            5 
 2030000   0.92655822   -7.1935846    571.43144  0.023457777  0.023393936            8 
 2031000   0.93910439   -7.1593852    572.14439   0.02347548  0.023386169            3 
 2032000   0.92006797   -7.1748407    572.60334  0.023482748  0.023378372            8 
 2033000   0.93187398   -7.1317981    573.24515  0.023497506  0.023370657            4 
 2034000   0.91182845   -7.1683047    571.78482  0.023426124  0.023362877            8 
 2035000   0.91322268   -7.1453808    573.07456  0.023467427  0.023355112            4 
 2036000   0.93441165   -7.1934533    570.98642  0.023370433  0.023347372            4 
 2037000   0.92166664   -7.1656404    572.35355  0.023414889   0.02333953            5 
 2038000   0.94162236   -7.1664306     571.8447  0.023382593  0.023331757            7 
 2039000   0.92003437    -7.153747    571.81571  0.023369941  0.023323943            5 
 2040000   0.92137177   -7.1405678    571.30749  0.023337724  0.023316133            3 
 2041000   0.91749764   -7.1675137    572.13544  0.023360095  0.023308329            3 
 2042000   0.94389545   -7.1304909    573.21366  0.023392657  0.023300533            4 
 2043000   0.92352355   -7.1330664    572.19921  0.023339827   0.02329269            3 
 2044000   0.92809986   -7.1530242    573.53597  0.023382908  0.023284924            7 
 2045000   0.92658148   -7.1673295    572.26352  0.023319622   0.02327725            8 
 2046000   0.92918952   -7.2226791    572.29461  0.023309491  0.023269431            6 
 2047000   0.92828359   -7.2114115    571.23275  0.023254875  0.023261514           11 
 2048000   0.93775218   -7.2084773    571.66028  0.023260916  0.023253662            8 
 2049000   0.94366111   -7.2207653    573.75437  0.023334731  0.023245752            7 
 2050000   0.93403822   -7.1963632    573.09179  0.023296414  0.023237851            4 
 2051000   0.93849308   -7.1952966    572.51205  0.023261501  0.023230007           11 
 2052000   0.92112238   -7.1839709    572.91154  0.023266388  0.023222142            6 
 2053000   0.92190261   -7.1228371    574.74425  0.023329447  0.023214386            6 
 2054000   0.92193267   -7.1638833    574.58763  0.023311734  0.023206706            4 
 2055000   0.92173422    -7.172123     574.0989  0.023280572  0.023198976            4 
 2056000   0.91475653   -7.1747209    573.61207  0.023249517  0.023191229            4 
 2057000   0.93676476   -7.1196334    574.03053  0.023255166  0.023183467            7 
 2058000   0.92990003    -7.180054    574.13838  0.023248234  0.023175689            5 
 2059000   0.92011676   -7.1464657    574.96921  0.023270569  0.023167919            3 
 2060000   0.91879305   -7.1779561    573.51655  0.023200508  0.023160121            3 
 2061000   0.93647422   -7.1641329    574.65804  0.023235405  0.023152284            9 
 2062000   0.92257551   -7.1732701     573.3314  0.023170522  0.023144421            5 
 2063000   0.92588635   -7.1818593    574.36237  0.023200936  0.023136645            5 
 2064000   0.92259411   -7.2151973    573.35792  0.023149141  0.023128872            3 
 2065000   0.91146569   -7.1971076    574.05551  0.023166082  0.023121016            7 
 2066000   0.92015341    -7.201482    572.66349  0.023098721  0.023113195            6 
 2067000   0.90186787   -7.1790787    576.77761  0.023253411  0.023105395            5 
 2068000   0.94603614   -7.1739905    575.48712  0.023190164  0.023097738            2 
 2069000   0.89880179   -7.1066065    577.13281   0.02324524  0.023090073            4 
 2070000   0.91522823   -7.1688856    575.89996  0.023184378  0.023082349            5 
 2071000   0.91633587   -7.1979815    576.51176  0.023197801   0.02307461           15 
 2072000   0.93384878   -7.2142791    573.65132  0.023071562  0.023066819            6 
 2073000   0.93338978   -7.2124936    573.99151  0.023074108  0.023058935            7 
 2074000   0.94411451   -7.2169336      575.528  0.023124719  0.023051054            6 
 2075000   0.90598397   -7.1938143    575.45305  0.023110564  0.023043241            7 
 2076000   0.91147628   -7.1856997     574.6182   0.02306592   0.02303539            5 
 2077000   0.91379017   -7.1712525    576.28727  0.023121781  0.023027575            5 
 2078000   0.92406916   -7.1729124    577.30547  0.023151486  0.023019833            6 
 2079000   0.92836194   -7.2171872     577.0955  0.023131934  0.023012002            6 
 2080000    0.9085115   -7.1588688    578.18244  0.023164361  0.023004231            5 
 2081000   0.92421745   -7.1688615    577.52309  0.023126826  0.022996495            7 
 2082000   0.90250299   -7.1632133    577.97363  0.023133751  0.022988711            8 
 2083000   0.93752569     -7.19251    574.93488  0.023001075  0.022980934            9 
 2084000   0.92191534   -7.1953919    576.81624  0.023065269  0.022973099           11 
 2085000   0.91054979   -7.1891244    576.97773  0.023060661  0.022965306            9 
 2086000   0.92648458   -7.1579633    577.59088    0.0230741  0.022957604            5 
 2087000   0.92309145   -7.1961592    576.36724  0.023014185  0.022949858            4 
 2088000   0.90848391   -7.1740788    577.07036  0.023031225  0.022942182           10 
 2089000   0.91366725   -7.1790422    578.34572  0.023071075  0.022934458            5 
 2090000   0.92088467   -7.1879509    576.02909  0.022967667  0.022926727            8 
 2091000     0.933605   -7.1939255    577.57868  0.023018439  0.022918991            4 
 2092000   0.91431426   -7.1604031    579.01145   0.02306451  0.022911329            5 
 2093000   0.91859433   -7.1824898    578.29335  0.023024899  0.022903632            9 
 2094000   0.91154526   -7.1864954    578.61215   0.02302659  0.022895925            4 
 2095000   0.91139908   -7.1753924    578.47982  0.023010335   0.02288823            9 
 2096000   0.91377179   -7.1699782    580.16629  0.023066408  0.022880543            3 
 2097000   0.90208195   -7.1378981    581.61724  0.023113068  0.022872935            7 
 2098000   0.92261928   -7.2101281    578.47443  0.022977218  0.022865334            5 
 2099000   0.91361399   -7.2117001    579.06596  0.022989755  0.022857684            9 
 2100000   0.93973169   -7.1629391    580.18238   0.02302311  0.022850075           14 
 2101000   0.92308818   -7.2121438     580.6065  0.023028974  0.022842605            6 
 2102000   0.91794538   -7.2004698    578.90072  0.022950393  0.022835059            6 
 2103000   0.93193075   -7.2087878     578.9784  0.022942558  0.022827505            5 
 2104000   0.91655741   -7.1718924    579.35052  0.022946393  0.022819887            7 
 2105000   0.90058723    -7.191499    579.99267  0.022960913  0.022812384            6 
 2106000   0.92682466   -7.2240223    578.76888  0.022901586  0.022804865            6 
 2107000   0.92827816   -7.2235351    579.11404  0.022904368   0.02279734            7 
 2108000   0.90987622   -7.2341282     579.7625  0.022919137  0.022789803            6 
 2109000   0.91269374   -7.1953208    579.43379  0.022895282  0.022782239            5 
 2110000   0.92550919   -7.2179533    578.74578  0.022857258  0.022774639            5 
 2111000   0.94039578   -7.2288165     579.0512  0.022858487   0.02276704            9 
 2112000   0.90409988   -7.2554484    579.46969  0.022864176  0.022759388            8 
 2113000   0.90988521   -7.2264374    578.53642  0.022816549  0.022751647            6 
 2114000   0.91845505   -7.2116212     580.3801  0.022878434  0.022743926            4 
 2115000   0.92942942   -7.2047338    579.19394   0.02282088   0.02273631            5 
 2116000   0.88641492   -7.2328074    578.79634  0.022794437   0.02272864           18 
 2117000   0.93334274    -7.236844     579.8584  0.022825476  0.022720975            8 
 2118000   0.91270512    -7.180119    582.20835  0.022907159  0.022713405            7 
 2119000   0.90866754   -7.2006678    582.14965   0.02289404  0.022705799           14 
 2120000   0.90783811   -7.2307024    581.62895  0.022862773  0.022698163            6 
 2121000   0.90939653   -7.2147605    581.39572   0.02284283  0.022690576           16 
 2122000   0.91299047   -7.2533626    580.31376  0.022789576   0.02268302            5 
 2123000   0.90538741   -7.2226522    581.06521  0.022808338  0.022675446            5 
 2124000   0.93298176   -7.1814285    582.38165  0.022849249   0.02266793            6 
 2125000   0.92718681   -7.1488931    583.37274  0.022877363  0.022660522            4 
 2126000   0.89740975   -7.1915375    583.41957  0.022868437  0.022653038            7 
 2127000   0.88579578   -7.1962584    582.27671   0.02281291  0.022645587            8 
 2128000    0.9145339   -7.1954899    583.12164  0.022835277  0.022638043            4 
 2129000   0.90755247   -7.2194488    581.29858  0.022753193  0.022630508            6 
 2130000   0.90538278    -7.241901    582.57044  0.022792271   0.02262297            3 
 2131000   0.90698984   -7.1844273    583.12813  0.022803384  0.022615368            4 
 2132000   0.91073981    -7.207671    583.26872  0.022798183  0.022607832            6 
 2133000   0.91066183   -7.1802854    582.75654  0.022767485  0.022600314            8 
 2134000   0.89599492   -7.2125278    583.13985  0.022771784  0.022592776            9 
 2135000   0.90757431   -7.1913457    583.84217  0.022788531  0.022585244            3 
 2136000   0.92271967   -7.2181034    582.26286  0.022716248   0.02257773            7 
 2137000   0.92886535   -7.2093076    581.87398  0.022690453  0.022570156           13 
 2138000   0.91779565   -7.2349148    582.42738   0.02270141  0.022562639            5 
 2139000   0.91260101   -7.2395032     583.0103  0.022713507  0.022555094            5 
 2140000   0.92562655   -7.2014545    584.03133  0.022742653  0.022547549            5 
 2141000   0.92914229    -7.222079    581.52546  0.022634496  0.022539937            5 
 2142000   0.92212999   -7.2135193    581.85393  0.022636707  0.022532323            5 
 2143000   0.92050514   -7.2067999     583.3302  0.022683551   0.02252474            9 
 2144000   0.90082141   -7.1970352    582.64136  0.022646197   0.02251722            3 
 2145000   0.91405775   -7.2265452    584.53784  0.022709318  0.022509686            5 
 2146000   0.95234225   -7.2568453    582.79345  0.022630997  0.022502142            6 
 2147000   0.91359317   -7.1675301    585.78055  0.022736398  0.022494642           10 
 2148000   0.91901131   -7.2359214    583.23538  0.022627071  0.022487194           10 
 2149000   0.89400792    -7.200349    584.33477  0.022659174  0.022479773            6 
 2150000   0.91142223   -7.2105586    584.92201  0.022671396  0.022472364            3 
 2151000   0.89618008    -7.202977    585.61663  0.022687766  0.022464921            6 
 2152000    0.9127247   -7.2036974    585.21599   0.02266171   0.02245748           12 
 2153000   0.92872532   -7.2090934    585.27586  0.022653501  0.022450067           19 
 2154000   0.91791483   -7.2023822    584.90493  0.022628634  0.022442645            4 
 2155000   0.92793182   -7.2049722    584.36714  0.022597337  0.022435238            7 
 2156000   0.89960644   -7.1964049    585.68903   0.02263795  0.022427814            5 
 2157000   0.91753761   -7.2385822    584.58637  0.022584854  0.022420389            5 
 2158000   0.91093078   -7.2472673    584.10852  0.022555936  0.022412944            4 
 2159000   0.89812378    -7.278609    583.73288   0.02253099  0.022405466            8 
 2160000   0.89997034   -7.2669967    584.65534  0.022556148  0.022397923           10 
 2161000   0.91074574   -7.2168179     586.5387  0.022618336  0.022390436            5 
 2162000   0.92073668     -7.21648    586.82008   0.02261872  0.022382973            6 
 2163000    0.9062729    -7.243784    586.11189  0.022580979  0.022375511           11 
 2164000    0.9087466   -7.2321394    586.19308  0.022573671  0.022368044           12 
 2165000   0.91004173   -7.2355898     585.9319  0.022553191  0.022360554            9 
 2166000   0.89539408   -7.2398679    586.13809  0.022550711   0.02235309            6 
 2167000   0.91870352   -7.2665398    585.30619  0.022508314  0.022345647            8 
 2168000   0.90229512   -7.2318711    586.62571  0.022548651  0.022338274            3 
 2169000   0.91846031   -7.2214363    586.65715  0.022539463  0.022330897            6 
 2170000    0.9191353    -7.202031    585.42083  0.022481599  0.022323494            9 
 2171000   0.91159926   -7.2240536    588.20633  0.022578164  0.022316074            5 
 2172000   0.90096656    -7.237081    586.52989  0.022503449  0.022308677            5 
 2173000   0.89531003   -7.2513212    587.36686   0.02252519  0.022301324           28 
 2174000   0.88065422      -7.2243    587.42207  0.022516945  0.022293936            8 
 2175000   0.88728057   -7.2274971    588.43077   0.02254524  0.022286525           11 
 2176000   0.90298726    -7.215086    586.90319  0.022476378  0.022279136            4 
 2177000    0.9107959   -7.2282248    587.45115  0.022487029  0.022271761            7 
 2178000   0.88986664   -7.2099995    587.49206   0.02247827  0.022264383            6 
 2179000   0.91446288   -7.1920709    588.97792  0.022524779  0.022257124            5 
 2180000   0.90590797   -7.2251615    589.06826    0.0225179  0.022249751            6 
 2181000   0.90680577   -7.2756371    587.01827  0.022429248  0.022242398           10 
 2182000   0.91945773   -7.2208878    587.92739  0.022453689  0.022235038            6 
 2183000   0.89787862   -7.2616121    587.33425  0.022420761  0.022227725            8 
 2184000   0.91826719   -7.2436586    589.23067  0.022482855  0.022220384            5 
 2185000   0.91431261    -7.271074    585.74445  0.022339605  0.022213105            3 
 2186000   0.89767172   -7.2462863    588.58687  0.022437743   0.02220577            9 
 2187000   0.92864498   -7.2528185     588.4539  0.022422417  0.022198419           10 
 2188000    0.9072722   -7.2329964    588.97911  0.022432172  0.022191091            8 
 2189000   0.90310586    -7.230489    589.58031  0.022444812  0.022183767            7 
 2190000   0.92153881    -7.219996    590.94123  0.022486348  0.022176488            3 
 2191000    0.9124442   -7.2269633    589.01156  0.022402691  0.022169203            6 
 2192000   0.89336024     -7.21801    589.58855  0.022414406  0.022161921            7 
 2193000   0.92141425   -7.2152911    589.50813   0.02240113  0.022154657            9 
 2194000   0.89864826   -7.2034876    588.95337  0.022369848   0.02214735           11 
 2195000   0.91354331   -7.2044645    590.46247   0.02241695  0.022140055           17 
 2196000   0.90464843   -7.2414842    588.47124  0.022331179  0.022132751            4 
 2197000   0.89322238   -7.2330013     588.6765  0.022328801  0.022125407            7 
 2198000   0.91073109   -7.2445096    589.16216  0.022337055  0.022117977            6 
 2199000   0.90933736   -7.2549031    588.20736  0.022290714  0.022110557           10 
 2200000   0.90555432   -7.2832635    589.15886  0.022316623  0.022103166            6 
 2201000   0.90582459   -7.2684451     589.7181  0.022327658  0.022095817           10 
 2202000   0.88341438   -7.2086573    591.21326  0.022374102  0.022088549           13 
 2203000   0.89929036   -7.2210526    590.53594  0.022338324  0.022081234            5 
 2204000   0.90003794   -7.2499821    589.48263  0.022288363  0.022073927            6 
 2205000   0.90032688   -7.2797308     588.2555  0.022231878  0.022066597            9 
 2206000   0.89052529   -7.2754523    588.06691  0.022214676  0.022059226            6 
 2207000   0.90403732   -7.2266635    589.23612  0.022248758  0.022051825            6 
 2208000   0.89833842   -7.2302342    590.68154  0.022293235  0.022044524           10 
 2209000   0.90722943   -7.2439575    588.70855  0.022208712  0.022037129            7 
 2210000   0.89443582   -7.2275762     589.8367  0.022241203   0.02202981            4 
 2211000   0.89832551   -7.2146298     591.2853  0.022285742  0.022022573            8 
 2212000   0.88513214   -7.2013968    591.17138  0.022271375  0.022015282            8 
 2213000   0.88717693   -7.2190962    591.44115   0.02227147  0.022008051            7 
 2214000     0.900876   -7.2280935    590.57535  0.022228822  0.022000832            5 
 2215000   0.90220756   -7.2151283    592.02352   0.02227327  0.021993576            7 
 2216000   0.89600518   -7.2406433     591.7617  0.022253373  0.021986283            4 
 2217000   0.90715138   -7.2351496    592.12543  0.022257008  0.021979041            5 
 2218000   0.89653211   -7.2427788    592.62849  0.022265874  0.021971765            5 
 2219000    0.9022229   -7.2280741    591.70784  0.022221265  0.021964557            9 
 2220000   0.89184601   -7.2207888    594.10555  0.022301259  0.021957365            7 
 2221000   0.89559754   -7.2926794    590.90018  0.022170951  0.021950153            4 
 2222000   0.87455943   -7.2561024    590.44966  0.022144077  0.021942848            6 
 2223000   0.91477007   -7.2576043    593.26794  0.022239764  0.021935516           10 
 2224000   0.89662335   -7.2796199    590.52318  0.022126918  0.021928202            9 
 2225000   0.87209887   -7.2521182    592.58881  0.022194337  0.021920867           10 
 2226000   0.89597282   -7.2411931    591.78816  0.022154393  0.021913619            7 
 2227000   0.89267572   -7.2509267    592.32059  0.022164369  0.021906325            9 
 2228000   0.87967898    -7.277919    591.81078  0.022135352  0.021898949            7 
 2229000   0.90218226   -7.2495006    592.49046  0.022150832   0.02189161           10 
 2230000   0.89519654   -7.2523385    591.89183  0.022118529  0.021884309            4 
 2231000   0.89552784   -7.2437838    593.53219  0.022169886  0.021877041            6 
 2232000   0.87915224   -7.2285822    594.51919  0.022196804  0.021869895            7 
 2233000   0.90311207   -7.2651157    593.57208  0.022151518   0.02186266            3 
 2234000   0.90634287   -7.2503459    592.58631  0.022104831  0.021855414            5 
 2235000   0.90846167   -7.2162434    593.22044  0.022118585  0.021848248            4 
 2236000    0.9067744   -7.2393617    594.47616  0.022155492  0.021841074            5 
 2237000   0.89581774   -7.2559155    592.54018  0.022073468  0.021833956            7 
 2238000   0.88804446   -7.2078261    594.51527  0.022137149  0.021826776           13 
 2239000    0.8950924    -7.267578    593.68508  0.022096363  0.021819544           11 
 2240000   0.86859716   -7.2482528    593.77023  0.022089666  0.021812274           15 
 2241000   0.88095553   -7.2711445    591.94734  0.022012024  0.021804999            5 
 2242000   0.89681156    -7.281732    593.09199  0.022044751  0.021797702            4 
 2243000   0.88674033   -7.2687382    591.97217  0.021993319   0.02179041            5 
 2244000   0.90287447   -7.2448019    594.00057  0.022058845  0.021783158            7 
 2245000   0.89786556   -7.2585533    594.04801   0.02205078   0.02177595           14 
 2246000   0.88956771   -7.2321998    594.52053  0.022058494   0.02176876            7 
 2247000   0.89194259   -7.2571712    594.09459   0.02203288  0.021761597            9 
 2248000   0.88328998   -7.2530628     593.9196  0.022016592  0.021754365            5 
 2249000   0.88311095   -7.2802159    594.97347  0.022045853  0.021747108            4 
 2250000   0.90990518   -7.2957919    591.35512  0.021902041  0.021739817            9 
 2251000    0.9024098   -7.2484698    593.48109  0.021971016  0.021732534            9 
 2252000   0.89762905   -7.2950055    592.11481  0.021910702  0.021725217            5 
 2253000   0.92035421   -7.3022681    592.87788  0.021929201  0.021717914            7 
 2254000   0.87647486   -7.2669505    593.55976  0.021944682  0.021710621            4 
 2255000   0.89001143    -7.315593    591.59169  0.021862221  0.021703329            7 
 2256000   0.90171735   -7.2952067    593.33873  0.021917063  0.021696007           10 
 2257000   0.90450486   -7.2587089    594.64876  0.021955722  0.021688769            3 
 2258000   0.88146251   -7.2562899    594.69324   0.02194764  0.021681515            4 
 2259000   0.91369937   -7.2611102    595.36133  0.021962569  0.021674293            8 
 2260000   0.92091799   -7.2926803     594.7673  0.021930947  0.021667031            8 
 2261000   0.89462172   -7.2509438    594.51959  0.021912118  0.021659783            8 
 2262000   0.89698326   -7.2754248     593.8323  0.021877111  0.021652512            6 
 2263000   0.88743551      -7.2633    593.32671  0.021848826  0.021645206            5 
 2264000    0.8861045    -7.264603    594.78671  0.021892915  0.021637928            9 
 2265000   0.87496196   -7.2803873    595.65451  0.021915177  0.021630705           26 
 2266000   0.87197446   -7.2646357    594.81915  0.021874785  0.021623468            9 
 2267000   0.88601234   -7.2831015    595.23431  0.021880397   0.02161622            8 
 2268000   0.90873737   -7.2841472    593.84352  0.021819647  0.021608921           10 
 2269000   0.87525783   -7.3063698    593.23029  0.021787509  0.021601586            5 
 2270000   0.89400142   -7.3022499    593.86989  0.021801391  0.021594221           13 
 2271000   0.87658897   -7.3020572    594.25869  0.021806058   0.02158691           10 
 2272000    0.9024728   -7.2845266    594.64877  0.021810768  0.021579601            6 
 2273000   0.88553846   -7.3076515    595.00043  0.021814065  0.021572284            7 
 2274000   0.88156394   -7.3139407    595.59509  0.021826264  0.021564989           12 
 2275000   0.87920988   -7.2738546    595.21396  0.021802709  0.021557772            4 
 2276000   0.89325557   -7.2194264    597.45047  0.021875017  0.021550577            5 
 2277000   0.88723328   -7.2952903     595.7472  0.021803074  0.021543353            7 
 2278000   0.89811041   -7.3010079    593.92331  0.021726782   0.02153608            9 
 2279000   0.89475288    -7.242542    596.21645  0.021801099  0.021528837            4 
 2280000   0.87328568   -7.2652537    596.74177  0.021810737  0.021521672            9 
 2281000   0.88438558   -7.3049411    596.04438  0.021775697  0.021514394           10 
 2282000   0.87865088   -7.3041608    595.01724  0.021728646  0.021507119            4 
 2283000   0.89296826    -7.274212    596.73564  0.021781853    0.0214998            6 
 2284000   0.88631708   -7.3151985    596.93077  0.021779436   0.02149253            4 
 2285000   0.90396138   -7.3005593    595.03308  0.021700696  0.021485179            8 
 2286000   0.89124777   -7.2980028    593.73079  0.021643729  0.021477762           22 
 2287000   0.88963242   -7.2778905    596.15661  0.021722657   0.02147041            9 
 2288000   0.88971682   -7.2894575    595.37825  0.021684814  0.021463125            9 
 2289000   0.89105961   -7.2837889    596.51246  0.021716632  0.021455816            7 
 2290000   0.88321378    -7.277934    594.79526   0.02164466  0.021448511            8 
 2291000    0.8890337   -7.3067212    595.17972  0.021649197  0.021441181            4 
 2292000   0.91139751   -7.3116175    596.29211  0.021680196  0.021433857            3 
 2293000   0.87043892   -7.2920809    596.64406  0.021683532  0.021426514            7 
 2294000   0.87457821   -7.3039345    595.09017  0.021617632  0.021419107            8 
 2295000   0.89795897   -7.2994041     594.8765  0.021600454  0.021411725            9 
 2296000   0.91898991   -7.3018495    594.50234  0.021577466  0.021404323            6 
 2297000   0.89948042   -7.2725551    596.79335  0.021651188  0.021396918            4 
 2298000    0.8989314   -7.2810173    596.59553  0.021634593  0.021389628           15 
 2299000   0.89056392   -7.2911684     595.6201  0.021589825  0.021382285            8 
 2300000   0.89855053   -7.2818006    596.66405  0.021618263  0.021374928            6 
 2301000   0.88675472   -7.2955586    595.38483  0.021562539  0.021367605            9 
 2302000   0.88364904   -7.3031638    595.08625  0.021542364  0.021360217            5 
 2303000    0.8822416   -7.2814729    594.30376  0.021504695  0.021352821           12 
 2304000   0.89312025   -7.2923638    595.32379  0.021532255   0.02134534            7 
 2305000   0.87671067   -7.2590744    597.17184  0.021589727  0.021337905            5 
 2306000   0.88564372   -7.2856526    595.24954  0.021510897  0.021330509            7 
 2307000   0.88972985   -7.3043226    596.64253   0.02155189  0.021323142           15 
 2308000   0.88909257   -7.3056256    595.96717  0.021518168  0.021315754            5 
 2309000   0.87147316   -7.2678996    597.61628  0.021568366  0.021308332            9 
 2310000   0.88412354   -7.3123029    594.33867  0.021440789  0.021300896            6 
 2311000   0.87801285   -7.2757147    595.01068  0.021455744   0.02129344            8 
 2312000   0.88733908   -7.3308419    593.08991  0.021377231  0.021285967            7 
 2313000   0.85393754    -7.279811    596.79493  0.021501475  0.021278468            8 
 2314000   0.85809966   -7.3248392    595.73235  0.021453916  0.021270955            6 
 2315000   0.88702894   -7.2877783    595.39983  0.021432679  0.021263503            7 
 2316000   0.86660844   -7.2942961    594.55682  0.021393092   0.02125604           11 
 2317000   0.87093459    -7.320123    594.71728   0.02138963  0.021248578            7 
 2318000   0.86923289    -7.275981    597.29765  0.021473168  0.021241077           18 
 2319000   0.88707103   -7.2881523    595.65032  0.021404712  0.021233619            6 
 2320000   0.88250011   -7.2836718    597.10523  0.021447745  0.021226137           12 
 2321000   0.87382754   -7.2895648     596.5506  0.021418591  0.021218631            9 
 2322000   0.87723799   -7.2691542    594.98745  0.021353268  0.021211133            5 
 2323000   0.87115929   -7.2868729    595.94532  0.021378437  0.021203677            5 
 2324000   0.87878626   -7.2890167    596.58667  0.021392236  0.021196255            4 
 2325000   0.87567309   -7.2967581    595.93239  0.021359584  0.021188752            5 
 2326000   0.88533107   -7.2745663    596.28964    0.0213632  0.021181367           14 
 2327000   0.85855583   -7.3010801    595.74052  0.021334355  0.021173975            7 
 2328000   0.88385769   -7.3529199    595.58161  0.021319502  0.021166469            4 
 2329000   0.88440463   -7.3430622    595.07381  0.021292179  0.021158975           11 
 2330000   0.89889786   -7.2779235    597.90352  0.021384246  0.021151542            5 
 2331000   0.89332071   -7.3077386    597.68526  0.021367269   0.02114416            9 
 2332000   0.88614729   -7.3239042     595.8523  0.021292606  0.021136727            7 
 2333000    0.8625966   -7.3132368    596.01626  0.021289336  0.021129221            7 
 2334000   0.87809991   -7.3159258    595.64607  0.021266998  0.021121755           15 
 2335000   0.87986611   -7.3301948     595.9831  0.021269918  0.021114274            7 
 2336000   0.89328905   -7.3098608    597.05564  0.021299074  0.021106796            9 
 2337000   0.87966938   -7.3350665    594.80304  0.021209636   0.02109926            9 
 2338000   0.88441046   -7.3476416    596.88919  0.021274921  0.021091706           15 
 2339000   0.88167755   -7.3575611    593.12441  0.021131695  0.021084165           11 
 2340000   0.87101598   -7.3370377     595.0979  0.021192945  0.021076666            7 
 2341000   0.88426891   -7.3243975    596.82528  0.021245382  0.021069176            8 
 2342000    0.8683783   -7.3233768    596.44125  0.021222646   0.02106167           13 
 2343000   0.87139387   -7.3154229     598.3115  0.021280108  0.021054204           13 
 2344000   0.89099909   -7.3155049    598.24389  0.021268625  0.021046715           10 
 2345000   0.87882661   -7.3223933    595.29979  0.021154932   0.02103919            7 
 2346000   0.87080993   -7.3182162      597.575  0.021226733  0.021031703           13 
 2347000   0.85428646   -7.3174526    596.80765  0.021190443  0.021024295            5 
 2348000   0.88102493   -7.3380987    597.66284   0.02121177  0.021016872            7 
 2349000   0.88469381   -7.2901335    598.37811  0.021228115  0.021009492           11 
 2350000   0.87059672   -7.2566509     599.1792  0.021247489  0.021002144            9 
 2351000   0.86578833   -7.3014942    599.06962  0.021234568  0.020994765           11 
 2352000   0.89839605   -7.3501773    598.43073  0.021202903  0.020987327           16 
 2353000   0.87747994   -7.2981788    598.55476  0.021198284  0.020979874            5 
 2354000     0.879875   -7.3082864    597.26174  0.021143505   0.02097246            4 
 2355000   0.87285795   -7.3001836    597.76596   0.02115237  0.020965025            8 
 2356000   0.89154071   -7.3030341    598.51054  0.021169728   0.02095767           10 
 2357000   0.86281259   -7.2974254    600.15888  0.021219024  0.020950366           11 
 2358000   0.89964549   -7.3025686    599.48048   0.02118605  0.020943083           11 
 2359000   0.86189847   -7.3098788    599.91591  0.021192451  0.020935706            7 
 2360000   0.85292857    -7.348631    596.84924  0.021075185  0.020928301            6 
 2361000   0.87116523   -7.3223879    598.40437  0.021121148  0.020920916            7 
 2362000    0.8737302   -7.3401036    598.28941   0.02110815  0.020913542            7 
 2363000   0.88462868   -7.3111415    600.34952  0.021171869   0.02090612            5 
 2364000   0.84285289   -7.3064551    598.60637  0.021101465  0.020898711            5 
 2365000   0.88140198   -7.3212766    599.88527  0.021137606  0.020891316            5 
 2366000   0.87664912   -7.3264479    597.23376  0.021035283  0.020883908            6 
 2367000   0.86965044   -7.3289423    598.55686  0.021072978  0.020876488            9 
 2368000   0.87328698   -7.3778161    595.46666   0.02095533  0.020869071            7 
 2369000   0.88207744   -7.2765888    598.87712  0.021066453   0.02086163            5 
 2370000   0.87201066    -7.336228    598.62974  0.021048866  0.020854231           13 
 2371000   0.86945244   -7.2843459    599.05281  0.021054858  0.020846816            8 
 2372000   0.86135129   -7.2819695    598.90294  0.021040716  0.020839516            8 
 2373000   0.87571693   -7.3178543    600.78604  0.021097979  0.020832216            8 
 2374000   0.85817918   -7.3127102    599.88442  0.021057442  0.020824902            6 
 2375000   0.87140501   -7.3238393    600.53593  0.021071436  0.020817616            9 
 2376000   0.86708321   -7.3361942    599.35678  0.021021211  0.020810308            6 
 2377000   0.86194721   -7.3305578    599.91545  0.021031954  0.020803021            5 
 2378000   0.87887369   -7.3047571     599.4228  0.021005845  0.020795713            8 
 2379000   0.87350792   -7.3516615    599.96297  0.021015937  0.020788367           11 
 2380000   0.85484641   -7.3481034    597.85472  0.020933289  0.020781025           12 
 2381000   0.87867325   -7.3266459    600.31038  0.021010443  0.020773657           10 
 2382000   0.87747322   -7.3414476    599.30598  0.020966484   0.02076628           17 
 2383000   0.86153687   -7.3617149    598.68839  0.020936089  0.020758933            7 
 2384000   0.86147524   -7.3327346     600.5696  0.020993065  0.020751585           12 
 2385000   0.87515569   -7.3426966    601.44016  0.021014681  0.020744221           15 
 2386000   0.86508636   -7.3750116    600.33232  0.020967181  0.020736905            8 
 2387000    0.8659882   -7.3709053    600.01907  0.020947461  0.020729543            4 
 2388000   0.88152294   -7.3594522    599.94042  0.020935944  0.020722136            6 
 2389000   0.87716087   -7.3673247    599.74173   0.02092025  0.020714771           12 
 2390000   0.85748615   -7.3402887    599.79331  0.020913295  0.020707443            9 
 2391000   0.85747129   -7.3811304     599.1066  0.020880615  0.020700125           10 
 2392000    0.8712062   -7.3373149    600.48496  0.020919905  0.020692796            8 
 2393000   0.87531311   -7.3537802    600.12259  0.020898544  0.020685499           21 
 2394000   0.87605935   -7.3496647    602.15257  0.020960476   0.02067813            9 
 2395000   0.85784788   -7.3357194    599.79545   0.02086971  0.020670787            9 
 2396000   0.87164863   -7.3479829    599.91503  0.020865158  0.020663485           11 
 2397000   0.87806896   -7.3466208    600.76336  0.020885946  0.020656184            6 
 2398000   0.86649914   -7.3397689    600.66534   0.02087383  0.020648843            7 
 2399000    0.8611112   -7.3445686    601.85641  0.020906503  0.020641529            8 
 2400000   0.86176536   -7.3392682    601.13195  0.020872637  0.020634208            9 
 2401000   0.85741191   -7.3364688    602.85069  0.020923597  0.020626966           17 
 2402000   0.86539214   -7.3077367    601.06663  0.020852992   0.02061974           10 
 2403000   0.87553269   -7.3479205    600.83403  0.020836247  0.020612429           21 
 2404000   0.86300058   -7.3706911    600.96609  0.020832158  0.020605099           11 
 2405000   0.85071197   -7.3229559    601.51682  0.020842579  0.020597779            9 
 2406000   0.88352478   -7.3832953    600.05067  0.020783135  0.020590411           11 
 2407000    0.8922274   -7.3476775    602.49988  0.020859295  0.020583074            6 
 2408000    0.8640039   -7.3553851    599.68452  0.020753202  0.020575671            8 
 2409000   0.86078003   -7.3579056    602.18592  0.020831116   0.02056839           16 
 2410000   0.85333408   -7.3788081    599.31727   0.02072328  0.020561073           17 
 2411000   0.85864954   -7.3666896    602.12096  0.020811591  0.020553726           13 
 2412000   0.88025485   -7.3289685    602.48186  0.020815432   0.02054648            8 
 2413000   0.87692244   -7.3658603    600.78246  0.020748116  0.020539202            5 
 2414000   0.86429814   -7.3544614    601.43793  0.020762149  0.020531888            7 
 2415000   0.85140393   -7.3310751    603.06667  0.020809754  0.020524605           16 
 2416000   0.86716163   -7.3406761    602.71614   0.02078905   0.02051732            2 
 2417000   0.85299745   -7.3277958    602.37586  0.020768717   0.02051004            9 
 2418000   0.84503046   -7.3408338    601.57214  0.020732428  0.020502786           17 
 2419000   0.86302038   -7.3091572    604.01584  0.020808042  0.020495514            3 
 2420000   0.87425215   -7.3620976    601.12579  0.020699924  0.020488213            9 
 2421000    0.8653224   -7.3524415    602.73093  0.020746624  0.020480888            5 
 2422000   0.85564892   -7.3413646    603.10472  0.020750919  0.020473611            6 
 2423000   0.86346246   -7.3628794    601.92687  0.020701846  0.020466361            6 
 2424000   0.87349717   -7.3274235    601.92713  0.020693314  0.020459099           21 
 2425000   0.85266071   -7.3627637    600.71399  0.020643092  0.020451772            7 
 2426000   0.86816307   -7.3585793    602.92265  0.020710451  0.020444477           10 
 2427000    0.8608332   -7.3698057    602.05741  0.020672209   0.02043722            7 
 2428000   0.84856221   -7.3407517    603.32573  0.020707226  0.020429995            6 
 2429000   0.87688323   -7.3615736    603.24736  0.020696012  0.020422782            6 
 2430000   0.86090541   -7.3763104    602.32538  0.020655877  0.020415552           12 
 2431000   0.86787758   -7.3629075    605.17359  0.020745015  0.020408312            4 
 2432000   0.86854862   -7.3806284    601.17886  0.020599605  0.020401085           10 
 2433000   0.84236829   -7.3339421    601.99693  0.020619158  0.020393844            8 
 2434000   0.87229912   -7.3899437    603.84861  0.020674083  0.020386637           11 
 2435000   0.85448846   -7.3544338    601.11426  0.020572014  0.020379379           23 
 2436000   0.85218401   -7.3267982    602.42096   0.02060827  0.020372144            8 
 2437000   0.85484242   -7.3551441    604.40724  0.020667735  0.020364958           14 
 2438000   0.86723672   -7.4134471    602.99316  0.020610923   0.02035771            7 
 2439000   0.84528412   -7.3894373    601.88296   0.02056454  0.020350455            7 
 2440000   0.85933617    -7.409145    602.39373  0.020573556  0.020343182            8 
 2441000    0.8690447   -7.3657595    603.41422  0.020599967  0.020335907            4 
 2442000   0.85068119   -7.4049836    602.03361  0.020544417    0.0203286            8 
 2443000   0.83536527   -7.3762686    602.85915  0.020564168  0.020321327            5 
 2444000   0.85002911   -7.3622877    604.48821    0.0206113  0.020314049            4 
 2445000   0.86528954   -7.4011748    603.13128  0.020556622   0.02030674           11 
 2446000    0.8444334   -7.3678774    603.32247  0.020554731  0.020299443           15 
 2447000   0.85958817   -7.3639725    603.34626  0.020547142  0.020292182           11 
 2448000      0.84009   -7.3565535    602.14557  0.020497875  0.020284963            4 
 2449000   0.85039209   -7.3604415    603.68066   0.02054174  0.020277753           11 
 2450000   0.87312947   -7.3248575     605.2461  0.020586602  0.020270495           15 
 2451000   0.85073352    -7.350554    604.58795  0.020555826  0.020263258           10 
 2452000   0.85012256   -7.3905277      603.241  0.020501665  0.020255996            7 
 2453000   0.84970317   -7.3521932    603.63135  0.020506568   0.02024877           10 
 2454000   0.85611823   -7.3725232    604.54979  0.020529401  0.020241559            7 
 2455000    0.8565324   -7.3682224    602.63158  0.020455926    0.0202344            7 
 2456000   0.85094841     -7.36298     605.4211  0.020542247  0.020227186            5 
 2457000   0.84416878   -7.3848968    604.65502  0.020507903   0.02021998           15 
 2458000    0.8508267   -7.3828849    604.95234   0.02050964  0.020212806            9 
 2459000   0.85505152   -7.3949041    604.59343  0.020489136  0.020205662           11 
 2460000   0.86646387   -7.3386947    606.31081  0.020538984  0.020198499            9 
 2461000   0.85720595   -7.4000007     603.7168  0.020442801  0.020191363            8 
 2462000   0.85253149   -7.3739343    603.94892  0.020442354  0.020184177            5 
 2463000   0.84691869   -7.3859371    602.74755  0.020393408  0.020176996            8 
 2464000   0.88223438    -7.380974    605.42083  0.020475542  0.020169801           13 
 2465000   0.87050289   -7.3268009    606.45023  0.020502036  0.020162682            6 
 2466000   0.85387166   -7.3368251    605.43601  0.020459449  0.020155618            4 
 2467000   0.86309849   -7.3820035     604.4868  0.020419092  0.020148496           12 
 2468000   0.84654357   -7.4163559     604.2828   0.02040393  0.020141337            4 
 2469000   0.83805425   -7.3499765    607.39015  0.020500545   0.02013421            4 
 2470000   0.85277269    -7.387339    605.20653  0.020418574  0.020127135           10 
 2471000   0.87638126   -7.3810251    605.56239  0.020422312  0.020119992            6 
 2472000   0.87134301   -7.3704594    606.10764  0.020432431  0.020112866           18 
 2473000   0.85135044   -7.3682941    605.32185   0.02039769   0.02010574           11 
 2474000   0.85809805   -7.3704587    606.08793  0.020415249  0.020098627           12 
 2475000   0.85298912   -7.3989282    605.41007  0.020384177  0.020091491           23 
 2476000   0.86817386   -7.3764459    605.72211  0.020386447   0.02008432            5 
 2477000   0.86240437   -7.3928456    605.69677  0.020377364  0.020077192            9 
 2478000   0.86060973   -7.3965036    605.98924  0.020378976  0.020070041            8 
 2479000   0.85835713   -7.4229378    605.11439  0.020341347  0.020062957           11 
 2480000   0.86070983   -7.3926913    605.13777   0.02033393  0.020055832            8 
 2481000   0.86168104   -7.3874347    604.57337  0.020306777  0.020048704           16 
 2482000   0.84576214    -7.384804    606.21179  0.020353606  0.020041586           13 
 2483000   0.87335342   -7.3873678    606.29438   0.02034818  0.020034476            8 
 2484000   0.86069856   -7.3766328    606.93982  0.020361642  0.020027391           12 
 2485000   0.85270193   -7.3780316    607.19915  0.020362145  0.020020286           12 
 2486000   0.84601081   -7.3762431     606.7379  0.020338492  0.020013204           16 
 2487000   0.84508514   -7.3703319    606.87192  0.020334805  0.020006141            8 
 2488000    0.8321421   -7.4157195    606.57879  0.020316814  0.019999074           11 
 2489000   0.88495129   -7.3680012    606.30602  0.020299518  0.019991992            5 
 2490000   0.84105223   -7.4114398    605.94837  0.020279397  0.019984898            7 
 2491000   0.83540303   -7.3681298    607.39927  0.020319794  0.019977806            7 
 2492000   0.87050584   -7.4012607    606.86207  0.020293675  0.019970737           11 
 2493000   0.85442447   -7.3982155    605.75725  0.020248604  0.019963648           10 
 2494000   0.84059353   -7.3927615    606.92477  0.020279497  0.019956566            4 
 2495000   0.84861801   -7.3919401    606.70464  0.020264016   0.01994947           16 
 2496000   0.85864785   -7.4143408    606.30432  0.020242532  0.019942378            7 
 2497000   0.84796144   -7.3873271    606.92689  0.020255203  0.019935287           12 
 2498000   0.85498034   -7.3836838    608.27377  0.020292026  0.019928205           13 
 2499000   0.86135873    -7.399261    606.41831  0.020222032  0.019921132           15 
 2500000   0.84984226   -7.3703501    608.61484  0.020287161  0.019914091            6 
 2501000   0.84211147   -7.3692764    608.35475  0.020270383  0.019907039           11 
 2502000   0.84455711   -7.3892278    606.57579   0.02020303  0.019900007           20 
 2503000   0.85133384   -7.3840057    607.51056  0.020226081  0.019892949           16 
 2504000   0.87265679   -7.4219762    606.79448  0.020194172  0.019885871           10 
 2505000   0.86123182   -7.3802044    608.56594  0.020245041  0.019878818           18 
 2506000   0.85330139   -7.4565841    605.62491  0.020139163  0.019871735           16 
 2507000   0.83534178   -7.4220124    605.68695  0.020133192  0.019864621           18 
 2508000   0.85364626   -7.4166547    607.74814  0.020193652  0.019857535           14 
 2509000   0.84754457   -7.4287421    605.39568  0.020107469  0.019850454           17 
 2510000   0.82474528   -7.4012779    607.58513  0.020172149  0.019843376           22 
 2511000   0.86058622    -7.422043    606.82473   0.02013888  0.019836254           18 
 2512000    0.8422725   -7.3913605    607.93104  0.020167564  0.019829161            5 
 2513000   0.84915825   -7.4083245    607.66329   0.02015066   0.01982215            4 
 2514000   0.84420066   -7.3845669    607.05998  0.020122646  0.019815148           20 
 2515000   0.86545697   -7.4199319    607.83709  0.020140394  0.019808097            5 
 2516000   0.84496268    -7.396907    607.54496  0.020122713  0.019801068           12 
 2517000    0.8482315   -7.4072441     607.6924    0.0201196  0.019794085           17 
 2518000   0.85286641   -7.4055581    608.06248  0.020123857   0.01978709            8 
 2519000    0.8617031   -7.3880052    608.51319  0.020130779  0.019780048           11 
 2520000    0.8395288    -7.395783    608.83882  0.020133559  0.019773032            5 
 2521000   0.85194145   -7.4175807    607.26593   0.02007358  0.019765989            9 
 2522000   0.84466556   -7.4065567    606.31611  0.020034236  0.019758935            7 
 2523000   0.85569004   -7.4177704     608.1046  0.020085368  0.019751902            6 
 2524000   0.85552305   -7.4182651    608.25343  0.020082324  0.019744902            8 
 2525000   0.86538816   -7.4410833    608.45877  0.020081148  0.019737855            6 
 2526000   0.86453909   -7.4389095    608.19683  0.020064556  0.019730795           19 
 2527000   0.85803406   -7.4245765     608.3059  0.020060213  0.019723723            5 
 2528000   0.85314285   -7.4057903       608.12   0.02004615  0.019716689           18 
 2529000   0.84905314   -7.4579398    608.45544  0.020049276   0.01970962            6 
 2530000   0.84659692   -7.4314259    607.52907  0.020010839  0.019702522           11 
 2531000   0.84631428   -7.4142787    607.97327  0.020017558  0.019695468            3 
 2532000   0.84569352   -7.3982893    609.39903  0.020056577  0.019688504           10 
 2533000   0.83091054   -7.3723792    608.54342   0.02002051  0.019681494            9 
 2534000   0.85296127   -7.4112543    609.49993  0.020044065  0.019674534            8 
 2535000   0.83916462   -7.4340694    608.14254  0.019991537  0.019667543            7 
 2536000   0.84207452   -7.4132235    610.11483  0.020048463  0.019660552            5 
 2537000   0.84580129   -7.4416005    608.04971  0.019972727  0.019653585           17 
 2538000   0.84299409   -7.4429832    609.38278  0.020008628  0.019646562            9 
 2539000   0.81866198   -7.4379542    608.74461  0.019979802  0.019639555            8 
 2540000   0.83464029   -7.4309021    609.48014  0.019996068  0.019632571           21 
 2541000   0.84199238   -7.4087087    610.16455  0.020010644  0.019625594           10 
 2542000   0.85167761    -7.408303    610.30849  0.020007491  0.019618621            7 
 2543000   0.85525123   -7.4457187    608.19857  0.019930482   0.01961164            6 
 2544000   0.83169047   -7.4226884    609.32748  0.019959627  0.019604667           22 
 2545000   0.84820345   -7.4343554    610.29734  0.019983541  0.019597711            9 
 2546000   0.86093257   -7.4488898    609.91894  0.019963306  0.019590755           10 
 2547000   0.85161489   -7.4175284    609.67155  0.019947374  0.019583796           15 
 2548000   0.83877839   -7.4184022    610.67422  0.019972339  0.019576819           13 
 2549000   0.83157409   -7.4446523    610.41216  0.019955936  0.019569822            8 
 2550000   0.83860515   -7.4476128    608.14317   0.01987396  0.019562811            7 
 2551000    0.8351783   -7.4425666    610.55621  0.019944996  0.019555782            5 
 2552000   0.83573074   -7.4012743    610.21267  0.019925962    0.0195488           13 
 2553000   0.84090838    -7.434318    609.47806  0.019894179  0.019541851            6 
 2554000   0.86312689   -7.4635026    608.70713  0.019861235  0.019534841           14 
 2555000   0.84967604   -7.3754492    612.05945    0.0199628  0.019527885            6 
 2556000   0.85576292   -7.4024507    611.51262  0.019937162  0.019520918            5 
 2557000   0.82863482   -7.4099752    609.00746  0.019847721  0.019513978           13 
 2558000   0.82727504   -7.4470091    610.30047  0.019882085  0.019506996           19 
 2559000   0.86294081   -7.4521304    610.49368  0.019880607  0.019500008            6 
 2560000   0.84206382   -7.4623753    608.11469    0.0197954  0.019493007            6 
 2561000   0.84818433   -7.4631868    609.42995  0.019830468  0.019486052           11 
 2562000   0.84914162   -7.4144918    609.87955  0.019837352  0.019479104            5 
 2563000   0.84647756   -7.4471094    608.22664  0.019775869  0.019472129            9 
 2564000    0.8370376   -7.4302696    607.98504  0.019760304  0.019465157           15 
 2565000   0.85869763   -7.4443198    607.77234   0.01974569  0.019458118           13 
 2566000   0.83943044   -7.4480716    607.29211  0.019722399  0.019451114            9 
 2567000   0.83501757   -7.4441922     609.6193  0.019790264   0.01944414            9 
 2568000   0.83030083   -7.4792886    609.65665   0.01978377  0.019437173            8 
 2569000   0.85334216   -7.3967547    610.14877  0.019792032  0.019430204           11 
 2570000   0.85475176   -7.4123219    612.50454  0.019860718  0.019423341            7 
 2571000   0.84371268   -7.4310407    610.84267  0.019799127  0.019416464           13 
 2572000   0.84965258   -7.4574894     609.1859  0.019737749  0.019409497            7 
 2573000   0.83458325    -7.445383    611.29156  0.019798276  0.019402584            7 
 2574000    0.8460899   -7.4444735    611.04924  0.019782739   0.01939563            9 
 2575000   0.83072833   -7.4321721    609.07492  0.019711163  0.019388732           14 
 2576000   0.84852631   -7.4020769    612.57806  0.019816837  0.019381869            8 
 2577000   0.86462226   -7.4219215     611.3603  0.019769768  0.019374989            8 
 2578000   0.85154666   -7.4327438    611.57037   0.01976889  0.019368082            9 
 2579000   0.83460433   -7.4448103    611.41594  0.019756234  0.019361217           10 
 2580000   0.83909357   -7.4298874    610.35129  0.019714189  0.019354276           19 
 2581000   0.84314394   -7.4613127    610.10478  0.019698592  0.019347368           17 
 2582000   0.83375231   -7.4431921    611.02387  0.019720626  0.019340433           10 
 2583000   0.84735957   -7.4435905    612.41869  0.019757991  0.019333523            5 
 2584000   0.82109603   -7.4489142    611.17091  0.019710104  0.019326619           11 
 2585000   0.80860584    -7.475997    609.86359  0.019660335  0.019319677            8 
 2586000   0.83005227   -7.4680865    609.34631  0.019636063  0.019312776           14 
 2587000    0.8393898   -7.3883388    613.42997  0.019760017  0.019305921            9 
 2588000   0.82236099   -7.4390001    610.76007  0.019666411   0.01929906            7 
 2589000   0.83705403   -7.4395691    611.40626  0.019679614  0.019292198           18 
 2590000    0.8425211   -7.4592249    612.16731  0.019696503  0.019285297           12 
 2591000   0.83244666   -7.4342924    611.30983  0.019661322  0.019278376            9 
 2592000   0.82275917   -7.4588334    611.40315  0.019656737  0.019271436           21 
 2593000   0.83113389   -7.4412458    611.95759  0.019666975  0.019264525            6 
 2594000   0.84295146    -7.448489    612.24167  0.019668519  0.019257637           13 
 2595000   0.83237246   -7.4652859    612.75239  0.019677341  0.019250773            8 
 2596000   0.83406503   -7.4245234    612.83457  0.019672399  0.019243908            9 
 2597000   0.84693465   -7.4280428    613.28381  0.019679239  0.019237006            8 
 2598000   0.82090034   -7.4708091     610.2123  0.019573143  0.019230133           16 
 2599000   0.84370495   -7.4658247    610.63413  0.019579137  0.019223233           16 
 2600000   0.85955824   -7.4178914    611.09589  0.019586407  0.019216384            9 
 2601000   0.82400874    -7.441948    611.86055  0.019603375  0.019209546           12 
 2602000   0.83761322   -7.4570471     611.8336  0.019594978  0.019202698           12 
 2603000   0.81519185   -7.4669446    612.81475  0.019618861  0.019195846           12 
 2604000   0.83581437   -7.4664628    611.96126  0.019584014   0.01918898           11 
 2605000   0.82940832   -7.4449422    613.01679  0.019610262  0.019182097           15 
 2606000    0.8220128   -7.4734232    612.33067  0.019580797  0.019175261            8 
 2607000   0.82320386   -7.4776001     610.9368   0.01952873  0.019168377           11 
 2608000   0.82544482   -7.4723882    612.85388  0.019582499  0.019161501            6 
 2609000   0.83861503    -7.452304    611.72065  0.019538797  0.019154633           11 
 2610000   0.82338363   -7.4413361    613.95734  0.019602725  0.019147794           12 
 2611000   0.84172632   -7.4250438    612.29483  0.019542156  0.019141003           11 
 2612000   0.83068139   -7.4519796    614.22397  0.019596222  0.019134215            6 
 2613000   0.81530698   -7.4610192    613.31097  0.019559605   0.01912742           10 
 2614000   0.83941715   -7.4781038    612.62453  0.019530239  0.019120657            9 
 2615000   0.85091396    -7.444322    613.65988  0.019555764  0.019113863            3 
 2616000   0.81498176   -7.4489627    614.23633  0.019566652  0.019107101            7 
 2617000   0.84191797   -7.4426718     613.3297  0.019530305  0.019100271            6 
 2618000   0.84503572   -7.4725402     612.7996  0.019505971  0.019093462           17 
 2619000   0.83184075   -7.4597139    613.22435  0.019512039  0.019086673            9 
 2620000   0.83769803   -7.4785822    612.06637   0.01946776  0.019079855           12 
 2621000   0.84462484   -7.4641857    612.20387  0.019464704  0.019073041           15 
 2622000   0.83401193   -7.4435404    613.06436  0.019484629  0.019066192            5 
 2623000   0.84552914   -7.4203357    613.54833  0.019492576   0.01905942            8 
 2624000   0.82660286   -7.4434573     614.3125  0.019509416  0.019052653            9 
 2625000   0.83304193   -7.4529718    613.85703  0.019487525  0.019045883           16 
 2626000   0.82368408   -7.4088907    614.28375  0.019493645  0.019039082            8 
 2627000   0.83157283   -7.4761905    613.32179   0.01945571    0.0190323           17 
 2628000   0.83529966   -7.4654581    612.82534  0.019432564  0.019025511           17 
 2629000   0.80522592   -7.4559861    614.10999  0.019465893  0.019018719           13 
 2630000   0.81255705   -7.4338724    614.79105  0.019480071  0.019011973           10 
 2631000   0.83089765    -7.448287    614.75019  0.019471373  0.019005254           13 
 2632000   0.83121599   -7.4672511     614.0896   0.01944306  0.018998507            9 
 2633000   0.83539571   -7.4405431    614.21631  0.019439686  0.018991762           22 
 2634000    0.8198901     -7.45644    614.78079  0.019450164  0.018985033           16 
 2635000   0.83507865   -7.4891663     614.9979  0.019449649  0.018978284           16 
 2636000   0.82151168   -7.4447425    614.44171  0.019424687  0.018971534           19 
 2637000   0.83063887   -7.4385683    614.51209  0.019419545  0.018964788           10 
 2638000   0.84000222   -7.4641446    614.55921  0.019413672  0.018958041           13 
 2639000   0.84147281   -7.4681501    614.25498  0.019396709  0.018951302           10 
 2640000   0.81686689   -7.4315234    615.62568  0.019432629  0.018944571            9 
 2641000   0.81866923   -7.4660362    614.63571  0.019394033  0.018937874           13 
 2642000   0.85757604   -7.4549217    614.41484  0.019379726  0.018931169            7 
 2643000   0.82525709   -7.4748209    614.23004  0.019366567  0.018924434           10 
 2644000   0.80966854   -7.4700831    614.12883  0.019356052  0.018917695            8 
 2645000   0.83220016   -7.4345758    615.17235  0.019381612  0.018910989            5 
 2646000    0.8300436   -7.4412905    615.55928  0.019386473  0.018904313           13 
 2647000   0.81843534   -7.4523689    614.63979  0.019350201  0.018897609            8 
 2648000   0.84699559   -7.4653543    614.34955   0.01933376  0.018890903            8 
 2649000    0.8455042   -7.4811465    613.32598  0.019294261  0.018884186            7 
 2650000     0.829269   -7.4826175    614.61097  0.019327389    0.0188775           17 
 2651000   0.84354157   -7.4537097    614.80521  0.019326204  0.018870768           15 
 2652000   0.83323033   -7.4578792    614.19341  0.019299693  0.018863995           17 
 2653000   0.82952347   -7.4996536    614.52013   0.01930268  0.018857267           10 
 2654000   0.83546126   -7.5111547    614.68901   0.01930071  0.018850495           15 
 2655000   0.84711888   -7.5003301    613.87312  0.019267832  0.018843714           10 
 2656000   0.84502165    -7.457938    615.07599  0.019298318  0.018836985            8 
 2657000   0.82242568   -7.4897408    614.46207    0.0192718  0.018830264           13 
 2658000   0.81745087   -7.4920455    612.76163  0.019211237  0.018823548           13 
 2659000   0.81515132   -7.4778602    615.92576  0.019303177  0.018816824           17 
 2660000   0.83945217   -7.4854458    615.71211  0.019289227  0.018810152           10 
 2661000   0.81001895   -7.4735959    616.98963  0.019321985  0.018803495           22 
 2662000   0.82747427   -7.4785021    615.46094  0.019266872  0.018796817           11 
 2663000   0.82262833   -7.5093801    614.04682  0.019215384  0.018790128           20 
 2664000   0.82094866   -7.4774904    615.57197   0.01925588  0.018783452           20 
 2665000   0.82965053   -7.4863915    615.56259  0.019248361  0.018776767            7 
 2666000    0.8390427   -7.5139675    614.84017   0.01921856  0.018770089            7 
 2667000   0.80366075   -7.4661232     615.4612  0.019230759  0.018763391           15 
 2668000    0.8202502   -7.4645119    615.67711  0.019230294  0.018756698           15 
 2669000   0.82184604   -7.5138087    614.42085  0.019183866  0.018749979           28 
 2670000   0.81987852   -7.5022441    615.95413  0.019224536  0.018743263            7 
 2671000   0.81699649   -7.4867885    615.00442  0.019187708  0.018736555           26 
 2672000   0.82823859    -7.498342    615.05768  0.019182188  0.018729873           10 
 2673000   0.82238491    -7.511119    616.49978  0.019219971  0.018723199           13 
 2674000   0.80360177    -7.503366    614.64136  0.019154867  0.018716522            7 
 2675000   0.81818704   -7.4769947    616.95057  0.019219644  0.018709833            8 
 2676000   0.82528446    -7.495451    614.80344  0.019145598  0.018703176            8 
 2677000   0.82780138   -7.4869567    616.57686  0.019193652  0.018696542            7 
 2678000   0.82151153   -7.5228455    615.69216  0.019158954  0.018689924           12 
 2679000   0.81380376   -7.4715893    616.45967  0.019175677  0.018683293            5 
 2680000   0.81110449   -7.4846229     615.7369  0.019146048  0.018676658            4 
 2681000   0.83839664   -7.4532028    615.16906  0.019121256  0.018670065           13 
 2682000    0.8259246   -7.4727323    616.39413  0.019152191  0.018663473           17 
 2683000   0.82420325   -7.4732932    617.01735   0.01916441  0.018656851           20 
 2684000   0.82419076   -7.4707105    615.70122  0.019116407  0.018650228            9 
 2685000   0.82873028    -7.479576    615.91787  0.019116011  0.018643581           22 
 2686000   0.82371034   -7.4882487    616.34676    0.0191222   0.01863697           13 
 2687000   0.84013935   -7.4833905    616.27612  0.019112893  0.018630356           21 
 2688000   0.80859548   -7.5070367    615.79681  0.019090923  0.018623708           11 
 2689000   0.80716236     -7.49311    617.04796  0.019122597    0.0186171           16 
 2690000    0.7940798   -7.4971341     615.9597  0.019081775  0.018610464           16 
 2691000   0.81952427   -7.4712482    619.39192  0.019180971  0.018603846           10 
 2692000   0.81045505   -7.4784917    617.23216  0.019106989  0.018597284           14 
 2693000   0.82911153   -7.5059384    616.44739  0.019075609  0.018590688           14 
 2694000   0.82512354   -7.5200079    616.71091   0.01907668  0.018584088           21 
 2695000   0.82158083   -7.5003453    616.34517  0.019058292   0.01857747           14 
 2696000   0.80248453   -7.5001364    615.57835  0.019027521  0.018570843            8 
 2697000   0.83094078   -7.4778676    618.04791  0.019096772  0.018564232            6 
 2698000    0.8255971   -7.4801891    617.71667  0.019079462  0.018557661           15 
 2699000    0.8088628   -7.5239266    616.22534  0.019026347  0.018551062           10 
 2700000   0.83156764     -7.51039    616.54805  0.019029261  0.018544431            8 
 2701000   0.81483825   -7.5151907    616.91261  0.019033463  0.018537813           22 
 2702000   0.82240801   -7.4846319    617.99564  0.019059821  0.018531214           29 
 2703000   0.80239036   -7.4886551    618.33001  0.019063078  0.018524638            8 
 2704000   0.81036229   -7.4544333     617.7076  0.019036847   0.01851803            6 
 2705000   0.81058152   -7.4803041    619.52612  0.019085832  0.018511456           14 
 2706000   0.82911976   -7.4787063    617.23606  0.019008255  0.018504918            5 
 2707000   0.82501267   -7.4688423     618.2129  0.019031305  0.018498381           10 
 2708000   0.81864499   -7.4906299    616.58831  0.018974283  0.018491787           16 
 2709000   0.83321291   -7.5017721    616.99933  0.018979923    0.0184852           13 
 2710000   0.82295479   -7.4801997    618.41571  0.019016473  0.018478613           18 
 2711000   0.82574197   -7.5355977    616.76434  0.018958697  0.018472049           12 
 2712000   0.83064738    -7.509937    615.62063  0.018916563  0.018465458            8 
 2713000   0.80929723    -7.503472    618.06205  0.018984582  0.018458863           10 
 2714000   0.80888723   -7.4811957    617.88614  0.018972186  0.018452301            7 
 2715000   0.81175782   -7.5600097     616.2014  0.018913487    0.0184457            9 
 2716000   0.80905638    -7.526256    616.36496  0.018911541  0.018439096           17 
 2717000    0.8195141   -7.5339167    616.88486  0.018920527  0.018432473            5 
 2718000   0.82130632   -7.5129898    617.41129  0.018929706  0.018425848           17 
 2719000   0.81183168   -7.4965656    617.80233  0.018934729   0.01841925           13 
 2720000   0.82673475   -7.5205102    618.18319  0.018939436  0.018412655            9 
 2721000   0.81710943   -7.5417465    615.96931  0.018864673  0.018406034           12 
 2722000   0.82747884    -7.523371    617.16037  0.018894207   0.01839939           15 
 2723000    0.8094712   -7.4915828    617.20613  0.018888669  0.018392782           12 
 2724000   0.82706959   -7.5233024    616.76386  0.018868204  0.018386215           13 
 2725000   0.81205414   -7.5111902    617.84517  0.018894348  0.018379595           13 
 2726000    0.8338144   -7.4966029    616.51227   0.01884667  0.018373018            9 
 2727000   0.82407669   -7.5034035    617.83338   0.01888013  0.018366462           19 
 2728000   0.82854485   -7.5002767    618.28451   0.01888699  0.018359923           20 
 2729000   0.82850267   -7.5302582    618.41906  0.018884178   0.01835337            9 
 2730000   0.81948836   -7.5338102    617.15651  0.018838721  0.018346832           14 
 2731000   0.80162434   -7.5101322    619.77994  0.018911874  0.018340317           21 
 2732000   0.82043473    -7.525513    617.00571   0.01882033  0.018333796           13 
 2733000   0.82012666   -7.4958019    618.62255  0.018862744  0.018327257            9 
 2734000   0.82577785    -7.498766    618.42239  0.018849744  0.018320781           13 
 2735000   0.82539073   -7.5159841      618.062  0.018831871  0.018314288            8 
 2736000   0.81500329   -7.5136698    617.43791  0.018805979   0.01830776            6 
 2737000    0.8123558   -7.5044974    616.90313  0.018782826  0.018301211           17 
 2738000    0.8063432   -7.5467453    617.50933  0.018794416  0.018294635           20 
 2739000   0.82381377   -7.5190351    618.93145  0.018830822  0.018288091           10 
 2740000   0.80950348   -7.5592504    617.58894  0.018783119  0.018281543           11 
 2741000   0.81333476    -7.513175    618.91907  0.018816705  0.018275001            9 
 2742000   0.79619587   -7.5144842    617.76907  0.018774893  0.018268518           15 
 2743000   0.80298137   -7.5361274    618.85082  0.018800912  0.018262014           26 
 2744000   0.80286849   -7.4654716    621.11427    0.0188628  0.018255565            9 
 2745000   0.79362272   -7.5179186     618.9445  0.018790058  0.018249076            9 
 2746000   0.81483937   -7.4897615    619.39666  0.018796937  0.018242593           17 
 2747000   0.82162392    -7.499071    621.55995   0.01885572  0.018236133           11 
 2748000   0.82338495   -7.4994761    619.38157  0.018782799  0.018229678           19 
 2749000   0.80936671   -7.5188401    617.88622  0.018730636  0.018223252            5 
 2750000    0.8147218   -7.4938522    620.56953  0.018805137  0.018216817            8 
 2751000   0.82173534   -7.4858173    619.52931  0.018766791  0.018210394           10 
 2752000    0.8246956   -7.4831152    620.70552  0.018795589  0.018204006           17 
 2753000   0.79345492   -7.4746712    620.00891  0.018767675  0.018197619           10 
 2754000   0.80258792   -7.5104773    620.61655  0.018779247  0.018191222           12 
 2755000   0.81759852   -7.5024179    620.80373  0.018778092    0.0181848           11 
 2756000   0.83467631   -7.4878271    620.53884  0.018763269  0.018178381           15 
 2757000   0.82087535   -7.5219127    618.30913  0.018689068   0.01817191           11 
 2758000   0.80449713   -7.5319768     618.8767  0.018699441  0.018165429           10 
 2759000   0.80976833   -7.5271164    619.95308  0.018725175   0.01815898            9 
 2760000   0.79273725   -7.4940185    620.95725  0.018748709   0.01815254           14 
 2761000   0.80308022   -7.5000511    620.71411   0.01873458  0.018146117           21 
 2762000   0.81633762   -7.5003637      620.703  0.018727462  0.018139683           20 
 2763000   0.80856032   -7.4911188    619.40097  0.018681414  0.018133238           16 
 2764000   0.80327869   -7.4973975    620.36003  0.018703571  0.018126808           21 
 2765000   0.82779453   -7.5141869    620.73112   0.01870799  0.018120387            8 
 2766000   0.80899232   -7.5310198    619.33864  0.018659275  0.018113928           27 
 2767000   0.82285733   -7.5416737    619.06488  0.018644286   0.01810743           19 
 2768000   0.80794532   -7.5226346    620.36863  0.018676801  0.018100946           17 
 2769000   0.80647496   -7.5488229    619.48543  0.018643476  0.018094478           39 
 2770000   0.80706379   -7.5735867    618.98194  0.018621599     0.018088           15 
 2771000   0.82772613   -7.5436797    619.14469  0.018619773  0.018081547           15 
 2772000    0.8313315   -7.5546473    618.90071  0.018605721   0.01807514           11 
 2773000   0.79156329   -7.5094671    620.42577  0.018644842  0.018068743           14 
 2774000   0.79619027   -7.5127096    622.15026  0.018689926  0.018062342            4 
 2775000   0.81868956   -7.5314622    620.49343  0.018633436  0.018055953            6 
 2776000     0.797504   -7.5348237    620.39557  0.018623786  0.018049558           15 
 2777000   0.80418801   -7.5253899    620.94529  0.018633576  0.018043132           16 
 2778000   0.81499986   -7.5229855    621.28546  0.018637073  0.018036758           15 
 2779000   0.81907872   -7.5314329     619.9593  0.018590599  0.018030394           14 
 2780000   0.79785213   -7.5463674    621.71122  0.018636427  0.018024042           14 
 2781000   0.79852949   -7.5448743     622.1346  0.018642413  0.018017629           11 
 2782000    0.8149299   -7.5419271    620.56755  0.018588772  0.018011206           11 
 2783000   0.79471369   -7.5433291    620.62214  0.018583727  0.018004768            7 
 2784000   0.82470624   -7.5482207    620.22988   0.01856531  0.017998346           21 
 2785000   0.79264106   -7.5476934    620.83139  0.018576643   0.01799192           14 
 2786000   0.81212232   -7.5133217    619.81061  0.018539441  0.017985527           12 
 2787000   0.81617096    -7.543307    620.47204  0.018552567  0.017979133           13 
 2788000   0.80533732   -7.5465265    619.76902  0.018524899  0.017972712           18 
 2789000   0.81305235     -7.54355    620.30502  0.018534272  0.017966339           15 
 2790000   0.81755485   -7.5424948    620.88518  0.018544958  0.017959996           12 
 2791000   0.80038258      -7.5273    621.68669  0.018562244  0.017953627           13 
 2792000    0.7929838   -7.5428653    621.97232  0.018564121  0.017947286           11 
 2793000   0.81276754   -7.5359191    620.87772  0.018524816  0.017940924           12 
 2794000   0.80506765   -7.5256616    622.55387  0.018568178  0.017934563            9 
 2795000   0.79219172    -7.509576    621.71392  0.018536491  0.017928212            9 
 2796000   0.82434684   -7.5339861    621.49402  0.018523308  0.017921859            8 
 2797000    0.8060219   -7.5306357    620.29233  0.018480882  0.017915488           12 
 2798000   0.80078335   -7.5415828    621.74612  0.018517576  0.017909104           19 
 2799000   0.78951261   -7.5396455    620.59344  0.018476642  0.017902695           18 
 2800000   0.81134536   -7.5722608    621.15143   0.01848665  0.017896324           11 
 2801000   0.80663479   -7.5478601    621.75924  0.018498133  0.017889976           11 
 2802000   0.80626077    -7.549068    621.74096  0.018490987  0.017883586           11 
 2803000   0.81511764   -7.5470141    621.49723  0.018477144  0.017877183           22 
 2804000   0.80323263   -7.5475674    621.28031  0.018464108  0.017870811           33 
 2805000   0.79500046    -7.524578    620.30606  0.018428582  0.017864428           16 
 2806000    0.7687683   -7.5505605    622.51709  0.018487678  0.017858042           25 
 2807000   0.80378988   -7.5652088    620.62314  0.018424865  0.017851623           16 
 2808000   0.80158884   -7.5637988    622.44722  0.018472437  0.017845238            9 
 2809000    0.8008759   -7.5329599    620.29548  0.018402026  0.017838847            7 
 2810000   0.79997045   -7.5456707    621.14633   0.01842071  0.017832458           19 
 2811000   0.79466958   -7.5650747    620.98648  0.018409418  0.017826071            8 
 2812000   0.81000263   -7.5353257    621.74607  0.018425381  0.017819722           11 
 2813000   0.80890047   -7.5404812    622.04189  0.018427595  0.017813358           13 
 2814000   0.79030173   -7.5595303    620.34143  0.018370689  0.017806999           16 
 2815000   0.80025374   -7.5513984    620.34609  0.018364301  0.017800618            7 
 2816000   0.79890478   -7.5421469    621.83064  0.018401712  0.017794244            6 
 2817000   0.82827526   -7.5543435    620.88123  0.018367094  0.017787875           16 
 2818000   0.80232398   -7.5693693    621.52788  0.018379698  0.017781493           12 
 2819000   0.78570138   -7.5636778    621.79926  0.018381201  0.017775107           12 
 2820000   0.79637508   -7.5498545    620.61646   0.01833973  0.017768743           14 
 2821000   0.79581911   -7.5220961    622.96843  0.018402707  0.017762373           11 
 2822000   0.81038842   -7.5338132    619.55487  0.018295384  0.017756012           13 
 2823000   0.79825191   -7.5645356    620.54742  0.018318202   0.01774967           15 
 2824000   0.80323126   -7.5670401    621.44134  0.018338094  0.017743306           16 
 2825000   0.79203351   -7.5738265    620.32403  0.018298644  0.017736958           26 
 2826000   0.79199193   -7.5509581    621.88553  0.018338214  0.017730612           17 
 2827000   0.81543247   -7.5574082    620.66479  0.018295743  0.017724286           28 
 2828000   0.79853962   -7.5775534    621.90128   0.01832571  0.017717953           20 
 2829000   0.80938928   -7.5752436    619.77553  0.018256614  0.017711608           16 
 2830000   0.80463049   -7.5768109    621.88331  0.018312229  0.017705255           15 
 2831000   0.81126662   -7.5519813     621.2222    0.0182863  0.017698914           14 
 2832000   0.79966405   -7.5684909    621.51986  0.018288602  0.017692585           26 
 2833000   0.80075887   -7.5499254     622.1434  0.018300488  0.017686285           27 
 2834000   0.79386364   -7.5436874    622.27726  0.018297967  0.017679972           16 
 2835000    0.8096348   -7.5674646    621.83991  0.018278657  0.017673684           23 
 2836000   0.80762243   -7.5464203    622.60772  0.018294773  0.017667392           29 
 2837000   0.80221349    -7.584532    622.12117  0.018274033  0.017661079           11 
 2838000   0.80924701   -7.5756947    621.31581  0.018243945   0.01765478           21 
 2839000   0.78181641   -7.5761905    621.90846  0.018254916  0.017648476           12 
 2840000   0.81321321   -7.5898172    622.39356  0.018262722  0.017642145           36 
 2841000   0.78379082   -7.5730353    621.20989  0.018221574  0.017635771           14 
 2842000    0.7978031   -7.5598734    621.34252  0.018219051  0.017629417           29 
 2843000   0.79734283   -7.5364919    623.16817  0.018266156  0.017623097            9 
 2844000   0.80420566   -7.5835938    621.29246  0.018204772  0.017616778           10 
 2845000   0.79954535   -7.6048664    619.52557  0.018146619  0.017610439           34 
 2846000   0.78218439   -7.5926436    620.55621  0.018170421  0.017604091           18 
 2847000   0.80453528    -7.566119    620.08044  0.018150112  0.017597745           16 
 2848000   0.79982196   -7.5681481    621.87013  0.018196106  0.017591429           19 
 2849000   0.80160751   -7.5876895    620.65553  0.018154192  0.017585117           20 
 2850000   0.77478776   -7.6118455    621.75028  0.018179833  0.017578779           17 
 2851000   0.80001472   -7.5875236    621.35005  0.018161758  0.017572434           13 
 2852000   0.78945257   -7.5843709    620.24497    0.0181231   0.01756611           15 
 2853000   0.79012785   -7.5676044    622.08084  0.018170371   0.01755979           10 
 2854000   0.80446159    -7.582854    621.87285  0.018157932  0.017553486           10 
 2855000   0.80282058    -7.571096    621.35981  0.018136597  0.017547162           12 
 2856000    0.7961967    -7.564044    623.21386  0.018184345  0.017540855           13 
 2857000   0.79585009   -7.5666531    622.23357  0.018149387  0.017534556            9 
 2858000   0.79096641   -7.6023596    621.81991  0.018130975   0.01752823           21 
 2859000   0.79750931   -7.5859911    621.97412  0.018129128  0.017521888           23 
 2860000   0.78351667   -7.5689225    622.31696  0.018132779  0.017515568           11 
 2861000    0.7777868   -7.5780916    623.35755   0.01815675  0.017509263           32 
 2862000   0.79691285   -7.5666446    622.49578  0.018125314  0.017502967           29 
 2863000   0.79814749   -7.5669366    621.78625  0.018098331  0.017496685           12 
 2864000   0.79838755   -7.5458728    623.44439  0.018140258  0.017490394           10 
 2865000   0.78842028    -7.609613    620.21223  0.018039913  0.017484094           13 
 2866000    0.7922298   -7.5880072    621.58352  0.018073491  0.017477766           14 
 2867000   0.77647868   -7.6110919     618.6931  0.017983173  0.017471416           52 
 2868000   0.79787783   -7.5695944    621.97744  0.018072334  0.017465061           40 
 2869000   0.79731763   -7.5848496    621.53105  0.018053069  0.017458733           14 
 2870000   0.76389884   -7.5663499    620.63582  0.018020785  0.017452446           34 
 2871000   0.78601028   -7.5311169    622.69575  0.018074299   0.01744616           22 
 2872000   0.78733546   -7.5632369    622.42168  0.018060053  0.017439878           15 
 2873000   0.78303091   -7.5576021    622.34196  0.018051455  0.017433586           14 
 2874000   0.79520684   -7.5899644    621.48811  0.018020416  0.017427289           15 
 2875000   0.78786412   -7.5698656    622.31179  0.018038023  0.017421008           13 
 2876000   0.77921551   -7.5981174    623.00868  0.018051944  0.017414722           12 
 2877000   0.78274018   -7.5936902    620.58777  0.017975546  0.017408398           32 
 2878000   0.80770318   -7.6031284    622.74231  0.018031686   0.01740207            9 
 2879000   0.80037012   -7.5897477    621.67583  0.017994553   0.01739574           13 
 2880000   0.79268376   -7.5801061    620.64172  0.017958383  0.017389434           15 
 2881000   0.78798291   -7.6305071    620.91464  0.017960044  0.017383118           31 
 2882000   0.78834508   -7.6128635    622.27751   0.01799322    0.0173768           31 
 2883000   0.78728088   -7.6049673    620.70652  0.017941569  0.017370489           21 
 2884000   0.79265072   -7.6114719    621.24191  0.017950818  0.017364162           27 
 2885000    0.7882472   -7.5941727    621.03712  0.017938681  0.017357835            8 
 2886000   0.78457232   -7.5983135     621.9666  0.017959304  0.017351512           22 
 2887000   0.82673763   -7.6201407    621.39724  0.017936648  0.017345182           32 
 2888000   0.77433812   -7.6008222    622.20276  0.017953681  0.017338854           27 
 2889000   0.79952878   -7.6087293    621.07135  0.017914831  0.017332532           18 
 2890000   0.78594074   -7.6058325    621.28573  0.017914813  0.017326205           40 
 2891000   0.79663526   -7.6034665    621.98042  0.017928641  0.017319913           38 
 2892000   0.79090785   -7.5965447    622.00289  0.017923089  0.017313641           45 
 2893000    0.7837782    -7.595624    621.55119  0.017903883  0.017307348           43 
 2894000   0.80060972   -7.5830135      622.379  0.017921533  0.017301063           21 
 2895000   0.80260836    -7.587837     620.8678  0.017871842  0.017294773           16 
 2896000    0.7888524    -7.606996    621.73624  0.017890661  0.017288493           10 
 2897000   0.77254986   -7.6159631    621.17093  0.017868224   0.01728221           15 
 2898000   0.78329783   -7.5860594    623.38673  0.017925774  0.017275934           18 
 2899000    0.7915137   -7.6150925    622.21522  0.017885915  0.017269688           15 
 2900000   0.76759834   -7.5916789    621.23199  0.017851494  0.017263414           21 
 2901000   0.78168247   -7.5825854     622.7966  0.017890285  0.017257122           10 
 2902000   0.77857424   -7.6161459    621.62179  0.017850384  0.017250879           19 
 2903000    0.7794577   -7.5899815     622.5996  0.017872304  0.017244624           18 
 2904000   0.77841043   -7.6027589    621.24448  0.017827264  0.017238356            9 
 2905000   0.78497862   -7.6018833    622.32996  0.017852265  0.017232076           12 
 2906000   0.77847333   -7.5933332    621.41935  0.017820009   0.01722579           11 
 2907000     0.764675   -7.6089276    622.67183  0.017849783  0.017219535            6 
 2908000   0.79743363   -7.6050368    622.18594  0.017829721   0.01721327           11 
 2909000    0.7992357   -7.6140788    621.61019  0.017807098  0.017206974           20 
 2910000   0.76688672   -7.5841499    621.82988   0.01780727  0.017200676           49 
 2911000   0.79484899   -7.6225901    621.86809  0.017802247  0.017194376           16 
 2912000    0.7805515    -7.627154    621.76866  0.017793288  0.017188081            7 
 2913000    0.7747712   -7.6191176    621.21469  0.017771332  0.017181756           17 
 2914000   0.79467763   -7.6304234    621.77043  0.017781126  0.017175421           16 
 2915000   0.79907643   -7.6409089    621.95428  0.017780283  0.017169106           13 
 2916000   0.79900003   -7.6352186    621.15518  0.017751348  0.017162807            9 
 2917000   0.78694562   -7.6033893    623.20346  0.017803778  0.017156529           22 
 2918000   0.78504206   -7.6340843    620.23612  0.017712935   0.01715026           15 
 2919000   0.77316742   -7.6220406     620.8656  0.017724837   0.01714398           32 
 2920000   0.77053889   -7.6358997    621.53321   0.01773782  0.017137688           22 
 2921000     0.789346   -7.5971573     620.8216  0.017711446  0.017131407           25 
 2922000   0.77571228   -7.6613093    620.40759  0.017693577  0.017125091           31 
 2923000   0.78507531   -7.6806475    620.28373  0.017683993  0.017118768           25 
 2924000   0.77537125   -7.6621152    621.34506  0.017708193  0.017112454           17 
 2925000   0.80661455   -7.6402714    622.43257  0.017733122  0.017106146           36 
 2926000    0.7784556   -7.6259498    622.42184  0.017726756  0.017099844           22 
 2927000   0.77033753   -7.6243186    621.74039  0.017701298  0.017093567           18 
 2928000   0.77357729   -7.5993537    621.55825  0.017690068  0.017087314           15 
 2929000   0.80947266   -7.6048244    623.31195  0.017733924  0.017081067           23 
 2930000   0.77582333   -7.6062232    622.21848  0.017696771  0.017074865           24 
 2931000   0.78082371   -7.5926421    623.96669  0.017740438  0.017068643           15 
 2932000   0.76688293    -7.613938    622.33605  0.017688041  0.017062444           11 
 2933000   0.77590161    -7.635682    621.45535  0.017656988  0.017056221           11 
 2934000   0.79510195    -7.630923     621.9338  0.017664559  0.017049975            8 
 2935000   0.78356899    -7.628694    622.60785  0.017677679  0.017043734           13 
 2936000   0.79157027   -7.6548023     622.6403  0.017672579  0.017037472           18 
 2937000   0.78638274   -7.6153091    623.08607   0.01767921  0.017031235           11 
 2938000   0.76252236   -7.6223078     622.9842  0.017670303  0.017024999           40 
 2939000   0.77246055   -7.6149226    622.67575  0.017655545  0.017018792           13 
 2940000   0.76631969   -7.6137326     622.3201  0.017639459  0.017012568           25 
 2941000   0.79663474    -7.619312    622.34796   0.01763425  0.017006337           24 
 2942000   0.77629644   -7.6227434     622.3373  0.017627954  0.017000101           26 
 2943000   0.77948415   -7.6222249    620.70441  0.017575728  0.016993876           37 
 2944000   0.76645385    -7.592118    622.44028  0.017618894  0.016987683           39 
 2945000   0.77741278   -7.6236903    621.85778  0.017596428  0.016981465           20 
 2946000   0.77124918   -7.6225095    621.89863  0.017591611  0.016975257           16 
 2947000   0.76401004   -7.6096748    623.31234  0.017625618  0.016969058           36 
 2948000   0.77444281   -7.6038797    622.43304  0.017594783  0.016962844           28 
 2949000   0.76233898   -7.6108645    623.72557  0.017625341   0.01695667           26 
 2950000      0.77496    -7.588222    622.92812  0.017596839  0.016950513           16 
 2951000   0.76922096   -7.6089958    623.69847   0.01761263  0.016944352           12 
 2952000   0.77745083   -7.6156892    623.13776  0.017590836  0.016938195           20 
 2953000   0.78471888   -7.5939418    622.90875  0.017578416  0.016932045           17 
 2954000   0.77163213   -7.6020043    622.71422  0.017566977  0.016925901           13 
 2955000   0.77150115    -7.609754    622.68565  0.017560227  0.016919728           20 
 2956000   0.78524873   -7.6300446    622.73006  0.017555538  0.016913542           16 
 2957000   0.78982152   -7.6261868     622.2412  0.017535824  0.016907351           14 
 2958000   0.79208994   -7.6417868    622.40586  0.017534535  0.016901162           19 
 2959000   0.78910047   -7.6476141    622.15112  0.017521435     0.016895           19 
 2960000   0.76450001   -7.6422978    624.02802  0.017568357  0.016888832            9 
 2961000   0.77030201   -7.6211795    623.07315   0.01753555  0.016882652           19 
 2962000   0.77619016   -7.6532219    621.33871  0.017480832  0.016876484           12 
 2963000   0.76413693   -7.6354244    623.95396  0.017548486  0.016870328           15 
 2964000   0.78385985   -7.6315006    623.47713  0.017529159  0.016864182           13 
 2965000   0.77819863   -7.6513462    623.82993  0.017533163  0.016858052            8 
 2966000   0.78068029   -7.6618472    621.31859  0.017456692   0.01685193           27 
 2967000   0.78047432   -7.6353843    622.34133  0.017479534  0.016845785           21 
 2968000   0.78158072   -7.6192271    624.12368  0.017523688  0.016839647           10 
 2969000   0.78470661   -7.6284538    624.57775  0.017530531  0.016833522           11 
 2970000   0.78124744   -7.6455767    624.21854  0.017514549  0.016827386           11 
 2971000   0.77251209   -7.6324509    622.98395  0.017474025  0.016821263           14 
 2972000   0.78541176    -7.653486    623.22208  0.017474823  0.016815129           26 
 2973000   0.78137166   -7.6458596    622.68774  0.017453967  0.016808979           20 
 2974000    0.7819153   -7.6298514    624.67566  0.017503801  0.016802847           14 
 2975000   0.78951057   -7.6199217    622.87534  0.017447488  0.016796721           23 
 2976000   0.78662763   -7.6328537    623.49733  0.017459043  0.016790613           19 
 2977000    0.7726381   -7.6589575    623.88952  0.017464156  0.016784502           19 
 2978000   0.77007047   -7.6594747      622.178  0.017410399  0.016778368           24 
 2979000   0.78692055   -7.6353761    624.35675  0.017465501  0.016772246           23 
 2980000   0.76490707   -7.6424512    623.21382  0.017427679  0.016766101           19 
 2981000   0.79613795   -7.6441969    623.70426  0.017435544  0.016759968           13 
 2982000   0.77142294   -7.6621601    622.36074  0.017392151  0.016753849           18 
 2983000   0.77584919   -7.6661411     621.8211  0.017371245  0.016747734           21 
 2984000   0.77815132   -7.6406539    623.40136  0.017409555  0.016741615           11 
 2985000   0.76845915   -7.6441175    622.92925  0.017390543   0.01673553           19 
 2986000   0.78241711   -7.6662903    622.83519  0.017382094  0.016729411           26 
 2987000   0.77796797   -7.6619336    622.85111  0.017376719  0.016723298           51 
 2988000   0.78171111   -7.6579396    624.83409  0.017426207  0.016717192           33 
 2989000   0.77566534   -7.6459455     623.4999   0.01738318  0.016711083           28 
 2990000   0.76669562   -7.6691272    623.99767  0.017391239  0.016704986           29 
 2991000    0.7703358   -7.6266582    624.41925  0.017397171  0.016698901           14 
 2992000   0.78448864   -7.6562557     624.2241  0.017385921  0.016692817           21 
 2993000   0.77801208   -7.6525345    623.37303  0.017356416  0.016686744           20 
 2994000   0.77377189   -7.6515623    624.31922  0.017376955  0.016680689           37 
 2995000   0.77439483   -7.6384435    624.66819  0.017380862  0.016674583           12 
 2996000   0.78779473   -7.6601461    624.83912  0.017379815  0.016668497           23 
 2997000   0.77343094   -7.6383189    623.83321  0.017346046  0.016662394           19 
 2998000   0.76948506   -7.6608944    624.06795  0.017346785  0.016656294           32 
 2999000   0.78380869   -7.6470199    623.45519  0.017323974  0.016650225           24 
 3000000   0.77027696   -7.6563615    624.38742  0.017344095  0.016644127           32 
 3001000   0.76261944   -7.6796021    622.93483  0.017297979  0.016638022           43 
 3002000   0.76077623   -7.6752853    623.36579   0.01730418  0.016631916           35 
 3003000   0.76740303   -7.6695999    622.59606  0.017277058   0.01662581           41 
 3004000   0.76389931    -7.655471    624.27607  0.017317911  0.016619733           30 
 3005000   0.78130346   -7.6800719    622.44179  0.017261281  0.016613627           30 
 3006000   0.77783417   -7.7074747    621.82144  0.017238341  0.016607491           42 
 3007000   0.78395871   -7.6734633    623.94087  0.017291344  0.016601376           19 
 3008000    0.7850908   -7.6695566    625.60419  0.017331676  0.016595258           44 
 3009000   0.75186483   -7.6781952    622.19302  0.017231445  0.016589155           27 
 3010000   0.78821668   -7.6827151    623.79927   0.01727019  0.016583026           32 
 3011000   0.76723221   -7.7059996    621.96574  0.017213709  0.016576909           51 
 3012000   0.75582576   -7.6816643    623.78898  0.017258438  0.016570798           54 
 3013000   0.78641061   -7.6841831    623.29659  0.017239092  0.016564729           34 
 3014000   0.79255172   -7.6818819    624.46442  0.017265661  0.016558651           29 
 3015000   0.77159656   -7.6750125    622.77121  0.017213135  0.016552588           46 
 3016000   0.77049379   -7.6922955    624.07922  0.017243568  0.016546509           21 
 3017000   0.77634761   -7.6923064    622.93856  0.017206346   0.01654041           18 
 3018000   0.78390736   -7.6867211    623.78405  0.017223991  0.016534301           27 
 3019000   0.77222244   -7.7172152    623.44369  0.017208891  0.016528213           23 
 3020000   0.76064314    -7.689952    622.33587  0.017172623  0.016522123           28 
 3021000   0.77411111   -7.6904386    622.44384  0.017169917  0.016516057           24 
 3022000   0.78271682   -7.6890318    624.63888  0.017224765  0.016509961           18 
 3023000   0.75641291   -7.7044849    622.35126  0.017156006  0.016503874           15 
 3024000   0.76478827   -7.6969167    623.28044  0.017175938  0.016497785           21 
 3025000    0.7601409   -7.6874047    624.28937  0.017198054  0.016491704           73 
 3026000   0.75440598   -7.7025582    622.32173  0.017138184  0.016485635           32 
 3027000   0.75522434   -7.6704574    624.72459  0.017198673  0.016479587           19 
 3028000   0.77525925   -7.6865251    624.62886  0.017190358   0.01647354           26 
 3029000   0.77285519   -7.7080919    625.45637  0.017207449    0.0164675           34 
 3030000   0.76545253    -7.707927    623.72092  0.017154041  0.016461481           18 
 3031000   0.76944706   -7.6998671    623.65566  0.017146587  0.016455453           14 
 3032000   0.78178742   -7.6610703    625.15252  0.017182072  0.016449425           22 
 3033000   0.77422854   -7.6795573    623.20521  0.017122904   0.01644341           12 
 3034000    0.7804619    -7.667759    624.62733  0.017156321  0.016437408           28 
 3035000    0.7533651   -7.7026969    623.65519  0.017123976  0.016431389           34 
 3036000    0.7764901   -7.6981862    623.33303  0.017109492  0.016425363           17 
 3037000   0.78002419    -7.695659    623.65801  0.017112776  0.016419333           36 
 3038000   0.76049476   -7.7120829    622.49751   0.01707531  0.016413301           20 
 3039000   0.76335373   -7.6823012     625.2807   0.01714601  0.016407282           12 
 3040000   0.76505542   -7.6655957    624.29956  0.017113475   0.01640129           21 
 3041000   0.76909022   -7.6470036    623.87855   0.01709631  0.016395277            9 
 3042000   0.75669318   -7.6945407    625.08547  0.017123753  0.016389263           31 
 3043000   0.75870628   -7.7083199    623.43371  0.017072892  0.016383264           16 
 3044000   0.77097374    -7.706841    624.29128   0.01709076  0.016377261           18 
 3045000   0.75127836   -7.7003104    624.23582  0.017083629  0.016371231           23 
 3046000   0.77295913    -7.716676    623.20278  0.017049759  0.016365224           13 
 3047000   0.76517826    -7.682848    623.56374  0.017054035  0.016359229           19 
 3048000    0.7674694   -7.6982586    624.38842  0.017070987  0.016353218           30 
 3049000   0.75974659   -7.6654706    625.14869  0.017086167  0.016347213           11 
 3050000   0.77343884   -7.7385029    623.69182   0.01704076  0.016341213           16 
 3051000   0.76630714   -7.6944546    624.69874  0.017062677  0.016335193           14 
 3052000   0.75892577   -7.6886824    625.28575  0.017073115  0.016329157           30 
 3053000   0.77511059    -7.696929    622.75649  0.016998485   0.01632316           35 
 3054000   0.77090589   -7.7051868    622.64914   0.01698999  0.016317142           22 
 3055000   0.75111223   -7.6887309    625.24255  0.017055171  0.016311139           11 
 3056000   0.75729264   -7.7042756    624.36474  0.017025653  0.016305132           10 
 3057000   0.75112917   -7.7405233    622.28846  0.016963484  0.016299097           14 
 3058000   0.76562245    -7.715871    626.10204  0.017061861  0.016293091           16 
 3059000   0.77661322   -7.6761886    624.84898  0.017022147  0.016287103           55 
 3060000   0.75565506   -7.7137266    624.32494  0.017002313  0.016281132           22 
 3061000   0.76777879   -7.7057581    624.18904  0.016993059  0.016275174           23 
 3062000   0.75767884    -7.670654    626.38428  0.017047253  0.016269238           25 
 3063000   0.76038453   -7.6870797    624.29969  0.016984974  0.016263292           13 
 3064000   0.76250418   -7.7221776    626.29741  0.017033763  0.016257368           29 
 3065000   0.76222388   -7.6777531    625.92744  0.017018147  0.016251439           27 
 3066000   0.76690086   -7.7025504    625.06916  0.016989268  0.016245524           12 
 3067000   0.75442005   -7.6998125    624.79805  0.016976363  0.016239595           29 
 3068000   0.75695282   -7.6775938    625.53199  0.016990765  0.016233668           38 
 3069000   0.76777254   -7.6993276    625.70982  0.016990057  0.016227734           12 
 3070000   0.76242244   -7.6942985    624.42097  0.016949538  0.016221772           11 
 3071000   0.75552888   -7.7267489    624.51084  0.016946457  0.016215791           23 
 3072000   0.77000605   -7.7303765    623.63726  0.016917243   0.01620979           29 
 3073000   0.75278816   -7.7482224    623.92476  0.016919535  0.016203808           32 
 3074000   0.76488832   -7.7362265    623.26036  0.016896019   0.01619782           42 
 3075000   0.75694285   -7.7089177     625.1201  0.016940924   0.01619185           32 
 3076000   0.76889179   -7.7265663    622.30267  0.016859088  0.016185858           47 
 3077000   0.76772488   -7.7363913    624.33396  0.016908622  0.016179886           58 
 3078000   0.76518738   -7.7224457    625.35522  0.016930778  0.016173915           41 
 3079000   0.75370977   -7.7064109     623.6012  0.016877807  0.016167923           43 
 3080000   0.75358213     -7.69126    626.53745  0.016951771  0.016161921           39 
 3081000   0.75980447   -7.7139769    624.13629  0.016881324  0.016155943           32 
 3082000   0.76977263   -7.7209979    623.58391   0.01686091  0.016149973           16 
 3083000    0.7548958   -7.7329542    623.78993   0.01686101   0.01614402           27 
 3084000   0.73938817   -7.7051826    624.89408  0.016885378  0.016138068           60 
 3085000   0.74626639   -7.7534205    623.96512  0.016854811  0.016132113           61 
 3086000   0.74919111   -7.7255549    624.23358  0.016856599  0.016126141           35 
 3087000   0.74157149   -7.7175556    623.98179  0.016844342  0.016120181           26 
 3088000   0.75520419   -7.6894469    625.65471  0.016884032  0.016114239           25 
 3089000    0.7664341   -7.6971659     624.4381  0.016845746  0.016108313           12 
 3090000   0.76598665   -7.6773175    625.45924  0.016867833  0.016102396           25 
 3091000   0.75867473   -7.7246579    625.88682  0.016873903   0.01609648           27 
 3092000   0.77142909   -7.7231086    624.36363  0.016827394  0.016090533           21 
 3093000   0.76033273   -7.6949832    626.23148  0.016872278  0.016084607           42 
 3094000   0.74416387   -7.7216796    625.07225  0.016835603  0.016078681           28 
 3095000   0.74041364   -7.7214919    625.17417  0.016832907   0.01607273           33 
 3096000   0.75897939   -7.7365885    624.20935    0.0168015  0.016066811           32 
 3097000   0.73926555   -7.7306159    624.20858  0.016796055  0.016060878           65 
 3098000    0.7577311   -7.7207025    624.66996  0.016803044  0.016054922           25 
 3099000   0.76509802   -7.7441705    624.59945  0.016795726   0.01604899           11 
 3100000   0.74342793     -7.74561    624.35988  0.016783868  0.016043033           13 
 3101000   0.74782026   -7.7530048    625.22401  0.016801677  0.016037101           14 
 3102000    0.7644111   -7.7504231     623.2689  0.016743738  0.016031144           18 
 3103000   0.74729994   -7.7355478    624.74289  0.016777927  0.016025196           30 
 3104000   0.76340695    -7.743101    623.88566  0.016749508  0.016019258           22 
 3105000   0.76766297   -7.7391157     624.8385  0.016769686  0.016013318           27 
 3106000   0.72776005   -7.7377178    623.28705  0.016722662  0.016007392           30 
 3107000   0.74935591    -7.710577    625.49136  0.016776402  0.016001487           21 
 3108000   0.74273692   -7.7255298    622.87159  0.016700761  0.015995582           23 
 3109000   0.76753689   -7.6972575    624.79113  0.016746841  0.015989682           20 
 3110000   0.75333416   -7.7431655    623.97153  0.016719494   0.01598381           33 
 3111000   0.74289265   -7.7430993    623.79289  0.016709335  0.015977897           21 
 3112000   0.75264313    -7.727561    624.09672  0.016712102  0.015972002           24 
 3113000   0.75702152   -7.7357748    623.82476  0.016699453   0.01596611           11 
 3114000   0.75290258   -7.7235633    624.67751   0.01671691  0.015960203           12 
 3115000   0.76396553   -7.7106677    625.05745  0.016721708  0.015954307           15 
 3116000   0.75331109   -7.7292266    624.09144  0.016690507  0.015948417           35 
 3117000   0.75765961   -7.7463198    625.16553  0.016713868  0.015942501           25 
 3118000   0.75021214   -7.7220049    624.88026  0.016700883  0.015936584           21 
 3119000   0.74986783    -7.723367    624.34973  0.016681354  0.015930697           40 
 3120000   0.73528262   -7.7323743    625.63595  0.016710362  0.015924804           18 
 3121000   0.75768534   -7.7407108     624.2357   0.01666762  0.015918918           11 
 3122000   0.74973352   -7.7163206    624.49047  0.016669082  0.015913008           18 
 3123000   0.74773329   -7.7511842    623.81074  0.016645606    0.0159071           19 
 3124000   0.75764354   -7.7584854    623.11087  0.016621609  0.015901179           17 
 3125000   0.75675663   -7.7635843    624.94463   0.01666519  0.015895266           24 
 3126000   0.74461737     -7.74923    623.26138  0.016614987  0.015889343           21 
 3127000   0.74203577   -7.7385043     623.4148  0.016613762  0.015883431           18 
 3128000   0.75761772   -7.7481505    624.91735   0.01664848  0.015877506           12 
 3129000   0.75938762   -7.7391081    624.19273  0.016623861  0.015871601           24 
 3130000   0.74035676   -7.7569666      624.216  0.016619169  0.015865698           22 
 3131000   0.73706635   -7.7495884    623.20486  0.016586949  0.015859783           32 
 3132000    0.7572493   -7.7616245    622.54339  0.016564054  0.015853892           22 
 3133000   0.74241679   -7.7554969    623.17651  0.016575607  0.015848003           29 
 3134000   0.75445399   -7.7606892    623.63606  0.016582537    0.0158421           12 
 3135000   0.74665464   -7.7469824    625.06605  0.016615259  0.015836212           29 
 3136000   0.76593104    -7.766117    623.46099  0.016567309  0.015830312           20 
 3137000   0.75536885   -7.7649871    624.82811  0.016598345  0.015824437           21 
 3138000   0.74423474   -7.7675848    622.23677   0.01652424  0.015818554           23 
 3139000    0.7434276   -7.7823116    623.78091  0.016559969  0.015812656           29 
 3140000   0.74997869   -7.7461612    623.29623  0.016541832  0.015806766           15 
 3141000   0.75643256   -7.7575888    624.80654  0.016576635  0.015800869           28 
 3142000   0.73156412   -7.7940336    622.66031  0.016514436  0.015794976           42 
 3143000   0.73334458   -7.7457964    623.80689  0.016539582  0.015789072           22 
 3144000   0.73604498   -7.7749411    622.68811  0.016504668  0.015783187           28 
 3145000    0.7571701   -7.7653235    624.75943  0.016554304  0.015777312           28 
 3146000   0.74692457   -7.7599003     623.0816  0.016504598  0.015771419           26 
 3147000   0.74218964   -7.7569457    623.90167  0.016521069  0.015765505           34 
 3148000   0.75545095   -7.7626576    623.86819  0.016514935  0.015759602           25 
 3149000   0.75615269   -7.7938801    623.42614  0.016497993  0.015753704           34 
 3150000   0.76110104   -7.7667147    623.19331  0.016486595  0.015747806           29 
 3151000   0.73964492   -7.7863436    624.27915   0.01651008   0.01574191           23 
 3152000   0.75444467   -7.7669873     623.7939  0.016492013  0.015736029           26 
 3153000    0.7436517   -7.7724575    622.92614  0.016463848   0.01573013           28 
 3154000   0.73925293   -7.7461033    624.40144  0.016497607  0.015724243           42 
 3155000   0.74690514   -7.7904942    623.29152  0.016463062  0.015718337           30 
 3156000   0.74495114   -7.7781945    621.74441  0.016416994  0.015712429           88 
 3157000   0.75705738   -7.7677034    623.46881  0.016457312  0.015706526           46 
 3158000   0.72497997    -7.804447     623.4882  0.016452612  0.015700619           29 
 3159000   0.74592295   -7.7677887    623.99381  0.016460742  0.015694746           35 
 3160000   0.75334615   -7.7409889    624.93116  0.016480252  0.015688877           12 
 3161000   0.75852233   -7.7515994    622.90018  0.016421496  0.015683021           27 
 3162000   0.74982749   -7.7515758    624.80826  0.016466589  0.015677158           21 
 3163000   0.74829388   -7.7692711    623.59395  0.016429391  0.015671288           47 
 3164000    0.7386812   -7.7646535    623.61266  0.016424691  0.015665422           46 
 3165000   0.73419104   -7.7861275    623.56302  0.016418194  0.015659551           30 
 3166000   0.74348499   -7.7530577    622.66776  0.016389444  0.015653669           25 
 3167000   0.75687356    -7.749576    622.77242  0.016387023   0.01564781           35 
 3168000   0.72214977    -7.747723    621.94077  0.016359974   0.01564195           25 
 3169000   0.75493626   -7.7487221    623.95023  0.016407653  0.015636104           27 
 3170000   0.73804777   -7.7636912    623.42769  0.016388741  0.015630244           40 
 3171000   0.75954989   -7.7581111    622.83724  0.016368055  0.015624396           18 
 3172000    0.7255522   -7.7583583    624.03748  0.016394427  0.015618538           27 
 3173000   0.73247561   -7.7546361     624.0517  0.016389634  0.015612699           17 
 3174000   0.75796285    -7.759948    624.64389  0.016400018  0.015606839           31 
 3175000   0.74685411   -7.7208801    623.91378   0.01637569  0.015601008           18 
 3176000   0.73610082   -7.7469608    624.70276  0.016391235  0.015595173           47 
 3177000   0.73393651   -7.7718928    622.04555  0.016316377  0.015589323           25 
 3178000   0.72631917   -7.7690616    623.63278  0.016352863  0.015583441           38 
 3179000   0.75027675   -7.7658287    622.95311  0.016329902  0.015577587           21 
 3180000   0.73889974   -7.7862347    622.63904  0.016316537  0.015571724           61 
 3181000     0.731478   -7.7528055    623.57572  0.016335946  0.015565862           70 
 3182000    0.7511393   -7.7794149    624.44595  0.016353602  0.015560017           19 
 3183000   0.72769056   -7.7543081    623.18034   0.01631533  0.015554178           21 
 3184000   0.72642335   -7.7754318    621.40592  0.016263765  0.015548325           22 
 3185000   0.73688438   -7.7445633    624.29447  0.016334235  0.015542484           21 
 3186000    0.7289781   -7.7498339    623.75707  0.016315052  0.015536643           16 
 3187000   0.73160946   -7.7577711    624.75643  0.016336064  0.015530806           32 
 3188000   0.74872959   -7.7859872    622.81386  0.016280162  0.015524962           42 
 3189000   0.74415455   -7.7725888    622.34003  0.016262674  0.015519122           32 
 3190000   0.74605247   -7.7975128    622.54658  0.016262972  0.015513279           54 
 3191000   0.74592818   -7.7736938    623.37044  0.016279391  0.015507452           28 
 3192000   0.73668127   -7.7851645    623.73835  0.016283896  0.015501654           24 
 3193000   0.74573924   -7.7762984    623.94086  0.016284081  0.015495826           16 
 3194000    0.7531083   -7.7777584    622.99488  0.016254302  0.015489991           27 
 3195000   0.74390023   -7.7800241    622.65159  0.016240261  0.015484145           19 
 3196000   0.75860158    -7.780389    623.07595  0.016246244  0.015478306           33 
 3197000   0.72072362   -7.7574916    623.85657   0.01626151  0.015472478           37 
 3198000   0.75032778   -7.7926916    622.88674  0.016231153  0.015466636           29 
 3199000   0.74527713   -7.7744391    622.61153   0.01621891  0.015460823           25 
 3200000   0.74162954   -7.7609382    623.20017  0.016229171  0.015454998           28 
 3201000   0.74817939   -7.7666128    623.18021  0.016223581  0.015449169           48 
 3202000   0.73807337   -7.7902707    622.89228  0.016211021  0.015443321           48 
 3203000   0.74573696   -7.7752186    623.17584  0.016213338  0.015437496           45 
 3204000   0.74196457   -7.7762814    624.05838  0.016231231   0.01543168           27 
 3205000    0.7362871   -7.7590889    623.47447  0.016210985  0.015425872           43 
 3206000   0.73304373   -7.7836827    623.86999  0.016216209  0.015420063           27 
 3207000     0.743156   -7.7930034    622.26942  0.016169562   0.01541426           62 
 3208000   0.73024315   -7.8113252    622.42914  0.016168671  0.015408443           29 
 3209000   0.74100788   -7.7791023    622.91696    0.0161763  0.015402635           32 
 3210000    0.7527048   -7.7852192    623.76679  0.016193323  0.015396834           40 
 3211000   0.74101756   -7.7729097    622.93125  0.016166595  0.015391057           21 
 3212000   0.71888969   -7.8100847    622.54571  0.016151559  0.015385269           41 
 3213000   0.73785846   -7.7872028    622.30252  0.016140225  0.015379474           29 
 3214000   0.74783071   -7.8070124    622.82705  0.016148803  0.015373687           28 
 3215000   0.74577142   -7.7959967    622.22297  0.016128123  0.015367879           38 
 3216000   0.72845746   -7.8007367    624.30536  0.016177067  0.015362098           43 
 3217000    0.7536217   -7.7877872    622.61688    0.0161283  0.015356298           42 
 3218000   0.73075613   -7.8017786    624.25438  0.016165693  0.015350499           55 
 3219000   0.73551264   -7.8224184    621.79164  0.016096915  0.015344684           87 
 3220000    0.7414402   -7.7964584    623.79934  0.016143875  0.015338887           76 
 3221000   0.73324294   -7.7832331    622.78454  0.016112608  0.015333108           76 
 3222000   0.72977654   -7.7973289    621.76578  0.016081259  0.015327324           56 
 3223000   0.72461365   -7.7870805    624.04465  0.016135191  0.015321539           60 
 3224000   0.74757642   -7.7956251     623.2536  0.016109739  0.015315752           70 
 3225000   0.73790208   -7.7969872    624.24505  0.016130363  0.015309975           62 
 3226000   0.72747714   -7.7789654     625.0899  0.016147187  0.015304186           90 
 3227000   0.72685404   -7.8160855    622.45737  0.016074201  0.015298403           95 
 3228000   0.73389077   -7.7982696     622.7839  0.016077651  0.015292633           84 
 3229000   0.72562518    -7.769187    623.83186  0.016099718  0.015286888          119 
 3230000   0.73686873   -7.8081735    624.40273  0.016109462  0.015281115           66 
 3231000   0.72672527   -7.7980869    623.50098  0.016081218  0.015275349           82 
 3232000   0.72821889   -7.8170057    622.33058  0.016046065  0.015269573           64 
 3233000   0.73757494   -7.7812596    621.92617  0.016030678  0.015263781           84 
 3234000   0.74233496   -7.8161795     621.7066  0.016020063   0.01525801          102 
 3235000   0.72489822   -7.7994968    622.26282  0.016029439  0.015252243           81 
 3236000   0.74050761   -7.7812727    623.86402  0.016065719  0.015246486           82 
 3237000   0.73200296   -7.8130217    622.88469  0.016035545   0.01524072           76 
 3238000   0.73390402   -7.8296252    623.31612  0.016041696  0.015234955           49 
 3239000   0.72844192   -7.8004006    623.59289  0.016043864   0.01522921          100 
 3240000   0.72973609    -7.808698     623.4037  0.016034046  0.015223475          108 
 3241000   0.73110272    -7.804379    622.86744   0.01601531  0.015217745           70 
 3242000   0.73552896   -7.7765069    624.20906  0.016044856  0.015212021          133 
 3243000   0.74650603   -7.7588942    623.80966  0.016029645    0.0152063           95 
 3244000   0.73097821     -7.79173    623.76791  0.016023631  0.015200582           57 
 3245000   0.74125263   -7.7823361    623.54944  0.016013083  0.015194853           63 
 3246000   0.73111977    -7.798237    623.19108  0.015998949  0.015189109           80 
 3247000   0.74620612    -7.777712    625.76868  0.016060176  0.015183371           53 
 3248000    0.7224412   -7.7931591    622.60541  0.015974071  0.015177643           59 
 3249000   0.73158021    -7.787824    623.18699  0.015984072  0.015171918           56 
 3250000   0.71652294   -7.7841708    623.21299   0.01597982  0.015166195           67 
 3251000   0.73225766   -7.8190015    623.28997  0.015976878   0.01516045           76 
 3252000   0.71701587   -7.7874374    622.67335  0.015956164  0.015154716           87 
 3253000   0.70808119   -7.8077247    623.89658  0.015982595  0.015148996           58 
 3254000   0.72990993   -7.7910744    623.33295  0.015963249  0.015143289           72 
 3255000   0.72318575   -7.8231663    624.13333  0.015978836  0.015137579           86 
 3256000   0.72159401   -7.8044999    622.77177  0.015939081  0.015131861           73 
 3257000   0.72728809   -7.8130937    621.94113  0.015912934  0.015126142           69 
 3258000   0.73635776   -7.8109411    623.66984  0.015952267  0.015120422           75 
 3259000   0.73170604   -7.8033578    623.69645  0.015948053  0.015114704           52 
 3260000   0.73170907   -7.8068862    621.17959  0.015878824  0.015108992           61 
 3261000   0.72969595   -7.8045036    622.63128  0.015911052  0.015103278           65 
 3262000   0.72246315   -7.8220474    622.43461   0.01590115  0.015097577           82 
 3263000   0.73805889   -7.8332423    623.83268  0.015931982  0.015091851           79 
 3264000   0.71620563   -7.8562662    622.51436  0.015893443  0.015086117           81 
 3265000   0.72599743   -7.8268636    622.32645  0.015883779  0.015080382           51 
 3266000      0.72253   -7.7937173    623.59577  0.015911303  0.015074679           99 
 3267000    0.7210329   -7.8251327    621.88161  0.015862708  0.015068944           82 
 3268000   0.73865726   -7.8179681    621.88847  0.015858029  0.015063224           59 
 3269000   0.73685063   -7.8432067    621.54711  0.015844476  0.015057491          153 
 3270000   0.72793489   -7.8218229    622.49089  0.015863682  0.015051767           90 
 3271000   0.73905471   -7.8551828    622.89789  0.015869201  0.015046036           76 
 3272000   0.71942002   -7.8230834    622.54131   0.01585527  0.015040293           65 
 3273000   0.74151884   -7.8277133     621.9991   0.01583662  0.015034573          103 
 3274000   0.71480399   -7.8381864    623.17133   0.01586162  0.015028845           66 
 3275000   0.73204033   -7.8541564    622.45746  0.015838612   0.01502313           93 
 3276000   0.71836406   -7.7993742    622.70162  0.015839988  0.015017423          156 
 3277000   0.74176701   -7.8085951    621.07457  0.015793779  0.015011737          120 
 3278000   0.72531321    -7.826711    621.89095  0.015809715  0.015006042          231 
 3279000   0.73710635   -7.8600703    622.07971  0.015809691  0.015000334          115 
 3280000   0.73771264   -7.8420311    621.69165  0.015795011  0.014994619          170 
 3281000    0.7214099   -7.8584815    622.70039  0.015815818  0.014988919          121 
 3282000    0.7291794   -7.8414892    622.24525  0.015799443  0.014983216          142 
 3283000   0.72630843   -7.8420638    623.43422   0.01582481  0.014977509          111 
 3284000   0.72921716    -7.840326     623.0769  0.015810924  0.014971827          106 
 3285000   0.71346468   -7.8652503    622.46738  0.015790649  0.014966128          105 
 3286000   0.72546606   -7.8624692    622.31769  0.015782047  0.014960426          139 
 3287000   0.72766887   -7.8480266    620.74883  0.015737472  0.014954739           83 
 3288000   0.73353445   -7.8496595    621.59127  0.015754037  0.014949042          120 
 3289000   0.73348749   -7.8397914    622.83013  0.015780636  0.014943345           97 
 3290000   0.72520758   -7.8581518    621.45053  0.015740895  0.014937654          136 
 3291000   0.72610432   -7.8548243    622.02843  0.015750745  0.014931958          136 
 3292000   0.73540092   -7.8377994    623.23571  0.015776522  0.014926277          155 
 3293000   0.73304243    -7.862326    622.42699  0.015751265  0.014920596          182 
 3294000   0.73089958   -7.8474816    622.46086   0.01574734  0.014914899          102 
 3295000   0.71248655   -7.8633755    621.18879  0.015710389  0.014909212           95 
 3296000   0.73542961   -7.8556002    622.41551  0.015736638  0.014903531          143 
 3297000   0.72227136   -7.8604768    622.60144  0.015736565  0.014897853          123 
 3298000   0.71977976   -7.9007221    621.12704  0.015694538  0.014892155           85 
 3299000   0.72076918   -7.8746267    620.49758   0.01567388  0.014886458          110 
 3300000   0.73292267   -7.9021782    622.07315  0.015708918  0.014880759           99 
 3301000   0.73417741   -7.8450122    623.04125  0.015728599  0.014875074           81 
 3302000   0.72751563   -7.8606156    622.17424  0.015701954  0.014869403           93 
 3303000   0.72802992   -7.8674641     621.9246  0.015690902  0.014863729          109 
 3304000   0.71766517   -7.8448071    623.07519  0.015715173  0.014858063          138 
 3305000   0.73626094   -7.8496627    622.26889  0.015690088  0.014852409          110 
 3306000   0.72250881   -7.8539383    621.69985  0.015670998  0.014846753          127 
 3307000   0.71542494   -7.8690136    621.39421  0.015658558  0.014841087          156 
 3308000    0.7402337   -7.8645961    622.73751  0.015687664  0.014835418           99 
 3309000   0.73956089   -7.8771486    621.75244  0.015658115  0.014829745          111 
 3310000   0.72725362   -7.8679608    622.12428  0.015662746  0.014824072          108 
 3311000    0.7341098   -7.8436426    621.63976  0.015645821  0.014818403          141 
 3312000   0.71604175   -7.8833918    620.65711  0.015616373  0.014812736          106 
 3313000   0.72757008   -7.8462191     622.8319  0.015666362  0.014807054          121 
 3314000   0.70249078   -7.8708685    622.25841  0.015647214  0.014801389          161 
 3315000   0.70273017   -7.8554766    621.10799  0.015613574  0.014795718          135 
 3316000   0.74262469   -7.8556629    622.10455   0.01563391  0.014790061          159 
 3317000   0.70224635   -7.8833929    620.81866  0.015596891  0.014784392          129 
 3318000   0.72607451   -7.8560464    623.22624  0.015652658  0.014778735          205 
 3319000    0.7054523   -7.8977262    620.71627  0.015584922  0.014773075          332 
 3320000   0.70739609   -7.8606348    620.54723  0.015575985  0.014767425          165 
 3321000   0.70848267   -7.8545325    621.86928  0.015604468  0.014761774          163 
 3322000   0.71866071   -7.8516076    622.00205  0.015603102  0.014756141          152 
 3323000   0.72726664   -7.8791467    622.90191  0.015620973  0.014750513          136 
 3324000   0.72012183   -7.8674863    623.45101  0.015630039   0.01474489          123 
 3325000   0.70704508   -7.8500028    621.99007  0.015588723  0.014739262           97 
 3326000   0.71468392   -7.8538464    623.14306  0.015612925  0.014733612          112 
 3327000   0.71146431   -7.8412664    622.77359  0.015598978  0.014727972          132 
 3328000   0.72049609   -7.8618174    621.31278  0.015557712  0.014722336          139 
 3329000   0.72884103   -7.8468853    622.68987  0.015587511  0.014716728          131 
 3330000   0.70355838   -7.8718258    621.67343  0.015557393  0.014711118          124 
 3331000   0.72534957   -7.8619296    621.64053    0.0155519  0.014705511          126 
 3332000   0.71728706   -7.8783037    621.49627  0.015543624  0.014699887          159 
 3333000   0.69679563   -7.8408103    621.80877  0.015546774  0.014694275          147 
 3334000   0.72584706   -7.8684119     621.5107  0.015534661  0.014688646          170 
 3335000   0.71347891   -7.8621214    621.82803  0.015537932   0.01468301          126 
 3336000   0.72533919   -7.8483442    621.97754  0.015537009  0.014677401          159 
 3337000   0.70553252   -7.8806687    620.77785  0.015502394  0.014671782          115 
 3338000   0.72757599   -7.8699142    620.69467  0.015495673  0.014666156          143 
 3339000   0.72041748   -7.8605595    621.61107  0.015513903  0.014660528          125 
 3340000   0.72289271   -7.8920363    621.59769  0.015508924  0.014654893          160 
 3341000   0.70733491   -7.8962308     622.2662  0.015520957  0.014649272          206 
 3342000   0.71340806   -7.8615699    620.50746  0.015472458  0.014643635          168 
 3343000   0.72044638    -7.856665    620.99416  0.015479962  0.014638007          132 
 3344000   0.71677251   -7.8575058    621.07186  0.015477269  0.014632391          136 
 3345000    0.7175088   -7.8840893    621.49976  0.015483302  0.014626774          198 
 3346000   0.70579279   -7.8696405    620.78071  0.015460767  0.014621164          150 
 3347000   0.70296122   -7.8769925    620.76036  0.015455641  0.014615541          206 
 3348000   0.70623658   -7.8549534    621.84963  0.015478137  0.014609922          137 
 3349000     0.713587   -7.8911819    621.21073  0.015457618  0.014604306          141 
 3350000   0.72816539   -7.8857358    620.48002  0.015434826  0.014598677          254 
 3351000   0.71479891   -7.8903722    620.62861  0.015433916  0.014593064          142 
 3352000    0.7136887   -7.8628227    621.29008  0.015445756  0.014587469          129 
 3353000   0.71892634   -7.8809078    622.25598  0.015465155  0.014581869          216 
 3354000   0.70962547   -7.8800131    621.59868  0.015444213  0.014576261          168 
 3355000   0.71051357   -7.8857393    619.94533  0.015398543  0.014570649          156 
 3356000   0.71512718   -7.8867716     621.2227  0.015425673  0.014565035          212 
 3357000   0.72018076   -7.8667486    621.20514  0.015420642  0.014559448          147 
 3358000   0.72439921   -7.8902453    621.06753  0.015412635  0.014553849          238 
 3359000   0.69312642   -7.8964433    621.03199  0.015407165  0.014548259          168 
 3360000    0.7216971   -7.8915767    621.28979  0.015408973  0.014542673          175 
 3361000    0.7305826   -7.8877053    620.75931  0.015391236  0.014537079          166 
 3362000   0.70326172   -7.8643934    621.32224  0.015400611  0.014531495          118 
 3363000   0.70801976   -7.8706284    623.34556  0.015446168  0.014525919          187 
 3364000   0.69521612   -7.8909077     620.5936  0.015373405  0.014520339          180 
 3365000   0.72458815   -7.9118874    619.84517  0.015350301  0.014514748          183 
 3366000   0.71075314   -7.9024094     620.4481  0.015360668   0.01450916          166 
 3367000   0.71704986   -7.9251365    619.53809  0.015333583  0.014503558          219 
 3368000   0.70860243   -7.8783118      622.531  0.015403083  0.014497971          170 
 3369000   0.70945258   -7.8722594    622.82619  0.015405813  0.014492396          191 
 3370000   0.70072234   -7.9005401    622.08983  0.015383033  0.014486822          185 
 3371000   0.72289184   -7.8802934    621.76884  0.015370534  0.014481253          154 
 3372000   0.70006324   -7.9012035    621.35957  0.015355861  0.014475683          159 
 3373000   0.71185188   -7.9205647    619.37768  0.015302344  0.014470111          159 
 3374000   0.70231661   -7.8960855    620.77355  0.015332285  0.014464537          183 
 3375000   0.70003392   -7.9093815     621.3051  0.015340867  0.014458964          154 
 3376000   0.70647314   -7.8815288    621.38509  0.015338297  0.014453405          132 
 3377000   0.70865189   -7.8576457     621.7566  0.015342923   0.01444787          164 
 3378000   0.70961795   -7.8939226    621.26127  0.015326161  0.014442326          217 
 3379000   0.71063074    -7.893553    622.50421  0.015352279   0.01443677          197 
 3380000   0.70175185   -7.9125201    620.96379  0.015309758  0.014431216          215 
 3381000   0.70527288   -7.9123677     621.0573  0.015307535  0.014425662          179 
 3382000   0.72787007   -7.8974062    620.65265  0.015293038  0.014420113          207 
 3383000   0.72673434   -7.8832253    622.13961  0.015325146  0.014414562          293 
 3384000   0.72071677    -7.896594     621.9391  0.015315679  0.014409017          182 
 3385000   0.68663676   -7.8933535    620.35532  0.015272164  0.014403472          221 
 3386000    0.7133566   -7.8813677    619.94393  0.015257529   0.01439793          215 
 3387000   0.70114133   -7.8864999    621.09061  0.015281237  0.014392386          196 
 3388000   0.71599944   -7.8391927    622.95664  0.015322625   0.01438686          217 
 3389000   0.70834051   -7.8779192    622.37969  0.015303917  0.014381346          318 
 3390000   0.72081757   -7.9016562    621.22266   0.01527096  0.014375823          237 
 3391000   0.72008772   -7.8623103    620.46063   0.01524773  0.014370303          270 
 3392000   0.70266965   -7.8610705    622.42157  0.015291411  0.014364791          228 
 3393000   0.70860174   -7.8756676    622.78649  0.015295866  0.014359267          225 
 3394000   0.71251679   -7.8824075    620.41059  0.015233024   0.01435375          263 
 3395000   0.69732769   -7.8889113    621.02677  0.015243662  0.014348226          214 
 3396000   0.70478185    -7.906349    619.94283  0.015212574  0.014342707          229 
 3397000   0.72392465   -7.9159255    621.01585  0.015234419  0.014337173          222 
 3398000   0.69656359   -7.9023467    621.11394  0.015232341  0.014331639          270 
 3399000    0.7075033   -7.9252057    619.67993  0.015192702  0.014326106          267 
 3400000   0.72489232   -7.9131821     620.0438  0.015197152  0.014320581          244 
 3401000   0.70500024   -7.8706704    621.48619  0.015228026  0.014315079          323 
 3402000   0.72043436   -7.9106017    621.45817  0.015222863  0.014309571          319 
 3403000   0.71300251   -7.8999248    621.61105  0.015222134   0.01430406          234 
 3404000   0.71356854   -7.9151261    620.67753  0.015194808   0.01429856          255 
 3405000   0.69918566   -7.9016222    620.49935  0.015185985  0.014293049          217 
 3406000   0.69599184   -7.9138849    619.81459  0.015164773  0.014287543          224 
 3407000   0.70878627   -7.8973046    620.38584  0.015174294  0.014282031          184 
 3408000   0.70753475   -7.9260252    618.79109  0.015130846  0.014276513          202 
 3409000   0.70691242   -7.9181789    620.02979  0.015156688   0.01427099          251 
 3410000    0.7215961   -7.9323304    620.28835  0.015158562  0.014265461          303 
 3411000   0.70454626   -7.8981338    620.62329  0.015162301  0.014259953          268 
 3412000   0.71073499   -7.9032997     621.5342  0.015180104  0.014254455          296 
 3413000   0.71404683   -7.8893324    620.06386  0.015139756  0.014248947          355 
 3414000   0.71390872   -7.8940547    621.08583  0.015160267  0.014243454          263 
 3415000   0.69677522   -7.9148393    620.02961  0.015130054   0.01423795          245 
 3416000   0.70510267   -7.9080218     620.5038  0.015137193  0.014232445          213 
 3417000    0.6887795   -7.9222398    620.04777  0.015121641  0.014226937          253 
 3418000    0.7193599   -7.9175006    620.76187  0.015134627   0.01422144          198 
 3419000   0.70591994   -7.9313347    619.77633   0.01510618  0.014215928          250 
 3420000   0.70925886   -7.9453595    619.50093  0.015095052  0.014210419          288 
 3421000   0.70605237   -7.9258483     619.9991  0.015102775   0.01420492          400 
 3422000   0.69641491   -7.9023517    619.25021  0.015080124  0.014199427          306 
 3423000   0.70770969   -7.9307092    620.55626  0.015107514  0.014193941          295 
 3424000   0.69793678   -7.9474149    620.05483  0.015090898  0.014188447          421 
 3425000   0.69630688   -7.9325414     619.3851  0.015070197  0.014182955          258 
 3426000   0.67481322   -7.8903763    620.15464  0.015084516  0.014177475          273 
 3427000   0.71376509   -7.9261256    619.96608   0.01507553  0.014171998          315 
 3428000   0.69739624   -7.8974631    622.30185  0.015127913  0.014166522          285 
 3429000   0.70601164   -7.9143147    620.44149   0.01507829  0.014161056          288 
 3430000   0.72106575   -7.9140489     621.3372  0.015095656  0.014155603          326 
 3431000   0.69331772   -7.9044032    620.14783  0.015062368  0.014150146          400 
 3432000   0.70797444   -7.9284148    620.05588  0.015055747  0.014144683          358 
 3433000   0.71233389   -7.9058019    620.81062  0.015069682  0.014139228          371 
 3434000   0.68764021   -7.8973832    622.04885  0.015095342  0.014133781          390 
 3435000   0.70639333   -7.9168773    621.19537  0.015070242  0.014128319          411 
 3436000   0.69560582    -7.924893    620.76872  0.015055508   0.01412286          331 
 3437000   0.69824345   -7.9202018    621.13104  0.015059913  0.014117406          321 
 3438000   0.70177211   -7.9316384    620.54794  0.015041398  0.014111953          392 
 3439000   0.70724588   -7.9292656    620.62932  0.015038997   0.01410651          402 
 3440000   0.70037212   -7.9258665    619.25849  0.015001417  0.014101052          464 
 3441000   0.69948865    -7.915456    620.35125  0.015023522  0.014095596          487 
 3442000   0.68819683   -7.9068084    620.34651  0.015019042  0.014090147          400 
 3443000   0.70974539   -7.9177483    620.64966  0.015022017  0.014084698          283 
 3444000   0.71818667   -7.9278469    619.63678  0.014993147  0.014079247          376 
 3445000   0.69616082   -7.9411934    619.24918  0.014979419  0.014073798          323 
 3446000   0.71186842   -7.9654274    619.58763  0.014983257  0.014068354          392 
 3447000   0.70849713   -7.9207661    620.33872  0.014997068  0.014062918          415 
 3448000   0.70474555   -7.9247573    620.10151  0.014986985   0.01405749          443 
 3449000   0.69046831   -7.9269399    620.90899   0.01500215  0.014052061          325 
 3450000   0.70538311    -7.923301    620.55528  0.014989258  0.014046621          471 
 3451000   0.70018474   -7.9482469    620.10578   0.01497406  0.014041196          390 
 3452000   0.69433643    -7.942904    619.08342  0.014945042  0.014035758          365 
 3453000   0.69613479   -7.9337935    620.45092  0.014973717  0.014030312          494 
 3454000   0.70777656   -7.9380599    619.43215  0.014944802   0.01402487          459 
 3455000   0.71128319   -7.9429874    619.73506  0.014947783  0.014019431          340 
 3456000   0.69265436   -7.9483564    620.45624  0.014960847  0.014013987          439 
 3457000   0.70358219   -7.9182201    619.88315  0.014942704  0.014008553          418 
 3458000   0.69334052   -7.9095863    620.03966  0.014942155  0.014003123          337 
 3459000    0.6989211   -7.9367597    618.58853  0.014902875  0.013997699          409 
 3460000   0.68859117   -7.9003219    621.30723  0.014964047  0.013992284          419 
 3461000   0.70644712   -7.9569863    619.72314  0.014921582  0.013986859          405 
 3462000   0.67588904   -7.9484992    619.62797  0.014914981  0.013981438          466 
 3463000   0.69621495   -7.9666988    618.50154  0.014883568   0.01397601          390 
 3464000   0.69364264   -7.9539059     618.9121  0.014889148  0.013970575          436 
 3465000   0.69598182   -7.9251276     620.1154   0.01491379  0.013965138          330 
 3466000    0.7062143   -7.9747237    618.33532  0.014866689  0.013959715          448 
 3467000   0.70193551   -7.9374432    619.19016  0.014882948  0.013954287          351 
 3468000   0.70068339   -7.9298106    621.01048  0.014922397  0.013948869          409 
 3469000   0.68844951   -7.9413352    620.49451  0.014905701  0.013943447          532 
 3470000     0.707646   -7.9235148    619.72352   0.01488289  0.013938038          509 
 3471000     0.699718   -7.9295301    620.74974   0.01490324  0.013932634          476 
 3472000   0.70118137   -7.9522917    620.63143  0.014896108  0.013927224          493 
 3473000   0.69025012   -7.9397686    619.21855  0.014857917  0.013921807          406 
 3474000   0.68990546   -7.9756117    619.11414  0.014851136  0.013916388          378 
 3475000   0.70358152   -7.9517239    619.95781  0.014867094  0.013910978          483 
 3476000   0.69166868    -7.954032    620.70337  0.014880691   0.01390558          489 
 3477000   0.68824512   -7.9597976    620.24685   0.01486547  0.013900193          467 
 3478000   0.70293388   -7.9404773     619.6059  0.014845838  0.013894811          547 
 3479000   0.70050829   -7.9431281    620.62259  0.014865924  0.013889429          573 
 3480000   0.68881886    -7.960933    618.70281   0.01481568  0.013884036          469 
 3481000   0.69496666   -7.9389117    619.28903  0.014825458  0.013878659          611 
 3482000   0.69323218   -7.9235771    620.31518  0.014845759  0.013873299          400 
 3483000   0.69037011   -7.9268991    621.39133  0.014867244  0.013867917          421 
 3484000   0.68129027    -7.942248    620.37568  0.014838684  0.013862547          410 
 3485000   0.69761999   -7.9528989    619.52091  0.014813986  0.013857167          515 
 3486000   0.68677906   -7.9716541    620.71637  0.014838314  0.013851799          433 
 3487000   0.69577224   -7.9597625    618.89701   0.01479058  0.013846416          499 
 3488000   0.69262162   -7.9580499    617.77466  0.014759525  0.013841044          446 
 3489000   0.69074143   -7.9576976    619.25459  0.014790642  0.013835667          444 
 3490000   0.69615054   -7.9174756    620.87695  0.014825142  0.013830304          483 
 3491000    0.7082106   -7.9626677    619.71993  0.014793276  0.013824951          567 
 3492000   0.68465358   -7.9547131    620.69506   0.01481231  0.013819593          490 
 3493000   0.70697188   -7.9485694    619.49958  0.014779549  0.013814233          461 
 3494000   0.68680254   -7.9606217    620.11467  0.014789989  0.013808882          420 
 3495000   0.69666104   -7.9503403    620.06264  0.014784517  0.013803512          408 
 3496000   0.69029912   -7.9542329    618.66252  0.014746914  0.013798166          541 
 3497000   0.70458603   -7.9782973    620.19481  0.014779211  0.013792815          607 
 3498000   0.68885731   -7.9273599     620.4175  0.014780291  0.013787468          532 
 3499000   0.70559166   -7.9566187    618.99789  0.014742257  0.013782125          487 
 3500000   0.69218256    -7.947906    621.48234  0.014797199   0.01377679          604 
 3501000   0.68978494   -7.9813285    618.67195  0.014726077   0.01377144          575 
 3502000   0.67203912   -7.9425924    620.15171  0.014757084  0.013766087          710 
 3503000   0.69133741   -7.9783121    619.29547  0.014732502  0.013760731          560 
 3504000   0.69019197   -7.9825364    619.60072  0.014735557  0.013755387          570 
 3505000   0.69751021   -7.9787178    619.26276  0.014723318  0.013750047          484 
 3506000    0.6820508   -7.9602395    618.46447  0.014700144  0.013744719          549 
 3507000   0.68989575   -7.9629143    619.62718  0.014723581  0.013739389          558 
 3508000   0.67808342   -7.9740001    618.76782  0.014698969  0.013734063          607 
 3509000   0.68250162   -7.9630942      619.737  0.014717797  0.013728744          425 
 3510000   0.68222278   -7.9470848    619.90306  0.014717547  0.013723424          577 
 3511000    0.6917205   -7.9511682    619.08688  0.014693983  0.013718121          647 
 3512000   0.70353138    -7.969053    619.68192  0.014703918  0.013712801          583 
 3513000   0.69064443   -7.9415735    620.96069  0.014730067  0.013707495          512 
 3514000   0.68986419   -7.9563843    620.58057   0.01471686  0.013702199          601 
 3515000   0.68607667   -7.9473361    620.75215  0.014716741  0.013696886          607 
 3516000   0.69644909   -7.9662163    618.99583  0.014670929  0.013691593          532 
 3517000   0.68539607   -7.9849228    621.62532  0.014729062  0.013686295          545 
 3518000   0.70400741   -7.9715902    618.73076  0.014656309  0.013680999          540 
 3519000   0.66645487   -7.9540416    619.32611  0.014666243  0.013675693          535 
 3520000   0.67930158   -7.9488193    620.26826  0.014684381  0.013670385          477 
 3521000   0.69309394   -7.9704101    618.70638  0.014643245  0.013665079          567 
 3522000   0.68792547   -7.9716524    619.83239  0.014665729  0.013659778          652 
 3523000   0.68886237   -7.9732584    620.26844  0.014671881  0.013654477          568 
 3524000   0.67694639   -7.9566962    619.18645  0.014642131  0.013649161          559 
 3525000   0.68841048    -8.000161    618.65774  0.014625478   0.01364386          591 
 3526000   0.68712859   -7.9661593     618.9646  0.014628583  0.013638559          469 
 3527000   0.68535703   -7.9735943     618.9317  0.014623658  0.013633256          499 
 3528000   0.68080533   -7.9623667    617.93794   0.01459604  0.013627952          545 
 3529000   0.70310692   -7.9999856    617.05602  0.014571078  0.013622656          539 
 3530000   0.69801945   -7.9599224    618.98106  0.014612395  0.013617353          549 
 3531000   0.68282475   -7.9889138     619.0222  0.014609228  0.013612063          635 
 3532000   0.68617903   -7.9652445    618.98128  0.014604126  0.013606765          508 
 3533000   0.68744409   -7.9791398    618.05453  0.014578133  0.013601484          440 
 3534000   0.67449721   -7.9770484    619.13998  0.014599603  0.013596186          510 
 3535000   0.68172139   -8.0084726      617.828  0.014564545  0.013590887          639 
 3536000   0.68008447   -8.0067002    618.66449   0.01458014  0.013585592          542 
 3537000   0.68797822   -7.9939412    617.54129  0.014549555  0.013580305          487 
 3538000   0.69094268   -7.9885999    619.17055  0.014583817  0.013575022          455 
 3539000   0.69079355   -7.9762875    618.77383  0.014570355  0.013569734          528 
 3540000   0.68609642   -7.9887474    618.49634  0.014559707  0.013564453          568 
 3541000   0.68521706   -7.9715226     618.0982  0.014546225  0.013559163          516 
 3542000   0.68771807   -7.9883186    617.27928  0.014522851  0.013553874          572 
 3543000   0.69618644   -7.9985774    618.39457  0.014544985  0.013548595          449 
 3544000   0.67570476   -7.9831791    620.44113  0.014589003  0.013543329          490 
 3545000   0.70235183    -7.990223    618.55686  0.014540594  0.013538058          451 
 3546000    0.6847503   -7.9782112    618.11131  0.014526023  0.013532797          547 
 3547000   0.68630533   -7.9863357    617.69996  0.014512263  0.013527534          465 
 3548000    0.6841461   -7.9933351    619.20683  0.014543565  0.013522279          471 
 3549000   0.68981323   -7.9766073    619.59447  0.014548569  0.013517028          437 
 3550000   0.67577731    -8.010142    619.88606  0.014551316  0.013511766          508 
 3551000   0.68235635   -7.9868498    619.37737   0.01453528  0.013506506          492 
 3552000   0.66819307   -8.0148663    618.03062  0.014499592  0.013501246          494 
 3553000   0.69380251   -7.9965172    618.61155  0.014509137  0.013495989          436 
 3554000     0.689522     -8.00655    618.81107  0.014509732  0.013490723          460 
 3555000   0.69319242   -8.0038362    617.56639  0.014476474  0.013485461          513 
 3556000   0.66484869   -8.0130829    618.36327  0.014491078  0.013480219          461 
 3557000   0.69002865   -8.0414718     617.5223  0.014467301  0.013474963          536 
 3558000   0.67284464   -8.0036911    618.43675  0.014484653  0.013469722          411 
 3559000   0.70033115   -8.0130115    618.00738   0.01447053  0.013464492          538 
 3560000    0.6922947   -7.9697513    618.94867  0.014488499  0.013459251          431 
 3561000   0.67439953   -8.0130411    617.97453  0.014461634  0.013454019          457 
 3562000   0.68433478    -8.010484    618.34017  0.014466128  0.013448782          515 
 3563000   0.67713565   -8.0099489    618.01956  0.014454569  0.013443547          384 
 3564000   0.68518056   -7.9752879    618.94722  0.014472204  0.013438326          425 
 3565000   0.68042186   -7.9999783    618.75677  0.014463692  0.013433106          428 
 3566000   0.68305999   -8.0020874    618.61277  0.014456271  0.013427873          506 
 3567000   0.68640909   -8.0150342     618.3275  0.014445554  0.013422638          560 
 3568000   0.69366267   -8.0248524    616.92134  0.014408664  0.013417409          452 
 3569000   0.67130494   -8.0102551    617.73415  0.014423605  0.013412171          479 
 3570000   0.68163191    -8.008828    616.85594  0.014399065  0.013406936          449 
 3571000   0.67245617   -8.0174788    618.63841  0.014436629  0.013401707          441 
 3572000   0.68137773   -7.9778096    619.11539  0.014443715  0.013396473          497 
 3573000   0.69564959   -7.9958146    618.55023  0.014426491   0.01339124          444 
 3574000   0.68666394   -8.0014449    619.43204  0.014443015  0.013386019          447 
 3575000   0.67717547   -8.0030564    617.23751  0.014387821  0.013380801          479 
 3576000   0.67113438   -8.0045209    619.03026  0.014425575  0.013375599          580 
 3577000   0.67993868   -8.0019381    618.27822  0.014404021  0.013370384          413 
 3578000   0.69160912   -8.0228481     618.7947  0.014412025  0.013365187          524 
 3579000   0.65051816    -8.022383    618.15808  0.014393175  0.013359977          542 
 3580000    0.6860987   -7.9688741    618.69637  0.014401685  0.013354773          532 
 3581000   0.69060074   -8.0123232    618.06451  0.014382959  0.013349572          492 
 3582000   0.66904531   -8.0068309    618.04635  0.014378521  0.013344379          485 
 3583000   0.66864545   -7.9905913    618.11295  0.014376057  0.013339199          506 
 3584000   0.66370858   -8.0035738    617.14543   0.01434955  0.013334004          586 
 3585000   0.68653514   -8.0107562    618.26349  0.014371536  0.013328804          557 
 3586000   0.67905695   -8.0140811     618.3439  0.014369397  0.013323605          465 
 3587000   0.68414849   -8.0358093    616.98559  0.014333835  0.013318408          516 
 3588000   0.69617996   -8.0237243    617.67271  0.014345799    0.0133132          491 
 3589000   0.67275549   -8.0205395    618.24082  0.014354993  0.013308002          581 
 3590000   0.67482207   -8.0360725    617.54621   0.01433487  0.013302802          658 
 3591000   0.67347332   -8.0122696     619.0374  0.014365483  0.013297601          496 
 3592000    0.6727478   -8.0359781     617.8438  0.014333793  0.013292403          634 
 3593000   0.69351481   -8.0342205    617.48857  0.014321564  0.013287202          654 
 3594000   0.68459667   -8.0513812    617.20046  0.014310899  0.013282012          605 
 3595000   0.68028739   -8.0178253    617.29308  0.014309065  0.013276821          569 
 3596000   0.66926656   -8.0173784     617.3693  0.014306853  0.013271625          477 
 3597000   0.67604363   -8.0110128    616.54098  0.014283685  0.013266432          547 
 3598000   0.68014187   -8.0350652    617.01923  0.014290792  0.013261235          587 
 3599000   0.67193191   -8.0103967    618.19984  0.014314158  0.013256043          473 
 3600000   0.66507402   -8.0201701    618.64277  0.014320434  0.013250868          538 
 3601000   0.67678819   -8.0137623    618.89337  0.014322257  0.013245684          575 
 3602000   0.67422633    -8.017533    617.19202   0.01427892  0.013240503          507 
 3603000   0.66810748    -8.025498    616.85896  0.014267253  0.013235324          586 
 3604000   0.67900875     -8.01548    617.38815  0.014275531  0.013230148          619 
 3605000   0.67045705   -8.0309066    616.58667  0.014253044  0.013224983          575 
 3606000   0.67515115   -8.0156526    618.90829  0.014302743  0.013219819          422 
 3607000   0.67278383   -8.0335564    616.23131  0.014236931  0.013214652          437 
 3608000   0.67739233   -8.0182806    618.70685  0.014290162  0.013209492          643 
 3609000   0.67423145   -8.0369294    617.49774  0.014258283  0.013204329          515 
 3610000   0.67511739   -8.0358757     617.2918   0.01424958  0.013199172          601 
 3611000   0.67581057   -8.0420804    616.83271  0.014235039  0.013194009          550 
 3612000   0.66091087   -8.0356763    617.44017  0.014245113  0.013188858          532 
 3613000   0.67267294   -8.0344831    616.31682   0.01421526  0.013183705          428 
 3614000   0.68106199   -8.0242051     616.0466  0.014205096  0.013178558          514 
 3615000   0.67480594   -8.0201094    618.77394  0.014264037   0.01317341          474 
 3616000   0.67177309   -8.0319833     616.6672  0.014211541  0.013168265          591 
 3617000   0.66476445    -8.018547    617.62375  0.014229651  0.013163129          599 
 3618000   0.66875359   -8.0188265    617.52799  0.014223512  0.013157984          531 
 3619000   0.70624079   -8.0317539    617.75776  0.014224872  0.013152857          611 
 3620000   0.66490727   -8.0362222    617.50558  0.014215138  0.013147729          552 
 3621000    0.6632933   -8.0236907     617.7004  0.014215696    0.0131426          616 
 3622000   0.67564934   -8.0385302    617.72793  0.014212404  0.013137469          573 
 3623000   0.67661475   -8.0209439    617.65801  0.014206873  0.013132335          546 
 3624000   0.67553758    -8.038783    617.62983  0.014202305  0.013127215          565 
 3625000   0.67872379   -8.0121554    617.49204  0.014195219  0.013122081          715 
 3626000   0.67915804   -8.0339396    616.91928  0.014178141  0.013116968          550 
 3627000   0.68101107   -8.0310945    616.90338  0.014173867  0.013111854          661 
 3628000   0.67730147   -8.0401833    617.74901  0.014189384  0.013106732          593 
 3629000   0.68252065    -8.011453    618.41654  0.014200802  0.013101622          581 
 3630000   0.67395034   -8.0409224    615.89588  0.014139024  0.013096513          577 
 3631000   0.68196566   -8.0304931    617.19509  0.014164948  0.013091393          644 
 3632000   0.67213616   -8.0338964    617.46354  0.014167207  0.013086277          659 
 3633000   0.67762669   -8.0419009     617.6409  0.014167375  0.013081175          616 
 3634000   0.68095877   -8.0233808    617.24316  0.014154356  0.013076075          637 
 3635000   0.67086715   -8.0287763    618.06873  0.014169389  0.013070982          735 
 3636000   0.66319506   -8.0367954    617.95695   0.01416293  0.013065883          707 
 3637000   0.66746083   -8.0444757    616.98192  0.014136695  0.013060791          676 
 3638000   0.66226418   -8.0450047    617.22653  0.014138412  0.013055688          536 
 3639000   0.66546109   -8.0323173    617.58279  0.014142685  0.013050595          589 
 3640000   0.65700096   -8.0412281    616.75918  0.014119945  0.013045496          715 
 3641000   0.68401547    -8.049021    617.19978  0.014126151  0.013040405          539 
 3642000   0.67247141   -8.0459463    616.21091  0.014099646  0.013035314          621 
 3643000   0.65885547   -8.0519702    616.48661  0.014102082  0.013030223          668 
 3644000   0.66720538   -8.0224553    616.62321  0.014101336  0.013025132          665 
 3645000    0.6695689   -8.0266697      616.021  0.014083699  0.013020042          532 
 3646000   0.66548076   -8.0418516    617.23066  0.014107484  0.013014967          650 
 3647000   0.65988554   -8.0423487    617.48594  0.014109449   0.01300988          607 
 3648000   0.66755221   -8.0305074    617.52664  0.014106511  0.013004809          593 
 3649000   0.65005848   -8.0273732     617.0224   0.01409113  0.012999727          594 
 3650000   0.67344962   -8.0443016    616.99471  0.014086637  0.012994654          544 
 3651000   0.66984078   -8.0534104     616.8541   0.01407957  0.012989579          548 
 3652000   0.66730701   -8.0424188    616.60148   0.01406995  0.012984497          613 
 3653000   0.69378911   -8.0446566    617.04852  0.014076296  0.012979422          544 
 3654000   0.66837532    -8.065151    615.69793  0.014041642  0.012974349          720 
 3655000   0.65917372    -8.064892    616.44263   0.01405478  0.012969284          573 
 3656000   0.67563132   -8.0657095    616.83502  0.014059879  0.012964211          694 
 3657000   0.68738485   -8.0548125    615.82229  0.014032957  0.012959137          654 
 3658000    0.6567535   -8.0593132    617.56328  0.014068783  0.012954069          582 
 3659000   0.67181412   -8.0604178      615.626  0.014020816  0.012948998          607 
 3660000   0.66865872   -8.0485987    617.69682  0.014064135  0.012943947          621 
 3661000   0.66764124   -8.0512019    616.81588  0.014040241  0.012938897          634 
 3662000   0.66611941   -8.0786107    617.66254  0.014055674  0.012933847          758 
 3663000   0.65746267   -8.0496609    616.13007  0.014016973  0.012928797          696 
 3664000   0.65437923    -8.039087    616.69179  0.014025923  0.012923756          631 
 3665000   0.66451753   -8.0379331     617.2272   0.01403427  0.012918718          679 
 3666000   0.67324063   -8.0728511    616.73077  0.014019157  0.012913669          781 
 3667000   0.66186859   -8.0453333    617.07881  0.014023244  0.012908631          521 
 3668000   0.66920318   -8.0497199    615.57292  0.013985208  0.012903586          586 
 3669000   0.66947142   -8.0610079    616.82428  0.014009818  0.012898536          716 
 3670000   0.65912438   -8.0553448    616.68715  0.014002887  0.012893489          644 
 3671000    0.6779223   -8.0535495    616.21905  0.013988447   0.01288844          663 
 3672000   0.67083947   -8.0441838     616.8086  0.013998017  0.012883393          524 
 3673000   0.66799375   -8.0668755    616.65261  0.013990666  0.012878352          800 
 3674000   0.66633292   -8.0471682    617.37213  0.014003178  0.012873307          691 
 3675000   0.66852276   -8.0523171    617.68449  0.014006451  0.012868266          610 
 3676000   0.66999733   -8.0625003    616.87507  0.013984292  0.012863236          713 
 3677000   0.66600073   -8.0819846    616.54544  0.013973018  0.012858201          684 
 3678000   0.66947101   -8.0600355    616.74806   0.01397381  0.012853167          701 
 3679000   0.66010957   -8.0776177     616.5729  0.013966044  0.012848144          618 
 3680000   0.66631984   -8.0796629    616.65094  0.013964016  0.012843143          671 
 3681000   0.67611889   -8.0483793    617.20269  0.013972713  0.012838132          665 
 3682000   0.65585462   -8.0521571    617.01997  0.013964783  0.012833119          713 
 3683000   0.66381974   -8.0428279    617.08989  0.013962573  0.012828114          602 
 3684000   0.64304701   -8.0577287    617.18917  0.013961029  0.012823104          685 
 3685000   0.65416344   -8.0411835    616.67133   0.01394553  0.012818101          604 
 3686000   0.66458493    -8.060974    616.75267  0.013943585  0.012813098          663 
 3687000   0.67030976   -8.0632347    615.56013   0.01391285    0.0128081          642 
 3688000   0.66215003   -8.0657848    617.09786  0.013943824  0.012803102          759 
 3689000   0.64910891    -8.067874    615.81858  0.013911145  0.012798098          696 
 3690000   0.67054237    -8.068044    616.09751  0.013913675  0.012793086          727 
 3691000   0.65382512   -8.0717948    615.80765  0.013903361  0.012788083          713 
 3692000   0.65457406   -8.0553041    615.96674  0.013903186  0.012783087          747 
 3693000   0.66572086   -8.0535826    616.00283  0.013900235  0.012778083          727 
 3694000   0.66751195   -8.0484307    617.00016  0.013918971  0.012773084          664 
 3695000   0.65734982   -8.0498247    616.90375   0.01391303  0.012768088          641 
 3696000   0.65946664    -8.073385    615.05105  0.013867493  0.012763103          672 
 3697000   0.66007196   -8.0654972    616.41982  0.013894595  0.012758115          682 
 3698000   0.65961496   -8.0632982    617.21234  0.013908697  0.012753131          740 
 3699000   0.64696522   -8.0619337    616.43907  0.013887516  0.012748145          701 
 3700000   0.66003244   -8.0755335    616.11441  0.013876451  0.012743159          757 
 3701000    0.6681662   -8.0833011    617.24938  0.013898257  0.012738182          620 
 3702000   0.67573727   -8.0484287    616.41398  0.013875697  0.012733208          735 
 3703000   0.66540679   -8.0700808    615.73586   0.01385669  0.012728243          656 
 3704000    0.6610606   -8.0792799    616.17724  0.013862879  0.012723273          650 
 3705000   0.65405961   -8.0852506    616.08206  0.013856996  0.012718301          624 
 3706000   0.65378651   -8.0375033    616.27371  0.013857567  0.012713323          681 
 3707000   0.65361223   -8.0646597    615.28721  0.013831652  0.012708356          648 
 3708000   0.65126995   -8.0872931     614.9239  0.013819757  0.012703386          743 
 3709000   0.65376911   -8.0722869     615.5979  0.013831174  0.012698424          599 
 3710000   0.65796643   -8.0657842    615.40398   0.01382309  0.012693473          705 
 3711000   0.68129329   -8.0943814    615.64035  0.013824673  0.012688514          643 
 3712000   0.66726551   -8.1002823    615.44491  0.013816561   0.01268355          713 
 3713000   0.66729192   -8.0872123    615.25943  0.013808677  0.012678587          738 
 3714000   0.66237137   -8.0692735    617.33852  0.013851609  0.012673623          740 
 3715000   0.66190804   -8.0932557     616.1918  0.013822158   0.01266867          629 
 3716000   0.66690623   -8.0678004    617.43656  0.013846353  0.012663712          725 
 3717000   0.63382818   -8.0883545    616.05769  0.013811714  0.012658762          711 
 3718000   0.66429821   -8.0694615    614.93045  0.013782734  0.012653805          740 
 3719000   0.66243634   -8.1168741    615.61728  0.013794418  0.012648858          818 
 3720000   0.64937748   -8.0861937    614.91631  0.013775007   0.01264391          795 
 3721000   0.64908176   -8.0827447    615.09356  0.013775275  0.012638958          791 
 3722000   0.65437781   -8.1044864    616.21401   0.01379666  0.012634019          691 
 3723000   0.66812968   -8.0943573    614.98754  0.013765501  0.012629079          789 
 3724000   0.65943533   -8.0876834    615.61108  0.013775758  0.012624152          719 
 3725000   0.64979901   -8.0849703    616.65295  0.013795368  0.012619223          759 
 3726000   0.65384985   -8.0734555    617.12367  0.013802193  0.012614307          656 
 3727000   0.66691481   -8.0768848    615.95091  0.013772268  0.012609399          657 
 3728000   0.64172241   -8.0894492    615.77389  0.013764617  0.012604497          722 
 3729000   0.66033161   -8.0742379    615.60411  0.013757131  0.012599585          661 
 3730000   0.66104698     -8.08202    615.90835   0.01376024  0.012594675          761 
 3731000   0.66155679   -8.0623181    615.28559  0.013742643  0.012589769          691 
 3732000   0.66807783   -8.0673329     616.4045  0.013763945  0.012584862          694 
 3733000   0.64294374    -8.061121    616.42684  0.013760756  0.012579961          768 
 3734000   0.66514259   -8.0540725    615.32336  0.013732444  0.012575065          698 
 3735000   0.65958999   -8.0944075    615.00311  0.013721622  0.012570169          763 
 3736000   0.65141743   -8.0796665    616.11264  0.013742698  0.012565269          732 
 3737000   0.65016728   -8.0784074    615.05014  0.013715327  0.012560361          860 
 3738000   0.66461635   -8.0655138    616.85985  0.013752003  0.012555465          663 
 3739000   0.65030189   -8.0814685    617.40394  0.013760452  0.012550566          756 
 3740000   0.64403285   -8.0886772    615.12007  0.013705884  0.012545678          767 
 3741000   0.65610252   -8.0728466    614.85076  0.013696221  0.012540779          889 
 3742000   0.64702275   -8.0631814    616.86669  0.013737455  0.012535893          880 
 3743000   0.64793481   -8.0971465    615.31883  0.013699324  0.012531002          807 
 3744000   0.64780961   -8.0869386    615.56386  0.013701119   0.01252612          695 
 3745000   0.64536618   -8.0784905    615.05596  0.013686158  0.012521232          868 
 3746000   0.63815854   -8.0819693    616.23395   0.01370871  0.012516352          757 
 3747000   0.66599056   -8.0685605    614.90209  0.013675431  0.012511478          831 
 3748000   0.64522819   -8.0913574    616.65378   0.01371073  0.012506599          742 
 3749000   0.64845425   -8.1121859     614.8268  0.013666462  0.012501718          930 
 3750000   0.65348276   -8.1010083    615.98992  0.013688665  0.012496844          778 
 3751000   0.65605665   -8.0870794    615.37049  0.013671254  0.012491965          737 
 3752000   0.64145495   -8.0932705    614.99124  0.013659187  0.012487097          711 
 3753000   0.64003612   -8.1096077    615.93715  0.013676551  0.012482224          698 
 3754000   0.66123194   -8.0880313    616.45238  0.013684345  0.012477357          765 
 3755000   0.63453586   -8.0867818    615.66781  0.013663289  0.012472497          714 
 3756000   0.65482908   -8.1053845    615.60967  0.013658362  0.012467635          688 
 3757000   0.65918257    -8.088244     616.1799  0.013667374  0.012462772          839 
 3758000   0.63789874   -8.0784293    616.39719  0.013668556  0.012457917          755 
 3759000    0.6583508   -8.1128313    616.06514  0.013657558  0.012453065          818 
 3760000   0.65084465   -8.1045576    615.32151  0.013637445   0.01244821          841 
 3761000   0.65719335   -8.0860922    615.66624  0.013641457  0.012443362          704 
 3762000   0.64614694    -8.110507    615.84907  0.013641881  0.012438516          736 
 3763000   0.63825521   -8.0704271     615.6938  0.013634817   0.01243367          816 
 3764000   0.64017782   -8.0878385    615.39921  0.013624673  0.012428818          750 
 3765000   0.65194225   -8.0836608    615.02585   0.01361279  0.012423981          831 
 3766000   0.64526022    -8.079977    616.07171  0.013632318   0.01241914          716 
 3767000    0.6492032   -8.1051423    614.64922  0.013597231  0.012414301          794 
 3768000    0.6456293   -8.0899625    615.30003  0.013608015  0.012409463          729 
 3769000   0.63897228   -8.1087496    614.54523  0.013587716  0.012404625          821 
 3770000   0.64742782   -8.0750059    615.59298  0.013607272  0.012399791          846 
 3771000   0.65273676   -8.1083924     615.0048  0.013590666  0.012394959          708 
 3772000    0.6438608   -8.0760988    615.93059  0.013607516  0.012390137          800 
 3773000   0.64945922   -8.1071859    615.66183  0.013597973  0.012385313          766 
 3774000   0.64437029   -8.0934564    615.86054  0.013598758  0.012380494          669 
 3775000   0.65086084   -8.1021775    615.24258  0.013581514   0.01237568          868 
 3776000   0.63756509   -8.0995218    615.65334  0.013586982  0.012370867          784 
 3777000   0.65023098   -8.0892174    615.52853  0.013580631  0.012366058          851 
 3778000   0.65458709   -8.0910076    614.68833  0.013558504  0.012361251          758 
 3779000   0.64709041   -8.0861363    615.21146  0.013566452  0.012356439          828 
 3780000   0.64209247   -8.0871972    615.26568  0.013564058  0.012351629          705 
 3781000    0.6245852   -8.1019506     614.5945  0.013545678  0.012346817          718 
 3782000   0.64204155   -8.0836983    614.78356  0.013546262  0.012342009          756 
 3783000   0.67878045   -8.0917859    616.00438  0.013569574  0.012337207          797 
 3784000   0.65134123   -8.0939686    615.62204  0.013557568  0.012332405          797 
 3785000   0.65904438   -8.0906039    615.09219   0.01354232  0.012327606          785 
 3786000   0.64665115   -8.1024722     615.5707  0.013549276  0.012322813          812 
 3787000   0.65177897   -8.0966946    615.45116  0.013543068  0.012318026          746 
 3788000   0.65953879   -8.0913589    616.09574  0.013553672  0.012313242          745 
 3789000   0.65151082   -8.0942188     615.5297  0.013537646   0.01230846          731 
 3790000   0.63806963   -8.0784179    616.65705  0.013558862  0.012303683          824 
 3791000   0.64181774   -8.0817378    615.67587  0.013533717  0.012298906          823 
 3792000   0.63698874   -8.0841007    615.42182  0.013524565  0.012294132          796 
 3793000   0.64155443   -8.0900388    615.85438  0.013530503  0.012289355          675 
 3794000   0.64383204   -8.0797757    615.99808  0.013530093  0.012284582          742 
 3795000   0.64036691   -8.0937377    615.31874   0.01351161  0.012279804          845 
 3796000   0.63364788   -8.0813678    615.26264   0.01350682  0.012275033          719 
 3797000   0.64564272   -8.0878989     616.1915  0.013523648  0.012270276          764 
 3798000   0.64803741   -8.1091172    615.17603  0.013497806  0.012265513          674 
 3799000   0.62834741    -8.097597    615.19742  0.013494723  0.012260753          718 
 3800000   0.64882303   -8.1047056    614.18871  0.013469051  0.012255988          609 
 3801000    0.6420114    -8.095472    615.72761  0.013499246  0.012251233          780 
 3802000   0.66606391   -8.0834523     616.2765  0.013507726  0.012246482          761 
 3803000   0.65384143   -8.0994401    615.00899    0.0134764  0.012241728          797 
 3804000    0.6406036   -8.1093668    614.04986  0.013451846  0.012236969          803 
 3805000    0.6379752   -8.1149783    615.05557  0.013470337  0.012232208          849 
 3806000   0.64284223   -8.1104037    615.49328  0.013476381  0.012227453          858 
 3807000   0.65438905    -8.090981    615.85954  0.013480859  0.012222698          746 
 3808000   0.62733314   -8.0866775    616.14926  0.013483658  0.012217956          795 
 3809000   0.64800919    -8.101016    616.11049   0.01347927  0.012213215          657 
 3810000   0.64945001   -8.1046986    614.55311  0.013441669  0.012208477          785 
 3811000   0.63238114   -8.1107944    616.36013  0.013477655  0.012203737          738 
 3812000   0.64964119   -8.0984621     614.6868  0.013437539  0.012198997          790 
 3813000   0.62984216   -8.1119136    615.39296  0.013449448  0.012194258          735 
 3814000    0.6488763    -8.092628     615.1482  0.013440574  0.012189521          823 
 3815000   0.62450557   -8.1085418    615.67491  0.013448556  0.012184791          850 
 3816000   0.64351267   -8.0996182    614.96431  0.013429514  0.012180056          814 
 3817000   0.64319992   -8.1046079    616.13259  0.013451502  0.012175314          785 
 3818000   0.63956495   -8.1060772     614.1483  0.013404669  0.012170591          744 
 3819000   0.64364129   -8.1220529    613.82613  0.013394129  0.012165864          826 
 3820000    0.6445985   -8.1220247    615.27341  0.013422195  0.012161134          832 
 3821000   0.65861926   -8.1066731    615.08561  0.013414586  0.012156404          813 
 3822000   0.63248985   -8.1136129    614.78409  0.013404502  0.012151674          796 
 3823000    0.6247133    -8.103145     615.1446  0.013408854  0.012146953          822 
 3824000   0.64570999   -8.1288445    614.30752  0.013387106   0.01214223          796 
 3825000   0.63337749    -8.112474    614.56197   0.01338915  0.012137513          825 
 3826000   0.64258791   -8.1166184    613.82351  0.013369566  0.012132802          851 
 3827000   0.63393131   -8.1229116    614.26097  0.013375598  0.012128086          836 
 3828000   0.65363139    -8.087261    615.46599  0.013398337  0.012123377          878 
 3829000   0.64740921    -8.106215    613.52509  0.013352596  0.012118666          782 
 3830000   0.65077207   -8.1161808    614.53394   0.01337106   0.01211396          862 
 3831000   0.62808157   -8.1353441    613.90693  0.013353931  0.012109256          866 
 3832000   0.63570143   -8.0843633    615.45548  0.013384122  0.012104553          860 
 3833000   0.64502084   -8.1052684    614.92419   0.01336908  0.012099846          775 
 3834000   0.63113285   -8.1061207    614.83723  0.013363703  0.012095144          849 
 3835000   0.62021292   -8.1353467     614.8159  0.013359754  0.012090431          843 
 3836000     0.632857   -8.1294848    613.91566  0.013336715  0.012085719          901 
 3837000   0.63296662   -8.1182875    614.04828  0.013336119  0.012081019          870 
 3838000   0.64968994    -8.119762     614.3732  0.013339699  0.012076323          843 
 3839000   0.62937283   -8.1281312     614.3428  0.013335565  0.012071619          898 
 3840000   0.64395711   -8.1196991    614.53755  0.013336318   0.01206692          905 
 3841000   0.64503084   -8.1404986    614.00502  0.013321293  0.012062222          963 
 3842000   0.63390357   -8.1324149    613.76565  0.013312633  0.012057532          881 
 3843000   0.63331437   -8.1282227    614.13725  0.013317227  0.012052841          873 
 3844000   0.64602273   -8.1217117    615.48735  0.013343031  0.012048154          948 
 3845000   0.61773981   -8.1182752    615.20038  0.013333342  0.012043468          895 
 3846000   0.63275069   -8.1234517    614.28149  0.013309965   0.01203879          859 
 3847000   0.63059498   -8.1196687    614.62983  0.013314051  0.012034109          862 
 3848000   0.63696004   -8.1379578    614.46225  0.013306961  0.012029439          819 
 3849000   0.64123226   -8.1306975    613.21776   0.01327656  0.012024763          892 
 3850000    0.6431462   -8.1218061     613.2507  0.013273825  0.012020081          831 
 3851000   0.64714156   -8.1222527    615.21892  0.013312969  0.012015415          907 
 3852000   0.65264114   -8.0912132    614.51322  0.013294246  0.012010748          861 
 3853000   0.62684433   -8.1226027    614.36454   0.01328758  0.012006078          850 
 3854000    0.6344997   -8.1141706    614.57125  0.013288602  0.012001409          752 
 3855000   0.62535102   -8.1329107    614.14074  0.013275848  0.011996746          828 
 3856000   0.64261573   -8.1321843    613.93249  0.013267905  0.011992085          855 
 3857000   0.64501185   -8.1315745    614.33667  0.013273198  0.011987427          825 
 3858000   0.63398142    -8.138684    612.90817  0.013238901  0.011982763          843 
 3859000   0.63128959   -8.1551554    614.02654  0.013259621  0.011978107          863 
 3860000    0.6423539   -8.1344439    614.91334  0.013275331   0.01197345          928 
 3861000   0.64795238   -8.1321948    615.10587  0.013276048  0.011968797          854 
 3862000   0.63061991   -8.1292288    614.18586  0.013252759  0.011964148          946 
 3863000   0.64102144   -8.1299074    614.26992  0.013251142    0.0119595          879 
 3864000    0.6406573   -8.1191218    613.33678  0.013227588  0.011954854          870 
 3865000   0.63347798   -8.1167011    614.11342   0.01324091  0.011950213          791 
 3866000   0.63326213   -8.1267482    615.43571  0.013265988  0.011945571          915 
 3867000   0.63499913   -8.1206342     614.7597  0.013247989   0.01194093          898 
 3868000   0.61316455     -8.13165    613.65722  0.013220812  0.011936293          921 
 3869000   0.63994596   -8.1468165    614.24419  0.013230038  0.011931662          874 
 3870000   0.64023416   -8.1380009    614.77073  0.013237957  0.011927027          864 
 3871000   0.63142038   -8.0952617    615.14813  0.013242662  0.011922397          823 
 3872000   0.63175418   -8.1339933    614.09298  0.013216533  0.011917768          851 
 3873000   0.63191944   -8.1326916    613.92583  0.013209524  0.011913141          974 
 3874000   0.62757683   -8.1211502    615.59206  0.013241956  0.011908525          900 
 3875000   0.64498452   -8.1336049     614.1716  0.013207991  0.011903909          956 
 3876000   0.62864717   -8.1102034    615.35969  0.013230128  0.011899295          865 
 3877000   0.63223074   -8.1159955    614.81438  0.013214994  0.011894683          879 
 3878000   0.64114252   -8.1254696    613.59136  0.013185305  0.011890072          853 
 3879000   0.62173037   -8.1355027    613.52845  0.013180554  0.011885463          812 
 3880000   0.61810708   -8.1322464     613.5224  0.013177027  0.011880853          907 
 3881000   0.62215057   -8.1275802    614.51854  0.013195021   0.01187625          845 
 3882000    0.6376783    -8.149982    614.11688     0.013183  0.011871653          846 
 3883000   0.62714591   -8.1329363     613.4192  0.013164632   0.01186705          920 
 3884000   0.61551455   -8.1250378     613.8366  0.013170198   0.01186245          972 
 3885000   0.63137024   -8.1560262     613.1929  0.013153001  0.011857849          925 
 3886000    0.6330847   -8.1190947    614.80529  0.013184193  0.011853258          836 
 3887000   0.62664301   -8.1132336    613.84809   0.01316028  0.011848674          801 
 3888000   0.62359331   -8.1427011    613.68874  0.013153479  0.011844084          815 
 3889000   0.63147056   -8.1220581    613.88142  0.013154226  0.011839491         1006 
 3890000    0.6222089   -8.1237062    614.22915  0.013158294  0.011834909          824 
 3891000   0.63184173   -8.1307795     613.3397  0.013135863  0.011830326          943 
 3892000    0.6210123   -8.1192767     614.7867   0.01316347  0.011825747          896 
 3893000   0.62549975   -8.1234068    613.74293  0.013137746  0.011821168          877 
 3894000   0.64610288   -8.1392047    613.11057  0.013120839   0.01181659          915 
 3895000     0.621162   -8.1337154    613.36316  0.013122875  0.011812016          870 
 3896000   0.63702043   -8.1403251    612.52443  0.013101566  0.011807442          940 
 3897000   0.63729482   -8.1332488    614.32058  0.013136613  0.011802869          936 
 3898000   0.62174812   -8.1470533    614.32102  0.013133252  0.011798294          856 
 3899000   0.62658646   -8.1287749    614.23387  0.013128021  0.011793726          883 
 3900000   0.63408086   -8.1500255    614.68323  0.013134257  0.011789157          905 
 3901000   0.62534096   -8.1475633     615.2165  0.013142282  0.011784594          868 
 3902000   0.62901524   -8.1340833    613.93852  0.013111621  0.011780022          930 
 3903000   0.62339979   -8.1525068    613.61226  0.013101295  0.011775456          860 
 3904000   0.63917385   -8.1423873     614.2947  0.013112506  0.011770898          890 
 3905000   0.61536875   -8.1392585    613.93542  0.013101481  0.011766338         1008 
 3906000   0.61609176   -8.1501473    614.94002   0.01311956  0.011761782          965 
 3907000   0.64380518   -8.1502049    614.20018  0.013100422  0.011757223          775 
 3908000   0.62878492    -8.136809     614.1554  0.013096115  0.011752665          912 
 3909000   0.62601791   -8.1415571    613.63702  0.013081713  0.011748106         1015 
 3910000    0.6199733   -8.1366598    613.25115  0.013070144  0.011743553          959 
 3911000   0.61937704    -8.133877    613.93178  0.013081305  0.011739003          905 
 3912000   0.63114255    -8.133495    614.66451  0.013093569  0.011734455          908 
 3913000   0.62016374   -8.1515046    612.87979  0.013052215  0.011729912          943 
 3914000   0.63406678   -8.1549077    613.13372  0.013054286  0.011725372          892 
 3915000   0.62566294   -8.1518189    612.93124  0.013046642  0.011720824          900 
 3916000   0.63475172   -8.1384856      613.209  0.013049221  0.011716281          904 
 3917000    0.6346593   -8.1404096    613.99176  0.013062543  0.011711748          959 
 3918000    0.6283847   -8.1262609    614.90562  0.013078646  0.011707217          985 
 3919000   0.61973848   -8.1210435    614.57192  0.013068213  0.011702691          900 
 3920000   0.63126658   -8.1377197    614.04643  0.013053708  0.011698161          942 
 3921000   0.61616747   -8.1384293    614.76918   0.01306574  0.011693637          911 
 3922000   0.63656601    -8.130583    614.79197  0.013062892  0.011689114          939 
 3923000   0.61937523   -8.1379658    612.89445  0.013019255   0.01168459          989 
 3924000    0.6140761   -8.1460667    613.92968  0.013037922  0.011680071         1038 
 3925000   0.63424238   -8.1531972    613.17598  0.013018598  0.011675554          970 
 3926000   0.60713517     -8.13383    614.30983  0.013039349  0.011671037          935 
 3927000   0.62224712   -8.1371212    613.71837  0.013023478  0.011666518         1010 
 3928000   0.62538942   -8.1359416    614.79643  0.013043034  0.011662002          937 
 3929000   0.62171771   -8.1761506    613.07243  0.013003148   0.01165749          918 
 3930000   0.62521777   -8.1355161    614.21686  0.013024106  0.011652979         1010 
 3931000   0.63686034   -8.1545283    613.04383  0.012995926   0.01164847         1054 
 3932000   0.62742248    -8.131967    613.24659  0.012996918  0.011643953         1063 
 3933000   0.62836816    -8.158919    613.06426   0.01298975  0.011639456          902 
 3934000   0.61780598   -8.1558509    613.36049  0.012992724  0.011634956         1035 
 3935000   0.61636911   -8.1403033    613.42917  0.012990876   0.01163046          956 
 3936000   0.61341689   -8.1551235    612.93076  0.012977023  0.011625968          970 
 3937000   0.61631116   -8.1664186    613.51964  0.012986192  0.011621477          853 
 3938000   0.61969997   -8.1631974    612.91862  0.012970176  0.011616983         1017 
 3939000   0.62435285   -8.1573308    612.84877  0.012965405  0.011612492          931 
 3940000   0.62198014    -8.156815    614.04304  0.012987374  0.011608002          955 
 3941000   0.63326692   -8.1586033    613.24905  0.012967289   0.01160351          886 
 3942000   0.61405913   -8.1446988    613.08111   0.01296045  0.011599026         1039 
 3943000   0.61963078   -8.1311201    614.28949  0.012982701  0.011594544          986 
 3944000   0.61287345   -8.1454387    612.59682  0.012943645  0.011590067         1001 
 3945000   0.61900514   -8.1586505    613.72893  0.012964278  0.011585592         1032 
 3946000   0.61613993   -8.1261649    614.36517  0.012974429  0.011581122          993 
 3947000   0.62048358   -8.1386572    615.03167  0.012985214  0.011576651         1044 
 3948000   0.61055255   -8.1578824    614.25204  0.012965468  0.011572182          853 
 3949000   0.62447636   -8.1464471    613.19527  0.012939885  0.011567716          885 
 3950000   0.61411499   -8.1420902    612.89898  0.012930358   0.01156325          985 
 3951000   0.63090341   -8.1534341    613.07696   0.01293084  0.011558785         1047 
 3952000   0.60294171   -8.1739121    612.77779  0.012921259  0.011554317          963 
 3953000   0.61171477   -8.1331582    612.98873  0.012922437  0.011549853         1048 
 3954000   0.60712762   -8.1719652    613.12854  0.012922116  0.011545388         1047 
 3955000   0.62412417   -8.1701477    612.84031  0.012912775  0.011540927         1056 
 3956000   0.61676368   -8.1693427    613.02721  0.012913448  0.011536469          987 
 3957000   0.62279941   -8.1733045    613.27972  0.012915502  0.011532012         1031 
 3958000   0.63264516    -8.168898    612.34416  0.012892542  0.011527553          981 
 3959000   0.62094097   -8.1581355    611.87284  0.012879364  0.011523095         1013 
 3960000   0.61099056   -8.1661152    613.00484  0.012899934   0.01151864         1003 
 3961000   0.61074724   -8.1723138    614.08078  0.012919313  0.011514193          948 
 3962000   0.61960819   -8.1631799    613.37025  0.012901107  0.011509746          952 
 3963000   0.62625694   -8.1491521     613.3069   0.01289652  0.011505296          964 
 3964000   0.60570998   -8.1796193     612.6413  0.012879274  0.011500851          907 
 3965000   0.60746082   -8.1425766    613.97077  0.012903967  0.011496402         1052 
 3966000   0.62216305   -8.1615598    613.77698  0.012896642   0.01149196         1011 
 3967000   0.62409137    -8.156068    614.12228  0.012900644  0.011487529          967 
 3968000   0.61523013   -8.1563112    612.95182  0.012872812  0.011483096         1030 
 3969000   0.60535884   -8.1782987    613.74993  0.012886326  0.011478667          973 
 3970000   0.62629333   -8.1576971    613.60852  0.012880112  0.011474234          957 
 3971000   0.61430359   -8.1817928    612.49303  0.012853459  0.011469801          996 
 3972000   0.62649118   -8.1909972    613.15295  0.012864068  0.011465369         1035 
 3973000   0.62567924   -8.1811101    612.95322  0.012856641  0.011460937          915 
 3974000   0.60850197   -8.1788174    612.06716  0.012834825  0.011456511         1005 
 3975000   0.61647316   -8.1787951    614.20879  0.012876495  0.011452082          955 
 3976000   0.60893253   -8.1609991    611.89274  0.012824714  0.011447658         1113 
 3977000   0.60948917    -8.171681    613.88834  0.012863304  0.011443237          969 
 3978000   0.61130856   -8.1655044    613.40212  0.012849885  0.011438815          989 
 3979000   0.60140764   -8.1674681    612.44848  0.012826683  0.011434397         1060 
 3980000   0.61634757   -8.1915605    612.91869  0.012833306  0.011429978         1003 
 3981000    0.6157128   -8.1615023    612.64615  0.012824377  0.011425566         1090 
 3982000   0.61652534   -8.1736607    612.76073  0.012823554  0.011421148          948 
 3983000   0.60568874   -8.1513049    613.37911  0.012833273   0.01141674         1104 
 3984000   0.61272742   -8.1541972    611.89418  0.012798991   0.01141233         1036 
 3985000    0.6211198    -8.163273     613.2522  0.012824178  0.011407919         1026 
 3986000   0.61842667   -8.1656757    612.80352  0.012811581  0.011403517         1042 
 3987000   0.60568193   -8.1728401    612.57685  0.012803629  0.011399107         1102 
 3988000   0.61230977   -8.1771756    613.25688  0.012814629  0.011394709         1007 
 3989000   0.61886678   -8.1626346    613.04707  0.012807033  0.011390305         1049 
 3990000   0.62121382   -8.1609876    612.76752  0.012797985  0.011385903         1103 
 3991000   0.62031407    -8.176005    613.19138  0.012803629  0.011381507          995 
 3992000   0.63533207   -8.1745891    611.93851  0.012774267  0.011377113          995 
 3993000   0.61265005   -8.1605232    612.80546  0.012789161  0.011372721          953 
 3994000   0.62311705   -8.1810961    612.93828  0.012788731  0.011368337         1028 
 3995000   0.61805804   -8.1805506    613.36711  0.012794475  0.011363952         1059 
 3996000   0.62283189   -8.2068281    612.45435  0.012772238  0.011359568         1127 
 3997000   0.62514153   -8.1869303    611.68206  0.012752941  0.011355186         1076 
 3998000   0.61265301   -8.1676509    612.48984  0.012766588   0.01135081         1064 
 3999000    0.6093215   -8.1780611    613.10909    0.0127763  0.011346433         1162 
 4000000    0.6045195   -8.1742565    612.41338  0.012758612  0.011342055         1007 
 4001000   0.60932823   -8.1595529    613.55515  0.012779204  0.011337688          995 
 4002000   0.60708469     -8.16332    611.36308  0.012730366  0.011333316         1056 
 4003000   0.60291923   -8.1753567    612.61501  0.012753248  0.011328944          937 
 4004000   0.61946558   -8.1768702    611.84036   0.01273394  0.011324578         1053 
 4005000   0.62203302   -8.1846397    611.37276  0.012721031  0.011320212         1029 
 4006000   0.60310447   -8.1704101    612.23121  0.012735713  0.011315851         1007 
 4007000   0.61228669   -8.1707774    612.80681  0.012744506  0.011311494          998 
 4008000   0.61779869   -8.1960879    612.08757  0.012726372  0.011307134         1039 
 4009000   0.61542415   -8.1667549    612.89135  0.012739905  0.011302784          979 
 4010000   0.60928547   -8.1927124    612.17326  0.012721805   0.01129843         1078 
 4011000   0.61426466   -8.1941548    613.23474  0.012740687  0.011294081         1051 
 4012000   0.60386145   -8.1775617    611.96541  0.012711146  0.011289729         1052 
 4013000    0.6104702   -8.1610431    612.93909  0.012728198  0.011285389         1012 
 4014000   0.59673023   -8.1732582    612.19304  0.012709538  0.011281048          999 
 4015000   0.59899987   -8.1859739    613.51179  0.012733744  0.011276708         1145 
 4016000   0.60622343   -8.1730384     613.5609  0.012731592  0.011272378         1058 
 4017000   0.61334957   -8.1744218    613.67089  0.012730705  0.011268037         1064 
 4018000   0.60824042    -8.196939    610.78664  0.012667717  0.011263696         1131 
 4019000    0.6045933   -8.1618192    611.86726  0.012686971  0.011259363         1122 
 4020000   0.61592251   -8.1641854     612.9332  0.012705912  0.011255032         1020 
 4021000   0.60656832   -8.1583015    613.16559  0.012707568  0.011250701          969 
 4022000   0.59984708   -8.1808925    612.61641   0.01269303  0.011246366         1004 
 4023000   0.60186011   -8.1958971    612.55286  0.012688559  0.011242034         1050 
 4024000   0.61050674   -8.1783743    612.79503  0.012690421  0.011237707         1025 
 4025000   0.61799972   -8.1857218    613.42324  0.012700274  0.011233383          964 
 4026000     0.620681   -8.1990924      613.359   0.01269579  0.011229059          991 
 4027000   0.60504663   -8.1859695    613.65349  0.012698731  0.011224738          986 
 4028000    0.6109987   -8.1626363    611.40153  0.012648989  0.011220422          919 
 4029000   0.60277439   -8.1923906    612.53868   0.01266937  0.011216104         1010 
 4030000   0.61545295   -8.1863022    613.45851  0.012685246   0.01121179         1074 
 4031000   0.60623594   -8.1614192    612.36999  0.012659596  0.011207475          959 
 4032000    0.5932824   -8.1787645    612.32004  0.012655424  0.011203164         1034 
 4033000    0.6093156   -8.1862157    612.48731  0.012655742  0.011198857         1065 
 4034000   0.59278738   -8.1792078    612.42408  0.012651299  0.011194551         1032 
 4035000   0.59661268   -8.1981034    612.26709  0.012644921  0.011190247         1043 
 4036000   0.60439249   -8.1837843     612.3467  0.012643432  0.011185944         1052 
 4037000   0.59526881   -8.1697921    612.08208  0.012634838  0.011181649          913 
 4038000   0.60680815    -8.183865    611.92121  0.012628389  0.011177353          994 
 4039000   0.60888411   -8.1755237     612.5666  0.012638578  0.011173059          977 
 4040000   0.60623515   -8.1807293    611.63532   0.01261624  0.011168761          914 
 4041000   0.61624881   -8.1823794    612.61186  0.012633256  0.011164466          941 
 4042000    0.6029408    -8.163327    612.67224  0.012631376  0.011160174          961 
 4043000   0.60989037   -8.1674466    613.09864   0.01263704  0.011155892         1035 
 4044000   0.59958232   -8.1874388    612.79435  0.012627645  0.011151607         1043 
 4045000   0.60824942   -8.1814031    612.27886  0.012613903  0.011147322         1030 
 4046000   0.60159166    -8.177058    611.59511  0.012596703  0.011143041          913 
 4047000   0.60925748   -8.1678413    612.48394  0.012611892  0.011138764          934 
 4048000   0.60137505   -8.1780915    611.11417  0.012580578   0.01113448          995 
 4049000   0.59090869   -8.1869073    612.24487  0.012600742  0.011130204         1019 
 4050000   0.62256672   -8.1977488    612.12949  0.012595257  0.011125926         1029 
 4051000   0.61923137   -8.1809424    612.07801  0.012591089  0.011121654         1010 
 4052000   0.59516523   -8.2041981    611.86975  0.012583698  0.011117382          953 
 4053000   0.60478127   -8.1922017    611.88543  0.012580916  0.011113114         1070 
 4054000   0.60803637   -8.1943989    612.96691  0.012600043  0.011108842         1010 
 4055000   0.62361776   -8.1915551    611.98389  0.012576734  0.011104575         1049 
 4056000   0.60665276   -8.1840956    612.02477  0.012574474  0.011100316         1086 
 4057000   0.61803821   -8.1800038    612.14153  0.012573772   0.01109605         1063 
 4058000   0.59859117   -8.1960966    613.06868  0.012589713  0.011091788          941 
 4059000   0.58954738   -8.1940343    612.03506  0.012565391  0.011087531         1039 
 4060000   0.61168067    -8.188324    612.30543  0.012567845   0.01108327         1022 
 4061000   0.60328679   -8.1900781    611.28685  0.012543849  0.011079018         1071 
 4062000   0.60494477   -8.1847106    611.78083  0.012550895  0.011074768         1077 
 4063000   0.58913779    -8.206455    611.82997  0.012548814  0.011070519         1095 
 4064000   0.60756974   -8.1853338    612.24988  0.012554336  0.011066272         1017 
 4065000   0.59111747   -8.2102893    612.50301  0.012556437  0.011062029         1084 
 4066000   0.60553537   -8.2160203    612.67957  0.012556968  0.011057786          965 
 4067000   0.60523659     -8.19765    613.25171  0.012565603  0.011053546         1075 
 4068000    0.5946854   -8.1966839    612.31055  0.012543235  0.011049306         1043 
 4069000   0.60279386    -8.201189    611.26428  0.012518725  0.011045063          957 
 4070000   0.61274423   -8.1917228    611.03132  0.012510879  0.011040832         1082 
 4071000   0.60258837    -8.180268    611.82046  0.012523959  0.011036593         1040 
 4072000   0.60207294   -8.2045257    612.27967  0.012530281  0.011032369         1116 
 4073000   0.60922435   -8.1738696    612.08776  0.012523279  0.011028146          994 
 4074000   0.60023579   -8.2036623    612.36299  0.012525834  0.011023922         1151 
 4075000   0.58148349   -8.2064492    612.48596  0.012525275  0.011019695          963 
 4076000   0.59535659   -8.1965889    613.18294  0.012536452  0.011015471          990 
 4077000   0.61017477   -8.1840824    612.46748  0.012518753  0.011011257          973 
 4078000   0.59529182   -8.1855766    611.49725  0.012495857  0.011007042          947 
 4079000   0.60259724   -8.1961359    612.31732  0.012509547  0.011002828          875 
 4080000   0.60687134   -8.1830281    612.36105  0.012507374   0.01099862         1014 
 4081000   0.60835311   -8.1855491    612.33828  0.012503845  0.010994413         1000 
 4082000   0.60338266   -8.1829774    610.79732  0.012469323  0.010990207          954 
 4083000   0.60344872   -8.1833775    612.82563  0.012507666  0.010986001         1014 
 4084000    0.5878845   -8.1867097    612.94382  0.012507016  0.010981801         1073 
 4085000    0.6033347   -8.1871226    611.44169  0.012473311  0.010977604          984 
 4086000   0.58218492   -8.2064241      611.271  0.012466777    0.0109734         1101 
 4087000   0.59831958    -8.197582    611.48549    0.0124681    0.0109692         1113 
 4088000   0.59930799   -8.1875706    612.36459   0.01248297  0.010965001         1048 
 4089000   0.60625652   -8.2059248    611.67129  0.012465788  0.010960803         1183 
 4090000   0.59322288   -8.2053501    611.95641  0.012468549  0.010956612         1098 
 4091000   0.58742888   -8.1984134    612.18038  0.012470064  0.010952423         1083 
 4092000   0.58484415   -8.1969995    611.41489  0.012451427  0.010948233         1061 
 4093000   0.59308622   -8.2068131    612.15706  0.012463496  0.010944045         1100 
 4094000    0.5975842   -8.1727693    612.65389  0.012470564  0.010939859          897 
 4095000   0.59210197   -8.2123294    610.90462  0.012431921  0.010935676         1143 
 4096000   0.61217297   -8.2037167    611.40515   0.01243907  0.010931486         1112 
 4097000   0.59823797   -8.2196657    611.30589  0.012434014  0.010927298         1040 
 4098000   0.59163842   -8.2189444    613.48042    0.0124752  0.010923116         1094 
 4099000   0.58696614   -8.2031901    611.81177  0.012438232  0.010918934         1023 
 4100000   0.59185198   -8.1927895    612.95091  0.012458352  0.010914751         1064 
 4101000   0.62398955   -8.2086909    612.49123  0.012445973  0.010910576         1069 
 4102000   0.58520665   -8.2098234    610.77424  0.012408058  0.010906406         1115 
 4103000   0.59701032   -8.2117031    611.58686  0.012421538  0.010902233         1128 
 4104000    0.5954693   -8.1805172    611.14624  0.012409565  0.010898062         1172 
 4105000   0.60308014   -8.2160526    611.96307  0.012423124  0.010893889         1092 
 4106000   0.59153905   -8.2117605    611.32904   0.01240723  0.010889714         1085 
 4107000   0.60066671   -8.2216759    610.98692  0.012397267  0.010885542         1130 
 4108000   0.58217334   -8.2147947     612.3093  0.012421075  0.010881381         1186 
 4109000   0.60179707   -8.1981728    611.57366  0.012403133  0.010877212         1124 
 4110000    0.5869626    -8.231205    610.32984  0.012374895  0.010873048         1116 
 4111000    0.5886865   -8.2156357    611.48743  0.012395351   0.01086889         1151 
 4112000   0.59481014   -8.2256677    611.38217  0.012390203  0.010864731         1074 
 4113000   0.58228741   -8.1831199    612.34115   0.01240662  0.010860581         1055 
 4114000   0.58745997   -8.2048958     611.1683  0.012379847  0.010856428         1061 
 4115000   0.58386811   -8.2388508    611.03991  0.012374239  0.010852279         1047 
 4116000   0.58107973   -8.2145134    610.81477  0.012366674  0.010848126         1170 
 4117000   0.59525845   -8.2025074    611.56389  0.012378834  0.010843983         1152 
 4118000   0.60198552   -8.2100422    612.47676  0.012394301  0.010839835         1104 
 4119000   0.57600395   -8.2119257    610.49402  0.012351178   0.01083569         1112 
 4120000   0.60056198   -8.2187766    612.63677   0.01239152  0.010831546         1034 
 4121000   0.60339614   -8.2199439    611.55425  0.012366623  0.010827409         1131 
 4122000   0.59408629   -8.2116615    612.33901  0.012379488  0.010823275         1113 
 4123000   0.58171508   -8.2043467    610.69815  0.012343321  0.010819142         1097 
 4124000   0.59572191   -8.1982891    611.77121  0.012362011  0.010815008         1124 
 4125000   0.59542346   -8.1876491    611.27442  0.012348978  0.010810875         1139 
 4126000   0.59635874   -8.2016031    611.11499  0.012342765  0.010806746         1133 
 4127000   0.57639166   -8.1971038    611.83759  0.012354365  0.010802613         1124 
 4128000   0.59122393   -8.2218861    610.88617  0.012332166  0.010798489         1063 
 4129000   0.59820283     -8.22128    611.37997  0.012339145  0.010794357         1157 
 4130000    0.6061401   -8.2158041    612.59831  0.012360741   0.01079023         1042 
 4131000   0.59985314   -8.2040636    611.03525  0.012326217  0.010786108         1142 
 4132000   0.59728501     -8.20914    610.53408  0.012313127  0.010781986         1095 
 4133000   0.58559562   -8.2379507    610.80019  0.012315513  0.010777861         1183 
 4134000   0.60436732   -8.2299565    610.72786  0.012311076  0.010773742         1080 
 4135000   0.59583424   -8.2117481    611.73863  0.012328469  0.010769621         1091 
 4136000   0.59008951   -8.2174231    611.02327  0.012311075  0.010765506         1180 
 4137000   0.58883874   -8.2280655    611.74063  0.012322549  0.010761393         1067 
 4138000   0.58218231   -8.2280828    611.78034  0.012320371  0.010757283         1140 
 4139000    0.5787166   -8.2268514     610.4573  0.012290757  0.010753168         1084 
 4140000   0.58745542   -8.2271261    611.94497  0.012317733  0.010749059         1097 
 4141000   0.59103058   -8.2514633    610.56581  0.012287004  0.010744949         1047 
 4142000   0.60015048    -8.224219    611.86695  0.012310215  0.010740842         1138 
 4143000   0.59036825    -8.218158     611.4606  0.012299071   0.01073674         1079 
 4144000   0.59100108     -8.20823    610.73174  0.012281446  0.010732639         1189 
 4145000   0.58613954   -8.2197765    610.76399  0.012279131  0.010728541         1202 
 4146000   0.58777775   -8.2126729    610.36956  0.012268242  0.010724441         1156 
 4147000   0.58663851   -8.2199064    610.70653  0.012272055  0.010720349         1157 
 4148000   0.58491695   -8.2311475    610.99576  0.012274907   0.01071625         1130 
 4149000   0.57864784    -8.244172    610.33808  0.012258739  0.010712152         1068 
 4150000   0.58178433   -8.2021775    610.78079  0.012264674   0.01070806         1191 
 4151000   0.58180907    -8.218845    610.76538   0.01226141   0.01070397         1145 
 4152000   0.58638827   -8.2260308    610.84766  0.012260109  0.010699881         1122 
 4153000   0.59044386   -8.2102852    612.06944  0.012281673  0.010695796         1158 
 4154000   0.59330059   -8.2158515    611.78834  0.012273077  0.010691711         1134 
 4155000   0.59114051   -8.2214321    611.03768  0.012255068  0.010687631         1021 
 4156000   0.57470474     -8.23897    610.95923  0.012250546  0.010683553         1151 
 4157000   0.58929101   -8.2137929    611.55386  0.012259519  0.010679476         1156 
 4158000   0.59084546   -8.2252584    612.29905  0.012271506  0.010675403         1175 
 4159000    0.5797062   -8.2130876    610.58627  0.012234236  0.010671327         1212 
 4160000   0.58392698   -8.2264249    610.77224  0.012235021  0.010667258         1207 
 4161000   0.59068047   -8.2377852    611.82412  0.012253147  0.010663186          980 
 4162000   0.59003537    -8.219423    611.41039  0.012241919  0.010659113         1122 
 4163000   0.58947465    -8.248136    611.92633  0.012249306  0.010655044         1205 
 4164000   0.58834948   -8.2095974    610.24755  0.012212767   0.01065098         1098 
 4165000   0.58698549   -8.2394087    610.78502  0.012220589  0.010646913         1159 
 4166000   0.58351965   -8.2291326    611.17868   0.01222553  0.010642847         1146 
 4167000   0.57796579   -8.2366689    611.18259  0.012222674  0.010638788         1092 
 4168000   0.59250114   -8.2471545    609.84112  0.012192921  0.010634729         1148 
 4169000   0.58054492   -8.2354626    611.33344  0.012219826  0.010630667         1154 
 4170000   0.59233086    -8.232069    610.64425  0.012203122  0.010626612         1194 
 4171000   0.59106351   -8.2091747    611.27405   0.01221278  0.010622558         1129 
 4172000   0.57507053   -8.2485302    611.09402  0.012206256  0.010618507         1187 
 4173000   0.59391612   -8.2264395    610.44961  0.012190463  0.010614453         1127 
 4174000    0.5818864   -8.2307744    611.27134  0.012203948  0.010610404         1216 
 4175000   0.58164385   -8.2356225    610.28138  0.012181265  0.010606359         1123 
 4176000   0.59085854   -8.2430002    611.08057  0.012194296  0.010602316         1272 
 4177000   0.58400037   -8.2245474    611.18611  0.012193482  0.010598276         1178 
 4178000   0.58765942   -8.2300089    610.73382  0.012181543  0.010594235         1047 
 4179000   0.58742159   -8.2381818    611.14185  0.012186764  0.010590202         1202 
 4180000     0.580933   -8.2259704    611.15526  0.012184116  0.010586161         1102 
 4181000   0.57703556   -8.2047844    610.69472  0.012172023  0.010582123         1118 
 4182000   0.58930154   -8.2332716    610.00955  0.012155459   0.01057809         1231 
 4183000   0.58750076   -8.2318543    611.70147  0.012186259  0.010574057         1129 
 4184000    0.5952839   -8.2215643    610.94773  0.012168334  0.010570035         1222 
 4185000   0.58517313   -8.2240377    611.32295  0.012172898  0.010566011         1162 
 4186000   0.58937428    -8.226202    610.82291  0.012160036  0.010561989         1167 
 4187000   0.59101948   -8.2250437    611.20465  0.012164729   0.01055797         1043 
 4188000   0.58329296   -8.2271295    610.58046  0.012149404  0.010553952         1165 
 4189000   0.58074205   -8.2195544    610.53959  0.012145691  0.010549932         1078 
 4190000   0.59345644   -8.2383312    610.80099  0.012147991  0.010545914         1035 
 4191000   0.58742989   -8.2500194    609.59359  0.012121085  0.010541898         1136 
 4192000   0.59261818   -8.2413358    609.74544  0.012121212   0.01053789         1121 
 4193000   0.57962415   -8.2397162    611.41409  0.012151484  0.010533878         1130 
 4194000    0.5816886   -8.2499153    610.31754  0.012126799  0.010529866         1209 
 4195000   0.57809253   -8.2402636    610.59504  0.012129421  0.010525858         1161 
 4196000   0.57842125   -8.2362174    610.56467  0.012125927  0.010521854         1118 
 4197000   0.57438827   -8.2342877     611.0778  0.012133226  0.010517848         1209 
 4198000   0.56573615   -8.2645712    610.64197  0.012121684  0.010513843         1191 
 4199000     0.589621   -8.2295027    611.24816  0.012130828  0.010509838         1149 
 4200000   0.57791709   -8.2310606    610.11265   0.01210541  0.010505834         1026 
 4201000   0.58154826   -8.2296583    611.27262  0.012125538  0.010501831         1195 
 4202000   0.58768074   -8.2392525     609.9274  0.012095974  0.010497835         1179 
 4203000   0.58540199   -8.2264733    610.61645  0.012106758   0.01049384         1210 
 4204000   0.57330354   -8.2467209    610.39038  0.012099397  0.010489849         1126 
 4205000   0.58283976   -8.2355175    609.98752  0.012088536  0.010485857         1016 
 4206000   0.57847048   -8.2525179    610.26015  0.012091063  0.010481869         1160 
 4207000   0.58369235   -8.2592161    611.23059  0.012107412  0.010477883         1124 
 4208000   0.56981349     -8.23975    609.94581  0.012079092  0.010473901         1138 
 4209000    0.5784411   -8.2355093    610.30238  0.012083281  0.010469914         1088 
 4210000   0.58556096   -8.2467452    610.94986  0.012093228  0.010465925         1168 
 4211000   0.57377909   -8.2394436    611.16313  0.012094576  0.010461942         1124 
 4212000   0.58001461   -8.2525873    609.75149  0.012063776  0.010457965         1069 
 4213000   0.58157977   -8.2558337    610.76059  0.012080872  0.010453987         1103 
 4214000   0.59394625    -8.252314    610.43261   0.01207152  0.010450005         1101 
 4215000   0.56488374   -8.2602478    610.25396  0.012065124  0.010446027          989 
 4216000   0.58217039   -8.2400397    610.31279  0.012063425  0.010442053         1109 
 4217000   0.57829765   -8.2473828    609.95861  0.012053565  0.010438081         1096 
 4218000   0.56734087   -8.2380402    610.00086  0.012051542  0.010434114         1105 
 4219000    0.5791384   -8.2568996    611.02494  0.012068913  0.010430146         1173 
 4220000   0.56803728    -8.256612    608.60534  0.012018273  0.010426179         1064 
 4221000   0.57814085   -8.2466601    609.82553  0.012039515  0.010422214         1109 
 4222000   0.58133914   -8.2505847    608.76539  0.012015739  0.010418253         1088 
 4223000   0.57072038   -8.2421897    609.00773  0.012017676  0.010414292         1109 
 4224000   0.58154011   -8.2491015    609.59661  0.012026448  0.010410332         1120 
 4225000   0.59371254   -8.2620308    609.19626  0.012015705  0.010406375         1038 
 4226000   0.58062335   -8.2498153    610.21804  0.012033011   0.01040242         1057 
 4227000   0.56850467   -8.2566767    610.55665   0.01203684  0.010398466         1142 
 4228000   0.57229259   -8.2499821    611.10745  0.012044849  0.010394507         1027 
 4229000   0.59223188   -8.2551236    609.89631  0.012018135  0.010390561         1073 
 4230000   0.56338502   -8.2408189    609.98997  0.012017139  0.010386615         1016 
 4231000    0.5714146    -8.249278    609.78745   0.01201031  0.010382665         1115 
 4232000    0.5796484   -8.2759241    610.11748  0.012013971   0.01037872         1094 
 4233000   0.57607465   -8.2375507    611.25296  0.012033486   0.01037478         1101 
 4234000   0.57601738    -8.242437    610.41578  0.012014167  0.010370846         1120 
 4235000   0.56334053   -8.2468607    610.08048  0.012004732   0.01036691         1055 
 4236000    0.5715835   -8.2612341    610.42595  0.012008694  0.010362974         1143 
 4237000   0.58213959   -8.2487758    611.24311  0.012021932  0.010359041         1106 
 4238000   0.57610888   -8.2545841     610.5489  0.012005445   0.01035511         1196 
 4239000    0.5774917   -8.2352247    609.69233  0.011985774  0.010351182         1150 
 4240000   0.57056217   -8.2469664    610.21543  0.011993228  0.010347259         1078 
 4241000   0.57520774   -8.2463603    611.04064  0.012006615  0.010343339         1113 
 4242000   0.57795006   -8.2612572    609.36163    0.0119708  0.010339414         1167 
 4243000   0.55600637   -8.2786318    610.48372  0.011990017  0.010335493         1107 
 4244000   0.56559421   -8.2637619    610.42919  0.011986121  0.010331574         1074 
 4245000   0.57245719   -8.2404655    609.94054  0.011973705  0.010327653         1131 
 4246000   0.57227512   -8.2536721    609.63284  0.011964846  0.010323741         1130 
 4247000   0.57801533   -8.2632883    610.74179  0.011983788  0.010319827         1065 
 4248000   0.56673674   -8.2480805    610.00508  0.011966515   0.01031591         1135 
 4249000   0.56543991   -8.2638312    609.99162  0.011963435  0.010312003         1155 
 4250000    0.5713145   -8.2516743     608.9948  0.011941075  0.010308092         1156 
 4251000   0.57395231   -8.2498771    609.87513  0.011955523  0.010304184         1126 
 4252000   0.56954401   -8.2610697    609.53604  0.011946065  0.010300279         1157 
 4253000   0.56440022   -8.2519291    608.77525   0.01192835  0.010296369         1094 
 4254000   0.56430716   -8.2516601    609.83775  0.011946359  0.010292459         1083 
 4255000   0.56984621   -8.2710381    611.72184  0.011980451  0.010288553         1131 
 4256000   0.57702405   -8.2503422    610.21953  0.011948221  0.010284654         1028 
 4257000   0.57608591   -8.2458285     609.0652  0.011922817  0.010280756         1048 
 4258000   0.55719007   -8.2718707    609.34329   0.01192546  0.010276861         1066 
 4259000   0.55621136   -8.2563513    610.25649  0.011940528   0.01027297         1090 
 4260000   0.58614631   -8.2564079     610.6803  0.011946015  0.010269076         1122 
 4261000   0.57743765   -8.2676689    609.39097  0.011917996  0.010265186         1196 
 4262000    0.5827395   -8.2522049    610.36222   0.01193419  0.010261303         1082 
 4263000   0.57845233   -8.2424169    610.45783   0.01193326  0.010257416         1088 
 4264000   0.55918275   -8.2582802    610.55696  0.011932398   0.01025353         1054 
 4265000   0.57764897   -8.2459876    609.97644  0.011918258  0.010249646         1068 
 4266000   0.57978218   -8.2755442    610.24625  0.011920735  0.010245765         1123 
 4267000   0.57931919   -8.2642963    608.62187  0.011886217  0.010241887         1046 
 4268000   0.57899082   -8.2589359    609.32328  0.011897127   0.01023801         1163 
 4269000   0.58343214   -8.2524676    609.92749  0.011906135  0.010234135         1198 
 4270000   0.58981289    -8.264743    609.54544  0.011895891  0.010230261         1109 
 4271000   0.56917133   -8.2726594    610.11634  0.011904245  0.010226392         1065 
 4272000   0.57285308   -8.2782424    609.74579   0.01189423   0.01022252         1099 
 4273000   0.56970606    -8.256565    609.30706   0.01188289  0.010218649         1068 
 4274000   0.56368219   -8.2554962    609.30212  0.011880013  0.010214782         1112 
 4275000   0.56310504   -8.2536277    611.06011  0.011911503   0.01021092         1059 
 4276000   0.56649933   -8.2643969    608.78152  0.011864311  0.010207054         1044 
 4277000   0.56428439   -8.2885305    609.87291  0.011882802  0.010203192         1130 
 4278000   0.57162247   -8.2546004    609.18654  0.011866654  0.010199331         1104 
 4279000   0.57267545   -8.2397394    610.44957  0.011888478  0.010195473         1004 
 4280000   0.55582629   -8.2555991    609.95789  0.011876127  0.010191615         1048 
 4281000   0.56274744   -8.2633934    608.29628  0.011841008  0.010187757         1125 
 4282000   0.58229635   -8.2773792    610.49122  0.011880959  0.010183904         1092 
 4283000     0.568391   -8.2558546    610.16343  0.011871808  0.010180053         1099 
 4284000   0.55780629   -8.3040855    608.66663  0.011839921  0.010176199         1172 
 4285000   0.57238797   -8.2709947    609.83753  0.011859929  0.010172342         1072 
 4286000   0.56534077   -8.2526543    609.83566  0.011857125  0.010168499          983 
 4287000   0.56294139   -8.2927323    608.41931  0.011826827  0.010164651         1061 
 4288000   0.56037041   -8.2653807    609.79037  0.011850715  0.010160808         1064 
 4289000   0.55044807    -8.292506    608.93537  0.011831339  0.010156963         1165 
 4290000   0.55662439   -8.2618253    610.04462  0.011850129  0.010153124         1078 
 4291000   0.56377019   -8.2750109    609.93638  0.011845265  0.010149289         1118 
 4292000   0.56322003   -8.2732896    609.54701  0.011834945  0.010145451         1111 
 4293000   0.56251475   -8.2739266    609.58933   0.01183301  0.010141613         1032 
 4294000    0.5528564   -8.2649565    609.31245  0.011824881  0.010137783         1133 
 4295000   0.55796667   -8.2709702    608.29724   0.01180243  0.010133953         1113 
 4296000   0.55807165   -8.2617182    609.01669  0.011813638  0.010130126         1059 
 4297000   0.57762086   -8.2546677    609.95528  0.011829092  0.010126305         1135 
 4298000   0.55943496    -8.263805    609.00369  0.011807889  0.010122485         1111 
 4299000    0.5497255   -8.2701849    608.08277  0.011787291  0.010118664         1115 
 4300000   0.56873215   -8.2651572    609.55636  0.011813108  0.010114842         1087 
 4301000   0.56795031    -8.283067    608.11817  0.011782496  0.010111021         1145 
 4302000    0.5664758   -8.2952542    609.66511  0.011809722  0.010107204         1088 
 4303000   0.56353554   -8.2754214    609.40356  0.011801913  0.010103389         1080 
 4304000   0.57033026    -8.303757    608.30053  0.011777814  0.010099573         1069 
 4305000   0.55575546   -8.2720469    610.01442  0.011808254  0.010095761         1157 
 4306000    0.5710863   -8.2789752    609.82715  0.011801888  0.010091953         1109 
 4307000   0.56050481   -8.2618753    609.07003  0.011784499  0.010088144         1060 
 4308000   0.55124804   -8.2838767    609.27664   0.01178576  0.010084339         1054 
 4309000   0.55241928   -8.2880216    609.31331  0.011783734  0.010080533         1034 
 4310000   0.56113279    -8.266139    610.25032  0.011799117  0.010076734         1085 
 4311000   0.55750984   -8.2706213    609.62148  0.011784224  0.010072934         1019 
 4312000   0.55312068   -8.2681829     607.9535  0.011749256  0.010069132         1057 
 4313000   0.56310417   -8.2722169    608.71471  0.011761239  0.010065335         1129 
 4314000   0.56928309   -8.2757733    608.90974  0.011762281  0.010061538         1089 
 4315000   0.56300278   -8.2760705    609.31955  0.011767469  0.010057744         1102 
 4316000   0.56320147   -8.2896117    608.62487   0.01175133  0.010053952         1077 
 4317000   0.57749644   -8.2667667    609.12047  0.011758174  0.010050159         1027 
 4318000    0.5710628   -8.2702323    608.82465  0.011749742   0.01004637         1093 
 4319000   0.55967973   -8.2663173     610.4143  0.011777694  0.010042581         1120 
 4320000   0.56175176    -8.283334    609.44219  0.011756215  0.010038793         1008 
 4321000   0.56400099   -8.2812345    609.07041  0.011746324   0.01003501         1139 
 4322000   0.56826247   -8.2698719    609.09192  0.011744021  0.010031225         1144 
 4323000   0.55342684   -8.2814202    609.76205  0.011754223   0.01002744         1095 
 4324000   0.55790397   -8.2846625    609.44928  0.011745476  0.010023663         1075 
 4325000   0.55237074   -8.2864445    608.01417  0.011715109  0.010019883         1041 
 4326000   0.55942549   -8.2896934    608.86112  0.011728716  0.010016106         1056 
 4327000   0.54676349   -8.2934851    610.06499  0.011749191  0.010012334          977 
 4328000   0.55584249   -8.2811309    608.55024  0.011717311  0.010008561         1109 
 4329000   0.56473913   -8.2893974    609.62803  0.011735351  0.010004791         1140 
 4330000   0.55549954   -8.2741581    608.70504  0.011714878  0.010001021         1009 
 4331000   0.55490524   -8.3000991    608.27353   0.01170387 0.0099972549         1096 
 4332000   0.56500995   -8.2913633     608.4762  0.011705067 0.0099934903         1100 
 4333000   0.55953458   -8.2787911    609.41154  0.011720354 0.0099897264         1170 
 4334000   0.55130723   -8.2723814     609.6647  0.011722518 0.0099859657         1172 
 4335000   0.56073088   -8.2933849    608.54155  0.011698223 0.0099822083          940 
 4336000   0.55356436   -8.2706735    610.26443  0.011728637 0.0099784525          999 
 4337000   0.56620596   -8.2811218    608.99723  0.011701584 0.0099746961         1105 
 4338000   0.55960246   -8.2943315     608.1418  0.011682454 0.0099709415         1101 
 4339000    0.5580744   -8.2906309    608.56396  0.011687869 0.0099671896         1115 
 4340000   0.55480625   -8.2740819    609.98145  0.011712393 0.0099634401         1125 
 4341000   0.56368582   -8.2743881    609.66758   0.01170367  0.009959695         1025 
 4342000   0.56826265   -8.2855415     609.4113  0.011696056 0.0099559499         1039 
 4343000   0.56027177   -8.2763895     609.2924  0.011691081 0.0099522077         1049 
 4344000   0.55915959   -8.2841708    609.24556  0.011687492 0.0099484679         1011 
 4345000   0.55636452    -8.271617    609.93076  0.011697943 0.0099447314         1079 
 4346000   0.56319361   -8.2970468    609.22937  0.011681803 0.0099409932         1117 
 4347000   0.55895764   -8.2903076    609.35978  0.011681615 0.0099372551         1119 
 4348000   0.55806238   -8.2886342    609.31066  0.011677987 0.0099335215          977 
 4349000   0.56567986   -8.2842683    608.64187  0.011662487 0.0099297908         1220 
 4350000   0.54185989   -8.2804917    609.45203  0.011675326 0.0099260609         1022 
 4351000   0.55746582   -8.2773077    609.39002  0.011671455  0.009922329         1033 
 4352000   0.55322928   -8.2894787    608.59446   0.01165354 0.0099185983         1064 
 4353000    0.5520587   -8.2897584    608.57314  0.011650454 0.0099148743         1117 
 4354000   0.56387957   -8.2759162    609.62651   0.01166794 0.0099111494         1000 
 4355000   0.56166497   -8.2765457    609.18087  0.011656733 0.0099074276         1035 
 4356000   0.55379024   -8.2859638    609.72621   0.01166449 0.0099037102          956 
 4357000   0.55968428   -8.2602202    609.84144  0.011664016  0.009899993         1133 
 4358000   0.55251955   -8.2712453     607.9671  0.011625499 0.0098962778         1087 
 4359000   0.54882212   -8.2804912    608.73347  0.011637483 0.0098925688         1107 
 4360000   0.55079692   -8.2827572    609.71536  0.011653581 0.0098888606         1097 
 4361000   0.55564582   -8.2961544    608.84799  0.011634334 0.0098851515         1132 
 4362000   0.55115463   -8.2650314    609.21331  0.011638646  0.009881441          964 
 4363000   0.54727433   -8.2914354    608.02737  0.011613327 0.0098777345         1055 
 4364000   0.56090324   -8.2795156    609.84811  0.011645435 0.0098740296         1124 
 4365000   0.55563251   -8.2858724    608.35119  0.011614189 0.0098703268         1056 
 4366000   0.54814862   -8.2786528    608.71834  0.011618536 0.0098666274         1029 
 4367000   0.56088378   -8.2615511    609.07534  0.011622688 0.0098629279         1133 
 4368000   0.55690989   -8.2968336    608.00847  0.011599673 0.0098592332         1113 
 4369000   0.55025044   -8.2742274    609.01211  0.011616161 0.0098555375         1049 
 4370000   0.56766195   -8.2891536    608.72961  0.011608116 0.0098518402          992 
 4371000   0.56165882    -8.299931    609.62425  0.011622517 0.0098481503         1042 
 4372000   0.54414494   -8.2821101    608.37913  0.011596126 0.0098444645         1120 
 4373000   0.56461888   -8.2752155    608.16851   0.01158946 0.0098407778         1076 
 4374000   0.55511187   -8.2855579    608.58314   0.01159471 0.0098370923         1092 
 4375000   0.55227518   -8.2798394    609.84475  0.011616091 0.0098334082         1086 
 4376000   0.55632172    -8.281792    608.97217  0.011596819 0.0098297252         1093 
 4377000   0.55620609   -8.2890466    609.69706  0.011607971 0.0098260434         1087 
 4378000   0.54902093   -8.2980849    608.38313  0.011580309  0.009822364         1156 
 4379000   0.55792121   -8.2894846    609.45397  0.011598043 0.0098186833         1151 
 4380000   0.55698903   -8.2987083    608.11842  0.011569985 0.0098150044         1012 
 4381000   0.54499686   -8.2731619     608.4887  0.011574387 0.0098113313          961 
 4382000   0.54438773   -8.2700001    609.87358  0.011598083 0.0098076604         1025 
 4383000   0.54999558   -8.2797521    609.47163  0.011587794  0.009803989          986 
 4384000   0.56537368   -8.2818264    608.86576  0.011573635 0.0098003222         1091 
 4385000   0.54739553   -8.2790925    608.66404  0.011567161 0.0097966588         1110 
 4386000   0.55335838   -8.2863345    608.86439  0.011568331 0.0097929951         1111 
 4387000   0.55818586   -8.2817771    609.32544  0.011574452 0.0097893301         1068 
 4388000   0.55211542   -8.3109869    608.13061  0.011549123 0.0097856662         1129 
 4389000   0.54682757   -8.2706512    609.38347  0.011570279  0.009782003         1102 
 4390000   0.54008543   -8.2931073    608.20019  0.011545182 0.0097783418         1082 
 4391000   0.56255683   -8.2740849     609.3214  0.011563831 0.0097746849         1103 
 4392000   0.55171308   -8.2844297    609.15083  0.011557962 0.0097710275         1137 
 4393000   0.53657272   -8.2880164    608.32876  0.011539737 0.0097673732         1132 
 4394000    0.5577254   -8.2757104    608.37125  0.011537916 0.0097637275         1091 
 4395000    0.5443947   -8.2883851    608.18789  0.011531814 0.0097600807         1029 
 4396000   0.55149782   -8.3079217    608.27824  0.011530904 0.0097564321         1113 
 4397000   0.56192689   -8.3084691    609.03622  0.011542647 0.0097527907         1086 
 4398000   0.55095974    -8.301001    607.41534   0.01150931 0.0097491467         1132 
 4399000   0.54032521   -8.2787708    608.57671  0.011528694 0.0097455042         1068 
 4400000   0.55258229   -8.2838473    609.24047  0.011538645 0.0097418645         1060 
 4401000   0.56373879   -8.2867452    609.30797  0.011537302 0.0097382278         1079 
 4402000   0.55241313   -8.2822441    609.03115   0.01152944 0.0097345907         1080 
 4403000   0.55428341   -8.3092482    609.68363  0.011539171 0.0097309557         1021 
 4404000   0.56108756   -8.2929185    608.54364   0.01151498 0.0097273228         1042 
 4405000    0.5524499   -8.3029168    609.22813  0.011525315 0.0097236929          992 
 4406000   0.55425038   -8.2987823    608.54683  0.011509813 0.0097200606         1131 
 4407000   0.54870594   -8.3056715    608.12891  0.011499299 0.0097164322         1140 
 4408000   0.54640406   -8.2814818    609.12286  0.011515481 0.0097128102         1097 
 4409000   0.54735529   -8.2844505    607.80384  0.011487938 0.0097091839          929 
 4410000   0.55315242   -8.2891667    608.01787  0.011489378 0.0097055603         1110 
 4411000   0.54782966   -8.2926664    608.72413  0.011500116 0.0097019394         1168 
 4412000   0.54407759   -8.2999377    608.99611  0.011502646 0.0096983203         1150 
 4413000   0.55906372   -8.3054027    608.20948  0.011485185 0.0096947022         1139 
 4414000   0.55514569    -8.293242    608.91751  0.011495951 0.0096910887         1075 
 4415000   0.54790687   -8.2835144    608.94804  0.011493923 0.0096874744         1115 
 4416000   0.55575272   -8.2960014    607.86099  0.011470807  0.009683862         1054 
 4417000   0.53501409   -8.3047063    608.88735  0.011487574 0.0096802535         1110 
 4418000   0.54457814   -8.2930535    609.58688  0.011498168 0.0096766425         1130 
 4419000   0.53444455   -8.2908761    607.96115  0.011464908 0.0096730318         1075 
 4420000   0.54105366    -8.280808    609.15156  0.011484758 0.0096694264         1056 
 4421000   0.54149346   -8.2858834    609.47838   0.01148832  0.009665819         1085 
 4422000   0.54444832   -8.2918382    608.97311  0.011476201 0.0096622137         1083 
 4423000    0.5375019    -8.310094    607.99916  0.011455256 0.0096586071         1018 
 4424000   0.55260923   -8.3013284    609.25492  0.011476321 0.0096550085         1070 
 4425000   0.54854193   -8.2917974    609.25447  0.011473719 0.0096514074         1048 
 4426000   0.55418213   -8.3190787    608.93952  0.011465197 0.0096478128         1149 
 4427000   0.55135501   -8.3170417    608.09443  0.011446699  0.009644216         1138 
 4428000   0.54416143   -8.3184712    608.40056  0.011449875 0.0096406209         1158 
 4429000   0.54405828   -8.3192941    608.62008   0.01145142  0.009637032         1070 
 4430000   0.55809295   -8.3042021    608.19339  0.011440809 0.0096334417         1121 
 4431000    0.5369694   -8.3149449    607.97941  0.011434202 0.0096298503         1111 
 4432000   0.54955334   -8.3081573    608.95575   0.01144998 0.0096262606         1095 
 4433000   0.53513259   -8.3121611    608.14665  0.011432188 0.0096226742         1068 
 4434000   0.53415944    -8.309103    608.66367  0.011439326 0.0096190897         1030 
 4435000   0.53570762   -8.3147276    608.14853  0.011427067   0.00961551         1062 
 4436000   0.53480734   -8.3002879    608.59866  0.011432948 0.0096119328         1040 
 4437000   0.55520915     -8.31205    607.90755  0.011417391 0.0096083546         1081 
 4438000   0.54325157   -8.3002231    608.16143  0.011419585 0.0096047757         1220 
 4439000   0.53949691   -8.3078354    609.25367  0.011437517 0.0096011997         1092 
 4440000   0.54370639   -8.3068626    608.82477  0.011426891 0.0095976248         1049 
 4441000   0.53896713   -8.3182154    607.04733  0.011390965 0.0095940488         1025 
 4442000    0.5483709   -8.3132818    607.41337  0.011395268 0.0095904742         1066 
 4443000   0.54172664   -8.2891305     608.3716  0.011410676 0.0095869052         1046 
 4444000    0.5481113   -8.3046883    607.10139  0.011384289 0.0095833396         1112 
 4445000   0.53134537   -8.3204103    608.04533  0.011399425 0.0095797689         1025 
 4446000   0.54983414   -8.3134147    607.27512  0.011382425  0.009576205         1115 
 4447000   0.53694063   -8.3091551     607.4231  0.011382638 0.0095726403         1136 
 4448000   0.54859506   -8.3247595    607.80993  0.011387326 0.0095690807         1122 
 4449000   0.53039327   -8.3014396    608.81744  0.011403638 0.0095655257         1133 
 4450000    0.5493332   -8.2957172    608.03233  0.011386373 0.0095619685         1129 
 4451000   0.55488801    -8.314027    608.01405  0.011383473 0.0095584125         1115 
 4452000   0.55635343   -8.3012736    608.54072  0.011390774  0.009554863         1115 
 4453000   0.54175693   -8.3152217    607.37932  0.011366482 0.0095513161         1070 
 4454000   0.53710502   -8.2866522    608.61086  0.011386972 0.0095477691         1126 
 4455000   0.53921954   -8.3220873    608.06773  0.011374256 0.0095442255         1144 
 4456000   0.54482325   -8.2890988    607.78702  0.011366454  0.009540678         1124 
 4457000   0.53578001   -8.3041512    608.70943   0.01138115 0.0095371351         1064 
 4458000   0.53232218   -8.2910221    609.38667  0.011391257 0.0095335916         1112 
 4459000   0.53535523   -8.2955549    607.60913  0.011355482  0.009530052         1151 
 4460000   0.52756632   -8.2893631    608.77543  0.011374728 0.0095265117         1131 
 4461000   0.54395908   -8.3062035    607.81809  0.011354294 0.0095229728         1074 
 4462000   0.53955895   -8.3117739    607.64058  0.011348435 0.0095194362         1104 
 4463000   0.53954683   -8.3012279    608.16571  0.011355697 0.0095159029         1114 
 4464000   0.53130498    -8.329353    608.07336  0.011351429 0.0095123693         1178 
 4465000   0.55115466   -8.3235312    607.82001  0.011344158 0.0095088396         1063 
 4466000   0.54662216   -8.3304968    608.91891  0.011362123 0.0095053135         1081 
 4467000    0.5298143   -8.3204421    607.89667   0.01134051 0.0095017851         1069 
 4468000   0.54067973   -8.3065698    608.40936  0.011347533 0.0094982582         1119 
 4469000   0.53296774   -8.3022416    607.64834  0.011330804 0.0094947364         1135 
 4470000   0.53687436   -8.3120476     607.2887  0.011321564 0.0094912098         1176 
 4471000     0.535662   -8.3035447    608.28489    0.0113376 0.0094876879         1057 
 4472000   0.52945584    -8.287792    607.58602  0.011322041 0.0094841675         1110 
 4473000   0.54479814   -8.3213517    608.25579  0.011331988 0.0094806519         1092 
 4474000   0.53886407   -8.3198674    608.85938  0.011340698 0.0094771352          977 
 4475000   0.53471016   -8.3112323    608.44799  0.011330503 0.0094736199         1122 
 4476000   0.54539044    -8.313516    607.46353  0.011309643 0.0094701087         1052 
 4477000   0.54319333   -8.3215048    607.57878  0.011309262 0.0094665976         1115 
 4478000   0.53075167   -8.3393747    607.29574  0.011301469 0.0094630893         1103 
 4479000   0.53285311   -8.3199156     607.4961  0.011302674   0.00945958         1079 
 4480000   0.53637008   -8.3279571    607.71012  0.011304132 0.0094560717         1238 
 4481000   0.53564214   -8.3031044    607.99812  0.011306965 0.0094525695         1150 
 4482000   0.53093943   -8.3269085    607.14039  0.011288495  0.009449066         1125 
 4483000   0.54499432   -8.3216225    607.61176  0.011294739 0.0094455622         1117 
 4484000   0.52781936   -8.3285966    608.07773   0.01130088 0.0094420622          998 
 4485000   0.53804149   -8.3347864    607.07405  0.011279711 0.0094385619         1083 
 4486000   0.53735564   -8.3226259    606.41092  0.011264878 0.0094350645         1111 
 4487000   0.53357263   -8.3429371    607.46139  0.011281877 0.0094315665         1128 
 4488000   0.53660564   -8.3266445    607.71386  0.011284051 0.0094280719         1169 
 4489000   0.53659492   -8.3146266    608.27263   0.01129191  0.009424579         1074 
 4490000     0.524565   -8.3408764    607.02365  0.011266215 0.0094210871         1015 
 4491000   0.53127698   -8.3213309     607.4523   0.01127166 0.0094175965         1168 
 4492000   0.52598027   -8.3139519    607.21058  0.011264666 0.0094141069         1108 
 4493000   0.53216656   -8.3267409     607.3451  0.011264654 0.0094106208         1065 
 4494000   0.53896162   -8.3305555    607.66811  0.011268137 0.0094071325          990 
 4495000   0.53540258   -8.3167508    608.26964  0.011276782 0.0094036492         1028 
 4496000   0.52889192   -8.3286495     607.7834  0.011265262 0.0094001666         1164 
 4497000   0.52887117   -8.3309637    608.15024  0.011269554 0.0093966817         1071 
 4498000   0.51521454   -8.3261301    607.71011  0.011258895 0.0093932063         1176 
 4499000   0.52893777   -8.3351045    608.29982  0.011267315 0.0093897263         1041 
 4500000   0.52667518   -8.3235741    607.90311  0.011257465 0.0093862532         1097 
 4501000   0.53200432   -8.3295859    607.47009  0.011246947 0.0093827788         1180 
 4502000   0.53524197   -8.3385813    607.77945  0.011250175 0.0093793036         1130 
 4503000   0.52496843   -8.3221609    607.56098  0.011243633 0.0093758352         1187 
 4504000   0.54084335   -8.3342486    607.67409   0.01124323 0.0093723674         1119 
 4505000   0.53231788   -8.3484134    607.29956  0.011233806 0.0093689013         1055 
 4506000   0.52914932   -8.3109059    607.61385  0.011237125 0.0093654356         1125 
 4507000   0.52663435   -8.3254772    607.18739  0.011226747 0.0093619729         1166 
 4508000   0.53375106   -8.3235123    607.83307  0.011236192 0.0093585069         1087 
 4509000   0.52379005   -8.3257557    608.00754  0.011236925 0.0093550482         1153 
 4510000   0.54107508   -8.3258437    607.08497  0.011217387  0.009351587         1142 
 4511000   0.51946109   -8.3228489    608.26283  0.011236659 0.0093481309         1115 
 4512000   0.53159795   -8.3187902    607.47821  0.011219677 0.0093446753         1127 
 4513000    0.5358308   -8.3163643    607.37473   0.01121528 0.0093412216         1048 
 4514000   0.52777674   -8.3373209    608.03211  0.011224932 0.0093377711         1126 
 4515000   0.53272061    -8.326711    608.24168  0.011226314 0.0093343211         1171 
 4516000   0.54323019    -8.331126    608.01518  0.011219648 0.0093308729         1094 
 4517000    0.5299176   -8.3364886     608.7905  0.011231468 0.0093274262         1156 
 4518000   0.53240169   -8.3251507    607.28633  0.011201238 0.0093239794         1186 
 4519000   0.53561367   -8.3494804    607.44339  0.011201656 0.0093205356         1127 
 4520000   0.54902263   -8.3258534    606.78297  0.011187002 0.0093170929         1175 
 4521000   0.52182602   -8.3469466    607.58793  0.011199365 0.0093136531         1110 
 4522000   0.53264697   -8.3550895    608.36391  0.011211188 0.0093102185         1187 
 4523000   0.51929253   -8.3189552    607.55701  0.011193843 0.0093067855         1127 
 4524000   0.53468349   -8.3436193    607.82704  0.011196343 0.0093033517         1139 
 4525000   0.52845229   -8.3156156    607.76021  0.011192637 0.0092999171         1141 
 4526000   0.53242693    -8.348611    607.46291  0.011184691 0.0092964886         1188 
 4527000   0.52847568   -8.3102932    608.56519  0.011202511 0.0092930612         1047 
 4528000   0.52369329   -8.3333603    608.71797  0.011202848 0.0092896329         1138 
 4529000   0.53754212   -8.3237482    607.88039  0.011184963 0.0092862048         1050 
 4530000   0.52975714    -8.321411    607.05259  0.011167266 0.0092827777         1112 
 4531000      0.52401   -8.3162423    606.82343  0.011160587 0.0092793542         1171 
 4532000   0.52813952   -8.3254862    607.79035  0.011175904 0.0092759325         1141 
 4533000   0.51606719   -8.3340334    606.67231  0.011152885 0.0092725125         1148 
 4534000   0.51444337   -8.3139896    607.95541  0.011174008 0.0092690965         1042 
 4535000   0.52501657   -8.3267399    608.21027  0.011176227 0.0092656807         1112 
 4536000    0.5225285   -8.3346121    607.40813  0.011159027 0.0092622665         1130 
 4537000   0.52396015   -8.3287536    607.31623  0.011154879 0.0092588526         1108 
 4538000   0.52040271   -8.3365344    607.12431  0.011148897 0.0092554381         1173 
 4539000   0.52939007   -8.3282127    606.91337  0.011142568 0.0092520255         1170 
 4540000   0.52338289   -8.3377535    606.76103  0.011137317 0.0092486174         1194 
 4541000   0.52102633   -8.3480764    607.76142  0.011153223 0.0092452097         1143 
 4542000   0.53086077   -8.3361429    607.42247  0.011144548 0.0092417994         1174 
 4543000   0.52022658     -8.33132    607.45545    0.0111427 0.0092383934         1212 
 4544000   0.52821289   -8.3544381    606.56129   0.01112385 0.0092349924         1145 
 4545000   0.53237017   -8.3370869    607.76066  0.011143393 0.0092315915         1119 
 4546000   0.53555937   -8.3466356    608.06753  0.011146567 0.0092281931         1114 
 4547000   0.51251916   -8.3277318    608.08947  0.011144518 0.0092247982         1168 
 4548000   0.51901387   -8.3449858    607.27063  0.011127064 0.0092214016         1128 
 4549000   0.53415123   -8.3483703    607.37077  0.011126452 0.0092180037         1165 
 4550000   0.51338242   -8.3419491    607.57745  0.011127792 0.0092146112         1131 
 4551000     0.511787   -8.3283612    608.19642  0.011136681 0.0092112192         1134 
 4552000   0.52954268   -8.3324874    608.26041  0.011135406  0.009207831         1115 
 4553000   0.50753366   -8.3414146    606.73821  0.011105099 0.0092044416         1183 
 4554000   0.53343315   -8.3243636    606.05845  0.011090222 0.0092010573         1186 
 4555000   0.52414714    -8.354225    606.48383   0.01109557 0.0091976727         1141 
 4556000   0.52477977   -8.3356734    607.66729  0.011114781   0.00919429         1117 
 4557000   0.51099403   -8.3247144    607.88655  0.011116351 0.0091909076         1081 
 4558000   0.52565036   -8.3256431    606.92422  0.011096318 0.0091875283         1144 
 4559000   0.52157893   -8.3425371    607.09525   0.01109701 0.0091841494         1006 
 4560000   0.52689631   -8.3404865     607.1253  0.011095126  0.009180775         1164 
 4561000   0.51498534   -8.3408704    607.43772  0.011098402 0.0091774012         1032 
 4562000   0.52055078   -8.3372543    607.24988  0.011092538 0.0091740263         1149 
 4563000   0.52198168   -8.3354955    607.40785  0.011092992 0.0091706565         1106 
 4564000   0.52326316   -8.3431302    607.45645  0.011091449 0.0091672831         1142 
 4565000   0.51561243    -8.351402    606.75417  0.011076199 0.0091639129         1207 
 4566000   0.52133897   -8.3465397    606.98417  0.011077971 0.0091605442         1158 
 4567000   0.51323621   -8.3140957    608.02726  0.011094578 0.0091571755         1159 
 4568000   0.51119508   -8.3437095    608.17727  0.011094886 0.0091538144         1103 
 4569000   0.51771166    -8.337808    606.78303  0.011067028 0.0091504492         1164 
 4570000   0.52084528   -8.3370214     607.4713  0.011077157 0.0091470883         1196 
 4571000   0.51632795   -8.3542258    606.75717  0.011061715 0.0091437252         1155 
 4572000   0.51844348   -8.3235897    607.18723  0.011067134 0.0091403651         1133 
 4573000   0.52029491   -8.3430577    607.21061   0.01106514 0.0091370063         1144 
 4574000   0.51586462   -8.3570213     607.0747  0.011060245 0.0091336498         1141 
 4575000   0.51651869    -8.349594    606.85333  0.011053795 0.0091302947         1127 
 4576000   0.51631075   -8.3571171    606.73866  0.011049291 0.0091269406         1151 
 4577000   0.50336317   -8.3510309    606.78606   0.01104774 0.0091235882         1172 
 4578000   0.52213539   -8.3310851    607.75161  0.011062902 0.0091202377         1122 
 4579000   0.50844549   -8.3485587    607.56264  0.011057047 0.0091168901         1133 
 4580000   0.51069978   -8.3319786     606.6847  0.011038659 0.0091135409         1117 
 4581000   0.51324066   -8.3313114    606.56114  0.011034002 0.0091101962         1094 
 4582000   0.51901723   -8.3379029    606.94633  0.011038599 0.0091068526         1155 
 4583000   0.51955327   -8.3377739     607.5604  0.011047356 0.0091035127         1080 
 4584000   0.51722379   -8.3293395     607.2476   0.01103926 0.0091001697         1116 
 4585000   0.52530163   -8.3282697    606.55749  0.011024309 0.0090968274         1156 
 4586000   0.51896332   -8.3533133    607.10572  0.011031867 0.0090934905         1138 
 4587000   0.51140646   -8.3313123     607.5778  0.011038039 0.0090901575         1122 
 4588000   0.50686566    -8.348968    607.35288  0.011031547 0.0090868261         1263 
 4589000   0.52520839   -8.3374055    607.22328   0.01102679 0.0090834933         1236 
 4590000   0.52212008   -8.3537777    605.46831  0.010992526 0.0090801607         1161 
 4591000   0.51538144   -8.3642373     606.0871  0.011001363 0.0090768289         1130 
 4592000   0.51325582   -8.3428406    607.68829  0.011028025 0.0090735025         1067 
 4593000   0.51164391   -8.3585696    607.51202  0.011022426 0.0090701759         1203 
 4594000   0.52010982   -8.3474329    606.98741   0.01101051 0.0090668548         1167 
 4595000   0.52071655   -8.3454407    606.63784  0.011001774   0.00906353         1121 
 4596000   0.50915123   -8.3476284    607.85396  0.011021431 0.0090602039         1235 
 4597000   0.50849879   -8.3500017    606.56491  0.010995666 0.0090568828         1177 
 4598000   0.51747814   -8.3454785    606.95768  0.011000393 0.0090535669         1079 
 4599000   0.51340457   -8.3699303    606.61992  0.010991881 0.0090502498         1184 
 4600000   0.51464206   -8.3444404     607.0889  0.010997987  0.009046935         1183 
 4601000    0.5091147   -8.3556247    607.18169  0.010997278 0.0090436209         1112 
 4602000   0.51889261   -8.3459184    607.06166  0.010992714 0.0090403053         1160 
 4603000   0.52355325     -8.34922    606.53453  0.010980783 0.0090369946         1168 
 4604000   0.52770438   -8.3311495    606.47325  0.010977289 0.0090336869         1138 
 4605000   0.51732988   -8.3422336    607.07175  0.010985736 0.0090303811         1197 
 4606000    0.5208953   -8.3500859     606.3294   0.01096992 0.0090270726         1155 
 4607000   0.51756544   -8.3522621    606.88045  0.010977506  0.009023768         1181 
 4608000   0.51066643   -8.3459384    607.84423  0.010992553 0.0090204634         1096 
 4609000   0.51065019   -8.3664405    606.33272  0.010962839 0.0090171622         1159 
 4610000   0.51442848   -8.3581175    606.68125  0.010966762 0.0090138619         1095 
 4611000   0.49871841   -8.3639427    606.82971  0.010967066 0.0090105633         1147 
 4612000   0.51713422   -8.3634749    607.48619   0.01097655 0.0090072676         1237 
 4613000   0.51334695   -8.3421148    607.27302   0.01097032 0.0090039727         1148 
 4614000   0.51689544   -8.3485229    607.55258  0.010972991 0.0090006766         1071 
 4615000    0.5104455   -8.3668715    606.06957  0.010943835 0.0089973836         1130 
 4616000   0.51837286   -8.3620727    606.93305  0.010957052 0.0089940902         1216 
 4617000   0.51101977   -8.3420373     606.0171  0.010938147 0.0089908002         1143 
 4618000   0.52313366   -8.3702711    606.85299  0.010950862 0.0089875127         1092 
 4619000   0.51613745   -8.3580997    606.78742  0.010947309 0.0089842284         1124 
 4620000   0.51342179   -8.3560672    606.04089  0.010931473 0.0089809429         1195 
 4621000   0.51859307   -8.3580889     606.4748  0.010936933 0.0089776585         1093 
 4622000   0.50172093   -8.3404223     606.9057  0.010942336 0.0089743767         1172 
 4623000   0.50727694   -8.3532145    606.19682   0.01092719 0.0089710952         1098 
 4624000   0.52338869   -8.3531184    606.34019  0.010927411 0.0089678206         1130 
 4625000    0.5110652   -8.3568188     607.1765  0.010940117 0.0089645396         1188 
 4626000   0.50865517   -8.3521736    607.02844  0.010935085 0.0089612612         1107 
 4627000   0.50638477   -8.3470377    607.19412  0.010935706 0.0089579894         1117 
 4628000   0.51396906   -8.3405554    606.27192  0.010916737 0.0089547155         1150 
 4629000   0.51178116   -8.3547204    606.04161  0.010910233 0.0089514434         1159 
 4630000   0.50556059   -8.3548973    606.84842  0.010922398  0.008948173         1153 
 4631000   0.49714461   -8.3485682    607.22938  0.010926895 0.0089449048         1198 
 4632000   0.52090757   -8.3601627     605.7155    0.0108973 0.0089416348         1184 
 4633000   0.50991121   -8.3548066    606.94302  0.010917027 0.0089383668         1159 
 4634000   0.50363419    -8.350135    607.01631  0.010915989 0.0089351016         1047 
 4635000   0.50999264   -8.3810126    606.51268  0.010904579 0.0089318376         1194 
 4636000   0.51746679   -8.3655826    606.71258   0.01090582 0.0089285752         1178 
 4637000   0.52930819   -8.3579019    606.09399  0.010892351 0.0089253164         1142 
 4638000   0.50327492   -8.3586412    606.73657  0.010901548 0.0089220593         1078 
 4639000   0.51030811   -8.3583194    606.38658  0.010892911 0.0089187989         1176 
 4640000   0.50806704   -8.3625692     606.4927  0.010892469  0.008915543         1139 
 4641000   0.51980498   -8.3694067    606.18028  0.010884513 0.0089122855         1159 
 4642000   0.49683606   -8.3378618    607.13422  0.010899293 0.0089090286         1168 
 4643000   0.50694785   -8.3544161    606.41979  0.010884123 0.0089057741         1171 
 4644000   0.50496238   -8.3639778    606.93934  0.010891102 0.0089025241         1125 
 4645000   0.50574922   -8.3673345    606.75323  0.010885419 0.0088992752         1177 
 4646000   0.50620541   -8.3536517     606.4552   0.01087773 0.0088960273         1142 
 4647000   0.49954594   -8.3576595    606.85892  0.010882629 0.0088927802         1180 
 4648000   0.50252179   -8.3640123    605.33215  0.010852914 0.0088895353         1081 
 4649000   0.50838938   -8.3650458    606.22652  0.010866611 0.0088862907         1103 
 4650000   0.50141793   -8.3625332    605.90639  0.010858538 0.0088830487         1178 
 4651000   0.50854772   -8.3702571    607.00503  0.010875887 0.0088798116         1207 
 4652000   0.51599524   -8.3762898    606.28692  0.010860686 0.0088765743         1174 
 4653000   0.49439869   -8.3604477    606.04285   0.01085398 0.0088733352         1239 
 4654000   0.50986866   -8.3553065     606.7979  0.010865168 0.0088700997         1180 
 4655000   0.50538223   -8.3730338    605.64545  0.010842203  0.008866868         1166 
 4656000   0.51146549   -8.3584035    606.02895  0.010846738 0.0088636375         1149 
 4657000   0.51124367   -8.3575325    605.38266  0.010832844 0.0088604065         1133 
 4658000   0.51073551   -8.3522064    607.17651  0.010862611 0.0088571795         1048 
 4659000    0.5022497   -8.3663971    605.48498  0.010830024 0.0088539514         1123 
 4660000   0.50176256   -8.3662916     605.5644   0.01082912 0.0088507279         1116 
 4661000   0.51323036   -8.3744008    606.41302  0.010841969 0.0088475046         1121 
 4662000   0.51145175   -8.3753061    606.73111  0.010845329 0.0088442804         1213 
 4663000   0.50775531   -8.3685464    604.81935  0.010808838 0.0088410581         1159 
 4664000   0.51097357   -8.3827594    605.82717  0.010824528 0.0088378368         1193 
 4665000   0.50742391    -8.377052    605.65406  0.010819115 0.0088346175         1072 
 4666000   0.50004573   -8.3633295    605.73177  0.010818184 0.0088314025         1103 
 4667000   0.50729927   -8.3530931    605.56189  0.010812833  0.008828185         1202 
 4668000   0.49459576   -8.3650618    607.27255  0.010841055  0.008824972         1117 
 4669000   0.50842036   -8.3708711    605.76614  0.010811847 0.0088217569         1110 
 4670000   0.52272419   -8.3514706    606.41423  0.010821096 0.0088185474         1097 
 4671000   0.49976549   -8.3481006    606.07239  0.010812681 0.0088153399         1195 
 4672000   0.48923503   -8.3640951    606.47614  0.010817568 0.0088121321         1188 
 4673000    0.5102006   -8.3564913    605.90649  0.010805095 0.0088089263         1142 
 4674000   0.50851415   -8.3705431    605.80228  0.010800925  0.008805722         1148 
 4675000   0.50605674   -8.3710889     605.9538  0.010801316 0.0088025155         1070 
 4676000   0.50285422   -8.3779367    606.54935  0.010809619 0.0087993176         1101 
 4677000   0.50122662   -8.3638739    606.03076  0.010798068 0.0087961153         1109 
 4678000   0.50693823   -8.3597261    605.70838  0.010790017 0.0087929152         1083 
 4679000   0.50381871   -8.3755682    605.81524  0.010789614 0.0087897174         1192 
 4680000   0.49551059     -8.36995    605.63189  0.010784044 0.0087865213         1051 
 4681000   0.50330884   -8.3616609    606.74568  0.010801568 0.0087833277         1140 
 4682000   0.50850607   -8.3774726    606.01451  0.010786247 0.0087801349         1193 
 4683000   0.49814153   -8.3593036    606.71348  0.010796382 0.0087769415         1169 
 4684000   0.50663475   -8.3654535    606.27959  0.010786358 0.0087737554         1122 
 4685000   0.49765222    -8.376297    606.97723  0.010796464 0.0087705682         1218 
 4686000   0.51320048   -8.3747135    606.59765   0.01078741 0.0087673811         1148 
 4687000   0.49874869   -8.3611474    606.61869  0.010785483 0.0087641976         1129 
 4688000   0.50028165   -8.3682967    606.94962  0.010789065 0.0087610155         1139 
 4689000   0.49858486   -8.3698872    606.83935  0.010784804 0.0087578321         1109 
 4690000   0.51053567   -8.3774867    604.73449  0.010745105 0.0087546489         1092 
 4691000   0.50038037   -8.3756929    606.28895  0.010770428 0.0087514686         1172 
 4692000   0.50350112   -8.4037088    605.86356  0.010760578 0.0087482877         1178 
 4693000    0.4938984   -8.3533575    606.24425  0.010765045  0.008745111         1100 
 4694000   0.50059559   -8.3571608    605.72221  0.010753483 0.0087419348         1138 
 4695000   0.50083623   -8.3734776    606.84751  0.010771166 0.0087387632         1132 
 4696000   0.50093737    -8.356438    605.88856  0.010751856 0.0087355927         1165 
 4697000   0.50187836   -8.3770837    605.58469  0.010744175 0.0087324208         1157 
 4698000   0.49615098   -8.3746227    606.14085  0.010751753 0.0087292543         1167 
 4699000   0.50363758    -8.386466    605.51404  0.010738349 0.0087260882         1103 
 4700000   0.49742279   -8.4028032    605.23291   0.01073108 0.0087229206         1216 
 4701000   0.50497787   -8.3802402     606.7954  0.010756495 0.0087197554         1106 
 4702000   0.49797214   -8.3666138    606.78745  0.010754067 0.0087165931         1089 
 4703000   0.49756507   -8.3917953    606.43384  0.010745514 0.0087134334         1113 
 4704000   0.50072883   -8.3790908    605.64615  0.010729276 0.0087102727         1142 
 4705000    0.5069405    -8.396898    605.10799  0.010717463 0.0087071146         1139 
 4706000   0.50828025   -8.3943904    604.88002  0.010711149 0.0087039585         1142 
 4707000   0.49710252   -8.3853122    605.62484   0.01072206  0.008700801         1144 
 4708000   0.49587219   -8.3805573    606.22509  0.010730407 0.0086976478         1112 
 4709000   0.49606661   -8.3713188    605.16938  0.010709446 0.0086944962         1114 
 4710000   0.49552533   -8.3777338    605.27409  0.010709025 0.0086913414         1139 
 4711000   0.50486265    -8.380753    605.82207  0.010716445 0.0086881909         1140 
 4712000    0.4902675   -8.3743069    606.35485  0.010723593 0.0086850433         1116 
 4713000   0.48921912   -8.3883664    607.09425  0.010734392 0.0086818955         1009 
 4714000   0.49544918   -8.3839412    605.93883  0.010711689 0.0086787503         1130 
 4715000   0.49144432   -8.3765335    606.88588  0.010726156 0.0086756054         1063 
 4716000   0.51775602   -8.3681549    606.34759  0.010714369 0.0086724651         1115 
 4717000    0.4909063   -8.3838895    605.31865   0.01069392 0.0086693274         1116 
 4718000   0.49960322    -8.370923    605.84599  0.010700968 0.0086661892         1112 
 4719000   0.49921271   -8.3731314    605.27356  0.010688592 0.0086630505         1126 
 4720000   0.49766452   -8.3735786    605.80226  0.010695661 0.0086599149         1208 
 4721000    0.4966701   -8.3808681    605.00682  0.010679355 0.0086567801         1112 
 4722000   0.49873131   -8.3689067    605.82111  0.010691464 0.0086536475         1157 
 4723000   0.49537565   -8.3583863    606.02036  0.010692716 0.0086505154         1193 
 4724000    0.5084159   -8.3836139    606.64104  0.010701401 0.0086473873         1158 
 4725000   0.49604338   -8.4002305    606.00562   0.01068793 0.0086442582         1167 
 4726000   0.48678832   -8.3823194    605.78498  0.010681778 0.0086411297         1177 
 4727000   0.49896581   -8.3846013     604.9282  0.010664414 0.0086380036         1181 
 4728000   0.48716645   -8.3782351    604.75207  0.010659054 0.0086348767         1179 
 4729000   0.48812644   -8.3833459    605.42787  0.010668708 0.0086317533         1159 
 4730000   0.48705412   -8.3859458    605.79335  0.010672892 0.0086286309         1108 
 4731000   0.49726141   -8.3820061      605.977  0.010673871  0.008625509         1112 
 4732000   0.49177116   -8.3586905    605.50213  0.010663253 0.0086223915         1105 
 4733000    0.4809319   -8.3740672    606.29321  0.010674928 0.0086192733         1173 
 4734000   0.49836833    -8.380754    605.34528  0.010655987 0.0086161576         1180 
 4735000   0.50255543   -8.3804461    605.34805  0.010653785 0.0086130455         1173 
 4736000   0.49208996   -8.3753962    606.56441  0.010672938 0.0086099309         1144 
 4737000   0.49310173   -8.3693443     605.9826   0.01066045 0.0086068216         1110 
 4738000   0.49605152   -8.3563311    605.85652  0.010655982 0.0086037135         1115 
 4739000    0.4885484   -8.4016608    606.21622  0.010660059 0.0086006089         1210 
 4740000   0.48586974   -8.3706481    606.37309  0.010660568  0.008597502         1166 
 4741000   0.49089949   -8.3735525    605.52335  0.010643383 0.0085943944         1196 
 4742000   0.49306132   -8.3813996    606.25429  0.010653984 0.0085912937         1159 
 4743000    0.4946419   -8.3896568    605.50842  0.010638633 0.0085881951         1065 
 4744000   0.50248077   -8.3760579    605.24847  0.010631824 0.0085850952         1189 
 4745000   0.49483354   -8.3844311    605.68279  0.010637211 0.0085819955         1198 
 4746000   0.48418768    -8.399697    605.61425  0.010633766 0.0085788971         1222 
 4747000   0.49550129    -8.386623    606.01304  0.010638527 0.0085757999         1240 
 4748000   0.48620459   -8.3770292    606.95599  0.010652836 0.0085727077         1196 
 4749000   0.48456292   -8.3784046    606.36867  0.010640287 0.0085696177         1105 
 4750000   0.49058041   -8.3862519    607.02141  0.010649498 0.0085665263         1087 
 4751000   0.48993044    -8.395204    606.08086  0.010630759 0.0085634377         1159 
 4752000   0.49288069   -8.3876283    606.70252  0.010639424 0.0085603487         1175 
 4753000   0.48427376   -8.3944611    605.67715  0.010619208 0.0085572614         1221 
 4754000   0.49486042   -8.3763034    606.66581  0.010634305 0.0085541751         1169 
 4755000    0.4896805   -8.3700478    606.03653   0.01062104 0.0085510909         1102 
 4756000   0.48947221   -8.3811661    606.28703  0.010623196 0.0085480082         1086 
 4757000   0.48248099   -8.3861943     605.8118  0.010612638  0.008544929         1125 
 4758000   0.48013761   -8.3936936     604.6238    0.0105896  0.008541849         1157 
 4759000   0.48952481   -8.3810534     606.2133  0.010615208 0.0085387713         1190 
 4760000   0.48454549   -8.3851812    606.52452  0.010618427 0.0085356953         1005 
 4761000   0.49248605   -8.3953739    605.66626  0.010601174 0.0085326211         1199 
 4762000   0.49047102   -8.3882339    605.77884  0.010600918  0.008529548         1123 
 4763000   0.48602512   -8.3770386    605.10965  0.010586984 0.0085264744         1185 
 4764000   0.49123471   -8.3930207    606.65991  0.010611879 0.0085234041         1148 
 4765000   0.48844589   -8.3870731    606.09486   0.01059977 0.0085203353         1136 
 4766000   0.48006277   -8.4002168    605.69266  0.010590514 0.0085172691         1144 
 4767000    0.4834723   -8.3841754    605.75109  0.010589313 0.0085141995         1194 
 4768000   0.48796268   -8.3896257    605.73896  0.010586881 0.0085111341         1151 
 4769000   0.50714219   -8.3954515    606.25012  0.010593593 0.0085080682         1157 
 4770000   0.48655164   -8.3887741    605.12042  0.010571636 0.0085050056         1222 
 4771000   0.49441647   -8.3949327    605.59024  0.010577626 0.0085019456         1207 
 4772000   0.48480603   -8.4026354    605.30227   0.01057038 0.0084988853         1128 
 4773000   0.49527681   -8.4010301    604.89027  0.010560973 0.0084958298         1150 
 4774000    0.4949406   -8.4025179    605.23332  0.010564749 0.0084927725         1187 
 4775000   0.48099265   -8.3945232    604.98786  0.010558252 0.0084897185         1094 
 4776000   0.48815082    -8.398293    606.58633  0.010583932 0.0084866628         1200 
 4777000   0.50048018   -8.3939799    605.71354  0.010566491 0.0084836081         1152 
 4778000   0.49663187   -8.3894485    605.38705  0.010558585 0.0084805559         1145 
 4779000   0.48481778   -8.3749653    606.55446  0.010576733 0.0084775098         1146 
 4780000   0.49349387   -8.4102583    605.55184  0.010557041 0.0084744612         1145 
 4781000   0.48445411   -8.4020707    605.22765  0.010549182 0.0084714142         1196 
 4782000   0.48443152   -8.4003137    605.99204  0.010560296 0.0084683702         1152 
 4783000   0.48955562   -8.4051836    605.89405  0.010556381 0.0084653263         1177 
 4784000   0.47931939   -8.3998248    605.42915  0.010546076  0.008462284         1141 
 4785000   0.48727697   -8.3903215    605.85706  0.010551325 0.0084592426         1244 
 4786000   0.49719813   -8.4025497    605.18595  0.010537435 0.0084562009         1202 
 4787000   0.49156066   -8.3981267    605.02436   0.01053242 0.0084531627         1178 
 4788000   0.48045812   -8.3935992    605.91712  0.010545759 0.0084501229         1126 
 4789000   0.48799237    -8.384495    605.09356  0.010529226 0.0084470885         1122 
 4790000   0.48856815   -8.4006041     604.7035  0.010520242 0.0084440553         1109 
 4791000   0.48450842    -8.397706    604.80184  0.010519756 0.0084410232         1265 
 4792000   0.47449498   -8.4090349    605.47107  0.010529199 0.0084379922         1153 
 4793000   0.49417771    -8.392729    605.32964  0.010524543 0.0084349644         1158 
 4794000   0.48516626    -8.397269    604.99354  0.010516506 0.0084319351         1154 
 4795000    0.4780703   -8.4076567    604.95024   0.01051356  0.008428907         1260 
 4796000   0.48635629   -8.3954764    605.00148  0.010512258 0.0084258803         1154 
 4797000   0.48431685   -8.3991342    605.81982  0.010524283 0.0084228562         1240 
 4798000   0.48554241   -8.4065795    604.70751   0.01050277 0.0084198327         1171 
 4799000   0.47741465   -8.4057847    604.38909  0.010495053 0.0084168137         1208 
 4800000   0.49854606   -8.3858345    606.12215  0.010522954 0.0084137946         1231 
 4801000    0.4743338   -8.4004609    606.29724  0.010523801 0.0084107784         1091 
 4802000   0.47933698   -8.4164617    605.17368  0.010502112 0.0084077609         1212 
 4803000   0.49033151   -8.3934234    604.50856  0.010488385 0.0084047467         1175 
 4804000   0.48273134   -8.3981478     605.0665   0.01049588 0.0084017328         1189 
 4805000   0.48391565     -8.41137    604.88318  0.010490516 0.0083987203         1125 
 4806000   0.49432546   -8.4002907    604.59468  0.010483331 0.0083957091         1173 
 4807000   0.48158916   -8.3919666    604.69211   0.01048284 0.0083927002         1177 
 4808000   0.47455372   -8.3923839    604.55878  0.010478348 0.0083896913         1231 
 4809000   0.48366249   -8.4041106    605.03824  0.010484478 0.0083866852         1156 
 4810000     0.494601   -8.4220794    606.09822  0.010500662 0.0083836794         1096 
 4811000   0.48284623   -8.3894956    605.28432  0.010484382 0.0083806782         1123 
 4812000   0.47769897   -8.4033652    605.45135  0.010485095 0.0083776735         1147 
 4813000   0.48092804   -8.4067927    605.67332   0.01048676 0.0083746718         1159 
 4814000    0.4768007   -8.4064323    604.81497  0.010469723 0.0083716737         1143 
 4815000   0.48318525   -8.4018787    605.21138  0.010474409 0.0083686757         1135 
 4816000   0.47578519   -8.4054998    605.04681  0.010469387 0.0083656757         1088 
 4817000   0.47896358   -8.3976377     604.1096     0.010451 0.0083626781         1191 
 4818000   0.48115495   -8.4139575    604.51761  0.010455888 0.0083596856         1198 
 4819000   0.46891792   -8.3972596    604.59866   0.01045512 0.0083566903         1228 
 4820000   0.47033768   -8.3924864    605.09221  0.010461484 0.0083536994         1162 
 4821000   0.48312186    -8.410593     605.8841  0.010473002 0.0083507108         1179 
 4822000   0.48612389   -8.3999909    604.76364  0.010451466 0.0083477215         1228 
 4823000   0.47235775   -8.4122234    605.07906  0.010454749  0.008344738         1162 
 4824000   0.47632735   -8.4073045    604.65403   0.01044524 0.0083417509         1220 
 4825000   0.49167143   -8.4113417    604.58895  0.010441951 0.0083387654         1115 
 4826000   0.48409872   -8.4040283    605.32156  0.010452438 0.0083357833         1158 
 4827000   0.47631972   -8.4076124    604.83989  0.010441957 0.0083328035         1178 
 4828000   0.48846708   -8.4111128    604.55734  0.010434917 0.0083298215         1209 
 4829000   0.47165661   -8.4014194    604.60597  0.010433595 0.0083268461         1225 
 4830000    0.4839188    -8.414042    604.05986  0.010422013   0.00832387         1156 
 4831000   0.47441208   -8.4211346    605.16456  0.010438911 0.0083208923         1165 
 4832000   0.47921806   -8.4159334    605.37257  0.010440338 0.0083179196         1208 
 4833000    0.4700928   -8.3955403    604.54718  0.010423946  0.008314946         1179 
 4834000   0.47507916   -8.4165297     603.5599   0.01040477 0.0083119736         1201 
 4835000   0.48212927   -8.3947096     605.0393  0.010428116  0.008309001         1245 
 4836000   0.47818622   -8.3994461     604.4605  0.010415986 0.0083060307         1112 
 4837000   0.48194536   -8.3928047    604.93586  0.010422022 0.0083030655         1173 
 4838000   0.48891144   -8.4078533    605.32912  0.010426642 0.0083000991         1128 
 4839000   0.47143843   -8.4126745     605.2738  0.010423535 0.0082971361         1168 
 4840000   0.47824664   -8.4044308    604.94595  0.010415736 0.0082941735         1167 
 4841000   0.48826187   -8.4199619    604.68187  0.010409039 0.0082912116         1236 
 4842000   0.47744855   -8.4051087     605.8032  0.010426187 0.0082882543         1196 
 4843000   0.47982754   -8.4099235    604.51092  0.010401799 0.0082852959         1148 
 4844000   0.47581472   -8.4084888    604.84792  0.010405449   0.00828234         1106 
 4845000   0.48118522   -8.4050945    604.57705  0.010398642 0.0082793851         1166 
 4846000   0.46841436   -8.4025296    605.49268  0.010412242 0.0082764308         1131 
 4847000    0.4791452   -8.4036453     604.5173  0.010393324 0.0082734765         1153 
 4848000   0.47520048   -8.3992974    605.05378  0.010400402 0.0082705237         1220 
 4849000   0.46806735    -8.391891    605.08942   0.01039887 0.0082675732         1056 
 4850000    0.4814071   -8.4059661     604.8507  0.010392624 0.0082646242         1156 
 4851000   0.48464275   -8.4235297    605.54063  0.010402333 0.0082616752         1168 
 4852000   0.47753877   -8.3874093     604.4666  0.010381743 0.0082587323         1134 
 4853000   0.47424024   -8.3919807    605.05384  0.010389687 0.0082557881         1104 
 4854000   0.46764989   -8.3994758    605.54962  0.010396059 0.0082528444         1183 
 4855000   0.46868122   -8.4062727    605.10002    0.0103862 0.0082499026         1165 
 4856000   0.47553401   -8.4226158    605.70932  0.010394517 0.0082469627         1108 
 4857000    0.4800203   -8.3990609    604.60726  0.010373469 0.0082440246         1184 
 4858000    0.4660132   -8.4152487    603.51016  0.010352514 0.0082410865         1222 
 4859000   0.48626913   -8.4034949    606.50242  0.010401702 0.0082381496         1159 
 4860000   0.47737101   -8.4031476    606.40327  0.010397861 0.0082352174         1174 
 4861000    0.4798782   -8.4032871    605.45557  0.010379476 0.0082322838         1141 
 4862000   0.47946655   -8.4214476    605.75079  0.010382401 0.0082293526         1286 
 4863000   0.47607506   -8.4179571     604.6829  0.010361966 0.0082264203         1238 
 4864000   0.46579464   -8.4212855    604.74231  0.010360854 0.0082234931         1295 
 4865000   0.47832791   -8.4148878    604.99961  0.010363131 0.0082205652         1172 
 4866000   0.47524363   -8.3924224    604.19297  0.010347187 0.0082176393         1255 
 4867000   0.47297607   -8.4077748    604.31309  0.010347118 0.0082147143         1224 
 4868000   0.45800087   -8.4003242    605.10924  0.010358622 0.0082117904         1193 
 4869000   0.47676271   -8.4265577    604.87672  0.010352514 0.0082088677         1181 
 4870000   0.46997399   -8.4172094    604.77806    0.0103487 0.0082059468         1130 
 4871000   0.47226222   -8.4034382    603.63854  0.010327081 0.0082030281         1218 
 4872000   0.48379786   -8.4174529    604.91447  0.010346786 0.0082001073         1168 
 4873000   0.47013201   -8.4105755    603.92287  0.010327705 0.0081971904         1158 
 4874000   0.47008427   -8.4028081    604.87742  0.010341906  0.008194274         1211 
 4875000   0.47726507   -8.4131922    603.78689  0.010321143 0.0081913572         1247 
 4876000    0.4842984   -8.4008145    604.79592  0.010336272  0.008188445         1233 
 4877000   0.46972918   -8.4033578    604.67551  0.010332095  0.008185533         1160 
 4878000    0.4622215   -8.4105567    604.83345  0.010332675 0.0081826212         1245 
 4879000   0.47208044   -8.4255654     605.2003  0.010336823 0.0081797113         1145 
 4880000   0.46594328   -8.4185647    603.94212  0.010313219 0.0081768024         1114 
 4881000   0.48144597   -8.4211736    605.66388  0.010340502 0.0081738942         1226 
 4882000   0.47755096   -8.4229378    603.50737  0.010301573 0.0081709897         1152 
 4883000   0.46766782   -8.4321545     604.2116  0.010311482 0.0081680815         1117 
 4884000   0.46503095   -8.4253424    604.84038  0.010320099 0.0081651783         1166 
 4885000   0.47409829   -8.4069272    604.43111  0.010311005 0.0081622756         1181 
 4886000    0.4712646   -8.4051799     603.5819  0.010294411 0.0081593762         1229 
 4887000   0.46418031   -8.4228564    604.72906  0.010311866 0.0081564796         1092 
 4888000   0.46824672   -8.4078724    604.82371   0.01031137 0.0081535807         1199 
 4889000   0.46602345   -8.3973898    605.03286  0.010312826 0.0081506873         1114 
 4890000   0.47102889   -8.4221019    604.66551  0.010304457 0.0081477954         1176 
 4891000   0.47138474   -8.4311863    605.21166  0.010311655 0.0081449022         1227 
 4892000   0.46799709   -8.4246771    604.41104  0.010295909 0.0081420114         1209 
 4893000   0.46920827   -8.4277711    604.10787  0.010288641 0.0081391213         1238 
 4894000   0.46326382   -8.4244396     604.4528  0.010292412 0.0081362355         1141 
 4895000   0.46087256   -8.4169061    604.47608  0.010290706 0.0081333483         1158 
 4896000   0.46247996   -8.4136138    604.37053  0.010286808 0.0081304655         1210 
 4897000     0.461013   -8.4049982    605.72521   0.01030776  0.008127582         1250 
 4898000    0.4659441   -8.4156757    603.71843  0.010271513 0.0081246991         1188 
 4899000   0.47300366   -8.4128092    604.27998  0.010278968 0.0081218169         1166 
 4900000   0.46701763   -8.4299489     604.9659  0.010288536 0.0081189384         1281 
 4901000   0.46945616     -8.42329    604.45462  0.010277743 0.0081160606         1167 
 4902000   0.45910714   -8.4334749    604.21373  0.010271551 0.0081131821         1172 
 4903000    0.4675744   -8.4138409    604.32812  0.010271401 0.0081103031         1216 
 4904000   0.46845141   -8.4271428    603.94391  0.010262777 0.0081074277         1225 
 4905000   0.46840422   -8.4175494     604.5162  0.010270408 0.0081045545         1115 
 4906000   0.46858047    -8.414838     604.6795  0.010271088 0.0081016809         1146 
 4907000   0.46725991   -8.3997807    605.63553  0.010285231 0.0080988094         1168 
 4908000   0.47314032   -8.4294675    604.57799  0.010265179  0.008095941         1119 
 4909000   0.46089575   -8.4316214    603.92045  0.010251926 0.0080930696         1129 
 4910000   0.47366251   -8.4089177    605.03203  0.010268704 0.0080902018         1159 
 4911000    0.4689626   -8.4306819    604.48594  0.010257347 0.0080873371         1219 
 4912000    0.4672196   -8.4136323    604.00622   0.01024712 0.0080844756         1229 
 4913000   0.46343661   -8.4319537    603.86268  0.010242599 0.0080816113         1187 
 4914000   0.47378736    -8.425582    604.74982  0.010255559 0.0080787484         1259 
 4915000   0.46560338   -8.4272912    604.41717  0.010247833 0.0080758863         1209 
 4916000   0.47026548   -8.4310568    603.57266  0.010231432 0.0080730258         1219 
 4917000    0.4668305   -8.4152183    605.39699   0.01026027 0.0080701658         1138 
 4918000    0.4777358   -8.4284853    604.31839  0.010239908  0.008067309         1196 
 4919000   0.46096085   -8.4038821    604.45968   0.01024022 0.0080644563         1182 
 4920000    0.4651804   -8.4253069    604.51367  0.010239053 0.0080616005         1143 
 4921000   0.46105828   -8.4228599    604.12108  0.010230324 0.0080587485         1196 
 4922000   0.45913765   -8.4286207     604.7526  0.010238937 0.0080558971         1226 
 4923000   0.46579845   -8.4144306    605.19136  0.010244285 0.0080530485         1160 
 4924000   0.46217505   -8.4259849    604.16542  0.010224841 0.0080501992         1134 
 4925000   0.46701993   -8.4299921    603.78626   0.01021635 0.0080473517         1220 
 4926000   0.45986853   -8.4117866    603.65133  0.010211993 0.0080445071         1154 
 4927000   0.46308978   -8.4220151    603.48932   0.01020718 0.0080416627         1217 
 4928000   0.45825921   -8.4390341    603.46405  0.010204681 0.0080388175         1164 
 4929000   0.46818847    -8.427895    604.28348  0.010216465 0.0080359761         1292 
 4930000   0.45344985   -8.4252371    604.60134  0.010219766 0.0080331358         1282 
 4931000   0.45793507   -8.4265322    604.47806   0.01021561 0.0080302966         1216 
 4932000   0.45359232   -8.4135345     604.6434  0.010216332 0.0080274596         1240 
 4933000   0.46691883   -8.4280675    604.73319  0.010215778  0.008024623         1196 
 4934000   0.46898779   -8.4412096    603.71312  0.010196479 0.0080217873         1204 
 4935000   0.46110057   -8.4350909    603.83759  0.010196515  0.008018952         1225 
 4936000   0.47169141   -8.4243116    603.80222  0.010193852 0.0080161187         1133 
 4937000   0.46234521   -8.4282791      603.801  0.010191766 0.0080132859         1140 
 4938000    0.4635824   -8.4286276    604.10791  0.010194882 0.0080104527         1148 
 4939000   0.46431926   -8.4374913      604.369  0.010197223 0.0080076226         1198 
 4940000   0.45114974   -8.4311833    603.94542  0.010188013 0.0080047938         1191 
 4941000   0.45044014   -8.4182888    603.76621  0.010182929 0.0080019669         1161 
 4942000   0.46277953    -8.436252    603.44829  0.010175507 0.0079991407         1205 
 4943000   0.46568219   -8.4409989    604.69479  0.010194463  0.007996316         1179 
 4944000   0.46089215   -8.4371706     605.5528  0.010206864  0.007993494         1227 
 4945000   0.46885837   -8.4282031    604.93147  0.010194329 0.0079906711         1241 
 4946000   0.46142328   -8.4327275    604.80145  0.010190077 0.0079878515         1134 
 4947000   0.46132937    -8.434666     604.2188  0.010178202 0.0079850307         1202 
 4948000    0.4585168   -8.4393795    603.76597  0.010168519 0.0079822124         1156 
 4949000   0.44961688   -8.4389254    603.81496  0.010167289 0.0079793934         1235 
 4950000   0.45190961   -8.4279593    603.46585  0.010159358 0.0079765782         1149 
 4951000   0.45687832   -8.4272268    604.30963  0.010171508 0.0079737629         1206 
 4952000   0.46071874   -8.4290146    603.47199  0.010155358 0.0079709485         1206 
 4953000    0.4573879   -8.4267406    604.08892  0.010163687 0.0079681368         1198 
 4954000   0.46570259   -8.4407764    603.98589  0.010159903 0.0079653272         1252 
 4955000   0.45965396   -8.4261691    605.46057  0.010182653 0.0079625175         1214 
 4956000    0.4504571   -8.4482383    604.36678  0.010162207  0.007959709         1129 
 4957000   0.45035083   -8.4310076     604.4519  0.010161588 0.0079569003         1171 
 4958000   0.45919488   -8.4501956    603.54412  0.010144281 0.0079540954         1232 
 4959000   0.46135657   -8.4364644    602.88744    0.0101312 0.0079512928         1245 
 4960000   0.46465131   -8.4297723    603.38762  0.010137561 0.0079484915         1234 
 4961000   0.46133311   -8.4248731    604.93582  0.010161524 0.0079456902         1284 
 4962000    0.4474558   -8.4248585    604.81121  0.010157383 0.0079428899         1133 
 4963000   0.46559671   -8.4368318    603.67563  0.010136269  0.007940091         1214 
 4964000   0.46079009   -8.4363202    604.03702  0.010140294 0.0079372952         1240 
 4965000   0.44656147   -8.4353893    603.66763  0.010132052 0.0079344996         1204 
 4966000   0.44871783   -8.4393066    604.85329  0.010149908 0.0079317061         1219 
 4967000    0.4604352   -8.4255169    604.54792  0.010142741 0.0079289143         1145 
 4968000   0.45523149   -8.4405401    604.07123  0.010132703 0.0079261237         1242 
 4969000   0.45101575   -8.4317496    603.49271  0.010120962 0.0079233352         1198 
 4970000   0.45783305   -8.4249217    603.69309  0.010122285 0.0079205486         1160 
 4971000   0.45334723   -8.4323186    604.27273  0.010129966 0.0079177626         1205 
 4972000   0.45592817   -8.4417981    604.62378  0.010133812 0.0079149767         1170 
 4973000   0.45946319   -8.4238412    604.64579  0.010132143 0.0079121911         1139 
 4974000   0.45807585   -8.4355377    604.05667  0.010120236 0.0079094085         1140 
 4975000   0.46908989   -8.4129495    604.89543  0.010132252 0.0079066264         1210 
 4976000   0.46618023    -8.418063    603.96168  0.010114578 0.0079038473         1158 
 4977000   0.45303401   -8.4299469    603.59881   0.01010647 0.0079010698         1172 
 4978000   0.45335068    -8.430228    602.78563  0.010090827 0.0078982906         1281 
 4979000   0.45773093    -8.436738    604.78274  0.010122226 0.0078955139         1231 
 4980000   0.45524953   -8.4295244    604.66029  0.010118144 0.0078927352         1247 
 4981000   0.45877605   -8.4384229    604.89257  0.010119999 0.0078899572         1149 
 4982000   0.45080732   -8.4509425    604.43438  0.010110303 0.0078871857         1150 
 4983000   0.45403754   -8.4386672     604.3901  0.010107534 0.0078844128         1108 
 4984000    0.4559439   -8.4499148    603.78266  0.010095349 0.0078816417         1187 
 4985000   0.46241188   -8.4223679    603.47609  0.010088199 0.0078788714         1166 
 4986000   0.45922627   -8.4355748    603.94177  0.010093959  0.007876103         1222 
 4987000     0.457735   -8.4520362    604.77805   0.01010591  0.007873334         1153 
 4988000   0.44274542   -8.4356198     603.3438  0.010079922  0.007870568         1234 
 4989000    0.4514513   -8.4312464    603.48657  0.010080286 0.0078678016         1217 
 4990000   0.43906057   -8.4551763    603.86896  0.010084652 0.0078650371         1231 
 4991000   0.45369565   -8.4496312    603.60922  0.010078295 0.0078622751         1132 
 4992000   0.45669301   -8.4397932    603.17774  0.010069073 0.0078595183         1163 
 4993000   0.44930501    -8.441364    602.75324  0.010059971  0.007856757         1231 
 4994000   0.45933879   -8.4523767    603.84306  0.010076142 0.0078539977         1277 
 4995000   0.44572982   -8.4423248    603.40179  0.010066763 0.0078512399         1179 
 4996000   0.45125361    -8.427653    604.98748  0.010091198 0.0078484844         1193 
 4997000   0.45361353    -8.443765    604.35949  0.010078705 0.0078457298         1132 
 4998000   0.45147841   -8.4267187    603.87576  0.010068623 0.0078429768         1183 
 4999000    0.4438231   -8.4517419    604.18452  0.010071756 0.0078402251         1195 
 5000000   0.45441968   -8.4339217    604.06879  0.010067813  0.007837474         1225 
 5001000   0.45116999   -8.4555081    603.33948  0.010053647  0.007834725         1244 
 5002000   0.45679537   -8.4285594    603.90485  0.010061056 0.0078319767         1153 
 5003000   0.45194371   -8.4540399    602.95472  0.010043219 0.0078292293         1221 
 5004000   0.45400738   -8.4390914    603.41416  0.010048864 0.0078264822         1224 
 5005000   0.44491242   -8.4420014    603.99742  0.010056567 0.0078237379         1243 
 5006000   0.45688162   -8.4383805    603.81784  0.010051569 0.0078209954         1159 
 5007000   0.45765203   -8.4395053    604.34844  0.010058392 0.0078182545         1171 
 5008000   0.45296655   -8.4508068    603.83272  0.010047802  0.007815515         1238 
 5009000   0.45719156    -8.442947    603.18529  0.010035025 0.0078127758         1260 
 5010000   0.45367977   -8.4448504    604.30799  0.010051696 0.0078100374         1150 
 5011000   0.44398064   -8.4496645    604.03902  0.010045217 0.0078073013         1231 
 5012000   0.44953578   -8.4488536    603.70995  0.010037742 0.0078045655         1208 
Loop time of 13202.6 on 48 procs for 5000000 steps with 4000 atoms

Performance: 65441.413 tau/day, 378.712 timesteps/s
99.4% CPU use with 48 MPI tasks x no OpenMP threads

MPI task timing breakdown:
Section |  min time  |  avg time  |  max time  |%varavg| %total
---------------------------------------------------------------
Pair    | 976.97     | 1056.3     | 1138.6     | 135.1 |  8.00
Neigh   | 93.405     | 96.029     | 99.572     |  16.3 |  0.73
Comm    | 849.86     | 932.54     | 1018       | 143.8 |  7.06
Output  | 39.248     | 39.253     | 39.351     |   0.2 |  0.30
Modify  | 10913      | 10956      | 10987      |  15.6 | 82.98
Other   |            | 122.9      |            |       |  0.93

Nlocal:        83.3333 ave          89 max          75 min
Histogram: 2 0 0 2 6 15 8 11 1 3
Nghost:        2426.25 ave        2446 max        2405 min
Histogram: 1 2 5 6 10 7 8 4 3 2
Neighs:        16900.4 ave       19846 max       13913 min
Histogram: 2 3 4 8 5 9 9 3 4 1
FullNghs:      33800.8 ave       36762 max       30519 min
Histogram: 2 0 1 7 11 11 7 6 2 1

Total # of neighbors = 1622436
Ave neighs/atom = 405.60900
Neighbor list builds = 266448
Dangerous builds = 1

#clear
#
#next RN
#
#jump SELF
Total wall time: 3:40:06
