
units lj                  # Use reduced LJ style units
atom_style atomic         # Uncharged point particles
atom_modify map hash      # Needed for indexing of clusters etc
                          # Used to be able to find where atoms are in relation to each other.

lattice fcc 1.0 spacing 1 1 1
Lattice spacing in x,y,z = 1.5874011 1.5874011 1.5874011
region box block 0 10 0 10 0 10 units lattice
create_box 2 box
Created orthogonal box = (0.0000000 0.0000000 0.0000000) to (15.874011 15.874011 15.874011)
  3 by 4 by 4 MPI processor grid
create_atoms 1 box
Created 4000 atoms
  using lattice units in orthogonal box = (0.0000000 0.0000000 0.0000000) to (15.874011 15.874011 15.874011)
  create_atoms CPU = 0.003 seconds
set type 1 type/fraction 2 0.95 78393
Setting atom values ...
  3802 settings made for type/fraction
mass 1 1.0
mass 2 1.0
pair_style lj/cut  3.5
pair_modify tail  yes
pair_coeff 1  1  1.0  1.0   # Intearaction between 1 and 1 set with epsilon = 1 and sigma = 1
pair_coeff 1  2  1.5  0.8
pair_coeff 2  2  0.5  0.88

write_data data.0
System init for write_data ...
Neighbor list info ...
  update every 1 steps, delay 10 steps, check yes
  max neighbors/atom: 2000, page size: 100000
  master list distance cutoff = 3.8
  ghost atom cutoff = 3.8
  binsize = 1.9, bins = 9 9 9
  1 neighbor lists, perpetual/occasional/extra = 1 0 0
  (1) pair lj/cut, perpetual
      attributes: half, newton on
      pair build: half/bin/atomonly/newton
      stencil: half/bin/3d
      bin: standard
WARNING: Not all mixed pair coeffs generated from mixing. Use write_data with 'pair ij' option to store all pair coeffs. (../write_data.cpp:312)


#############################
#   M E L T   S Y S T E M   #
#############################

velocity all create 2.4 6229865 mom yes dist gaussian # Assign velocities
                                                    # Temperature 2.4, random number seed, zero linear momentum
                                                                                # Gaussian distribution

timestep 0.002   # simulation timestep
thermo 1000       # output thermodynamic data every 1000 steps bf 100

# Define a fix  in this case with index 1 applied to all
# particles in the simulation. This fix is for simulations
# in the anisotropic NPT ensemble. Note that we use the MTK
# correction.
fix 1 all npt temp 2.4 2.4 0.1 iso 5.68 5.68 0.5 mtk yes tchain 5 pchain 5 # Use NPT ensemble
                                                                         # Set temperature and pressure and damping
                                                                         # Numbers of thermostats in chain and in barostat
run 10000          # run for 10000 steps
Per MPI rank memory allocation (min/avg/max) = 3.642 | 3.644 | 3.648 Mbytes
Step Temp E_pair E_mol TotEng Press Volume 
       0          2.4   -2.9371918            0   0.66190816   -2.1469233         4000 
    1000    2.3742328   -1.8768108            0    1.6836481    5.5011938    4092.5768 
    2000    2.4045007   -1.7967079            0    1.8091414    5.7378508    4150.5641 
    3000    2.3507666   -1.8396694            0    1.6855989    5.4294577    4153.1272 
    4000    2.4274304   -1.8170342            0     1.823201    5.6424781    4147.5804 
    5000    2.4036471   -1.7752988            0    1.8292704    5.7699215    4147.8275 
    6000    2.4091207   -1.8072452            0    1.8055325     5.538712    4167.9293 
    7000    2.4361489   -1.7858037            0    1.8675061    5.8069474    4144.5717 
    8000    2.4287367   -1.8153137            0    1.8268806    5.8322815    4110.5462 
    9000    2.3586939    -1.838156            0    1.6990004    5.5141468    4139.7771 
   10000    2.4326269   -1.8031885            0    1.8448396    5.6269654    4150.4879 
Loop time of 2.44891 on 48 procs for 10000 steps with 4000 atoms

Performance: 705620.308 tau/day, 4083.451 timesteps/s
99.7% CPU use with 48 MPI tasks x no OpenMP threads

MPI task timing breakdown:
Section |  min time  |  avg time  |  max time  |%varavg| %total
---------------------------------------------------------------
Pair    | 1.0436     | 1.1181     | 1.282      |   4.5 | 45.66
Neigh   | 0.20476    | 0.21359    | 0.24627    |   1.9 |  8.72
Comm    | 0.69211    | 0.85403    | 0.9644     |   5.9 | 34.87
Output  | 0.00023941 | 0.00024479 | 0.00031294 |   0.0 |  0.01
Modify  | 0.2134     | 0.24804    | 0.33197    |   5.7 | 10.13
Other   |            | 0.01491    |            |       |  0.61

Nlocal:        83.3333 ave          92 max          76 min
Histogram: 3 4 6 9 3 6 10 2 4 1
Nghost:        1600.29 ave        1631 max        1567 min
Histogram: 3 1 3 7 7 13 2 7 1 4
Neighs:        9187.98 ave       10428 max        7853 min
Histogram: 1 1 7 8 7 6 6 6 4 2

Total # of neighbors = 441023
Ave neighs/atom = 110.25575
Neighbor list builds = 910
Dangerous builds = 242

# Equilibrate just above the melting temperature to avoid step fn in T

fix 1 all npt temp 1.25 1.25 0.1 iso 5.68 5.68 0.5 mtk yes tchain 5 pchain 5
run 2000
Per MPI rank memory allocation (min/avg/max) = 3.643 | 3.645 | 3.649 Mbytes
Step Temp E_pair E_mol TotEng Press Volume 
   10000    2.4326269   -1.8031885            0    1.8448396    5.6269654    4150.4879 
   11000    1.2282289   -2.7675729            0  -0.92569004    5.6177732    3214.0898 
   12000    1.2623273   -2.7616421            0  -0.86862445    5.4964599    3230.3917 
Loop time of 0.574947 on 48 procs for 2000 steps with 4000 atoms

Performance: 601098.916 tau/day, 3478.582 timesteps/s
99.7% CPU use with 48 MPI tasks x no OpenMP threads

MPI task timing breakdown:
Section |  min time  |  avg time  |  max time  |%varavg| %total
---------------------------------------------------------------
Pair    | 0.25771    | 0.27783    | 0.30754    |   1.7 | 48.32
Neigh   | 0.038723   | 0.040315   | 0.045942   |   0.6 |  7.01
Comm    | 0.17406    | 0.20937    | 0.23292    |   2.3 | 36.42
Output  | 5.075e-05  | 5.2292e-05 | 6.7746e-05 |   0.0 |  0.01
Modify  | 0.03971    | 0.042801   | 0.045304   |   0.8 |  7.44
Other   |            | 0.00458    |            |       |  0.80

Nlocal:        83.3333 ave          93 max          74 min
Histogram: 1 1 3 10 11 9 8 2 2 1
Nghost:        1896.92 ave        1919 max        1875 min
Histogram: 2 6 7 3 5 6 9 5 1 4
Neighs:        11821.6 ave       13553 max        9937 min
Histogram: 1 1 7 5 10 4 9 7 3 1

Total # of neighbors = 567436
Ave neighs/atom = 141.85900
Neighbor list builds = 143
Dangerous builds = 14

#############################
# L I N E A R  Q U E N C H  #
#############################

# Define solid atoms. This closely follows ten Wolde  Ruiz-Montero and Frenkel  Faraday Discuss  1996  104  93-110
# Compute components of the per-atom q6 vector
compute q6 all orientorder/atom degrees 1 6 components 6 nnn NULL cutoff 1.3 # compute the Q6 parameter.
                                                                             # Use all neighbours within 1.3 unit cell.

# get number of connections
compute coord_number all coord/atom orientorder q6 0.5

# An atom is solid if it has 8 or more connections (of a possible 14)
variable is_solid atom c_coord_number>=8
group solid dynamic all var is_solid    # Must be dynamic to update
dynamic group solid defined

# do clustering
compute cluster solid cluster/atom 1.3 # Create a cluster where all atoms within are solid and max 1.3 units from another member

# define chunks one chunk per cluster
compute clus_chunks solid chunk/atom c_cluster nchunk every compress yes  # Says which atoms are in which chunk

# count the size of each chunk
compute size_chunks solid property/chunk clus_chunks count


# Find the maximum entry in the vector of chunk sizes
variable max_n equal max(c_size_chunks)


# Thermo style which includes this variable
# thermo_style custom step temp pe vol v_max_n

thermo ${N}  # Print the thermo information every 100 steps
thermo 1000  

# Reset the npt fix at a lower temperature (below freezing)
fix 1  all npt temp  ${temp} ${temp}  0.1  iso  5.68  5.68  0.5  mtk yes tchain  5  pchain  5
fix 1  all npt temp  0.45 ${temp}  0.1  iso  5.68  5.68  0.5  mtk yes tchain  5  pchain  5
fix 1  all npt temp  0.45 0.45  0.1  iso  5.68  5.68  0.5  mtk yes tchain  5  pchain  5

dump dmp2 all dcd ${N} traj.dcd
dump dmp2 all dcd 1000 traj.dcd


compute msd all msd com yes
variable twopoint equal c_msd[4]/6/(step*dt+1.0e-6)
fix 9 all vector 10 c_msd[4]
variable fit equal slope(f_9)/6/(10*dt)
thermo_style custom step temp pe c_msd[4] v_twopoint v_fit v_max_n

fix 1 all npt temp 1.25 ${temp} 0.1 iso 5.68 5.68 0.5 mtk yes tchain 5 pchain 5
fix 1 all npt temp 1.25 0.45 0.1 iso 5.68 5.68 0.5 mtk yes tchain 5 pchain 5
run 500000 # 5000000  # Run for this many steps
Neighbor list info ...
  update every 1 steps, delay 10 steps, check yes
  max neighbors/atom: 2000, page size: 100000
  master list distance cutoff = 3.8
  ghost atom cutoff = 3.8
  binsize = 1.9, bins = 8 8 8
  4 neighbor lists, perpetual/occasional/extra = 1 3 0
  (1) pair lj/cut, perpetual
      attributes: half, newton on
      pair build: half/bin/atomonly/newton
      stencil: half/bin/3d
      bin: standard
  (2) compute orientorder/atom, occasional
      attributes: full, newton on
      pair build: full/bin/atomonly
      stencil: full/bin/3d
      bin: standard
  (3) compute coord/atom, occasional
      attributes: full, newton on
      pair build: full/bin/atomonly
      stencil: full/bin/3d
      bin: standard
  (4) compute cluster/atom, occasional
      attributes: full, newton on
      pair build: full/bin/atomonly
      stencil: full/bin/3d
      bin: standard
Per MPI rank memory allocation (min/avg/max) = 9.815 | 9.821 | 9.825 Mbytes
Step Temp PotEng c_msd[4] v_twopoint v_fit v_max_n 
   12000    1.2623273   -2.7616421 1.0493822e-30 7.2873762e-33 8.3333333e+20            1 
   13000    1.2300935   -2.7756221    1.0773989  0.006906403  0.091388788            2 
   14000    1.2569897   -2.7569251    2.2590118  0.013446498  0.096232887            3 
   15000    1.2470294   -2.7440362    3.5080832   0.01948935  0.098054865            1 
   16000    1.2544009    -2.756414     4.707678  0.024519156  0.099919573            1 
   17000    1.2449846   -2.7775048    5.9497685  0.029165531   0.10041068            1 
   18000    1.2087879   -2.7674392     7.179252  0.033237277   0.10084316            1 
   19000    1.2441416   -2.7909816    8.4593205  0.037102282   0.10147577            2 
   20000    1.2237641   -2.7712604    9.7062295  0.040442622      0.10228            2 
   21000     1.231254   -2.7692903    10.996575  0.043637199   0.10263946            2 
   22000    1.2589573   -2.7686011    12.166488  0.046085182    0.1026106            1 
   23000    1.2271804   -2.7774947    13.460859  0.048771227   0.10296571            2 
   24000    1.2337117   -2.7917028    14.651645  0.050873766   0.10327125            1 
   25000    1.2458026   -2.7621641    15.892152   0.05297384   0.10335429            1 
   26000    1.2313557   -2.7706414    17.084464  0.054757896   0.10315465            3 
   27000    1.2304477   -2.7690944    18.060932  0.055743615   0.10274273            2 
   28000    1.2237723   -2.7943076    19.098326  0.056840254   0.10215996            3 
   29000    1.1900306   -2.7765892    20.457418  0.058785682   0.10170482            1 
   30000    1.2266003   -2.7951223    21.643101  0.060119725   0.10137507            1 
   31000    1.2446182   -2.7921358    22.864135  0.061462729   0.10125511            3 
   32000    1.1975663    -2.793593    24.035341  0.062592032   0.10112979            4 
   33000    1.2210116   -2.7722208    25.188069  0.063606233   0.10090226            2 
   34000    1.2222344   -2.8035978    26.207392  0.064233802   0.10067073            1 
   35000    1.1830581   -2.7825987    27.190374  0.064738985   0.10027031            1 
   36000    1.2031795   -2.7752986    28.410279  0.065764535  0.099843657            1 
   37000    1.2211849    -2.789381    29.576747  0.066614295  0.099520144            1 
   38000    1.2082137   -2.8165931    30.670397  0.067259641   0.09925076            1 
   39000     1.183451   -2.8019059    31.968062  0.068307823  0.099104918            2 
   40000    1.2152282   -2.8411089    33.164362   0.06909242  0.098961592            2 
   41000    1.2242208   -2.8286897     34.37828  0.069874552  0.098867549            1 
   42000    1.1969619   -2.7861024    35.619815  0.070674236  0.098805559            1 
   43000    1.2288694   -2.7950987    36.638542  0.071004926  0.098731686            5 
   44000    1.2235853   -2.8120062     37.95327  0.071881192  0.098625589            1 
   45000    1.1976485   -2.8101307     38.91861  0.072071499  0.098477093            2 
   46000    1.2218847   -2.8155232    39.840807  0.072175374  0.098385599            3 
   47000    1.2130682   -2.8351199    41.400106  0.073404443  0.098289144            1 
   48000     1.183378   -2.8010432    42.240409  0.073334042  0.098140867            2 
   49000    1.1834022   -2.8102243    43.484213  0.073952742  0.097960089            2 
   50000    1.1792883   -2.8408921     44.11404  0.073523399  0.097737442            2 
   51000    1.1725699    -2.823656    45.184141  0.073830296  0.097514566            2 
   52000    1.2004835   -2.8046657    46.095457  0.073870925  0.097291687            2 
   53000    1.1864037    -2.849851    47.363046  0.074470197  0.097047876            2 
   54000    1.1848812   -2.8048201    48.293514  0.074527027  0.096766417            4 
   55000    1.1720764   -2.7985608    49.422294  0.074882263  0.096484211            1 
   56000    1.1974135   -2.8224683    50.376596  0.074965172   0.09622731            1 
   57000    1.1980872   -2.8048886    51.441563  0.075206963  0.095993297            1 
   58000    1.1995096   -2.8260368    52.859851  0.075948061  0.095766369            1 
   59000    1.1600617   -2.8575902    53.582354  0.075681291  0.095584202            1 
   60000    1.1931914   -2.8159929    54.556719  0.075773221  0.095355629            2 
   61000    1.1574801   -2.8248481    55.651568  0.076026732  0.095139938            1 
   62000     1.169075   -2.8338384    56.481642  0.075916185  0.094896168            1 
   63000    1.1564611   -2.8486273    57.866789  0.076543371  0.094694006            1 
   64000    1.1554895    -2.855621    59.068075  0.076911555  0.094533628            2 
   65000    1.1504653   -2.8510309    60.597759  0.077689434  0.094430759            2 
   66000    1.1824126   -2.8382072    61.778129  0.078002688   0.09438873       -1e+20 
   67000     1.140843   -2.8448502    63.182079  0.078584675  0.094336499            3 
   68000    1.1619967   -2.8682017    64.330461  0.078836349  0.094280375            2 
   69000    1.1733475   -2.8748498    65.036629  0.078546653  0.094259419            2 
   70000    1.1588732   -2.8397134    66.208721  0.078819905  0.094240797            2 
   71000    1.1749333   -2.8464183    67.435004  0.079149065  0.094226192            1 
   72000    1.1524677   -2.8803793    68.426512  0.079197352  0.094187963            1 
   73000    1.1615933   -2.8891537    69.386812  0.079208689  0.094165927            1 
   74000    1.1485844   -2.8706962    70.739746  0.079661875  0.094118829            2 
   75000    1.1507945   -2.8219629     72.03491  0.080038788  0.094074193            1 
   76000    1.1173993   -2.8605035    72.521988  0.079519723  0.094024298            2 
   77000    1.1574357   -2.8341978    73.787916  0.079857052  0.093962941            1 
   78000    1.1351754   -2.8831364    75.176992  0.080317298  0.093915594            2 
   79000    1.1441413   -2.8890366    76.106318  0.080280926  0.093877584            1 
   80000    1.1168347   -2.8726939    77.576041  0.080808375  0.093852702            2 
   81000    1.1525626   -2.8783515    78.356613  0.080613799  0.093824499            2 
   82000    1.1156285   -2.8792556     79.44373  0.080735498  0.093762918            2 
   83000    1.1423743   -2.8897687    80.146434  0.080468306  0.093686222            2 
   84000    1.1501047   -2.8990586    80.969409  0.080326794  0.093593034            1 
   85000    1.1226071   -2.8653342    81.685513  0.080083836  0.093500413            2 
   86000    1.1357015   -2.9108965    83.168234  0.080589374  0.093399985            1 
   87000    1.1254259   -2.9112543    84.210948  0.080661827  0.093305513            1 
   88000    1.1250424   -2.8744702    84.940311    0.0804359  0.093174583            2 
   89000    1.1260798   -2.8851763     85.69267  0.080236582  0.093050653            2 
   90000     1.139575   -2.9160671    86.836419  0.080404091  0.092933002            2 
   91000    1.1281533   -2.8977874    87.946499  0.080537086  0.092828478            2 
   92000    1.1200311    -2.926098     88.96389  0.080583233  0.092725948            4 
   93000    1.1156912   -2.8890032    89.656973  0.080337789  0.092613129            2 
   94000    1.1192423   -2.8908033    91.184537  0.080837355  0.092503549            1 
   95000    1.1114978   -2.9161804    91.505067  0.080267603  0.092389837            2 
   96000     1.094346   -2.8913874    92.910198  0.080651213  0.092268273            4 
   97000    1.1333012   -2.9242071    93.418454  0.080256404  0.092147417            1 
   98000    1.1190169   -2.9144926     94.22584  0.080124013  0.092006386            2 
   99000    1.1125716   -2.8931255    95.437195  0.080334339  0.091855391            2 
  100000    1.1189279   -2.9134069    96.013794  0.080011494  0.091690694            2 
  101000    1.1101781   -2.9064961    97.177817  0.080179717  0.091515021            1 
  102000    1.0899782   -2.9473849    97.719491  0.079836185    0.0913482            3 
  103000    1.1138187   -2.9329304    99.124659  0.080197944  0.091198989            2 
  104000     1.091141   -2.9257435    99.996277  0.080125222  0.091049339            1 
  105000     1.132147   -2.9017085    100.56822  0.079816044  0.090894459            3 
  106000    1.0844338   -2.9289358    101.99016  0.080180947  0.090741359            1 
  107000     1.096055   -2.9491812    102.22443  0.079614045  0.090587144            2 
  108000    1.0839304   -2.9086585    103.33632  0.079734816  0.090420086            1 
  109000    1.0717656   -2.9049374    104.57455  0.079949965  0.090250848            2 
  110000    1.0996144   -2.9116084    105.31389  0.079783252  0.090096067            4 
  111000    1.0939947   -2.9010267    106.32387  0.079822724  0.089932426            3 
  112000    1.0895186   -2.9398995    106.89364  0.079533958  0.089772106            1 
  113000    1.0929779   -2.9507366     107.6882  0.079416074  0.089599805            2 
  114000     1.085528   -2.9363408     108.2505  0.079130479  0.089428285            5 
  115000    1.0691032   -2.9310078    109.10748  0.079063388  0.089262559            1 
  116000    1.0751128   -2.9494496    110.14724  0.079128767  0.089095397            1 
  117000    1.0960881   -2.9375303    110.66177  0.078818927  0.088915846            3 
  118000    1.1046436   -2.9724151    111.55996  0.078785283  0.088744985            3 
  119000    1.0900173   -2.9315641    112.24381  0.078602108  0.088561662            2 
  120000     1.076067   -2.9614638    113.04626  0.078504345  0.088374147            2 
  121000    1.0913327   -2.9536014    114.63842  0.078952081  0.088205143            2 
  122000    1.0583259   -2.9312787    115.96271  0.079209501  0.088032589            2 
  123000    1.0815629   -2.9631553    115.84926   0.07848866  0.087867876            2 
  124000     1.059766   -2.9763869    117.29913   0.07883006  0.087701705            1 
  125000    1.0738371   -2.9579205    117.90934  0.078606223  0.087541912            1 
  126000     1.070023   -2.9708923    118.75426  0.078541179  0.087382286            1 
  127000    1.0765421   -2.9952791    119.19738  0.078213507  0.087215239            2 
  128000    1.0646036   -2.9704277    120.49881  0.078449744  0.087042633            1 
  129000    1.0690988   -2.9834732    120.43068  0.077797595   0.08687348            5 
  130000    1.0882063   -3.0009932    121.63328  0.077970051  0.086703694            4 
  131000    1.0565817   -2.9813866     122.6402  0.078015392  0.086531334            2 
  132000    1.0665264   -2.9939204    122.95515  0.077623202  0.086360138            1 
  133000    1.0389165    -3.004617    123.88286   0.07762084  0.086191452            3 
  134000    1.0630423   -2.9612567    125.80501  0.078236947  0.086018954            2 
  135000     1.060323   -2.9640445    126.24054  0.077926257  0.085855802            2 
  136000    1.0438024   -2.9732812    126.78588  0.077687428  0.085697362            3 
  137000    1.0686305    -2.997995    128.02297  0.077872852  0.085539629            2 
  138000    1.0436615   -3.0045591    128.74497  0.077744549  0.085383085            3 
  139000    1.0323505   -3.0291415    128.99412  0.077334605  0.085225385            2 
  140000    1.0865101   -3.0053756    129.78016  0.077250092  0.085059024            5 
  141000    1.0507502   -2.9982293    130.37738  0.077055187  0.084894107            2 
  142000    1.0414158    -2.991846    131.48084  0.077160116   0.08473069            1 
  143000    1.0126799   -3.0209223     131.6886  0.076741607  0.084563463            3 
  144000    1.0493812   -3.0075195    132.19311  0.076500642  0.084393347            1 
  145000    1.0238551   -2.9920311    133.44546  0.076692792  0.084219299            4 
  146000    1.0361885   -3.0204162    134.28626  0.076647411  0.084049317            2 
  147000    1.0197319   -3.0130539    135.28232  0.076690658   0.08387234            3 
  148000    1.0298875   -3.0218233    135.29727  0.076180895  0.083695796            2 
  149000    1.0355186   -3.0378642     136.1091  0.076123655  0.083516285            6 
  150000    1.0343096   -3.0154618    137.64631  0.076470173  0.083344968            5 
  151000     1.053907   -3.0165171    137.53241  0.075900887  0.083172676            2 
  152000    1.0395733   -3.0127871    138.30624  0.075825791  0.083002164            3 
  153000     1.018522   -3.0291887    139.45392  0.075955291   0.08283257            1 
  154000    1.0040112    -3.022265    139.55672  0.075517703  0.082660584            2 
  155000   0.99452285    -3.017647    141.00624  0.075809806  0.082494538            3 
  156000    1.0256407   -3.0355439    142.39156  0.076063868  0.082339647            1 
  157000    1.0145652   -3.0155143    143.29013  0.076056331  0.082189396            1 
  158000    1.0289163   -3.0201625    143.27648  0.075567765  0.082033664            5 
  159000    1.0085008    -3.044844    143.65699  0.075291922  0.081874532            3 
  160000   0.98458283   -3.0198192    144.44577  0.075232174  0.081710831            2 
  161000   0.98746019   -3.0640212    144.94782   0.07502475  0.081549828            1 
  162000    1.0226247   -3.0635382     146.3594  0.075287758  0.081393985            1 
  163000    0.9961036   -3.0397216    147.51361  0.075415955  0.081242345            1 
  164000    1.0204295   -3.0753281    147.83643  0.075120137  0.081085557            2 
  165000    0.9929956   -3.0434649    148.69873   0.07510037  0.080933442            3 
  166000    1.0165461   -3.0331017     148.6274  0.074612148  0.080773015            2 
  167000   0.97963175   -3.0561336    149.18333   0.07444278  0.080615076            3 
  168000    1.0206304   -3.0507009    149.11303  0.073964798  0.080448906            4 
  169000    0.9829467   -3.0720311    150.03683   0.07398266  0.080281117            2 
  170000    1.0297234   -3.0662653    150.48756  0.073768411   0.08011109            4 
  171000    1.0074908   -3.0646377    151.19616   0.07368234  0.079935252            2 
  172000   0.98561434   -3.0449663     152.0568  0.073670932  0.079766607            3 
  173000   0.98416607   -3.0850891    153.26363  0.073826413  0.079600186            4 
  174000    1.0012947   -3.0811353    153.25874  0.073399778  0.079433435            4 
  175000     1.001678    -3.063851    154.60202   0.07362001  0.079267416            4 
  176000    0.9955634   -3.0713186    154.43367  0.073122005  0.079100183            3 
  177000    1.0026023   -3.1079349    154.80079  0.072881727  0.078934083            4 
  178000   0.98662462   -3.0752624    156.57554  0.073303153  0.078769272            2 
  179000   0.98248732   -3.0664752    157.49508   0.07332173  0.078608164            3 
  180000     0.968843   -3.0464885    158.62388  0.073436982  0.078451642            1 
  181000   0.98083879   -3.0866834    158.62546  0.073031979  0.078295686            3 
  182000   0.97431931   -3.0940947    159.54581  0.073052111  0.078146982            2 
  183000   0.98850902   -3.1086251    159.73269  0.072738018  0.077995413            4 
  184000   0.95258432   -3.0834018    160.51329  0.072696238  0.077837802            4 
  185000   0.97638957   -3.0999868    161.47631  0.072737076  0.077689681            2 
  186000    1.0044559   -3.1236213    162.26742  0.072700455  0.077546047            3 
  187000   0.97546103   -3.0849325    163.25613  0.072752284  0.077402118            2 
  188000   0.96657416   -3.1143149    162.81232  0.072168582  0.077256996            2 
  189000   0.97536472   -3.0959929      163.583  0.072126544  0.077108167            6 
  190000   0.96174589   -3.1009458    164.91053   0.07232918  0.076963156            3 
  191000   0.93974168   -3.0831704    164.98229  0.071981803  0.076815078            3 
  192000   0.93363307   -3.0983952     166.4933  0.072262718  0.076672723            2 
  193000   0.96214706   -3.1335686    166.16956  0.071748516  0.076531393            3 
  194000   0.95872485   -3.1172306    167.32577  0.071875331   0.07638738            4 
  195000   0.94885554   -3.0946855    167.46583  0.071566593  0.076237738            3 
  196000   0.95491716   -3.1200912     167.4556  0.071197111  0.076085123            4 
  197000    0.9722035   -3.0854716    169.35162  0.071637742   0.07593947            2 
  198000   0.94467483   -3.1105196    169.43752  0.071312089  0.075796461            2 
  199000   0.95143253   -3.1023011     170.1563  0.071254734  0.075654238            9 
  200000   0.93097986   -3.1002485    171.40409  0.071418373  0.075515029            2 
  201000   0.95393098   -3.1493154    171.18354  0.070971616  0.075378101            4 
  202000   0.93696846   -3.1084187      172.014  0.070962872  0.075240957            1 
  203000   0.92220269   -3.1194396    172.95972  0.071001529  0.075106121            2 
  204000   0.94908161     -3.14507    173.50583  0.070876566  0.074964953            3 
  205000   0.94431192   -3.1065284     174.6531  0.070997195   0.07482886            2 
  206000   0.95671341   -3.1187405    174.52519  0.070600803    0.0746894            3 
  207000   0.94276815   -3.1461916    174.74504  0.070348244  0.074548207            3 
  208000   0.93864148   -3.1402391    175.36204  0.070257226  0.074408789            3 
  209000   0.90456767   -3.1261295    176.30125  0.070295553   0.07426724            5 
  210000   0.93543102   -3.1369352    176.68699  0.070113885  0.074130256            4 
  211000   0.94222907   -3.1551519    177.16822   0.06997165  0.073996059            2 
  212000   0.91514908   -3.1498994    178.29423  0.070084208  0.073859518            1 
  213000   0.93527426   -3.1310311    178.90337  0.069993493  0.073724326            3 
  214000     0.918415   -3.1359934    179.29137  0.069817513  0.073589683            3 
  215000   0.91548049    -3.189078    179.91735  0.069735406  0.073452305            5 
  216000   0.94033012   -3.1510695    179.58902  0.069285886  0.073309772            5 
  217000   0.91902918   -3.1424891     180.1859  0.069195814  0.073167253            4 
  218000   0.94003143   -3.1463776    181.14792  0.069246145  0.073023163            5 
  219000   0.92796692   -3.1540709    180.83718  0.068811712  0.072876831            4 
  220000   0.91552202   -3.1848132    181.99187  0.068936316  0.072732054            4 
  221000   0.89639316   -3.1645719    182.26953  0.068729082  0.072584654            4 
  222000   0.91192892   -3.1630688    183.59308  0.068916321  0.072442484            4 
  223000   0.91233595   -3.1466357    184.09501  0.068794846  0.072306425            3 
  224000   0.90633879   -3.1776157    184.04571  0.068469385  0.072171892            3 
  225000    0.8868282   -3.1708352    185.01632  0.068524561  0.072030332            2 
  226000   0.92280028    -3.179764    184.34524   0.06797391  0.071888009            2 
  227000   0.89590985   -3.1650096    186.00347  0.068283213  0.071744549            5 
  228000   0.90399989   -3.1890211    185.88279  0.067939617  0.071603938            1 
  229000   0.89649815   -3.1967542    187.43554  0.068207986  0.071461654            4 
  230000   0.89871807   -3.2277065    187.26314  0.067848964  0.071324302            3 
  231000   0.89807137   -3.1888425    188.47409  0.067992096  0.071183502            4 
  232000   0.91014388   -3.1899772    188.86565  0.067839672  0.071046954            5 
  233000   0.89638803   -3.1631063    189.29131  0.067700754  0.070909695            4 
  234000   0.90188016   -3.1838644     189.8299  0.067603241  0.070776375            3 
  235000   0.89926014   -3.1745672    191.26297  0.067823749  0.070641805            1 
  236000   0.89814521   -3.2105792    190.18111  0.067154347   0.07050775            3 
  237000    0.8771892   -3.2082573      190.588  0.067014063  0.070372036            2 
  238000   0.88528226    -3.221056    191.78833  0.067152777  0.070235282            2 
  239000    0.9004567   -3.1961474    191.82679  0.066885213  0.070099901            3 
  240000   0.88925067   -3.1976655    193.05546  0.067033146  0.069964229            2 
  241000   0.90109689   -3.2069534    193.30899  0.066842668  0.069830868            3 
  242000   0.87797176   -3.2322313    193.64826  0.066683285  0.069696526            3 
  243000   0.84942961   -3.2112694    193.77892  0.066453677   0.06956223            6 
  244000   0.88135502   -3.1978117    194.79584  0.066528633  0.069426869            4 
  245000   0.89359606   -3.1853523    194.73884  0.066237699  0.069294232            4 
  246000   0.86869384    -3.228746    195.63062  0.066270536   0.06916306            4 
  247000   0.88437282   -3.2086974    196.60712  0.066331686  0.069033402            5 
  248000   0.86752832   -3.2389708    197.29478  0.066295287  0.068906105            3 
  249000   0.85915103   -3.2058268    197.49157  0.066094901  0.068780713            5 
  250000   0.86921035   -3.2626494    197.29269  0.065764228  0.068653067            4 
  251000   0.86200028    -3.221296    198.47239  0.065893887  0.068523651            6 
  252000   0.87732049   -3.2496836    198.63555  0.065686358  0.068392132            3 
  253000   0.87281313   -3.2324852    198.70746  0.065450416  0.068261321            4 
  254000   0.86441371   -3.2505478    199.66042  0.065505386  0.068129112            4 
  255000   0.85902948   -3.2405439    199.62086  0.065235576   0.06799713            4 
  256000   0.85026415   -3.2609699    200.37011  0.065224646  0.067864846            3 
  257000   0.84118717   -3.2728361     201.1845  0.065234923  0.067736672            2 
  258000   0.86225937   -3.2529245    201.87505   0.06520512   0.06761054            2 
  259000   0.85751474   -3.2644131    201.77828  0.064922227  0.067485598            2 
  260000   0.83633977   -3.2532476    202.61583   0.06494097   0.06735793            6 
  261000   0.86646568   -3.2272412    202.89581  0.064781547  0.067228652            5 
  262000   0.83319223   -3.2839576    202.89928  0.064535396  0.067098091            4 
  263000   0.84626763   -3.2677685    203.52205  0.064487342  0.066967869            5 
  264000    0.8372437    -3.251858    204.82107  0.064653117    0.0668421            4 
  265000   0.85245217   -3.2702174    204.62132  0.064346326   0.06671598            3 
  266000   0.83434788   -3.2531243    205.43407  0.064359045  0.066588847            4 
  267000   0.84114049   -3.2692501    205.71258  0.064204924  0.066464646            7 
  268000   0.84258326   -3.2725257    205.52262  0.063906286  0.066338557            4 
  269000   0.83543613   -3.2746469    206.88704    0.0640914  0.066214609            2 
  270000   0.83592547   -3.2838379     207.3409  0.063994104  0.066090853            2 
  271000   0.83332547   -3.2891976     208.4953  0.064112946  0.065970261            2 
  272000   0.82859266   -3.2749457    207.98467  0.063720793  0.065851489            3 
  273000   0.82833776   -3.2802863    208.48612   0.06364045  0.065733242            3 
  274000   0.82958837   -3.2927036    208.61314  0.063446819  0.065613393            6 
  275000   0.82809248   -3.2676087    210.66246  0.063837109  0.065494413            3 
  276000   0.81584267   -3.2824013    211.34387  0.063811554  0.065378588            3 
  277000   0.83755993   -3.2731447     211.3112  0.063571359    0.0652661            2 
  278000   0.83257864   -3.3090852    212.36726  0.063659251  0.065152679            5 
  279000   0.82809554   -3.2851799    212.78253  0.063555117  0.065042528            2 
  280000   0.82217552   -3.3093343    213.05965   0.06341061  0.064931067            2 
  281000   0.82993076   -3.2846645    213.62809  0.063353527  0.064817592            6 
  282000   0.80585254   -3.3038049    213.91733  0.063214341  0.064704502            4 
  283000   0.81269476   -3.3034655    214.83235   0.06326041  0.064595206            2 
  284000    0.8235408   -3.2917372     215.0475  0.063100792  0.064486777            3 
  285000   0.81050255    -3.317463    214.91087  0.062839435  0.064378103            4 
  286000   0.81056692   -3.3208109     215.9371  0.062918735  0.064270427            3 
  287000   0.82195306   -3.3163883    216.40371   0.06283499  0.064164963            4 
  288000   0.81712609   -3.3027607    216.82735  0.062739394  0.064058967            4 
  289000   0.79819501    -3.324949    217.84716  0.062816366  0.063951697            3 
  290000   0.82413857   -3.3240113    218.19147  0.062698697  0.063844803            3 
  291000   0.79584125   -3.3300844    218.06705  0.062447609  0.063736038            3 
  292000   0.80486633   -3.3219207    218.82139  0.062449027  0.063626388            4 
  293000   0.78473672    -3.342924    219.48849  0.062425624  0.063520621            8 
  294000   0.79991081   -3.3094214    219.70845  0.062275636   0.06341615            3 
  295000   0.79948642   -3.3506342    219.93066  0.062127304  0.063308939            6 
  296000   0.78459811   -3.3447268    220.17414  0.061985962  0.063203187            5 
  297000    0.7774542    -3.350144     220.0802  0.061750899   0.06309367            4 
  298000   0.79824514   -3.3692096    220.25078  0.061591382  0.062983562            4 
  299000   0.78862515   -3.3388835    221.01497  0.061598375  0.062874538            2 
  300000   0.79788816   -3.3697393    222.49619  0.061804497  0.062766835            7 
  301000   0.78940253   -3.3391776    222.41945  0.061577921  0.062658375            5 
  302000   0.80023612   -3.3396703    223.30166  0.061617455  0.062549069            2 
  303000   0.76491945   -3.3422278    222.04653  0.061068904  0.062439043            5 
  304000   0.79219467   -3.3689164     221.9458  0.060840406  0.062327723            5 
  305000   0.79243439   -3.3736277    222.96077  0.060918242  0.062214788            3 
  306000   0.77090738   -3.3598195    223.56192  0.060882877  0.062101509            3 
  307000   0.77437805   -3.3608798    223.83322  0.060758204  0.061987655            5 
  308000   0.78691974   -3.3769293    223.35829  0.060432437  0.061874148            4 
  309000   0.77384831   -3.3823666    224.36442  0.060508204  0.061760039            5 
  310000   0.76854181   -3.3778194    223.30336  0.060027786  0.061644334            4 
  311000   0.77038408   -3.3582208    223.95727  0.060009986  0.061529548            6 
  312000   0.75105363   -3.3939925    224.69545  0.060014811  0.061412564            5 
  313000   0.78757773   -3.3904814    224.98626  0.059900495  0.061298373            3 
  314000   0.77924904    -3.397819    224.49354  0.059578966  0.061184144            6 
  315000   0.77465735   -3.4006457    225.86098  0.059751581  0.061069433            5 
  316000   0.75291349   -3.4095688    226.48219  0.059726315   0.06095442            8 
  317000   0.75131649    -3.408832     226.3143   0.05949377  0.060840551            5 
  318000   0.77013587   -3.4163698    226.64241  0.059392666  0.060727238            3 
  319000    0.7552985    -3.377154    227.34533  0.059390108  0.060617372            5 
  320000   0.74540495   -3.4103706    228.34308  0.059464344  0.060505957            9 
  321000   0.75234133   -3.4152261    228.21273  0.059245256  0.060393713            6 
  322000   0.75783797   -3.4142438    227.63585  0.058911971   0.06027893            5 
  323000   0.75767186   -3.4000961    228.30334  0.058901789  0.060164698            4 
  324000   0.75804665   -3.3834327    228.54223  0.058781438  0.060050582            5 
  325000   0.74405975   -3.4080547    228.32127  0.058543915  0.059934738           11 
  326000   0.74999958   -3.4057074    228.32615  0.058365581  0.059818272            5 
  327000   0.74461201   -3.4157431    229.66205  0.058527537  0.059704153            7 
  328000   0.74656286   -3.3999388    230.34716   0.05852316  0.059591874            5 
  329000   0.74009497   -3.4212079    229.66382  0.058172194  0.059479077            5 
  330000   0.75327758   -3.4191596    229.76283  0.058020916  0.059364144            4 
  331000   0.73266647   -3.4227889    230.58288  0.058052085  0.059249182            3 
  332000   0.74096601   -3.4315268    229.72064  0.057660804  0.059133329            2 
  333000   0.73079893   -3.4418466    230.00431  0.057558637  0.059015402            4 
  334000   0.72824032   -3.4266692    230.35703   0.05747431  0.058897991            6 
  335000   0.73178271   -3.4301743    230.95097  0.057450491  0.058780958            4 
  336000   0.73416949   -3.4353819    231.42709  0.057397591  0.058665654            8 
  337000   0.74256238   -3.4337584    232.07855  0.057388366  0.058551821            8 
  338000   0.73218337   -3.4515523    232.07792  0.057218421  0.058436453            8 
  339000   0.72859196   -3.4544225    231.83896  0.056990894  0.058321639           10 
  340000    0.7238416   -3.4483203    233.51014  0.057232876  0.058208714            6 
  341000   0.72908634   -3.4230279    233.57351  0.057080524  0.058097159            4 
  342000    0.7026835   -3.4548445    234.04083  0.057027493  0.057985145            5 
  343000   0.71910812   -3.4516534    233.79771  0.056802165  0.057872797            3 
  344000   0.71190401   -3.4595432    234.60538  0.056832699  0.057761607            5 
  345000   0.71390235   -3.4678307    233.66081  0.056439808  0.057649313            7 
  346000    0.7265722   -3.4757052    233.94268  0.056344577  0.057534965            5 
  347000    0.7062662   -3.4561839    234.76914  0.056380677  0.057421665            5 
  348000   0.71294891   -3.4667612    234.50633  0.056155731  0.057308418            4 
  349000   0.71041393   -3.4718109    235.19992   0.05616044  0.057193956            5 
  350000   0.70825771   -3.4789613    236.00692  0.056192123  0.057080281            8 
  351000   0.71178753   -3.4681868    235.23916  0.055849753  0.056966251            6 
  352000   0.72359463   -3.4957097    235.12351  0.055663709  0.056851395            2 
  353000   0.70045477   -3.4618823     235.6387  0.055627645  0.056736055            2 
  354000   0.72103968   -3.4762598    235.87202  0.055525429  0.056621249            8 
  355000   0.71088268   -3.5076445    236.46944  0.055509259  0.056508281            6 
  356000   0.69970864   -3.5038666    236.70556  0.055408604  0.056393945            8 
  357000   0.70306695   -3.4604615    236.98801   0.05531933   0.05628114            3 
  358000   0.69472213   -3.4899267    237.38159  0.055256422  0.056169023            3 
  359000   0.70532792    -3.491527     237.7012  0.055176695  0.056056978            5 
  360000   0.69017136   -3.4915096    237.93457  0.055077448  0.055944592            4 
  361000   0.69070493   -3.5204951    237.88143  0.054912612  0.055833404            9 
  362000    0.6889038   -3.5125178     237.6627  0.054710566  0.055722268            5 
  363000   0.68396532   -3.5085164     238.7927   0.05481926  0.055610991            7 
  364000   0.68884319    -3.532322     238.7418  0.054657005   0.05549863            6 
  365000   0.69529088   -3.5397677    238.60767  0.054476637  0.055385224            4 
  366000    0.6805648   -3.5283301    238.14371  0.054222155  0.055272682            9 
  367000   0.68357786   -3.5233628     239.5436   0.05439228  0.055158946           15 
  368000   0.66922244   -3.5435766    238.85695  0.054088983  0.055045604            4 
  369000   0.66968659   -3.5132639    238.60725   0.05388601   0.05493294            4 
  370000   0.68930781   -3.5172852    238.92788  0.053812586  0.054819635            5 
  371000   0.67342913    -3.516123    239.49379  0.053794651  0.054706612            7 
  372000   0.68568849   -3.5328493    240.07813  0.053780943  0.054593125            2 
  373000   0.68938719   -3.5312505     239.9629  0.053611015  0.054480964            4 
  374000   0.67625929   -3.5547277    240.46615  0.053579801  0.054369053            6 
  375000   0.67763882   -3.5566264    240.11673  0.053359273   0.05425816           11 
  376000   0.66348498   -3.5495891    241.02412  0.053418466   0.05414563            6 
  377000   0.66526879   -3.5241247    241.08573  0.053290392   0.05403367           11 
  378000   0.64872736   -3.5576282    240.69024  0.053062221  0.053920961            4 
  379000   0.66812539   -3.5578963    241.66354  0.053136222  0.053808745            4 
  380000   0.64669585   -3.5568035    242.18674  0.053111127  0.053696793            4 
  381000   0.65458122   -3.5642421    241.50002  0.052821526  0.053585844            6 
  382000   0.65539152   -3.5358305     241.8326  0.052755804    0.0534751            6 
  383000    0.6479267    -3.548996    241.84705  0.052621203  0.053364535            9 
  384000   0.66538433   -3.5704004    242.95187   0.05272393  0.053253804            4 
  385000   0.66282757   -3.5467752    241.70236  0.052316527  0.053143491            3 
  386000   0.63767631     -3.55657    242.73723   0.05240441   0.05303455            7 
  387000   0.66070598   -3.5508781    243.24032   0.05237733  0.052925352           12 
  388000   0.63645385   -3.5563982    243.68232  0.052337268  0.052817555           12 
  389000   0.64234028   -3.5659765    243.84561  0.052237706  0.052709357            7 
  390000   0.64910809   -3.5854486    244.04226  0.052145782  0.052601433            7 
  391000   0.65283388   -3.5808644     243.5025  0.051897379  0.052493005            6 
  392000   0.63135233   -3.5856158    244.12928  0.051898232  0.052384419           19 
  393000   0.63279945   -3.5780701    243.35382  0.051601743   0.05227451            4 
  394000   0.63228026   -3.5853871    243.53649   0.05150941  0.052165068            4 
  395000   0.64601868   -3.5961027    244.20134  0.051519271  0.052055151            7 
  396000   0.62444719   -3.5902712    243.63433   0.05126985  0.051944582            8 
  397000   0.61934633      -3.6045    243.47226  0.051106689  0.051833744           10 
  398000   0.63037911   -3.6097934     244.2093  0.051132601  0.051722885           10 
  399000   0.63508489   -3.5994185    243.35079  0.050825144  0.051611436            9 
  400000   0.64434397   -3.6105252      244.491  0.050935626  0.051499946           13 
  401000   0.61822577    -3.614483    243.91808  0.050689542  0.051388743            7 
  402000   0.63005109   -3.6081877    244.59097  0.050702938  0.051277834            4 
  403000   0.62067472    -3.607841    244.37953  0.050533401  0.051168162           11 
  404000   0.63170829   -3.6072252    244.82877  0.050500983  0.051057152            7 
  405000   0.61414221    -3.615103    245.71769  0.050559195  0.050947696           15 
  406000   0.63051803   -3.6122051    245.49963  0.050389908  0.050838459            7 
  407000   0.62421985   -3.6136794    245.17305  0.050199231  0.050729176            7 
  408000    0.6254401   -3.6093976    246.00521  0.050246162  0.050619402           11 
  409000   0.61506884   -3.6389392    245.55205  0.050030979  0.050510132            3 
  410000   0.61311665   -3.6130293    245.72285  0.049943669  0.050401748            8 
  411000   0.61131111   -3.6356164    246.27999  0.049935115   0.05029389            7 
  412000   0.60740928   -3.6282936    246.28013  0.049813942  0.050185462            7 
  413000   0.61231248   -3.6296298    245.90618  0.049617873  0.050078103            8 
  414000   0.59970347   -3.6227032    246.41917  0.049601283  0.049970419            9 
  415000   0.60705317   -3.6749561    246.13063  0.049423822  0.049861831            5 
  416000   0.60257188   -3.6619137    246.54192  0.049387405  0.049754387           11 
  417000   0.60603826   -3.6480055    246.55265  0.049271114    0.0496463            3 
  418000   0.60223611    -3.659102     246.1166  0.049066308  0.049538036           14 
  419000   0.58991585   -3.6580085    245.97953  0.048921942  0.049429216            7 
  420000   0.59953841   -3.6546417    246.84995  0.048978165  0.049320678            9 
  421000   0.59705789   -3.6710129    246.73391  0.048838858  0.049212229            8 
  422000   0.58854347   -3.6552734    246.37511  0.048652272  0.049103682            5 
  423000   0.58866022   -3.6623614    246.89227  0.048639139  0.048995231            3 
  424000   0.59691487   -3.6627724    247.49643  0.048643167  0.048887373           11 
  425000   0.60020344   -3.6746166    246.65574  0.048363871  0.048780091           11 
  426000   0.58630634   -3.6737902    247.35944  0.048387997  0.048672408            9 
  427000   0.58706049   -3.6789905      247.544  0.048310694  0.048565612           11 
  428000   0.58257564   -3.6874271    247.65002  0.048218462  0.048459472            8 
  429000   0.57269898   -3.6849274    248.02868   0.04817962  0.048352744            7 
  430000   0.59676955   -3.6894439    247.97591  0.048057347  0.048246464            6 
  431000   0.57303559   -3.6936182     247.8421  0.047919972  0.048140822           10 
  432000   0.57740778   -3.6826049     248.1589  0.047870157  0.048035108            6 
  433000   0.56885993   -3.6868009    247.76753  0.047684282  0.047928811            4 
  434000   0.56962126   -3.6975644    248.26075  0.047669114  0.047822175           22 
  435000   0.58334173   -3.7075393    248.09411  0.047527608  0.047715656            9 
  436000   0.57839808   -3.6979105    247.58721  0.047321715  0.047609002            5 
  437000    0.5632156   -3.7043963    248.35306   0.04735947    0.0475022           15 
  438000   0.56408129   -3.7148641    247.76678  0.047139797  0.047395198            7 
  439000   0.57320656   -3.7078357    248.02419  0.047081282  0.047288295           11 
  440000   0.57699409   -3.7461863    247.61031  0.046895892  0.047181644            9 
  441000   0.58222089   -3.7199612    248.04815  0.046872289  0.047074937            8 
  442000   0.56233636   -3.7218551    248.21335  0.046797389  0.046968742            7 
  443000    0.5519014   -3.7331422    248.47296  0.046740587  0.046862568           16 
  444000   0.55853051   -3.7160782    248.55831  0.046651333  0.046755974            9 
  445000   0.55039102    -3.738604    248.57432  0.046549498  0.046649211           10 
  446000   0.54343489   -3.7463756    248.51709  0.046434434  0.046542609            4 
  447000   0.55129233   -3.7267944    248.39809  0.046308368  0.046435889            6 
  448000   0.54835376   -3.7319382    248.25457  0.046178305  0.046329654           10 
  449000   0.54262136   -3.7530771    248.14777  0.046055637  0.046223384           20 
  450000   0.53649688   -3.7340652    249.43704  0.046192044  0.046117187           11 
  451000   0.54509144   -3.7494931    248.29837  0.045879226  0.046012041            9 
  452000    0.5564331   -3.7576713    248.48048  0.045811297  0.045906859            6 
  453000   0.54233733   -3.7340607     248.5583  0.045724486  0.045802006           22 
  454000   0.54033798   -3.7618195    248.61876  0.045634868  0.045696966           11 
  455000   0.54048321   -3.7551679     248.9546  0.045596081  0.045592059            6 
  456000    0.5529842   -3.7749344    248.57759   0.04542719  0.045487209            8 
  457000   0.53970676   -3.7568671    248.73544  0.045356572  0.045382479           11 
  458000   0.54649436   -3.7495535    249.17108  0.045336804  0.045278086            7 
  459000    0.5324817   -3.7789165    248.86223  0.045181958  0.045174115           14 
  460000    0.5375466   -3.7680214    249.31366  0.045165519  0.045069682           14 
  461000    0.5378347   -3.7851229    249.00336  0.045011453  0.044965156           32 
  462000   0.53154535   -3.7889677    249.24049  0.044956798  0.044860712            9 
  463000   0.53024748   -3.7823312    249.28739   0.04486814  0.044756435           18 
  464000   0.53112972   -3.7671193    249.18929  0.044753824  0.044652188           14 
  465000   0.51974935   -3.7864855    248.75968  0.044580588   0.04454886           11 
  466000   0.52027581    -3.796073     249.1372  0.044552431  0.044445959           11 
  467000   0.52140656   -3.7996941    249.19804  0.044467888  0.044342797           15 
  468000   0.51490253     -3.80639     249.4884  0.044424573  0.044239948            8 
  469000   0.51955446   -3.7864404    249.48469  0.044329192  0.044138189           11 
  470000   0.53745737   -3.7920517    249.93653  0.044314987  0.044036738           12 
  471000    0.5146402    -3.797594    249.37526  0.044121595  0.043934782           12 
  472000   0.51433156   -3.8157058    249.20177  0.043997488  0.043832341            7 
  473000   0.51525673   -3.8221144    249.30386  0.043922456  0.043730094           13 
  474000   0.51895191   -3.8210486    249.64774   0.04389025  0.043628447           23 
  475000   0.51056148   -3.8429987     249.4015  0.043754649  0.043527015           10 
  476000   0.51186641   -3.8328771    249.35678  0.043654898  0.043424804           23 
  477000    0.5078243   -3.8502875    249.21307  0.043538273  0.043322327           15 
  478000    0.4996426   -3.8347963    249.53836  0.043503899  0.043220316           25 
  479000   0.50368606   -3.8496472    249.37608  0.043384844  0.043118272           13 
  480000   0.49664474   -3.8517326    249.51142  0.043317955  0.043016201           27 
  481000   0.50913166   -3.8253904     249.3048    0.0431921  0.042914306           17 
  482000   0.49975508   -3.8383784    248.67064  0.042992849  0.042812074           22 
  483000   0.50425597   -3.8544392    249.36085  0.043022921  0.042710296           22 
  484000   0.49825176   -3.8438277    249.19685  0.042905793  0.042608496           11 
  485000   0.48090707   -3.8490743    248.77576  0.042744976  0.042507148           21 
  486000    0.4810894   -3.8428333    248.86638  0.042672562  0.042406025           21 
  487000   0.49200179   -3.8508247    249.65899  0.042720566  0.042304737           13 
  488000   0.48419933   -3.8462511    249.35731  0.042581508  0.042203589           33 
  489000   0.48601939   -3.8619994    249.13084  0.042455836  0.042102672           23 
  490000   0.48238962   -3.8881799    249.37636  0.042410945   0.04200193           13 
  491000   0.48391119   -3.8763777    248.50566  0.042176793  0.041901638           13 
  492000    0.4764769   -3.8863484    249.29104  0.042224093  0.041801061           26 
  493000   0.48224556    -3.874151    249.37871  0.042153265   0.04170075           24 
  494000   0.47548312   -3.8885736    249.52937  0.042093349  0.041600852           17 
  495000   0.48088781   -3.8889936    249.47939  0.041999898  0.041501384           11 
  496000   0.48517258   -3.8939195    249.05034  0.041843135  0.041402259           23 
  497000   0.46907419   -3.8949215    248.90621  0.041734777   0.04130288           18 
  498000   0.47332707   -3.8685071    249.61449  0.041769494  0.041204019           35 
  499000   0.46924423    -3.878007    249.28891  0.041631415  0.041105722           23 
  500000   0.47246371   -3.8986064    249.63394  0.041605656  0.041007846           55 
  501000   0.47454759   -3.8895917    249.74323  0.041540791  0.040909806           28 
  502000   0.46371327   -3.8990549    249.13488  0.041357052  0.040811683           29 
  503000   0.46708367   -3.9010993    249.75355  0.041377328  0.040713631           16 
  504000   0.46501428   -3.8970818    250.00031   0.04133603  0.040615485           24 
  505000   0.46399967   -3.9164629    249.46525  0.041165883  0.040517793           33 
  506000   0.46541414   -3.9070374    249.96293   0.04116649  0.040420428           26 
  507000   0.45369098   -3.8938998    249.55094  0.041017578  0.040323297           22 
  508000   0.46019015   -3.9139197    248.52233  0.040768099  0.040226551           23 
  509000   0.45540777   -3.9160341    249.16895  0.040793869  0.040129489           33 
  510000   0.45443587   -3.9372571    249.85358  0.040825748  0.040032735           15 
  511000   0.44355255   -3.9280629    249.60804  0.040705812  0.039936181           41 
  512000   0.45489878   -3.9338128    249.77374  0.040653278  0.039840095           23 
Loop time of 1222.78 on 48 procs for 500000 steps with 4000 atoms

Performance: 70658.903 tau/day, 408.906 timesteps/s
99.4% CPU use with 48 MPI tasks x no OpenMP threads

MPI task timing breakdown:
Section |  min time  |  avg time  |  max time  |%varavg| %total
---------------------------------------------------------------
Pair    | 77.317     | 83.887     | 88.993     |  29.7 |  6.86
Neigh   | 8.1843     | 8.5719     | 9.0305     |   7.0 |  0.70
Comm    | 77.002     | 82.797     | 89.171     |  31.0 |  6.77
Output  | 0.95632    | 0.95675    | 0.96587    |   0.1 |  0.08
Modify  | 1030.7     | 1034.7     | 1037.8     |   5.7 | 84.62
Other   |            | 11.84      |            |       |  0.97

Nlocal:        83.3333 ave          92 max          77 min
Histogram: 6 3 7 4 10 5 9 0 2 2
Nghost:        2198.98 ave        2223 max        2185 min
Histogram: 5 5 11 10 6 6 1 3 0 1
Neighs:        14648.4 ave       16246 max       13059 min
Histogram: 3 3 4 5 9 9 5 5 2 3
FullNghs:      29297.2 ave       32928 max       26640 min
Histogram: 2 9 3 8 7 9 6 0 2 2

Total # of neighbors = 1406266
Ave neighs/atom = 351.56650
Neighbor list builds = 27093
Dangerous builds = 0

#clear
#
#next RN
#
#jump SELF
Total wall time: 0:20:26
