
units lj                  # Use reduced LJ style units
atom_style atomic         # Uncharged point particles
atom_modify map hash      # Needed for indexing of clusters etc
                          # Used to be able to find where atoms are in relation to each other.

lattice fcc 1.0 spacing 1 1 1
Lattice spacing in x,y,z = 1.5874011 1.5874011 1.5874011
region box block 0 10 0 10 0 10 units lattice
create_box 2 box
Created orthogonal box = (0.0000000 0.0000000 0.0000000) to (15.874011 15.874011 15.874011)
  3 by 4 by 4 MPI processor grid
create_atoms 1 box
Created 4000 atoms
  using lattice units in orthogonal box = (0.0000000 0.0000000 0.0000000) to (15.874011 15.874011 15.874011)
  create_atoms CPU = 0.002 seconds
set type 1 type/fraction 2 0.73 78393
Setting atom values ...
  2936 settings made for type/fraction
mass 1 1.0
mass 2 1.0
pair_style lj/cut  3.5
pair_modify tail  yes
pair_coeff 1  1  1.0  1.0   # Intearaction between 1 and 1 set with epsilon = 1 and sigma = 1
pair_coeff 1  2  1.5  0.8
pair_coeff 2  2  0.5  0.88

write_data data.0
System init for write_data ...
Neighbor list info ...
  update every 1 steps, delay 10 steps, check yes
  max neighbors/atom: 2000, page size: 100000
  master list distance cutoff = 3.8
  ghost atom cutoff = 3.8
  binsize = 1.9, bins = 9 9 9
  1 neighbor lists, perpetual/occasional/extra = 1 0 0
  (1) pair lj/cut, perpetual
      attributes: half, newton on
      pair build: half/bin/atomonly/newton
      stencil: half/bin/3d
      bin: standard
WARNING: Not all mixed pair coeffs generated from mixing. Use write_data with 'pair ij' option to store all pair coeffs. (../write_data.cpp:312)


#############################
#   M E L T   S Y S T E M   #
#############################

velocity all create 2.4 2750902 mom yes dist gaussian # Assign velocities
                                                    # Temperature 2.4, random number seed, zero linear momentum
                                                                                # Gaussian distribution

timestep 0.002   # simulation timestep
thermo 1000       # output thermodynamic data every 1000 steps bf 100

# Define a fix  in this case with index 1 applied to all
# particles in the simulation. This fix is for simulations
# in the anisotropic NPT ensemble. Note that we use the MTK
# correction.
fix 1 all npt temp 2.4 2.4 0.1 iso 5.68 5.68 0.5 mtk yes tchain 5 pchain 5 # Use NPT ensemble
                                                                         # Set temperature and pressure and damping
                                                                         # Numbers of thermostats in chain and in barostat
run 10000          # run for 10000 steps
Per MPI rank memory allocation (min/avg/max) = 3.642 | 3.644 | 3.648 Mbytes
Step Temp E_pair E_mol TotEng Press Volume 
       0          2.4   -4.0230884            0  -0.42398835   -3.6147038         4000 
    1000    2.4019622   -3.6101236            0 -0.0080809535    5.6402729    3679.5231 
    2000    2.4237215   -3.5647503            0  0.069923122    5.4972717    3708.6218 
    3000    2.3676245   -3.5961765            0 -0.045627668    5.8677804    3656.9932 
    4000    2.4069804   -3.5844411            0  0.025126767    5.4189675    3703.5621 
    5000    2.3729752   -3.5108602            0  0.047712805    5.8392913    3711.0509 
    6000    2.4104207   -3.5318287            0  0.082898466    5.5393783    3728.2932 
    7000    2.4519603    -3.578926            0  0.098094918    5.7856531    3685.2739 
    8000    2.3617417   -3.6175588            0 -0.075831941    5.6346725    3661.1571 
    9000    2.3970118   -3.5774972            0  0.017121639    5.7913908    3678.6075 
   10000    2.3894532   -3.5519373            0  0.031346518    5.6220011    3709.3964 
Loop time of 2.68935 on 48 procs for 10000 steps with 4000 atoms

Performance: 642534.842 tau/day, 3718.373 timesteps/s
99.6% CPU use with 48 MPI tasks x no OpenMP threads

MPI task timing breakdown:
Section |  min time  |  avg time  |  max time  |%varavg| %total
---------------------------------------------------------------
Pair    | 1.1955     | 1.2629     | 1.4476     |   3.8 | 46.96
Neigh   | 0.21605    | 0.22428    | 0.2592     |   1.5 |  8.34
Comm    | 0.77979    | 0.91965    | 1.0502     |   6.6 | 34.20
Output  | 0.00024686 | 0.00025268 | 0.00032093 |   0.0 |  0.01
Modify  | 0.18634    | 0.26683    | 0.34198    |  10.3 |  9.92
Other   |            | 0.01543    |            |       |  0.57

Nlocal:        83.3333 ave          95 max          74 min
Histogram: 7 2 4 4 12 7 6 3 1 2
Nghost:        1723.46 ave        1757 max        1665 min
Histogram: 1 0 3 3 8 4 7 11 3 8
Neighs:        10291.1 ave       12162 max        8870 min
Histogram: 6 3 4 9 9 6 5 3 1 2

Total # of neighbors = 493971
Ave neighs/atom = 123.49275
Neighbor list builds = 909
Dangerous builds = 204

# Equilibrate just above the melting temperature to avoid step fn in T

fix 1 all npt temp 1.25 1.25 0.1 iso 5.68 5.68 0.5 mtk yes tchain 5 pchain 5
run 2000
Per MPI rank memory allocation (min/avg/max) = 3.644 | 3.646 | 3.649 Mbytes
Step Temp E_pair E_mol TotEng Press Volume 
   10000    2.3894532   -3.5519373            0  0.031346518    5.6220011    3709.3964 
   11000    1.2510917   -5.2746483            0   -3.3984798    5.6685552    2818.6114 
   12000    1.2277229   -5.2488016            0   -3.4076777     5.548626    2830.6744 
Loop time of 0.643533 on 48 procs for 2000 steps with 4000 atoms

Performance: 537035.475 tau/day, 3107.844 timesteps/s
99.7% CPU use with 48 MPI tasks x no OpenMP threads

MPI task timing breakdown:
Section |  min time  |  avg time  |  max time  |%varavg| %total
---------------------------------------------------------------
Pair    | 0.3029     | 0.32011    | 0.34005    |   1.6 | 49.74
Neigh   | 0.042359   | 0.043647   | 0.045074   |   0.3 |  6.78
Comm    | 0.20898    | 0.2311     | 0.25284    |   2.2 | 35.91
Output  | 5.1405e-05 | 5.303e-05  | 6.8972e-05 |   0.0 |  0.01
Modify  | 0.039883   | 0.043862   | 0.046599   |   1.0 |  6.82
Other   |            | 0.004763   |            |       |  0.74

Nlocal:        83.3333 ave          92 max          73 min
Histogram: 1 1 3 7 6 12 6 9 2 1
Nghost:        2073.58 ave        2099 max        2050 min
Histogram: 1 5 4 9 4 12 2 6 4 1
Neighs:        13486.1 ave       15208 max       11695 min
Histogram: 1 2 6 7 7 9 8 4 2 2

Total # of neighbors = 647335
Ave neighs/atom = 161.83375
Neighbor list builds = 144
Dangerous builds = 13

#############################
# L I N E A R  Q U E N C H  #
#############################

# Define solid atoms. This closely follows ten Wolde  Ruiz-Montero and Frenkel  Faraday Discuss  1996  104  93-110
# Compute components of the per-atom q6 vector
compute q6 all orientorder/atom degrees 1 6 components 6 nnn NULL cutoff 1.3 # compute the Q6 parameter.
                                                                             # Use all neighbours within 1.3 unit cell.

# get number of connections
compute coord_number all coord/atom orientorder q6 0.5

# An atom is solid if it has 8 or more connections (of a possible 14)
variable is_solid atom c_coord_number>=8
group solid dynamic all var is_solid    # Must be dynamic to update
dynamic group solid defined

# do clustering
compute cluster solid cluster/atom 1.3 # Create a cluster where all atoms within are solid and max 1.3 units from another member

# define chunks one chunk per cluster
compute clus_chunks solid chunk/atom c_cluster nchunk every compress yes  # Says which atoms are in which chunk

# count the size of each chunk
compute size_chunks solid property/chunk clus_chunks count


# Find the maximum entry in the vector of chunk sizes
variable max_n equal max(c_size_chunks)


# Thermo style which includes this variable
# thermo_style custom step temp pe vol v_max_n

thermo ${N}  # Print the thermo information every 100 steps
thermo 1000  

# Reset the npt fix at a lower temperature (below freezing)
fix 1  all npt temp  ${temp} ${temp}  0.1  iso  5.68  5.68  0.5  mtk yes tchain  5  pchain  5
fix 1  all npt temp  0.45 ${temp}  0.1  iso  5.68  5.68  0.5  mtk yes tchain  5  pchain  5
fix 1  all npt temp  0.45 0.45  0.1  iso  5.68  5.68  0.5  mtk yes tchain  5  pchain  5

dump dmp2 all dcd ${N} traj.dcd
dump dmp2 all dcd 1000 traj.dcd


compute msd all msd com yes
variable twopoint equal c_msd[4]/6/(step*dt+1.0e-6)
fix 9 all vector 10 c_msd[4]
variable fit equal slope(f_9)/6/(10*dt)
thermo_style custom step temp pe c_msd[4] v_twopoint v_fit v_max_n

fix 1 all npt temp 1.25 ${temp} 0.1 iso 5.68 5.68 0.5 mtk yes tchain 5 pchain 5
fix 1 all npt temp 1.25 0.45 0.1 iso 5.68 5.68 0.5 mtk yes tchain 5 pchain 5
run 500000 # 5000000  # Run for this many steps
Neighbor list info ...
  update every 1 steps, delay 10 steps, check yes
  max neighbors/atom: 2000, page size: 100000
  master list distance cutoff = 3.8
  ghost atom cutoff = 3.8
  binsize = 1.9, bins = 8 8 8
  4 neighbor lists, perpetual/occasional/extra = 1 3 0
  (1) pair lj/cut, perpetual
      attributes: half, newton on
      pair build: half/bin/atomonly/newton
      stencil: half/bin/3d
      bin: standard
  (2) compute orientorder/atom, occasional
      attributes: full, newton on
      pair build: full/bin/atomonly
      stencil: full/bin/3d
      bin: standard
  (3) compute coord/atom, occasional
      attributes: full, newton on
      pair build: full/bin/atomonly
      stencil: full/bin/3d
      bin: standard
  (4) compute cluster/atom, occasional
      attributes: full, newton on
      pair build: full/bin/atomonly
      stencil: full/bin/3d
      bin: standard
Per MPI rank memory allocation (min/avg/max) = 9.841 | 9.847 | 9.854 Mbytes
Step Temp PotEng c_msd[4] v_twopoint v_fit v_max_n 
   12000    1.2277229   -5.2488016 3.9936083e-30 2.773339e-32 8.3333333e+20            5 
   13000    1.2659853   -5.3383964   0.67066821  0.004299155  0.056301649            3 
   14000    1.2543306   -5.3360787     1.316762 0.0078378689  0.054911103            1 
   15000     1.230665    -5.271849     1.925143  0.010695238  0.053719349            5 
   16000    1.2367504   -5.2979498    2.5462653  0.013261798  0.052585828            2 
   17000    1.2532006   -5.2873338    3.2137036  0.015753448  0.052746935            2 
   18000    1.2251321   -5.3348179    3.8659236  0.017897794  0.053101086            2 
   19000    1.2488592   -5.3360435    4.5799886  0.020087669  0.053659828            3 
   20000     1.240334   -5.3211014    5.2884764  0.022035318  0.054311488            4 
   21000    1.2285492   -5.3102841    5.9649523  0.023670445  0.054868709            1 
   22000    1.2354373   -5.3172836    6.5637481  0.024862682  0.054965136            2 
   23000    1.2052361   -5.3324296    7.1819765  0.026021653   0.05493303            3 
   24000    1.2099417    -5.353603    7.8703977  0.027327769  0.054836505            1 
   25000    1.2283482   -5.3535314    8.5240357  0.028413452  0.054861566            2 
   26000    1.2306547   -5.3381118    9.2209594  0.029554356  0.054853142            2 
   27000    1.2003785    -5.350213    9.7238915   0.03001201  0.054737463            3 
   28000    1.2162274   -5.3252538    10.296024  0.030642927  0.054500254            1 
   29000    1.2319445   -5.3335057    10.877678  0.031257696  0.054172829            2 
   30000    1.2235372    -5.341593    11.545828  0.032071745  0.053898379            2 
   31000    1.2222702    -5.365457    12.124059  0.032591557   0.05367109            2 
   32000    1.2430329   -5.3379167    12.784024  0.033291729  0.053522104            3 
   33000     1.196804      -5.3863    13.373534   0.03377155  0.053371454            2 
   34000    1.1991859   -5.3944683    14.074374  0.034496014  0.053279917            1 
   35000    1.2241525   -5.3723827    14.779588  0.035189494  0.053276132            1 
   36000    1.2158743   -5.3537935    15.533724  0.035957693   0.05333023            6 
   37000    1.2214878   -5.4244625    16.206423  0.036500952  0.053449607            2 
   38000    1.2229191   -5.4149235     16.81298   0.03687057  0.053549316            1 
   39000     1.192217   -5.4059366    17.435074   0.03725443  0.053560746            4 
   40000    1.1991183   -5.3851142      18.0414  0.037586249  0.053585809            5 
   41000    1.1850388   -5.3778351    18.652249  0.037911075  0.053585005            2 
   42000    1.1950664   -5.3995412    19.193325  0.038081993  0.053537513            2 
   43000    1.1776884   -5.3892441     19.85302  0.038474845  0.053470585            4 
   44000    1.2024505     -5.39154    20.448089  0.038727441  0.053410715            2 
   45000    1.1981517   -5.4069777    21.099778  0.039073662  0.053365752            3 
   46000    1.1785477   -5.4258792    21.722574  0.039352488  0.053343328            2 
   47000    1.1920549   -5.4018589    22.422675  0.039756516  0.053334507            3 
   48000    1.1760071   -5.4323929    23.051901  0.040020661  0.053300429            2 
   49000    1.1839515   -5.3728987     23.63491  0.040195426  0.053265525            2 
   50000    1.2045362   -5.4471664    24.145395  0.040242325  0.053192523            8 
   51000    1.1595032   -5.4076312     24.87601  0.040647075  0.053140908            3 
   52000    1.1988605   -5.4010081    25.575525  0.040986418  0.053123548            2 
   53000    1.1909456   -5.4136798    25.995746  0.040873814  0.053089437            6 
   54000    1.1977629   -5.4346407    26.472979  0.040853363  0.053001603            2 
   55000    1.1877074   -5.4582981    27.060517  0.041000783  0.052893725            3 
   56000    1.1766637   -5.4488224    27.812817  0.041388121  0.052796575            2 
   57000    1.1527181   -5.4136435    28.345978  0.041441488   0.05272235            5 
   58000    1.1652698   -5.4105486     28.94543  0.041588262  0.052656043            2 
   59000    1.1876413   -5.4462535    29.305136  0.041391434  0.052558042            1 
   60000    1.1549244   -5.4296701    29.883338  0.041504636  0.052441622            6 
   61000    1.1619129    -5.449026    30.443092  0.041588923  0.052316847            3 
   62000    1.1909677   -5.4318275    30.853254  0.041469427  0.052188134            3 
   63000    1.1926902   -5.4754827    31.310654  0.041416208  0.052031526            3 
   64000    1.2024541     -5.48053    32.035672  0.041713115  0.051900897            2 
   65000    1.1914837   -5.4754686    32.729474  0.041960864  0.051793129            2 
   66000    1.1589237   -5.4838265    33.179881  0.041893788  0.051679389            3 
   67000    1.1762095   -5.4373543    33.776524  0.042010601  0.051570649            5 
   68000    1.1586931   -5.4742665    34.385556  0.042139161  0.051450553            2 
   69000    1.1711691   -5.4973236    34.859589  0.042100952   0.05134895            2 
   70000    1.1377302   -5.5134011    35.233573   0.04194473  0.051234428            5 
   71000    1.1317682   -5.4568001     36.13055  0.042406749  0.051123959            2 
   72000    1.1342661   -5.4988358    36.577116  0.042334625  0.051034321            3 
   73000    1.1373317   -5.4817978    37.134885  0.042391421  0.050940822            2 
   74000    1.1433829   -5.4904794    37.488374  0.042216637  0.050825231            2 
   75000    1.1309771   -5.5009903    38.379027  0.042643363  0.050725465            5 
   76000    1.1338632   -5.4775685    38.955653  0.042714531  0.050640098            4 
   77000    1.1452254   -5.5157806    39.297843  0.042530132  0.050557989            2 
   78000    1.1567212   -5.5350972    40.106164  0.042848466  0.050469308            4 
   79000    1.1415386   -5.4931733    40.713718  0.042946959  0.050406043            3 
   80000    1.1564127   -5.5282706    41.250835   0.04296962  0.050339583            2 
   81000    1.1311694   -5.5411281    41.753296  0.042956066   0.05027215            3 
   82000    1.1375661   -5.4696179    42.446655  0.043136845  0.050214714            3 
   83000    1.1098905   -5.5158831    42.799955  0.042971842  0.050147769            2 
   84000    1.1317423   -5.5144406    43.435112  0.043090388  0.050079736            5 
   85000    1.1325053   -5.5211045    43.811974  0.042952915  0.050020006            3 
   86000      1.12562   -5.5243372    44.257823  0.042885488  0.049933225            3 
   87000    1.1340533   -5.5415303    44.686838  0.042803484  0.049842834            2 
   88000    1.1331646   -5.5508002    45.203599  0.042806438  0.049751707            2 
   89000    1.1274691   -5.5713829    45.540157  0.042640596  0.049658475            4 
   90000    1.1180848    -5.567952     45.73996  0.042351815  0.049546639            4 
   91000    1.1384498   -5.5624508    46.407074  0.042497321  0.049430384            3 
   92000    1.1201342   -5.5825137    46.694871  0.042296079  0.049307316            2 
   93000    1.0917248   -5.5815254    47.352186  0.042430274  0.049183825            4 
   94000    1.1107753   -5.6065326     47.78741  0.042364725  0.049058778            3 
   95000    1.1203564   -5.5731226    48.260022  0.042333352  0.048941742            3 
   96000    1.1179658   -5.5836261    48.639657  0.042221925  0.048814642            1 
   97000    1.1055645   -5.5721487    48.778931  0.041906298  0.048683595            2 
   98000    1.1454957   -5.5662397    49.195562  0.041832961  0.048537213            2 
   99000    1.1227664   -5.5686536     49.95728  0.042051582  0.048398111            1 
  100000    1.1206525   -5.5818425    50.165966  0.041804971  0.048257316            2 
  101000    1.0962594   -5.5960324    50.709827  0.041839791  0.048122422            5 
  102000    1.1062051   -5.5539633    51.425711  0.042014469  0.047992998            3 
  103000    1.1213582   -5.6392807    51.686687  0.041817708  0.047866945            4 
  104000    1.1089541   -5.6061894    52.107912  0.041753134  0.047743648            6 
  105000    1.1331014   -5.5666603    52.753724  0.041868035  0.047618961            4 
  106000    1.1125887   -5.6193197    52.934353  0.041615057  0.047490264            2 
  107000     1.092153   -5.6014687    53.288836  0.041502209  0.047357839            2 
  108000    1.0656001   -5.6145858    53.705985  0.041439803  0.047219284            3 
  109000    1.0808146   -5.6391531    53.959035  0.041253085  0.047084673            3 
  110000     1.075293    -5.608333    54.867207  0.041566066  0.046959322            2 
  111000    1.0911566   -5.6231144    55.049882   0.04132874   0.04683658            4 
  112000    1.0841461    -5.671808    55.046837  0.040957468  0.046705755            9 
  113000    1.1001191   -5.6027417    55.642167  0.041034046  0.046560591            1 
  114000    1.0913378   -5.6200516     55.79578  0.040786389  0.046414513            4 
  115000     1.098964   -5.6657992    56.238331  0.040752413  0.046271532            2 
  116000    1.1088631    -5.647347     56.89931  0.040875941  0.046133093            2 
  117000    1.0848069   -5.6161547    57.360612  0.040855136  0.045999055            5 
  118000    1.0771422   -5.6728385    57.503428  0.040609765  0.045869816            3 
  119000    1.1005026   -5.6425204    58.206813  0.040761073  0.045740035            3 
  120000    1.0752499    -5.675921    58.401487  0.040556588  0.045611624            5 
  121000     1.070989   -5.6402974    59.074943  0.040685223  0.045481566            3 
  122000    1.0746435   -5.6602611     59.18688  0.040428197  0.045351652            4 
  123000    1.0829298   -5.6922951    59.257887   0.04014762  0.045214137            2 
  124000    1.0814244   -5.6888515    59.835996  0.040212363  0.045073299            8 
  125000      1.06324   -5.6994075    60.111062  0.040074041  0.044936318            3 
  126000    1.0604181   -5.6662684    60.621995  0.040093912  0.044793057            3 
  127000    1.0621144   -5.7207478    60.792537  0.039890116  0.044657623            5 
  128000    1.0502676    -5.705811    61.469965  0.040019508  0.044531968            5 
  129000    1.0737542    -5.707292    61.846777  0.039952698   0.04440384            3 
  130000    1.0683735   -5.6962488     62.15997  0.039846134  0.044275668            3 
  131000    1.0693012   -5.6989362    62.587397  0.039813865   0.04415031            5 
  132000      1.06825   -5.6667116    63.319467  0.039974411  0.044028402            3 
  133000    1.0816644   -5.6916328    63.268856   0.03964214  0.043906031            2 
  134000    1.0743403   -5.6844493    63.965439  0.039779502  0.043781498            3 
  135000    1.0495972   -5.7213359     63.88021  0.039432228   0.04365797            5 
  136000    1.0832223   -5.6951628    64.216748  0.039348498  0.043533178            1 
  137000    1.0212861   -5.7104133    64.809506   0.03942184  0.043410099            6 
  138000    1.0556013   -5.7126356    65.260374  0.039408438  0.043286423            4 
  139000    1.0589347   -5.6945444    65.469133  0.039250079  0.043167535            3 
  140000    1.0459166   -5.7272808    65.761423  0.039143704  0.043047461            2 
  141000    1.0574738   -5.7161558    66.067722  0.039047117  0.042925498            4 
  142000    1.0397725   -5.7728606    66.494798  0.039022768   0.04280386            3 
  143000    1.0496943   -5.6960444      67.0147  0.039052856  0.042686247            3 
  144000    1.0559484   -5.7459366    67.194259  0.038885567  0.042574089            5 
  145000    1.0313081   -5.7168962    67.768104  0.038947186  0.042462207            6 
  146000    1.0244064   -5.7204502    68.106243  0.038873426  0.042352961            4 
  147000    1.0563257   -5.7385479    68.638589  0.038910765  0.042245145            2 
  148000    1.0514741   -5.7421844    68.878233  0.038782789  0.042139883            3 
  149000    1.0417648   -5.7850321    69.260502  0.038736299  0.042034776            4 
  150000      1.02529    -5.771266    69.586076  0.038658931  0.041924066            6 
  151000    1.0143366    -5.759296    69.857101  0.038552484  0.041813027            2 
  152000    1.0091705    -5.768728    70.047808  0.038403403  0.041703643            2 
  153000    1.0367567   -5.8068418    70.488704   0.03839254  0.041598815            5 
  154000    1.0140905   -5.7991108    70.979146  0.038408628  0.041494066            6 
  155000    1.0289977   -5.7788389    71.549648  0.038467552  0.041393583            2 
  156000     1.007182   -5.8312986    71.919538  0.038418557  0.041295057            5 
  157000    1.0372339   -5.7463111    72.276125  0.038363124  0.041198265            3 
  158000   0.98598427   -5.7902625    72.417713  0.038194996  0.041100822            3 
  159000    1.0187373   -5.8091424    72.645487  0.038074155  0.041000667            4 
  160000    1.0629762   -5.7932116     72.93675  0.037987891  0.040898948            5 
  161000    1.0237606   -5.7980979    73.551885  0.038070334  0.040798822            6 
  162000    1.0019658   -5.8180127    73.728139  0.037925997  0.040705384            3 
  163000    1.0064215   -5.7912884     74.32711  0.037999545  0.040611328            3 
  164000     1.000872   -5.7700838    74.819816  0.038018199  0.040517215            5 
  165000    1.0025513   -5.7787627    74.736961   0.03774594  0.040422592            4 
  166000   0.97461891   -5.8211394    75.064449  0.037682956  0.040327655            4 
  167000    1.0158182   -5.8339306    75.293556  0.037571634  0.040228488            3 
  168000    1.0045082   -5.8191074    75.771425  0.037585032  0.040131767            2 
  169000    1.0041203   -5.8457423    76.179571  0.037563891  0.040034273            4 
  170000   0.99176936   -5.8995839    76.107406  0.037307552  0.039936207            3 
  171000    1.0129677   -5.8394824    76.556229  0.037308104  0.039840581            3 
  172000   0.98979842   -5.8797807    77.170116  0.037388622  0.039747653            5 
  173000   0.97621861   -5.8707533    77.414977  0.037290451   0.03965529            3 
  174000   0.96454074   -5.8592769    77.754111  0.037238559  0.039563369            6 
  175000   0.98114579   -5.8477766    77.950532  0.037119301  0.039468559            3 
  176000   0.99269307   -5.8339819    78.519413  0.037177752  0.039375779            8 
  177000   0.97492774   -5.8631783    78.867731    0.0371317  0.039284295            2 
  178000   0.97250577   -5.8879331    78.859102  0.036919055  0.039195079            2 
  179000      0.98317   -5.9068071    79.260279  0.036899571  0.039105219            5 
  180000   0.98967927   -5.8532184    79.859412   0.03697195  0.039017169            6 
  181000   0.97457874   -5.8562001    80.427894  0.037029417   0.03893248            5 
  182000   0.96780199   -5.8792757    80.368259  0.036798653  0.038847775            5 
  183000   0.96016852   -5.8648374    80.950638  0.036862768  0.038764719            6 
  184000   0.98585615   -5.8722753    80.990888  0.036680656   0.03868213            4 
  185000   0.95412062   -5.8903334    81.675358  0.036790702  0.038600468            3 
  186000   0.95700367   -5.8709468    82.037474  0.036755141  0.038519659            4 
  187000   0.95814915   -5.9304888     82.16743  0.036616502  0.038439968            3 
  188000   0.97364573   -5.9162933    82.647689  0.036634614  0.038362382            9 
  189000   0.98846561   -5.9063068    82.578403   0.03641023  0.038281166            3 
  190000   0.94910252   -5.8833896    83.100486  0.036447582  0.038199811            3 
  191000   0.98370357   -5.8928083    82.979157   0.03620382  0.038118542            8 
  192000   0.93354285   -5.8813666    83.249051    0.0361324  0.038034003            4 
  193000   0.95022742   -5.9338445      83.4935  0.036050734   0.03794924            4 
  194000   0.96970889   -5.9641209    83.812662  0.036002002  0.037865817            3 
  195000   0.94832488   -5.9051605    84.094034  0.035937621  0.037781019            5 
  196000   0.93849493   -5.9131855    84.440839  0.035901717  0.037698138            8 
  197000   0.95729251   -5.9130711    84.778149  0.035862161  0.037613539            4 
  198000   0.95339909   -5.9329246    85.224049  0.035868707  0.037530311            3 
  199000   0.94286181   -5.9516789     85.13526  0.035651281  0.037445163            3 
  200000   0.93380928   -5.9411921    85.526217  0.035635923  0.037361447            5 
  201000   0.95700438   -5.9568577    85.954057   0.03563601  0.037278884            4 
  202000   0.94599741   -5.9594535    86.313207  0.035607759  0.037195853            4 
  203000   0.93281699   -5.9727407    86.501084  0.035509476  0.037114763            3 
  204000   0.94006184   -5.9559769    86.679157  0.035408152  0.037033381            6 
  205000   0.91324114    -5.983085      86.8524  0.035305854  0.036952202            5 
  206000   0.94704879    -5.982906    87.389646  0.035351799  0.036871327            5 
  207000   0.93615359   -5.9813669     87.56004  0.035249614  0.036790404            4 
  208000   0.95130925   -5.9639606    87.983289  0.035249715  0.036711209            8 
  209000   0.91862634   -5.9546257    88.428796  0.035258691   0.03663115            2 
  210000   0.92762425   -5.9892424    88.274717  0.035029649  0.036550847            4 
  211000   0.94604209   -6.0029407    88.434844  0.034926874    0.0364688            5 
  212000   0.93959706   -6.0007907    88.953942  0.034966172  0.036386476            3 
  213000   0.95122683     -6.02791    88.812637  0.034746728  0.036302345            6 
  214000   0.90588415   -6.0017232    88.944239  0.034635607   0.03621724            5 
  215000   0.90927193    -5.997891    89.349318  0.034631519  0.036133057           10 
  216000    0.9021543   -6.0032617    89.619006  0.034575234  0.036049483            5 
  217000   0.93167343   -6.0075259    89.597647  0.034407699   0.03596525            6 
  218000   0.91818577    -6.014582    89.866592  0.034352673  0.035880918            2 
  219000   0.91634973   -6.0210633     89.86079  0.034193603  0.035793649            6 
  220000   0.90837961   -6.0332851    89.726254  0.033987218  0.035704961            5 
  221000    0.9060275   -6.0692527     90.10057  0.033974574  0.035615654           13 
  222000   0.90339425   -6.0368164    90.340232  0.033911499  0.035527329            5 
  223000   0.92362897   -6.0636727    90.553556  0.033839147  0.035440128            4 
  224000   0.89878616   -6.0629477    90.920297  0.033824515  0.035352866            4 
  225000   0.90485969   -6.0273649     91.29459  0.033812811  0.035266182            4 
  226000   0.91111211   -6.0951129    91.264263  0.033652014  0.035179337            2 
  227000   0.91399555   -6.0555207    91.550477  0.033608839  0.035091441            9 
  228000   0.89646338   -6.0610715    92.114102  0.033667435  0.035004279            4 
  229000   0.89976573   -6.0381791     92.02387   0.03348758  0.034918347            4 
  230000    0.8981409   -6.0973126    91.969863  0.033322414  0.034830828            2 
  231000   0.90262883   -6.0702366    92.022213  0.033197046  0.034744555            6 
  232000   0.89378058    -6.038277    92.885307  0.033363975  0.034658968            4 
  233000   0.91914066   -6.0649217    92.776174   0.03318175  0.034573151            6 
  234000   0.90022679   -6.0848902     92.72424  0.033021453  0.034487831            7 
  235000   0.91167392   -6.0695339    93.169125  0.033038697  0.034401307            4 
  236000   0.88065718   -6.0881143    93.280312  0.032937963  0.034315438            3 
  237000   0.88483243   -6.0683393    93.269021  0.032795014  0.034230022            4 
  238000   0.89288719   -6.0827855    93.801168  0.032843546  0.034143309            5 
  239000   0.87564948   -6.0929178    93.914482  0.032745635  0.034057831            3 
  240000   0.87961299   -6.1032454    94.130081  0.032684056  0.033973479            4 
  241000   0.88601471    -6.083816    94.191666  0.032569732  0.033889033            6 
  242000   0.86807375   -6.1134587    94.509684  0.032544657  0.033804184            2 
  243000     0.861688   -6.0944865    94.490537  0.032404162  0.033719211            5 
  244000   0.86633764   -6.1174443     94.49458  0.032272739  0.033633192            7 
  245000   0.89427798    -6.098139    94.991725  0.032310111  0.033547192            4 
  246000   0.85905863   -6.1222301    95.145882   0.03223099  0.033462732            3 
  247000   0.86202535   -6.1228274    95.519331  0.032226495  0.033377705            5 
  248000   0.87957019   -6.1349627    95.495382  0.032088502  0.033293664            4 
  249000   0.86098446   -6.1155866    95.787609  0.032057433  0.033208709            3 
  250000   0.86213858    -6.165603    95.579418  0.031859806  0.033123085           11 
  251000   0.86841705   -6.1280366    95.810235  0.031809507  0.033036508           12 
  252000   0.85108533   -6.1606237    96.121411  0.031786181  0.032950043            3 
  253000   0.84419267   -6.1707351    95.909734  0.031590822  0.032863811            5 
  254000   0.88121614   -6.1259991    96.399162  0.031627021   0.03277666            7 
  255000   0.84999942   -6.1599682    96.359216   0.03148994  0.032690292            4 
  256000   0.85793372   -6.1846745    96.229175  0.031324601  0.032603774           12 
  257000   0.86872707   -6.1676163    96.642695  0.031336801  0.032517294           10 
  258000   0.84021567   -6.1665564    96.917803    0.0313042  0.032430674           11 
  259000   0.86345254   -6.2015073    96.859579  0.031164601  0.032344789            7 
  260000   0.84357298   -6.1709962    96.784174  0.031020569  0.032257092           11 
  261000    0.8554395   -6.1637768    96.965384  0.030959573  0.032170126           10 
  262000   0.85784068   -6.1879083    97.090397   0.03088117  0.032083017            9 
  263000    0.8455752   -6.2176445    97.041037   0.03074811  0.031996014            5 
  264000   0.84333136   -6.2009162    97.303261  0.030714413  0.031909518            5 
  265000   0.84360451   -6.1947833     97.90659  0.030788236  0.031822914            3 
  266000   0.82175778   -6.2082757    97.622266  0.030583417  0.031736105            8 
  267000   0.82383484   -6.2234094    97.939491  0.030567881  0.031648357           15 
  268000   0.83501549   -6.1855944    98.139067  0.030515879  0.031561678            8 
  269000   0.86251374   -6.2067898    98.079512  0.030383987  0.031475881            4 
  270000   0.84298775    -6.222908     98.12963  0.030286923  0.031389856            7 
  271000   0.83853582   -6.2226705    98.186655  0.030192698  0.031303173            5 
  272000    0.8257654   -6.2311975     98.70361  0.030240077   0.03121602           10 
  273000   0.85464498   -6.2591867    98.615642  0.030102455  0.031129711           11 
  274000   0.82492265   -6.1956868    98.754782  0.030034909  0.031043522            9 
  275000   0.82450419   -6.2114635    98.736157  0.029920048  0.030957074            6 
  276000   0.83638838   -6.2517276    98.670121  0.029791703  0.030869865            6 
  277000   0.83441703   -6.2802867    98.394782  0.029601318  0.030781195            8 
  278000   0.81718699   -6.2400087    98.891234  0.029643655  0.030693673            9 
  279000   0.81099994   -6.2268569    99.230612  0.029638773  0.030606317            4 
  280000   0.82457963   -6.2571571    98.749727    0.0293898  0.030519097            7 
  281000   0.80848182   -6.2821862    99.065015  0.029378711  0.030431813           10 
  282000   0.82184986   -6.2414245    99.448575  0.029387877  0.030344448            5 
  283000   0.82695736    -6.259907    99.778669  0.029381234  0.030259273            8 
  284000   0.79686393   -6.3030812    99.406005  0.029168429  0.030173998            7 
  285000   0.81624037   -6.2983656     99.45098  0.029079234  0.030088595           14 
  286000   0.82266565    -6.277976    99.857147  0.029095905  0.030002752           17 
  287000   0.82515794    -6.268079    99.783719  0.028973205  0.029917834            4 
  288000   0.82638303   -6.2850596    100.03874  0.028946394  0.029833161            4 
  289000   0.81412773   -6.3229904     99.98917  0.028831941   0.02974878            8 
  290000    0.8117039   -6.2806478    100.47585  0.028872371  0.029664507            5 
  291000   0.81431027   -6.3085383    100.01161   0.02864021  0.029579969           10 
  292000   0.80064886   -6.3130976    100.28859  0.028621173  0.029494699            7 
  293000   0.78737116   -6.2861157    100.63925  0.028623223  0.029409442           11 
  294000   0.80787467   -6.2986181    100.72395  0.028549873  0.029325557            7 
  295000   0.79438357   -6.3095031    100.68838  0.028443044  0.029241444            8 
  296000   0.79807704   -6.3173828    100.58404  0.028317579  0.029156964            4 
  297000   0.78689694   -6.3467241    100.48459   0.02819433  0.029071711            7 
  298000   0.80274149    -6.320692    100.92348   0.02822245  0.028987069            5 
  299000   0.78775196   -6.3085103    101.37564   0.02825408   0.02890339            9 
  300000   0.79240459   -6.3509369    101.17045  0.028102904  0.028820294            9 
  301000   0.77466079   -6.3617438      101.268  0.028036544  0.028737275            9 
  302000   0.78767433   -6.3357905     101.3938  0.027978421  0.028654177            7 
  303000   0.78708651   -6.3629609    100.97492   0.02777088   0.02857088           15 
  304000   0.77566433   -6.3575537    101.64296  0.027862655  0.028487711            7 
  305000   0.77260117   -6.3419042    101.44743  0.027717876  0.028404727            6 
  306000   0.78475282   -6.3353559    101.45799  0.027630173  0.028321263            7 
  307000   0.79246209   -6.3687917    101.62595  0.027585762  0.028238756            7 
  308000    0.7728861   -6.4027593    101.61706  0.027493794  0.028155993           10 
  309000   0.77706191   -6.3804686    102.08459  0.027530903   0.02807339            6 
  310000   0.76518007   -6.3769411    101.75809  0.027354326  0.027990445            9 
  311000   0.78371716   -6.4040121    101.48442   0.02719304  0.027907832            8 
  312000   0.77227377   -6.3833746    101.91733  0.027221509  0.027826034            9 
  313000   0.76816363    -6.391451    102.07692  0.027177028  0.027745097            5 
  314000   0.76811154   -6.3702247    102.40768  0.027178258  0.027664139            8 
  315000   0.77018055   -6.3771173     102.0741   0.02700373  0.027583015            3 
  316000   0.76692567   -6.4194272    101.81978  0.026851207  0.027501584            8 
  317000   0.77823151   -6.4286523    102.25656  0.026881325   0.02741977           14 
  318000   0.75537055   -6.4392086     102.1408  0.026766456  0.027337853           16 
  319000   0.77432165   -6.4352844    102.09115   0.02666958  0.027255785            5 
  320000   0.74213616   -6.4431618    102.17796  0.026608843  0.027173986           12 
  321000   0.76339813   -6.4319291    102.11976  0.026510841  0.027092084            6 
  322000   0.75967147    -6.481423    102.01294  0.026400864  0.027009868           11 
  323000   0.74804637   -6.4539963    102.22616  0.026374138  0.026928164            8 
  324000   0.76400378   -6.4613144    102.28337  0.026307451  0.026846297            8 
  325000   0.76727763   -6.4558164    102.33444  0.026239599  0.026764877           19 
  326000   0.74740826   -6.4780776    102.35207  0.026163618  0.026683401           12 
  327000   0.74365981   -6.4819722    102.55384  0.026135026  0.026602441            6 
  328000      0.75459   -6.4523857    102.73847  0.026102254  0.026521885            8 
  329000   0.73449368   -6.4530593    102.66869   0.02600524  0.026441466            7 
  330000   0.73982503   -6.4779495    102.69627  0.025933401  0.026360988           10 
  331000   0.72490396   -6.4962126    102.65255  0.025844045  0.026280557            6 
  332000   0.74109026   -6.4654688    103.10594  0.025880004  0.026201246           10 
  333000   0.73227167   -6.5140489    102.89501  0.025749501  0.026121981            6 
  334000   0.73174679   -6.5023732    102.78188  0.025644181  0.026042401            9 
  335000   0.74152716   -6.4868246    102.92362   0.02560289  0.025963461           12 
  336000   0.72482247    -6.473363    103.19487  0.025593965  0.025884978            4 
  337000   0.72960046   -6.4629588    103.22633  0.025525799  0.025807232            8 
  338000   0.72839862   -6.4875489    103.01989   0.02539938  0.025729309           11 
  339000   0.73115174   -6.5226867    103.09676  0.025343354  0.025652435           15 
  340000    0.7286667   -6.5070681    103.36001  0.025333336  0.025575293            7 
  341000   0.73111937   -6.5284198    103.60028  0.025317762  0.025497942           10 
  342000   0.70723774   -6.4983696    103.40607  0.025196411  0.025421007            6 
  343000   0.71843774   -6.5223234    103.24951  0.025084914  0.025344078           13 
  344000    0.7252016   -6.5121308    103.47218  0.025065934  0.025267384           13 
  345000   0.72850845   -6.5358657    103.50854  0.025002063  0.025191187           16 
  346000   0.70674922   -6.5408304    103.70236  0.024976483  0.025115321           11 
  347000   0.71693789   -6.5407981    103.82324  0.024933536  0.025039482           15 
  348000   0.71532467   -6.5581562    103.31895  0.024741128  0.024963901           23 
  349000    0.7111659   -6.5207664    104.10706  0.024858418  0.024888342            9 
  350000    0.7138556   -6.5464583    103.64447  0.024677255  0.024813225           15 
  351000   0.70077915   -6.5173844    103.91711  0.024671679  0.024737674           16 
  352000   0.72125837   -6.5470148    103.92118  0.024602553  0.024662563            6 
  353000     0.709316   -6.5712815    103.58558  0.024453632  0.024587959           13 
  354000   0.69799547   -6.5195777    104.07646  0.024500108  0.024513403            7 
  355000    0.6856189   -6.5813427    103.59519  0.024318119  0.024438713           13 
  356000   0.70627683   -6.5526348    103.93153  0.024328543  0.024364045           23 
  357000   0.71290939   -6.5885745    103.72378    0.0242119  0.024289495           19 
  358000   0.69856283   -6.6024305    103.81074   0.02416451  0.024214893           14 
  359000    0.7014352   -6.5853081    103.75106  0.024083348  0.024140423           11 
  360000   0.69953565    -6.608144    103.80014   0.02402781  0.024066114           24 
  361000   0.71501036   -6.6423995    103.94428  0.023994525  0.023991762           17 
  362000   0.69118495   -6.6186958    104.05157   0.02395294  0.023917411           17 
  363000   0.69169812   -6.6151325     103.8419  0.023838821  0.023843293           15 
  364000   0.69746194   -6.6074244    104.20799  0.023857141  0.023769676           14 
  365000   0.68474458   -6.6280489    104.12888  0.023773717   0.02369679           22 
  366000   0.70428919    -6.635441     103.9393  0.023665597  0.023623759           36 
  367000   0.68743162   -6.6475098    104.02305  0.023620128  0.023550883           28 
  368000   0.68415511   -6.6268827    104.00741  0.023552403  0.023478179            9 
  369000   0.70126965   -6.6111561    104.03044  0.023493776  0.023405338           20 
  370000   0.66685512   -6.6364215    104.11666  0.023449698   0.02333305           14 
  371000   0.68093032   -6.6326528    104.02961  0.023366939  0.023260593            7 
  372000   0.68002038   -6.6278179    104.00021  0.023297539  0.023188486           28 
  373000   0.67726943   -6.6414346    104.11305  0.023260288  0.023116266           32 
  374000   0.65850724   -6.6392711     104.1414  0.023204412  0.023044404           24 
  375000   0.64718194   -6.6472157    104.08993  0.023131095  0.022973049           14 
  376000   0.67581842   -6.6528373    104.05394  0.023061599  0.022901801           15 
  377000   0.67200407   -6.6387534    104.00388  0.022989364   0.02283064           13 
  378000    0.6564668   -6.6856073    104.04452  0.022937505   0.02275982           29 
  379000   0.65709148   -6.6699096    104.22191  0.022915987  0.022688971           10 
  380000   0.66526253   -6.6624714    104.49478  0.022915521  0.022618678           19 
  381000   0.66297753    -6.690352    104.36876  0.022827813  0.022548694           22 
  382000   0.66641831    -6.670874    104.27839   0.02274834  0.022478924           14 
  383000    0.6599489   -6.6802035    104.35699  0.022706047  0.022409296           15 
  384000   0.66113699   -6.7250299    104.24807   0.02262328  0.022339663           19 
  385000   0.65780322   -6.6991731    104.01567  0.022514214  0.022270048           26 
  386000   0.64220525    -6.697234    104.20604  0.022496987  0.022200472           18 
  387000   0.66733016   -6.6916316    104.40277  0.022481217  0.022131286           14 
  388000   0.64421916   -6.6954434     104.6109  0.022467977  0.022062491           11 
  389000   0.65308253   -6.7352862    104.26828  0.022336821  0.021993826           21 
  390000   0.65042974    -6.728543    104.33975  0.022294818  0.021925115           16 
  391000   0.63897255   -6.7142284    104.37771   0.02224589  0.021856358           15 
  392000   0.64534197   -6.7350367    104.52066  0.022219529  0.021788179           17 
  393000    0.6394614   -6.7243788    104.59598  0.022178961  0.021720674           10 
  394000   0.64248393   -6.7498131    104.67069   0.02213847  0.021653237           16 
  395000    0.6382268   -6.7438975    104.28748  0.022001577  0.021585873           27 
  396000   0.64397693   -6.7607201    104.45496  0.021981263  0.021518656           19 
  397000   0.64063216   -6.7728297    104.31799  0.021897142  0.021451413           16 
  398000   0.63990996   -6.7712156    104.13767   0.02180437  0.021384066           23 
  399000   0.63776495    -6.753816     104.2345  0.021769946  0.021316774           13 
  400000   0.61459535   -6.7608644    104.23792  0.021716234   0.02124993           14 
  401000   0.64553129   -6.7412432    104.29214  0.021673346  0.021183208           13 
  402000   0.62148513    -6.770769    104.15688  0.021591393  0.021116712           11 
  403000   0.62492563   -6.7525149    104.30094  0.021567606  0.021050371           26 
  404000   0.63242488   -6.7946252    104.27254  0.021508362  0.020984204           22 
  405000   0.63415817   -6.7838194    104.35117  0.021471434  0.020918133           13 
  406000   0.62485148   -6.7887637    104.41808  0.021432283  0.020852196           21 
  407000   0.61597461   -6.7913073    104.17971  0.021330817  0.020786598           22 
  408000   0.60711301   -6.7959394    104.13502  0.021269408  0.020720993           33 
  409000   0.61931894   -6.7943008    104.39801  0.021270988  0.020655501           24 
  410000   0.61073321    -6.802468    104.10573  0.021159701  0.020590398           25 
  411000   0.61221077   -6.8138875    104.21182  0.021129728  0.020525099           33 
  412000   0.60379637   -6.8240906    104.22076  0.021080252  0.020460277           34 
  413000   0.60430758   -6.8174044    104.25568  0.021036255  0.020395357           13 
  414000   0.61307785   -6.8192991    103.99757  0.020933488  0.020330574           37 
  415000   0.59387717   -6.8077892    104.06271  0.020896127  0.020266149           24 
  416000   0.61059792   -6.8116164    104.04217  0.020841781  0.020201843           25 
  417000   0.60429081    -6.836801    104.28586  0.020840499  0.020137817           33 
  418000   0.61011678   -6.8289855    104.09906  0.020753402  0.020074114           37 
  419000   0.59907668   -6.8300837    104.18637  0.020721236  0.020010773           45 
  420000   0.59993473   -6.8341193    104.27915  0.020690307  0.019947634           24 
  421000   0.61301791    -6.848251    104.24839  0.020635074  0.019884844           22 
  422000   0.59713969   -6.8420437    104.20453  0.020577514  0.019822201           31 
  423000   0.59337096   -6.8439199    104.11668  0.020511561  0.019759481           35 
  424000     0.589054   -6.8527403    103.88975  0.020418582  0.019696962           42 
  425000   0.60156234   -6.8802083    103.90268  0.020373074  0.019634504           61 
  426000   0.58346225   -6.8614777    104.11117  0.020366036  0.019572222           34 
  427000   0.58824961   -6.8902535    104.09588  0.020315355  0.019510011           42 
  428000   0.57871851   -6.8586009    104.09743  0.020268192  0.019447835           18 
  429000   0.58596981   -6.8708989    104.05729  0.020213149  0.019386123           42 
  430000   0.58285638   -6.8884998    104.01372  0.020157697  0.019324504           22 
  431000   0.56975503   -6.8770541    103.94647  0.020097924  0.019262991           31 
  432000   0.57053927   -6.8873309    103.93164  0.020048541  0.019201768          144 
  433000   0.57986185   -6.9073166    103.91063  0.019998198   0.01914093           48 
  434000   0.57362744   -6.9191345    103.94799  0.019959291  0.019080115           38 
  435000    0.5683114   -6.9021581    104.05696  0.019934284  0.019019532           28 
  436000    0.5655337   -6.8933857    104.28993  0.019933091  0.018959232           27 
  437000   0.55813862   -6.9160777     103.9775  0.019827898  0.018899065           31 
  438000   0.56380504   -6.9177768    104.14988  0.019815427  0.018839291           44 
  439000   0.55024076   -6.9278759    103.98514  0.019739016  0.018779629           59 
  440000   0.56002091   -6.9293788    103.99422  0.019695874  0.018720235           39 
  441000   0.56086359   -6.9134923    104.07762  0.019666973  0.018660937           49 
  442000    0.5801014   -6.9241627    103.91054  0.019590976  0.018601987           58 
  443000   0.55592961   -6.9153824    103.97099  0.019558124  0.018543229           91 
  444000    0.5542217   -6.9408501     104.1419  0.019546152   0.01848461           36 
  445000   0.56547322   -6.9499929    103.97195  0.019470403  0.018426231           73 
  446000   0.55631064   -6.9442351    103.85427  0.019404759   0.01836778           57 
  447000   0.54063279   -6.9577945    103.65343  0.019323906  0.018309547           78 
  448000    0.5425948   -6.9529222    103.86552  0.019320224   0.01825146           95 
  449000   0.55028157   -6.9685666    103.74211   0.01925429  0.018193615          135 
  450000   0.57272009   -6.9491643    103.91867  0.019244199  0.018136015           40 
  451000   0.53145632   -6.9719749    103.76554  0.019173233  0.018078618          133 
  452000     0.552282   -6.9665538    104.07247  0.019187403  0.018021305          170 
  453000   0.53750875   -6.9598695    103.84486  0.019103175  0.017964184          112 
  454000    0.5431133   -7.0019675    103.99835  0.019089271  0.017907443          166 
  455000   0.53583821   -7.0044185    103.90799  0.019030768  0.017850791          168 
  456000     0.536253   -6.9938449    103.89677  0.018986983  0.017794249          147 
  457000    0.5364864   -6.9898955    103.78929  0.018925837  0.017737956           47 
  458000   0.54070658   -7.0020071    103.85693  0.018896821  0.017681894          156 
  459000   0.53238756   -6.9906096    103.84121  0.018852798  0.017626033           53 
  460000   0.52613164   -7.0211239    103.74715  0.018794774   0.01757037           72 
  461000   0.53299585   -7.0029851    103.82641  0.018768332   0.01751489          114 
  462000    0.5274605   -7.0134188    103.46649  0.018662787  0.017459487          115 
  463000   0.53063688   -6.9964317    103.78339  0.018679516  0.017404241          176 
  464000   0.51354542   -7.0065463    103.62371  0.018610581  0.017349202           83 
  465000   0.52607032   -7.0093619    103.67516  0.018579778  0.017294379           67 
  466000   0.51740263   -7.0317631    103.75997  0.018555073  0.017239847           78 
  467000   0.51882238   -7.0269933    103.55291  0.018478392  0.017185479           81 
  468000    0.5256909   -7.0340381    103.67225  0.018460159  0.017131209           65 
  469000   0.53098374   -7.0362852    103.76749   0.01843772  0.017077157           52 
  470000   0.51826834   -7.0522434    103.43474  0.018339494  0.017023191           66 
  471000   0.51049076   -7.0277543     103.7209  0.018351185  0.016969418           53 
  472000   0.51327784   -7.0372046    103.70783  0.018309999  0.016915759          128 
  473000    0.5036882   -7.0259873    103.46362  0.018228263  0.016862236           66 
  474000   0.50114807   -7.0356351    103.33725   0.01816759  0.016808933          111 
  475000   0.51837556   -7.0410398    103.43954  0.018147288  0.016755733          112 
  476000   0.51164248   -7.0283265     103.5949  0.018136362  0.016702752           77 
  477000   0.50676702   -7.0461601    103.55067  0.018090614  0.016649951           71 
  478000   0.50497116   -7.0642233    103.34576  0.018017043  0.016597309           84 
  479000    0.5111694   -7.0672402    103.37747  0.017984946   0.01654486           86 
  480000   0.50118525   -7.0593996    103.20323  0.017917227  0.016492578          118 
  481000   0.50252268    -7.081988     103.3552  0.017906306  0.016440443          169 
  482000   0.49537252   -7.0764264    103.35692  0.017869453  0.016388526          115 
  483000   0.49607277   -7.0568616    103.38252  0.017836873  0.016336822          101 
  484000    0.4946522   -7.0596305    103.43264  0.017808649  0.016285314          138 
  485000   0.49218265   -7.0652832    103.40311  0.017766858  0.016234001          165 
  486000   0.49112361   -7.0767413    103.20518  0.017696361  0.016182847          177 
  487000   0.48984127   -7.0707354    103.32268   0.01768013  0.016131832          134 
  488000   0.49436648   -7.0610195    103.37058   0.01765208  0.016081143          137 
  489000   0.48772097   -7.1006607    103.25294  0.017595933  0.016030585          260 
  490000   0.49033497   -7.0875621    103.14225  0.017541199  0.015980111          203 
  491000   0.48322065   -7.0887746    103.21754  0.017518251  0.015929779          141 
  492000   0.48153425    -7.085613    103.03468  0.017451673  0.015879668          135 
  493000   0.48185466   -7.1109042     103.0346  0.017416261  0.015829708          149 
  494000   0.47522246   -7.0909428    103.24508  0.017416511  0.015779968          153 
  495000   0.47718689    -7.097789    103.03373  0.017345746   0.01573032          198 
  496000    0.4804447   -7.1319707    103.10389  0.017322563  0.015680933          290 
  497000   0.47127681   -7.1028736    103.13293  0.017292577  0.015631611          311 
  498000   0.47939141   -7.0944443    103.23675  0.017275225  0.015582543          130 
  499000   0.47284264   -7.1239197    103.03936  0.017207643  0.015533694          122 
  500000    0.4739206   -7.1211282    103.11431  0.017185718  0.015484984          228 
  501000   0.46516714   -7.1225295    103.00047   0.01713248   0.01543643          251 
  502000    0.4710916   -7.1378031    102.96332  0.017092184  0.015388093          221 
  503000   0.46257251   -7.1190466    103.02313  0.017068114  0.015339941          231 
  504000   0.45859487   -7.1290148    103.08126   0.01704386  0.015291949          131 
  505000   0.46987011   -7.1393486      102.897  0.016979703    0.0152442          311 
  506000   0.45581278   -7.1405872     102.9923   0.01696184  0.015196561          327 
  507000   0.46093008   -7.1345391    102.71049  0.016882066  0.015149087          297 
  508000   0.45420689   -7.1443617    102.99138  0.016894912  0.015101779          143 
  509000   0.46090782   -7.1620373    102.96644  0.016857637  0.015054632          253 
  510000   0.45188638   -7.1459462    102.94397  0.016820911  0.015007632          178 
  511000   0.44645363   -7.1418522     102.7962  0.016763894  0.014960768          107 
  512000   0.45607952   -7.1543872    102.82289  0.016735496  0.014914184           88 
Loop time of 1301.63 on 48 procs for 500000 steps with 4000 atoms

Performance: 66378.242 tau/day, 384.133 timesteps/s
99.4% CPU use with 48 MPI tasks x no OpenMP threads

MPI task timing breakdown:
Section |  min time  |  avg time  |  max time  |%varavg| %total
---------------------------------------------------------------
Pair    | 93.131     | 98.903     | 105.22     |  29.7 |  7.60
Neigh   | 9.0431     | 9.3602     | 9.7721     |   4.9 |  0.72
Comm    | 83.875     | 90.952     | 97.245     |  36.6 |  6.99
Output  | 0.96588    | 0.96678    | 0.9969     |   0.4 |  0.07
Modify  | 1085.6     | 1089.1     | 1093.8     |   5.4 | 83.67
Other   |            | 12.39      |            |       |  0.95

Nlocal:        83.3333 ave          90 max          78 min
Histogram: 4 5 8 4 3 11 5 3 3 2
Nghost:        2395.48 ave        2407 max        2385 min
Histogram: 7 6 2 4 2 11 4 5 3 4
Neighs:        16596.2 ave       19109 max       14062 min
Histogram: 4 3 6 5 7 5 4 5 7 2
FullNghs:      33192.7 ave       35892 max       31035 min
Histogram: 4 4 9 5 6 7 5 3 4 1

Total # of neighbors = 1593248
Ave neighs/atom = 398.31200
Neighbor list builds = 26767
Dangerous builds = 0

#clear
#
#next RN
#
#jump SELF
Total wall time: 0:21:45
