
units lj                  # Use reduced LJ style units
atom_style atomic         # Uncharged point particles
atom_modify map hash      # Needed for indexing of clusters etc
                          # Used to be able to find where atoms are in relation to each other.

lattice fcc 1.0 spacing 1 1 1
Lattice spacing in x,y,z = 1.5874011 1.5874011 1.5874011
region box block 0 10 0 10 0 10 units lattice
create_box 2 box
Created orthogonal box = (0.0000000 0.0000000 0.0000000) to (15.874011 15.874011 15.874011)
  3 by 4 by 4 MPI processor grid
create_atoms 1 box
Created 4000 atoms
  using lattice units in orthogonal box = (0.0000000 0.0000000 0.0000000) to (15.874011 15.874011 15.874011)
  create_atoms CPU = 0.003 seconds
set type 1 type/fraction 2 0.79 78393
Setting atom values ...
  3145 settings made for type/fraction
mass 1 1.0
mass 2 1.0
pair_style lj/cut  3.5
pair_modify tail  yes
pair_coeff 1  1  1.0  1.0   # Intearaction between 1 and 1 set with epsilon = 1 and sigma = 1
pair_coeff 1  2  1.5  0.8
pair_coeff 2  2  0.5  0.88

write_data data.0
System init for write_data ...
Neighbor list info ...
  update every 1 steps, delay 10 steps, check yes
  max neighbors/atom: 2000, page size: 100000
  master list distance cutoff = 3.8
  ghost atom cutoff = 3.8
  binsize = 1.9, bins = 9 9 9
  1 neighbor lists, perpetual/occasional/extra = 1 0 0
  (1) pair lj/cut, perpetual
      attributes: half, newton on
      pair build: half/bin/atomonly/newton
      stencil: half/bin/3d
      bin: standard
WARNING: Not all mixed pair coeffs generated from mixing. Use write_data with 'pair ij' option to store all pair coeffs. (../write_data.cpp:312)


#############################
#   M E L T   S Y S T E M   #
#############################

velocity all create 2.4 5300450 mom yes dist gaussian # Assign velocities
                                                    # Temperature 2.4, random number seed, zero linear momentum
                                                                                # Gaussian distribution

timestep 0.002   # simulation timestep
thermo 1000       # output thermodynamic data every 1000 steps bf 100

# Define a fix  in this case with index 1 applied to all
# particles in the simulation. This fix is for simulations
# in the anisotropic NPT ensemble. Note that we use the MTK
# correction.
fix 1 all npt temp 2.4 2.4 0.1 iso 5.68 5.68 0.5 mtk yes tchain 5 pchain 5 # Use NPT ensemble
                                                                         # Set temperature and pressure and damping
                                                                         # Numbers of thermostats in chain and in barostat
run 10000          # run for 10000 steps
Per MPI rank memory allocation (min/avg/max) = 3.642 | 3.644 | 3.648 Mbytes
Step Temp E_pair E_mol TotEng Press Volume 
       0          2.4   -3.7530074            0  -0.15390738    -3.337815         4000 
    1000    2.4193972   -3.1442045            0   0.48398397    5.9641585     3737.899 
    2000    2.3792355   -3.1402316            0   0.42772956    5.7442294    3760.2209 
    3000    2.3854265   -3.1332186            0   0.44402661    5.5941526    3793.3478 
    4000    2.4165029   -3.1069191            0   0.51692903    5.6817868    3800.0614 
    5000    2.4837733   -3.0726046            0    0.6521239    5.7348345    3814.5599 
    6000    2.3460749   -3.1112056            0   0.40702702    5.7680598    3777.0592 
    7000    2.4326584   -3.1046979            0   0.54337735    5.9025779    3769.8377 
    8000    2.3802126   -3.1963631            0   0.37306314    5.8156539    3722.3106 
    9000    2.3477071   -3.1609113            0   0.35976896    5.7239422    3752.1387 
   10000    2.3562284   -3.1385628            0   0.39489625     5.668425    3761.6879 
Loop time of 2.60566 on 48 procs for 10000 steps with 4000 atoms

Performance: 663171.446 tau/day, 3837.798 timesteps/s
99.7% CPU use with 48 MPI tasks x no OpenMP threads

MPI task timing breakdown:
Section |  min time  |  avg time  |  max time  |%varavg| %total
---------------------------------------------------------------
Pair    | 1.1463     | 1.2205     | 1.3735     |   4.2 | 46.84
Neigh   | 0.21325    | 0.22125    | 0.24414    |   1.3 |  8.49
Comm    | 0.75157    | 0.89849    | 0.99103    |   5.8 | 34.48
Output  | 0.0002459  | 0.00025013 | 0.00031634 |   0.0 |  0.01
Modify  | 0.19737    | 0.24992    | 0.32034    |   6.2 |  9.59
Other   |            | 0.01527    |            |       |  0.59

Nlocal:        83.3333 ave          91 max          73 min
Histogram: 2 2 3 2 8 7 9 5 8 2
Nghost:        1708.65 ave        1733 max        1677 min
Histogram: 3 3 2 5 5 3 10 8 4 5
Neighs:        10147.8 ave       11388 max        8732 min
Histogram: 1 5 2 4 9 7 10 3 5 2

Total # of neighbors = 487095
Ave neighs/atom = 121.77375
Neighbor list builds = 910
Dangerous builds = 218

# Equilibrate just above the melting temperature to avoid step fn in T

fix 1 all npt temp 1.25 1.25 0.1 iso 5.68 5.68 0.5 mtk yes tchain 5 pchain 5
run 2000
Per MPI rank memory allocation (min/avg/max) = 3.644 | 3.646 | 3.649 Mbytes
Step Temp E_pair E_mol TotEng Press Volume 
   10000    2.3562284   -3.1385628            0   0.39489625     5.668425    3761.6879 
   11000    1.2349451   -4.6993872            0   -2.8474326    5.5643988    2882.3639 
   12000    1.2373742   -4.6783089            0   -2.8227116     5.674992    2878.6856 
Loop time of 0.637827 on 48 procs for 2000 steps with 4000 atoms

Performance: 541839.403 tau/day, 3135.645 timesteps/s
99.7% CPU use with 48 MPI tasks x no OpenMP threads

MPI task timing breakdown:
Section |  min time  |  avg time  |  max time  |%varavg| %total
---------------------------------------------------------------
Pair    | 0.28745    | 0.30987    | 0.35598    |   2.3 | 48.58
Neigh   | 0.039862   | 0.042626   | 0.048329   |   0.6 |  6.68
Comm    | 0.19104    | 0.23691    | 0.26083    |   2.8 | 37.14
Output  | 5.0566e-05 | 5.2158e-05 | 6.7415e-05 |   0.0 |  0.01
Modify  | 0.037745   | 0.043575   | 0.048362   |   1.6 |  6.83
Other   |            | 0.004793   |            |       |  0.75

Nlocal:        83.3333 ave          91 max          72 min
Histogram: 1 2 0 4 7 9 12 6 4 3
Nghost:        2041.12 ave        2066 max        2007 min
Histogram: 2 1 3 7 6 4 8 8 5 4
Neighs:        13258.2 ave       14990 max       10801 min
Histogram: 1 1 0 3 11 10 7 9 3 3

Total # of neighbors = 636396
Ave neighs/atom = 159.09900
Neighbor list builds = 143
Dangerous builds = 12

#############################
# L I N E A R  Q U E N C H  #
#############################

# Define solid atoms. This closely follows ten Wolde  Ruiz-Montero and Frenkel  Faraday Discuss  1996  104  93-110
# Compute components of the per-atom q6 vector
compute q6 all orientorder/atom degrees 1 6 components 6 nnn NULL cutoff 1.3 # compute the Q6 parameter.
                                                                             # Use all neighbours within 1.3 unit cell.

# get number of connections
compute coord_number all coord/atom orientorder q6 0.5

# An atom is solid if it has 8 or more connections (of a possible 14)
variable is_solid atom c_coord_number>=8
group solid dynamic all var is_solid    # Must be dynamic to update
dynamic group solid defined

# do clustering
compute cluster solid cluster/atom 1.3 # Create a cluster where all atoms within are solid and max 1.3 units from another member

# define chunks one chunk per cluster
compute clus_chunks solid chunk/atom c_cluster nchunk every compress yes  # Says which atoms are in which chunk

# count the size of each chunk
compute size_chunks solid property/chunk clus_chunks count


# Find the maximum entry in the vector of chunk sizes
variable max_n equal max(c_size_chunks)


# Thermo style which includes this variable
# thermo_style custom step temp pe vol v_max_n

thermo ${N}  # Print the thermo information every 100 steps
thermo 1000  

# Reset the npt fix at a lower temperature (below freezing)
fix 1  all npt temp  ${temp} ${temp}  0.1  iso  5.68  5.68  0.5  mtk yes tchain  5  pchain  5
fix 1  all npt temp  0.45 ${temp}  0.1  iso  5.68  5.68  0.5  mtk yes tchain  5  pchain  5
fix 1  all npt temp  0.45 0.45  0.1  iso  5.68  5.68  0.5  mtk yes tchain  5  pchain  5

dump dmp2 all dcd ${N} traj.dcd
dump dmp2 all dcd 1000 traj.dcd


compute msd all msd com yes
variable twopoint equal c_msd[4]/6/(step*dt+1.0e-6)
fix 9 all vector 10 c_msd[4]
variable fit equal slope(f_9)/6/(10*dt)
thermo_style custom step temp pe c_msd[4] v_twopoint v_fit v_max_n

fix 1 all npt temp 1.25 ${temp} 0.1 iso 5.68 5.68 0.5 mtk yes tchain 5 pchain 5
fix 1 all npt temp 1.25 0.45 0.1 iso 5.68 5.68 0.5 mtk yes tchain 5 pchain 5
run 500000 # 5000000  # Run for this many steps
Neighbor list info ...
  update every 1 steps, delay 10 steps, check yes
  max neighbors/atom: 2000, page size: 100000
  master list distance cutoff = 3.8
  ghost atom cutoff = 3.8
  binsize = 1.9, bins = 8 8 8
  4 neighbor lists, perpetual/occasional/extra = 1 3 0
  (1) pair lj/cut, perpetual
      attributes: half, newton on
      pair build: half/bin/atomonly/newton
      stencil: half/bin/3d
      bin: standard
  (2) compute orientorder/atom, occasional
      attributes: full, newton on
      pair build: full/bin/atomonly
      stencil: full/bin/3d
      bin: standard
  (3) compute coord/atom, occasional
      attributes: full, newton on
      pair build: full/bin/atomonly
      stencil: full/bin/3d
      bin: standard
  (4) compute cluster/atom, occasional
      attributes: full, newton on
      pair build: full/bin/atomonly
      stencil: full/bin/3d
      bin: standard
Per MPI rank memory allocation (min/avg/max) = 9.835 | 9.842 | 9.847 Mbytes
Step Temp PotEng c_msd[4] v_twopoint v_fit v_max_n 
   12000    1.2373742   -4.6783089            0            0 8.3333333e+20            1 
   13000    1.2753652   -4.6935654   0.75707402 0.0048530384   0.06294464            1 
   14000    1.2228045     -4.71357    1.5210853 0.0090540787  0.064105427            3 
   15000    1.2931116   -4.7162569    2.3170953  0.012872751  0.064202479            1 
   16000    1.2467574   -4.6405742    3.0943385  0.016116346  0.064413011            4 
   17000    1.2305599   -4.6592947    3.8956807  0.019096473  0.064687066            4 
   18000    1.2460876    -4.692731    4.7008951  0.021763402  0.065171484            1 
   19000    1.2317411   -4.6723944    5.4461441  0.023886596  0.065224728            1 
   20000    1.2485765    -4.677626    6.2258533  0.025941055  0.065352111            2 
   21000    1.2062947   -4.7141721    7.0010735  0.027782037  0.065271059            2 
   22000    1.2616023   -4.6687232    7.7143139  0.029220885  0.065006647            2 
   23000    1.2457328   -4.6906779    8.4294198  0.030541376  0.064654472            2 
   24000     1.251552   -4.7414678    9.2029886  0.031954821  0.064446099            4 
   25000    1.2079799   -4.6992213    9.9081884  0.033027294  0.064175229            3 
   26000    1.2327858   -4.7150845    10.651837  0.034140502  0.063755156            3 
   27000    1.2222011   -4.6807864    11.459409  0.035368547   0.06361778            2 
   28000    1.2151889   -4.7069398    12.196116  0.036297964  0.063523637            2 
   29000    1.1997535   -4.6984896    12.826371  0.036857388  0.063309247            2 
   30000    1.2304069   -4.6915609    13.602154  0.037783761    0.0631104            1 
   31000    1.2108991   -4.6785184    14.307028  0.038459751  0.062940969            6 
   32000     1.211528   -4.7321099    15.134318  0.039412285  0.062865204            1 
   33000    1.2227526   -4.6813647    16.071327  0.040584157  0.062910974            4 
   34000    1.1985892   -4.7194336    16.745345  0.041042511  0.062976897            3 
   35000    1.2211214   -4.6949219    17.441363  0.041527054  0.063004623            2 
   36000    1.2079528   -4.7367171    18.013283  0.041697413  0.062879782            3 
   37000    1.2441623   -4.7572623    18.726513  0.042176831  0.062732514            2 
   38000    1.2219706    -4.720148    19.383998  0.042508767  0.062577937            2 
   39000    1.1740107   -4.7554719    20.264021   0.04329919  0.062451003            4 
   40000    1.1959301   -4.7487709    20.952704  0.043651467  0.062351154            5 
   41000    1.1813664   -4.7383479    21.602614  0.043907751  0.062231364            4 
   42000    1.1858641   -4.7533222    22.354323  0.044353814  0.062121787            2 
   43000     1.224961   -4.7618323     23.23401  0.045027151  0.062075135            8 
   44000    1.2083664   -4.7445291    24.129264  0.045699363  0.062085586            3 
   45000    1.1773566   -4.7999058    24.659861   0.04566641  0.062102981            3 
   46000    1.2230972   -4.7238946    25.507453  0.046209153  0.062101995            2 
   47000     1.185593   -4.7364835    25.960849  0.046029873  0.062021982            1 
   48000    1.1989447   -4.7436149    26.550844  0.046095215  0.061874898            2 
   49000    1.2035801   -4.7673418    27.280095  0.046394718  0.061732294            2 
   50000    1.1671788   -4.7690699    27.692744  0.046154572   0.06156221            3 
   51000     1.179931    -4.737192       28.385  0.046380719  0.061331423            3 
   52000     1.196645   -4.7595105    28.817616  0.046182076  0.061078467            3 
   53000    1.1882702    -4.798654    29.472417  0.046340279  0.060819024            5 
   54000    1.1849383   -4.7703981    30.226595   0.04664598  0.060582737            4 
   55000    1.1747262   -4.7766906    30.830984  0.046713612  0.060378627            3 
   56000    1.1854271   -4.7942168    31.451223  0.046802414  0.060169933            2 
   57000    1.1719251   -4.7733947    32.196485  0.047070885  0.059987956            1 
   58000    1.1892695    -4.778462    32.984937   0.04739215  0.059798562            1 
   59000    1.1887072   -4.8116804    33.433332   0.04722222  0.059642898            2 
   60000     1.169469   -4.7844554    34.160036  0.047444494  0.059485529            6 
   61000    1.1510667   -4.8265692    34.840925  0.047596892  0.059345787            2 
   62000    1.1896262   -4.8299593     35.67393   0.04794883  0.059216597            4 
   63000    1.1875952    -4.798228    36.429454  0.048187108  0.059107929            1 
   64000    1.1749086   -4.8160241    37.255451  0.048509701     0.059043            2 
   65000    1.1577648   -4.7910981    38.072622  0.048811054  0.058985562            3 
   66000    1.1404382   -4.8150952    38.542341  0.048664571  0.058939303            2 
   67000    1.1617782   -4.8277879    39.408865  0.049016001  0.058879974            2 
   68000    1.1742629   -4.8194107    39.822643  0.048802259  0.058829208            6 
   69000    1.1721022   -4.8286002    40.584773  0.049015426  0.058772017            1 
   70000    1.1653405   -4.7976538    41.365981  0.049245215  0.058731782            3 
   71000    1.1521891   -4.8615369    42.090258  0.049401711  0.058690937            3 
   72000    1.1597998   -4.8455677    42.694333  0.049414737  0.058649012            2 
   73000    1.1370278   -4.8460105    43.441143  0.049590345  0.058603818            4 
   74000    1.1273391   -4.8658015    44.139296  0.049706414   0.05856581            2 
   75000    1.1293478   -4.8882497    44.670597  0.049633997   0.05852604            1 
   76000    1.1380453   -4.8513163    45.401232  0.049782052   0.05848852            6 
   77000    1.1504844   -4.8315339    46.148037  0.049943763   0.05845227            2 
   78000    1.1199681   -4.8552964    46.687484   0.04987979  0.058400203            4 
   79000    1.1496175   -4.8851638    47.182113  0.049770161  0.058341715            3 
   80000    1.1265594   -4.8720988    47.847054  0.049840681  0.058279814            2 
   81000     1.124117   -4.8479642    48.508807   0.04990618  0.058204327            5 
   82000    1.1177878   -4.8859873    49.208229  0.050008363  0.058134653            1 
   83000    1.1414126   -4.8556936    49.844598  0.050044776    0.0580831            3 
   84000    1.1396915   -4.8511857    50.517627  0.050116693  0.058026285            1 
   85000    1.1470987   -4.8921856    50.888228  0.049890419  0.057971405            1 
   86000    1.1274642   -4.8336437    51.672422  0.050070176  0.057897066            2 
   87000     1.106939   -4.9077881     52.07189  0.049877289  0.057817893            3 
   88000    1.1361281   -4.8777823    52.355426  0.049579001   0.05771466            2 
   89000    1.1531897   -4.9182337    52.651844  0.049299479  0.057590629            1 
   90000    1.1161843   -4.8858225      53.3783  0.049424352  0.057460803            3 
   91000     1.159132   -4.8847186    54.032846  0.049480628  0.057340713            4 
   92000     1.143754   -4.9099364    54.293142   0.04917857  0.057220595           10 
   93000    1.1303782    -4.916949    55.129344  0.049399053  0.057087748            2 
   94000    1.1447561   -4.9125032    55.645875   0.04933145  0.056961968            3 
   95000     1.100172   -4.9390422    56.274634  0.049363714  0.056845918            2 
   96000    1.1082434   -4.8694469    57.078968  0.049547715   0.05672642            2 
   97000    1.1039415   -4.9103035    57.148177  0.049096372  0.056596163            4 
   98000    1.0898412   -4.9321167    57.734913  0.049094314  0.056464783            3 
   99000    1.1115027   -4.8916753    58.506421  0.049247829  0.056337582            5 
  100000    1.1079127   -4.9041233    59.048072  0.049206726  0.056208533            3 
  101000    1.1225597   -4.9144003    59.613622  0.049186156  0.056090368            1 
  102000    1.0930457   -4.8504523     60.80495  0.049677247  0.055988144            1 
  103000    1.1251206   -4.8915673    61.004921  0.049356732  0.055889244            2 
  104000     1.116377   -4.9719546    61.371327  0.049175742  0.055783284            2 
  105000    1.1049127   -4.9619416    62.169271  0.049340691  0.055685847            1 
  106000     1.116504   -4.9614619    62.678987  0.049275933  0.055595624            4 
  107000    1.0999383   -4.9843478    63.204951   0.04922504   0.05549763            3 
  108000    1.1037257   -4.9735373    63.950572  0.049344577  0.055394893            2 
  109000    1.1231609   -4.9681281    64.534632  0.049338404   0.05529213            2 
  110000    1.0889105   -4.9608195    64.590811  0.048932433  0.055181627            2 
  111000     1.084004   -4.9305368    65.573078  0.049229037  0.055073665            4 
  112000    1.0792397   -4.9642467    65.925576  0.049051768  0.054972651            5 
  113000    1.0990799   -4.9814933    66.294431  0.048889698   0.05487594            2 
  114000    1.0640314   -4.9844462      66.8822  0.048890497  0.054771907            3 
  115000    1.0679076   -4.9493062    67.564915  0.048960083   0.05467033            3 
  116000     1.096373   -4.9603448    68.203845  0.048997015  0.054574122            3 
  117000    1.0925417   -4.9584516    69.034721  0.049170029   0.05448002            4 
  118000     1.090274   -4.9607087     69.18563  0.048859908  0.054380213            3 
  119000    1.0856173   -4.9673867    69.837166  0.048905578  0.054281003            3 
  120000     1.086883   -4.9852401    70.237488  0.048776033  0.054184041            2 
  121000    1.0744346   -4.9635497    71.063666  0.048941918  0.054090409            3 
  122000    1.0522124    -4.980965     71.06021  0.048538395  0.053986424            2 
  123000    1.0751233   -4.9877979    71.371894  0.048354941  0.053875776            3 
  124000    1.0634841   -5.0037003    71.989428  0.048379992  0.053763811            1 
  125000     1.060852   -4.9823424    72.682782  0.048455188  0.053653193            3 
  126000    1.0381671   -5.0121102    72.884266  0.048203879  0.053543586            2 
  127000    1.0695361   -5.0065264     73.50915   0.04823435  0.053431209            4 
  128000    1.0822621   -4.9937565    74.043064  0.048205119  0.053320873            2 
  129000    1.0711696    -4.982176    74.526196  0.048143537  0.053211157            2 
  130000     1.051165   -4.9831104    75.276356  0.048254074  0.053104107            3 
  131000    1.0554091   -4.9902432    75.247097   0.04786711  0.052993684            2 
  132000    1.0681082   -5.0159422    76.114409  0.048052026  0.052884636            4 
  133000    1.0556672   -5.0118096    76.597441  0.047993384  0.052780171            5 
  134000    1.0527856   -4.9861776    77.194847  0.048006746   0.05267868            4 
  135000    1.0535317   -5.0137884    77.416395  0.047787898  0.052576571            2 
  136000    1.0602063   -5.0242982    77.867837  0.047713135  0.052474607            2 
  137000     1.047467   -5.0258386    78.618218    0.0478213  0.052366656            4 
  138000    1.0497848   -5.0380819    79.128269  0.047782771  0.052271714            4 
  139000    1.0414762   -5.0366048    79.824303  0.047856296  0.052178924            3 
  140000    1.0410155   -5.0383011    80.104986  0.047681539  0.052087448            4 
  141000    1.0606901   -5.0157968    80.902807  0.047814897  0.051991963            4 
  142000     1.048854   -5.0551479    80.930536  0.047494446  0.051892691            3 
  143000    1.0269198   -5.0395026    81.611718  0.047559276  0.051794078            4 
  144000    1.0214713   -5.0357707    82.424621  0.047699433  0.051697719            2 
  145000    1.0277264   -5.0748107    82.475617   0.04739978  0.051603052            4 
  146000    1.0267047   -5.0799576    83.053145  0.047404763  0.051509101            5 
  147000    1.0511423   -5.0690485    83.390768  0.047273678  0.051414287            3 
  148000    1.0351406   -5.0908296    83.861457  0.047219289  0.051324336            3 
  149000    1.0363194   -5.0508256    84.827883  0.047442888  0.051232284            5 
  150000      1.03626   -5.0859735    85.192416   0.04732912  0.051147754            3 
  151000    1.0122135   -5.0710116    85.769131  0.047333957      0.05106            3 
  152000    1.0087325   -5.0973462     85.95592  0.047124956  0.050973735            7 
  153000    1.0061881   -5.0674901    86.784023  0.047267986  0.050884866            2 
  154000    1.0209406   -5.1107186    87.154815  0.047161696  0.050797935            1 
  155000   0.99355223   -5.0285449    87.431461  0.047006161  0.050712664            3 
  156000    1.0374547   -5.0644024    88.053538  0.047037146  0.050620569            2 
  157000    1.0295073   -5.1259199    88.161535   0.04679487  0.050533699            4 
  158000    1.0026968   -5.1298973     88.34318  0.046594504  0.050442766            7 
  159000    1.0382343   -5.0994765    89.123952  0.046710666  0.050351284            2 
  160000    1.0253381   -5.1186183    89.572196  0.046652185  0.050259509            7 
  161000    1.0091758   -5.1284084    90.013799  0.046590993  0.050171335            3 
  162000    1.0275204   -5.1181752    91.072398  0.046847941  0.050089617            2 
  163000    1.0030146   -5.1397786    91.008042  0.046527629  0.050005764            6 
  164000    1.0329947    -5.121986    91.352689  0.046419049  0.049918148            5 
  165000    1.0097948   -5.1289682    91.998702  0.046463991  0.049830733            3 
  166000     1.013018   -5.1294762    92.177581  0.046273886  0.049740522            2 
  167000    1.0126646   -5.1616609    92.416545   0.04611604   0.04964982            4 
  168000    1.0267778   -5.1476912    93.227241  0.046243671  0.049563423            2 
  169000   0.99426436   -5.1232517    93.939588  0.046321296  0.049479625            3 
  170000    1.0100651   -5.1391188    94.036049  0.046096102  0.049391401            2 
  171000   0.97450689    -5.156938    94.436279  0.046021578  0.049300152            4 
  172000   0.97638743   -5.1511253     94.44179  0.045756681  0.049206109            2 
  173000    1.0030954   -5.1423178    94.938504  0.045731456  0.049111911            5 
  174000   0.97995425   -5.1630806     95.53819  0.045755838   0.04902031            5 
  175000   0.99183549   -5.1739096    95.791741  0.045615114  0.048927433            5 
  176000    0.9818224   -5.1360062    96.518403  0.045700001  0.048835897            2 
  177000   0.98170935   -5.1789848     97.03501  0.045685033  0.048745531            4 
  178000    1.0073791   -5.1700187    97.378594  0.045589229  0.048656907            4 
  179000   0.97608366   -5.1189906    98.010387  0.045628672  0.048567847            3 
  180000   0.99917903   -5.1724027    97.979796  0.045361017  0.048477614            5 
  181000   0.98187956   -5.2158014    98.368754  0.045289482  0.048383729            2 
  182000   0.99785709   -5.1579301    98.766592  0.045222798  0.048289224            4 
  183000   0.95000253   -5.1839319    99.014225  0.045088445  0.048195842            2 
  184000     1.002583   -5.1951848    99.091968  0.044878608  0.048098945            2 
  185000   0.96734903   -5.1811009    100.02509  0.045056346  0.048001923            3 
  186000   0.94711022   -5.1883646    100.18138   0.04488413  0.047905008            2 
  187000   0.98783793   -5.2359779    100.00797  0.044566832  0.047809136            2 
  188000   0.97605293   -5.2207598    100.72715  0.044648559  0.047711257            6 
  189000   0.95910118   -5.2208007    100.65129  0.044378878  0.047611952            5 
  190000   0.96593503   -5.1857887    101.25925  0.044411952  0.047511456            4 
  191000   0.96301099   -5.2076766    101.72246  0.044381526  0.047411301           10 
  192000   0.97375294   -5.2084339    102.16683  0.044343241  0.047312394            7 
  193000    0.9657625   -5.2185662    102.49399  0.044254745  0.047212361            4 
  194000   0.97745518   -5.2408182    102.27873  0.043934163  0.047112517            3 
  195000   0.93143232   -5.2218279    103.06765  0.044046006  0.047013139            6 
  196000   0.94284156   -5.2356415    103.35755  0.043944536  0.046913684            8 
  197000   0.96802075   -5.2148336    103.99325  0.043990377  0.046815086            3 
  198000   0.95411703   -5.2272954     104.2144  0.043861278  0.046715762            2 
  199000   0.98205182   -5.2463218    104.32085  0.043685449  0.046612521            3 
  200000   0.95745489   -5.2476358    104.25223  0.043438428  0.046507675            5 
  201000   0.95161269   -5.2448976    104.65214  0.043388118  0.046401255            2 
  202000   0.93390212   -5.2380784    105.21521  0.043405616  0.046298257            4 
  203000   0.94230023   -5.2231009    105.49875  0.043308188  0.046197552            5 
  204000   0.92880572   -5.2680438    105.36237  0.043040184   0.04609701            4 
  205000   0.93942239   -5.2565983    106.12501  0.043140246  0.045992744            4 
  206000   0.94979763   -5.2240518    106.78997  0.043199824   0.04589151            5 
  207000   0.93628543   -5.2306946    107.17492  0.043146104   0.04579111            3 
  208000   0.96301852   -5.2442409    107.30126  0.042989287  0.045691545            5 
  209000   0.93221725   -5.2542602    107.42651  0.042833536  0.045592184            2 
  210000   0.94812779   -5.2694269    107.95272  0.042838381  0.045491433            3 
  211000   0.94701882   -5.2783283    108.00834  0.042657323  0.045391932            5 
  212000   0.91358522   -5.2668326    108.51423  0.042654965  0.045292787            4 
  213000   0.93567427   -5.3008935    108.47942  0.042441088  0.045192564            7 
  214000   0.92376367   -5.2914368    109.06034  0.042468978  0.045092373            2 
  215000   0.93488707   -5.2575931    109.42198  0.042411621  0.044992899            4 
  216000   0.91510121   -5.2984834    109.50401  0.042246917  0.044891817            7 
  217000   0.92132044   -5.2798644    109.99084  0.042239185  0.044792576            4 
  218000   0.93800081   -5.2932987    109.99024  0.042045199  0.044692742            6 
  219000   0.91984576    -5.319761    110.65731  0.042107045  0.044591919            6 
  220000   0.90850222   -5.3148462     111.0302  0.042056893   0.04449325            6 
  221000    0.9207399   -5.3123376    111.24991  0.041949438  0.044394523            3 
  222000   0.91348521   -5.3149159    111.46071  0.041839606  0.044295791           10 
  223000    0.9202388   -5.3178739    111.65374  0.041724119  0.044195487            3 
  224000   0.89434131   -5.3151648    111.98446  0.041660886  0.044093072            2 
  225000   0.91261289   -5.3252273    111.91145  0.041448686  0.043990955            2 
  226000    0.8977979     -5.28661    112.66557  0.041543353  0.043888146            5 
  227000   0.91357322   -5.2983843    113.02956  0.041493966  0.043788957            5 
  228000   0.88852352   -5.3272547    112.53046  0.041129555  0.043687428            6 
  229000   0.89676292   -5.3486857    113.00807  0.041123752  0.043585736            3 
  230000   0.90168825   -5.3303313    113.12359  0.040986809  0.043483151            5 
  231000   0.89346729   -5.3324623    113.61416   0.04098635  0.043382258            6 
  232000   0.89255154   -5.3577057    114.23086  0.041031201  0.043281319            4 
  233000   0.88269844   -5.3269409    114.41296   0.04092023    0.0431817            6 
  234000   0.89395936   -5.3431536    114.42849  0.040750887  0.043080418            5 
  235000   0.91118527   -5.3503719    114.71815  0.040680194  0.042978624            4 
  236000   0.87721464   -5.3488943    115.29955  0.040713119  0.042878393            5 
  237000   0.88455255   -5.3534664    115.51352  0.040616569  0.042782457            5 
  238000   0.89888378   -5.3502089    116.61655  0.040832124  0.042689179            4 
  239000   0.87954242    -5.358938    116.44433  0.040601231  0.042596294            3 
  240000    0.8851422    -5.367171    116.90313  0.040591365  0.042503769            3 
  241000   0.89927433    -5.344326     117.4151  0.040599964  0.042412834            7 
  242000   0.90343604   -5.3542227    117.82067  0.040571857  0.042321284            7 
  243000   0.89797398   -5.3517093    117.41919  0.040267213  0.042227631           11 
  244000   0.89102439   -5.3719206    117.92348  0.040274412  0.042135092            5 
  245000   0.87962887   -5.3729643    118.08185  0.040163893  0.042043185            8 
  246000   0.88793635   -5.4058805    118.12912  0.040016639  0.041951538            3 
  247000   0.85981969   -5.4056687    118.80412  0.040082361  0.041860627            7 
  248000    0.8724004   -5.3918101    119.36207  0.040108224   0.04177139            3 
  249000   0.86317301   -5.3822389    119.56832  0.040016171  0.041683572            3 
  250000   0.86138275   -5.4112987    119.55744  0.039852479  0.041594169            6 
  251000   0.87132617   -5.4066754    120.01191   0.03984459  0.041504993            3 
  252000   0.87141237    -5.405074    120.12778  0.039724795  0.041415912            8 
  253000   0.85450846   -5.4349338     120.1867  0.039587186  0.041324305            4 
  254000   0.88194809   -5.4271712    120.77228  0.039623453   0.04123257            5 
  255000   0.85845263   -5.3841733    120.65968  0.039431268  0.041143734            6 
  256000    0.8351255   -5.4059518    121.11448  0.039425285  0.041052483            2 
  257000   0.86323357   -5.4461547    120.68169  0.039131548  0.040960262            7 
  258000   0.87576815   -5.4364446    121.27359  0.039171056  0.040867861            4 
  259000   0.86106515   -5.4037941    121.80242  0.039189968  0.040776646            4 
  260000   0.87274679   -5.4470335    121.43952  0.038922922  0.040684145            3 
  261000   0.85951124   -5.4314984    121.88069  0.038914651  0.040592771            4 
  262000   0.83366197   -5.4503179    122.31743  0.038905035  0.040500835            6 
  263000   0.84004811    -5.433258     122.4726  0.038806273  0.040408365           10 
  264000   0.85018179   -5.4721684    122.87521  0.038786365  0.040317662            5 
  265000   0.83510661   -5.4662504    123.13518  0.038721754  0.040226737            6 
  266000   0.85260804   -5.4563599    123.33708  0.038639435  0.040137568            7 
  267000   0.83084802   -5.4661123    123.63311  0.038587114  0.040047118            8 
  268000   0.85979982   -5.4549536    123.92479  0.038533826  0.039957391           16 
  269000   0.83514611   -5.4818918    124.24151  0.038488697  0.039867697            8 
  270000   0.83446002   -5.4480955      124.117  0.038307716   0.03977821            8 
  271000   0.84673016   -5.4741781    124.37022  0.038244224  0.039690084            4 
  272000   0.83716582   -5.4859203    124.45247   0.03812882  0.039600459            6 
  273000   0.83381291    -5.478552    124.50047  0.038003806  0.039511719            5 
  274000   0.82096074   -5.4778262    124.88556  0.037982227  0.039423762           10 
  275000    0.8268994   -5.4867095    125.34871  0.037984456  0.039336701            6 
  276000   0.83966409   -5.4684947    125.86265  0.038002008  0.039249967            5 
  277000   0.83010712   -5.4828994     125.8393  0.037857791  0.039162649            4 
  278000   0.82138865   -5.5079644    125.88285  0.037734667  0.039076084            6 
  279000   0.81587688   -5.4872647     126.2532  0.037710037  0.038989375            7 
  280000   0.81562984   -5.5221024    126.56128  0.037667049  0.038902103            9 
  281000   0.81596539   -5.4871046    126.59777  0.037543824  0.038814938           13 
  282000   0.80472128    -5.530449      126.559  0.037399232  0.038729343            6 
  283000   0.81892716   -5.5001492    127.58268  0.037568515  0.038644777            6 
  284000   0.82686998   -5.5202636    127.35752  0.037370164  0.038560468            6 
  285000    0.8179492   -5.5311323    127.42621  0.037259125  0.038475261            4 
  286000   0.80402649   -5.5305909    127.38897  0.037117997  0.038388492           18 
  287000    0.7994901   -5.5180146    127.71902  0.037084499  0.038302116            7 
  288000   0.81135245   -5.5199274    127.53018  0.036901095  0.038215099            4 
  289000   0.80314001    -5.546369    127.64684  0.036807046  0.038128112            5 
  290000   0.81002397   -5.5746609    127.72292  0.036701988  0.038039879            9 
  291000   0.81829557   -5.5194186     128.5282  0.036806472  0.037952284            8 
  292000   0.80433736   -5.5345199    128.37439  0.036636526  0.037865285            4 
  293000   0.79562772   -5.5497246    128.18943  0.036458881  0.037776002            6 
  294000   0.78350597   -5.5409045    128.68928  0.036476553  0.037687156            5 
  295000   0.78783359   -5.5601483    128.51699  0.036304235  0.037598357            2 
  296000   0.79576786   -5.5742537    128.60821  0.036207267  0.037509263            6 
  297000   0.81832519    -5.543617    128.96796  0.036186296  0.037419641            6 
  298000   0.78824182   -5.5722776    128.90342  0.036046816  0.037329535           10 
  299000   0.80539335   -5.5853136    128.95464  0.035940536  0.037240085            6 
  300000   0.77912448   -5.5762467    129.24654  0.035901817  0.037150226            6 
  301000   0.77488162   -5.5736972    128.99505  0.035712914  0.037059713           11 
  302000   0.78294156   -5.5552426    128.96744  0.035587041  0.036969319            9 
  303000   0.75881205   -5.5937184    129.63802  0.035654021  0.036878678           14 
  304000   0.78643021   -5.5973231    129.31966  0.035449467  0.036787398           12 
  305000   0.78729433   -5.6103387    129.78628  0.035460732  0.036696197           11 
  306000   0.78497229   -5.6171199    129.62612  0.035301232  0.036604977            7 
  307000   0.76809313   -5.5995959    129.64568  0.035191553  0.036514117            5 
  308000   0.77163952   -5.5905948    130.34675  0.035266976  0.036423597            3 
  309000   0.77813538   -5.5956311    130.32311   0.03514647  0.036333099            5 
  310000   0.79186708   -5.6244831    130.19325  0.034998185  0.036242405            9 
  311000   0.77522099   -5.6233271    130.58705   0.03499117  0.036152403            3 
  312000   0.77027981    -5.638894    130.75441  0.034923721  0.036062736           11 
  313000   0.78178062   -5.6691767    130.43265  0.034726478  0.035972765           10 
  314000   0.76890746   -5.6356894    130.85635   0.03472833  0.035882972            5 
  315000   0.75654567   -5.6160521    131.61679  0.034819258  0.035794104            7 
  316000   0.75938978   -5.6661952    131.12559  0.034579534   0.03570535            5 
  317000   0.77253168   -5.6551785    131.31156  0.034519338  0.035616232            5 
  318000   0.75415082   -5.6655954    131.50188  0.034460661  0.035527052            7 
  319000   0.77003435   -5.6355662    131.81136  0.034433478   0.03543887            5 
  320000   0.76476725   -5.6643355    131.28007  0.034187517  0.035350011            7 
  321000   0.76830302   -5.6637247    131.75681   0.03420478  0.035260347            9 
  322000   0.75853044   -5.6619726     131.9298  0.034143323  0.035172161            5 
  323000   0.75538272   -5.6929129    131.64999  0.033965426  0.035083035           13 
  324000   0.73691094   -5.6711217    132.09374  0.033974728  0.034994245           13 
  325000   0.74817079   -5.6351021    132.30742  0.033924979   0.03490571           14 
  326000   0.75079175   -5.6895445    131.89307  0.033714997   0.03481681            5 
  327000   0.75322456   -5.6664896    132.52739  0.033773544  0.034728052            6 
  328000   0.74298964   -5.7055274    132.54461  0.033674952  0.034639591            6 
  329000   0.74520456   -5.6943812    132.26496  0.033501763  0.034550269            5 
  330000   0.75366659   -5.6637884    132.70137  0.033510446   0.03446133            8 
  331000   0.74814387   -5.6988175    132.59196  0.033381662  0.034373037            7 
  332000   0.72520862   -5.6898777    132.86156  0.033348785  0.034284486            6 
  333000   0.73665807   -5.7192957    132.65051  0.033195822  0.034195685           10 
  334000   0.72224297   -5.7254337     132.7407  0.033118936  0.034106499           13 
  335000   0.74162698   -5.7101799    132.85366  0.033048175  0.034018103           12 
  336000   0.72969382   -5.7304943    132.81922  0.032941275  0.033929308            9 
  337000   0.73201444   -5.6937584    132.95147  0.032876228  0.033840489            6 
  338000   0.71961236   -5.7456779    132.63378  0.032700635   0.03375175           11 
  339000   0.72913085   -5.7139548    133.17954  0.032738333  0.033662383           11 
  340000   0.70998201   -5.7295179    132.96553   0.03258959  0.033574007           11 
  341000   0.71220515   -5.7282525    133.39034  0.032597834   0.03348632           15 
  342000   0.72620303   -5.7281118    133.81399  0.032605748  0.033399497            9 
  343000   0.73134251   -5.7662038    133.71741  0.032487224  0.033312313           11 
  344000   0.71970677   -5.7564366    133.54123  0.032350105  0.033225267           11 
  345000   0.72131619   -5.7677169    133.84431  0.032329543  0.033138748            8 
  346000   0.73794479   -5.7571241    134.07313  0.032291216  0.033052171            7 
  347000    0.6895395   -5.7406806    134.21665  0.032232626  0.032965359            7 
  348000    0.7240387    -5.772987    134.00304  0.032088851  0.032878273           11 
  349000   0.70686054   -5.7910987    134.18527  0.032040419   0.03279162            5 
  350000   0.71619848   -5.7764831    133.89739  0.031880332   0.03270451            7 
  351000   0.70712036   -5.7482742    134.08518  0.031834088  0.032617846           12 
  352000   0.70478307   -5.7769665    134.58092  0.031861013  0.032531486            5 
  353000   0.71021715   -5.7630752    134.33126  0.031711818   0.03244553            5 
  354000   0.69844159   -5.7936125    134.50631  0.031663445  0.032360102            9 
  355000   0.69995272   -5.7621716     134.5838  0.031592441  0.032275126            6 
  356000   0.71012882   -5.7916838    135.02231  0.031606345  0.032191333            5 
  357000   0.69892871   -5.7685081    135.05806  0.031526157   0.03210745            6 
  358000   0.71129874   -5.8024408    134.99641  0.031423745  0.032023586            8 
  359000   0.69820332   -5.7872849    135.11861  0.031364579  0.031939701           33 
  360000   0.69563851   -5.8216201     135.4234   0.03134801  0.031855517            6 
  361000    0.6885704   -5.8205508    135.13752   0.03119518  0.031771772           13 
  362000   0.69072393   -5.8190624    135.24815  0.031134473    0.0316882           15 
  363000   0.68335346    -5.821209     135.1469   0.03102546    0.0316042            9 
  364000   0.67706459   -5.7794446    135.44353  0.031008134  0.031520454            5 
  365000   0.68473294    -5.804125    135.39298  0.030911638  0.031437022            9 
  366000   0.66632952    -5.823819    135.27651  0.030800663  0.031353276           18 
  367000   0.68851842   -5.8090006    135.64193  0.030799712  0.031269605            5 
  368000   0.67879865    -5.850797    135.56068  0.030697617  0.031186278            9 
  369000   0.67672872   -5.8409427     135.4829  0.030596862  0.031103013           27 
  370000   0.67006119   -5.8617742    135.44484  0.030505593  0.031019754           27 
  371000   0.68310053   -5.8167952    136.02505  0.030553694  0.030936364           10 
  372000   0.68044984   -5.8358059    135.76154  0.030412531  0.030853253           37 
  373000     0.666396    -5.844504    135.35171  0.030239435   0.03076953           13 
  374000   0.66698204   -5.8591449    135.60912  0.030215936  0.030686398            7 
  375000   0.67561932   -5.8672033     135.2586  0.030057467   0.03060269           10 
  376000   0.67968325   -5.8819153    135.50305  0.030031703  0.030519123            7 
  377000   0.65563538   -5.8906333    135.73884  0.030004163   0.03043598            7 
  378000   0.68409943   -5.8769696    135.74349  0.029925815  0.030353445           22 
  379000   0.66000931   -5.8911053    135.60631  0.029816691  0.030270579           20 
  380000   0.65514426   -5.8886399    135.87063   0.02979619  0.030188369           15 
  381000   0.64948609   -5.8736065     135.9724  0.029740244  0.030106961            6 
  382000   0.65035054   -5.8865261    136.07528  0.029684834  0.030025877            9 
  383000   0.66256992   -5.8906403    136.54592   0.02970973  0.029945101           21 
  384000   0.67078202    -5.906498    136.13233  0.029542606  0.029864573            9 
  385000   0.65117564   -5.9048038    136.42771  0.029529807  0.029784177            7 
  386000   0.65574899   -5.9180859    136.37651  0.029442251  0.029703752           18 
  387000   0.64849683   -5.9102271    136.44053  0.029379959  0.029623106           12 
  388000   0.65458877   -5.9312749    136.18676  0.029249734   0.02954196           19 
  389000   0.66240228    -5.939194    136.32601  0.029204372  0.029461047           21 
  390000    0.6369401    -5.942361     136.3712  0.029139144  0.029380625           17 
  391000   0.64674182     -5.91407    136.53955  0.029100501  0.029300726           18 
  392000   0.64620735   -5.9306048    136.46945  0.029011363  0.029220915           28 
  393000   0.64980436   -5.9223459    136.80697  0.029009112   0.02914171           10 
  394000   0.63867997   -5.9532305    136.51058  0.028872797  0.029062368            9 
  395000    0.6284564   -5.9623122    136.68735  0.028836994  0.028983541           10 
  396000   0.65001619   -5.9620872    136.71609  0.028770221  0.028904321           25 
  397000   0.64257169   -5.9255161    136.72466  0.028699551  0.028825198           11 
  398000   0.62841972   -5.9414136    136.86282  0.028656369   0.02874659           10 
  399000   0.64020737   -5.9425372    136.72959  0.028556723  0.028668166           10 
  400000   0.62859968   -5.9642857    136.82077  0.028504327  0.028589839           15 
  401000   0.63568548   -5.9647587    136.85408  0.028440167  0.028511849            7 
  402000    0.6199078   -5.9664506    137.04028  0.028408019  0.028434295           27 
  403000   0.62426574    -5.964325    137.16564  0.028363449  0.028356636           20 
  404000   0.61334306   -5.9783469    137.09837  0.028279367  0.028278489           30 
  405000   0.62740181   -5.9663371    136.76323  0.028140582  0.028200836           14 
  406000   0.62823553    -5.995159    136.71374  0.028061112  0.028123025           15 
  407000   0.62117799    -6.007682    136.80269  0.028010378  0.028045829           14 
  408000   0.61315664   -5.9995618     136.9564  0.027973122  0.027968748           20 
  409000   0.60480448   -5.9965746    137.03024  0.027919773  0.027891763           19 
  410000   0.60583047   -6.0367815    136.81597  0.027808124  0.027814624           11 
  411000   0.61070444   -6.0159719    136.88459  0.027754378  0.027737851           20 
  412000   0.61473303   -6.0196934    136.76067  0.027661948  0.027661167           16 
  413000   0.61115987   -6.0138878    136.98061  0.027639347  0.027584728           24 
  414000   0.59238346   -6.0123964    137.21207  0.027619176  0.027508513           13 
  415000   0.60451369   -5.9969819    137.19609  0.027549416  0.027432634           13 
  416000   0.59772955    -6.016696    137.20081  0.027484137  0.027357035           13 
  417000   0.59293996    -6.027794    137.17792  0.027413654  0.027281343           20 
  418000   0.58438808   -6.0376333     137.5394  0.027420136  0.027205924           12 
  419000   0.60552751   -6.0387873    136.48523  0.027145034  0.027130303           13 
  420000   0.58845782   -6.0119438    136.95215  0.027173046  0.027054973           13 
  421000   0.58734607     -6.01166    137.18072  0.027153746  0.026980047           12 
  422000   0.59511437   -6.0453703    137.35351  0.027123522  0.026905146           13 
  423000   0.59473124   -6.0430278    137.14581  0.027018481  0.026830544           23 
  424000   0.59898655   -6.0110105    137.23098  0.026971497  0.026755842           15 
  425000    0.5943329   -6.0396496    137.16239  0.026894587  0.026681255           11 
  426000   0.58453617   -6.0602695    136.98182   0.02679613  0.026606957           52 
  427000   0.58977868   -6.0500101    137.51041  0.026836537  0.026532719           21 
  428000   0.58132653    -6.060821    137.07053  0.026688188  0.026458669           40 
  429000   0.58932615   -6.0583227    136.99242  0.026610804  0.026384575           40 
  430000   0.58154533    -6.058141    136.92139  0.026535153   0.02631059           30 
  431000   0.57564729   -6.0790111     136.9659  0.026482193  0.026236647           15 
  432000   0.56920666   -6.0590851    136.97265  0.026422194  0.026162735           35 
  433000   0.57775969   -6.0864939    136.83823  0.026335302  0.026089048           29 
  434000   0.57849108   -6.1028413    136.90713  0.026287851  0.026015357           20 
  435000   0.57549709   -6.1043574    137.01635  0.026248342  0.025942027           40 
  436000   0.56781077   -6.1089336    136.79025  0.026144926  0.025868854           14 
  437000   0.56400089   -6.1087984     137.0687  0.026138195  0.025795689           23 
  438000    0.5635408   -6.1073897    136.90243  0.026046886  0.025722748           12 
  439000   0.55941705   -6.1247218    137.11779  0.026028433   0.02565007           17 
  440000   0.57197461   -6.1125197     137.2331  0.025991117  0.025577839           20 
  441000    0.5707769   -6.1311617    136.85041  0.025859866  0.025505541           22 
  442000   0.56773775   -6.1144259    137.13963  0.025855888  0.025433686           26 
  443000   0.56436732    -6.152421    136.86514  0.025745887  0.025361873           23 
  444000   0.55970904   -6.1362649    137.13093  0.025737788  0.025290184           14 
  445000   0.56225218   -6.1341257    136.89318  0.025635427  0.025218857           13 
  446000   0.55931595   -6.1173041    137.20473   0.02563616  0.025147863           18 
  447000   0.55727272   -6.1393146    136.94205  0.025529838  0.025076913           28 
  448000   0.56064563   -6.1381461    137.03407  0.025489969  0.025006056           18 
  449000   0.55509486   -6.1461013    136.88317  0.025405191  0.024935183            9 
  450000   0.54366745   -6.1701881     136.6307  0.025301982  0.024864176           25 
  451000   0.54247129   -6.1400884    136.98188  0.025310769  0.024793138           38 
  452000   0.54752673   -6.1725136     136.9973  0.025257615   0.02472263           27 
  453000   0.55181169   -6.1389021    136.89375   0.02518281  0.024652278           43 
  454000   0.54002496   -6.1436976    136.86719  0.025122465  0.024582272           34 
  455000   0.53148198   -6.1677743    137.09539  0.025109046  0.024512386           31 
  456000   0.54006785   -6.1828498    137.02727  0.025041534  0.024442754           46 
  457000   0.53400169   -6.1769369    136.63754  0.024915671  0.024373165           36 
  458000   0.54106112   -6.1839536    136.97866  0.024923336  0.024303583           44 
  459000   0.53875725   -6.1668439    136.83673  0.024843271  0.024234206           11 
  460000    0.5251868   -6.1763607    136.86996  0.024795283  0.024165021           36 
  461000   0.54431143   -6.1588905    136.86677   0.02474092    0.0240962           42 
  462000   0.53708447   -6.2067903    136.76258  0.024668575  0.024027293           15 
  463000   0.52346978   -6.1804578    136.73562  0.024610443   0.02395875           40 
  464000    0.5285222   -6.1826599    137.09353  0.024621682   0.02389049           16 
  465000   0.52510604    -6.160815    136.90856  0.024535585  0.023822499           15 
  466000   0.51659739    -6.188685    136.90813  0.024482856    0.0237546           19 
  467000   0.52404561   -6.1884501    136.65352  0.024384996  0.023686796           36 
  468000   0.50960478   -6.2111382    136.34072  0.024277194   0.02361879           23 
  469000   0.51953806   -6.2251111    136.61098  0.024273451  0.023550923           31 
  470000    0.5214193   -6.2179264    136.66828  0.024231964  0.023483234           16 
  471000    0.5125732   -6.2381198    136.35846  0.024125701  0.023415665           51 
  472000   0.51154851   -6.2265139    136.59285   0.02411597  0.023348388           38 
  473000   0.51815888   -6.2220244    136.64743  0.024074599  0.023281156           37 
  474000   0.51221938   -6.2403774     136.3471  0.023971009  0.023214036           32 
  475000   0.50046283   -6.2312709    136.29767  0.023911872  0.023147132           36 
  476000   0.51466831   -6.2516282    136.40783  0.023880922  0.023080169           31 
  477000     0.504055   -6.2592529    136.31026  0.023813812  0.023013563           44 
  478000   0.50499645   -6.2596391    136.31364  0.023764582  0.022946942           39 
  479000   0.49857651   -6.2575892    136.38904  0.023728087  0.022880506           57 
  480000   0.49178237   -6.2576337    136.28565  0.023660703  0.022814317           94 
  481000    0.5039346   -6.2472374    136.40872  0.023632834  0.022748223           89 
  482000   0.49573039   -6.2437308    136.24401  0.023555326    0.0226824           74 
  483000   0.49046337   -6.2784907    136.26403  0.023510012  0.022616677           72 
  484000   0.48739239    -6.266621    136.24834  0.023458736  0.022551236           35 
  485000   0.49157648   -6.2700551    136.38004  0.023432997  0.022486187           42 
  486000   0.49362671   -6.2723508    136.19973  0.023353863  0.022421277           44 
  487000   0.48985209   -6.2868921    135.99472  0.023270829  0.022356437           69 
  488000   0.49468751   -6.2938215    135.99017  0.023222365  0.022291571           77 
  489000   0.48955545   -6.2860626    136.14833  0.023201828  0.022227005           79 
  490000   0.48871933   -6.2749677     136.1489  0.023154574  0.022162746           76 
  491000   0.48282769   -6.2886524    135.98897  0.023080274  0.022098598           69 
  492000      0.47981   -6.2993828    135.97793  0.023031492  0.022034516           77 
  493000   0.47441309   -6.2996938    136.13105  0.023010658   0.02197077           91 
  494000   0.48011125   -6.3098751    135.91355  0.022927387   0.02190724           85 
  495000   0.47179213   -6.2879519    136.05809  0.022905402  0.021843842           71 
  496000   0.47742257   -6.3014392    135.87209  0.022827972  0.021780613           81 
  497000   0.48263495    -6.317035    136.08134  0.022817125  0.021717497          152 
  498000   0.46692948   -6.3148138    136.02336  0.022761606   0.02165455           68 
  499000   0.47185188   -6.3156407    135.71848  0.022665077   0.02159167          113 
  500000   0.47735926   -6.3101753    135.73023  0.022621706  0.021529001          105 
  501000   0.47226312   -6.3231308    135.84663  0.022595912  0.021466453           65 
  502000   0.46548668   -6.3333736    135.78701  0.022541005  0.021404114           63 
  503000    0.4652856   -6.3343334    135.70176  0.022482067  0.021342014           57 
  504000   0.45036129   -6.3470452    135.67382  0.022432841  0.021279924           77 
  505000   0.47035005   -6.3423052    135.49937  0.022359632  0.021218084           68 
  506000   0.46231335    -6.343048    135.65997  0.022341893  0.021156316           70 
  507000   0.45731215   -6.3351068    135.55257  0.022280173  0.021094727           87 
  508000   0.45690247   -6.3615817    135.71894  0.022263605  0.021033416           71 
  509000   0.46409619   -6.3636838    135.37257  0.022163157  0.020972258           71 
  510000   0.45410254   -6.3436107    135.45456  0.022133098  0.020911289           95 
  511000   0.46079489   -6.3535869    135.33555  0.022070377  0.020850484           72 
  512000   0.44783184   -6.3586381    135.56521   0.02206465  0.020789847          143 
Loop time of 1269.23 on 48 procs for 500000 steps with 4000 atoms

Performance: 68072.540 tau/day, 393.938 timesteps/s
99.4% CPU use with 48 MPI tasks x no OpenMP threads

MPI task timing breakdown:
Section |  min time  |  avg time  |  max time  |%varavg| %total
---------------------------------------------------------------
Pair    | 89.966     | 95.866     | 104.58     |  38.1 |  7.55
Neigh   | 8.6915     | 9.0223     | 9.4146     |   5.9 |  0.71
Comm    | 80.884     | 89.298     | 95.441     |  38.7 |  7.04
Output  | 0.8969     | 0.89792    | 0.93118    |   0.5 |  0.07
Modify  | 1056.3     | 1061.7     | 1065.7     |   5.6 | 83.65
Other   |            | 12.5       |            |       |  0.98

Nlocal:        83.3333 ave          92 max          78 min
Histogram: 5 2 8 8 10 11 2 1 0 1
Nghost:        2354.98 ave        2378 max        2335 min
Histogram: 2 4 6 3 11 8 10 3 0 1
Neighs:        16265.9 ave       19357 max       13699 min
Histogram: 2 3 9 7 7 6 7 5 0 2
FullNghs:      32531.2 ave       36159 max       30291 min
Histogram: 4 3 7 8 17 5 3 0 0 1

Total # of neighbors = 1561497
Ave neighs/atom = 390.37425
Neighbor list builds = 26861
Dangerous builds = 0

#clear
#
#next RN
#
#jump SELF
Total wall time: 0:21:12
