
units lj                  # Use reduced LJ style units
atom_style atomic         # Uncharged point particles
atom_modify map hash      # Needed for indexing of clusters etc
                          # Used to be able to find where atoms are in relation to each other.

lattice fcc 1.0 spacing 1 1 1
Lattice spacing in x,y,z = 1.5874011 1.5874011 1.5874011
region box block 0 10 0 10 0 10 units lattice
create_box 2 box
Created orthogonal box = (0.0000000 0.0000000 0.0000000) to (15.874011 15.874011 15.874011)
  3 by 4 by 4 MPI processor grid
create_atoms 1 box
Created 4000 atoms
  using lattice units in orthogonal box = (0.0000000 0.0000000 0.0000000) to (15.874011 15.874011 15.874011)
  create_atoms CPU = 0.003 seconds
set type 1 type/fraction 2 0.49 78393
Setting atom values ...
  1962 settings made for type/fraction
mass 1 1.0
mass 2 1.0
pair_style lj/cut  3.5
pair_modify tail  yes
pair_coeff 1  1  1.0  1.0   # Intearaction between 1 and 1 set with epsilon = 1 and sigma = 1
pair_coeff 1  2  1.5  0.8
pair_coeff 2  2  0.5  0.88

write_data data.0
System init for write_data ...
Neighbor list info ...
  update every 1 steps, delay 10 steps, check yes
  max neighbors/atom: 2000, page size: 100000
  master list distance cutoff = 3.8
  ghost atom cutoff = 3.8
  binsize = 1.9, bins = 9 9 9
  1 neighbor lists, perpetual/occasional/extra = 1 0 0
  (1) pair lj/cut, perpetual
      attributes: half, newton on
      pair build: half/bin/atomonly/newton
      stencil: half/bin/3d
      bin: standard
WARNING: Not all mixed pair coeffs generated from mixing. Use write_data with 'pair ij' option to store all pair coeffs. (../write_data.cpp:312)


#############################
#   M E L T   S Y S T E M   #
#############################

velocity all create 2.4 5833274 mom yes dist gaussian # Assign velocities
                                                    # Temperature 2.4, random number seed, zero linear momentum
                                                                                # Gaussian distribution

timestep 0.002   # simulation timestep
thermo 1000       # output thermodynamic data every 1000 steps bf 100

# Define a fix  in this case with index 1 applied to all
# particles in the simulation. This fix is for simulations
# in the anisotropic NPT ensemble. Note that we use the MTK
# correction.
fix 1 all npt temp 2.4 2.4 0.1 iso 5.68 5.68 0.5 mtk yes tchain 5 pchain 5 # Use NPT ensemble
                                                                         # Set temperature and pressure and damping
                                                                         # Numbers of thermostats in chain and in barostat
run 10000          # run for 10000 steps
Per MPI rank memory allocation (min/avg/max) = 3.642 | 3.644 | 3.648 Mbytes
Step Temp E_pair E_mol TotEng Press Volume 
       0          2.4   -5.3537253            0   -1.7546253   -4.2069924         4000 
    1000    2.4018377   -4.9309628            0    -1.329107    5.5939139     3713.962 
    2000    2.3636008   -4.9607426            0   -1.4162277    5.7338157    3688.2238 
    3000    2.3463528    -4.895378            0   -1.3767286    5.6562372    3722.6662 
    4000    2.3954202   -4.9391164            0   -1.3468845    5.8884291    3687.3965 
    5000    2.3307863   -4.9048135            0   -1.4095081    5.5755073    3725.9856 
    6000    2.4170651   -4.9716219            0   -1.3469307    5.4377484     3708.545 
    7000    2.3490605   -4.8893334            0   -1.3666236    5.5313734     3742.455 
    8000    2.3849506   -4.9554841            0   -1.3789524    5.6337382    3694.7202 
    9000    2.4141865   -4.9364168            0   -1.3160424    5.5329772     3718.788 
   10000    2.3906034   -4.8690568            0   -1.2840483    5.8861683    3725.4513 
Loop time of 2.61005 on 48 procs for 10000 steps with 4000 atoms

Performance: 662055.937 tau/day, 3831.342 timesteps/s
99.6% CPU use with 48 MPI tasks x no OpenMP threads

MPI task timing breakdown:
Section |  min time  |  avg time  |  max time  |%varavg| %total
---------------------------------------------------------------
Pair    | 1.1552     | 1.2397     | 1.3053     |   2.7 | 47.50
Neigh   | 0.21453    | 0.22067    | 0.23104    |   0.8 |  8.45
Comm    | 0.8014     | 0.87691    | 0.97342    |   3.8 | 33.60
Output  | 0.00024664 | 0.00025054 | 0.00031509 |   0.0 |  0.01
Modify  | 0.23597    | 0.25649    | 0.28214    |   2.4 |  9.83
Other   |            | 0.01604    |            |       |  0.61

Nlocal:        83.3333 ave          92 max          74 min
Histogram: 3 1 6 6 3 7 11 8 1 2
Nghost:        1717.38 ave        1748 max        1695 min
Histogram: 4 5 5 12 6 5 3 4 1 3
Neighs:        10251.4 ave       11637 max        8776 min
Histogram: 3 2 4 5 5 13 7 6 1 2

Total # of neighbors = 492066
Ave neighs/atom = 123.01650
Neighbor list builds = 898
Dangerous builds = 140

# Equilibrate just above the melting temperature to avoid step fn in T

fix 1 all npt temp 1.25 1.25 0.1 iso 5.68 5.68 0.5 mtk yes tchain 5 pchain 5
run 2000
Per MPI rank memory allocation (min/avg/max) = 3.644 | 3.646 | 3.649 Mbytes
Step Temp E_pair E_mol TotEng Press Volume 
   10000    2.3906034   -4.8690568            0   -1.2840483    5.8861683    3725.4513 
   11000    1.2620555   -7.0017228            0   -5.1091128    5.9227631    2897.7056 
   12000     1.210765   -7.0779352            0   -5.2622417    5.2208494    2899.5673 
Loop time of 0.641332 on 48 procs for 2000 steps with 4000 atoms

Performance: 538878.379 tau/day, 3118.509 timesteps/s
99.6% CPU use with 48 MPI tasks x no OpenMP threads

MPI task timing breakdown:
Section |  min time  |  avg time  |  max time  |%varavg| %total
---------------------------------------------------------------
Pair    | 0.28059    | 0.31392    | 0.34646    |   2.7 | 48.95
Neigh   | 0.039293   | 0.043025   | 0.046096   |   0.7 |  6.71
Comm    | 0.19732    | 0.23409    | 0.27148    |   3.5 | 36.50
Output  | 5.3497e-05 | 5.4637e-05 | 6.9694e-05 |   0.0 |  0.01
Modify  | 0.042493   | 0.045348   | 0.04839    |   0.8 |  7.07
Other   |            | 0.004885   |            |       |  0.76

Nlocal:        83.3333 ave          90 max          74 min
Histogram: 1 1 2 7 4 8 10 8 4 3
Nghost:        2038.12 ave        2059 max        2015 min
Histogram: 2 1 2 7 5 12 10 6 2 1
Neighs:        13179.3 ave       14967 max       11348 min
Histogram: 1 2 7 9 5 5 7 8 2 2

Total # of neighbors = 632605
Ave neighs/atom = 158.15125
Neighbor list builds = 143
Dangerous builds = 19

#############################
# L I N E A R  Q U E N C H  #
#############################

# Define solid atoms. This closely follows ten Wolde  Ruiz-Montero and Frenkel  Faraday Discuss  1996  104  93-110
# Compute components of the per-atom q6 vector
compute q6 all orientorder/atom degrees 1 6 components 6 nnn NULL cutoff 1.3 # compute the Q6 parameter.
                                                                             # Use all neighbours within 1.3 unit cell.

# get number of connections
compute coord_number all coord/atom orientorder q6 0.5

# An atom is solid if it has 8 or more connections (of a possible 14)
variable is_solid atom c_coord_number>=8
group solid dynamic all var is_solid    # Must be dynamic to update
dynamic group solid defined

# do clustering
compute cluster solid cluster/atom 1.3 # Create a cluster where all atoms within are solid and max 1.3 units from another member

# define chunks one chunk per cluster
compute clus_chunks solid chunk/atom c_cluster nchunk every compress yes  # Says which atoms are in which chunk

# count the size of each chunk
compute size_chunks solid property/chunk clus_chunks count


# Find the maximum entry in the vector of chunk sizes
variable max_n equal max(c_size_chunks)


# Thermo style which includes this variable
# thermo_style custom step temp pe vol v_max_n

thermo ${N}  # Print the thermo information every 100 steps
thermo 1000  

# Reset the npt fix at a lower temperature (below freezing)
fix 1  all npt temp  ${temp} ${temp}  0.1  iso  5.68  5.68  0.5  mtk yes tchain  5  pchain  5
fix 1  all npt temp  0.45 ${temp}  0.1  iso  5.68  5.68  0.5  mtk yes tchain  5  pchain  5
fix 1  all npt temp  0.45 0.45  0.1  iso  5.68  5.68  0.5  mtk yes tchain  5  pchain  5

dump dmp2 all dcd ${N} traj.dcd
dump dmp2 all dcd 1000 traj.dcd


compute msd all msd com yes
variable twopoint equal c_msd[4]/6/(step*dt+1.0e-6)
fix 9 all vector 10 c_msd[4]
variable fit equal slope(f_9)/6/(10*dt)
thermo_style custom step temp pe c_msd[4] v_twopoint v_fit v_max_n

fix 1 all npt temp 1.25 ${temp} 0.1 iso 5.68 5.68 0.5 mtk yes tchain 5 pchain 5
fix 1 all npt temp 1.25 0.45 0.1 iso 5.68 5.68 0.5 mtk yes tchain 5 pchain 5
run 2000000 # 5000000  # Run for this many steps
Neighbor list info ...
  update every 1 steps, delay 10 steps, check yes
  max neighbors/atom: 2000, page size: 100000
  master list distance cutoff = 3.8
  ghost atom cutoff = 3.8
  binsize = 1.9, bins = 8 8 8
  4 neighbor lists, perpetual/occasional/extra = 1 3 0
  (1) pair lj/cut, perpetual
      attributes: half, newton on
      pair build: half/bin/atomonly/newton
      stencil: half/bin/3d
      bin: standard
  (2) compute orientorder/atom, occasional
      attributes: full, newton on
      pair build: full/bin/atomonly
      stencil: full/bin/3d
      bin: standard
  (3) compute coord/atom, occasional
      attributes: full, newton on
      pair build: full/bin/atomonly
      stencil: full/bin/3d
      bin: standard
  (4) compute cluster/atom, occasional
      attributes: full, newton on
      pair build: full/bin/atomonly
      stencil: full/bin/3d
      bin: standard
Per MPI rank memory allocation (min/avg/max) = 9.835 | 9.842 | 9.847 Mbytes
Step Temp PotEng c_msd[4] v_twopoint v_fit v_max_n 
   12000     1.210765   -7.0779352 7.6657558e-31 5.3234413e-33 8.3333333e+20            2 
   13000    1.2200839   -7.0828452   0.45090007  0.002890385  0.037127387            2 
   14000    1.2494637   -7.1450915   0.85698343 0.0051010917  0.034565439            1 
   15000    1.2517809     -7.14214    1.2871145  0.007150636  0.035008474            3 
   16000    1.2606242   -7.1201538    1.7432367 0.0090793575   0.03586485            1 
   17000    1.2526555   -7.1119029    2.1389137  0.010484871  0.035456862            7 
   18000    1.2798934   -7.1397506    2.5779715  0.011935053   0.03549901            2 
   19000    1.2578045   -7.1035481    2.9332708  0.012865222  0.035044743            4 
   20000    1.2248523   -7.1247353    3.3252738  0.013855307   0.03474072            2 
   21000    1.2325009   -7.1272198    3.7134005  0.014735716  0.034303474            2 
   22000     1.254057   -7.0907214    4.1481127  0.015712548  0.034173167            1 
   23000    1.2469155   -7.1163633    4.5654471  0.016541475  0.034158084            2 
   24000    1.2072861   -7.1429007    4.9258278  0.017103568  0.034102274            1 
   25000    1.2273414   -7.1519582    5.2204732  0.017401577  0.033815333            2 
   26000     1.253548   -7.1224943    5.6315743  0.018049917  0.033480044            2 
   27000    1.2517836   -7.1391749    6.0179875  0.018574035  0.033295067            3 
   28000    1.2521443    -7.159315    6.3901137  0.019018195  0.033167357            3 
   29000    1.2189777   -7.1033723    6.8647531  0.019726302  0.033091975            1 
   30000    1.2317587   -7.1601178    7.4017963  0.020560545  0.033204801            3 
   31000    1.2430593    -7.099456    7.7666202  0.020878011  0.033327463            5 
   32000    1.2627748   -7.1196292    8.2270189  0.021424528  0.033425063            2 
   33000    1.2483496   -7.1492076    8.6542724  0.021854223  0.033583565            2 
   34000    1.2473848   -7.1581015    9.0753172  0.022243424  0.033691177            1 
   35000    1.2306054   -7.1442605    9.3972173  0.022374327  0.033772547            1 
   36000    1.2328404   -7.1460167    9.7385892   0.02254303  0.033763211            6 
   37000    1.2397863   -7.1692563    9.9628249  0.022438794  0.033628695            2 
   38000    1.2383073   -7.1065958    10.259459  0.022498814  0.033425999            3 
   39000    1.2148472   -7.1391532    10.644788  0.022745273  0.033234448            3 
   40000    1.2666476   -7.1802762    11.096394  0.023117488  0.033106036            3 
   41000    1.2438571    -7.143811    11.507878  0.023389996  0.033004624            1 
   42000    1.1998864   -7.1574502    11.859593  0.023530939  0.032918203            1 
   43000    1.2482351   -7.1565994    12.234824  0.023710898  0.032836326            2 
   44000    1.2366014   -7.1313252    12.639429  0.023938313  0.032765714            1 
   45000    1.2281869   -7.2090408    12.897281  0.023883853  0.032682661            1 
   46000    1.2419892   -7.2261705    13.181779  0.023880035  0.032583745            3 
   47000    1.2337355   -7.2314712    13.466199  0.023876239  0.032455075            2 
   48000    1.2315348   -7.1274285    13.910432  0.024150056  0.032320998            3 
   49000    1.2309999   -7.1663136    14.326456  0.024364721  0.032223974            2 
   50000    1.2478371    -7.152873    14.633934   0.02438989  0.032151458            2 
   51000     1.217117   -7.1461516    15.058203  0.024604907  0.032087877            3 
   52000    1.2304287   -7.1358597    15.573652  0.024957776   0.03204391            1 
   53000    1.2476155   -7.1358798     16.07499  0.025275141  0.032027554            1 
   54000    1.2055344   -7.1570844    16.333095  0.025205393   0.03202975            1 
   55000    1.2432479   -7.1405954      16.6969  0.025298333  0.032001342            2 
   56000    1.2421698   -7.1241342    17.079991  0.025416654  0.031965957            1 
   57000    1.2404234   -7.1334796    17.608946  0.025744073  0.031957803            2 
   58000    1.2352157   -7.1511099    17.992867   0.02585182  0.031983703            1 
   59000    1.2451562   -7.1985315    18.352678  0.025921861  0.031991549            3 
   60000    1.2480835    -7.124913     18.93937  0.026304681  0.032026188            1 
   61000    1.2266549   -7.1709369    19.376148  0.026470147  0.032069232            4 
   62000    1.2198737   -7.1707577    19.831689  0.026655495  0.032113592            6 
   63000    1.2073731   -7.1745743    20.298315  0.026849623  0.032168332            1 
   64000    1.2329148    -7.158232    20.843839  0.027140416  0.032243307            1 
   65000    1.2211179   -7.1937736    21.097027  0.027047471  0.032321312            1 
   66000     1.219179   -7.1854601    21.439839  0.027070503  0.032374187            2 
   67000    1.2449934   -7.1737889    21.789755  0.027101685  0.032401131            2 
   68000    1.2562367   -7.1889841    22.157012  0.027153201  0.032421982            1 
   69000    1.2494824   -7.2048298    22.587684  0.027279811  0.032454384            1 
   70000    1.2110065   -7.1331462     22.92493  0.027291583  0.032474705            2 
   71000    1.1903122   -7.2001366    23.256281  0.027296105  0.032500448            7 
   72000    1.2229774   -7.1697052    23.628901  0.027348265  0.032519662            2 
   73000    1.2283947   -7.1999737    23.956739  0.027347875  0.032526686            4 
   74000    1.1905629   -7.1465734    24.428786  0.027509894  0.032524341            3 
   75000    1.1856926   -7.1761496    24.670132  0.027411257  0.032519283            1 
   76000     1.214641   -7.1949805    25.057686  0.027475533  0.032504039            2 
   77000    1.2062432   -7.1659939    25.514642  0.027613249  0.032497699            3 
   78000    1.2139726   -7.1868434    25.839529  0.027606334  0.032490622            2 
   79000    1.2119767   -7.1701011    26.268468  0.027709354  0.032479397            1 
   80000    1.2316077   -7.1726617     26.62677  0.027736219  0.032469821            3 
   81000    1.2093549   -7.1701319    26.857872  0.027631555  0.032459819            2 
   82000    1.2371808   -7.1859287    27.208339  0.027650751  0.032431663            1 
   83000    1.2517147   -7.2012207    27.437219  0.027547409   0.03239695            1 
   84000    1.2193617    -7.187452    27.588095  0.027369141  0.032353721            4 
   85000    1.2247845   -7.2156321    27.877048  0.027330439  0.032299431            2 
   86000    1.2238043     -7.21835    28.391523  0.027511165  0.032241817            3 
   87000    1.2063749   -7.2007137     28.55071  0.027347423  0.032188103            2 
   88000    1.2277418   -7.2042546    28.953683   0.02741826  0.032132162            4 
   89000    1.2364365   -7.1777849    29.138283  0.027283037  0.032074467            1 
   90000     1.216861   -7.1853173    29.448239  0.027266888  0.032013023            1 
   91000    1.2324154   -7.1986167    29.928104  0.027406689  0.031951109            1 
   92000      1.20079   -7.2249016    29.948906  0.027127632  0.031883703            2 
   93000    1.2178822   -7.2376306    30.233471  0.027090924     0.031808            6 
   94000    1.2256141   -7.1945833    30.651776   0.02717356  0.031730739            1 
   95000    1.2169026   -7.2127998    30.986165  0.027180846  0.031655711            1 
   96000    1.2308956    -7.190224    31.227208  0.027106951  0.031579704            2 
   97000    1.2329149   -7.1839239     31.60009  0.027147843  0.031507704            2 
   98000    1.2410518    -7.169158     31.93739  0.027157645  0.031441255            2 
   99000    1.2024442    -7.184019    32.283234  0.027174439  0.031370806            1 
  100000    1.2100111   -7.2465997    32.611662  0.027176385  0.031303908            2 
  101000    1.2071263   -7.1883896    33.013568  0.027238917    0.0312408            2 
  102000    1.2001009   -7.2023315    33.267537   0.02717936  0.031176838            2 
  103000    1.2320391   -7.2144462    33.554876  0.027147958  0.031115874            5 
  104000    1.2118426   -7.1995383     33.98218  0.027229311  0.031060687            2 
  105000     1.206137   -7.2224349    34.330325   0.02724629  0.031006604            3 
  106000    1.2117943   -7.2149308    34.630827  0.027225492   0.03095241            2 
  107000    1.2264399   -7.1690873    35.125249  0.027356113  0.030903993            1 
  108000    1.2117045    -7.189434     35.63123  0.027493233  0.030863177            2 
  109000    1.1837751   -7.1888168    35.931447  0.027470525   0.03082937            4 
  110000    1.2310495   -7.1910369    36.453191  0.027616053  0.030794839            1 
  111000    1.2403783   -7.2026416    36.741533  0.027583734  0.030766291            2 
  112000    1.2039664   -7.2350938    37.036361  0.027556816   0.03073574            2 
  113000    1.2139856   -7.2548231    37.412316  0.027590204  0.030707823            5 
  114000    1.1968357   -7.2008538     37.73795   0.02758622   0.03068035            6 
  115000    1.2148774   -7.1733346    37.944571  0.027496066  0.030644136            2 
  116000    1.2025827   -7.2093276    38.065676  0.027346032  0.030606411            3 
  117000    1.1834654   -7.2152076    38.533861  0.027445769  0.030563723            2 
  118000    1.2051336   -7.1980717    38.951241  0.027507938  0.030521376            2 
  119000    1.2331744   -7.2884213     39.14917  0.027415385  0.030483879            2 
  120000    1.2042498   -7.2511153    39.612914  0.027508968  0.030449908            1 
  121000     1.236186   -7.2634466    39.931172  0.027500807  0.030419671            1 
  122000     1.223563   -7.2517081    40.187835  0.027450707   0.03039136            5 
  123000    1.1986105   -7.2273676    40.779943  0.027628687  0.030366971            3 
  124000    1.1893377    -7.226744     41.28641  0.027746243  0.030345193            1 
  125000    1.2055706   -7.2649595    41.387876  0.027591917  0.030320382            3 
  126000    1.2043658   -7.1974987    41.976173  0.027762019  0.030301136            2 
  127000     1.200679   -7.2379475    42.226896  0.027707937  0.030283795            2 
  128000    1.2050714   -7.2743283     42.60256  0.027736041  0.030266602            3 
  129000    1.2120461   -7.2520171    43.180022  0.027894071  0.030255248            3 
  130000    1.2305139   -7.1921238     43.66584  0.027990923  0.030251065            1 
  131000    1.1998882   -7.2468713    43.683797  0.027788675  0.030239418            1 
  132000    1.2127682    -7.209826    44.247752  0.027934187  0.030226988            2 
  133000    1.1903736   -7.2193796    44.385875  0.027810699  0.030211192            2 
  134000    1.1954994   -7.2419374    44.501243  0.027674902  0.030193289            2 
  135000    1.1893932    -7.237862    45.082164  0.027828496  0.030173677            3 
  136000    1.1909423   -7.2428431    45.398821  0.027817905  0.030156382            3 
  137000    1.2128995   -7.2319957    45.596147  0.027734882  0.030139709            1 
  138000    1.1994623   -7.2365181    45.719479  0.027608381  0.030120208            2 
  139000    1.2041039   -7.2013837    46.076411  0.027623748   0.03009195            2 
  140000    1.2168289   -7.2848487     46.04881  0.027410006  0.030060522            1 
  141000    1.2010181   -7.2415445    46.507639  0.027486784  0.030025713            3 
  142000    1.1626969   -7.2655177    46.648014  0.027375595   0.02999427            1 
  143000    1.2101662   -7.2186974    47.110089  0.027453432  0.029963251            1 
  144000    1.1805751   -7.2439345    47.377271  0.027417402  0.029928993            1 
  145000    1.2173758   -7.2859623    47.663512  0.027392823  0.029892489            4 
  146000     1.202736    -7.259046    47.970072  0.027380178   0.02985949            3 
  147000    1.2034914   -7.2615706    48.216503  0.027333618  0.029826248            1 
  148000    1.1913274   -7.2210891      48.5531  0.027338457  0.029792017            4 
  149000    1.1844004   -7.2253934    49.009913  0.027410466  0.029758924            2 
  150000    1.2029879   -7.2619725    49.089443  0.027271913  0.029726079            3 
  151000    1.2078807   -7.2537223    49.322289  0.027219806  0.029688944            2 
  152000    1.1938373   -7.2840962    49.625096  0.027206741  0.029650022            2 
  153000    1.1992325   -7.2574126    50.265454  0.027377698  0.029615756            4 
  154000     1.196289   -7.2678196    50.665721  0.027416515   0.02958513            1 
  155000     1.170152   -7.2660984    51.003878   0.02742144  0.029557313            2 
  156000    1.1872679    -7.242173    51.280982  0.027393687  0.029528601            3 
  157000    1.2253725   -7.2532777     51.58151  0.027378721  0.029500487            1 
  158000     1.203876   -7.2057122    52.010044  0.027431457  0.029474311            2 
  159000    1.1933629   -7.2518551    52.037959  0.027273563  0.029448177            3 
  160000    1.2054527   -7.2517351     52.61028  0.027401187  0.029421605            7 
  161000    1.1801163   -7.3018134    52.902013  0.027381994   0.02939415            2 
  162000     1.188166   -7.2121141    53.271633  0.027403103  0.029367938            2 
  163000    1.2082893   -7.2780845    53.376916  0.027288812  0.029340405            1 
  164000    1.1788099   -7.2181417     53.89457  0.027385452  0.029313232            1 
  165000    1.1941597   -7.3012832     54.12783  0.027337288  0.029287723            2 
  166000    1.1827082   -7.2459436    54.812731  0.027516431   0.02926637            2 
  167000    1.1845517    -7.279518    54.734047  0.027312399  0.029244748            3 
  168000    1.1804401   -7.2835614    55.238941  0.027400268  0.029222514            1 
  169000    1.2040372   -7.2979206    55.810734  0.027520086  0.029202972            5 
  170000    1.1983001   -7.3188817    55.757135  0.027331929  0.029182494            1 
  171000    1.1759849   -7.2697016    56.174148  0.027375316  0.029159804            1 
  172000    1.1536177   -7.2716445    56.677216  0.027459891  0.029140968            1 
  173000    1.1834261   -7.3022673    56.792409  0.027356652    0.0291202            5 
  174000    1.2143764   -7.2560417    57.294704  0.027439992  0.029101687            1 
  175000    1.1831142   -7.2736821    57.739789  0.027495138  0.029083624            2 
  176000    1.1920649   -7.2832024    58.135303  0.027526185  0.029068684            3 
  177000    1.1856198   -7.3418906     58.12746  0.027366977  0.029052732            2 
  178000    1.1599407   -7.3030102    58.595157   0.02743219  0.029035506            2 
  179000    1.1759912   -7.2744343    58.961679  0.027449571   0.02902014            2 
  180000    1.1900394   -7.2910009    59.282366   0.02744554  0.029005076            1 
  181000    1.1778183   -7.3134911    59.656394  0.027466111  0.028989412            1 
  182000    1.2097361   -7.2409947    60.226695  0.027576325  0.028974657            1 
  183000    1.1960768   -7.3008203    60.336984  0.027475858  0.028961575            5 
  184000      1.19175   -7.2801759     60.77911  0.027526771  0.028950386            6 
  185000     1.206638    -7.292064    61.353346  0.027636642  0.028941253            5 
  186000    1.1921276   -7.2975231    61.613651  0.027604682  0.028933783            3 
  187000    1.2062323   -7.2863871    62.152704  0.027697283   0.02892563            2 
  188000    1.1706963   -7.2890059    62.459329  0.027685873  0.028916696            2 
  189000    1.1580282   -7.3464333    62.499027   0.02755689  0.028909362            2 
  190000    1.1677618   -7.3264192    62.880315  0.027579085  0.028900951            2 
  191000    1.1913244   -7.2636041    63.488908  0.027700222  0.028893026            2 
  192000    1.1902284   -7.2997153    63.683438  0.027640381   0.02888675            1 
  193000    1.1643032   -7.2795232    64.192279  0.027716873  0.028882132            2 
  194000    1.1617183    -7.312047     64.55176  0.027728419  0.028878178            2 
  195000    1.1615462   -7.3356145     64.62674  0.027618265  0.028872764            1 
  196000    1.1581551   -7.2872211    65.446985  0.027826099  0.028870385            1 
  197000    1.1900869   -7.2947605    65.865229  0.027861772  0.028868931            1 
  198000    1.1840155    -7.326547    65.990971  0.027773978  0.028867116            1 
  199000    1.1855746   -7.3232391     66.25208  0.027743752  0.028865325            1 
  200000    1.1666752   -7.3109493    66.368708  0.027653628  0.028859668            2 
  201000    1.1943434   -7.2991684    66.827808  0.027706388  0.028854231            3 
  202000    1.1992302   -7.2751647     67.10882  0.027685157  0.028847867            2 
  203000    1.1709379   -7.2967873    67.398935  0.027667871  0.028840302            2 
  204000    1.1507562   -7.2935534    67.951626  0.027758017  0.028834539            3 
  205000    1.1877692    -7.309777    68.069367  0.027670474  0.028827187            3 
  206000    1.1947926   -7.3213061    68.222783  0.027598213  0.028818324            1 
  207000     1.161275   -7.3671112    68.685884  0.027651322   0.02881147            3 
  208000    1.1749817   -7.2984718    69.185625    0.0277186  0.028803688            4 
  209000    1.1661467   -7.3587626    69.210881  0.027596045  0.028796108            4 
  210000    1.1465412   -7.3581842    69.586124  0.027613541  0.028787968            3 
  211000    1.1591425   -7.3280576    69.887395  0.027601657  0.028781895            3 
  212000    1.1675644   -7.3536963    70.147329  0.027573635    0.0287752            1 
  213000    1.1879234   -7.3117336    70.188405  0.027460252  0.028764633            1 
  214000    1.1701672   -7.3442732    70.430916  0.027426369  0.028752396            1 
  215000    1.1675789   -7.3091513     71.19292  0.027594155   0.02874172            5 
  216000    1.1400352   -7.3383132    71.354165  0.027528613  0.028732915            4 
  217000    1.1906331   -7.3123031    71.516437   0.02746407  0.028720295            1 
  218000    1.1706308   -7.3069299    71.688028   0.02740368   0.02870601            1 
  219000    1.1479863   -7.3369965    72.237627  0.027487682  0.028692278            2 
  220000    1.1601385   -7.3059747    72.249244  0.027367138  0.028678261            2 
  221000    1.1687152   -7.3496734    72.614269  0.027380946  0.028664653            1 
  222000    1.1672161   -7.3366859    72.974315  0.027392761  0.028651254            2 
  223000     1.162093   -7.3185723    73.241434  0.027369744  0.028637235            3 
  224000    1.1679665   -7.3625772     73.58603  0.027375755  0.028623839            1 
  225000    1.1823367   -7.3218439    74.199015  0.027481117   0.02861093            2 
  226000    1.1598587   -7.3712177    74.097279  0.027322005  0.028598342            2 
  227000    1.1560234    -7.295384    74.873265  0.027486514  0.028586951            2 
  228000    1.1554321   -7.3347745    74.852265  0.027358284  0.028575307            2 
  229000     1.187338   -7.3473155    75.173234  0.027355616  0.028563122            2 
  230000    1.1778066   -7.2968771    75.453806  0.027338335  0.028550331            2 
  231000    1.1621137   -7.3552978    75.388706  0.027196503   0.02853362            5 
  232000    1.2050754   -7.3165343    76.022253  0.027306844  0.028518008            3 
  233000    1.1607821   -7.3755883    76.041798  0.027196637  0.028505247            2 
  234000    1.1532832   -7.3518413    76.769539  0.027339579   0.02849274            4 
  235000    1.1646877   -7.3319524    77.237367  0.027389137  0.028481491            1 
  236000    1.1472425   -7.3417294     77.51004  0.027369365  0.028470416            2 
  237000    1.1568286   -7.3128618    78.243518  0.027511785  0.028460411            2 
  238000    1.1511289   -7.3515001    78.136309  0.027358652   0.02845136            3 
  239000    1.1976904   -7.3689192    78.357613  0.027321343    0.0284395            3 
  240000    1.1556669    -7.334331    78.468328  0.027245947  0.028426349            3 
  241000     1.158566   -7.3543892    78.639906  0.027192222  0.028413477            1 
  242000    1.1593636   -7.3574002    79.272649  0.027297744  0.028399496            2 
  243000    1.1087246   -7.3340525    79.354964  0.027213637  0.028385735            1 
  244000    1.1422646   -7.3651344    79.456633  0.027136828  0.028370252            2 
  245000    1.1494676   -7.3210488    80.208899  0.027281938  0.028354135            5 
  246000    1.1394056   -7.3695505    80.047038  0.027116205   0.02833865            2 
  247000    1.1413916   -7.4067726    79.993437  0.026988339  0.028321303            2 
  248000      1.15762    -7.354039    80.668678  0.027106411  0.028304599            5 
  249000    1.1699669   -7.3430791    80.887938   0.02707093  0.028288104            3 
  250000     1.135661   -7.4051147    81.178319   0.02705944  0.028270629            1 
  251000    1.1395355    -7.370725    81.114971  0.026930601  0.028251951            1 
  252000    1.1272694   -7.3458046     81.58909  0.026980519  0.028234346            4 
  253000    1.1495654   -7.3905458    81.999645  0.027009106  0.028217618            3 
  254000    1.1569553   -7.3920418    82.193168  0.026966262  0.028200737            3 
  255000    1.1303634   -7.3360814     82.60058  0.026993653  0.028184774            3 
  256000    1.1666062   -7.4117977    82.805541  0.026954929  0.028168453            3 
  257000    1.1504176   -7.3728615    83.122166  0.026952713  0.028151749            2 
  258000    1.1281267   -7.3431367    83.700789  0.027035138  0.028135679            6 
  259000    1.1572583   -7.4006399    83.761878  0.026950411   0.02812012            3 
  260000     1.154123   -7.3666363      84.1704  0.026977692  0.028104783            2 
  261000     1.159013   -7.3555347    84.352099  0.026932343  0.028089373            2 
  262000    1.1368538   -7.3924408    84.831846  0.026982139  0.028074593            1 
  263000     1.138831   -7.3500155    85.461236  0.027078972  0.028061153            2 
  264000    1.1451183   -7.4072746    85.510573  0.026991974  0.028047918            2 
  265000    1.1360676   -7.3211119    86.578635  0.027225986  0.028035992            2 
  266000    1.1645257   -7.4076092    86.173822  0.026996811  0.028023375            1 
  267000    1.1757046   -7.3629466    86.263844  0.026923796  0.028008714            2 
  268000    1.1582257   -7.3960808    86.486072  0.026892435  0.027994101            1 
  269000    1.1244413   -7.3413683    86.999104  0.026951395  0.027979715            4 
  270000    1.1538358   -7.3354071    87.440659  0.026987858  0.027965241            1 
  271000    1.1581256   -7.3961898    87.429415  0.026884814   0.02794963            3 
  272000    1.1366187   -7.3932651    87.620262  0.026844443  0.027933288            3 
  273000    1.1456753   -7.3332803    88.124731  0.026900101  0.027917083            1 
  274000    1.1377413   -7.3755522    87.923109  0.026740605  0.027899944            1 
  275000    1.1571518   -7.4114283    88.392266  0.026785535  0.027882723            4 
  276000    1.1434462   -7.3878507    88.543643  0.026734192  0.027866454            4 
  277000    1.1343273    -7.366027    89.189047  0.026831843  0.027849998            2 
  278000    1.1259155   -7.3773505    89.424844  0.026806008   0.02783422            4 
  279000    1.1134172   -7.3840342    89.982722   0.02687656  0.027819324            2 
  280000    1.1456647   -7.4171393    90.067097  0.026805683   0.02780462            2 
  281000    1.1401412   -7.4102976    90.181187  0.026744124  0.027790281            1 
  282000    1.1423251    -7.355351    90.668924  0.026793417  0.027775466            2 
  283000    1.1562944   -7.3946493    90.799759  0.026737267  0.027760768            3 
  284000     1.142105   -7.3609691    91.591218  0.026875357  0.027746523            5 
  285000    1.1502615   -7.4346628    91.781639  0.026836736  0.027733498            6 
  286000     1.148556   -7.3996519    91.678409  0.026712823  0.027720625            1 
  287000    1.1322967   -7.4323738    92.071242   0.02673381  0.027707254            2 
  288000    1.1584183   -7.4038201    92.355217  0.026723153  0.027692426            1 
  289000    1.1451536   -7.4103396    92.556141  0.026688622   0.02767686            2 
  290000     1.145423   -7.3634126    92.904365  0.026696657   0.02766172            3 
  291000    1.1483456   -7.3445126    92.934853  0.026613646  0.027646012            4 
  292000    1.1670247   -7.3547954    93.021501  0.026547232  0.027629925            4 
  293000      1.14005   -7.4221033    93.561142  0.026610109  0.027613939            2 
  294000    1.1514358   -7.3928422    93.829134  0.026595559  0.027597656            4 
  295000    1.1239098   -7.4234007    93.764891  0.026487257  0.027580419            2 
  296000    1.1655358   -7.4147444    94.136865  0.026502496  0.027563435            2 
  297000    1.1469742   -7.4575198    94.179505  0.026425226  0.027545081            3 
  298000    1.1296607    -7.425432    94.683902  0.026477601  0.027527459            2 
  299000    1.1183203   -7.4071953    95.018906  0.026482415   0.02751001            2 
  300000     1.140123   -7.4202484    94.796278  0.026332299   0.02749306            1 
  301000    1.1316975   -7.3906216    95.585017  0.026463183  0.027475582            6 
  302000    1.1392521   -7.4291936    95.639606   0.02639062  0.027456691            1 
  303000    1.1444809   -7.4018733    96.403173  0.026513524  0.027439704            1 
  304000    1.1287259   -7.4496595     96.55516  0.026467971  0.027424427            4 
  305000     1.133735   -7.4299466    96.959558  0.026491683   0.02740953            3 
  306000    1.1181117   -7.4250508    97.378268  0.026519136  0.027395573            2 
  307000    1.1537234    -7.375485    97.879455  0.026568799  0.027381507            6 
  308000    1.1600822   -7.4296198    98.127973  0.026549776  0.027367737            2 
  309000    1.1488805    -7.398629    98.612201  0.026594445  0.027353995            2 
  310000    1.1298208   -7.4302647    98.498681   0.02647814  0.027339945            1 
  311000    1.1319701   -7.4146096     99.05266  0.026541441  0.027325788            3 
  312000    1.1438383   -7.3709072    99.672495  0.026621927  0.027312046            2 
  313000    1.1144869   -7.4122348    99.590072  0.026514929  0.027297573            3 
  314000    1.1253911    -7.452183    99.433066  0.026388818  0.027283115            3 
  315000     1.143618   -7.4465613    99.983803  0.026450741  0.027268759            3 
  316000    1.1275151   -7.4094009    100.02845   0.02637881  0.027254493            1 
  317000    1.1171068   -7.4528722    100.17542  0.026334233  0.027240047            1 
  318000    1.1394274   -7.4476343    100.34589  0.026296093  0.027225079            1 
  319000    1.1121323   -7.4128239    100.84745  0.026344683  0.027209664            2 
  320000    1.1382977   -7.4188543    100.76128  0.026239917  0.027193583            2 
  321000    1.1398104   -7.4294414    101.26619  0.026289248    0.0271774            2 
  322000     1.134704   -7.4700093    101.11648  0.026168862  0.027161283            4 
  323000    1.1338625   -7.4360146    101.60829  0.026214728  0.027144896            3 
  324000    1.1353615   -7.4263278    102.03806  0.026244356  0.027127761            5 
  325000    1.1398678   -7.4360943    101.81154  0.026105524  0.027110922            2 
  326000    1.1308364   -7.4285389    102.07293  0.026092263  0.027093209            2 
  327000    1.1215601   -7.4602863    102.15433  0.026033213  0.027074717            2 
  328000    1.1441416   -7.4531057    102.57195  0.026059948  0.027056332            3 
  329000    1.1429718   -7.4222554    103.02315  0.026095023  0.027038648            3 
  330000    1.1275331   -7.4404183    103.18155  0.026055948   0.02702175            1 
  331000    1.1309908   -7.4238106    103.72706  0.026114568  0.027004868            2 
  332000    1.1299494   -7.4847662    103.91362  0.026082737  0.026987723            1 
  333000     1.123433   -7.3809414    104.67172  0.026194124  0.026971011            3 
  334000    1.1208621     -7.44452    104.20572  0.025999431  0.026954464            2 
  335000    1.1244295   -7.4296138    104.69119  0.026042584   0.02693783            2 
  336000    1.1321318   -7.4255236    104.84256  0.026002618  0.026921013            2 
  337000    1.1356351   -7.4525517    105.44019  0.026073241  0.026903979            5 
  338000     1.142439   -7.4540504      105.323  0.025967209  0.026886022            2 
  339000    1.0917324   -7.4601908    105.39477  0.025908251  0.026867843            2 
  340000    1.1371836   -7.4116387    106.52072  0.026108019  0.026851074            2 
  341000    1.1308962     -7.43641    106.69726  0.026074599  0.026834773            1 
  342000    1.1237232   -7.4023106    106.82815  0.026030251  0.026818794            6 
  343000    1.1066991   -7.4711108     107.0336  0.026004276   0.02680248            4 
  344000    1.1150898   -7.4441786    106.87261  0.025889683  0.026786232            2 
  345000    1.1185173   -7.4781251    106.81375  0.025800424  0.026769257            4 
  346000    1.1102226   -7.4334535    107.54083   0.02590097  0.026751945            2 
  347000    1.1001381   -7.4343363    107.47211  0.025809825  0.026733947            1 
  348000    1.1154206   -7.4686747    107.40078  0.025718577  0.026715437            1 
  349000    1.1109807   -7.4529229    107.98983  0.025785538  0.026696762            2 
  350000    1.1056136   -7.4717084    108.11718  0.025742185  0.026679322            1 
  351000     1.090445   -7.4514748    108.66169  0.025798122  0.026661683            1 
  352000    1.1155658   -7.5000585    108.64324  0.025720463  0.026643666            2 
  353000    1.1112358   -7.4688749    108.87191  0.025701584  0.026625436            4 
  354000     1.090499   -7.4972017    108.97307  0.025652794   0.02660627            4 
  355000    1.1180529   -7.4424776    109.16036  0.025624497  0.026587887            2 
  356000    1.1162239   -7.4743247    109.40873  0.025610657  0.026569068            1 
  357000    1.1204754   -7.4494723    109.83882  0.025639313  0.026549414            3 
  358000    1.0967078   -7.4854512    109.37878   0.02546061  0.026529477            5 
  359000    1.1283375   -7.4699292    109.46952  0.025410751  0.026509138            2 
  360000    1.1101188   -7.4575055      110.452  0.025567594  0.026489303            2 
  361000    1.0920494   -7.5003137    110.71995  0.025558622   0.02647011            1 
  362000    1.1303836   -7.4356825     111.0318  0.025559806  0.026450764            2 
  363000    1.0803136   -7.4498805    111.21749  0.025532022  0.026432324            2 
  364000    1.1237404   -7.4574807    111.95463  0.025630639  0.026414522            2 
  365000    1.1263453   -7.4802155    111.61516  0.025482912  0.026395927            2 
  366000    1.0951724   -7.4817104    111.91317  0.025481141  0.026377174            3 
  367000    1.1235143    -7.464425    112.39208  0.025520454  0.026358316            1 
  368000    1.1051952   -7.4427673    112.67644  0.025515497  0.026340018            1 
  369000    1.1187755   -7.4867708     112.9837  0.025515742  0.026322494            5 
  370000    1.1261031   -7.4952243    113.22038  0.025500087  0.026304401            2 
  371000    1.1126078   -7.4806102    113.24693  0.025437315  0.026286346            3 
  372000    1.1107399    -7.500187    113.21931  0.025362748  0.026268562            1 
  373000    1.1046772   -7.4871534    113.87757  0.025441817  0.026250685            2 
  374000    1.0728417   -7.4900122    114.12652  0.025429261  0.026232975            5 
  375000    1.0991551   -7.5098269    114.15525  0.025367833  0.026214758            3 
  376000    1.1103639   -7.4886017    114.64467  0.025408836  0.026196836            4 
  377000    1.0878108   -7.5308095    114.54336  0.025319044  0.026179232            3 
  378000      1.07875     -7.49536    115.19532  0.025395793  0.026161539            1 
  379000    1.0945436   -7.5145439    115.05049  0.025296942  0.026143473            3 
  380000    1.1039892   -7.5293734    115.34883  0.025295797  0.026125764            3 
  381000    1.0936019   -7.5014726    115.34889  0.025229416  0.026107465            3 
  382000    1.1096179   -7.4716781    115.65718  0.025230623  0.026089007            2 
  383000    1.1220381   -7.5177158    115.73106  0.025180822  0.026069826            3 
  384000    1.1096084   -7.4856975    116.22403  0.025222228  0.026050975            1 
  385000    1.0854829   -7.4947835    116.17569  0.025146253  0.026031669            3 
  386000    1.1164405   -7.4884474    116.40984  0.025131658  0.026011761            3 
  387000    1.1062773   -7.4911473    117.17653   0.02523181  0.025993033            2 
  388000    1.1007983   -7.4844038    117.08059  0.025146175  0.025974832            2 
  389000    1.0827727   -7.5591466    116.96833  0.025057483  0.025955665            1 
  390000    1.1070625   -7.4989296    117.65428  0.025139804  0.025936716            2 
  391000    1.0852731   -7.5114746    117.94963  0.025138454   0.02591906            1 
  392000    1.1034762    -7.486697    118.57917  0.025208156  0.025901339            2 
  393000    1.1050628   -7.5351745    118.25235  0.025074714  0.025883315            4 
  394000    1.1061665   -7.5198593    118.39472  0.025041185  0.025864674            3 
  395000    1.0982037   -7.4682581    119.25808  0.025159932  0.025846443            1 
  396000    1.0847566   -7.5101328    119.05005   0.02505262  0.025828639            1 
  397000    1.0900147   -7.5177828    119.17137   0.02501498  0.025809779            3 
  398000    1.0847536   -7.5139372    118.95457  0.024906735  0.025790814            1 
  399000    1.1012043    -7.516084     119.5404  0.024966666  0.025772385            4 
  400000    1.1009659   -7.5130127    119.85608  0.024970017  0.025753827            2 
  401000    1.1123303   -7.5334872    119.66935  0.024868941  0.025735313            2 
  402000    1.0906717   -7.5419954    120.46314  0.024971629  0.025716634            2 
  403000    1.0902969   -7.5388118    120.69188  0.024956965  0.025698473            2 
  404000    1.1040371   -7.5894452    120.44424   0.02484411  0.025679968            5 
  405000    1.1102443    -7.542825    120.53899  0.024802262  0.025661194            3 
  406000    1.0827356   -7.5003428    121.65894  0.024971047  0.025642742            2 
  407000    1.0943319   -7.5574605    121.77348  0.024933146  0.025625705            5 
  408000    1.0864613   -7.5437367    122.10371  0.024939484  0.025608599            6 
  409000    1.0791396   -7.4935457    122.76005  0.025012235  0.025592218            2 
  410000    1.0751723   -7.5297928     122.6434   0.02492752  0.025575709            2 
  411000    1.0667044   -7.5505745    122.67903  0.024874093  0.025559108            2 
  412000    1.0902472    -7.531714    122.97859   0.02487431  0.025542538            2 
  413000    1.0696144   -7.5232405    123.83549  0.024986983  0.025526407            5 
  414000    1.1078473   -7.5108677    123.58545  0.024876297  0.025509784            2 
  415000    1.0969351   -7.5045355    123.25524  0.024750048  0.025492769            3 
  416000    1.0584694   -7.5174665    124.06458   0.02485268  0.025475523            2 
  417000    1.1040421   -7.5399543    124.12946  0.024806047  0.025457683            3 
  418000    1.0544795    -7.558436    124.12522  0.024745858  0.025439851            2 
  419000    1.0795094   -7.5727549    123.91037  0.024644067  0.025421734            3 
  420000    1.1099743   -7.5382273    124.50734  0.024703837  0.025403861            2 
  421000    1.1021683   -7.5251164    124.93983  0.024730765  0.025385983            1 
  422000    1.0876441   -7.5058348    125.09045  0.024701906  0.025367979            2 
  423000    1.0747555   -7.5647568     124.7505  0.024576537  0.025349314            5 
  424000    1.0959612    -7.500658    125.39982  0.024646192   0.02533061            3 
  425000    1.0626902    -7.568705    124.95213  0.024500417   0.02531131            4 
  426000    1.0784437    -7.543488    125.34217  0.024519203  0.025291741            1 
  427000    1.0826732   -7.5315922    125.49923  0.024492434   0.02527291            3 
  428000    1.0848502   -7.5581647    125.68673  0.024471715  0.025253643            2 
  429000    1.0751973   -7.5290229    125.87355  0.024450961  0.025234341            4 
  430000    1.0800911   -7.5336822    125.98209  0.024415133  0.025214993            1 
  431000     1.055273   -7.5087291    126.33421  0.024426568  0.025195545            2 
  432000    1.1041727   -7.5340639    126.85289  0.024470078  0.025175904            3 
  433000    1.0782323     -7.48874    127.35738  0.024510658  0.025156979            2 
  434000    1.0986982   -7.5719626    127.13337  0.024411169   0.02513809            2 
  435000    1.0987715   -7.5853686    126.77138  0.024285705  0.025118058            1 
  436000    1.0736674   -7.5872221    127.07563  0.024288156  0.025098061            3 
  437000    1.0701793   -7.5606349    127.08909  0.024235144  0.025078306            2 
  438000     1.078858    -7.545914    127.83172  0.024321103  0.025058374            2 
  439000    1.0906636    -7.550164    127.64862  0.024230946  0.025038458            1 
  440000     1.069362   -7.5422611    128.52027   0.02434096  0.025018781            3 
  441000    1.0815277   -7.5214862    127.88778  0.024166247  0.024999018            2 
  442000    1.0652345   -7.6004227    127.66019  0.024068664  0.024978707            1 
  443000    1.0798672   -7.5520021    128.12202  0.024101207  0.024958184            2 
  444000    1.0740253   -7.5573965    128.51219  0.024120156  0.024937082            2 
  445000    1.0819372   -7.5519391    128.85955  0.024131002  0.024916789            3 
  446000    1.0888034   -7.5524881    128.44709   0.02399983  0.024896105            3 
  447000     1.058608    -7.561566    128.93323  0.024036769  0.024874987            2 
  448000    1.0608273   -7.5462403     128.9317  0.023982831  0.024853981            3 
  449000    1.0732527   -7.5409681    129.13299  0.023966777  0.024832886            1 
  450000    1.0723815   -7.5730829    129.35191  0.023954057  0.024811536            1 
  451000    1.0692528   -7.5809064    129.68669  0.023962802  0.024790953            2 
  452000     1.057851   -7.6106008    129.57013  0.023888299  0.024769995            4 
  453000    1.0854964   -7.5712556    130.03204  0.023920536  0.024748666            1 
  454000     1.077611   -7.5571168    130.56196  0.023965117  0.024728129            2 
  455000    1.0946044   -7.5421742    130.37095  0.023877463  0.024707439            4 
  456000    1.0514585   -7.5584237    130.43194  0.023836247  0.024686864            2 
  457000    1.0486079   -7.5299868    131.22663  0.023928998   0.02466622            3 
  458000    1.0700865   -7.5900461    130.76271  0.023792342  0.024645142            5 
  459000    1.0719621   -7.5815287    131.46653  0.023868288  0.024624271            2 
  460000    1.0766368   -7.5587658    131.13965  0.023757184  0.024603847            3 
  461000    1.0626773    -7.617215    131.29233  0.023733249  0.024583316            2 
  462000    1.0554861    -7.561124    132.06252  0.023820802  0.024562491            2 
  463000    1.0568994   -7.5261858     132.4971  0.023847569  0.024542363            2 
  464000    1.0889697   -7.5086511    132.53296  0.023802615  0.024522317            3 
  465000    1.0813448   -7.5733245    132.44334  0.023735366  0.024502221            3 
  466000    1.0897229    -7.580765    132.55711  0.023704777  0.024481471            2 
  467000    1.0610151   -7.5533582    132.53592  0.023650235  0.024460495            2 
  468000    1.0821148   -7.5565377     132.7629  0.023640117  0.024439255            3 
  469000     1.058269   -7.6178191    132.95406  0.023623677  0.024417973            5 
  470000    1.0780353   -7.5900392    132.93231  0.023569559  0.024396932            5 
  471000    1.0387883   -7.6120459    132.98441  0.023528734  0.024376093            3 
  472000    1.0852406   -7.6494174    133.22868  0.023522013  0.024355171            3 
  473000     1.048961   -7.6025592     133.6826  0.023552256  0.024334738            2 
  474000    1.0722417   -7.6227274    133.71206  0.023507745  0.024314207            5 
  475000    1.0619625   -7.5555831    134.52795  0.023601395  0.024293478            3 
  476000    1.0649249    -7.639862    133.75768  0.023416961  0.024272366            2 
  477000    1.0605576   -7.6194816    133.86566  0.023386734  0.024250835            4 
  478000     1.078025   -7.6162018    134.43585  0.023437213  0.024229107            5 
  479000    1.0580059   -7.5872731    134.81208  0.023453738  0.024208049            1 
  480000    1.0726354   -7.6127523    135.09364  0.023453756  0.024187017            6 
  481000    1.0402416   -7.5876429     135.6392  0.023499515  0.024166564            4 
  482000    1.0841847   -7.6109203    135.35045  0.023400838  0.024145961            2 
  483000    1.0661127   -7.6107114    135.43596  0.023367143  0.024125314            6 
  484000    1.0641593   -7.5876061    135.78723  0.023379344  0.024104848            5 
  485000    1.0599859   -7.5683975    135.91746  0.023353515  0.024084532            1 
  486000    1.0571975   -7.5932733    136.07919  0.023333195  0.024064176            2 
  487000    1.0647184   -7.5973085     136.2581  0.023315897  0.024043341            2 
  488000     1.053583   -7.6115016    136.06523  0.023235182  0.024022343            6 
  489000    1.0424901   -7.5728932     136.5585  0.023271728  0.024001308            2 
  490000    1.0743722   -7.5982719    136.79641  0.023264696  0.023980965            3 
  491000    1.0536035   -7.6114536      137.126  0.023273251  0.023960284            4 
  492000    1.0397279   -7.6322444    137.50724  0.023290522  0.023939618            3 
  493000    1.0721513   -7.5981484     137.8093  0.023294337  0.023919446            2 
  494000     1.053799   -7.6405644    137.53781  0.023201385  0.023899702            5 
  495000    1.0487667   -7.5946177    137.96639  0.023226665  0.023879378            2 
  496000    1.0402553   -7.6131613    137.93567  0.023174676  0.023859057            3 
  497000     1.063026   -7.6229957    137.99885   0.02313864  0.023838651            3 
  498000    1.0195991   -7.6212562    138.10927  0.023110654  0.023817877            3 
  499000    1.0387222    -7.641925    137.85115  0.023021235  0.023797261            2 
  500000    1.0552471   -7.6774454    138.17773  0.023029622  0.023776333            3 
  501000    1.0671978   -7.6268195    138.07391  0.022966385  0.023754703            2 
  502000    1.0464691   -7.6059037    138.73021  0.023029583  0.023733516            8 
  503000    1.0766221   -7.6025058    138.97685   0.02302466   0.02371304            5 
  504000    1.0517378     -7.62202    138.64955  0.022924859  0.023692167            2 
  505000    1.0767837   -7.6267665    138.82445  0.022908326   0.02367133            3 
  506000    1.0331255    -7.615386    138.59095  0.022824597  0.023649873            3 
  507000    1.0635497    -7.616836    138.76086  0.022807505  0.023628034            3 
  508000    1.0331553    -7.651711    139.11032  0.022819934  0.023606478            3 
  509000    1.0531754   -7.6147037    139.46503  0.022833174  0.023585175            3 
  510000    1.0397685   -7.6080089    139.75715  0.022836136  0.023563846            4 
  511000    1.0549333   -7.6411196    139.81395   0.02280071  0.023542489            4 
  512000    1.0577694   -7.6092074    140.25586  0.022828102  0.023521279            2 
  513000    1.0382803   -7.6387797    140.33613  0.022796643   0.02350049            7 
  514000     1.054988   -7.6178545    140.81634  0.022830146  0.023479882            3 
  515000     1.032356   -7.6664294    140.38414  0.022715881  0.023459195            4 
  516000    1.0741979   -7.6105652    140.76778  0.022733815  0.023438263            2 
  517000    1.0566343   -7.6575368     140.6357  0.022668552  0.023417665            5 
  518000    1.0497785   -7.6250039     141.2436  0.022722587  0.023397178            4 
  519000    1.0414052   -7.6622103     141.5054  0.022720841  0.023376813            2 
  520000    1.0420706   -7.7002038    141.11007  0.022613792  0.023355957            5 
  521000    1.0508879   -7.6549857    141.55545  0.022641626  0.023335035            7 
  522000    1.0565395    -7.636629    141.95713  0.022662377  0.023314416            2 
  523000    1.0352425   -7.6644379    142.16447  0.022652083  0.023294025            5 
  524000    1.0388456   -7.6850054    142.37234  0.022641911  0.023273866            4 
  525000    1.0585456   -7.6135042    142.29504  0.022586514  0.023253262            1 
  526000    1.0551182   -7.6657164    142.46871  0.022571089  0.023232368            6 
  527000    1.0468568   -7.6492149    142.42923  0.022522016  0.023211555            2 
  528000    1.0532326   -7.6624492    143.01687  0.022572107  0.023191003            2 
  529000    1.0598187   -7.6781545    142.64488  0.022470838  0.023170415            3 
  530000    1.0509926   -7.6226292    143.29842  0.022531199  0.023149823            3 
  531000    1.0151055   -7.6270592    143.01246  0.022443889  0.023129075            4 
  532000    1.0341893   -7.6844728    142.97115   0.02239523  0.023107665            3 
  533000    1.0078134   -7.6381822    143.44787  0.022427747  0.023086404            4 
  534000    1.0526634   -7.6651038    143.53168  0.022398827  0.023065474            7 
  535000    1.0514664   -7.6898341    143.25727  0.022314216    0.0230445            6 
  536000    1.0391806   -7.6798831    143.87575  0.022368742  0.023023454            3 
  537000    1.0573287    -7.655029    143.84414  0.022322182  0.023002592            2 
  538000    1.0390549   -7.6533438    144.09726  0.022319897  0.022981963            4 
  539000    1.0311172   -7.6410734    144.23373  0.022299588  0.022961138            2 
  540000    1.0280905   -7.6929271    144.13743  0.022243431  0.022940282            8 
  541000    1.0675957   -7.6308098    144.86922  0.022315037  0.022919482            2 
  542000    1.0402164    -7.654233     144.5767  0.022228889  0.022898916            5 
  543000    1.0383505   -7.6983828    144.95546   0.02224608  0.022877895            2 
  544000    1.0187954   -7.6815782    145.02629  0.022216036  0.022857426            7 
  545000      1.03825   -7.7196947    145.16541  0.022196545  0.022836832            2 
  546000    1.0484991    -7.708302    145.40407  0.022192318  0.022816337            7 
  547000      1.04613   -7.6712801    145.80933  0.022213487  0.022795906            2 
  548000    1.0163726   -7.7336056    145.44418  0.022117424  0.022775555            1 
  549000     1.034522   -7.6866001    145.71357  0.022118028  0.022754988            4 
  550000    1.0191627   -7.6990089    145.65724  0.022069278  0.022734112           14 
  551000    1.0288518   -7.6908377    146.03194  0.022085895  0.022713442            4 
  552000    1.0574838   -7.7083929    145.99244  0.022039922  0.022692869            5 
  553000     1.024465   -7.6551414    146.66231  0.022101012  0.022672057            3 
  554000    1.0573262   -7.7181829    146.50712  0.022037774  0.022651513            5 
  555000    1.0206739   -7.6481957    147.50814  0.022148369  0.022631072            8 
  556000    1.0356261   -7.7158453    146.20692  0.021913507  0.022610755            3 
  557000    1.0181084   -7.7003493    147.42824  0.022056888  0.022590297            4 
  558000    1.0198566   -7.6703138     147.2396  0.021989188  0.022570016            3 
  559000     1.023242   -7.6923371    147.10625  0.021929971  0.022549711            9 
  560000    1.0310919   -7.7362944    146.91554  0.021862432  0.022529214            1 
  561000    1.0358687   -7.6670268    148.22054  0.022017312  0.022508968            2 
  562000    1.0248843   -7.6699743    147.91651  0.021933052  0.022488728            1 
  563000    1.0463034   -7.6851126    148.15094  0.021928795  0.022468125            2 
  564000    1.0287395   -7.6973619    147.67579  0.021819709  0.022447791            5 
  565000    1.0096112   -7.6805744    148.25454  0.021866452  0.022427245            3 
  566000    1.0306781   -7.7141065    148.26421  0.021829241  0.022407063            4 
  567000    1.0230429   -7.6947931    148.59186  0.021838898  0.022386989            2 
  568000    1.0057165   -7.7121119    148.42217  0.021775553  0.022366922            6 
  569000    1.0316627   -7.7341764    149.08461  0.021834301  0.022346886            3 
  570000    1.0328567    -7.677764    149.29897  0.021827334  0.022326917            2 
  571000    1.0289929   -7.6807697     149.7133  0.021849576  0.022307157            3 
  572000    1.0319652   -7.7026146    149.49936   0.02178021  0.022287308            4 
  573000    1.0434176   -7.7316425    149.29006   0.02171176  0.022267454            3 
  574000    1.0178946   -7.7107678    149.73604  0.021738682  0.022247489            3 
  575000    1.0229345   -7.6646787    150.45363  0.021804874  0.022228085            3 
  576000    1.0391037   -7.7252596    150.30307  0.021745235  0.022208835            5 
  577000    1.0031783   -7.7233427    150.42108  0.021724593  0.022189677            3 
  578000    1.0102062   -7.6473408    150.90063  0.021756146  0.022170797            3 
  579000    1.0234246   -7.7118666    151.29272  0.021775002  0.022151922            8 
  580000    1.0328164   -7.6967118    150.98384   0.02169308  0.022132905            4 
  581000    1.0357621   -7.6613485    151.63158   0.02174865  0.022114052            2 
  582000    1.0454249   -7.7069218    151.44729  0.021684893  0.022095308            1 
  583000   0.99379889   -7.7122866    151.31324  0.021628537  0.022076403            5 
  584000    1.0011872   -7.7124557    151.51639  0.021620489   0.02205731            2 
  585000    1.0141556   -7.7414637     151.3782  0.021563846  0.022038473            2 
  586000    1.0244382   -7.7742932    151.63187  0.021563122  0.022019564            5 
  587000    1.0248956    -7.736131    151.76662  0.021545517  0.022000695            3 
  588000    1.0280968   -7.7216612    152.69156   0.02163996  0.021982148            1 
  589000     1.042522   -7.6781794    152.80267   0.02161894  0.021964033            2 
  590000    1.0152818     -7.68601    152.80113   0.02158208   0.02194563            3 
  591000     1.004334   -7.6990142    153.28778  0.021614182  0.021927412            1 
  592000    1.0212701   -7.7451367    152.96341  0.021532011   0.02190888            2 
  593000    1.0262207   -7.7647697    153.15742  0.021522965   0.02189038            4 
  594000     1.039159   -7.6873994    153.88726  0.021589122  0.021872489            3 
  595000    1.0075511   -7.7073824     154.1841  0.021594412  0.021855179            3 
  596000    1.0198739   -7.6929766    154.44203  0.021594243  0.021837963            7 
  597000    1.0183295   -7.7181492     154.5677  0.021575614  0.021820662            3 
  598000     1.018671   -7.7060697    154.75251  0.021565289  0.021803347            3 
  599000    1.0024929   -7.7193587     154.7874   0.02153414  0.021786008            3 
  600000    1.0045765   -7.7451834    154.55448    0.0214659  0.021768328            4 
  601000    1.0100963   -7.7119448    154.61211  0.021438175  0.021750537            3 
  602000    1.0087876   -7.7702401    154.72086  0.021417616  0.021732934            3 
  603000    1.0122473   -7.7777262    154.99531  0.021420026  0.021715187            8 
  604000   0.98581335   -7.7105942    155.08721  0.021397242  0.021697764            4 
  605000   0.98953736   -7.7641447    155.15391  0.021371062   0.02168021            1 
  606000      1.01264   -7.7366813    155.69802  0.021410618  0.021662614            3 
  607000    1.0074107   -7.7642301    155.91673  0.021405371  0.021645006            4 
  608000    1.0227911   -7.7349149    155.73738  0.021345584   0.02162758            1 
  609000   0.99612958   -7.7257071    155.96284  0.021341385   0.02160995            3 
  610000    1.0136116   -7.7560624    155.92963  0.021301862  0.021592448            4 
  611000    1.0135659   -7.7558509    155.95541  0.021270515  0.021574867            3 
  612000   0.99690775   -7.7574006    156.40833  0.021297431   0.02155701            3 
  613000     1.030101    -7.754412    156.29257   0.02124695   0.02153915            1 
  614000   0.99416526    -7.715017    156.70249  0.021267982  0.021521618            2 
  615000    1.0002682    -7.715446    157.21857  0.021303329    0.0215042            3 
  616000      1.00682   -7.7920136     156.5056  0.021172295  0.021486592            3 
  617000    1.0225308   -7.7732599    157.24222  0.021237469  0.021469145            5 
  618000    1.0096408   -7.7732487     156.8823  0.021154571  0.021451388            4 
  619000   0.99205786   -7.7464283    157.68982  0.021229109  0.021434054            2 
  620000     1.016795   -7.7589485    157.40527  0.021156623  0.021416899            2 
  621000    1.0257495   -7.7479608    157.57616  0.021145486  0.021399312            6 
  622000   0.99571803   -7.7438006    158.05552  0.021175713  0.021381892            1 
  623000    1.0037938   -7.7332161    158.16447  0.021156296  0.021364544            4 
  624000    1.0190728   -7.7460252    158.21219  0.021128764  0.021347548            2 
  625000    1.0332558   -7.7479578    157.82554  0.021043406  0.021330429            4 
  626000    1.0197464   -7.7700284    158.45428  0.021093488  0.021313089            4 
  627000    0.9895237   -7.7846682    158.26629   0.02103486  0.021295491            1 
  628000    1.0362471   -7.7667855    159.03032   0.02110275  0.021278207            3 
  629000    1.0007208    -7.751499     158.5933  0.021011301  0.021260852            3 
  630000   0.99810542   -7.7510888     158.9124  0.021020159  0.021243422            2 
  631000   0.99807378   -7.7068536    159.46555  0.021059898  0.021226204            2 
  632000    0.9915361   -7.7562805    158.90732  0.020952969  0.021208903            4 
  633000    0.9998883   -7.7610989    159.42931  0.020988588  0.021191302            4 
  634000    1.0123908   -7.7023862     159.6845  0.020989025  0.021174077            9 
  635000   0.99512946   -7.7689274    159.23628   0.02089715  0.021156722            6 
  636000   0.99477065   -7.7299422    160.04085  0.020969713  0.021139307            5 
  637000    1.0063399   -7.7810409    159.92316  0.020921397  0.021122218            3 
  638000   0.99680556    -7.816913    159.88817  0.020884035  0.021104913            2 
  639000    1.0064976   -7.7972191    159.62853  0.020817492  0.021087541            3 
  640000    1.0004175   -7.8319371    159.94353   0.02082598  0.021070136            2 
  641000   0.98509744   -7.8313357    159.88713  0.020786158  0.021052713            3 
  642000    1.0124625    -7.787092    160.49956  0.020833276  0.021035003            5 
  643000   0.99015393   -7.8041662    160.40658  0.020788825  0.021017481            2 
  644000    1.0230757   -7.7989666    160.27339   0.02073931  0.020999817            5 
  645000   0.99343842    -7.758793    160.71604  0.020764346  0.020982317            5 
  646000    1.0003054   -7.8079505    160.64344  0.020722838  0.020964676            2 
  647000   0.99691977   -7.7996169    160.95737  0.020731243  0.020947111            3 
  648000     1.008832   -7.8313082    160.09378  0.020588191  0.020929482            3 
  649000    1.0094337   -7.8230184    160.55749  0.020616011  0.020911583            6 
  650000   0.99081061   -7.7835299    160.91115  0.020629635  0.020893841            2 
  651000    1.0084336   -7.7838486    160.96267   0.02060454  0.020876166            3 
  652000   0.99893166   -7.7886478    161.36282  0.020624082  0.020858614            2 
  653000    1.0005637   -7.8116355    161.54838   0.02061618  0.020841153            2 
  654000   0.99436715   -7.8087546    161.65739  0.020598546  0.020823779            5 
  655000   0.97490253    -7.773736    162.13904  0.020628377  0.020806344            4 
  656000     1.000323     -7.78563     161.8085  0.020554942   0.02078883            3 
  657000   0.98535771    -7.804692    161.86955  0.020531399  0.020771093            3 
  658000    0.9767779   -7.8048701    162.12732  0.020532842  0.020753487            5 
  659000   0.99491572   -7.7819606    162.51642  0.020550887  0.020736133            5 
  660000   0.99687241   -7.8118086    162.27688  0.020489506  0.020718918            7 
  661000   0.97950434   -7.8041968    162.83528  0.020528906  0.020701725            4 
  662000    1.0013371   -7.8198947    162.61846  0.020470601  0.020684494            3 
  663000   0.97636114    -7.784557    162.61501  0.020439292  0.020667284            2 
  664000    0.9859247   -7.7977057    163.45732  0.020514222  0.020650068            1 
  665000    1.0067846   -7.8256102    163.32079  0.020466264  0.020633034            2 
  666000    1.0035421   -7.7533205    164.02382  0.020523501  0.020616287            5 
  667000    1.0005944   -7.8195973    163.71295  0.020453892  0.020599578            3 
  668000   0.98056346   -7.7951036    163.55783  0.020403921  0.020582851            5 
  669000   0.99457343   -7.8285121    163.72733  0.020394536  0.020566111            2 
  670000   0.98899999   -7.7742802    163.90852  0.020386632  0.020549214            2 
  671000   0.99852687   -7.8081002    164.15628  0.020387019  0.020532375            4 
  672000   0.99718462   -7.8017016    164.19446  0.020361417  0.020515519            4 
  673000   0.98903668   -7.8260734    163.93112  0.020298554  0.020498841            3 
  674000   0.98873954   -7.8461506    164.32147  0.020316699  0.020481975            4 
  675000    1.0072862   -7.8207001     164.6315  0.020324877  0.020465157            5 
  676000   0.98222077   -7.8249897    164.45939  0.020273594  0.020448453            4 
  677000   0.96960658   -7.8242234    165.08688  0.020320886  0.020431499           12 
  678000    1.0041582   -7.7805377    165.51838  0.020343951   0.02041505            3 
  679000   0.97942526    -7.828276    164.81237   0.02022734  0.020398715            4 
  680000   0.97214513   -7.8174054     165.9644  0.020338774  0.020382092            1 
  681000   0.98306073   -7.8190762    165.36641  0.020235732   0.02036581            9 
  682000    1.0126212   -7.8305751    165.57406  0.020231435  0.020349495            1 
  683000   0.97363826   -7.8390323    165.65949  0.020212236  0.020333216            2 
  684000   0.98041867   -7.8614279    165.89823  0.020211773  0.020316999            4 
  685000   0.97427128   -7.8506306    166.72087  0.020282344  0.020300809            8 
  686000   0.96438287   -7.8432101    166.15033  0.020183471  0.020284877            3 
  687000   0.99516638   -7.8009632    166.82997  0.020236532   0.02026878            2 
  688000   0.98641115   -7.8326295    166.34049  0.020147831  0.020252716            4 
  689000   0.98046249   -7.8041671    166.74831  0.020167913  0.020236644            2 
  690000    0.9979258   -7.7925055     167.2149  0.020195036  0.020220683            4 
  691000   0.95413321    -7.830613     167.5351  0.020204426  0.020204748            3 
  692000    1.0030061    -7.850734    167.11069   0.02012412  0.020188919            4 
  693000   0.98403862   -7.8177199     167.1943  0.020105135  0.020172841            5 
  694000   0.97701885   -7.8565086    167.03239  0.020056723  0.020156693            6 
  695000   0.99238669   -7.8494654    167.08826  0.020034564  0.020140309            3 
  696000   0.98556963   -7.8182121    167.38851  0.020041728  0.020124217            2 
  697000    0.9878226   -7.8490915    167.47713  0.020023568  0.020108084            3 
  698000    0.9565673    -7.841428    167.51176  0.019999016  0.020091878            2 
  699000   0.95568995   -7.8859845    167.59192  0.019979962  0.020075785            5 
  700000   0.98530841   -7.8632766    168.41364  0.020049243  0.020059625            3 
  701000   0.97889587   -7.8221071    168.03661  0.019975821  0.020043654            2 
  702000   0.95282412   -7.8163172    168.38471  0.019988688  0.020028016            3 
  703000    0.9730038   -7.8504335    168.86413  0.020017085  0.020012332            7 
  704000    0.9716068   -7.8421116    168.48544  0.019943826  0.019996434            4 
  705000   0.95787658   -7.8329776    169.24477  0.020005292  0.019980574            5 
  706000    0.9730373   -7.8294253    169.18453  0.019969846  0.019964734            6 
  707000   0.97637018    -7.835554    168.92717  0.019911265  0.019948679            4 
  708000   0.97462263   -7.8675439    168.99029  0.019890571  0.019932684            3 
  709000   0.95672232   -7.8301032     168.9866  0.019862082   0.01991684            3 
  710000   0.97896839   -7.8524431    169.22632  0.019862244   0.01990124            5 
  711000   0.99212663   -7.8707163    169.50741  0.019867254  0.019885205            4 
  712000   0.99785698   -7.8676584    168.90749  0.019769135  0.019869133            5 
  713000   0.98717426   -7.8689548    169.62761  0.019825574  0.019852941            2 
  714000   0.96965993   -7.8512263     169.5762  0.019791807  0.019836901            3 
  715000   0.96858776    -7.837052    169.76905  0.019786602  0.019820924            2 
  716000   0.96410189   -7.8961546    169.71541  0.019752724  0.019804984            3 
  717000     0.960742   -7.8592163    169.93008  0.019750125  0.019788997            4 
  718000   0.97301945   -7.8952961    169.98288  0.019728747   0.01977293            3 
  719000   0.96998495   -7.8351756    170.31888   0.01974025   0.01975675            5 
  720000   0.98477047   -7.8647706    169.79342  0.019652016  0.019740843            2 
  721000   0.96357706   -7.8301603    170.51581  0.019708253  0.019724885            3 
  722000    0.9565113    -7.865799    170.50506  0.019679716  0.019709086            2 
  723000   0.96379834   -7.8702476    170.87423  0.019695048  0.019693151            4 
  724000    0.9737763   -7.8688735     171.1426  0.019698734  0.019677322            3 
  725000   0.97031899   -7.8547455    171.12426  0.019669455  0.019661516            3 
  726000   0.95789869   -7.8784891      171.018  0.019630165  0.019645633            4 
  727000   0.95514807   -7.8789285    170.88721  0.019588171  0.019629775            3 
  728000   0.97298489   -7.8561975    171.60095  0.019642965  0.019614171            3 
  729000   0.94592031   -7.8970803    171.57556  0.019613118   0.01959867            5 
  730000   0.96389439   -7.8953058    171.42805  0.019569412   0.01958314            6 
  731000   0.97490449    -7.885892    171.74789  0.019579102  0.019567586            3 
  732000   0.94868471   -7.8855658    171.60618  0.019536223  0.019552169            1 
  733000   0.96320754   -7.8833213    171.92962  0.019546341  0.019536946            8 
  734000   0.94406253   -7.8822094    172.30462  0.019562286  0.019521738            3 
  735000   0.96369989   -7.9107795    172.55932  0.019564549  0.019506454            4 
  736000   0.96137545   -7.8999503     172.5727  0.019539481  0.019491195            4 
  737000    0.9593946   -7.9008545    172.46895  0.019501238  0.019475992            4 
  738000   0.98331114   -7.9108049    172.80228  0.019512452  0.019460906            9 
  739000   0.99247653   -7.9318318    173.25442  0.019537034   0.01944573            3 
  740000   0.94737979   -7.8410927    173.82345  0.019574712  0.019430577            3 
  741000   0.95382605   -7.8912649    173.31337  0.019490932  0.019415688            3 
  742000   0.97482886   -7.9183813    173.81843  0.019521387  0.019401002            3 
  743000   0.97233278   -7.9358373     173.4163  0.019450011  0.019386313            3 
  744000   0.93733956   -7.8745306    174.09276  0.019499637  0.019371651            5 
  745000   0.95057873   -7.8870742    174.57366  0.019527255  0.019357164            3 
  746000   0.95915645   -7.8331949     174.7514  0.019520934  0.019342628            4 
  747000   0.95100708   -7.8677497    174.05327   0.01941692  0.019328179            4 
  748000   0.95172732   -7.9126759    173.87352  0.019370935  0.019313495            7 
  749000   0.97265864   -7.9046422    174.50942  0.019415824  0.019298767            5 
  750000   0.95846494   -7.8909698    174.49309  0.019388121  0.019283888            5 
  751000   0.94928962   -7.8708324    174.75821  0.019391723  0.019269336            6 
  752000   0.97638663    -7.882662    174.48941  0.019336149   0.01925472            3 
  753000   0.95578043   -7.9580261    174.73338   0.01933747  0.019240052            3 
  754000    0.9267354   -7.9239595    174.63719  0.019301192  0.019225097            3 
  755000   0.95134376   -7.9397712    174.79305  0.019292831  0.019210266            4 
  756000   0.94598043    -7.884068    175.19884  0.019312042  0.019195551            2 
  757000   0.95591592   -7.8982059     175.3978  0.019308433  0.019180927            3 
  758000   0.97192602   -7.8947598    175.79198  0.019326295  0.019166395            5 
  759000   0.96690162   -7.9064738    175.56791  0.019276231  0.019151756           10 
  760000   0.95560341    -7.875184    175.85709  0.019282575  0.019137346            2 
  761000   0.94252581   -7.8941928    176.01032  0.019274017   0.01912296            4 
  762000    0.9365905   -7.8453957    176.44979  0.019296784  0.019108471            4 
  763000   0.94297807   -7.8736015    176.23656  0.019248204  0.019094095            4 
  764000   0.93136787   -7.9368451    176.39518  0.019240312  0.019079744            6 
  765000   0.92845348   -7.8835382    176.46064  0.019222292  0.019065386            5 
  766000    0.9506726   -7.9187039    176.45599  0.019196692  0.019051035            3 
  767000   0.93614552   -7.9121964    176.53694  0.019180458  0.019036567            4 
  768000   0.94300858   -7.9328468    176.17713  0.019116442  0.019021973            7 
  769000   0.94960125   -7.9193245    176.49427  0.019125951  0.019007203            6 
  770000   0.95363727   -7.9253117    176.51534  0.019103392   0.01899262            3 
  771000   0.94983525   -7.9571336    176.16776  0.019041046  0.018977983            4 
  772000   0.93939412   -7.9022908    176.94387  0.019100159  0.018963382            3 
  773000   0.91495317   -7.8996325    177.95373  0.019184318   0.01894894            4 
  774000   0.92685148   -7.9217831    177.56414  0.019117586  0.018934375            4 
  775000   0.94617717   -7.9409795    177.06533  0.019039283  0.018919777            6 
  776000   0.96028269   -7.9398478    177.05886  0.019014053  0.018905144            3 
  777000    0.9360224   -7.9408732    176.98314  0.018981461  0.018890191            6 
  778000   0.94039615    -7.934473    177.45886  0.019008019  0.018875637            8 
  779000   0.93919972   -7.9350945    177.46414  0.018984183  0.018860965            3 
  780000    0.9377555   -7.9366837    177.76027  0.018991482  0.018846298            5 
  781000   0.94354071   -7.9375978    177.36149  0.018924615  0.018831568            9 
  782000   0.95749051   -7.9005585    178.02065  0.018970657  0.018816852            7 
  783000   0.92035992   -7.9422412    177.32163  0.018872033  0.018802048            3 
  784000   0.94081072   -7.9111602    178.03071  0.018923332  0.018787247            3 
  785000   0.93727712    -7.949234     177.8736  0.018882548  0.018772426            5 
  786000    0.9776185   -7.9381678    178.01077  0.018873067  0.018757549            3 
  787000   0.93362645   -7.9172408    177.79973  0.018826739  0.018742818            2 
  788000   0.94046058   -7.9530722    177.41402  0.018762058  0.018727839            6 
  789000   0.94003617   -7.9645124    177.81861  0.018781011   0.01871276            4 
  790000   0.93695086   -7.9803382     177.3702  0.018709937  0.018697665            3 
  791000   0.94184828    -7.985209    177.45397  0.018695108  0.018682427            3 
  792000   0.95009228   -7.9358398    178.28034  0.018758453  0.018667141            4 
  793000   0.92456363   -7.9504442    177.98622  0.018703891  0.018651985            2 
  794000   0.94262462   -7.9185682    178.15075  0.018697602  0.018637116            3 
  795000   0.92884105   -7.9315881    178.76527  0.018738498   0.01862219           12 
  796000   0.92349279   -7.9508458    178.47912     0.018685  0.018607132            5 
  797000   0.92768176   -7.9312511    178.75608  0.018690514  0.018592063            3 
  798000   0.94389131   -7.9838707    178.05879  0.018594276  0.018576744            8 
  799000    0.9273247   -7.9279082    178.64464  0.018632106   0.01856145            4 
  800000   0.94885901   -7.9482539    178.91635  0.018637119  0.018546274            4 
  801000   0.93017598   -7.9762921    178.30455  0.018550202  0.018531128            3 
  802000   0.92992687   -7.9630718     178.2003  0.018516241  0.018515967            4 
  803000    0.9277185   -7.9466668    179.05292  0.018581665  0.018500794            5 
  804000   0.92918466   -7.9454896    178.94969  0.018547853  0.018485545            3 
  805000   0.94750838   -7.9487449    178.81104   0.01851046  0.018470352            2 
  806000   0.92423417   -7.9787971    178.98954  0.018505949  0.018455165            2 
  807000   0.91865042   -7.9538212     179.6907  0.018555421  0.018440264            7 
  808000   0.94496564    -8.017834    179.19269  0.018481094  0.018425154            2 
  809000   0.92914283   -7.9655133    179.56228   0.01849632  0.018410084            5 
  810000   0.91638458   -7.9192312    180.34235   0.01855374  0.018395185            7 
  811000   0.91477041   -7.9565179    179.85212  0.018480489  0.018380446           10 
  812000   0.92846589   -7.9246875    180.56515  0.018530906  0.018365663            6 
  813000   0.92375413   -7.9772966    179.73975  0.018423508  0.018350715            4 
  814000   0.94044412   -7.9350798    180.02153  0.018429723  0.018335626            3 
  815000   0.93529369   -7.9886049    179.41492  0.018345083  0.018320505            3 
  816000   0.93460695   -7.9776012     180.0682  0.018389318  0.018305366            3 
  817000    0.9328755   -8.0159485      179.705  0.018329763  0.018290254            3 
  818000   0.91307899   -7.9667382    180.67345  0.018406016  0.018275246            6 
  819000   0.92339637   -7.9763151     179.7955  0.018294211  0.018260199           10 
  820000   0.91536041   -7.9490619    180.38605  0.018331915  0.018245174            7 
  821000   0.92956221   -7.9371632    180.84781  0.018356457   0.01823017            9 
  822000    0.9367753   -8.0195737     180.3496  0.018283617  0.018215255           13 
  823000   0.92334761   -7.9651353    180.85612  0.018312689  0.018200259           15 
  824000   0.91645777   -8.0206333    180.61359  0.018265938  0.018185343           11 
  825000   0.91444812   -8.0089888    180.18803  0.018200811  0.018170457            4 
  826000   0.92906492   -8.0213346    180.87577  0.018248161  0.018155543            4 
  827000   0.92093742   -8.0175668    180.64737   0.01820308  0.018140568            4 
  828000   0.92296926   -7.9973855    181.09904  0.018226554  0.018125511            2 
  829000   0.93501344    -7.999333     181.4762  0.018242481   0.01811046            7 
  830000   0.90895559   -7.9964727    181.24165  0.018196953  0.018095388            3 
  831000   0.93979954    -8.006677    181.39699  0.018190633  0.018080406            2 
  832000   0.92431049   -7.9735587    181.43257  0.018172332   0.01806545            5 
  833000   0.90774596   -7.9975962    181.44786  0.018152047  0.018050408           10 
  834000   0.90776289   -8.0072119    181.36316  0.018121819  0.018035557            3 
  835000   0.90548829   -7.9635958    181.92132   0.01815582  0.018020729            2 
  836000   0.92908244   -8.0200276     181.2088  0.018063078  0.018005787            1 
  837000    0.9497643   -8.0043393    181.41029  0.018061558  0.017990895            5 
  838000   0.92174575   -7.9933739    181.75861  0.018074643  0.017975981            1 
  839000   0.93202947   -7.9954652    182.06655  0.018083686  0.017961041            3 
  840000   0.93041642   -7.9963967    182.40842  0.018096074  0.017946194            3 
  841000   0.92169859   -8.0154756    182.15498  0.018049443  0.017931326            6 
  842000   0.93179267   -7.9991812    182.36587  0.018048879  0.017916603            3 
  843000   0.90400403   -8.0456218       181.74  0.017965599   0.01790179            3 
  844000   0.90601182    -8.034137    181.86041  0.017956201  0.017886848            4 
  845000   0.90886871   -8.0250294     182.5495  0.018002909  0.017872137            5 
  846000   0.91676816   -8.0339616    182.45791  0.017972608  0.017857535            2 
  847000   0.90579127   -8.0111405    182.42061  0.017947718  0.017842945            3 
  848000   0.91474798   -8.0290598    182.67895   0.01795194  0.017828391            8 
  849000   0.92514647   -7.9938915    183.43543  0.018005049  0.017813811            5 
  850000   0.88563249   -8.0195202    183.42629   0.01798297  0.017799356            3 
  851000   0.90627828   -7.9731928    183.42675  0.017961883  0.017785003            3 
  852000   0.90737242   -8.0060603    183.79489  0.017976809  0.017770678            2 
  853000   0.90712656   -8.0391675    184.05463  0.017981108  0.017756428            5 
  854000   0.92455387   -8.0332668    183.44574  0.017900638  0.017742173            3 
  855000   0.90451889   -8.0042384    183.93449  0.017927338  0.017727797            2 
  856000   0.92903387   -7.9777913    184.04602  0.017917253  0.017713578            2 
  857000    0.8987753   -8.0125908    183.46751  0.017840093  0.017699187            3 
  858000   0.90672071   -8.0540374    183.09818  0.017783428  0.017684661            3 
  859000   0.92218002   -8.0113276    183.74351   0.01782533  0.017670124            5 
  860000   0.91234113   -8.0287733    183.92172  0.017821872  0.017655714            3 
  861000   0.90494492   -7.9988733    184.42145   0.01784954  0.017641346            5 
  862000   0.91505085   -8.0128795    184.10399  0.017798143  0.017627024            6 
  863000   0.91936938   -8.0203774    184.24708  0.017791336  0.017612815            4 
  864000   0.92350816   -8.0120845    184.67008  0.017811543  0.017598611           16 
  865000   0.90371533   -7.9966994    185.09727  0.017832107  0.017584501            4 
  866000   0.90950085   -8.0082514      185.256   0.01782679  0.017570476            2 
  867000   0.92960502   -8.0206237    185.13542  0.017794638  0.017556448           15 
  868000   0.89986835   -8.0274015    184.84723  0.017746469  0.017542389            6 
  869000   0.89447946   -8.0750806    184.72678  0.017714497  0.017528182            3 
  870000   0.91667047   -8.0579197     184.3388  0.017656973  0.017513926            4 
  871000   0.89909299   -8.0231625    184.71449  0.017672645  0.017499744            7 
  872000   0.91166971   -8.0730951    184.71936  0.017652844  0.017485392            6 
  873000   0.91096568   -8.0439005    184.61696  0.017622849  0.017471017            5 
  874000   0.89910246   -8.0445884    184.84644  0.017624565  0.017456567            8 
  875000   0.90172136     -8.02484    185.24612  0.017642488  0.017442077            7 
  876000   0.92019116   -8.0847474    184.85339  0.017584987  0.017427662            5 
  877000   0.90917791   -8.0419853    185.01972  0.017580741  0.017413248            6 
  878000   0.90009262   -8.0612681    184.95645  0.017554712  0.017398784            5 
  879000   0.91076914   -8.0708818    185.14876  0.017552973  0.017384324            3 
  880000   0.89488245   -8.0538179    185.79795  0.017594502  0.017369967           19 
  881000   0.91575894   -8.0378365    185.35978  0.017533086  0.017355667            7 
  882000   0.89180653   -8.1075632    185.46316  0.017522974  0.017341406            7 
  883000   0.91859182   -8.0595157    185.72147  0.017527507  0.017327034            4 
  884000   0.89165925   -8.0680512    185.16964   0.01745566  0.017312702            2 
  885000   0.89915893   -8.0590238    185.70749  0.017486581   0.01729834            4 
  886000   0.91243624   -8.0722472    185.41808  0.017439623  0.017284028            6 
  887000    0.9107369   -8.0092871    186.02841  0.017477303  0.017269846            4 
  888000   0.87951987   -8.0517924    185.83239  0.017439226  0.017255602            5 
  889000   0.90802143   -8.0466284    185.96276   0.01743183  0.017241405            6 
  890000   0.91591192   -8.0343435    186.48251   0.01746091  0.017227206            6 
  891000   0.90505525   -8.0203169    186.42242  0.017435692  0.017213174            7 
  892000   0.88678681   -8.0925937    186.58609  0.017431436  0.017199078            8 
  893000   0.89362443   -8.0363454    186.85105  0.017436641  0.017185075            5 
  894000   0.90357364   -8.0774866     186.0799  0.017345256  0.017170971           13 
  895000    0.8849819   -8.0532913    186.63581  0.017377636  0.017156829            4 
  896000   0.90152127   -8.0881803    186.34701  0.017331381  0.017142648            6 
  897000   0.88828282   -8.1350299     185.9686  0.017276904  0.017128468            5 
  898000   0.90909592   -8.0844771    186.61495  0.017317646  0.017114331            4 
  899000   0.89591113   -8.0890119    187.05023  0.017338731  0.017100221            2 
  900000   0.88673954   -8.0609219    187.08566  0.017322747  0.017086167            3 
  901000   0.90259783   -8.0580864    187.23634  0.017317456  0.017072284            3 
  902000   0.89718352   -8.0777811    187.08735  0.017284493  0.017058471            3 
  903000   0.88733465   -8.0487439    187.22811  0.017278342  0.017044603            4 
  904000   0.87855749   -8.0287951    188.03332  0.017333455  0.017030831            6 
  905000   0.89244941   -8.0856405    187.50915  0.017266036  0.017017046            6 
  906000   0.86272915   -8.0970564    187.59635  0.017254999  0.017003145            5 
  907000   0.89059108   -8.0275491     187.6885  0.017244442  0.016989309            8 
  908000   0.89726977   -8.1039175    187.41139  0.017200017  0.016975339            2 
  909000   0.88153857   -8.0629572    187.38596  0.017178765  0.016961408            3 
  910000   0.91521092   -8.0759775    187.48295  0.017168769  0.016947545            3 
  911000   0.91059972   -8.1055608    187.28863  0.017132147  0.016933714            5 
  912000    0.8883533   -8.0638954    187.94192  0.017173056  0.016919904            3 
  913000   0.88799058   -8.0629608    187.62669  0.017125473  0.016906079            4 
  914000   0.89007578    -8.093676    187.53444  0.017098326  0.016892187            2 
  915000   0.89132318   -8.0984747    187.40725  0.017068056  0.016878152            6 
  916000   0.88463039   -8.0956842    187.39085   0.01704793  0.016863967            6 
  917000   0.90832708   -8.1025842    187.39444  0.017029666  0.016849697            2 
  918000   0.88463401    -8.075369    187.97647  0.017063949  0.016835632           10 
  919000   0.88271143   -8.0670763    187.55351  0.017007028  0.016821564           12 
  920000   0.89483664   -8.0873393    187.84583   0.01701502  0.016807444           12 
  921000     0.898341   -8.0933894    187.95792  0.017006688  0.016793428            5 
  922000   0.88936936   -8.0937706    188.03858  0.016995534  0.016779353            7 
  923000   0.87170818   -8.1069241    187.97028  0.016970953  0.016765232            4 
  924000   0.90056869   -8.1473328    188.02441  0.016957469  0.016751073            7 
  925000    0.8885959   -8.1143555     188.2203  0.016956784  0.016736845            5 
  926000   0.89012928   -8.1175747    188.65759  0.016977824  0.016722739            6 
  927000   0.86181182    -8.088743    188.44148  0.016940083  0.016708729            4 
  928000   0.89755449   -8.0724634    188.92135   0.01696492   0.01669476            7 
  929000   0.88829781   -8.1120915    188.47411   0.01690654  0.016680834            4 
  930000    0.8940716   -8.0625421     189.0141  0.016936748  0.016666904            3 
  931000   0.88878656   -8.0911845    188.88417  0.016906926  0.016652983            4 
  932000   0.88431275   -8.1051432    188.59389   0.01686283  0.016638996            4 
  933000    0.8946575   -8.1531091    188.86428  0.016868906   0.01662495            4 
  934000   0.89869512   -8.1553115    188.12139  0.016784563  0.016610834            6 
  935000   0.89553271   -8.1363084    188.43165  0.016794265  0.016596763            4 
  936000   0.88932884   -8.1556214    188.91571  0.016819418  0.016582819            3 
  937000   0.86430302   -8.1305278    189.03107  0.016811728  0.016568891            5 
  938000   0.87145866   -8.1659238    188.46499  0.016743513  0.016554909            4 
  939000   0.86635717   -8.1376575    189.22383  0.016793027  0.016540895            4 
  940000   0.90208812   -8.1356449    189.11483  0.016765499  0.016526956            2 
  941000    0.8814137   -8.1400775     188.9189  0.016730331  0.016512966            8 
  942000   0.88676101   -8.1131862    189.27538  0.016744107  0.016499052            5 
  943000   0.87885154   -8.1389257    189.50267  0.016746436  0.016485183            3 
  944000   0.87110141   -8.1206184    189.27908  0.016708958   0.01647125            6 
  945000    0.8715792   -8.1276327    189.45597  0.016706875  0.016457368            4 
  946000    0.8859967   -8.1314782    189.51355  0.016694287   0.01644343            4 
  947000   0.86219387   -8.1272708    189.69591  0.016692706  0.016429493            3 
  948000   0.87159696   -8.1221268    190.04295  0.016705604  0.016415636            2 
  949000   0.86805861   -8.1440375     189.0655  0.016602169  0.016401729            2 
  950000   0.88736141   -8.1319792    189.48393  0.016621397  0.016387867            3 
  951000   0.85842474   -8.1714755    189.58122  0.016612445   0.01637391            6 
  952000    0.8749802   -8.1757094    189.83908  0.016617567  0.016360024            8 
  953000    0.8708503   -8.1347807    189.99962  0.016614168  0.016346231            5 
  954000    0.8700736   -8.1541241    189.85179  0.016583839  0.016332406           12 
  955000   0.87282905   -8.1540499    189.72386  0.016555311  0.016318543            9 
  956000   0.89592535   -8.1320374    190.10328  0.016571067  0.016304718            8 
  957000   0.86114462   -8.1332911    189.99425  0.016544257  0.016291006            2 
  958000   0.88021632   -8.1472335    189.89362  0.016518234  0.016277222            2 
  959000   0.86028579     -8.18491    189.53777  0.016470087  0.016263463            5 
  960000   0.87696694   -8.1460444     190.2084  0.016511146  0.016249655           13 
  961000   0.85722658   -8.1530191    190.39398  0.016510057  0.016235854            3 
  962000   0.85617567   -8.1525845     190.0776  0.016465489  0.016221972           12 
  963000   0.87277399   -8.1421211    189.99684  0.016441402  0.016208175            8 
  964000   0.89203725   -8.1445469    190.11882  0.016434891  0.016194376            8 
  965000   0.85458849    -8.150543    190.21932  0.016426539  0.016180665            8 
  966000   0.87551167   -8.1518517    190.16082  0.016404488   0.01616682            7 
  967000   0.87586031   -8.1052458    190.83317  0.016445465  0.016152968            3 
  968000   0.87577001   -8.1460296     190.6059   0.01640891  0.016139235           15 
  969000   0.85755852   -8.1416662    190.59831  0.016391323  0.016125468            4 
  970000   0.88340868   -8.1399123    190.78725  0.016390658  0.016111683            4 
  971000   0.86155618   -8.1627386    190.58819  0.016356693  0.016097808           13 
  972000   0.87513065   -8.1569846    190.71531  0.016350764  0.016084008            5 
  973000   0.87083991   -8.1403109    190.56632  0.016321199  0.016070205            5 
  974000   0.86564545   -8.1717234    190.58734   0.01630624  0.016056255            4 
  975000   0.85752488   -8.1576536    190.71263  0.016300225  0.016042382            3 
  976000   0.86520354    -8.173952    190.67587  0.016280385  0.016028571            7 
  977000   0.84621761    -8.154032    190.48899  0.016247781  0.016014663            6 
  978000   0.83676224   -8.1563475    190.14729  0.016202053  0.016000642            7 
  979000   0.85850045   -8.1668382    190.02517  0.016175108  0.015986614            6 
  980000   0.85348266   -8.1865986    190.17913  0.016171695   0.01597257            5 
  981000   0.86094092   -8.1664114    190.89453  0.016215981  0.015958567            5 
  982000   0.86589336   -8.1684445    190.11723  0.016133506  0.015944493            8 
  983000    0.8800079   -8.1594619    190.51804  0.016151071  0.015930437            6 
  984000   0.86802676    -8.164132    190.29316  0.016115613  0.015916309            3 
  985000   0.86171343   -8.1778407    190.57939  0.016123468  0.015902281            4 
  986000   0.84917294   -8.1483087     190.8535  0.016130282  0.015888378            6 
  987000   0.86251611   -8.1802473    190.44315  0.016079294  0.015874474            6 
  988000   0.85172231   -8.1786221    191.23452  0.016129767  0.015860444           12 
  989000   0.86491243   -8.1783473    190.47821  0.016049731  0.015846388            4 
  990000    0.8535855   -8.1737207    190.93896  0.016072303  0.015832414            7 
  991000   0.86124874   -8.1785255    190.72311  0.016037934  0.015818475            6 
  992000   0.87672593   -8.1684578    190.77917  0.016026476  0.015804369           23 
  993000     0.840001    -8.191236    190.38253   0.01597705  0.015790257           13 
  994000   0.85161121   -8.2014417    190.69888  0.015987498  0.015776156            5 
  995000   0.87649984   -8.1832966    190.61935   0.01596477  0.015762074            6 
  996000   0.84818561   -8.1714227    191.29173  0.016004998  0.015748072            7 
  997000   0.86969407   -8.2040346    190.79244  0.015947211  0.015734001           10 
  998000   0.86690063   -8.1592681    190.76444  0.015928894  0.015719815            5 
  999000   0.85452055   -8.1845201    190.39098  0.015881797  0.015705728           10 
 1000000   0.82841709   -8.1800072    190.85836  0.015904863  0.015691717            5 
 1001000   0.85475942   -8.2000167    191.09074   0.01590832  0.015677787            3 
 1002000   0.85155053   -8.1953111    190.49904  0.015843233  0.015663808           11 
 1003000   0.83110704   -8.2091791    191.09287  0.015876776  0.015649852            4 
 1004000   0.86060727   -8.2050824    191.13923   0.01586481  0.015635926            5 
 1005000    0.8340878   -8.2021077    191.39272  0.015870043  0.015622061           19 
 1006000   0.85600896    -8.220017    190.95028  0.015817617  0.015608121           10 
 1007000   0.84748753   -8.2235899    191.80093  0.015872304  0.015594213            6 
 1008000   0.83908735   -8.1905279    191.60329  0.015840219  0.015580424            4 
 1009000   0.85518378   -8.2140185    191.32014  0.015801135  0.015566547            3 
 1010000   0.85343818   -8.2181791    191.11536  0.015768594  0.015552633            5 
 1011000   0.83818558   -8.2225893    191.53745  0.015787788  0.015538752           12 
 1012000   0.84517958   -8.2150955     191.2887  0.015751705  0.015524894            9 
 1013000   0.84877698   -8.2409071    191.44877  0.015749323  0.015511046            7 
 1014000   0.84245357   -8.2431246    191.93317  0.015773601  0.015497196           22 
 1015000   0.82812546   -8.2124598    191.97999  0.015761904  0.015483442           21 
 1016000   0.85130405   -8.2287064    191.81013  0.015732458  0.015469659            8 
 1017000   0.83875019   -8.2182973    191.80965   0.01571695  0.015455892            9 
 1018000   0.84441524   -8.1961381    192.11837  0.015726782  0.015442221            3 
 1019000   0.85887576   -8.1683471     192.2062  0.015718531  0.015428607            6 
 1020000   0.83116858   -8.1910361    191.81355  0.015671042  0.015415047            4 
 1021000   0.83774782   -8.2213402     192.1748  0.015685178  0.015401451            8 
 1022000   0.83183327    -8.215481    192.36784  0.015685571  0.015387949            7 
 1023000   0.82501096   -8.2297582    192.21375  0.015657686  0.015374364            3 
 1024000    0.8502707   -8.2228288     192.1908  0.015640527  0.015360757            4 
 1025000   0.86115648   -8.2264083    192.16312  0.015623018  0.015347186            5 
 1026000   0.82831452    -8.248849    192.12395   0.01560461  0.015333637            9 
 1027000   0.85704234    -8.197047    192.24613  0.015599329  0.015320092            6 
 1028000   0.83843151   -8.2166751      192.458   0.01560133  0.015306578            5 
 1029000    0.8358735   -8.2266311    193.04696  0.015633865  0.015293074            7 
 1030000   0.84124781   -8.2651093    192.10222  0.015542251  0.015279526            9 
 1031000   0.83902138   -8.2455662     192.2021  0.015535249  0.015265891            4 
 1032000   0.83707263    -8.213465    192.66068  0.015557226  0.015252374            6 
 1033000   0.86395984   -8.2457778     192.4199  0.015522741  0.015238829            2 
 1034000   0.84942612   -8.2364542    192.54009  0.015517416  0.015225257            4 
 1035000   0.85045645   -8.2352029    192.58513  0.015506049  0.015211793            3 
 1036000   0.83677887   -8.2057528    193.21479   0.01554173  0.015198388            5 
 1037000    0.8382775   -8.2347755    192.27168  0.015450955     0.015185            7 
 1038000   0.84517023   -8.2343414    192.54583  0.015458079  0.015171627            6 
 1039000   0.82754304   -8.2316627    192.58215  0.015446114  0.015158256            4 
 1040000   0.83975515   -8.2720029     193.0845  0.015471514  0.015144804            3 
 1041000   0.86139073    -8.235703    193.00444  0.015450243  0.015131344            4 
 1042000   0.83838265   -8.2275406    192.85532   0.01542349  0.015117926            5 
 1043000   0.82414531   -8.2569784    193.10415  0.015428583  0.015104532            5 
 1044000   0.83758781   -8.2429223    193.25019  0.015425462  0.015091114            2 
 1045000   0.84274385    -8.258452    192.47805  0.015349127   0.01507773            9 
 1046000   0.83776871   -8.2494923    193.08018  0.015382424  0.015064344            5 
 1047000   0.83963129   -8.2428859    193.21281  0.015378288  0.015050925            3 
 1048000    0.8586545   -8.2463526     193.0898  0.015353832  0.015037546            5 
 1049000   0.83350474   -8.2507041    193.16938  0.015345518  0.015024257           12 
 1050000   0.83969273   -8.2672554    193.02153  0.015319169  0.015010839            6 
 1051000   0.83148308   -8.2571067    192.94777  0.015298745   0.01499738            8 
 1052000   0.83679212   -8.2422793    192.99932  0.015288286  0.014983914            7 
 1053000    0.8419612   -8.2538688    193.33818  0.015300584  0.014970415            6 
 1054000   0.84445829   -8.2706365    192.52634   0.01522188  0.014956931           10 
 1055000   0.84588191   -8.2884173    192.96622  0.015242198  0.014943433            4 
 1056000   0.83498306   -8.2853058    192.64818  0.015202666  0.014929925            4 
 1057000   0.83736323   -8.2946909     192.2608  0.015157742  0.014916446            4 
 1058000    0.8337753   -8.2834939    192.50248  0.015162451   0.01490298            4 
 1059000   0.82926938   -8.2715332    193.09215  0.015194535  0.014889484           16 
 1060000   0.84102512   -8.2793305    193.33422  0.015199231  0.014875998           15 
 1061000   0.81945891   -8.2885562     193.4282  0.015192287  0.014862552            5 
 1062000   0.82799892   -8.2697286    193.16524  0.015157348  0.014849088           17 
 1063000   0.82039742   -8.2666282    192.99207  0.015129513  0.014835677            5 
 1064000   0.84373918   -8.2481367    193.92118  0.015188062  0.014822283           11 
 1065000   0.84041821   -8.2734237    193.11024  0.015110347  0.014808867           15 
 1066000   0.81516662   -8.2828218    192.83989  0.015075038  0.014795353            7 
 1067000   0.82091893   -8.2898518    192.93645  0.015068451  0.014781833           15 
 1068000   0.83279488   -8.2799877    193.36452  0.015087744  0.014768396            6 
 1069000   0.82169707   -8.2529107    193.47625  0.015082339  0.014754964            7 
 1070000   0.81863456   -8.3145394    192.90141  0.015023474   0.01474147            4 
 1071000   0.81946595   -8.2932077      193.124  0.015026766  0.014728019           16 
 1072000   0.81521268   -8.2708339    192.59387  0.014971538  0.014714563            4 
 1073000   0.82886352   -8.2917986    193.39603  0.015019885  0.014701145            4 
 1074000   0.83117007   -8.2601799    193.52958  0.015016262  0.014687762            6 
 1075000    0.8282271   -8.2975476     193.6754  0.015013597  0.014674381           12 
 1076000   0.83601792   -8.2921549    193.02939  0.014949612  0.014660976            3 
 1077000    0.8118095   -8.3240675    193.15777  0.014945664  0.014647559           12 
 1078000   0.82162609    -8.284853     193.1058  0.014927783  0.014634074            8 
 1079000   0.80785953   -8.3066509    193.42637  0.014938706  0.014620663           10 
 1080000   0.82763125   -8.2934028    193.44607  0.014926394  0.014607315            7 
 1081000   0.82569763   -8.2821805    194.11617  0.014964244  0.014594037            9 
 1082000   0.82464242   -8.3216042    193.40661  0.014895765  0.014580769            6 
 1083000   0.84738141   -8.3208822    193.53085   0.01489157  0.014567512            7 
 1084000   0.81403158   -8.3086191    193.91347  0.014907247   0.01455429            6 
 1085000   0.81897436   -8.3129714    193.60594  0.014869888  0.014541071           10 
 1086000   0.81549126   -8.2979771    193.70962  0.014864151  0.014527776           10 
 1087000   0.80739313   -8.3027024    193.91778  0.014866436  0.014514446            9 
 1088000    0.8232564   -8.3223912    193.58257  0.014827096  0.014501175            8 
 1089000   0.80707541    -8.319828     193.9386  0.014840726   0.01448795            7 
 1090000   0.83089103   -8.3298435    193.71274  0.014809843  0.014474703            8 
 1091000   0.82618214   -8.3267338    193.84951  0.014806715  0.014461446            5 
 1092000   0.83342902   -8.3221608    193.72437  0.014783606  0.014448232            6 
 1093000   0.81621582   -8.3322393    193.93818  0.014786381  0.014435063           13 
 1094000   0.79531488   -8.2963079    194.63611  0.014826029  0.014421973            6 
 1095000   0.79543413   -8.2930324    194.37696  0.014792767  0.014408935            9 
 1096000   0.82168516   -8.3260223    193.75106   0.01473168  0.014395931           12 
 1097000   0.79207792   -8.2914652    194.11451  0.014745861  0.014382897            4 
 1098000   0.81082705   -8.2733632    194.29391  0.014746046  0.014369903           10 
 1099000     0.799289   -8.3390201    194.10609  0.014718387  0.014356951           10 
 1100000   0.84230188   -8.2912425    194.53848  0.014737764  0.014344016           11 
 1101000   0.80302022   -8.2936611    194.16078   0.01469579  0.014331109            6 
 1102000   0.83792279   -8.3410522    194.67962  0.014721689  0.014318166           14 
 1103000    0.8136565   -8.3231045    195.06258  0.014737275  0.014305229            6 
 1104000   0.81642117   -8.3193747     194.2343  0.014661406  0.014292366           33 
 1105000   0.79757172   -8.3291635     194.4995  0.014668137  0.014279495           10 
 1106000   0.81915474   -8.3056628    194.36989  0.014645109  0.014266641           17 
 1107000   0.81785742   -8.3003558    194.68685   0.01465574  0.014253775            7 
 1108000    0.7882571   -8.3590166    194.20857  0.014606541  0.014240882            8 
 1109000   0.79534576   -8.3374163    195.04795  0.014656443  0.014228038           14 
 1110000   0.82809708   -8.3248005    194.77517   0.01462276  0.014215194           15 
 1111000   0.81254919   -8.3227893    194.58416  0.014595271  0.014202356           13 
 1112000   0.80967562   -8.2861357    195.23631  0.014631019  0.014189577            7 
 1113000   0.80227433   -8.3123701    194.91659  0.014593935  0.014176844            9 
 1114000   0.81469941   -8.3269017    194.63303  0.014559622  0.014164066            8 
 1115000   0.81587571   -8.2993476    194.81639  0.014560268  0.014151219            6 
 1116000   0.79507759   -8.3219226    194.89502  0.014553093  0.014138496           18 
 1117000   0.81790037   -8.2988015    195.03377  0.014550415  0.014125726            7 
 1118000    0.8012543   -8.3542049    195.20645  0.014550272  0.014112939           13 
 1119000   0.80645864   -8.3274191    194.62454  0.014493934  0.014100203           14 
 1120000   0.79990287    -8.336764    195.42868  0.014540825  0.014087406           10 
 1121000   0.80134834   -8.3535698    194.72273  0.014475374  0.014074631            8 
 1122000   0.80758391   -8.3270234    195.08666  0.014489502  0.014061924            7 
 1123000   0.78798515   -8.3524178    195.07062  0.014475409  0.014049247            6 
 1124000   0.78364579   -8.3645284    194.58831  0.014426773  0.014036481            8 
 1125000   0.80548151   -8.3786379    194.48988  0.014406657  0.014023682            9 
 1126000   0.80146603   -8.4087703    194.85483  0.014420873  0.014010843            5 
 1127000   0.80452664   -8.3546155    194.37411  0.014372531  0.013998036            5 
 1128000   0.79813368   -8.3676129    194.47343  0.014367127  0.013985286           11 
 1129000    0.7961988   -8.3529651    194.61792  0.014365066   0.01397257            2 
 1130000    0.7846432   -8.3375691    195.05232  0.014384389  0.013959815            5 
 1131000   0.81392799   -8.3266373    194.98677  0.014366841  0.013947068           20 
 1132000   0.79897539   -8.3581838    195.12108  0.014364037  0.013934362            8 
 1133000   0.80784629   -8.3424484    195.06135  0.014346966  0.013921621            6 
 1134000   0.81052407   -8.3547057    194.49613  0.014292778  0.013908894           10 
 1135000    0.8032766   -8.3612445     194.8541  0.014306468  0.013896151            9 
 1136000   0.81262614   -8.3515917    194.90673  0.014297735  0.013883433           10 
 1137000   0.79818615   -8.3716083    195.12322  0.014301028  0.013870707           11 
 1138000   0.82853214   -8.3844868    194.61109  0.014250959  0.013858029            7 
 1139000   0.79041593   -8.3620661    194.77874  0.014250713  0.013845416            9 
 1140000   0.78497368   -8.3543632    195.48264  0.014289667  0.013832824            7 
 1141000   0.79043983   -8.3349135    195.36666  0.014268672  0.013820237            4 
 1142000   0.78948044   -8.3430544     195.3194  0.014252729  0.013807703            7 
 1143000   0.78755469   -8.3505716    195.39394  0.014245694  0.013795136            5 
 1144000      0.79635   -8.3681788    194.92224  0.014198881  0.013782439            8 
 1145000   0.79688506   -8.3618408    195.02375  0.014193868  0.013769769            4 
 1146000   0.80614164   -8.3576022    194.90567  0.014172896  0.013757169            4 
 1147000   0.80151903   -8.3308896    195.02031  0.014168869  0.013744586            8 
 1148000   0.79211667   -8.3866254    195.07364  0.014160398  0.013731948            8 
 1149000   0.81311392   -8.3478749     195.2808  0.014163098    0.0137194            6 
 1150000   0.79540848   -8.3188265    195.72237  0.014182781  0.013706838            5 
 1151000   0.77863479   -8.3599849    195.09265  0.014124866  0.013694295            7 
 1152000   0.78184916   -8.3381471    195.60474  0.014149648  0.013681733            6 
 1153000   0.79540114   -8.3263248    195.39849   0.01412247  0.013669192            8 
 1154000    0.7912341   -8.3696524    195.53568  0.014120139  0.013656712            5 
 1155000   0.79240733    -8.371881    195.63388  0.014114999   0.01364425            4 
 1156000   0.78565885   -8.3832384    195.37974  0.014084468  0.013631777            6 
 1157000   0.79673461   -8.3992123    195.33471  0.014069052  0.013619254            5 
 1158000   0.79749107   -8.3845787      195.145   0.01404325  0.013606777            7 
 1159000   0.79038437   -8.4324616    195.11083  0.014028676   0.01359432           12 
 1160000    0.7873074   -8.3826957    195.11143  0.014016626  0.013581826           21 
 1161000   0.78887803   -8.3959183    195.29474   0.01401771  0.013569387            5 
 1162000   0.79866395   -8.3829433    195.59826  0.014027414  0.013556907           13 
 1163000   0.80449902   -8.3874449    195.32366  0.013995677  0.013544496            7 
 1164000   0.78730658   -8.4029392     195.6838  0.014009436  0.013532077           14 
 1165000   0.80782341   -8.3893081    195.57899  0.013989913  0.013519648           12 
 1166000   0.79288796   -8.3970824    195.75463  0.013990468  0.013507294           13 
 1167000   0.78377959   -8.3807064    195.60802   0.01396801  0.013494933           13 
 1168000   0.77127166   -8.3919926    195.38109  0.013939861  0.013482577           14 
 1169000   0.77647516   -8.4065491    195.22025  0.013916471  0.013470178           14 
 1170000   0.78397293   -8.4090936    195.32704  0.013912182  0.013457795            6 
 1171000   0.77369486   -8.3976729    196.09043  0.013954628  0.013445448           11 
 1172000   0.78549169    -8.424254    195.85884  0.013926255  0.013433152            5 
 1173000   0.77560509   -8.3979496    195.58436  0.013894882  0.013420914           13 
 1174000    0.7918392   -8.3705448     195.7766  0.013896692  0.013408683           32 
 1175000   0.77440011   -8.4005407    195.90415  0.013893911  0.013396474           36 
 1176000   0.78038631   -8.3842887    195.84893  0.013878184  0.013384297           30 
 1177000    0.7754325   -8.4171155    196.02837  0.013879097   0.01337214           42 
 1178000   0.80477304    -8.404961    195.72273  0.013845694  0.013359963           21 
 1179000   0.79406529     -8.41255    196.47607  0.013887198  0.013347811           19 
 1180000   0.77591307   -8.4270646    196.32327  0.013864638  0.013335686           23 
 1181000   0.78820392   -8.4245366    196.03968  0.013832888  0.013323569           18 
 1182000   0.75707216   -8.4118297    196.41517  0.013847657  0.013311446           37 
 1183000   0.79246197    -8.403748    195.75962  0.013789773  0.013299335           39 
 1184000     0.773616   -8.4065617    196.24385  0.013812208  0.013287213            9 
 1185000   0.77680752    -8.413842    196.19017  0.013796777  0.013275132           16 
 1186000   0.79785684   -8.4174374    196.22177  0.013787364  0.013263108           15 
 1187000    0.7797457    -8.417467    196.46288  0.013792676  0.013251102            8 
 1188000   0.76587703   -8.4087073    196.27776  0.013768081  0.013239151            4 
 1189000   0.76305851   -8.4120197    196.40847  0.013765662  0.013227183            3 
 1190000   0.77791636   -8.4188596    196.11763  0.013733727  0.013215235            7 
 1191000   0.79887504    -8.423421    196.21946  0.013729321  0.013203269            7 
 1192000   0.78395285   -8.4358223    196.46014   0.01373463  0.013191316           14 
 1193000   0.77706269   -8.4602191    196.82929  0.013748902  0.013179424            6 
 1194000   0.76669826   -8.4453617    196.51996  0.013715799  0.013167506            5 
 1195000   0.77671259   -8.3969618    197.39521  0.013765356  0.013155645            4 
 1196000   0.79120473     -8.38511    197.28689    0.0137463  0.013143846            7 
 1197000   0.76409866   -8.4488642    196.65579   0.01369088  0.013132032            6 
 1198000   0.79281882     -8.43394    196.51606  0.013669732  0.013120174            3 
 1199000   0.78521271    -8.413701    196.92267  0.013686591  0.013108365            6 
 1200000   0.76822885   -8.4270311    197.03175  0.013682761  0.013096593           10 
 1201000    0.7660005   -8.4062158    197.09545  0.013675788  0.013084849            5 
 1202000   0.77640707   -8.4366379    196.70005  0.013636997  0.013073045           17 
 1203000   0.77889543   -8.4234889     196.9633  0.013643897  0.013061237           13 
 1204000   0.75683694   -8.4545081    196.88451  0.013627112  0.013049441           14 
 1205000   0.75890783   -8.4636897    196.61387  0.013597087  0.013037628            5 
 1206000   0.76082812   -8.4445481    196.35672  0.013568043  0.013025803           14 
 1207000     0.789485   -8.4539605    196.54734  0.013569962  0.013014004            7 
 1208000    0.7695475   -8.4562204    196.05406  0.013524701  0.013002163            7 
 1209000   0.77979682   -8.4504022    197.07791  0.013584085  0.012990328            8 
 1210000   0.76633004   -8.4778157    196.46857  0.013530894  0.012978519            7 
 1211000   0.75940351   -8.4333636    196.95585  0.013553252  0.012966791           10 
 1212000    0.7707552   -8.4185054    196.88268  0.013537038  0.012955059            7 
 1213000   0.76736013   -8.4266357    197.06671  0.013538521  0.012943341           10 
 1214000   0.76827987   -8.4481396     196.6553  0.013499128  0.012931572           13 
 1215000    0.7781524   -8.4529607    196.91291  0.013505686  0.012919777            6 
 1216000   0.76378333   -8.4406111    196.51505  0.013467314  0.012908065            9 
 1217000   0.76951373   -8.4230057    196.96795  0.013487261  0.012896386            5 
 1218000   0.76167144   -8.4437539    196.82715  0.013466554  0.012884726            7 
 1219000   0.75990687   -8.4479862    197.22024  0.013482379  0.012873023            5 
 1220000   0.76066394   -8.4524554    196.77785   0.01344111  0.012861325            8 
 1221000   0.77160361   -8.4681953    196.90889  0.013439045  0.012849637            7 
 1222000   0.76867789   -8.4900248    196.77014  0.013418586  0.012837962           11 
 1223000   0.76973687   -8.4512719    197.07522  0.013428401  0.012826323           21 
 1224000   0.75814761   -8.4525265    196.85983  0.013402766  0.012814666            5 
 1225000   0.76188487   -8.4558719    197.61034   0.01344288  0.012803034           13 
 1226000   0.76704661    -8.455618    196.87162  0.013381703  0.012791388           15 
 1227000   0.74187347   -8.4484527    197.48696  0.013412589  0.012779806            9 
 1228000   0.74252481   -8.4650277    197.28085   0.01338768  0.012768185            9 
 1229000   0.76142771   -8.4924195    197.12235  0.013366039  0.012756563            8 
 1230000   0.76334913   -8.4746587    197.41081  0.013374716  0.012744974            9 
 1231000   0.75464883   -8.5043042    196.77429  0.013320762  0.012733322           10 
 1232000   0.76707256   -8.4900725    197.20135  0.013338836  0.012721662            3 
 1233000   0.75615716   -8.4719235    197.17098  0.013325965  0.012710064            7 
 1234000   0.74823354   -8.4825937    197.00982  0.013304283  0.012698462            5 
 1235000   0.75024194   -8.5016266     196.6246  0.013267517  0.012686856           10 
 1236000   0.77156873   -8.4762059    196.97499  0.013280406  0.012675267            9 
 1237000   0.76584354   -8.5084133    196.77438  0.013256156  0.012663726            4 
 1238000   0.76044872   -8.4936371    197.05961  0.013264648  0.012652142           14 
 1239000   0.73742236   -8.4734116    197.36948  0.013274784   0.01264057            6 
 1240000   0.76086414   -8.5000655    196.87875  0.013231099  0.012629007           15 
 1241000   0.74836186   -8.4939902    196.68177   0.01320721  0.012617439           21 
 1242000   0.74866096   -8.4858707    196.83765  0.013207035  0.012605806           10 
 1243000    0.7432796   -8.4849007    197.14726  0.013217167  0.012594253           24 
 1244000   0.74624567   -8.4732303      196.988  0.013195874  0.012582741           12 
 1245000     0.754906   -8.4987724     197.1902  0.013198809  0.012571235           13 
 1246000   0.76034819   -8.4906325    196.76701  0.013159913  0.012559669           18 
 1247000   0.75816709   -8.5156695    196.77305  0.013149762  0.012548076           24 
 1248000    0.7446608   -8.5147209    196.75566  0.013138065  0.012536512           21 
 1249000   0.74008236   -8.5341319    196.78793  0.013129699  0.012524939           46 
 1250000   0.75200496   -8.5219394    197.00604  0.013133736  0.012513366           26 
 1251000   0.74638608   -8.5335799    196.86026  0.013113526  0.012501808           16 
 1252000   0.75876635   -8.5169832     196.4888  0.013078328  0.012490216           13 
 1253000   0.74122623   -8.5146397    196.88654  0.013094343  0.012478686           14 
 1254000    0.7503869    -8.527549    196.66187  0.013068971   0.01246719           20 
 1255000   0.74622783   -8.5202203    197.18375   0.01309321  0.012455731            8 
 1256000   0.74444149   -8.5280547    196.81692  0.013058448  0.012444252           10 
 1257000    0.7561233   -8.5323451     196.7078  0.013040824  0.012432793           17 
 1258000   0.76318768   -8.5358412    197.14733  0.013059574  0.012421339           13 
 1259000   0.75787592   -8.5257582    197.30267  0.013059483  0.012409917           20 
 1260000   0.75973824   -8.5147622    197.06292  0.013033262  0.012398515           10 
 1261000   0.74135578   -8.5090663    196.83302  0.013007734  0.012387134           16 
 1262000   0.76361701   -8.4704452    197.49248  0.013040972  0.012375772           14 
 1263000   0.74513431   -8.5067389    197.07486  0.013003092  0.012364444           17 
 1264000   0.75678871   -8.4780664    197.37313  0.013012469   0.01235309           22 
 1265000   0.73152196   -8.5242807    196.92966  0.012972969  0.012341735           25 
 1266000    0.7357395   -8.5041952    197.23986   0.01298314   0.01233042           17 
 1267000   0.75579954   -8.5403758      196.644  0.012933702  0.012319115           22 
 1268000   0.77298268   -8.5175322    197.18608  0.012959127  0.012307779           21 
 1269000   0.75593836   -8.5239486    197.11588  0.012944305  0.012296481           30 
 1270000   0.75255911   -8.5211738     196.9325   0.01292208  0.012285178           21 
 1271000   0.74480377   -8.4995308    197.53918   0.01295169  0.012273876           29 
 1272000    0.7439185   -8.5306283    196.75477  0.012890119  0.012262572           16 
 1273000   0.75349225   -8.5172639    196.88986  0.012888836  0.012251312           22 
 1274000   0.77245514   -8.5033284    197.33397  0.012907769  0.012240024           31 
 1275000   0.74557855   -8.5231803    197.32343  0.012896956  0.012228778           13 
 1276000   0.75409822   -8.5149454    197.50993  0.012899029  0.012217541           44 
 1277000   0.73353452   -8.5260972    197.33035  0.012877209  0.012206316           24 
 1278000   0.73963513   -8.5263149    197.03156   0.01284765  0.012195056           56 
 1279000   0.74860837   -8.5101574    197.46126  0.012865602  0.012183829           52 
 1280000   0.73235962   -8.5221493    196.92996  0.012820961  0.012172633           57 
 1281000   0.74817911   -8.5124925     197.0643  0.012819692  0.012161418           49 
 1282000   0.74189388   -8.5590172    197.16469  0.012816217  0.012150223           32 
 1283000   0.75856106   -8.5600752    197.05092  0.012798839   0.01213902           52 
 1284000   0.74840696   -8.5170609    197.34394  0.012807888  0.012127836           67 
 1285000   0.73224818   -8.5327451    196.91324   0.01276999  0.012116661           34 
 1286000   0.74157905   -8.5613359    196.77704  0.012751234  0.012105476           55 
 1287000   0.72774934   -8.5467605    196.89565  0.012749006  0.012094272           56 
 1288000   0.75253079   -8.5257863    197.13467  0.012754572  0.012083097           60 
 1289000   0.74264473   -8.5493584    197.22595  0.012750579  0.012071923           34 
 1290000   0.73006306   -8.5613916    196.83957  0.012715734  0.012060757           41 
 1291000   0.75056552   -8.5667864    196.69941  0.012696838  0.012049633           45 
 1292000   0.73348549   -8.5664088    196.86513  0.012697699  0.012038449           52 
 1293000   0.72757405   -8.5446197    196.94869  0.012693265  0.012027274           61 
 1294000    0.7518296   -8.5674436     196.8846  0.012679328  0.012016126           61 
 1295000   0.73022659   -8.5654025    197.29584     0.012696  0.012004969           26 
 1296000   0.74108186   -8.5470628    196.91205  0.012661526  0.011993828           43 
 1297000   0.75092867   -8.5643166    196.71565  0.012639145  0.011982686           32 
 1298000    0.7341435   -8.5718122    196.93015  0.012643178  0.011971552           28 
 1299000    0.7339572   -8.5502531    197.16747   0.01264867  0.011960467           52 
 1300000   0.72217175   -8.5590151    197.01649  0.012629262  0.011949379           43 
 1301000   0.72998563   -8.5511294    197.41011  0.012644767   0.01193827           44 
 1302000   0.71463362   -8.5757577    197.02659  0.012610509  0.011927196           37 
 1303000   0.74021322   -8.5587318    197.03175  0.012601161  0.011916134           41 
 1304000    0.7079402   -8.5747613    196.82176  0.012578078   0.01190503           45 
 1305000   0.73057192    -8.585469    196.81243  0.012567844  0.011893925           38 
 1306000   0.73692055   -8.5549068    197.08957  0.012575904  0.011882818           43 
 1307000   0.72165176   -8.5664075    196.43387  0.012524475  0.011871753           30 
 1308000   0.73366414   -8.5662807    196.91467  0.012545532  0.011860697           29 
 1309000   0.73270639   -8.6019043    197.03442  0.012543572  0.011849653           37 
 1310000   0.73826698   -8.5682055    196.94842  0.012528525  0.011838573           50 
 1311000   0.73728575   -8.5914569    196.96557  0.012520059  0.011827517           59 
 1312000   0.72896098   -8.5913918    196.56758  0.012485238  0.011816431           52 
 1313000   0.73078144   -8.5891162    196.88716  0.012496012  0.011805408           66 
 1314000   0.72019859   -8.5870767    196.79292  0.012480525  0.011794387           57 
 1315000    0.7254941   -8.5650312    196.87079  0.012475969  0.011783403           23 
 1316000   0.71849853   -8.5891652    196.81586   0.01246301  0.011772432           69 
 1317000   0.72286736   -8.5652203    197.13676  0.012473852  0.011761485           58 
 1318000   0.72495855   -8.5619307    196.70236  0.012436922  0.011750538           52 
 1319000   0.72867112   -8.5975248     197.1397  0.012455124  0.011739593           61 
 1320000   0.72622395   -8.5783415    196.87714  0.012429113  0.011728667           78 
 1321000   0.72703231   -8.5786897     196.8785  0.012419789   0.01171776           70 
 1322000   0.71908893      -8.5883     196.9663  0.012415929  0.011706852           59 
 1323000   0.73006756   -8.5868081     197.0318   0.01241067  0.011695954           35 
 1324000   0.72132437   -8.5949269    197.18457  0.012410912  0.011685055           67 
 1325000   0.72924498    -8.597806     197.2522  0.012405799  0.011674139           80 
 1326000   0.71833218      -8.6218    196.46073  0.012346702  0.011663229           56 
 1327000   0.73078501   -8.6017169    196.48442  0.012338886  0.011652319           55 
 1328000    0.7233568   -8.5985634    196.93618  0.012357943  0.011641391           57 
 1329000   0.70566305   -8.6072931    196.78116  0.012338924  0.011630468           63 
 1330000   0.74762548   -8.6122954    196.67329  0.012322888  0.011619556           49 
 1331000   0.73011461   -8.6071375    197.02957  0.012335936   0.01160863           35 
 1332000   0.70700122   -8.5940752    196.99743  0.012324664  0.011597751           55 
 1333000   0.72343663   -8.6053566    196.75593  0.012300321  0.011586886           54 
 1334000   0.73529731    -8.572727    197.38873   0.01233063  0.011576049           59 
 1335000   0.71658157   -8.5903834    196.91695  0.012291944  0.011565255           34 
 1336000   0.72900753    -8.610207    196.80536  0.012275783  0.011554416           65 
 1337000   0.71071442   -8.6043646    196.62413  0.012255306   0.01154359           51 
 1338000    0.7275203   -8.6085953    196.87003  0.012261462  0.011532807           84 
 1339000   0.73289034   -8.6237486    197.21485  0.012273765  0.011522042           51 
 1340000   0.71769995   -8.6192118    196.83104  0.012240736  0.011511265           77 
 1341000   0.73525158   -8.6242255    196.27816  0.012197251  0.011500487           53 
 1342000   0.71488585   -8.6400398    196.69644  0.012214136  0.011489725           69 
 1343000   0.71303701   -8.6394431    196.59722  0.012198884  0.011478949           53 
 1344000    0.7201646   -8.6163787    196.48731  0.012182993  0.011468185           45 
 1345000   0.71861649   -8.6408295     196.3014  0.012162416  0.011457437           53 
 1346000   0.72340361   -8.6438387    196.55397  0.012169018  0.011446682           65 
 1347000   0.71224794   -8.6210433    196.81362  0.012176047  0.011435927           73 
 1348000   0.69688356   -8.6191995    196.73929  0.012162419  0.011425163           64 
 1349000     0.731318   -8.5942585     196.7844   0.01215619  0.011414427           52 
 1350000   0.72961196    -8.651825    196.63476  0.012137948   0.01140371           73 
 1351000   0.72075468   -8.6131712     197.3631   0.01217389  0.011393022           80 
 1352000    0.7157342   -8.5964533    197.20761  0.012155302  0.011382363           64 
 1353000   0.71325134   -8.6218227     197.2083   0.01214636  0.011371711           60 
 1354000   0.71586961   -8.6228869    197.19378  0.012136496   0.01136108           81 
 1355000   0.70843421   -8.6028895    197.03536  0.012117796  0.011350427          105 
 1356000   0.71546065   -8.6110361    196.74884  0.012091251  0.011339803           52 
 1357000   0.70419946   -8.6488041    196.60374   0.01207343  0.011329191           74 
 1358000   0.71513838   -8.6121257    197.07077  0.012093199  0.011318581           75 
 1359000   0.69647838   -8.6297422    196.49291  0.012048866  0.011307935           82 
 1360000   0.70631225   -8.6345614    196.69924   0.01205265  0.011297319           78 
 1361000   0.71350693   -8.6290672    196.47193  0.012029876  0.011286715           89 
 1362000   0.72269653   -8.6313602    196.92196  0.012048578  0.011276136          106 
 1363000   0.70423702   -8.6512681    196.83758   0.01203458  0.011265524           72 
 1364000   0.69821113   -8.6443736    196.56701  0.012009226  0.011254923           90 
 1365000   0.70932727   -8.6519179    196.51929  0.011997515  0.011244338           85 
 1366000   0.71303983   -8.6566951    196.62567  0.011995221  0.011233782           91 
 1367000    0.6938149   -8.6173275    196.30827  0.011967097  0.011223214           61 
 1368000    0.7150068   -8.6410015    197.08085  0.012005412  0.011212704          101 
 1369000   0.71167519   -8.6381558    197.13289  0.011999811  0.011202207           84 
 1370000   0.70801198   -8.6406404    197.03288  0.011984968  0.011191707          105 
 1371000   0.71457712   -8.6281228    196.95559  0.011971528   0.01118117           78 
 1372000   0.71113115   -8.6323627    196.99329  0.011965093  0.011170676           81 
 1373000   0.70457999   -8.6359547    196.74525  0.011941324   0.01116018           80 
 1374000   0.69650988    -8.649556    196.68112  0.011928743  0.011149714           87 
 1375000    0.6985123   -8.6464525    196.80136  0.011927355  0.011139238           95 
 1376000    0.7215117   -8.6416932    196.61884  0.011907633  0.011128774           81 
 1377000   0.71676669   -8.6493258    196.85958  0.011913555  0.011118302           85 
 1378000   0.70719629   -8.6245942    196.96131  0.011911061  0.011107855           80 
 1379000   0.68413408   -8.6446953    196.78532  0.011891789  0.011097421          103 
 1380000   0.71312303   -8.6674325    196.56718  0.011869999   0.01108701           61 
 1381000   0.69981432   -8.6481096     197.0132  0.011888318  0.011076606           94 
 1382000   0.73245148   -8.6479774    196.60638  0.011855184  0.011066195           82 
 1383000   0.69896193   -8.6282855    196.92692  0.011865927  0.011055797           83 
 1384000   0.71509679    -8.679823    196.78878  0.011849035  0.011045414           81 
 1385000   0.69287228   -8.6647451    196.50388  0.011823338  0.011035049           88 
 1386000   0.70011339   -8.6627853    196.46595  0.011812527  0.011024667          109 
 1387000   0.70610448   -8.7017359    196.96096  0.011833751  0.011014315          101 
 1388000   0.70024956   -8.6535998     196.5884  0.011802858  0.011003952           97 
 1389000   0.70773831   -8.6628033    196.46099  0.011786717  0.010993588          110 
 1390000   0.71134284   -8.6730822     196.5356   0.01178271   0.01098323          113 
 1391000     0.693481   -8.6540723    196.45203  0.011769232  0.010972878          122 
 1392000   0.69664877   -8.6789397    196.46312  0.011761441  0.010962556          124 
 1393000   0.69578106   -8.6893521    196.53053  0.011757031  0.010952234          145 
 1394000    0.7001956   -8.6719924    196.46115   0.01174445  0.010941891          154 
 1395000   0.68581828    -8.693235    196.27397  0.011724849  0.010931568          137 
 1396000   0.69571021   -8.6760451    196.48493  0.011729043  0.010921236          108 
 1397000   0.69089824    -8.686508    196.16569  0.011701604  0.010910905          138 
 1398000   0.69569996   -8.6941598    196.68156  0.011723984   0.01090059          129 
 1399000    0.6857252   -8.6507012    196.46514  0.011702713  0.010890297          122 
 1400000   0.69168661   -8.6910135    196.33565  0.011686646  0.010879995          121 
 1401000   0.68156841   -8.6934717    196.66958  0.011698167  0.010869713          119 
 1402000   0.69439923   -8.6789945    196.54052  0.011682152  0.010859435          138 
 1403000   0.67729045   -8.6675962    196.18478  0.011652695  0.010849193          114 
 1404000   0.70516838   -8.6777302    196.30119  0.011651305  0.010838954           97 
 1405000   0.68590953   -8.6797758    196.55183  0.011657878  0.010828718           98 
 1406000   0.69357448   -8.7159994    195.94593  0.011613676  0.010818491          137 
 1407000   0.69653283   -8.6989171    196.21699  0.011621475  0.010808269          139 
 1408000   0.68300098   -8.6962264     196.5628  0.011633688  0.010798038          257 
 1409000   0.70824496    -8.705901    196.38966  0.011615192  0.010787848          129 
 1410000    0.6984736   -8.6896161    196.58517  0.011618509   0.01077766          127 
 1411000   0.69112246   -8.6873576    196.74013  0.011619427  0.010767475          167 
 1412000   0.68401566   -8.6957784    196.75522  0.011612088  0.010757325          153 
 1413000   0.68071057   -8.6897393    196.30258  0.011577175  0.010747207          163 
 1414000   0.70109273   -8.6902079    196.31561  0.011569755  0.010737077          131 
 1415000   0.67272255   -8.6926394    196.66699  0.011582273  0.010726959          176 
 1416000   0.67697735   -8.6501202    197.08738  0.011598834   0.01071686          165 
 1417000   0.69340032   -8.6721726    196.66898  0.011566042  0.010706779          168 
 1418000   0.68330851   -8.7026048    196.38529  0.011541213  0.010696687          150 
 1419000    0.6898109   -8.7011811    196.34289   0.01153059  0.010686601          151 
 1420000   0.68435183   -8.6789589    196.39992  0.011525817  0.010676523          114 
 1421000   0.68403741   -8.6838122    196.61376  0.011530246  0.010666486          140 
 1422000   0.67930381   -8.6799965    196.54039  0.011517838  0.010656458          148 
 1423000   0.68760902   -8.6978651    196.64655  0.011515961  0.010646441          168 
 1424000   0.68603652   -8.6896777    196.89346  0.011522323  0.010636444          183 
 1425000   0.68593601   -8.6893089    196.56039   0.01149476  0.010626432          202 
 1426000   0.69855077   -8.7121318    196.70071  0.011494899  0.010616426          169 
 1427000   0.67790337   -8.7086308    196.47973  0.011473939  0.010606413          183 
 1428000      0.69279   -8.6879239    196.71338  0.011479539  0.010596404          170 
 1429000   0.68073825   -8.7054705    196.46235  0.011456867  0.010586399          183 
 1430000   0.68123789   -8.7198653    196.07828  0.011426473  0.010576406          238 
 1431000   0.68298961   -8.7081917    196.13555  0.011421823   0.01056641          172 
 1432000    0.6779232   -8.7220373    196.24303  0.011420102  0.010556403          189 
 1433000   0.69103076   -8.7191995     196.5474  0.011429832  0.010546415          184 
 1434000   0.68141974   -8.7210869    196.28534  0.011406633  0.010536441          178 
 1435000   0.67430483   -8.7046012    196.39279  0.011404924  0.010526452          183 
 1436000    0.6693376   -8.7197747    196.58343  0.011408045  0.010516476          162 
 1437000    0.6855087    -8.714398    195.70694  0.011349277  0.010506492          195 
 1438000   0.68368953   -8.7331323    195.94085   0.01135494  0.010496544          181 
 1439000   0.68723366   -8.7092275    196.05499  0.011353659  0.010486595          189 
 1440000   0.67824033   -8.7433574    195.75691  0.011328525  0.010476664          186 
 1441000   0.67879991   -8.7433621    196.39243  0.011357416   0.01046674          153 
 1442000   0.67552409   -8.7252246    196.40047  0.011350004  0.010456837          180 
 1443000   0.67720381   -8.7176738    196.35107  0.011339286  0.010446944          182 
 1444000   0.67740798   -8.7412549    196.38974  0.011333665  0.010437061          172 
 1445000   0.66405251   -8.7423781    195.90175  0.011297679  0.010427158          204 
 1446000   0.68774421   -8.7321044    196.02794  0.011297138  0.010417277          180 
 1447000   0.68427889   -8.7551215    196.22171   0.01130049  0.010407405          183 
 1448000   0.66808252   -8.7342079    196.05993  0.011283375  0.010397529          167 
 1449000   0.69692115   -8.7290482     196.2439  0.011286169  0.010387676          188 
 1450000   0.68906347   -8.7319744    196.44091  0.011289707  0.010377859          153 
 1451000   0.68450989   -8.7364855    196.38965  0.011278983  0.010368045          147 
 1452000   0.68434238   -8.7645936     196.0953  0.011254321  0.010358243          201 
 1453000   0.65741389   -8.7390099     196.0625  0.011244695  0.010348426          160 
 1454000   0.67313053   -8.7533602    195.78529  0.011221073  0.010338634          175 
 1455000   0.67954999   -8.7417569    196.03665  0.011227758  0.010328864          185 
 1456000   0.66624794     -8.76662    196.22915  0.011231064  0.010319093          178 
 1457000   0.67259562   -8.7449352    196.38399  0.011232212   0.01030934          189 
 1458000   0.66770291   -8.7655899    196.06904  0.011206507  0.010299587          167 
 1459000   0.66001495   -8.7570121    196.06321  0.011198492   0.01028984          155 
 1460000   0.66702403   -8.7683303    196.31072   0.01120495  0.010280102          157 
 1461000   0.66201271   -8.7462225    196.18321  0.011190008  0.010270403          204 
 1462000   0.67636654    -8.788726    196.00613   0.01117226  0.010260688          139 
 1463000   0.66906977   -8.7463404     196.8091  0.011210361  0.010250992          163 
 1464000   0.65878718   -8.7494489    195.96711  0.011154776  0.010241279          166 
 1465000   0.65490451   -8.7763672    195.87877  0.011142137  0.010231569          177 
 1466000   0.66317196   -8.7300993    196.44308  0.011166614  0.010221879          168 
 1467000   0.66339392   -8.7480092    196.34297  0.011153316  0.010212198          171 
 1468000   0.65309725   -8.7681253     195.6108  0.011104155  0.010202522          171 
 1469000   0.66775399   -8.7742048    195.53428  0.011092255  0.010192849          169 
 1470000   0.67491336   -8.7678392    196.17826  0.011121217  0.010183212          175 
 1471000   0.67969678   -8.7767178    196.20251   0.01111503  0.010173562          172 
 1472000   0.68720845   -8.7747709    195.85023  0.011087535   0.01016394          170 
 1473000   0.66985957   -8.7827832    195.91662  0.011083764  0.010154311          175 
 1474000   0.67019554   -8.7757131    195.80523  0.011069947  0.010144706          183 
 1475000   0.66084818   -8.7772505    195.78824  0.011061482  0.010135117          160 
 1476000   0.65707763   -8.7530219    195.97103  0.011064308  0.010125541          171 
 1477000   0.65762087   -8.7857058    196.22721  0.011071271  0.010115961          215 
 1478000   0.66633152   -8.7660863      195.777  0.011038397  0.010106406          218 
 1479000   0.67071004    -8.785475    195.97755  0.011042233  0.010096872          188 
 1480000   0.66813859   -8.7836103     195.8843  0.011029521  0.010087333          180 
 1481000   0.65842872   -8.7808767    195.67719   0.01101042  0.010077791          165 
 1482000   0.66096562   -8.7766079    196.20262  0.011032536  0.010068266          166 
 1483000   0.65805568   -8.7690152    196.01555  0.011014584   0.01005875          197 
 1484000   0.66331084   -8.7547672    196.14512  0.011014438  0.010049251          191 
 1485000   0.65842622   -8.7834289     196.1968  0.011009922  0.010039756          198 
 1486000   0.66472216   -8.7763236    196.39654  0.011013713  0.010030274          183 
 1487000   0.66953828   -8.7998589    195.44173  0.010952798    0.0100208          185 
 1488000   0.66858202   -8.7595553    196.00288  0.010976864  0.010011337          190 
 1489000   0.64787106   -8.7749914    196.09948  0.010974898  0.010001873          223 
 1490000   0.66819212   -8.7703845    196.05054  0.010964795 0.0099924013          193 
 1491000   0.67846454   -8.7940592    195.54408  0.010929135 0.0099829535          199 
 1492000   0.65617805   -8.7798492    196.23904  0.010960626 0.0099735173          207 
 1493000   0.65533462   -8.7692245    195.96125  0.010937779  0.009964092          209 
 1494000   0.65373193   -8.7981453    195.81944  0.010922548 0.0099546888          407 
 1495000    0.6703308   -8.7903591    195.84534  0.010916686 0.0099452763          181 
 1496000   0.67501654   -8.7962182    195.82329   0.01090816  0.009935877          220 
 1497000    0.6526476   -8.7859369    196.02849  0.010912296 0.0099264897          233 
 1498000   0.66042617   -8.7740951    196.13562  0.010910971 0.0099171203          194 
 1499000   0.66433469   -8.7776159    195.81056  0.010885622 0.0099077641          204 
 1500000   0.64974214   -8.7842281    195.94893  0.010886052 0.0098984181          215 
 1501000   0.65111706   -8.7887955    196.34302  0.010900678 0.0098890661          198 
 1502000   0.64410535   -8.7881911    196.17682    0.0108842 0.0098797262          218 
 1503000   0.65037061   -8.7953378    195.87505  0.010860227 0.0098703969          222 
 1504000   0.63492028   -8.8067481    196.10063  0.010865505 0.0098610829          218 
 1505000   0.65657499   -8.7853895    196.02685    0.0108542 0.0098517742          202 
 1506000   0.64873141   -8.7916855    195.84683  0.010837031  0.009842489          221 
 1507000   0.66101537   -8.7993685    196.05307  0.010841245 0.0098332052          201 
 1508000   0.65056102   -8.7978518    195.77047  0.010818439 0.0098239272          201 
 1509000   0.64827101   -8.8438236    195.59592   0.01080163 0.0098146578          197 
 1510000   0.65690024   -8.8234755     195.4273  0.010785171 0.0098053798          229 
 1511000   0.65578577   -8.8079527    195.83141  0.010800321 0.0097961311          211 
 1512000   0.65248409   -8.8055648    195.82545  0.010792849 0.0097868973          228 
 1513000   0.64977337   -8.8027322    195.84183  0.010786617 0.0097776681          205 
 1514000   0.63616822   -8.7997537    195.92897  0.010784289 0.0097684491          206 
 1515000    0.6549019   -8.8280277    195.67106  0.010762985 0.0097592643          207 
 1516000   0.63935091   -8.8160105    196.03534  0.010775909 0.0097500648          211 
 1517000   0.64914402   -8.7940923    195.94244  0.010763702 0.0097408713          240 
 1518000   0.63570396   -8.8216311    195.74448  0.010745744 0.0097316897          213 
 1519000    0.6694272   -8.8417377    195.51118  0.010725871 0.0097225084          208 
 1520000   0.63777263   -8.8229098    195.60839  0.010724144 0.0097133537          238 
 1521000   0.64463918   -8.8093729    195.55547  0.010714194 0.0097042005          211 
 1522000   0.63322157   -8.8033555    195.69727  0.010714918 0.0096950479          225 
 1523000   0.64460831   -8.8067196    195.78765  0.010712828 0.0096859205          222 
 1524000   0.64712243   -8.8155846    195.89309  0.010711564 0.0096767865          233 
 1525000    0.6561373   -8.8260314    195.76346  0.010697457 0.0096676778          259 
 1526000   0.63658166   -8.8191153    195.91723  0.010698844 0.0096585883          251 
 1527000   0.63497209   -8.8117962    195.88573  0.010690119  0.009649514          241 
 1528000   0.65280198   -8.8341381    195.91056  0.010684476   0.00964045          229 
 1529000   0.64286616   -8.8119392    195.77189  0.010669931 0.0096313889          255 
 1530000   0.64062162   -8.8102615    195.61771  0.010654559 0.0096223422          241 
 1531000   0.64669839   -8.8180722    195.72221  0.010653288 0.0096133045          264 
 1532000   0.65069803   -8.8028441    195.45866  0.010631999 0.0096042668          229 
 1533000   0.63990524   -8.7874268    195.69117  0.010637702 0.0095952622          232 
 1534000   0.63091558   -8.8357625    195.94597  0.010644609 0.0095862494          269 
 1535000   0.64675253   -8.8221168    195.70253  0.010624459 0.0095772475          262 
 1536000   0.62040632   -8.8176249    195.74828  0.010620024 0.0095682593          254 
 1537000   0.63358648   -8.8124707    195.95308  0.010624218 0.0095592607          236 
 1538000   0.62563568   -8.8264374    195.60836  0.010598633 0.0095502803          255 
 1539000    0.6340868   -8.8239668    195.63379  0.010593122 0.0095413042          244 
 1540000   0.63801452   -8.8356071    195.55812  0.010582149 0.0095323417          241 
 1541000    0.6288621   -8.8374522    195.52352  0.010573411 0.0095233657          279 
 1542000    0.6306352   -8.8342476    195.13206  0.010545399 0.0095144133          247 
 1543000   0.63700507   -8.8362318    195.33389  0.010549465 0.0095054696          278 
 1544000   0.63092874   -8.8290457    195.61812  0.010557973  0.009496541          268 
 1545000     0.632488   -8.8477234    195.53583    0.0105467 0.0094876126          275 
 1546000   0.64207041   -8.8351985    195.89523  0.010559251 0.0094787003          273 
 1547000   0.63184877   -8.8225304    195.85829  0.010550436 0.0094697978          276 
 1548000   0.64132452    -8.822256    195.46468  0.010522431 0.0094609028          290 
 1549000   0.62529291   -8.8472216    195.66908  0.010526634  0.009452011          263 
 1550000   0.64519416   -8.8403271    195.41752  0.010506318 0.0094431186          266 
 1551000   0.63345834   -8.8375709    195.49301  0.010503601 0.0094342349          273 
 1552000   0.64644473   -8.8530835     195.6047   0.01050283 0.0094253668          300 
 1553000   0.63772419   -8.8431793    195.39838  0.010484996  0.009416508          299 
 1554000   0.64837663   -8.8247338    195.76145  0.010497718 0.0094076505          298 
 1555000   0.64393394    -8.849538    195.19937  0.010460845 0.0093987988          270 
 1556000   0.63683465   -8.8437995     195.6128  0.010476264 0.0093899567          266 
 1557000   0.64309699   -8.8671004    195.45796  0.010461248 0.0093811204          299 
 1558000   0.63661655   -8.8557527    195.32775  0.010447569  0.009372306          291 
 1559000   0.62594138   -8.8654809    195.25987  0.010437239 0.0093635095          282 
 1560000   0.62678532   -8.8447896     195.7687   0.01045773 0.0093547185          264 
 1561000   0.63461116   -8.8316504    195.40435   0.01043158 0.0093459401          274 
 1562000   0.62940622   -8.8755601    195.71175  0.010441301 0.0093371503          280 
 1563000   0.63365043    -8.861423    195.69952  0.010433969 0.0093283784          266 
 1564000   0.63108824   -8.8895251    195.17287  0.010399236 0.0093196114          304 
 1565000   0.62204049   -8.8629256    195.89743  0.010431173 0.0093108459          279 
 1566000   0.62356781   -8.8638841    195.25211  0.010390172 0.0093020993          295 
 1567000    0.6287775   -8.8469885    195.15785  0.010378528  0.009293356          316 
 1568000   0.62276729   -8.8672731    195.35883  0.010382591 0.0092846288          315 
 1569000   0.62465172   -8.8316642    195.49398  0.010383152 0.0092759124          308 
 1570000   0.61947614   -8.8693482    195.41742  0.010372475 0.0092672112          558 
 1571000   0.63583993   -8.8501183    195.38033  0.010363905 0.0092585072          319 
 1572000   0.61831834   -8.8652572    195.03137  0.010338813 0.0092498074          295 
 1573000   0.60743479   -8.8606169    195.57184  0.010360873 0.0092411408          565 
 1574000   0.60644822   -8.8488805    195.65334  0.010358606 0.0092324817          303 
 1575000   0.62561388   -8.8757827    195.26252   0.01033135 0.0092238449          591 
 1576000   0.60190133   -8.8857274    195.66377  0.010346012 0.0092152042          334 
 1577000    0.6236922   -8.8685112    195.60294  0.010336237 0.0092065795          302 
 1578000   0.62776984   -8.8711266     195.3642  0.010317079 0.0091979719          331 
 1579000   0.61905788   -8.8856869    195.12285  0.010297807 0.0091893595          308 
 1580000   0.61831321   -8.8765124    195.18678  0.010294661 0.0091807446          344 
 1581000   0.61839538   -8.8664187    195.51615  0.010305511 0.0091721478          612 
 1582000   0.60646733   -8.8781621    195.61918  0.010304424 0.0091635505          668 
 1583000   0.62258394   -8.8832683     195.2162    0.0102767  0.009154969          325 
 1584000   0.61799253    -8.896095    195.46458   0.01028328 0.0091463893          343 
 1585000   0.62167465    -8.870333     195.2385  0.010264905 0.0091378154          614 
 1586000   0.63200231   -8.8868969    195.75351  0.010285493 0.0091292624          330 
 1587000   0.61065327   -8.8913978    195.29167  0.010254761  0.009120698          329 
 1588000   0.62586391   -8.8911552    195.34058   0.01025087  0.009112153          315 
 1589000   0.62700663   -8.8824927    195.70297  0.010263424 0.0091036203          300 
 1590000   0.61149362   -8.8796112    195.26107  0.010233809  0.009095098          328 
 1591000    0.6194531   -8.9030238    195.22676  0.010225579 0.0090865668          333 
 1592000   0.62804019   -8.9028392    195.29402  0.010222677 0.0090780613          313 
 1593000   0.60719452   -8.8920135     195.0766  0.010204886 0.0090695488          301 
 1594000   0.62418562   -8.9079899    195.04879   0.01019703 0.0090610534          310 
 1595000   0.62746027   -8.8711674    194.99723  0.010187943 0.0090525652          309 
 1596000    0.6179721   -8.8714246    195.05351  0.010184498 0.0090440871          307 
 1597000   0.62423259   -8.8892128    195.19504  0.010185506  0.009035623          643 
 1598000   0.60653554   -8.8899096    194.98892  0.010168383 0.0090271707          299 
 1599000   0.61679211    -8.887614    195.00248  0.010162731 0.0090187267          294 
 1600000   0.62659126   -8.8889562    194.84542  0.010148199  0.009010292          306 
 1601000   0.61977181    -8.906406    195.11704  0.010155998 0.0090018512          347 
 1602000   0.60762905   -8.9086129    195.02088  0.010144657 0.0089934329          333 
 1603000   0.59993783   -8.8999466    194.94709  0.010134492 0.0089850275          624 
 1604000   0.60823868   -8.8926784     195.0122  0.010131556 0.0089766287          608 
 1605000   0.60732133   -8.8973706     195.2165  0.010135852 0.0089682496          588 
 1606000   0.61994026    -8.882718    195.27459  0.010132555 0.0089598697          291 
 1607000   0.60833919   -8.8957557    195.19395  0.010122067  0.008951489          575 
 1608000   0.61794773    -8.901213    195.13498  0.010112717 0.0089431219          609 
 1609000   0.60442781   -8.9118347    195.13708   0.01010654 0.0089347595          313 
 1610000    0.6045287   -8.8979057    195.31762  0.010109608 0.0089264046          292 
 1611000      0.61884   -8.8877088    195.09033  0.010091575 0.0089180619          311 
 1612000   0.62753762   -8.9136299     194.9865  0.010079947 0.0089097365          584 
 1613000   0.61936402   -8.9072318    194.70874  0.010059348 0.0089014135          312 
 1614000    0.6166734   -8.8883105    195.05351  0.010070916 0.0088930982          309 
 1615000    0.5999071   -8.9072822    194.86474   0.01005494 0.0088847918          623 
 1616000   0.60737449   -8.8906025     195.1297  0.010062381 0.0088764789          313 
 1617000    0.6106585   -8.9125171    195.20729  0.010060157 0.0088681964          643 
 1618000   0.60076902   -8.9103003    195.05657  0.010046177 0.0088599042          342 
 1619000   0.60270938   -8.8930871    194.99849  0.010036982 0.0088516297          324 
 1620000   0.60150263   -8.8935952    194.87847  0.010024613 0.0088433665          306 
 1621000   0.61559907   -8.8723007    194.95286  0.010022253 0.0088351123          301 
 1622000   0.61166057   -8.8994363    195.04525   0.01002082 0.0088268529          313 
 1623000   0.59803796   -8.9051583    194.90982  0.010007693 0.0088186036          607 
 1624000   0.59699225   -8.9168295    194.90767   0.01000142  0.008810353          333 
 1625000   0.59817086    -8.910744    194.50228 0.0099744758 0.0088021247          669 
 1626000   0.60973072   -8.8970799    194.80898   0.00998406 0.0087938886          317 
 1627000   0.60336311   -8.9020005    195.10103 0.0099928819  0.008785663          625 
 1628000   0.61801506   -8.9438916    194.52138  0.009957073 0.0087774412          639 
 1629000   0.61817268   -8.9095338    194.88402 0.0099695118 0.0087692316          350 
 1630000   0.59910157   -8.9075105    195.21164 0.0099801452 0.0087610465          310 
 1631000    0.6065224   -8.9486527    194.92155 0.0099592046 0.0087528671          352 
 1632000   0.61471988   -8.9098779     194.8246 0.0099481518  0.008744676          350 
 1633000   0.60879814   -8.9205105    194.65989 0.0099336544 0.0087365138          327 
 1634000    0.6041915   -8.9050586    194.86233 0.0099378993 0.0087283558          372 
 1635000   0.58837912   -8.9122698    194.93252 0.0099353988 0.0087202198          321 
 1636000   0.58727214   -8.9299862     194.9048 0.0099279138 0.0087121006          335 
 1637000   0.59839665   -8.9213441    194.87582 0.0099203736  0.008703977          345 
 1638000   0.59509769    -8.926135    194.78315 0.0099096027 0.0086958794          676 
 1639000   0.59028146   -8.8991418    195.06268 0.0099177688 0.0086877831          644 
 1640000    0.5934624   -8.9292053     194.9266 0.0099048067 0.0086796897          328 
 1641000   0.60737859   -8.9340114    194.98125 0.0099015462 0.0086716145          354 
 1642000   0.59528997   -8.9125932    194.86288 0.0098895088 0.0086635606          663 
 1643000   0.60398172     -8.90565    195.12168  0.009896616 0.0086555005          680 
 1644000   0.60191529   -8.9291254    194.73824 0.0098711598  0.008647451          688 
 1645000    0.5981627   -8.9373821    194.73303 0.0098648949 0.0086394109          334 
 1646000   0.59508804   -8.9200105    195.07665 0.0098762987 0.0086313734          330 
 1647000   0.58931033   -8.9275921    194.68482 0.0098504765 0.0086233492          332 
 1648000   0.59850611   -8.9288833    194.71144 0.0098458453 0.0086153323          366 
 1649000   0.58511096   -8.9474294    194.66169 0.0098373604 0.0086073248          370 
 1650000   0.59541427   -8.9338806    194.46559 0.0098214946 0.0085993351          665 
 1651000   0.58197666   -8.9509472    194.59134 0.0098218929  0.008591343          379 
 1652000    0.5983332   -8.9219206     194.6784 0.0098203388 0.0085833699          337 
 1653000   0.58052075   -8.9269557    194.99967 0.0098305941 0.0085754047          664 
 1654000   0.59149429   -8.9284299    194.88513 0.0098188801 0.0085674472          342 
 1655000   0.58203007   -8.9447268    194.90248 0.0098138209  0.008559487          373 
 1656000   0.59222425   -8.9426482    194.86047 0.0098057803 0.0085515446          345 
 1657000   0.57452921   -8.9448405    194.69342 0.0097914613 0.0085435954          331 
 1658000   0.59358744   -8.9402097    194.75122 0.0097884608 0.0085356595          757 
 1659000   0.59130516   -8.9592375    194.45584 0.0097677235 0.0085277294          707 
 1660000   0.60255572   -8.9300913    194.37342 0.0097577019 0.0085198185          359 
 1661000   0.60497658   -8.9390662    194.73837 0.0097701372 0.0085119206          384 
 1662000   0.58056758   -8.9597656    194.45609 0.0097501049 0.0085040301          762 
 1663000   0.59831217   -8.9485925    194.71484 0.0097572077 0.0084961389          389 
 1664000   0.57659704   -8.9315493    194.86258 0.0097587431  0.008488256          412 
 1665000   0.57639644    -8.952487    194.91636 0.0097555736 0.0084803799          423 
 1666000   0.58903444   -8.9436297    194.69475 0.0097386328  0.008472519          823 
 1667000   0.57076852   -8.9170021    194.46697 0.0097214041  0.008464679          434 
 1668000   0.58000768   -8.9394734    194.54194 0.0097193213   0.00845684          405 
 1669000   0.58069276    -8.934628    195.03864 0.0097382985 0.0084490077          781 
 1670000   0.57503578   -8.9279509    194.66836 0.0097139898 0.0084411922          785 
 1671000   0.58721333    -8.940212    194.99507   0.00972447  0.008433406          391 
 1672000   0.58191246    -8.941192    194.88314 0.0097130749 0.0084256196          400 
 1673000     0.581467   -8.9573251     194.8081 0.0097035316 0.0084178335          411 
 1674000   0.57356187   -8.9441069    194.88845 0.0097017349 0.0084100596          392 
 1675000   0.59365516    -8.963854    194.66026 0.0096845899 0.0084022913          803 
 1676000   0.58401386   -8.9579848    194.38357 0.0096650541 0.0083945347          416 
 1677000   0.58869173    -8.940565    194.73718 0.0096768623  0.008386784          762 
 1678000   0.57775185    -8.955737    194.72871 0.0096706748 0.0083790359          409 
 1679000   0.56370772   -8.9562118    194.40422 0.0096488098 0.0083712926          862 
 1680000     0.587522   -8.9655124    194.92634 0.0096689654 0.0083635615          405 
 1681000   0.57246104   -8.9813967    194.54993 0.0096445534 0.0083558268          437 
 1682000   0.57429484   -8.9541378    194.36039  0.009629429 0.0083481018          410 
 1683000   0.58293403   -8.9664127    194.42135 0.0096267255 0.0083403918          822 
 1684000   0.57215523    -8.973057    194.80786 0.0096401354  0.008332694          456 
 1685000   0.58346793   -8.9638265    194.77741 0.0096329084 0.0083250122          426 
 1686000   0.57353039   -8.9550454    194.62652 0.0096197369 0.0083173466          798 
 1687000   0.57678372   -8.9655035    194.66389 0.0096158806 0.0083096774          754 
 1688000   0.57885482   -8.9637107    194.49361 0.0096017777 0.0083020261          408 
 1689000   0.56891877   -8.9628161    194.82521 0.0096124536 0.0082943729          423 
 1690000   0.57876717   -8.9653248    194.69477 0.0096003338 0.0082867294          764 
 1691000   0.57886408   -8.9700932    194.45246 0.0095827154 0.0082791021          381 
 1692000   0.57191271   -8.9629235    194.98605 0.0096033319 0.0082714736          757 
 1693000     0.579756   -8.9704662    194.58737 0.0095780355 0.0082638619          378 
 1694000    0.5732301   -8.9820271    194.48919 0.0095675517 0.0082562511          398 
 1695000   0.57834663    -8.974396    194.64066 0.0095693539 0.0082486521          734 
 1696000   0.57936869   -8.9748836    194.55291 0.0095594001 0.0082410731          814 
 1697000   0.56514298   -8.9793878    194.74197  0.009563051 0.0082334995          397 
 1698000   0.57308708   -8.9806355    194.59938 0.0095504209 0.0082259372          380 
 1699000   0.58186155   -8.9913371    194.40133 0.0095350859 0.0082183705          407 
 1700000   0.58557651   -8.9773097    194.76994 0.0095475458 0.0082108257          838 
 1701000   0.57845197   -8.9615578    194.74439 0.0095406813 0.0082032811          837 
 1702000   0.57616344   -8.9795901    194.60277 0.0095281417 0.0081957483          420 
 1703000   0.56291779   -8.9920896    194.67297 0.0095259821 0.0081882207          406 
 1704000   0.57231652   -8.9941681    194.64247 0.0095188999 0.0081806966          800 
 1705000   0.57289893   -8.9911152    194.10014 0.0094868105  0.008173179          827 
 1706000   0.56932815   -8.9859542    193.91097 0.0094720091 0.0081656709          403 
 1707000   0.57216496    -8.983457    194.66075 0.0095030634 0.0081581692          815 
 1708000   0.55903779   -8.9808398    194.41137 0.0094853321 0.0081506693          396 
 1709000     0.572013   -8.9906026    194.50616 0.0094844042  0.008143176          408 
 1710000   0.56178544    -8.978674    194.64689  0.009485716 0.0081357026          819 
 1711000   0.56775891   -8.9677451    194.70423 0.0094829646 0.0081282294          419 
 1712000   0.57370077   -8.9736888    194.50185 0.0094675745 0.0081207746          432 
 1713000    0.5713517   -9.0053369     194.2293 0.0094487889 0.0081133171          790 
 1714000    0.5657102   -8.9867984    194.25157 0.0094443586 0.0081058602          819 
 1715000   0.57951566   -9.0064296    194.06626 0.0094298475  0.008098413          793 
 1716000   0.56269154   -9.0025694    194.40121 0.0094406182 0.0080909795          832 
 1717000   0.57214367   -8.9915255    194.13351 0.0094221271 0.0080835615          821 
 1718000   0.56737743   -8.9992739    194.69821 0.0094440343 0.0080761475          403 
 1719000   0.56506654   -8.9897425    194.47666 0.0094278001 0.0080687443          818 
 1720000   0.56978045   -9.0023757     194.5505 0.0094258963 0.0080613456          400 
 1721000   0.56667081   -8.9873249    194.60193 0.0094229099 0.0080539514          425 
 1722000   0.56244183   -8.9903042    194.33444  0.009404493 0.0080465729          410 
 1723000   0.55888178    -8.975143    194.49514 0.0094068069 0.0080391976          446 
 1724000   0.56274449    -9.016173    194.21935 0.0093880196 0.0080318277          435 
 1725000   0.56509567    -8.981441    194.47045 0.0093947076  0.008024468          853 
 1726000   0.55820352   -8.9914652    194.06325 0.0093696047 0.0080171192          809 
 1727000   0.56625776   -8.9931081    194.25356 0.0093733621 0.0080097763          431 
 1728000   0.55502843   -9.0017924     194.3905 0.0093745416 0.0080024332          863 
 1729000   0.55348006   -9.0002342    194.55469 0.0093770333 0.0079950953          817 
 1730000   0.57437503   -9.0163896    193.98013 0.0093439367 0.0079877705          861 
 1731000   0.56051853    -8.991627    194.01554 0.0093402436  0.007980454          793 
 1732000   0.56842914   -8.9990709    194.57603  0.009361818  0.007973152          405 
 1733000   0.57077064   -8.9999449    194.05187 0.0093312112 0.0079658578          866 
 1734000   0.56917025   -9.0077088     194.1654  0.009331286 0.0079585668          427 
 1735000   0.56940099   -9.0301616     194.1115  0.009323319 0.0079512727          874 
 1736000   0.55854734   -8.9890327    194.16256 0.0093203993 0.0079439941          434 
 1737000   0.55422155   -8.9872979    194.55289 0.0093337599 0.0079367211          451 
 1738000   0.56572903   -8.9945965    194.15675 0.0093093954 0.0079294548          419 
 1739000   0.55315641   -9.0109931    194.02036 0.0092975061  0.007922199          779 
 1740000    0.5556136   -9.0078628    194.19787 0.0093006643 0.0079149602          441 
 1741000   0.55703278   -8.9977584    194.20979 0.0092958926 0.0079077206          839 
 1742000   0.56386284   -9.0040985     194.0548 0.0092831419 0.0079004866          840 
 1743000   0.56804668   -9.0135104    194.06026  0.009278077 0.0078932629          828 
 1744000   0.56232282   -9.0086741     193.9074 0.0092654528 0.0078860459          814 
 1745000   0.56857182   -9.0200645    193.99358  0.009264259 0.0078788467          867 
 1746000   0.55708497    -9.036181    193.79615 0.0092495297 0.0078716438          861 
 1747000   0.57238547   -9.0221015    193.99747 0.0092538385 0.0078644562          896 
 1748000   0.56463924   -9.0126942    194.01923 0.0092495817 0.0078572839          819 
 1749000   0.55134848   -9.0139572    194.13142  0.009249639 0.0078501205          835 
 1750000   0.55377463   -9.0240334    194.16932 0.0092461579 0.0078429527          420 
 1751000   0.54997827   -9.0216288      193.987 0.0092322006 0.0078358017          868 
 1752000   0.55782873   -9.0301326    193.93035 0.0092242367 0.0078286512          434 
 1753000   0.55209647   -9.0240048    194.05588 0.0092249421  0.007821509          424 
 1754000   0.55892691   -9.0309194    193.95746 0.0092150068  0.007814368          842 
 1755000   0.55672378   -9.0166063    193.73956 0.0091994092 0.0078072449          813 
 1756000   0.55698884   -9.0206555    194.10067 0.0092113076 0.0078001263          426 
 1757000   0.54578658   -9.0101258    194.20976  0.009211239 0.0077930147          464 
 1758000   0.54587551   -9.0236425    194.14609  0.009202981 0.0077859186          859 
 1759000    0.5474157   -9.0183817     193.8386 0.0091831818 0.0077788259          445 
 1760000   0.55603001   -9.0121901    194.14804 0.0091926154 0.0077717408          858 
 1761000   0.55118094   -9.0153935    194.08377 0.0091843542 0.0077646621          856 
 1762000   0.55095538   -9.0206111     193.7595 0.0091638052 0.0077575832          816 
 1763000   0.56369321   -9.0372015    194.22803 0.0091807541 0.0077505215          849 
 1764000   0.55454913   -9.0565247     193.6494 0.0091482142 0.0077434593          843 
 1765000   0.54945716   -9.0182557    193.77871 0.0091491366 0.0077364068          862 
 1766000    0.5451067   -9.0490648    193.58791 0.0091349524 0.0077293611          433 
 1767000   0.56721387   -9.0419539    193.72545 0.0091362689 0.0077223209          900 
 1768000    0.5447565   -9.0201629    194.11046 0.0091492489 0.0077152826          861 
 1769000   0.54789204   -9.0455893    193.93096 0.0091356211 0.0077082593          423 
 1770000   0.54573849   -9.0450237    193.93449 0.0091306256 0.0077012506          437 
 1771000   0.56043213   -9.0265534    193.69892 0.0091143854 0.0076942417          424 
 1772000   0.53589263   -9.0374736    193.90017 0.0091187065 0.0076872311          895 
 1773000   0.54164167   -9.0198205    194.09655 0.0091227934 0.0076802389          853 
 1774000   0.53863178   -9.0403366    193.65656 0.0090969822 0.0076732607          478 
 1775000    0.5493173   -9.0472441    193.86558 0.0091016703 0.0076662832          845 
 1776000   0.54868418   -9.0380102    193.67394 0.0090875534 0.0076593259          458 
 1777000   0.53338393   -9.0316922    194.00104  0.009097779 0.0076523702          866 
 1778000   0.55563931   -9.0443172    193.75566 0.0090811614 0.0076454172          440 
 1779000   0.55451797   -9.0261582    193.72267 0.0090745114 0.0076384789          432 
 1780000   0.53930616   -9.0398482    194.10507 0.0090873161 0.0076315531          870 
 1781000   0.54397874   -9.0439525    193.67471 0.0090620769 0.0076246212          454 
 1782000   0.54978412   -9.0384837    193.80744 0.0090631987 0.0076177033          835 
 1783000   0.54483791   -9.0505738    193.86809 0.0090609502 0.0076107856          857 
 1784000   0.54212649   -9.0510848    193.40358  0.009034173 0.0076038847          895 
 1785000   0.55169435   -9.0436643    193.42909 0.0090303029 0.0075969843          908 
 1786000   0.54423752   -9.0408546    193.57012 0.0090318271 0.0075900926          881 
 1787000    0.5376134   -9.0248069    193.89853 0.0090420876 0.0075832063          863 
 1788000   0.54829234   -9.0462534    193.38717 0.0090131975 0.0075763366          876 
 1789000    0.5420858   -9.0384357    193.67798  0.009021706 0.0075694712          915 
 1790000   0.54544065   -9.0392235     193.7305 0.0090191108 0.0075626155          921 
 1791000   0.54071866   -9.0359363    193.73109 0.0090141023 0.0075557681          905 
 1792000   0.53613032   -9.0587132    193.70456 0.0090078387 0.0075489213          451 
 1793000    0.5454686   -9.0467388    193.87885  0.009010915 0.0075420879          900 
 1794000    0.5427841   -9.0614012     193.5754 0.0089917965 0.0075352616          458 
 1795000   0.51834765   -9.0418364    193.57288 0.0089866703 0.0075284364          855 
 1796000   0.52395843   -9.0593475    193.48098 0.0089774026 0.0075216217          461 
 1797000   0.53161641   -9.0480949     193.6763 0.0089814646 0.0075148202          908 
 1798000   0.52822381    -9.049113    194.21167 0.0090012825 0.0075080226          869 
 1799000   0.52648562    -9.059734    193.78204 0.0089763778 0.0075012301          453 
 1800000   0.52838672   -9.0584598     193.7932 0.0089719075 0.0074944443          900 
 1801000   0.53245023   -9.0575681     193.4029 0.0089488664  0.007487664          919 
 1802000   0.53923952   -9.0732983     193.6692 0.0089562153 0.0074808909          888 
 1803000    0.5391847   -9.0581325    193.44568 0.0089409171 0.0074741219          438 
 1804000   0.53794395   -9.0519833    193.53762 0.0089402079 0.0074673651          879 
 1805000   0.51723669   -9.0654676    193.55259 0.0089359459 0.0074606183          876 
 1806000   0.53199628   -9.0756383    193.61432 0.0089338465 0.0074538774          885 
 1807000   0.52449963   -9.0582325    193.47436 0.0089224478 0.0074471451          951 
 1808000   0.53256945   -9.0449642    193.51317 0.0089193016 0.0074404185          456 
 1809000   0.53332852   -9.0623274    193.65467 0.0089208894 0.0074336969          923 
 1810000   0.52514126   -9.0530992    193.48019 0.0089079277 0.0074269851          469 
 1811000   0.53962637   -9.0582492      193.434 0.0089008836 0.0074202817          896 
 1812000   0.52368486    -9.047187     193.3491 0.0088920667  0.007413586          856 
 1813000   0.52985758   -9.0502931    193.54826 0.0088963162 0.0074069008          923 
 1814000   0.53304364   -9.0627149    193.16042 0.0088735952 0.0074002213          889 
 1815000   0.52695004   -9.0751212    193.51288 0.0088848887 0.0073935479          462 
 1816000   0.52869848   -9.0689277    193.24463 0.0088676869   0.00738688          471 
 1817000   0.52454091    -9.058422    193.60027 0.0088791173 0.0073802193          443 
 1818000   0.52883297    -9.052626    193.70932 0.0088792315  0.007373568          857 
 1819000   0.53487221   -9.0526162    193.86714 0.0088815804 0.0073669267          906 
 1820000   0.51616221   -9.0566968     193.7117 0.0088695832 0.0073602967          855 
 1821000   0.53465973   -9.0587822    193.55866  0.008857709 0.0073536736          465 
 1822000   0.52842219    -9.052484    193.45634 0.0088481677  0.007347064          886 
 1823000   0.52631544   -9.0445256    193.38843 0.0088402097 0.0073404555          894 
 1824000   0.52792435   -9.0656187     193.5236 0.0088415388 0.0073338575          878 
 1825000   0.52801403   -9.0763807    193.45066 0.0088333635 0.0073272604          895 
 1826000   0.52171384   -9.0814508    193.43904 0.0088279956 0.0073206751          451 
 1827000   0.52087307   -9.0662132    193.69351 0.0088347708 0.0073140998          445 
 1828000    0.5142751   -9.0788555    193.45193 0.0088189245 0.0073075264          918 
 1829000   0.53016471   -9.0590696    193.64958 0.0088231082 0.0073009691          913 
 1830000   0.52163388   -9.0540174    193.42559 0.0088080868 0.0072944114          919 
 1831000   0.50758994   -9.0694635    193.36263 0.0088004108 0.0072878598          882 
 1832000   0.52293578   -9.0783313    193.36346 0.0087956452 0.0072813196          932 
 1833000   0.52351909   -9.0704782     193.4482  0.008794699 0.0072747868          899 
 1834000   0.52950485   -9.0657364    193.63818 0.0087985358 0.0072682639          463 
 1835000   0.51933853   -9.0812067    193.63108 0.0087934186 0.0072617443          883 
 1836000   0.51229949   -9.0744822    193.56904 0.0087858132 0.0072552246          876 
 1837000   0.51702707   -9.0925673    193.68968 0.0087865033 0.0072487188          881 
 1838000   0.52355766   -9.0645926    193.50308 0.0087732625 0.0072422194          936 
 1839000   0.52662211   -9.0798483    193.27197 0.0087580195 0.0072357372          925 
 1840000   0.53111313   -9.0838878     193.3298 0.0087558788 0.0072292579          464 
 1841000   0.51647547    -9.083343    193.32036 0.0087506953 0.0072227825          889 
 1842000   0.52580944   -9.0789928    193.37653 0.0087484858 0.0072163109          456 
 1843000   0.50843621   -9.0923422    193.04014 0.0087285288 0.0072098591          917 
 1844000   0.51242598   -9.0657304    193.21887 0.0087318723  0.007203401          909 
 1845000   0.51952928   -9.0870173    193.49554 0.0087396359  0.007196959          927 
 1846000   0.52245795   -9.0658919    193.54175 0.0087369874 0.0071905238          491 
 1847000   0.53031447   -9.0933976    193.17561 0.0087157377 0.0071840912          915 
 1848000   0.51055541    -9.079325      193.176 0.0087110391 0.0071776649          903 
 1849000   0.51006418   -9.0780015    193.21138 0.0087079224 0.0071712505          473 
 1850000   0.51437392   -9.0802226     193.3658 0.0087101712 0.0071648376          445 
 1851000   0.50855167   -9.0858906     193.3539 0.0087049298 0.0071584281          467 
 1852000    0.5214138   -9.0813567    193.43532 0.0087038932 0.0071520313          933 
 1853000   0.51483696   -9.0847985    193.23678  0.008690267 0.0071456456          918 
 1854000   0.51568898   -9.0910703    193.44197 0.0086948026 0.0071392525          483 
 1855000   0.51098961   -9.0880581    193.16839 0.0086778253  0.007132879          923 
 1856000   0.52147768   -9.0822754    192.95572  0.008663601  0.007126507          928 
 1857000   0.51264366   -9.0986885    193.36171 0.0086771545 0.0071201499          920 
 1858000   0.51645786   -9.0940344    193.45901 0.0086768481 0.0071137968          911 
 1859000   0.50895508   -9.0887627    193.18862 0.0086600602 0.0071074557          940 
 1860000   0.51449993   -9.0888322    193.32575  0.008661548 0.0071011209          946 
 1861000   0.50469655   -9.1129475    193.48025 0.0086638119  0.007094791          463 
 1862000   0.51008718   -9.0950896    193.11476 0.0086428016 0.0070884625          905 
 1863000   0.50213947   -9.0960771    193.21316 0.0086425641 0.0070821409          957 
 1864000   0.52861105   -9.0984646    193.46535 0.0086492022 0.0070758323          502 
 1865000   0.49889094   -9.0919797    193.22488 0.0086338193 0.0070695294          920 
 1866000   0.50491384   -9.1117644    193.32411 0.0086336242 0.0070632374          917 
 1867000    0.5121472    -9.099384    193.11458 0.0086196474 0.0070569434          913 
 1868000   0.50880288   -9.1006053    193.10861 0.0086147666 0.0070506649          478 
 1869000   0.50904766   -9.1061634    193.12321 0.0086108085 0.0070443971          894 
 1870000    0.5115601   -9.1024511    193.22488 0.0086107344 0.0070381304          458 
 1871000   0.49898872   -9.1061425    192.88979 0.0085912073 0.0070318681          456 
 1872000   0.50533492   -9.1137273    192.99152 0.0085911467 0.0070256169          915 
 1873000   0.50479082   -9.1081453      193.096 0.0085912082 0.0070193713          482 
 1874000   0.51230216   -9.1057181    193.08896 0.0085863109 0.0070131237          478 
 1875000   0.50991021   -9.1064607    192.86264 0.0085716731 0.0070068878          897 
 1876000    0.5112152   -9.1082945    193.18491 0.0085814192 0.0070006634          903 
 1877000   0.50475521    -9.098829    193.22662  0.008578699 0.0069944535          913 
 1878000   0.49427092   -9.0905721    193.00969 0.0085645051 0.0069882397          923 
 1879000   0.50190762   -9.1002958    193.13056 0.0085653079 0.0069820344          484 
 1880000   0.50110972   -9.0987549    192.99082 0.0085545575 0.0069758395          931 
 1881000   0.50186798   -9.1195374    193.00065 0.0085504453 0.0069696512          926 
 1882000   0.50118245   -9.1171133    193.41661 0.0085643203  0.006963464          938 
 1883000   0.50993856   -9.1118251    193.04536 0.0085433423 0.0069572816          933 
 1884000   0.49867775   -9.1133435      193.005 0.0085370224 0.0069511181          928 
 1885000   0.49531083   -9.1038276    193.16969 0.0085397739 0.0069449618          898 
 1886000   0.49143158   -9.1185102    193.04673 0.0085298132 0.0069388077          933 
 1887000   0.50039456    -9.110968    193.27281 0.0085352768 0.0069326628          911 
 1888000   0.49742408   -9.0954033    193.14484 0.0085251079 0.0069265241          916 
 1889000   0.50691936   -9.0997527    193.12888 0.0085198905 0.0069203921          927 
 1890000   0.50348581   -9.1078615     193.1527  0.008516433 0.0069142702          933 
 1891000   0.49537101   -9.1073394    192.81531 0.0084970609 0.0069081502          911 
 1892000   0.50038126   -9.1188553    193.13248 0.0085065398 0.0069020382          891 
 1893000   0.49866458   -9.1100305    192.81779 0.0084881929 0.0068959302          871 
 1894000   0.49483536   -9.1259048    192.75424 0.0084809151 0.0068898313          498 
 1895000   0.49310889   -9.1145278    193.06753 0.0084902169 0.0068837319          931 
 1896000   0.49774444   -9.1207215    192.98047 0.0084819125 0.0068776431          943 
 1897000   0.50103704   -9.1282952    193.14557 0.0084846939 0.0068715621          945 
 1898000   0.49446178   -9.1093401     193.0782 0.0084772656 0.0068654969          932 
 1899000   0.50048505   -9.1154214    193.01946 0.0084702238 0.0068594358          931 
 1900000   0.50113912   -9.1161322    192.98418 0.0084642184 0.0068533713          957 
 1901000   0.48825914   -9.1320348    192.88409 0.0084553784 0.0068473182          935 
 1902000   0.49191331   -9.1205923    193.22651 0.0084659353 0.0068412628          470 
 1903000   0.49775068   -9.1131608    193.22267 0.0084613187 0.0068352208          938 
 1904000   0.49307132   -9.1248459    192.77992 0.0084374965  0.006829181          928 
 1905000   0.49819449   -9.1301905    192.99207  0.008442348 0.0068231551          924 
 1906000    0.4956903   -9.1351704    192.73743 0.0084267852 0.0068171306          937 
 1907000   0.49553849   -9.1266458    192.83083 0.0084264476  0.006811121          949 
 1908000   0.49405109    -9.112267     192.9949 0.0084291974 0.0068051122          943 
 1909000   0.49001806   -9.1226783    192.85205 0.0084185458 0.0067991124          943 
 1910000   0.48479876   -9.1319896    192.93661 0.0084178276 0.0067931097          496 
 1911000   0.47833525   -9.1366617    192.65561 0.0084011692 0.0067871203          974 
 1912000   0.48614297   -9.1098767    192.85849 0.0084056175 0.0067811427          936 
 1913000   0.49377122   -9.1253035    192.81924 0.0083995137 0.0067751678          933 
 1914000   0.48693848   -9.1198544    192.54266 0.0083830836 0.0067692015          961 
 1915000   0.48810573   -9.1342975     193.0539  0.008400953 0.0067632455          926 
 1916000   0.48985703   -9.1390152    192.78996 0.0083850889 0.0067572884          940 
 1917000   0.48736983   -9.1364965    192.91449 0.0083861282   0.00675134          913 
 1918000   0.48776049   -9.1277324    192.87656 0.0083801077 0.0067454021          949 
 1919000   0.48225687   -9.1346322    192.75329 0.0083703879 0.0067394666          948 
 1920000   0.48560752   -9.1332718    192.99567  0.008376548 0.0067335403          948 
 1921000   0.47774431   -9.1272937    192.80335  0.008363845  0.006727623          484 
 1922000   0.50118002   -9.1470591     192.7625 0.0083577219 0.0067217065          961 
 1923000   0.47521346    -9.131719    192.97568 0.0083626139 0.0067157963          962 
 1924000   0.49006928   -9.1352692    192.92743 0.0083561775 0.0067099023          976 
 1925000   0.48816748   -9.1277453     192.7849 0.0083456666 0.0067040099          986 
 1926000   0.47962399    -9.136484     193.0643 0.0083534224 0.0066981267          520 
 1927000    0.4940177   -9.1453167    192.98966 0.0083458598 0.0066922434          978 
 1928000   0.47734389    -9.135704    193.13251 0.0083477054 0.0066863678          477 
 1929000   0.49025678   -9.1385392    192.91379 0.0083339292 0.0066805008          953 
 1930000   0.47811368   -9.1430276    192.61863 0.0083168668 0.0066746379          931 
 1931000   0.47864616    -9.136177    192.63191 0.0083131328 0.0066687836          926 
 1932000   0.48131438   -9.1431007    192.81993 0.0083169396  0.006662933          924 
 1933000   0.48227175   -9.1388748     192.5141 0.0082994525 0.0066570857          957 
 1934000   0.48875194   -9.1351785    192.47625 0.0082935303 0.0066512471          983 
 1935000   0.48371969   -9.1300488    192.61105 0.0082950494  0.006645414          909 
 1936000   0.47732539   -9.1373838    192.79932 0.0082988689 0.0066395924          947 
 1937000   0.46924775   -9.1430599    192.45704  0.008279859 0.0066337699          918 
 1938000   0.48737057   -9.1422806    192.83166 0.0082916949 0.0066279552          994 
 1939000   0.47977386   -9.1369557    192.68938 0.0082813039  0.006622149          939 
 1940000   0.48580031   -9.1476429     192.5401  0.008270623 0.0066163465          930 
 1941000   0.47070966    -9.152351    192.72811 0.0082744337 0.0066105487          961 
 1942000   0.48675377   -9.1569264    192.86588 0.0082760847 0.0066047587          918 
 1943000   0.47585105   -9.1481469    192.69369 0.0082644404 0.0065989741          920 
 1944000   0.48189108   -9.1555651    192.51929 0.0082527128 0.0065931988          967 
 1945000   0.48225398   -9.1430055    192.71668 0.0082569273 0.0065874333          963 
 1946000   0.48543614   -9.1498846    192.59532 0.0082474871 0.0065816687          941 
 1947000   0.46805613   -9.1486572    192.46559 0.0082376984   0.00657591          938 
 1948000   0.47299524   -9.1555219    192.65082 0.0082413939 0.0065701573          968 
 1949000   0.46546273   -9.1592327    192.63656 0.0082365556 0.0065644113          932 
 1950000   0.48052198   -9.1455938    192.47002 0.0082252144 0.0065586697          936 
 1951000   0.48318029   -9.1579464    192.61271 0.0082270935 0.0065529386          948 
 1952000   0.47104793   -9.1611026    192.71056 0.0082270561 0.0065472114          961 
 1953000   0.47601782   -9.1472067    192.44408 0.0082114728 0.0065414921          939 
 1954000   0.46681057   -9.1632053    192.58245 0.0082131715 0.0065357752          939 
 1955000   0.48035712   -9.1515251    192.84221 0.0082200429 0.0065300739          961 
 1956000   0.47207975   -9.1538292    192.39735  0.008196888 0.0065243797          919 
 1957000    0.4731236   -9.1654055    192.59321 0.0082010394 0.0065186862          918 
 1958000   0.46734806   -9.1628902    192.45693 0.0081910508 0.0065129978          934 
 1959000   0.46790408   -9.1479841    192.61308 0.0081935118 0.0065073188          976 
 1960000    0.4789388   -9.1585723    192.68683 0.0081924671 0.0065016491          964 
 1961000   0.45475123   -9.1720182    192.91135 0.0081978307 0.0064959802          966 
 1962000   0.47410032   -9.1708689    192.38187 0.0081711632 0.0064903242          941 
 1963000   0.46932902   -9.1713016     192.8072 0.0081850568 0.0064846742          922 
 1964000   0.46982521   -9.1775169    192.70836 0.0081766956 0.0064790306          468 
 1965000    0.4815744   -9.1708498    192.69834 0.0081721092 0.0064733976          922 
 1966000   0.46938677   -9.1455684    192.43221  0.008156672 0.0064677675          970 
 1967000   0.47084034   -9.1606465    192.60626 0.0081598992  0.006462139          954 
 1968000   0.46186104   -9.1576119    192.51971 0.0081520881  0.006456511          950 
 1969000   0.46085209   -9.1616547    192.64109 0.0081530848 0.0064508924          977 
 1970000   0.47208994   -9.1774424    192.50222 0.0081430718 0.0064452889          968 
 1971000   0.48542599   -9.1692074    192.21868 0.0081269525 0.0064396863          943 
 1972000   0.46849176   -9.1619899    192.56968 0.0081376638 0.0064340945          952 
 1973000   0.46923895   -9.1599149     192.4154 0.0081270231 0.0064285051          489 
 1974000   0.45863237   -9.1764779    192.33611 0.0081195587 0.0064229216         1012 
 1975000   0.46970126   -9.1684873    192.43982 0.0081198238  0.006417347          944 
 1976000   0.45312804   -9.1821846    192.68214 0.0081259338 0.0064117757          942 
 1977000   0.45515571   -9.1569076    192.27257 0.0081045594 0.0064062146          953 
 1978000   0.46655107   -9.1658796    192.56141 0.0081126309 0.0064006609          965 
 1979000   0.47004354   -9.1914295    192.26286 0.0080959599 0.0063951104          926 
 1980000   0.46865733   -9.1780027    192.47352 0.0081007372  0.006389561          497 
 1981000    0.4565251   -9.1834893     192.3327 0.0080907242 0.0063840293          943 
 1982000   0.47281438   -9.1830984    192.30928 0.0080856576    0.0063785          914 
 1983000   0.46865314   -9.1799977    192.45404 0.0080876633 0.0063729714          495 
 1984000   0.46298325   -9.1762763    192.55775 0.0080879433 0.0063674475          948 
 1985000   0.46165184    -9.177498    192.35914 0.0080755305 0.0063619448          939 
 1986000   0.46015989   -9.1858383    192.70381 0.0080859271 0.0063564396          974 
 1987000   0.45495917   -9.1795531    192.29234 0.0080646009 0.0063509391          976 
 1988000   0.46192849   -9.1814993    192.43655 0.0080665891  0.006345444          980 
 1989000   0.46083157    -9.188069    192.36769 0.0080596484 0.0063399585          966 
 1990000   0.46348841   -9.1951806    192.19123 0.0080482091 0.0063344773          965 
 1991000   0.46087096   -9.1539356    192.26246 0.0080471482 0.0063290044          948 
 1992000   0.44893985   -9.1745675    192.47292 0.0080519126 0.0063235363          985 
 1993000   0.46295292   -9.1757333    192.34261 0.0080424239 0.0063180763          933 
 1994000   0.45679439   -9.1939874    192.61296 0.0080496892 0.0063126192          941 
 1995000   0.45774118    -9.177487    192.19503 0.0080281966 0.0063071684          982 
 1996000   0.44904612   -9.1739809    192.50059 0.0080369316 0.0063017231          915 
 1997000   0.45832354   -9.1793987    192.46768 0.0080315341  0.006296282          957 
 1998000   0.45477963   -9.1799152    192.32425  0.008021532 0.0062908453          963 
 1999000   0.45281689   -9.2059464    192.17841 0.0080114394  0.006285415          959 
 2000000   0.45724988   -9.1920048    192.07097 0.0080029571 0.0062799953          953 
 2001000   0.45212985    -9.187959    192.26235 0.0080069276 0.0062745824          989 
 2002000   0.45601925   -9.1760269    192.62083 0.0080178501 0.0062691711          929 
 2003000   0.45000426   -9.1856928    192.39573 0.0080044819 0.0062637718          989 
 2004000   0.44037358   -9.1936181     192.2482 0.0079943531  0.006258374          977 
 2005000   0.44531786   -9.1904594    192.02852 0.0079812352 0.0062529896         1002 
 2006000   0.45109158   -9.1865463    192.12036 0.0079810718  0.006247606          968 
 2007000   0.44849672   -9.1953267    192.45878 0.0079911467 0.0062422318          961 
 2008000    0.4578577   -9.2093784    192.19159 0.0079760785 0.0062368627          994 
 2009000   0.44714318   -9.1926581    192.56878 0.0079877541 0.0062314968          949 
 2010000   0.45308473   -9.1985632     192.1098 0.0079647511 0.0062261401          974 
 2011000   0.45244188   -9.1832529    192.00158  0.007956306 0.0062207919          947 
 2012000    0.4548688   -9.1809412    192.37713 0.0079679062 0.0062154457          952 
Loop time of 5128.47 on 48 procs for 2000000 steps with 4000 atoms

Performance: 67388.537 tau/day, 389.980 timesteps/s
99.4% CPU use with 48 MPI tasks x no OpenMP threads

MPI task timing breakdown:
Section |  min time  |  avg time  |  max time  |%varavg| %total
---------------------------------------------------------------
Pair    | 350.84     | 377.27     | 397.42     |  57.2 |  7.36
Neigh   | 34.325     | 35.769     | 37.212     |  11.0 |  0.70
Comm    | 314.73     | 345.53     | 376.95     |  73.1 |  6.74
Output  | 5.1248     | 5.1269     | 5.1711     |   0.3 |  0.10
Modify  | 4300.5     | 4316.7     | 4343.7     |  12.9 | 84.17
Other   |            | 48.05      |            |       |  0.94

Nlocal:        83.3333 ave          90 max          77 min
Histogram: 2 3 2 11 7 7 12 1 0 3
Nghost:        2311.35 ave        2329 max        2294 min
Histogram: 4 2 2 2 15 4 10 5 3 1
Neighs:        15708.8 ave       18115 max       13899 min
Histogram: 3 4 3 10 10 9 6 2 0 1
FullNghs:      31417.3 ave       34607 max       28921 min
Histogram: 4 3 5 8 10 6 8 1 0 3

Total # of neighbors = 1508029
Ave neighs/atom = 377.00725
Neighbor list builds = 106561
Dangerous builds = 0

#clear
#
#next RN
#
#jump SELF
Total wall time: 1:25:32
