
units lj                  # Use reduced LJ style units
atom_style atomic         # Uncharged point particles
atom_modify map hash      # Needed for indexing of clusters etc
                          # Used to be able to find where atoms are in relation to each other.

lattice fcc 1.0 spacing 1 1 1
Lattice spacing in x,y,z = 1.5874011 1.5874011 1.5874011
region box block 0 10 0 10 0 10 units lattice
create_box 2 box
Created orthogonal box = (0.0000000 0.0000000 0.0000000) to (15.874011 15.874011 15.874011)
  3 by 4 by 4 MPI processor grid
create_atoms 1 box
Created 4000 atoms
  using lattice units in orthogonal box = (0.0000000 0.0000000 0.0000000) to (15.874011 15.874011 15.874011)
  create_atoms CPU = 0.003 seconds
set type 1 type/fraction 2 0.84 78393
Setting atom values ...
  3354 settings made for type/fraction
mass 1 1.0
mass 2 1.0
pair_style lj/cut  3.5
pair_modify tail  yes
pair_coeff 1  1  1.0  1.0   # Intearaction between 1 and 1 set with epsilon = 1 and sigma = 1
pair_coeff 1  2  1.5  0.8
pair_coeff 2  2  0.5  0.88

write_data data.0
System init for write_data ...
Neighbor list info ...
  update every 1 steps, delay 10 steps, check yes
  max neighbors/atom: 2000, page size: 100000
  master list distance cutoff = 3.8
  ghost atom cutoff = 3.8
  binsize = 1.9, bins = 9 9 9
  1 neighbor lists, perpetual/occasional/extra = 1 0 0
  (1) pair lj/cut, perpetual
      attributes: half, newton on
      pair build: half/bin/atomonly/newton
      stencil: half/bin/3d
      bin: standard
WARNING: Not all mixed pair coeffs generated from mixing. Use write_data with 'pair ij' option to store all pair coeffs. (../write_data.cpp:312)


#############################
#   M E L T   S Y S T E M   #
#############################

velocity all create 2.4 9580093 mom yes dist gaussian # Assign velocities
                                                    # Temperature 2.4, random number seed, zero linear momentum
                                                                                # Gaussian distribution

timestep 0.002   # simulation timestep
thermo 1000       # output thermodynamic data every 1000 steps bf 100

# Define a fix  in this case with index 1 applied to all
# particles in the simulation. This fix is for simulations
# in the anisotropic NPT ensemble. Note that we use the MTK
# correction.
fix 1 all npt temp 2.4 2.4 0.1 iso 5.68 5.68 0.5 mtk yes tchain 5 pchain 5 # Use NPT ensemble
                                                                         # Set temperature and pressure and damping
                                                                         # Numbers of thermostats in chain and in barostat
run 10000          # run for 10000 steps
Per MPI rank memory allocation (min/avg/max) = 3.642 | 3.644 | 3.648 Mbytes
Step Temp E_pair E_mol TotEng Press Volume 
       0          2.4   -3.4880302            0   0.11106983   -3.0192302         4000 
    1000    2.4116833   -2.6848196            0   0.93180106    5.6987023    3910.1456 
    2000    2.4234093    -2.696645            0   0.93756025    5.8876531    3869.8446 
    3000    2.4052679   -2.6905251            0   0.91647481    5.6593328    3883.9204 
    4000    2.3978475   -2.7021743            0   0.89369779    5.6302243     3883.265 
    5000    2.4356465   -2.7525797            0   0.89997672    5.6101092     3870.484 
    6000    2.3790217   -2.7348695            0   0.83277089    5.6423198    3857.4504 
    7000     2.374675   -2.7475241            0   0.81359783     5.664785     3848.726 
    8000    2.4036479   -2.7287189            0   0.87585168    5.6350957    3870.9674 
    9000    2.3727379   -2.7246818            0   0.83353538    5.5106055    3879.1646 
   10000    2.4257429   -2.7803001            0   0.85740467    5.8082503    3813.0823 
Loop time of 2.54636 on 48 procs for 10000 steps with 4000 atoms

Performance: 678616.967 tau/day, 3927.182 timesteps/s
99.6% CPU use with 48 MPI tasks x no OpenMP threads

MPI task timing breakdown:
Section |  min time  |  avg time  |  max time  |%varavg| %total
---------------------------------------------------------------
Pair    | 1.121      | 1.1919     | 1.3201     |   3.8 | 46.81
Neigh   | 0.21047    | 0.21893    | 0.24015    |   1.1 |  8.60
Comm    | 0.75934    | 0.87447    | 0.98669    |   6.1 | 34.34
Output  | 0.00023923 | 0.00024408 | 0.00031568 |   0.0 |  0.01
Modify  | 0.19907    | 0.24606    | 0.29392    |   5.7 |  9.66
Other   |            | 0.01477    |            |       |  0.58

Nlocal:        83.3333 ave          96 max          72 min
Histogram: 2 0 12 5 4 9 7 7 1 1
Nghost:        1697.33 ave        1726 max        1659 min
Histogram: 1 2 4 4 8 8 4 9 6 2
Neighs:        10016.8 ave       11822 max        8446 min
Histogram: 2 4 9 5 8 6 4 7 2 1

Total # of neighbors = 480804
Ave neighs/atom = 120.20100
Neighbor list builds = 914
Dangerous builds = 257

# Equilibrate just above the melting temperature to avoid step fn in T

fix 1 all npt temp 1.25 1.25 0.1 iso 5.68 5.68 0.5 mtk yes tchain 5 pchain 5
run 2000
Per MPI rank memory allocation (min/avg/max) = 3.643 | 3.645 | 3.649 Mbytes
Step Temp E_pair E_mol TotEng Press Volume 
   10000    2.4257429   -2.7803001            0   0.85740467    5.8082503    3813.0823 
   11000    1.2397726   -4.0660639            0   -2.2068699    5.5084768    2971.1508 
   12000    1.2926744   -3.9967132            0   -2.0581864    5.7661794    2997.0007 
Loop time of 0.618726 on 48 procs for 2000 steps with 4000 atoms

Performance: 558566.695 tau/day, 3232.446 timesteps/s
99.6% CPU use with 48 MPI tasks x no OpenMP threads

MPI task timing breakdown:
Section |  min time  |  avg time  |  max time  |%varavg| %total
---------------------------------------------------------------
Pair    | 0.27106    | 0.30158    | 0.33043    |   2.2 | 48.74
Neigh   | 0.038928   | 0.041983   | 0.046489   |   0.7 |  6.79
Comm    | 0.19984    | 0.22709    | 0.26544    |   2.9 | 36.70
Output  | 4.8291e-05 | 4.9482e-05 | 6.3392e-05 |   0.0 |  0.01
Modify  | 0.036915   | 0.043356   | 0.049078   |   1.6 |  7.01
Other   |            | 0.004671   |            |       |  0.75

Nlocal:        83.3333 ave          93 max          75 min
Histogram: 1 6 5 8 4 8 10 4 0 2
Nghost:        1989.52 ave        2006 max        1966 min
Histogram: 1 0 1 5 11 9 5 6 5 5
Neighs:        12744.4 ave       14511 max       11252 min
Histogram: 3 2 7 5 12 7 5 5 0 2

Total # of neighbors = 611731
Ave neighs/atom = 152.93275
Neighbor list builds = 143
Dangerous builds = 6

#############################
# L I N E A R  Q U E N C H  #
#############################

# Define solid atoms. This closely follows ten Wolde  Ruiz-Montero and Frenkel  Faraday Discuss  1996  104  93-110
# Compute components of the per-atom q6 vector
compute q6 all orientorder/atom degrees 1 6 components 6 nnn NULL cutoff 1.3 # compute the Q6 parameter.
                                                                             # Use all neighbours within 1.3 unit cell.

# get number of connections
compute coord_number all coord/atom orientorder q6 0.5

# An atom is solid if it has 8 or more connections (of a possible 14)
variable is_solid atom c_coord_number>=8
group solid dynamic all var is_solid    # Must be dynamic to update
dynamic group solid defined

# do clustering
compute cluster solid cluster/atom 1.3 # Create a cluster where all atoms within are solid and max 1.3 units from another member

# define chunks one chunk per cluster
compute clus_chunks solid chunk/atom c_cluster nchunk every compress yes  # Says which atoms are in which chunk

# count the size of each chunk
compute size_chunks solid property/chunk clus_chunks count


# Find the maximum entry in the vector of chunk sizes
variable max_n equal max(c_size_chunks)


# Thermo style which includes this variable
# thermo_style custom step temp pe vol v_max_n

thermo ${N}  # Print the thermo information every 100 steps
thermo 1000  

# Reset the npt fix at a lower temperature (below freezing)
fix 1  all npt temp  ${temp} ${temp}  0.1  iso  5.68  5.68  0.5  mtk yes tchain  5  pchain  5
fix 1  all npt temp  0.45 ${temp}  0.1  iso  5.68  5.68  0.5  mtk yes tchain  5  pchain  5
fix 1  all npt temp  0.45 0.45  0.1  iso  5.68  5.68  0.5  mtk yes tchain  5  pchain  5

dump dmp2 all dcd ${N} traj.dcd
dump dmp2 all dcd 1000 traj.dcd


compute msd all msd com yes
variable twopoint equal c_msd[4]/6/(step*dt+1.0e-6)
fix 9 all vector 10 c_msd[4]
variable fit equal slope(f_9)/6/(10*dt)
thermo_style custom step temp pe c_msd[4] v_twopoint v_fit v_max_n

fix 1 all npt temp 1.25 ${temp} 0.1 iso 5.68 5.68 0.5 mtk yes tchain 5 pchain 5
fix 1 all npt temp 1.25 0.45 0.1 iso 5.68 5.68 0.5 mtk yes tchain 5 pchain 5
run 5000000 # 5000000  # Run for this many steps
Neighbor list info ...
  update every 1 steps, delay 10 steps, check yes
  max neighbors/atom: 2000, page size: 100000
  master list distance cutoff = 3.8
  ghost atom cutoff = 3.8
  binsize = 1.9, bins = 8 8 8
  4 neighbor lists, perpetual/occasional/extra = 1 3 0
  (1) pair lj/cut, perpetual
      attributes: half, newton on
      pair build: half/bin/atomonly/newton
      stencil: half/bin/3d
      bin: standard
  (2) compute orientorder/atom, occasional
      attributes: full, newton on
      pair build: full/bin/atomonly
      stencil: full/bin/3d
      bin: standard
  (3) compute coord/atom, occasional
      attributes: full, newton on
      pair build: full/bin/atomonly
      stencil: full/bin/3d
      bin: standard
  (4) compute cluster/atom, occasional
      attributes: full, newton on
      pair build: full/bin/atomonly
      stencil: full/bin/3d
      bin: standard
Per MPI rank memory allocation (min/avg/max) = 9.829 | 9.834 | 9.837 Mbytes
Step Temp PotEng c_msd[4] v_twopoint v_fit v_max_n 
   12000    1.2926744   -3.9967132 4.7288267e-30 3.2839073e-32 8.3333333e+20            2 
   13000    1.2372524   -4.0000738   0.86485439 0.0055439382  0.072616418            1 
   14000    1.2503103   -4.0110317    1.8073396  0.010757973  0.075287251            1 
   15000    1.2343089   -4.0626566    2.7924263  0.015513479  0.077724054            1 
   16000    1.2457655   -4.0053857    3.7236427  0.019393972  0.079135645            3 
   17000    1.2606379   -4.0455542     4.646726  0.022778068  0.078963616            1 
   18000    1.2526802   -4.0095201    5.6218845  0.026027242  0.078996749            1 
   19000      1.22705   -4.0603342    6.4645124  0.028353124  0.078641084            2 
   20000    1.2543511   -4.0324629    7.3811183  0.030754659  0.078114915            1 
   21000    1.2443851   -4.0336836    8.3127609  0.032987146  0.077770943            2 
   22000    1.2830271    -4.031254    9.2126218  0.034896294  0.077479039            2 
   23000    1.2857929   -4.0461521    9.9839758  0.036173824   0.07701166            1 
   24000    1.2324458   -4.0542192    10.845085  0.037656544  0.076309716            1 
   25000    1.2677515   -4.0246235    11.752963  0.039176542  0.075859587            2 
   26000    1.2515957   -4.0526896     12.67866   0.04063673  0.075536328            2 
   27000    1.2624859   -4.0330089    13.553423  0.041831551  0.075312669            2 
   28000    1.2531002   -4.0375689    14.451397  0.043010111   0.07509462            2 
   29000    1.2201477   -4.0240343    15.507616  0.044562114  0.075041284            2 
   30000    1.2466989   -4.0512713    16.239201  0.045108891  0.075070793            1 
   31000    1.2333759    -4.122516    17.195678  0.046224941  0.075055388            4 
   32000    1.2574738   -4.0350692    18.260895  0.047554414  0.075175396            3 
   33000    1.2533113   -4.0233296    19.307015  0.048755087  0.075481648            2 
   34000    1.2603192   -4.0576528    20.276473  0.049697237  0.075750619            2 
   35000    1.2387822   -4.0414278    21.198386  0.050472347  0.076004627            3 
   36000    1.2525208   -4.0425168    22.351429  0.051739418  0.076290173            2 
   37000    1.2192507   -4.0550903    23.462696   0.05284391  0.076696818            3 
   38000    1.2692304   -4.0448647    24.493045  0.053712818  0.077092199            3 
   39000     1.250365   -4.0579047    25.301693  0.054063446  0.077430154            3 
   40000     1.226063    -4.030255    26.458366  0.055121594  0.077723701            2 
   41000    1.2182383   -3.9970083    27.366303  0.055622567  0.077993401            5 
   42000    1.2461541    -4.023292    28.099775  0.055753521  0.078152598            2 
   43000    1.2514904   -4.0150231    29.167286  0.056525747  0.078280027            1 
   44000    1.2585095   -4.0380426      29.9673  0.056756249  0.078407307            4 
   45000    1.2673496   -4.0572353    30.802177  0.057041068  0.078492855            2 
   46000    1.2432435   -4.0738078    31.857122  0.057712176  0.078551988            5 
   47000    1.2453771   -4.0667158    32.572169  0.057752072  0.078505352            1 
   48000    1.2541529   -4.0599031    33.908377  0.058868709  0.078521159            2 
   49000    1.2512214   -4.0649601    34.765809  0.059125525  0.078601423            1 
   50000    1.2456094   -4.0432809    35.847906  0.059746509  0.078668081            1 
   51000    1.2369218   -4.0348738     36.76656  0.060076078  0.078750974            2 
   52000    1.2937402   -4.0442919    37.701352  0.060418833  0.078820688            2 
   53000    1.2536371   -4.0395781    38.380587  0.060346834  0.078849502            3 
   54000    1.2266049   -4.0487721    39.343723  0.060715622  0.078806342            1 
   55000    1.2525469   -4.0376851     40.31006  0.061075849  0.078757186            3 
   56000    1.2580192     -4.00573     41.54916  0.061829106  0.078778489            2 
   57000    1.2533873   -4.0472309    42.399834  0.061988061  0.078848755            2 
   58000    1.2494149   -4.0516396     43.52632  0.062537815  0.078899457            3 
   59000    1.2307001   -4.0355454    44.513473  0.062872137  0.078977243            1 
   60000    1.2570343   -4.0040849    45.386008  0.063036121  0.079030584            1 
   61000    1.2284349   -4.0374053    46.309452  0.063264279  0.079088328            1 
   62000    1.2337016   -4.0220147    46.833257  0.062947925  0.079061986            2 
   63000    1.2360773   -4.0588579    47.680728  0.063069746  0.079002025            1 
   64000    1.2428821   -4.0388006    48.392796  0.063011452  0.078937139            5 
   65000    1.2258604    -4.049711    49.470198  0.063423331  0.078830554            3 
   66000    1.2659615   -4.0501874    50.440401  0.063687374  0.078779663            2 
   67000    1.2387954   -4.0568116    51.615702  0.064198634  0.078764368            2 
   68000    1.2422625   -4.0462641    52.348966  0.064153144  0.078730875            1 
   69000    1.2561606   -4.0313189    53.480718  0.064590238  0.078696295            4 
   70000      1.24546   -4.0792513    54.449744  0.064821124  0.078698184            2 
   71000    1.2468229   -4.0425643    55.397268  0.065020267  0.078671379            3 
   72000    1.2529604   -4.0429404    56.393688  0.065270472  0.078659838            1 
   73000    1.2647096   -4.0444456    57.473826  0.065609389  0.078663126            2 
   74000    1.2292517   -4.0510142    58.228575  0.065572719   0.07866658            4 
   75000    1.2176065   -4.0507749    59.166144   0.06574016  0.078661371            1 
   76000    1.2117203   -4.0280596    60.000169  0.065789658  0.078654928            3 
   77000     1.257676   -4.0247293    60.698886  0.065691435   0.07861978            5 
   78000    1.2543777   -4.0397423    61.727548  0.065948235  0.078578705            2 
   79000    1.2581845   -4.0442007     62.43839   0.06586328  0.078523813            3 
   80000    1.2514214   -4.0366573    63.373016  0.066013558  0.078443796            2 
   81000    1.2197021   -4.0737461    63.666457   0.06550047  0.078356707            2 
   82000    1.2313894    -4.076322    64.733254  0.065785827  0.078270553            1 
   83000    1.2231007   -4.0416368    65.423389  0.065686134  0.078186973            1 
   84000    1.2427114    -4.052502    66.632206  0.066103379  0.078099482            3 
   85000     1.239755   -4.0809079    67.323548  0.066003479  0.078017036            4 
   86000    1.2461171   -4.0250275    68.093557  0.065982128  0.077920395            1 
   87000    1.2630699   -4.0272242    69.425507  0.066499528  0.077840558            2 
   88000    1.2389091   -4.0384344    69.638296  0.065945356  0.077772143            3 
   89000    1.2391931   -4.0459921    70.517775  0.066027878  0.077668165            3 
   90000    1.2656995   -4.0524546     71.67768  0.066368222  0.077565316            3 
   91000    1.2537628   -4.0394209    72.476321  0.066370257  0.077487861            2 
   92000    1.2281291   -4.0458855    73.690292  0.066748453  0.077443492            1 
   93000    1.2392443   -4.0626184    75.181764  0.067367172  0.077405675            1 
   94000    1.2450769   -4.0503533    75.535203  0.066963832  0.077362682            2 
   95000    1.2480908    -4.097509     75.91473  0.066591868  0.077301021            1 
   96000    1.2401382   -4.0700697    76.980137  0.066823035   0.07722551            3 
   97000    1.2507343   -4.0787465    77.811878  0.066848692  0.077158907            1 
   98000    1.2097935   -4.0258492    78.608244  0.066843744  0.077091309            3 
   99000     1.245633    -4.051904    80.076172  0.067404185  0.077039301            3 
  100000    1.2428968   -4.0763774    80.997779  0.067498149  0.077003863            2 
  101000    1.2312379   -4.0460826    82.011714   0.06766643   0.07698511            3 
  102000    1.2436732   -4.0292155    83.624391   0.06832058  0.076973266            1 
  103000    1.2166394   -4.0719051    83.691293  0.067711402   0.07696352            2 
  104000    1.2280524   -4.0795199    85.130529  0.068213565  0.076954546            2 
  105000    1.2544239   -4.0706337     85.93447   0.06820196  0.076954643            2 
  106000    1.2329749   -4.0467782     87.08472   0.06846283   0.07695256            3 
  107000    1.2410738    -4.054818    88.134924  0.068640906  0.076953724            2 
  108000    1.2459937   -4.0492055    89.622881  0.069153457  0.076970297            2 
  109000    1.2346968   -4.0689082    90.419518  0.069128071  0.077001015            3 
  110000    1.2372166   -4.0938834    91.094371  0.069010887  0.077028554            2 
  111000    1.2509893   -4.0500579    91.982585  0.069055995  0.077048262            2 
  112000    1.2413567   -4.0604484    92.974681   0.06917759  0.077077466            2 
  113000    1.2379075   -4.0521611    94.122796  0.069412091  0.077105562            1 
  114000    1.2129326   -4.0563398     94.79816    0.0692969   0.07712334            1 
  115000    1.2203754   -4.0542062    95.543423  0.069234365  0.077132484            3 
  116000     1.227661   -4.0331956    97.378116  0.069955543  0.077149258            1 
  117000    1.2194697    -4.053614    97.584403   0.06950456  0.077154518            3 
  118000    1.2353979   -4.0602308    98.008618  0.069215125  0.077153769            3 
  119000    1.2730589   -4.0060657    99.577693  0.069732278  0.077157444            3 
  120000    1.2792661   -4.0632252    99.732626  0.069258768  0.077160923            2 
  121000    1.2351486   -4.0878214    100.32003  0.069090926  0.077144828            3 
  122000    1.2139022   -4.0437601    101.60578  0.069402858   0.07713015            1 
  123000    1.2188357   -4.0653342    102.42235  0.069391838    0.0771159            1 
  124000    1.2045613   -4.0782145    103.29603  0.069419377   0.07710009            1 
  125000    1.2131378   -4.0616197    104.58973  0.069726483  0.077088355            1 
  126000    1.2257916   -4.0352812    105.30889  0.069648736  0.077076467            1 
  127000    1.2174071   -4.0793974    106.09639  0.069617051  0.077065198            2 
  128000    1.2283059   -4.0462473    107.61811  0.070063871  0.077052881            2 
  129000    1.2200369   -4.0499161    108.64341  0.070183079  0.077053458            3 
  130000    1.2299913    -4.046432    109.29351  0.070059942  0.077047087            2 
  131000    1.2186032   -4.0804669    109.88205  0.069899523  0.077035182            2 
  132000    1.2533883   -4.0542451    110.79573  0.069946799  0.077027973            2 
  133000    1.2353724   -4.0526798    112.21551  0.070310472  0.077026686            2 
  134000     1.189618   -4.0879717    113.15202   0.07036817   0.07702696            1 
  135000    1.2449433   -4.0544795     114.1301  0.070450679  0.077029223            1 
  136000    1.2468764   -4.0526448    114.99428  0.070462179  0.077034328            3 
  137000    1.2521951   -4.0686025    115.53889   0.07027913  0.077033536            1 
  138000    1.2318027   -4.0550022    116.44594  0.070317594  0.077028468            2 
  139000    1.2417186   -4.0912909    116.92584  0.070099427  0.077012908            2 
  140000    1.2261523   -4.0779869    118.21801   0.07036786  0.077003455            2 
  141000    1.2267388   -4.0433985     119.4034  0.070569386   0.07699453            1 
  142000    1.2120784   -4.0637744    119.79155  0.070300207  0.076983689            2 
  143000    1.2304166   -4.0312034    121.39302  0.070741853  0.076976239            2 
  144000    1.1908174   -4.0836966    121.47232  0.070296479  0.076959412            4 
  145000    1.2543151   -4.0801815     122.6779  0.070504543  0.076937551            1 
  146000    1.2219806   -4.0513687    123.29791  0.070375522  0.076917066            2 
  147000    1.2682309   -4.0530209     124.5832  0.070625395  0.076895032            3 
  148000    1.2486447   -4.0749046     124.8722  0.070310925  0.076876386            3 
  149000    1.2176526   -4.0881863    126.17698  0.070568781  0.076861133            1 
  150000    1.2425418   -4.0546244     127.2267  0.070681502  0.076845605            2 
  151000    1.2150908   -4.0777585    127.77047  0.070513506  0.076832683            2 
  152000     1.226559   -4.0594043     129.0877  0.070771766  0.076822473            2 
  153000    1.2369095   -4.0449723    129.51847  0.070543829  0.076813814            3 
  154000    1.2517293   -4.0554943    130.70544  0.070728052  0.076803171            1 
  155000    1.2122535   -4.0147203    131.24696  0.070562881  0.076787758            2 
  156000    1.2205992   -4.0670956    132.07003  0.070550228   0.07675984            1 
  157000    1.2198027   -4.0601569    132.42926  0.070291537  0.076731811            3 
  158000    1.2271945   -4.0622799     133.9634  0.070655802  0.076706422            2 
  159000    1.2492321   -4.1138139    134.69212  0.070593352  0.076682702            1 
  160000    1.2364318   -4.0481374    135.79233  0.070725171  0.076660752            2 
  161000    1.2103994   -4.0833169    136.38125  0.070590709  0.076640366            2 
  162000    1.1928071   -4.0400808    138.14409  0.071061775   0.07661653            7 
  163000    1.2365568   -4.0686236    138.64749  0.070883173  0.076599752            3 
  164000    1.2676901   -4.0586737    139.62838  0.070949382  0.076584086            2 
  165000    1.2328284   -4.0584675    140.74781  0.071084752  0.076567679            1 
  166000    1.2220372   -4.0919206    141.57555  0.071072065  0.076554096            3 
  167000    1.2592062   -4.0649756     141.8441  0.070780488  0.076536769            3 
  168000    1.2447363   -4.1200635    142.23962  0.070555366  0.076518584            2 
  169000    1.2113696   -4.0640995    144.14621  0.071078013  0.076504829            2 
  170000     1.223235   -4.0570482    144.92445  0.071041394  0.076496339            1 
  171000    1.2390926   -4.0436364    145.39506  0.070855293  0.076481637            2 
  172000    1.1941282   -4.0570981    145.98111  0.070727284  0.076459708            2 
  173000     1.217571   -4.0899233    146.93469  0.070777789  0.076429526            3 
  174000    1.2114747   -4.0563052     147.3748  0.070581799  0.076404869            2 
  175000    1.2680825   -4.0745169    147.93765    0.0704465  0.076373746            2 
  176000    1.2036186   -4.0675255    148.92279  0.070512686  0.076341712            3 
  177000     1.222949   -4.0767977    150.45516  0.070835764  0.076316189            2 
  178000    1.2424029   -4.0599387    151.06425  0.070722964  0.076288815            2 
  179000    1.2364789   -4.0449347    152.17077  0.070843001   0.07626411            4 
  180000    1.2470311   -4.0903746    153.19654  0.070924322  0.076243056            2 
  181000    1.2449528    -4.068921    153.56942  0.070704155  0.076211006            2 
  182000    1.2229869   -4.0945492    153.94803  0.070489024  0.076180588            1 
  183000    1.2129836   -4.0938131    154.78161  0.070483427  0.076144506            4 
  184000    1.1966427   -4.0650497    155.90498  0.070609139  0.076101932            1 
  185000    1.2142139   -4.0957388    156.86864   0.07066155  0.076066076            4 
  186000    1.2158568   -4.0524235    157.36332   0.07050328   0.07603265            2 
  187000    1.2014664    -4.083904    157.89654  0.070363875   0.07599628            2 
  188000    1.2373318   -4.0643065    159.19514   0.07056522  0.075959104            3 
  189000    1.2626189   -4.0852915    160.03504  0.070562188  0.075921558            1 
  190000    1.2266625   -4.0672051    160.91562  0.070577026  0.075880211            2 
  191000    1.2108861   -4.0906947    161.12655  0.070299542  0.075838662            1 
  192000    1.2313323   -4.0707727    161.49277  0.070092349  0.075795358            3 
  193000    1.2194983   -4.0761696    162.88035  0.070328301  0.075754598            2 
  194000    1.2192791   -4.0365059    163.89402  0.070401211  0.075714825            2 
  195000    1.2290323   -4.0732563    165.11169  0.070560552  0.075672136            3 
  196000    1.2135083   -4.1073012    165.05928  0.070178264  0.075628083            3 
  197000    1.2066427   -4.0607225    166.00561  0.070222338  0.075581952            5 
  198000     1.214691    -4.068636     166.8618  0.070228029  0.075530449            2 
  199000    1.1801259   -4.0815042    167.84185  0.070285534  0.075482491            1 
  200000    1.2349794   -4.1013811    168.42682   0.07017784   0.07543751            4 
  201000    1.2304855   -4.0469816    170.32119  0.070614094  0.075401677            2 
  202000    1.2298377   -4.0643491     170.5971  0.070378342  0.075368262            1 
  203000    1.2017395   -4.0541709    172.35934  0.070755066  0.075331136            7 
  204000    1.2043524   -4.0686474    172.90565  0.070631393  0.075296624            1 
  205000    1.1893662   -4.1013457    173.35862  0.070470984   0.07526299            1 
  206000    1.2180569    -4.055168    174.46589  0.070576816  0.075235136            1 
  207000    1.2217303    -4.061018    175.78174  0.070765596  0.075210568            3 
  208000    1.2075771   -4.0377038     176.1233  0.070562219  0.075180901            2 
  209000    1.2100786   -4.0890656     175.9465  0.070154108  0.075146744            3 
  210000    1.2327337   -4.0595858    177.26089  0.070341625  0.075109073            3 
  211000    1.2013427   -4.1056685    176.89027  0.069861876   0.07507154            2 
  212000    1.2118284   -4.0649263    178.13518  0.070021692   0.07503125            3 
  213000    1.2169859     -4.11173    178.75186  0.069934216  0.074989987            2 
  214000    1.2156254   -4.1001415    179.68847  0.069972146  0.074951605            1 
  215000     1.229876   -4.0888949    179.97708  0.069758558  0.074912628            3 
  216000    1.2117634   -4.0827435    182.08908  0.070250416  0.074877748            3 
  217000    1.2116842   -4.1067832    183.05486  0.070297567  0.074848404            1 
  218000    1.2153479   -4.0528123    184.01654  0.070342712  0.074815244            4 
  219000    1.2249501   -4.0884003    184.77988  0.070311978  0.074785381            2 
  220000    1.2004022    -4.092201    185.18214  0.070144748  0.074747326            2 
  221000    1.2475819   -4.0726978    186.54727  0.070342107   0.07471299            2 
  222000     1.233718   -4.0711949      188.018  0.070577327  0.074686447            1 
  223000    1.2255444   -4.0695069    188.33284  0.070378489   0.07466434            2 
  224000     1.211042   -4.1013421      189.352  0.070443454  0.074640089            1 
  225000    1.2040641   -4.0644275     190.2216  0.070452443  0.074614548            2 
  226000    1.2011232   -4.1170483    190.83694  0.070367605  0.074589009            2 
  227000    1.2078884   -4.0451781    192.53107  0.070679541  0.074570102            2 
  228000    1.2198017   -4.0842875    193.60608  0.070762458   0.07455066            5 
  229000    1.2052605   -4.1257126    193.39229  0.070375651   0.07453076            2 
  230000    1.2078401   -4.0796279     194.8106  0.070583551  0.074512041            2 
  231000    1.1893863   -4.0634401    196.42838  0.070861608  0.074497373            2 
  232000    1.2125576   -4.1273766    197.05956  0.070782888   0.07448071            3 
  233000    1.2071761   -4.0703304     198.3374  0.070936124  0.074465595            1 
  234000     1.202849   -4.0879538    198.77783  0.070789824  0.074451269            3 
  235000    1.1775269   -4.0873791    200.21502  0.070998233  0.074436264            3 
  236000    1.1924333   -4.0500533    202.10149  0.071363522  0.074426465            4 
  237000    1.2114073   -4.1135049    201.57742  0.070878136  0.074414579            2 
  238000    1.2003963   -4.1231838    203.28594   0.07117855  0.074405424            3 
  239000    1.2216794   -4.0503868    204.11881  0.071171134  0.074396303            1 
  240000    1.1954075   -4.1131292    205.32131  0.071292121  0.074389034            2 
  241000    1.2208518   -4.0880799    205.67113  0.071117266   0.07438345            1 
  242000    1.2168331   -4.0948184    206.98445  0.071275637   0.07437929            2 
  243000    1.2322001   -4.0992199    207.37874  0.071117537  0.074375795            1 
  244000    1.2275069   -4.0788746    208.12693  0.071081603  0.074367855            3 
  245000    1.2113742   -4.1147258    209.29465  0.071188655  0.074358242            2 
  246000    1.2049329   -4.0961935    209.42797  0.070944436  0.074346884            2 
  247000    1.1938843    -4.122451    210.72147  0.071093612  0.074333441            2 
  248000    1.1930518   -4.0763325    211.68991  0.071132363  0.074321674            4 
  249000    1.1986472   -4.1060221    211.97768  0.070942999  0.074311405            2 
  250000    1.2126415   -4.1104968    213.25102  0.071083674  0.074301544            4 
  251000    1.2332182   -4.1157011    213.13858   0.07076314  0.074289759            4 
  252000    1.2171543   -4.1075452    214.62405  0.070973562   0.07427648            2 
  253000    1.2327183   -4.1201644    215.61641  0.071019896  0.074267447            5 
  254000     1.214267   -4.1023474    216.79682  0.071127566  0.074260712            1 
  255000    1.2194533   -4.1233727    217.37394  0.071037234  0.074253742            2 
  256000    1.2087105   -4.0959727    218.88279  0.071250909  0.074245376            2 
  257000    1.2326933   -4.0967392    218.84746  0.070962211  0.074237191            1 
  258000    1.2056258    -4.088952    219.97871  0.071052556  0.074223216            2 
  259000    1.2276571   -4.1016233     220.5823  0.070972426  0.074210172            1 
  260000    1.2205195   -4.0799493    221.17987  0.070890983  0.074192602            2 
  261000    1.1893995   -4.0852971    222.89608  0.071167332  0.074177529            1 
  262000    1.2275673   -4.1214005    223.76152  0.071170966  0.074167237            2 
  263000    1.1924836   -4.0939314    223.97891  0.070969235  0.074156147            3 
  264000    1.2144083   -4.0599528    225.80573  0.071277061  0.074144529            2 
  265000     1.233184   -4.0969557    226.37509  0.071187136  0.074133856            3 
  266000    1.1989897    -4.093015    226.72013  0.071027611  0.074121057            2 
  267000    1.2269506   -4.1143079    227.40582  0.070975599  0.074110686            1 
  268000    1.2299763   -4.1047382    228.29553  0.070987415  0.074095096            1 
  269000    1.1933713   -4.0692073    230.30368  0.071345626  0.074082634            1 
  270000     1.203446    -4.080638    229.59425  0.070862422  0.074070857            2 
  271000    1.2080368   -4.0908494    230.40968  0.070851684  0.074057524            4 
  272000     1.183785   -4.1157577     232.2024   0.07114044  0.074045839            4 
  273000    1.1831406   -4.1240116    232.06507  0.070837932   0.07403295            4 
  274000    1.2117552   -4.0848065    233.29471   0.07095338  0.074018717            2 
  275000    1.2074588   -4.0848846    234.77917  0.071145202  0.074005206            1 
  276000    1.2071445   -4.1143799    235.25297  0.071030487  0.073992872            2 
  277000    1.2283548   -4.1213342    236.43656  0.071130133  0.073978813            1 
  278000    1.2103288   -4.1184651    237.15783  0.071090477  0.073965927            1 
  279000    1.2038658   -4.1103136    237.66038  0.070985776  0.073954841            6 
  280000    1.2018597   -4.1232101    238.15196  0.070878559  0.073944101            1 
  281000    1.2017381   -4.0696613    240.41226  0.071296638  0.073933577            6 
  282000    1.1905027   -4.1327699    240.09399   0.07094976  0.073921678            2 
  283000    1.1920558   -4.0873106    241.42799  0.071091871  0.073905089            2 
  284000    1.2120651   -4.0931469    241.45635  0.070849868  0.073888958            2 
  285000    1.2202166   -4.0825921    241.50266  0.070614813  0.073867803            2 
  286000    1.2352883   -4.1519778    241.72614  0.070433024  0.073848213            2 
  287000    1.1893341   -4.0817692    244.06214  0.070865893  0.073829953            1 
  288000    1.2194739   -4.1309032    244.47775  0.070740089  0.073813337            1 
  289000    1.2013096   -4.1575167    244.29307  0.070442061  0.073795488            1 
  290000    1.2235802   -4.1276333    246.12944   0.07072685  0.073777042            3 
  291000    1.2060171   -4.1310363    247.45999  0.070864831   0.07376348            1 
  292000    1.2241865   -4.1317824    248.41292  0.070894098  0.073751763            1 
  293000     1.189522   -4.1278874    248.82751  0.070770053  0.073736799            2 
  294000    1.1803543   -4.1070177    249.95422  0.070848701  0.073724437            5 
  295000    1.1740261   -4.0759837    252.32629  0.071278613  0.073713094            1 
  296000    1.1666942   -4.1266179    252.49989   0.07108668  0.073702623            3 
  297000    1.2005163   -4.1377122    253.36531  0.071090153  0.073692703            5 
  298000    1.1989205   -4.0822143    255.72525  0.071511536  0.073684533            1 
  299000    1.1892488   -4.1317394     254.8631  0.071032079  0.073676063            3 
  300000    1.2013693   -4.0961865    256.86411  0.071351142  0.073669045            1 
  301000    1.2032942   -4.1318164    256.84574   0.07110901  0.073661876            6 
  302000    1.1943461   -4.0889489    257.64707  0.071094666  0.073655353            5 
  303000    1.2159287   -4.1125825    259.98181  0.071502149  0.073649025            2 
  304000     1.204391   -4.1251667    260.43152   0.07139022  0.073642117            2 
  305000    1.1978352   -4.1420632    259.81807  0.070988544  0.073635848            5 
  306000    1.2078963   -4.1100797    261.06537  0.071096234  0.073627701            1 
  307000    1.1979251   -4.0872276     262.7018  0.071308849  0.073619143            2 
  308000    1.1897662   -4.1100477    263.12849  0.071192772  0.073612766            3 
  309000    1.2297497   -4.1110307    263.91877  0.071175505  0.073604187            1 
  310000    1.1978615   -4.1248295    264.44054  0.071086167  0.073598368            2 
  311000    1.1980381   -4.1118913    266.17896  0.071323407  0.073592461            2 
  312000    1.2096203   -4.1077683    267.06527  0.071331535  0.073586037            2 
  313000    1.1911979   -4.0707048     268.7769  0.071559345  0.073581855            2 
  314000    1.1909267    -4.106336     268.0927  0.071149868  0.073578924            2 
  315000    1.1688099   -4.1089678    268.44787  0.071017955  0.073573069            1 
  316000    1.1945555   -4.1219063     270.0162  0.071206805  0.073565931            1 
  317000     1.210394   -4.0829457     270.9491  0.071227419  0.073558785            4 
  318000    1.1947502   -4.1206514    270.57748  0.070906049  0.073551174            1 
  319000    1.1910447   -4.0871048    271.20983  0.070848962   0.07354424            2 
  320000    1.2228589   -4.1290382    274.48737  0.071481085  0.073536982            2 
  321000    1.1685034   -4.1176458    273.82298  0.071085924  0.073531862            3 
  322000    1.2154084   -4.1067028    274.46747  0.071031954  0.073524208            1 
  323000    1.1870937   -4.0912507    277.69859  0.071645662  0.073517732            4 
  324000    1.1840581   -4.0970092     277.4341  0.071356506  0.073512265            3 
  325000    1.1979543   -4.1384383    279.18976  0.071587117  0.073507018            1 
  326000    1.1782197   -4.0954835    279.00103  0.071319283  0.073499111            2 
  327000    1.1840356   -4.1142394    279.67251  0.071272302  0.073491726            2 
  328000    1.1821249   -4.1176878    281.24176    0.0714537  0.073483892            2 
  329000    1.2032594   -4.1799123     279.7535  0.070859548  0.073476696            2 
  330000    1.1855156   -4.1277464    281.42758   0.07106757   0.07346988            3 
  331000    1.1992935   -4.1135378    281.63838  0.070905936    0.0734603            2 
  332000    1.2413892   -4.1872042     282.9919  0.071032102  0.073452266            2 
  333000    1.1925775   -4.1022775    285.64199   0.07148198  0.073446756            2 
  334000    1.1934569   -4.1146101    286.25238  0.071420255  0.073441784            2 
  335000    1.2215946   -4.1097228    287.53342  0.071525725  0.073437922            5 
  336000     1.167137   -4.1213651    286.64099  0.071091514  0.073433543            2 
  337000    1.1926421   -4.1122407    288.23338  0.071274328  0.073431034            2 
  338000    1.1687754   -4.1080096    289.20724   0.07130356  0.073426804            2 
  339000    1.1773481   -4.0698482    292.45623  0.071891895  0.073423871            3 
  340000    1.1927462   -4.0858416     291.5674  0.071462598   0.07342323            3 
  341000    1.1817123   -4.1004168    293.40538  0.071702194  0.073420822            2 
  342000    1.1995352   -4.1222958    292.76822  0.071337287   0.07342033            2 
  343000    1.2082663   -4.1289781    293.42951  0.071289968  0.073415443            1 
  344000    1.1813744   -4.0968401    295.79479  0.071655715  0.073413415            2 
  345000    1.1857674    -4.134454    295.55113  0.071389161  0.073411231            1 
  346000    1.1870131   -4.1102251    298.75347  0.071954111  0.073407193            1 
  347000    1.1854467   -4.1100741    297.52631  0.071452044  0.073404812            4 
  348000     1.194252   -4.1205162    297.37867  0.071211368  0.073401567            2 
  349000    1.1777804   -4.1206746    299.63927  0.071547105  0.073399304            2 
  350000    1.1725825   -4.1069964    300.83516  0.071627418  0.073396184            3 
  351000    1.1806743   -4.1125811    299.69701  0.071153137  0.073391024            1 
  352000    1.1801001   -4.1153386    302.16056  0.071534224  0.073386189            3 
  353000    1.1793339   -4.1128542    303.08476  0.071549755  0.073384111            4 
  354000    1.2106924    -4.142548    303.93382  0.071547509  0.073383849            2 
  355000    1.2053516   -4.1262348     305.0126  0.071599201   0.07338377            2 
  356000     1.176046   -4.1492198    304.43966  0.071263966  0.073381787            3 
  357000    1.1988025   -4.1289717    306.08015   0.07144728  0.073380095            3 
  358000     1.211456   -4.1186821    307.21561  0.071512014  0.073376843            2 
  359000    1.1977017   -4.1387121    308.46366  0.071602521  0.073372264            2 
  360000    1.2006359   -4.1287075    309.54901  0.071654863    0.0733683            4 
  361000    1.2212908   -4.1169384    309.47795  0.071439971  0.073366373            1 
  362000     1.213836   -4.1164349    309.41869  0.071228981  0.073366177            2 
  363000     1.182275   -4.1197945    312.25462  0.071683797  0.073364607            3 
  364000    1.2144187   -4.1393987    313.66673  0.071810149  0.073364265            4 
  365000    1.1731502   -4.1240313     316.0148  0.072149498  0.073364054            2 
  366000    1.1971569   -4.1682641    313.38994  0.071354722  0.073362457            3 
  367000     1.180282   -4.1278157    313.69687  0.071229988  0.073360344            2 
  368000    1.1816155   -4.0916537    315.13919   0.07136304  0.073356684            3 
  369000    1.1674662   -4.1090761    318.53712  0.071937019  0.073353128            2 
  370000    1.2072269   -4.0994244    318.46922  0.071727302  0.073350578            3 
  371000    1.1966056   -4.1138911    318.84853  0.071619166  0.073347887            2 
  372000    1.1973107   -4.1471406    317.99468  0.071235367  0.073345185            2 
  373000    1.1980366   -4.1159767    319.81183  0.071450365  0.073340097            4 
  374000    1.2047186   -4.1261255    320.13587  0.071331521  0.073334321            2 
  375000    1.1822102   -4.1112113    322.54006  0.071675568  0.073328496            3 
  376000    1.1863755   -4.1708912    321.21795  0.071191922  0.073320965            3 
  377000    1.2048967   -4.1528082    321.70429  0.071110586  0.073314007            7 
  378000    1.1795776   -4.0838937    324.93958   0.07163571  0.073306477            2 
  379000    1.1721435   -4.1500641    323.34546  0.071096188   0.07329932            1 
  380000    1.2114245   -4.1639354    323.42712     0.070927   0.07328776            3 
  381000    1.1913317   -4.1208865    324.17181  0.070903721   0.07327678            1 
  382000    1.2189864   -4.1286879    326.07113  0.071132445  0.073265986            2 
  383000    1.2041635   -4.0871388    326.82827  0.071111459  0.073255184            1 
  384000    1.1668502   -4.1501477    326.93583  0.070949615  0.073242492            2 
  385000    1.1860702   -4.0950267    328.23341  0.071046192  0.073230793            4 
  386000    1.1930805   -4.1094095    327.59453  0.070724207  0.073219767            2 
  387000    1.1995126    -4.091783    329.95873  0.071050544  0.073208093            1 
  388000    1.2018263   -4.1759669    329.14169  0.070691944  0.073195695            1 
  389000    1.1689891   -4.1330779    330.00445  0.070695041  0.073181483            1 
  390000    1.1631322    -4.112854    331.56828  0.070847923  0.073170284            2 
  391000    1.1919763   -4.1464281     332.9494  0.070961083  0.073158052            2 
  392000    1.1905369   -4.1020411    333.80319  0.070961562  0.073144519            1 
  393000    1.1838464   -4.1389374    334.13708  0.070851797  0.073132204            3 
  394000    1.1882925   -4.1627584    335.51955  0.070964373  0.073120346            1 
  395000    1.2181229   -4.1222695    336.70346  0.071034486  0.073105976            1 
  396000    1.1660489   -4.1508487    334.94751  0.070485588  0.073092003            3 
  397000    1.1943751   -4.1703107    335.94817  0.070518088   0.07307838            2 
  398000     1.187772   -4.1401655    337.43898  0.070653052  0.073063443            2 
  399000    1.1879992   -4.1512256    336.96182  0.070376319  0.073048876            1 
  400000     1.191456   -4.1240946    339.92057  0.070816786  0.073032544            3 
  401000    1.1965201   -4.1380732    338.98928  0.070446651  0.073015768            2 
  402000    1.1925585   -4.0723534    342.54118  0.071007708  0.072999999            3 
  403000     1.182998   -4.1437579    340.47661  0.070404593  0.072982424            3 
  404000    1.2050446   -4.1200155    341.81942  0.070507307  0.072963473            3 
  405000    1.1769706   -4.1724866    343.41469  0.070661459  0.072944616            1 
  406000    1.1918126   -4.1229805    342.05766  0.070208879  0.072927422            2 
  407000    1.1800928   -4.1446711    343.35775   0.07030257   0.07290856            5 
  408000    1.2125477   -4.1550497    344.59507   0.07038298  0.072890318            1 
  409000    1.1714232   -4.1397716    345.75103   0.07044642  0.072871588            2 
  410000    1.2066567   -4.1124891    347.54916  0.070640072  0.072854551            2 
  411000      1.18006   -4.1119041    345.84226  0.070122113  0.072836859            1 
  412000    1.2124331   -4.1444296    346.73666   0.07013282  0.072818204            3 
  413000     1.183972    -4.110438    350.61371  0.070745301   0.07279997            2 
  414000    1.2170089   -4.1643679    349.42588  0.070335322  0.072782935            1 
  415000    1.1994804   -4.1211699    351.43235  0.070568744  0.072767026            3 
  416000    1.2035297   -4.1483766    350.85947   0.07028435  0.072750076            2 
  417000    1.1844688   -4.1373868    353.39377  0.070622257  0.072734227            1 
  418000    1.1916779   -4.1448652    354.14749  0.070603566  0.072716692            1 
  419000    1.2005244   -4.1579296    353.62789  0.070331721  0.072699685            3 
  420000    1.1858629   -4.1154041     354.8395  0.070404662  0.072683582            3 
  421000    1.1890385   -4.1505314    354.60748  0.070191503  0.072668355            2 
  422000    1.1670255   -4.1540411     356.2077  0.070341173  0.072653443            2 
  423000    1.1949238   -4.1736476    355.07943  0.069952606  0.072637686            2 
  424000    1.1778685   -4.1132768    361.48145  0.071045883  0.072623204            3 
  425000    1.1797118   -4.1354531    357.83774  0.070164264  0.072607512            4 
  426000    1.1812099   -4.1405416    358.65973  0.070160354  0.072590778            5 
  427000    1.1788887   -4.1225864    360.67431  0.070389209  0.072574566            1 
  428000    1.2028875   -4.1063028    361.77438  0.070438937  0.072558688            4 
  429000    1.1867884   -4.1425365    362.87151  0.070487861  0.072544716            2 
  430000    1.1539709   -4.1418016    363.85959  0.070515424  0.072530378            3 
  431000    1.1851753   -4.1371029    362.41795  0.070073075  0.072515619            1 
  432000    1.2022009    -4.158943    365.20992  0.070449444  0.072501417            3 
  433000    1.1841291   -4.1529903    365.40514  0.070324315  0.072487066            3 
  434000    1.2204483   -4.0876625    367.17742  0.070502576  0.072473234            2 
  435000    1.1976912   -4.1625321    365.94392    0.0701042   0.07245825            1 
  436000    1.1682913   -4.2074454    366.86358  0.070119185  0.072441966            2 
  437000    1.1745416   -4.0974399    368.56103  0.070282424  0.072425417            1 
  438000    1.1755334   -4.1159459    368.22028  0.070057131  0.072408683            2 
  439000    1.1929388   -4.1410328    370.12661  0.070259417   0.07239114            2 
  440000    1.1773407   -4.1807364    368.76866  0.069842549  0.072373512            2 
  441000    1.1936901   -4.1592344    369.84115  0.069886839  0.072354933            2 
  442000    1.1895352   -4.1390467    370.36871  0.069828188  0.072334721            3 
  443000    1.1663071   -4.1495218    371.23793  0.069834073   0.07231454            4 
  444000    1.1786405   -4.1577649    373.21421  0.070047712  0.072294835            2 
  445000       1.1681   -4.1613651    373.40721  0.069926444   0.07227638            2 
  446000     1.145254   -4.1791293    373.57794  0.069801558  0.072257616            1 
  447000     1.213602   -4.1220849    376.25919  0.070145263  0.072238731            3 
  448000    1.1727085   -4.1149329    378.15223  0.070340816  0.072220878            4 
  449000    1.1825251   -4.1568988    377.20662  0.070008653  0.072202826            1 
  450000    1.1883161   -4.1510414    377.19434  0.069850803  0.072183221            5 
  451000    1.1804611   -4.1578626    377.15115  0.069687943   0.07216362            2 
  452000    1.1773897   -4.1254856    378.51096  0.069784469  0.072145051            2 
  453000    1.1913469   -4.1766604    378.24223  0.069580984  0.072124793            5 
  454000    1.1823095   -4.1482275    379.31974  0.069625503  0.072102258            2 
  455000    1.1548567   -4.1611914     380.3837  0.069667343  0.072080385            1 
  456000    1.2017871   -4.1127999     380.5779  0.069550054  0.072057553            2 
  457000    1.2016199   -4.1779674    381.90454  0.069639777  0.072035135            1 
  458000    1.1831672   -4.1531256    382.73301  0.069638467  0.072012456            2 
  459000    1.1739037    -4.116638     382.4449  0.069434441  0.071990993            4 
  460000    1.1766732    -4.170237    383.95393  0.069556871  0.071969126            3 
  461000    1.1797768   -4.1458038    385.60821  0.069705027    0.0719478            3 
  462000    1.1733816   -4.1205202    385.17808  0.069476566  0.071927282            3 
  463000    1.1955568   -4.1576084    386.43548  0.069552823  0.071907471            2 
  464000    1.1809144   -4.1422402      388.222  0.069723779  0.071886379            3 
  465000    1.1478213   -4.1488308    387.41845  0.069429829  0.071864858            4 
  466000    1.1707001   -4.1170029    389.27581  0.069612984  0.071843675            7 
  467000    1.1627209   -4.1661207     389.9917  0.069591667  0.071823873            2 
  468000    1.1827495   -4.1579845    390.40731  0.069516971  0.071803606            3 
  469000    1.1775808   -4.1268207     391.3489  0.069536053  0.071782814            2 
  470000    1.1789298   -4.1249867    392.53417  0.069598258  0.071761114            2 
  471000    1.2027615   -4.1515557    391.91416  0.069340793  0.071741119            2 
  472000    1.1584173   -4.1853178    393.91401  0.069546966  0.071721019            2 
  473000    1.1829671   -4.1466336    394.66704  0.069532601  0.071701558            1 
  474000     1.189522   -4.1653154    393.72043  0.069219485  0.071681723            2 
  475000    1.1601796   -4.1608504    395.55709  0.069395981  0.071660031            2 
  476000    1.1721143   -4.1673397    394.03857  0.068984344  0.071638129            2 
  477000    1.1721753   -4.1641143    396.59322  0.069286028   0.07161704            3 
  478000    1.1666895   -4.1397557    396.19732  0.069072057  0.071595502            3 
  479000    1.1967665    -4.184833    397.82831  0.069211605  0.071573586            1 
  480000    1.1716069   -4.1231285    400.07516  0.069457493  0.071551691            3 
  481000    1.1760061   -4.1756325     399.2497   0.06917008  0.071532102            2 
  482000    1.1934392   -4.1340972    400.33963  0.069215013  0.071512301            2 
  483000    1.1699504   -4.1735921    399.98355  0.069010274   0.07149308            3 
  484000     1.151555   -4.1282303    403.14658   0.06941229  0.071473413            1 
  485000    1.2015649   -4.1548264    403.08799  0.069259105     0.071454            3 
  486000    1.1553649   -4.1358165    405.22761  0.069483472  0.071434487            2 
  487000    1.2016922   -4.1788631    404.68226  0.069247477  0.071415448            2 
  488000    1.1484549   -4.1588343    404.40356  0.069057985  0.071395731            2 
  489000    1.1544549   -4.1466816    407.30389  0.069411025  0.071375152            2 
  490000    1.1680544   -4.1706614    406.31472  0.069101143  0.071354516            3 
  491000    1.1698221   -4.1850362    406.82057  0.069046261  0.071332545            3 
  492000    1.1748059   -4.1579476    409.04671  0.069282979  0.071311533            3 
  493000    1.1853444   -4.1592368    408.40843  0.069034555  0.071290873            2 
  494000    1.1718417   -4.1377246    409.39504  0.069061241  0.071270793            3 
  495000    1.1627985   -4.1292915    411.30258  0.069242858  0.071250786            3 
  496000     1.149735   -4.1841995    411.67949  0.069166581  0.071232608            2 
  497000    1.1531445   -4.1133886    413.55956  0.069342649  0.071214876            2 
  498000    1.1585158   -4.1632425     413.6639  0.069220867  0.071196194            1 
  499000    1.1780294   -4.1533401    414.72764  0.069259793   0.07117849            3 
  500000    1.1731579   -4.1083321    416.58474   0.06943079  0.071159389            2 
  501000    1.1644724   -4.1272188     417.3006  0.069411278  0.071140001            5 
  502000    1.1794265   -4.1317241    416.97886  0.069219599  0.071122011            1 
  503000    1.1615636   -4.1468053    417.21391  0.069120927  0.071102769            2 
  504000    1.1738254   -4.1531159    417.57162  0.069042927  0.071084531            1 
  505000    1.1747112   -4.1308206    419.66077  0.069250952  0.071067452            3 
  506000    1.1824856   -4.1497613    422.40364  0.069565816  0.071050907            2 
  507000    1.1402885   -4.1295211    420.20453  0.069067148  0.071034181            3 
  508000    1.1634444   -4.1506165    422.07272  0.069237651    0.0710164            3 
  509000    1.1781999    -4.140249    424.25087  0.069458231  0.071001998            3 
  510000    1.1771189   -4.1261148    423.43911  0.069189397  0.070986546            1 
  511000    1.1568438   -4.1648863    423.59805  0.069079918  0.070970609            4 
  512000    1.1746049   -4.1542238    424.46386  0.069085915  0.070953398            1 
  513000    1.1441913   -4.1506941    424.04843   0.06888376  0.070936767            3 
  514000    1.1425846   -4.1184544    425.94538  0.069057293  0.070918582            1 
  515000    1.1560982   -4.1716817    427.21481  0.069128609  0.070900432            1 
  516000    1.1618039   -4.1609651    427.19503  0.068991445  0.070882742            4 
  517000    1.1557207   -4.1353878    429.06837  0.069159956  0.070865362            4 
  518000    1.1838945   -4.1849989    427.43164  0.068763133  0.070846725            2 
  519000     1.183092   -4.1373566    429.78076  0.069007829  0.070826459            2 
  520000    1.1708463   -4.1829632    427.21762  0.068464361  0.070805534            3 
  521000    1.1510804   -4.1765235    428.81819  0.068588961  0.070782305            3 
  522000    1.1617925   -4.1362456    430.87949  0.068786636  0.070760906            5 
  523000    1.1583791   -4.1376284    429.61649  0.068453871   0.07073955            3 
  524000    1.1770381   -4.1891385      429.932  0.068373409  0.070718223            3 
  525000    1.1512112   -4.1445527    430.52775  0.068337738  0.070694747            2 
  526000    1.1726159   -4.1542596    433.42595  0.068666975  0.070672316            3 
  527000    1.1557131   -4.1497517    434.14343  0.068650131  0.070650121            3 
  528000    1.1573853   -4.1700355     433.8046  0.068466636  0.070627352            5 
  529000    1.1575915   -4.1726165    433.11272  0.068228217  0.070603691            1 
  530000    1.1624692   -4.1180655    435.82314  0.068525651  0.070580358            3 
  531000    1.1688549   -4.1322839    435.70806  0.068378541  0.070557472            3 
  532000    1.1829531   -4.1940064    435.89095  0.068278657  0.070534082            3 
  533000    1.1595632   -4.1336982     438.8342  0.068610726  0.070511438            1 
  534000    1.1998303   -4.1733094    435.14437  0.067906424  0.070488779            2 
  535000    1.1707745   -4.1781523    434.93409  0.067746742  0.070463728            3 
  536000    1.1546772   -4.1836203    438.72002  0.068208958  0.070438698            1 
  537000    1.1741627   -4.1640744    436.74071  0.067774784  0.070413945            4 
  538000    1.1648462   -4.1535001    438.85548  0.067976376  0.070388936            4 
  539000    1.1576652   -4.1173613     439.1108  0.067889733  0.070364372            1 
  540000    1.1602953   -4.1697887    440.58954  0.067992214  0.070339871            3 
  541000    1.1493984   -4.1718872    440.71256  0.067885484  0.070313869            1 
  542000    1.1469552   -4.1606428    441.49666  0.067880791  0.070288888            2 
  543000    1.1857005   -4.1458269    442.28806  0.067877234  0.070263772            2 
  544000    1.1500389   -4.1513241    444.20281  0.068045773  0.070238801            3 
  545000    1.1610886   -4.1863699    444.70625  0.067997897  0.070215214            2 
  546000    1.1549916   -4.1293154    447.06243  0.068232972  0.070191287            2 
  547000    1.1598259   -4.1886901    446.10445  0.067962287  0.070167262            2 
  548000    1.1797579   -4.1488881    446.38306  0.067880635  0.070142617            1 
  549000    1.1448114   -4.1652121    447.34506  0.067903015  0.070118605            2 
  550000    1.1528913   -4.2041359    447.87763  0.067860247  0.070094934            2 
  551000     1.173219   -4.1615519    450.45935  0.068127548  0.070071739            2 
  552000    1.1676732    -4.161514    450.49874  0.068010075  0.070047921            2 
  553000     1.155902   -4.1728341    450.50309  0.067887746  0.070024782            1 
  554000    1.1340051   -4.1958171    451.04315  0.067846442  0.070001671            3 
  555000    1.1624244   -4.1833743    452.38604  0.067925832  0.069978478            1 
  556000    1.1806693   -4.1660015    453.86785  0.068025756  0.069956415            1 
  557000    1.1798159    -4.149504     454.4521  0.067991039  0.069934819            3 
  558000    1.1921065   -4.1186126    456.38936  0.068158507  0.069914109            2 
  559000    1.1969103   -4.2191029    453.24535  0.067567881    0.0698923            4 
  560000     1.165931   -4.1673635    454.97693  0.067704901   0.06986947            2 
  561000    1.1593314   -4.2024912    456.20937  0.067767286  0.069846199            2 
  562000    1.1715015   -4.1695549    457.91819  0.067900088  0.069823053            1 
  563000    1.1535327   -4.1439067    458.23753  0.067826751  0.069799985            3 
  564000    1.1647847   -4.1702894    457.67732  0.067623718  0.069776716            2 
  565000    1.1687357    -4.157683    458.67674  0.067651437  0.069752808            2 
  566000    1.1861593   -4.1407495    460.93958  0.067865073  0.069730768            1 
  567000    1.1506252   -4.1642392    458.63277  0.067406344  0.069707763            3 
  568000    1.1579435   -4.1821451    462.29043    0.0678243  0.069685312            2 
  569000    1.1835551    -4.128383    462.58873  0.067748789  0.069664214            1 
  570000     1.178966   -4.1687559    462.17064  0.067568808  0.069642991            2 
  571000     1.175516   -4.1767274    463.81218  0.067690044  0.069621321            3 
  572000    1.1377197   -4.1496764     466.3388  0.067939802  0.069599644            2 
  573000      1.17792   -4.1695956    464.77786  0.067594221  0.069578403            4 
  574000    1.1735916   -4.1809217    467.75927  0.067909302  0.069558025            4 
  575000      1.19176   -4.1865568    468.58564  0.067910962  0.069536007            2 
  576000    1.1665981   -4.1383079    470.06111  0.068006526  0.069515969            2 
  577000    1.1521401   -4.1345215    468.03957  0.067596702  0.069494476            2 
  578000    1.1547211   -4.2075035    468.47027   0.06754185  0.069473037            4 
  579000    1.1305769   -4.1898902    468.19877  0.067386121  0.069452376            3 
  580000    1.1448487   -4.1571968    471.91915  0.067804476  0.069431421            3 
  581000    1.1587122   -4.1609824    471.86997  0.067680718  0.069411384            2 
  582000    1.1632745     -4.17958    472.38239    0.0676378  0.069392806            2 
  583000    1.1619274   -4.1605352    473.65558  0.067703771  0.069374778            3 
  584000    1.1512294    -4.144469    476.02511  0.067925957  0.069357024            6 
  585000    1.1632609   -4.2041719    477.11362  0.067964903  0.069339526            3 
  586000    1.1591725   -4.1757555    477.47925  0.067900917  0.069322882            1 
  587000    1.1567683   -4.1677406    479.70243  0.068100857  0.069306608            2 
  588000    1.1533529   -4.2013602    478.22475  0.067775617  0.069289945            3 
  589000    1.1686166    -4.134613    482.66088  0.068288184  0.069273711            2 
  590000    1.1534482   -4.1994983    480.71765  0.067897973  0.069257351            2 
  591000    1.1438738   -4.2082766    480.67737  0.067777406  0.069241096            4 
  592000    1.1456648   -4.1991902    480.73703  0.067671316  0.069224296            3 
  593000    1.1647325   -4.1758438    482.51108  0.067806504   0.06920765            4 
  594000    1.1737377   -4.1675786    482.89119  0.067745678  0.069191029            3 
  595000    1.1474465   -4.1679528     482.7861  0.067617101  0.069174531            1 
  596000    1.1648751   -4.1700018    483.98417  0.067671164  0.069156945            2 
  597000     1.142158     -4.21841    483.77903  0.067529178  0.069137705            4 
  598000    1.1667309   -4.1693157    487.53062  0.067939049  0.069119096            5 
  599000    1.1385279   -4.2394347     483.9872  0.067332665  0.069100243            4 
  600000    1.1798413   -4.1616944    486.35779  0.067549693  0.069080716            2 
  601000    1.1603932   -4.1533334    489.05201  0.067810873  0.069062844            3 
  602000    1.1472388   -4.1884189    487.81027  0.067526339  0.069045105            2 
  603000    1.1543377   -4.1812173    489.27878    0.0676173  0.069026938            2 
  604000    1.1529217   -4.1975356    489.36441  0.067517164  0.069008417            2 
  605000    1.1541131   -4.1837131    489.91906  0.067481965  0.068990633            4 
  606000    1.1342394   -4.1917698    489.99115  0.067380521  0.068972841            3 
  607000    1.1659733   -4.1764933    492.86782  0.067664446  0.068954801            1 
  608000    1.1568926   -4.2062419    492.64104  0.067522073   0.06893765            1 
  609000    1.1433063   -4.1993693    494.12381  0.067614096  0.068919931            2 
  610000      1.14601   -4.1843392      493.131  0.067367623  0.068902427            2 
  611000    1.1488936   -4.1620874    495.45467  0.067574287  0.068885066            1 
  612000    1.1526696   -4.2325556    493.79173  0.067237435  0.068867842            3 
  613000    1.1511949   -4.1923945    496.36289  0.067477283  0.068851104            1 
  614000    1.1777456   -4.2034052    497.63899  0.067540579  0.068834119            3 
  615000    1.1664134   -4.1854244    497.84806  0.067459087  0.068818163            2 
  616000    1.1522337   -4.1977725    498.87489  0.067488486  0.068802259            3 
  617000    1.1494222   -4.1753723    499.23132  0.067427245  0.068785908            5 
  618000    1.1374191   -4.1643419     500.0302  0.067425863  0.068769842            1 
  619000     1.152225   -4.1795838    502.05577  0.067589629  0.068753794            2 
  620000    1.1398768   -4.1723882    501.83747  0.067451272   0.06873901            3 
  621000    1.1444597   -4.1864741    502.14685  0.067384171   0.06872398            3 
  622000    1.1542275   -4.1766177    504.26189  0.067559203  0.068709069            2 
  623000    1.1816531    -4.185108    505.78171  0.067654054  0.068695448            2 
  624000    1.1446098   -4.1744469    506.30721  0.067615814  0.068682074            3 
  625000    1.1109203   -4.1657391    510.35363  0.068047151  0.068669007            1 
  626000    1.1599595   -4.1653375    510.07608  0.067901502  0.068656109            9 
  627000    1.1409867   -4.1649838    508.30629  0.067557986  0.068642921            1 
  628000    1.1456889   -4.1972505    510.28178  0.067712551  0.068630567            3 
  629000    1.1373014   -4.1562683    514.62644  0.068180503    0.0686192            2 
  630000    1.1683293   -4.2162073    512.57099  0.067800395  0.068608627            3 
  631000    1.1458509   -4.1638632    515.17582  0.068036955  0.068598613            4 
  632000     1.170123   -4.1926183    515.55396  0.067979161  0.068587167            2 
  633000    1.1508916   -4.1953778     515.1808  0.067822643  0.068576073            2 
  634000    1.1302982   -4.2056666    512.76389  0.067397988  0.068565187            2 
  635000    1.1452022   -4.1887501    517.83433  0.067957262  0.068553742            2 
  636000    1.1542077   -4.1842075    516.71992  0.067704391   0.06854139            2 
  637000    1.1395088   -4.1681427    518.08321  0.067776453  0.068528816            3 
  638000    1.1476377   -4.1975228    517.30415  0.067568463   0.06851562            5 
  639000    1.1753953   -4.1837612    515.66147  0.067248497  0.068502251            1 
  640000    1.1672672   -4.2009478    518.30941  0.067488204  0.068487907            4 
  641000    1.1668574    -4.193784    520.33733  0.067646559  0.068473584            3 
  642000    1.1538316   -4.1859458    519.41735  0.067421774  0.068457997            3 
  643000    1.1221353   -4.2232673    515.55481  0.066816332  0.068441773            5 
  644000    1.1316355   -4.1554638    520.50339  0.067352923  0.068426265            3 
  645000    1.1510153   -4.2081912    519.59971  0.067131746   0.06841133            3 
  646000    1.1586812   -4.1768149    519.53412  0.067019365  0.068396414            2 
  647000    1.1356081   -4.1953257    521.04336   0.06711017   0.06838128            2 
  648000    1.1754387   -4.1941161    521.06103  0.067008877  0.068366145            2 
  649000    1.1380607   -4.1650306    524.18283  0.067306475  0.068350197            2 
  650000    1.1515362   -4.2162672    522.31972  0.066964066  0.068334446            2 
  651000    1.1417252   -4.1976711    523.94194   0.06706886   0.06831918            2 
  652000    1.1635759   -4.1961904    525.51765  0.067167388  0.068303646            3 
  653000    1.1762033   -4.2129384    524.13565  0.066888164  0.068288374            4 
  654000    1.1345164   -4.1986371    528.19278  0.067302851  0.068271702            2 
  655000    1.1349036   -4.2000428    526.00984  0.066922372  0.068254909            3 
  656000    1.1508392   -4.1789436    529.21363  0.067227341  0.068238586            2 
  657000    1.1426604    -4.164231    531.39631  0.067401866  0.068222583            2 
  658000    1.1600928   -4.2205282    527.23437  0.066772337  0.068206364            1 
  659000     1.124649   -4.1958136    529.19964   0.06691953  0.068191055            2 
  660000    1.1386814   -4.1633257    528.96514  0.066788528  0.068174227            6 
  661000    1.1646562   -4.2048955    528.01767  0.066568036  0.068158148            3 
  662000    1.1264996   -4.1667836    531.88056  0.066953747  0.068141721            1 
  663000    1.1514316   -4.2157515    529.77304  0.066587864  0.068124737            2 
  664000    1.1668201   -4.1792419    533.57331  0.066964522  0.068107521            3 
  665000    1.1401523   -4.2096884    532.21774  0.066693953  0.068090909            1 
  666000    1.1434039   -4.1956181    533.55491  0.066761125  0.068074997            3 
  667000    1.1387613   -4.1579825    537.39271  0.067140518  0.068059084            1 
  668000     1.134192   -4.1727666    537.31922  0.067030841  0.068043751            2 
  669000    1.1761214   -4.1889695     536.7604  0.066861036  0.068027919            2 
  670000    1.1560188    -4.200769    534.68731  0.066503397  0.068012221            2 
  671000    1.1484948   -4.1829901    539.67916  0.067024237  0.067996432            2 
  672000    1.1611891   -4.1328144    541.77775   0.06718474  0.067981432            2 
  673000    1.1332745   -4.1818393    541.13774  0.067005664  0.067966447            1 
  674000    1.1411819   -4.2163391    540.20919  0.066791443  0.067952228            2 
  675000    1.1596242   -4.1760055     541.4897  0.066850581   0.06793718            3 
  676000    1.1456087   -4.1965351    542.80277  0.066913556  0.067921948            3 
  677000    1.1896971    -4.206505    542.34916  0.066758883  0.067907157            2 
  678000    1.1230396   -4.2120548    544.36897  0.066908673  0.067892539            1 
  679000    1.1459903    -4.193301    546.44868  0.067065376  0.067878552            3 
  680000    1.1284159   -4.2023012    547.24325  0.067064124  0.067864483            4 
  681000    1.1445955   -4.1934194    544.96929  0.066687382  0.067848813            4 
  682000    1.1704924   -4.1779264    547.90342  0.066948121  0.067833648            2 
  683000     1.140963   -4.2407842    547.59296  0.066812221  0.067819013            2 
  684000    1.1194707   -4.1896979    547.89389  0.066751205  0.067803591            3 
  685000     1.125387   -4.2080286    550.05408  0.066916554  0.067788861            3 
  686000    1.1097449   -4.1779186    550.23153  0.066840564  0.067773539            3 
  687000    1.1311857   -4.1938101     550.7447  0.066805519  0.067758584            2 
  688000    1.1442289   -4.2272197    549.80995  0.066595197  0.067742995            2 
  689000    1.1356243   -4.2268907    550.12785  0.066536992  0.067728106            3 
  690000    1.1419704   -4.1939698    553.07931  0.066797018  0.067713375            3 
  691000    1.1155411   -4.1877768    556.36493   0.06709659   0.06769954            1 
  692000     1.144972   -4.2321865    553.69394   0.06667798  0.067684505            2 
  693000    1.1136394   -4.2246415    553.80748  0.066595415  0.067669603            3 
  694000    1.1495351   -4.1959161    554.55715  0.066589475  0.067655654            2 
  695000    1.1255265   -4.2409059    554.29091   0.06646174  0.067641108            2 
  696000    1.1539555   -4.2098563    556.64205  0.066647754  0.067626587            2 
  697000     1.134131   -4.2107955    555.37664  0.066400842  0.067612386            2 
  698000    1.1425331   -4.2170226     555.6286  0.066335793  0.067596984            1 
  699000    1.0903486   -4.2048715    558.18079  0.066545159  0.067582072            2 
  700000    1.1412636   -4.2120909    561.67188    0.0668657  0.067566991            2 
  701000    1.1556186   -4.2254378    560.52058   0.06663345   0.06755247            1 
  702000    1.1261591   -4.2241546    558.80787  0.066335217  0.067537567            3 
  703000    1.1677598   -4.1995771    560.58616  0.066451655  0.067522419            2 
  704000    1.1450048   -4.2328207    562.46784      0.06658  0.067506867            2 
  705000    1.1319632   -4.2159816    563.73629  0.066635495  0.067491038            3 
  706000    1.1189581     -4.20108    562.56403  0.066402741  0.067475723            1 
  707000    1.1188984   -4.2021327     562.9397  0.066353099  0.067460682            3 
  708000    1.1470185   -4.1892904    565.64504  0.066577806  0.067445867            2 
  709000    1.1249138   -4.2210508    564.76844   0.06638087  0.067431067            4 
  710000    1.1332202   -4.2134728    566.19267  0.066454539  0.067415321            4 
  711000    1.1093006   -4.1988142    565.61263  0.066293088  0.067399379            2 
  712000    1.1423633   -4.2165257    565.15981  0.066146982  0.067383363            1 
  713000    1.1618324   -4.1840288    568.02401  0.066388968  0.067366937            2 
  714000    1.1280765   -4.2031511    567.09629  0.066187709  0.067350282            1 
  715000    1.1334167   -4.2135653    567.73654   0.06616976  0.067334026            2 
  716000    1.1546956   -4.2002651    569.44306  0.066275962  0.067318782            2 
  717000     1.118935   -4.1902043    570.91569  0.066354683  0.067303308            3 
  718000    1.1200173   -4.1914403    569.05397  0.066046189  0.067287648            2 
  719000    1.1582735   -4.1596298    572.32218  0.066333122  0.067272586            3 
  720000    1.1314052   -4.2310337    570.44671  0.066023925  0.067256654            4 
  721000    1.1590579   -4.2296624    570.43455  0.065930947  0.067241236            3 
  722000    1.1159687   -4.2252398    572.11734  0.066033857  0.067225569            3 
  723000    1.1523998   -4.2268811    573.09801  0.066055556  0.067209759            5 
  724000    1.1423073   -4.2138496    575.05933   0.06619007     0.067194            2 
  725000    1.1262746   -4.2276367    575.68774  0.066171005  0.067177426            3 
  726000    1.1460171   -4.2351429    576.23034  0.066142142  0.067163201            2 
  727000     1.140019   -4.1977639    578.79144  0.066344732  0.067148402            2 
  728000    1.1309806   -4.2044612    579.58335  0.066344248  0.067134511            2 
  729000    1.1499877   -4.2079606    581.91364   0.06651962  0.067120215            4 
  730000    1.1444377   -4.2085324    581.37447  0.066366948  0.067106025            2 
  731000    1.1250728   -4.2031606    580.34263  0.066158531  0.067092049            3 
  732000    1.1354165   -4.2311387    580.11344  0.066042058  0.067078455            2 
  733000    1.1315189   -4.2045465    583.85169  0.066376954  0.067065452            1 
  734000    1.1257767   -4.2555849    582.44733  0.066127081  0.067052143            2 
  735000    1.1447281   -4.2268856    584.62858   0.06628442   0.06703952            2 
  736000    1.1332186    -4.238656    587.11141  0.066475476  0.067026683            2 
  737000    1.1402118   -4.1946288    587.92049  0.066476763  0.067013714            3 
  738000    1.1329233   -4.1929709    588.26531  0.066425623  0.067001413            3 
  739000    1.1301723   -4.2057137    587.97398  0.066302885   0.06698925            2 
  740000    1.1383939   -4.2338633    588.72111  0.066297422  0.066978003            1 
  741000    1.1088393   -4.2376548    589.12767  0.066253674  0.066966327            3 
  742000    1.1481963   -4.2406906    590.46822   0.06631494  0.066953833            2 
  743000    1.1311025    -4.203267    595.40979  0.066779922  0.066942197            2 
  744000    1.1130665   -4.2554054    591.88819   0.06629572  0.066930985            4 
  745000    1.1056141   -4.2437912    590.36777  0.066036663  0.066919494            2 
  746000    1.1173538   -4.2297528    593.11395   0.06625491  0.066907693            3 
  747000    1.1363486   -4.2349691    596.52558  0.066546807  0.066896413            1 
  748000     1.126449    -4.210906      600.462   0.06689639  0.066885279            2 
  749000    1.1253771   -4.2266803    595.13248  0.066214117  0.066875076            2 
  750000    1.1187882   -4.2205595    597.71925   0.06641325  0.066864064            2 
  751000    1.1345855   -4.1949116    599.11001  0.066479141  0.066852862            9 
  752000    1.1239269   -4.2040632    599.48247  0.066432011  0.066842429            1 
  753000    1.1458161   -4.2116564    598.31137  0.066214184  0.066832158            2 
  754000    1.1300278   -4.2076724    602.67721  0.066608888  0.066821153            6 
  755000    1.1100501   -4.2320331    601.15732  0.066352905  0.066810793            1 
  756000    1.1359921   -4.2169791    603.24767  0.066495555   0.06680056            2 
  757000    1.1311718   -4.2005585    603.34057   0.06641794      0.06679            3 
  758000    1.1375443   -4.2226145    602.31585  0.066217662  0.066779758            5 
  759000    1.1065169   -4.2299688    603.81442  0.066294952  0.066769334            6 
  760000    1.1216726   -4.2146406    604.19076  0.066248987  0.066758727            2 
  761000    1.1128837   -4.2587657    607.02251  0.066472023  0.066749113            6 
  762000    1.1347632   -4.2649825    605.82426  0.066253747  0.066739724            4 
  763000    1.1290803   -4.2579425    607.36179   0.06633484  0.066729758            3 
  764000    1.1081038   -4.2015908    609.00845  0.066427623  0.066719313            2 
  765000    1.1359099    -4.232923    607.41225  0.066166911  0.066709167            2 
  766000     1.110953   -4.2003656     609.6333   0.06632216  0.066699129            2 
  767000    1.1388623   -4.2443547    610.13836  0.066290565  0.066689366            2 
  768000    1.1192114   -4.1915586    613.17077  0.066533287  0.066679132            2 
  769000      1.12333   -4.2386341     612.0742  0.066327937  0.066669619            2 
  770000    1.1240067   -4.2013257    616.15037  0.066682941  0.066659654            1 
  771000    1.1575091   -4.1993455    614.05369  0.066369832  0.066650376            3 
  772000     1.129135   -4.2094416    615.61613  0.066452518  0.066640753            2 
  773000    1.1442632   -4.2210992    616.16396   0.06642561   0.06663127            3 
  774000    1.1067939   -4.2024562    614.14236  0.066122131   0.06662201            3 
  775000    1.1194432   -4.2055721    617.70847  0.066420265  0.066612088            2 
  776000    1.1116748   -4.2436099    617.72714  0.066336678  0.066601415            2 
  777000    1.1131274   -4.2206622    618.21652  0.066303788  0.066590611            5 
  778000     1.136251   -4.2232929    617.40603  0.066131751  0.066580822            6 
  779000    1.1366826   -4.1835652    621.44477  0.066478901  0.066571091            2 
  780000    1.1269821   -4.2014072    620.36239  0.066278033   0.06656082            2 
  781000     1.106259   -4.1840822    622.10572  0.066379184  0.066551691            7 
  782000    1.1308952   -4.2174233    621.26359   0.06620456  0.066542031            3 
  783000    1.1227239   -4.2103556    621.60639  0.066156491  0.066532823            1 
  784000    1.1328884    -4.212378    623.00454  0.066220721  0.066523396            3 
  785000    1.1475998   -4.2007133    623.74589  0.066215063   0.06651404            4 
  786000    1.1261322   -4.2599312    622.87664   0.06603866    0.0665046            4 
  787000     1.120399   -4.2163019     624.4128  0.066117408  0.066494421            3 
  788000     1.118046   -4.2526391    624.29496  0.066021041   0.06648372            4 
  789000    1.1090664   -4.2405543    626.06911  0.066124748  0.066473492            3 
  790000    1.1150163   -4.2401395    627.39912  0.066181341  0.066463287            3 
  791000    1.1510563   -4.2400427     626.1327  0.065964254  0.066452892            3 
  792000    1.1164028   -4.2407129     626.4214  0.065911342  0.066442769            7 
  793000    1.1236875   -4.2420933    629.13967  0.066113879  0.066432827            2 
  794000     1.133422   -4.2352437    631.64558  0.066293617  0.066422868            2 
  795000    1.1349336    -4.219373    631.48673  0.066193578  0.066413671            2 
  796000     1.147677   -4.2123159    634.19656  0.066394112  0.066404816            5 
  797000    1.1162151   -4.2325699    634.69133   0.06636254  0.066395632            4 
  798000    1.1062441   -4.2210039    633.47997  0.066152879  0.066386288            2 
  799000    1.1016465   -4.2651262    632.15723  0.065932126  0.066376212            4 
  800000     1.119268   -4.2175554    636.03019  0.066253144  0.066367079            2 
  801000    1.1122694   -4.2003979    637.21575  0.066293774  0.066357481            1 
  802000    1.1339189   -4.2389565    635.84441  0.066068622  0.066347601            2 
  803000    1.1399913   -4.2513419    636.57832  0.066062507  0.066337962            1 
  804000    1.1145215   -4.2308856    634.51352  0.065766327  0.066327267            3 
  805000    1.1187392   -4.2220666     638.3146  0.066078116  0.066317413            2 
  806000    1.0949822   -4.2125143    638.05659  0.065969457  0.066307044            3 
  807000    1.1204195   -4.2348395    638.49961  0.065933458  0.066296266            5 
  808000     1.117649   -4.2415071    636.61684  0.065657677  0.066284334            2 
  809000    1.1231321   -4.1936691     640.4242  0.065968706  0.066273564            2 
  810000    1.1419026   -4.2046063    642.88388  0.066140317   0.06626334            2 
  811000    1.1176341   -4.2397893    638.94927  0.065654467  0.066252761            2 
  812000    1.1339432   -4.2226241    640.71489  0.065754813  0.066241758            3 
  813000    1.1044201   -4.2219163    639.64832  0.065564609  0.066230424            3 
  814000    1.1242509   -4.2471964    641.44592  0.065668091  0.066219455            2 
  815000    1.1431116   -4.2268605    643.12065  0.065758758     0.066209            3 
  816000     1.102178   -4.2789384    642.34384   0.06559884  0.066198894            4 
  817000    1.1053283   -4.2319127    646.87563  0.065980786  0.066188743            4 
  818000    1.1293789   -4.2373826    645.40198  0.065749998  0.066178175            3 
  819000    1.1304255   -4.2394708    647.27171  0.065859962  0.066168255            3 
  820000    1.1295583   -4.2289304    649.27365  0.065983095  0.066158201            4 
  821000    1.1144168   -4.2674833    647.92745  0.065766083  0.066147569            3 
  822000    1.1243151   -4.2338568    650.93482  0.065990959  0.066137357            1 
  823000     1.127664   -4.2322453    649.82779  0.065798683  0.066126479            2 
  824000    1.1151314    -4.241817      650.619  0.065798847  0.066116331            3 
  825000    1.0972535   -4.2336647    652.43011  0.065902031  0.066105544            3 
  826000     1.122454   -4.2385692    654.04624  0.065985294  0.066095507            1 
  827000    1.1205918   -4.2501007    655.07466  0.066009135  0.066085899            2 
  828000    1.0848784   -4.2541902     653.9339  0.065814603  0.066075657            2 
  829000    1.1072158   -4.2633745    653.95654  0.065737488  0.066064855            3 
  830000    1.0964474   -4.2152019    653.18735   0.06558106  0.066054878            3 
  831000    1.1355628   -4.2494302    653.51795  0.065535294   0.06604357            2 
  832000     1.142105   -4.2663022    654.23254  0.065528099  0.066032559            2 
  833000    1.0936601   -4.2423491    656.19391   0.06564565  0.066021193            1 
  834000    1.0862401   -4.2178846    656.00641  0.065548202  0.066010277            2 
  835000    1.0884154   -4.2460986    658.60043  0.065728585  0.065999693            3 
  836000    1.1198535   -4.2406673    658.15633  0.065605695  0.065988956            2 
  837000    1.1372402   -4.2311413    661.39705  0.065849965  0.065978619            1 
  838000    1.1199585   -4.2476959    660.88126  0.065720093  0.065968743            1 
  839000     1.112915   -4.2531687     659.6616   0.06552062  0.065958085            2 
  840000    1.0986909   -4.2134265    662.47392  0.065721619   0.06594723            2 
  841000    1.0794452   -4.2613411    661.19527  0.065516772  0.065936745            2 
  842000    1.1374162   -4.2177274    663.05047  0.065622572  0.065926485            2 
  843000    1.1361796    -4.240169    664.51838  0.065689836   0.06591746            2 
  844000    1.1271081   -4.2450855    664.05276  0.065566031  0.065907839            2 
  845000    1.1080914   -4.2622923    667.27896  0.065806604  0.065898665            1 
  846000    1.1414586   -4.2339556    667.58276  0.065758743  0.065889175            3 
  847000    1.1251115   -4.2440139    666.37171  0.065561955   0.06587978            2 
  848000    1.1190285   -4.2399793    669.78523  0.065820089  0.065870972            5 
  849000    1.1282649   -4.2387034     667.1555  0.065484442  0.065862312            1 
  850000    1.1074359   -4.2492098    671.28054  0.065811818  0.065852297            2 
  851000    1.1186919   -4.2790941    669.11034  0.065521968  0.065843352            6 
  852000    1.1108041    -4.225457    672.18962  0.065746246  0.065834412            2 
  853000    1.1095454   -4.2863448    671.76765  0.065627946  0.065826269            1 
  854000    1.1395047   -4.2257544    676.50597  0.066013464  0.065818125            3 
  855000    1.1170931   -4.2432236    674.34207  0.065725348   0.06580993            2 
  856000    1.1143758   -4.2452269    676.40255  0.065849158  0.065801771            2 
  857000    1.1025185    -4.251864    676.88392  0.065819129  0.065793813            4 
  858000    1.1208119   -4.2352882    675.42176  0.065600404   0.06578556            1 
  859000    1.1099256   -4.2386785    677.82498  0.065757177   0.06577601            5 
  860000    1.0912314   -4.2430623    679.93812  0.065885477  0.065767369            2 
  861000    1.1052057   -4.2476544    678.98504  0.065716709  0.065758937            4 
  862000    1.0883334   -4.2067122    680.62762  0.065799267  0.065749884            2 
  863000    1.1265122   -4.2374799     678.4338  0.065511182  0.065741652            1 
  864000    1.1209135   -4.2630636    677.79555  0.065373799  0.065731986            4 
  865000    1.0954058   -4.2318465     678.4719  0.065363382  0.065722991            2 
  866000    1.1136179    -4.251525    677.01236  0.065147456  0.065712953            2 
  867000    1.1453423   -4.2317971    677.75579  0.065143771  0.065702426            3 
  868000    1.1199358   -4.2773248    679.94867   0.06527925  0.065692118            2 
  869000    1.1139861   -4.2540167    681.08961  0.065313541  0.065681383            4 
  870000    1.1190311   -4.2528727    681.14277   0.06524356  0.065670511            5 
  871000    1.1035384     -4.23036    682.09193  0.065259465  0.065659868            2 
  872000     1.120803   -4.2465919    680.85432  0.065066353  0.065649097            5 
  873000    1.1182049   -4.2242835    685.37621  0.065423464  0.065637963            4 
  874000    1.1095573   -4.2007583    685.47803  0.065358318  0.065627676            1 
  875000    1.1010704   -4.2511857    683.83809  0.065127437  0.065617478            2 
  876000     1.101498   -4.2420486     686.9911  0.065353034  0.065608023            4 
  877000    1.1378422   -4.2792643    684.51834  0.065043552  0.065598223            3 
  878000     1.075378   -4.2522452    688.40439  0.065338305  0.065588273            1 
  879000    1.0755172   -4.2453198    688.67257  0.065289398  0.065577791            3 
  880000    1.1191895   -4.2431308    689.54625   0.06529794  0.065568376            3 
  881000    1.1203125   -4.3061807    687.82053  0.065060588  0.065558713            2 
  882000    1.1216156   -4.2420372    691.72912  0.065356115  0.065548893            3 
  883000    1.1098916   -4.2536597    691.87158  0.065295543  0.065538626            2 
  884000    1.1041563   -4.2471997    692.57544  0.065288032   0.06552868            4 
  885000    1.1174542    -4.259312    693.64127   0.06531462  0.065517903            1 
  886000    1.0916941   -4.2628143    692.78732  0.065160583  0.065507131            3 
  887000    1.0943199   -4.2342474    694.63569  0.065260775  0.065496054            3 
  888000    1.1359652   -4.2583473    693.32909  0.065064666  0.065485127            2 
  889000    1.0933578    -4.240632     693.7392  0.065029921  0.065474584            3 
  890000    1.0956646   -4.2371401    694.16741  0.064996949  0.065464035            5 
  891000    1.1064498    -4.239959    696.64087  0.065155338  0.065454195            2 
  892000     1.128457   -4.2419395    696.05149  0.065027232  0.065443849            3 
  893000    1.1029051   -4.2757651    696.17433  0.064965876   0.06543333            2 
  894000    1.0980605   -4.2653395    694.20408  0.064709553  0.065422128            3 
  895000    1.0798899   -4.2661534    697.62341  0.064955625  0.065411177            3 
  896000    1.0906253     -4.27948    698.66363  0.064979876  0.065400476            2 
  897000    1.1037238    -4.266528    697.55198   0.06480416  0.065389609            1 
  898000    1.1014713   -4.3050928    700.64057  0.065018612  0.065378644            2 
  899000    1.1053731   -4.2383883    700.78397  0.064959582  0.065367701            2 
  900000    1.0844504    -4.270719    702.23112    0.0650214   0.06535652            3 
  901000    1.1234989   -4.2707893    701.60193   0.06489104  0.065345237            1 
  902000     1.103471   -4.2819476    701.40331  0.064800749  0.065333391            4 
  903000    1.1223246    -4.237726    703.96931  0.064965791  0.065322509            2 
  904000    1.1092402   -4.2750235    704.02694  0.064899238  0.065311348            2 
  905000     1.120009   -4.2497144    704.35567  0.064857796  0.065300039            3 
  906000    1.0975029    -4.254996    705.64752  0.064905033  0.065289359            2 
  907000    1.0934349   -4.2917108    704.57981  0.064735374  0.065278671            1 
  908000     1.112936   -4.2747374    706.56578  0.064846345  0.065268045            6 
  909000     1.099078   -4.2519003    707.43807  0.064854975  0.065257763            2 
  910000    1.1024556   -4.2468857    711.21382  0.065129471  0.065247906            2 
  911000    1.1221779   -4.2720315    709.13853  0.064868143  0.065237652            3 
  912000    1.1103964    -4.274373    709.60474  0.064839615  0.065226924            3 
  913000    1.1133328   -4.2535344    709.45554  0.064754978  0.065216446            3 
  914000    1.1241441   -4.2914759     709.1423   0.06465557  0.065205917            3 
  915000    1.1219163   -4.3002219    712.11436  0.064855589  0.065195491            2 
  916000    1.1274448   -4.2735685    711.22297  0.064703691  0.065185619            2 
  917000    1.0891594   -4.2516094    713.81167  0.064868382  0.065176026            3 
  918000    1.1051176   -4.2679642    717.05674  0.065092297  0.065166694            4 
  919000    1.1081841   -4.2291179    714.31415  0.064772773  0.065157448            3 
  920000    1.1137219   -4.2605885    717.63952   0.06500358  0.065148151            2 
  921000    1.0915098   -4.2651278    719.34712  0.065087506  0.065139297            1 
  922000    1.1113347   -4.2523928     719.8199  0.065059644  0.065130649            5 
  923000    1.1125026   -4.2765631    718.38525  0.064859629  0.065121203            2 
  924000    1.0963471   -4.2781453     718.8543  0.064831737  0.065111872            2 
  925000     1.119492   -4.2703315    720.11543  0.064875264  0.065102443            2 
  926000    1.0896395   -4.2513528     721.5559  0.064934837  0.065094134            3 
  927000    1.1119931   -4.2865248     720.8146  0.064798148  0.065084823            3 
  928000    1.0836178    -4.271095    724.11245  0.065024466  0.065076333            2 
  929000     1.103752   -4.2668591    726.99004  0.065212598  0.065067829            5 
  930000    1.1179147     -4.25378    724.38512  0.064909061  0.065059071            2 
  931000    1.1078321   -4.2657186    724.93565  0.064888619  0.065050155            4 
  932000    1.0965387    -4.244438     726.0135   0.06491537  0.065040795            3 
  933000    1.1214435   -4.2539693    725.77741  0.064824706  0.065032312            1 
  934000    1.0698943   -4.2679076       723.73  0.064572627  0.065022758            2 
  935000     1.116344   -4.2762198    724.01487  0.064528954  0.065012957            1 
  936000      1.10682   -4.2953301    728.35432   0.06484636  0.065002892            2 
  937000    1.1176774   -4.2553638    728.64654  0.064803143  0.064992293            2 
  938000    1.1077104   -4.2750591    726.86036   0.06457537  0.064981689            5 
  939000    1.1039362   -4.3005026    726.24363  0.064451866  0.064971164            4 
  940000    1.1136549   -4.2346567    728.64289  0.064596001  0.064960579            2 
  941000    1.0843758    -4.254547    731.00433   0.06473648  0.064950027            1 
  942000    1.1175685   -4.2661774    730.71565   0.06464222   0.06493996            3 
  943000    1.1143399   -4.2704841    732.14052  0.064699587  0.064929641            1 
  944000    1.1157802   -4.2781872    728.90445  0.064345378  0.064918569            4 
  945000    1.1156224   -4.2377024    733.42805  0.064676195  0.064907859            1 
  946000    1.0777779   -4.3031113     730.6588  0.064363883  0.064897557            3 
  947000    1.1074953   -4.2316193    734.72138  0.064653412  0.064886682            2 
  948000    1.0821764   -4.2388866    737.87531  0.064862457  0.064875636            4 
  949000    1.1037626   -4.2733553    733.83242  0.064439096  0.064864147            6 
  950000     1.062166   -4.2901667    733.86831  0.064374413  0.064852838            2 
  951000    1.1116713   -4.2276872    734.24993  0.064340162  0.064841367            4 
  952000    1.1013736   -4.2670708    738.24411  0.064622208  0.064830532            3 
  953000    1.0975921   -4.2321719    738.51154  0.064577784  0.064820283            3 
  954000    1.0835218   -4.2761202    737.77117   0.06444542  0.064809865            1 
  955000    1.0984442   -4.2959751    736.90077  0.064301986  0.064798623            2 
  956000    1.1125663   -4.2324293    741.28252  0.064616677  0.064788526            2 
  957000    1.1181259   -4.2641473     742.5824  0.064662347  0.064778393            1 
  958000    1.1155584   -4.2505537    744.73659  0.064782236  0.064768453            5 
  959000    1.0854996   -4.2769419    744.19734  0.064667826  0.064758812            3 
  960000    1.0893535   -4.3249196    741.77135  0.064389874  0.064747773            4 
  961000     1.104729   -4.2829861    746.17347  0.064704602  0.064737697            3 
  962000    1.0774311   -4.2782902    744.55002   0.06449671   0.06472739            5 
  963000    1.0863862   -4.2473863    743.03241  0.064298408  0.064717306            4 
  964000    1.0903178   -4.2739381     744.6558  0.064372044   0.06470669            2 
  965000    1.0935371   -4.2800203    745.78345  0.064402716  0.064696051            2 
  966000    1.0828973   -4.2851555    744.36154  0.064213383  0.064684534            2 
  967000    1.0938097   -4.2643125    748.13675  0.064472315  0.064673698            2 
  968000    1.1016207   -4.2693539    744.90331  0.064127351  0.064662586            2 
  969000     1.104867   -4.3030802      745.765  0.064135277  0.064651739            4 
  970000    1.0905494   -4.2452336    746.66294  0.064146301   0.06464049            2 
  971000    1.1087306    -4.253215    749.36292  0.064311957  0.064629822            1 
  972000    1.1087429     -4.29293    748.90886  0.064206864  0.064618782            3 
  973000     1.090626   -4.3121643    748.60366  0.064114736  0.064607339            6 
  974000    1.0683114    -4.298337     750.1076  0.064177584  0.064595917            2 
  975000    1.0716181   -4.2819873    752.98029   0.06435729  0.064584937            2 
  976000    1.1000428   -4.2843951    751.12355  0.064132817  0.064573816            2 
  977000    1.1012372   -4.2831235      749.974  0.063969123  0.064562721            6 
  978000     1.092235   -4.2806406    753.80772  0.064230378  0.064551469            5 
  979000    1.0662882   -4.2865583    753.71385   0.06415678   0.06454021            1 
  980000     1.108652   -4.3015669    754.50153  0.064158293  0.064528872            2 
  981000    1.0956976   -4.2628357    757.93793  0.064384805  0.064517926            1 
  982000    1.1049661   -4.2445572    755.66976  0.064126762   0.06450739            6 
  983000     1.107706   -4.2409578    757.93348  0.064253431  0.064497181            2 
  984000    1.0996865   -4.3174724    758.65626  0.064249344  0.064486522            2 
  985000    1.1086468   -4.2978809    759.21992  0.064231804  0.064476494            4 
  986000    1.0896161   -4.2900687    759.63237  0.064201518  0.064465429            3 
  987000    1.0910457     -4.30724    759.21362  0.064101117  0.064455742            2 
  988000    1.0971681   -4.2849865    759.87111  0.064091693  0.064444839            2 
  989000    1.1031563   -4.2694598     760.9783   0.06412018  0.064433919            4 
  990000    1.0939558   -4.2726064     763.3828  0.064257812  0.064424124            4 
  991000    1.0817938   -4.2984804     762.2736  0.064099697  0.064414528            2 
  992000     1.114472   -4.2845175    765.79024  0.064330497  0.064404623            3 
  993000    1.1062901   -4.3122177    764.46604  0.064154585  0.064394824            2 
  994000    1.1063875    -4.264422    767.55457  0.064348974  0.064385109            2 
  995000    1.0877306   -4.2756364    764.50087  0.064028548  0.064375356            3 
  996000    1.1011261   -4.2726441    767.23701   0.06419319  0.064365102            3 
  997000    1.0839831     -4.31264    769.25656  0.064297606  0.064354857            2 
  998000    1.0842098   -4.2827576    769.72138  0.064271992  0.064344503            2 
  999000    1.0883264   -4.2860568    767.71887  0.064040613  0.064334761            2 
 1000000    1.1040651   -4.2798252    770.40459  0.064200383  0.064324338            2 
 1001000    1.1029008   -4.2846043    769.53305   0.06406369  0.064314296            1 
 1002000    1.0934435   -4.2747694    771.07701  0.064128161  0.064304828            2 
 1003000     1.098441   -4.2710792    771.45723  0.064095815  0.064295032            2 
 1004000    1.0887161   -4.2927581    769.78262   0.06389298  0.064284735            4 
 1005000    1.1144576   -4.2906865    771.01537  0.063931622  0.064273392            3 
 1006000    1.1026739   -4.2550217    772.25456  0.063970723  0.064262152            3 
 1007000    1.1119984   -4.2708425    773.14214  0.063980647  0.064251261            2 
 1008000    1.0888957     -4.29239    774.16985  0.064002137  0.064240143            5 
 1009000    1.0969001   -4.2622949    776.43025  0.064125393  0.064229442            2 
 1010000    1.0596259   -4.3095033    772.24183  0.063716322  0.064218381            2 
 1011000    1.0797073   -4.2731905    775.82872  0.063948955  0.064207299            4 
 1012000    1.1005949   -4.2841478    773.43393  0.063688565   0.06419615            2 
 1013000    1.0856078   -4.2972937    774.65711  0.063726317  0.064184497            2 
 1014000     1.079241   -4.2521523    776.25071  0.063794437  0.064172803            4 
 1015000    1.1071289   -4.3040963    775.19182  0.063644649  0.064161333            2 
 1016000    1.1052556   -4.3048012    777.54938  0.063775376  0.064150073            4 
 1017000    1.0942241   -4.3088468    777.88074  0.063739818    0.0641387            2 
 1018000    1.0913744   -4.2861035     778.8052  0.063752881  0.064127016            2 
 1019000    1.0923842   -4.2967606    778.67436  0.063679617  0.064115206            3 
 1020000    1.0910132   -4.2853121    778.77478  0.063625391  0.064103867            2 
 1021000    1.0823319   -4.2785104    779.69885  0.063638496  0.064092149            1 
 1022000    1.1046045   -4.2692821    779.89786  0.063592454  0.064080175            3 
 1023000    1.0891774   -4.3002069    780.23547  0.063557793  0.064068258            2 
 1024000     1.091037   -4.2951839    782.89622  0.063712257  0.064056139            1 
 1025000    1.1097404   -4.3504215    778.87436  0.063323118  0.064044287            4 
 1026000    1.1077538   -4.2702081    786.38519  0.063871442  0.064032733            6 
 1027000    1.0825266   -4.2931945      783.146  0.063546413  0.064021891            3 
 1028000    1.0881219   -4.3224064    783.88429  0.063544446  0.064010247            4 
 1029000    1.0778634   -4.3038197    786.11964  0.063663722  0.063998825            2 
 1030000    1.0617877   -4.2978603    784.89097  0.063502506  0.063987476            1 
 1031000    1.0906956   -4.2972689    785.57469  0.063496176  0.063975823            2 
 1032000    1.0745712   -4.3133238    783.73828   0.06328636  0.063964341            2 
 1033000    1.0940822   -4.3417896    786.67898  0.063462325  0.063953036            2 
 1034000    1.0970364   -4.2655203    789.19314  0.063603573  0.063941997            4 
 1035000    1.0773954   -4.3148171    788.36341  0.063475314    0.0639318            3 
 1036000    1.1052653   -4.2985382       788.65  0.063437097  0.063920801            4 
 1037000    1.0856313   -4.3022157    790.83541  0.063551543  0.063910004            3 
 1038000    1.0749776    -4.299622     793.5155  0.063705483  0.063899613            2 
 1039000    1.0915871   -4.3015423    795.11292  0.063772291  0.063889015            4 
 1040000    1.0918883   -4.2975946    795.16455  0.063715108  0.063878988            3 
 1041000    1.0867736   -4.2856265    792.73105  0.063459098  0.063868419            3 
 1042000    1.0773327   -4.2952542    792.05367  0.063344024  0.063857588            2 
 1043000    1.0708969   -4.2816588    796.51197  0.063639499  0.063846949            3 
 1044000    1.0897631   -4.3328144    793.89825  0.063369912  0.063836091            3 
 1045000    1.1130346   -4.2994563    795.84911  0.063464842  0.063825081            3 
 1046000    1.0905741   -4.2895448     798.9772  0.063653378  0.063814521            2 
 1047000    1.1014313   -4.3192309    797.99745  0.063514601  0.063803795            3 
 1048000     1.095401   -4.3228364    797.02039  0.063376303  0.063792523            4 
 1049000    1.0843482   -4.3053079    795.79047  0.063218182   0.06378181            3 
 1050000    1.1044601     -4.31576    800.28795  0.063514917  0.063771151            3 
 1051000    1.0897262   -4.3077872    796.50416  0.063154469  0.063760299            3 
 1052000    1.0793476   -4.3230381    798.89414  0.063283757  0.063749474            3 
 1053000    1.0748671   -4.3101173    804.91631  0.063700246  0.063738339            3 
 1054000    1.0902669   -4.2812168    802.14905  0.063421019  0.063727494            6 
 1055000    1.0928463   -4.3254887    801.13581  0.063280869  0.063716697            3 
 1056000    1.0861622    -4.284007    801.48804  0.063248741  0.063705432            2 
 1057000     1.080804   -4.2996106    804.06869   0.06339236  0.063694297            4 
 1058000    1.0672379   -4.3037247    801.55116  0.063134149   0.06368332            2 
 1059000    1.0674822   -4.3163249    802.65528  0.063161416  0.063672037            4 
 1060000    1.0966576   -4.3189449    804.47388  0.063244802  0.063660545            2 
 1061000    1.0790548   -4.3453019     802.7589  0.063050495  0.063649498            1 
 1062000    1.0776383   -4.2764753    807.17497  0.063337647  0.063638331            4 
 1063000    1.0838722   -4.3407867    805.32825   0.06313329  0.063626957            9 
 1064000    1.0647189   -4.3017821    806.12974  0.063136728  0.063615582            3 
 1065000    1.0904199   -4.3218906    809.88174  0.063371028  0.063604307            1 
 1066000    1.0888894    -4.280101    809.26547  0.063263404  0.063593384            2 
 1067000    1.0772328   -4.2879656     808.5786  0.063150469  0.063582305            3 
 1068000    1.0905326   -4.2963454    813.11183  0.063445055  0.063571673            2 
 1069000    1.0854044   -4.3318901    808.49602  0.063025883  0.063561467            5 
 1070000    1.0585667   -4.3018649    811.29041  0.063184611  0.063550408            3 
 1071000    1.0895239   -4.3072289    813.04325  0.063262002  0.063539693            2 
 1072000    1.0734113    -4.292549    811.87416  0.063112108  0.063529055            3 
 1073000    1.0687282   -4.3096283    811.35488  0.063012961  0.063518443            4 
 1074000     1.063923   -4.2765194    814.81257  0.063222577  0.063507938            2 
 1075000    1.0614171   -4.3306223     815.5825  0.063223449  0.063497316            2 
 1076000    1.0795893   -4.3101033    813.47271  0.063001294  0.063486375            2 
 1077000    1.0837145   -4.2886501    811.98343  0.062827563  0.063474253            3 
 1078000    1.0778389   -4.3191799    816.95804  0.063153837  0.063462988            2 
 1079000    1.0809151   -4.3032608    819.14054  0.063263866  0.063452206            5 
 1080000    1.0745587   -4.2794299    818.12047  0.063126579  0.063441378            5 
 1081000    1.0676425    -4.329711    818.88834  0.063127378  0.063430631            2 
 1082000    1.0664858   -4.3249257    820.76589  0.063213639   0.06342014            3 
 1083000    1.1064969   -4.2863546      823.985   0.06340297  0.063409963            1 
 1084000    1.0992056   -4.2690428    822.93367  0.063263659  0.063399569            2 
 1085000    1.0919087   -4.3172184    822.70397  0.063187709  0.063389246            4 
 1086000    1.0793731   -4.3256715    821.43906  0.063032463  0.063379003            6 
 1087000    1.0751604   -4.3235099    822.52615  0.063057816  0.063368928            2 
 1088000    1.0382931   -4.3340637     823.5777    0.0630804  0.063358511            2 
 1089000    1.0931131   -4.2987982    824.57674  0.063098924  0.063348557            2 
 1090000    1.0631364   -4.3218322    824.21414  0.063013313  0.063338939            2 
 1091000    1.0715421    -4.321223    825.43957  0.063049158  0.063329116            4 
 1092000    1.0613289   -4.3046181    827.16863  0.063123369  0.063319542            3 
 1093000    1.0668186   -4.2952894     826.1684  0.062989356  0.063309476            4 
 1094000    1.0858354   -4.3164791    825.67156  0.062893933  0.063299366            5 
 1095000    1.1076345   -4.2737211    834.75788  0.063527997   0.06328934            6 
 1096000    1.0828874   -4.3062781     834.8021  0.063473396  0.063279708            2 
 1097000    1.0670075   -4.3224333    830.26624  0.063070969  0.063270018            2 
 1098000    1.0676772   -4.3103358    829.06212   0.06292214  0.063259807            2 
 1099000     1.067361   -4.3086902    830.12051  0.062945141  0.063249218            3 
 1100000    1.0975168   -4.3109444    833.76682  0.063164153   0.06323896            2 
 1101000    1.0865362   -4.3243774    831.15553  0.062909138  0.063228132            2 
 1102000    1.0798953   -4.2902581    833.72669  0.063046483   0.06321706            3 
 1103000    1.0413706   -4.3019525    829.74415  0.062688437  0.063205991            2 
 1104000    1.0797975   -4.3451419    831.08733  0.062733041  0.063194644            1 
 1105000    1.0965111   -4.3127374    831.87713  0.062735832  0.063183371            2 
 1106000    1.0455285   -4.3126426    834.75285  0.062895784  0.063172545            2 
 1107000    1.0658754   -4.3115023    834.57192  0.062825347  0.063161009            6 
 1108000    1.0687244   -4.3142132    833.13031  0.062660222   0.06314971            3 
 1109000    1.0678815   -4.3027967    835.37472  0.062772372  0.063138608            7 
 1110000     1.069018   -4.3341111    833.49067  0.062574375  0.063127789            3 
 1111000    1.0620628   -4.2754484    836.70962  0.062759497  0.063116906            2 
 1112000    1.0735763    -4.312122    837.31117  0.062748139  0.063105733            3 
 1113000    1.0467772   -4.3103197    840.16611  0.062905519  0.063095149            2 
 1114000      1.09323   -4.3369926    834.02831  0.062389909  0.063083594            3 
 1115000    1.0609236   -4.3449812    837.63399  0.062603437  0.063072345            3 
 1116000    1.0627582    -4.330611    841.16338  0.062810886  0.063060766            2 
 1117000    1.0647601   -4.3287868    840.39839  0.062697582  0.063049267            2 
 1118000     1.085436   -4.3018484    840.03258  0.062614235  0.063038124            3 
 1119000    1.0608917   -4.3321374    838.17018  0.062419585  0.063026696            4 
 1120000    1.0821149   -4.3161319    841.53437  0.062614164  0.063014935            2 
 1121000    1.0675866   -4.3221392    841.86443  0.062582845  0.063003334            2 
 1122000    1.0684866   -4.3315979    844.40078  0.062715447  0.062991292            2 
 1123000     1.047048   -4.3270076    840.49624   0.06236986  0.062979021            2 
 1124000    1.0797544   -4.2972516    843.33373  0.062524743  0.062967318            3 
 1125000    1.0769397   -4.3097767    843.90952  0.062511816  0.062955648            2 
 1126000    1.0777343   -4.3071409    846.25962  0.062630226  0.062944473            3 
 1127000    1.0570275   -4.3441505    841.70859  0.062238139  0.062932377            5 
 1128000    1.0939988   -4.3417787    845.38975  0.062454916  0.062920506            3 
 1129000    1.0840825   -4.3312136    842.82937  0.062210612  0.062908624            3 
 1130000    1.0567982   -4.3349398    846.79352    0.0624479  0.062897092            1 
 1131000    1.0480759   -4.3093377    847.50717  0.062445268  0.062885783            2 
 1132000    1.0812224   -4.3312346    848.53717  0.062465928  0.062874304            4 
 1133000    1.0544541   -4.3197611    849.56797  0.062486611  0.062863431            2 
 1134000    1.0489163   -4.2986909    849.65859  0.062438168  0.062852536            1 
 1135000    1.0628835   -4.3164892    853.24213  0.062646265  0.062841471            2 
 1136000     1.056271   -4.3078883    852.77273  0.062556685  0.062830356            2 
 1137000    1.0692962   -4.3173983    851.95309  0.062441593  0.062818735            2 
 1138000    1.0822348   -4.3367965    850.94934  0.062313221  0.062807641            1 
 1139000    1.0802755   -4.3085612    854.95647  0.062551688  0.062796703            2 
 1140000     1.105084   -4.3507196    849.48554  0.062096896  0.062785582            4 
 1141000    1.0794673   -4.3164366    853.52335  0.062337376  0.062773783            2 
 1142000    1.0716041   -4.3302446    854.29984  0.062339451  0.062761898            2 
 1143000    1.0684307   -4.2970135    857.19173  0.062495752  0.062750821            2 
 1144000    1.0890707   -4.3270941    854.62751  0.062254335   0.06273919            4 
 1145000    1.0871226   -4.3282537    857.59237  0.062415748  0.062727301            2 
 1146000    1.0719747   -4.3422236    855.41772   0.06220315  0.062715339            2 
 1147000    1.0714504     -4.31206    856.81246  0.062250252  0.062703469            4 
 1148000     1.062343   -4.3225462    857.13033    0.0622191  0.062691213            3 
 1149000    1.0515786   -4.3291372    855.20911   0.06202561  0.062679351            3 
 1150000    1.0747719   -4.3515766    856.57757  0.062070838  0.062666957            6 
 1151000    1.0864431   -4.3202717    861.62163  0.062382104  0.062655039            2 
 1152000    1.0543487   -4.3246943    861.03836  0.062285761  0.062642881            2 
 1153000    1.0649688   -4.3406513    860.52466  0.062194613  0.062630808            2 
 1154000    1.0762607   -4.3173972    860.39948  0.062131678  0.062618979            3 
 1155000    1.0705735   -4.3189876    861.52703  0.062159238  0.062606915            2 
 1156000     1.087376   -4.3187671    863.13632  0.062221476  0.062595433            5 
 1157000    1.0773021   -4.3175753    864.26258  0.062248817  0.062583643            1 
 1158000      1.05468   -4.3075573    863.12398  0.062113125  0.062571948            4 
 1159000    1.0478616   -4.3195986      864.242   0.06213992  0.062560416            4 
 1160000    1.0807753   -4.3398791    861.83104  0.061913149   0.06254847            4 
 1161000    1.0454586   -4.3072149    867.50216  0.062266879  0.062536616            1 
 1162000    1.0635013   -4.3377704    866.35945  0.062131344  0.062524679            1 
 1163000    1.0939944    -4.329657     864.6655  0.061956542  0.062513032            3 
 1164000    1.0657758   -4.3351551    866.61264  0.062042715  0.062501604            4 
 1165000     1.064498    -4.306878    868.54252  0.062127505  0.062489966            1 
 1166000    1.0679747   -4.3312842    864.71615  0.061800754  0.062478658            2 
 1167000    1.0798184   -4.3143454    869.75577  0.062107667  0.062467118            2 
 1168000    1.0815336   -4.3508028    866.83891  0.061846384  0.062455472            2 
 1169000    1.0771422   -4.3056517    873.04072   0.06223558  0.062443312            3 
 1170000    1.0702837   -4.3524009    869.70206  0.061944591  0.062431127            2 
 1171000    1.0351319   -4.3229306    871.10917  0.061991829  0.062419518            5 
 1172000     1.084483    -4.339426    873.60577  0.062116451  0.062408216            3 
 1173000    1.0561747   -4.3452297    873.65472  0.062066974  0.062396909            4 
 1174000    1.0512139   -4.3140639    878.01774  0.062323803  0.062385323            5 
 1175000    1.0587579   -4.3440396     872.0416  0.061846922  0.062374054            2 
 1176000    1.0632178   -4.3148177    874.03549  0.061935621  0.062362711            3 
 1177000    1.0672119   -4.3252957    877.15063  0.062103556  0.062351469            4 
 1178000    1.0447962   -4.3396464    874.51809  0.061864607  0.062340072            3 
 1179000      1.06837   -4.3491156    874.75808  0.061829098  0.062328793            2 
 1180000    1.0729922   -4.3341917    878.38947  0.062033154  0.062317024            1 
 1181000    1.0478306   -4.3412135    874.46547  0.061703744  0.062305475            3 
 1182000    1.0757239   -4.2907206    884.22467  0.062339585  0.062294421            4 
 1183000    1.0745056   -4.3369682    878.41151  0.061877396  0.062284059            2 
 1184000    1.0585668   -4.3162259    879.31974  0.061889058   0.06227304            5 
 1185000    1.0773437   -4.3392721    884.43317  0.062196425  0.062262541            4 
 1186000    1.0795298   -4.3323208    885.43897  0.062214655  0.062251633            2 
 1187000    1.0376898   -4.3401151    883.31685  0.062013258  0.062240581            5 
 1188000    1.0776318   -4.3017731    887.14181  0.062229364  0.062229552            5 
 1189000    1.0695173   -4.3265281    885.91543  0.062091073  0.062219012            4 
 1190000    1.0589217    -4.331516     884.6714  0.061951779  0.062207873            3 
 1191000    1.0476092   -4.3383843     883.8329  0.061841093  0.062196765            3 
 1192000    1.0535005   -4.3429228    885.02141  0.061872302  0.062185776            2 
 1193000     1.072484   -4.3372895    883.26738  0.061697917  0.062174452            4 
 1194000     1.070847   -4.3302613    887.09236  0.061913202  0.062163119            1 
 1195000      1.08093   -4.3246013    887.47514  0.061888085  0.062152306            2 
 1196000    1.0761032    -4.354323    888.16717  0.061884558  0.062141049            3 
 1197000    1.0542792   -4.3436397    887.39667  0.061779216  0.062129787            3 
 1198000    1.0657506   -4.3606908    889.85834  0.061898883  0.062118435            2 
 1199000     1.062813   -4.3450315    894.65248  0.062180461  0.062107533            6 
 1200000    1.0455935   -4.3276223    891.00996  0.061875691  0.062096724            2 
 1201000    1.0742486   -4.3384763    889.74161  0.061736165  0.062085937            3 
 1202000    1.0667368   -4.3240034    895.47558  0.062082334  0.062075278            2 
 1203000    1.0461307   -4.3424325    894.46544  0.061960754  0.062064744            7 
 1204000    1.0569397   -4.3203769    895.81427  0.062002649  0.062054385            3 
 1205000    1.0798969   -4.2918277    895.18024  0.061907347   0.06204389            3 
 1206000    1.0565375    -4.340691    895.93711  0.061908313  0.062033416            2 
 1207000     1.061155   -4.3758701    895.29058  0.061812384  0.062022838            6 
 1208000    1.0915777   -4.3204245    898.08978  0.061954317  0.062012701            2 
 1209000    1.0825635    -4.329712    896.84104     0.061817  0.062002546            3 
 1210000    1.0657626   -4.3515361    898.59055  0.061886401  0.061991895            6 
 1211000    1.0420013   -4.3904232    894.88559  0.061580346  0.061981852            2 
 1212000    1.0774835    -4.338046    900.51833  0.061916827  0.061971618            4 
 1213000    1.0601538   -4.3482944    902.96148  0.062033627  0.061961681            2 
 1214000    1.0621032   -4.3354455    898.59988  0.061683133  0.061951743            3 
 1215000    1.0392647   -4.3706582    897.15315  0.061533138  0.061941483            2 
 1216000      1.06459   -4.3342637     898.9715  0.061607148  0.061930821            4 
 1217000    1.0512993     -4.33702    902.08851  0.061769961  0.061920505            3 
 1218000    1.0387969   -4.3498161    901.46465  0.061676564    0.0619102            4 
 1219000    1.0577729   -4.3221614     905.9335  0.061931467   0.06190033            3 
 1220000    1.0753177   -4.3411322    901.75851  0.061595527  0.061890338            5 
 1221000     1.050765   -4.3628659    900.50346  0.061459422  0.061879585            6 
 1222000    1.0758421   -4.3357806    906.10396   0.06179105  0.061869053            2 
 1223000    1.0612961   -4.3496674     903.4436  0.061559253  0.061858523            2 
 1224000    1.0662991   -4.3465659     902.3476  0.061434341  0.061847763            4 
 1225000    1.0499716   -4.3487345    907.43882  0.061730532  0.061836595            3 
 1226000    1.0521196   -4.3604189    904.96591  0.061512093  0.061825442            2 
 1227000    1.0525805   -4.3573012     905.6029  0.061505223  0.061813776            2 
 1228000    1.0705262   -4.3693782    904.96275  0.061411696  0.061802741            2 
 1229000    1.0793299   -4.3492873    906.04559   0.06143515   0.06179192            6 
 1230000    1.0316659   -4.3503661    908.75876  0.061569021  0.061780763            3 
 1231000     1.044091   -4.3665542    905.43392  0.061293929  0.061769842            2 
 1232000     1.043709   -4.3191938    911.08156  0.061626188  0.061758783            4 
 1233000    1.0638702   -4.3192912    912.37187  0.061663414  0.061748016            1 
 1234000     1.054662   -4.3916075    905.40223  0.061142776  0.061737038            4 
 1235000    1.0422625   -4.3609666    914.00433  0.061673707  0.061726149            2 
 1236000     1.045388   -4.3190592    912.50677   0.06152284  0.061715854            3 
 1237000    1.0586764   -4.3299527     910.5995  0.061344617  0.061705561            2 
 1238000    1.0650077   -4.3373906    915.71202  0.061639204  0.061695121            2 
 1239000    1.0199446   -4.3354227    914.97349  0.061539783   0.06168499            6 
 1240000    1.0393182   -4.3778787    915.89478  0.061552069  0.061674989            2 
 1241000    1.0511924   -4.3254698     919.5889   0.06175053  0.061665241            2 
 1242000    1.0549129   -4.3382007    920.61011  0.061769331  0.061655278            5 
 1243000    1.0667431   -4.3745998    913.30616  0.061229965  0.061645456            4 
 1244000    1.0454038   -4.3594155    915.50508  0.061328047  0.061635161            5 
 1245000    1.0408692   -4.3727819    919.89245  0.061572453   0.06162468            2 
 1246000    1.0633397   -4.3852104    919.39653  0.061489869  0.061614584            7 
 1247000    1.0662154   -4.3532729    919.38645  0.061439886  0.061604645            2 
 1248000    1.0619591   -4.3520512    921.59106  0.061537864  0.061594843            4 
 1249000    1.0316582   -4.3895994     918.5689  0.061286956  0.061584638            4 
 1250000    1.0564617   -4.3685397    923.51609  0.061567739  0.061574327            3 
 1251000    1.0633873    -4.356602    923.73357  0.061533011   0.06156416            3 
 1252000    1.0391921   -4.3544453    926.90014  0.061694631  0.061553898            6 
 1253000     1.067273   -4.3574889    922.80622  0.061373119  0.061543383            5 
 1254000    1.0735007   -4.3738433    924.82463  0.061458309   0.06153302            5 
 1255000     1.043145   -4.3545296    924.87406   0.06141262  0.061522519            3 
 1256000     1.053378   -4.3203069    925.95052  0.061435146  0.061512191            3 
 1257000    1.0420572   -4.3333845    923.60946   0.06123107  0.061502023            2 
 1258000    1.0537284    -4.358923    927.86236   0.06146412  0.061491708            2 
 1259000    1.0575717   -4.3930294    924.00699  0.061160113   0.06148179            2 
 1260000    1.0181345    -4.378926    925.38087  0.061202439  0.061471341            6 
 1261000    1.0410832   -4.3586484    930.55647  0.061495934  0.061460731            5 
 1262000    1.0599015   -4.3484997    927.73844  0.061261123  0.061450341            2 
 1263000    1.0572002    -4.379518     927.6997  0.061210062  0.061439625            3 
 1264000    1.0592553   -4.3296755    928.38804  0.061207018  0.061428978            4 
 1265000    1.0278525   -4.3612799    927.06106  0.061071216  0.061418027            5 
 1266000    1.0335542   -4.3670546    927.15423   0.06102911  0.061407368            5 
 1267000    1.0296226   -4.3394217    929.71521  0.061149382  0.061396601            2 
 1268000    1.0588541   -4.3647702    932.27296  0.061269254  0.061385838            3 
 1269000    1.0399282   -4.3610101    930.54913  0.061107771  0.061375319            4 
 1270000    1.0313731   -4.3773483    928.76209  0.060942394  0.061364369            2 
 1271000    1.0374135   -4.3860667    935.22536  0.061318212  0.061353726            2 
 1272000    1.0753999   -4.3357023    936.35806  0.061344213  0.061343167            4 
 1273000    1.0524697   -4.3808488    936.18435  0.061284652  0.061332614            2 
 1274000    1.0453755   -4.3459687    933.21634  0.061042409  0.061322218            4 
 1275000    1.0412514   -4.3552042    935.70395  0.061157121  0.061311288            1 
 1276000    1.0400104   -4.3556688    935.01757  0.061064366  0.061300275            3 
 1277000    1.0263776   -4.3856329    935.10356  0.061022158  0.061289489            2 
 1278000    1.0483944   -4.3329694    940.29377  0.061312844  0.061278846            2 
 1279000    1.0361215   -4.3816003    936.60911  0.061024831  0.061267673            4 
 1280000    1.0406623   -4.3547697    937.52153  0.061036558  0.061256456            2 
 1281000    1.0578818   -4.3522418    934.93026  0.060820339  0.061245397            1 
 1282000    1.0360054   -4.3443816    938.87515  0.061029326   0.06123456            9 
 1283000    1.0587643   -4.3358592    938.30868  0.060944965  0.061224116            2 
 1284000    1.0222093   -4.3743201    937.61892  0.060852733  0.061212665            2 
 1285000    1.0464968   -4.3735206    941.51359   0.06105795  0.061201602            3 
 1286000    1.0387024   -4.3883814    941.75117  0.061025866  0.061190657            2 
 1287000    1.0436293   -4.3804023    943.37086  0.061083324  0.061180076            2 
 1288000    1.0480366   -4.3693941    944.38848  0.061101739  0.061169385            2 
 1289000    1.0433981   -4.3631258     941.8118  0.060887755  0.061158663            4 
 1290000    1.0561458   -4.3732354    944.43101  0.061009755  0.061147907            1 
 1291000    1.0457796   -4.3459187    945.20804  0.061012654  0.061137305            3 
 1292000    1.0380477   -4.3783516    942.88904  0.060815856  0.061126524            1 
 1293000    1.0599397   -4.3456181    951.15913  0.061301826  0.061115703            4 
 1294000    1.0392932   -4.3400965    946.68896  0.060966574  0.061105022            6 
 1295000    1.0621132   -4.3841319    942.82792  0.060671037  0.061094213            2 
 1296000    1.0136632   -4.3794767    944.37782  0.060723882  0.061083398            2 
 1297000     1.034338   -4.3761558    945.65416   0.06075907  0.061072453            3 
 1298000    1.0419863   -4.3516019    949.89514  0.060984536  0.061061717            2 
 1299000    1.0297326   -4.3830018    949.05364  0.060883606  0.061051335            1 
 1300000    1.0471513   -4.3506337    953.77322  0.061139309  0.061040955            3 
 1301000    1.0290806   -4.3878164    949.33535  0.060808055  0.061030205            3 
 1302000    1.0463954   -4.3600145    954.71843   0.06110589  0.061019304            2 
 1303000    1.0534947   -4.3651428    949.97208  0.060755441  0.061008653            2 
 1304000     1.046093   -4.3738742    951.06879  0.060778936  0.060997972            4 
 1305000     1.034374   -4.3632906    950.38502  0.060688699  0.060986796            3 
 1306000     1.033332   -4.3515729    950.53231  0.060651628  0.060976345            3 
 1307000    1.0418568   -4.3637617    952.28358  0.060716882  0.060965775            1 
 1308000    1.0587259   -4.3846713    952.80812  0.060703881  0.060954821            3 
 1309000    1.0289525   -4.3634102    953.05888  0.060673471  0.060944386            2 
 1310000    1.0371321   -4.3507068    954.56163   0.06072275  0.060933966            2 
 1311000    1.0282363   -4.3632964    958.43537  0.060922665   0.06092357            4 
 1312000    1.0318619   -4.3662365    955.93049   0.06071713  0.060913189            3 
 1313000    1.0577728   -4.3689741    957.90579  0.060796255  0.060902955            5 
 1314000    1.0469237   -4.3622009    956.80011  0.060679865  0.060892794            6 
 1315000    1.0509457   -4.3604083      958.622  0.060749176  0.060882315            2 
 1316000    1.0319492   -4.3716678    962.30441  0.060936196  0.060871728            2 
 1317000    1.0263032   -4.3574931    962.05456  0.060874118  0.060861581            2 
 1318000    1.0233121   -4.3385789    961.32852  0.060782026  0.060851241            5 
 1319000    1.0475386   -4.3780577    957.47816  0.060492681  0.060840569            5 
 1320000    1.0336504   -4.3923105    954.81081   0.06027846  0.060829539            2 
 1321000    1.0477264   -4.3893182    959.52514  0.060530226  0.060818728            2 
 1322000    1.0408756   -4.3522089    963.33983  0.060724901  0.060807964            4 
 1323000    1.0261883   -4.3736187    962.71114  0.060639402  0.060797272            2 
 1324000    1.0292256    -4.376356    963.29452   0.06063032  0.060786738            2 
 1325000    1.0276549   -4.3598656    966.07856  0.060759658  0.060775727            2 
 1326000    1.0478788   -4.3502597    963.47921  0.060550478  0.060765194            5 
 1327000    1.0399853   -4.3488686    966.49305  0.060694113   0.06075488            4 
 1328000    1.0437098   -4.3527892    968.30439  0.060762073  0.060744498            2 
 1329000    1.0428907   -4.4026378    962.73482   0.06036712  0.060733746            3 
 1330000    1.0250512   -4.3514199    969.49574  0.060745347  0.060723254            2 
 1331000    1.0326363   -4.3645906      964.028  0.060357375   0.06071262            3 
 1332000    1.0498607   -4.3481596    969.60652  0.060661069  0.060701771            4 
 1333000    1.0421115   -4.3468513    969.07311  0.060582215  0.060691322            3 
 1334000    1.0465675   -4.3845549    968.86909  0.060524056  0.060680131            4 
 1335000    1.0157078   -4.3813814    967.53116  0.060395204  0.060669099            2 
 1336000    1.0274551   -4.4086979     965.3212  0.060212151  0.060657944            3 
 1337000    1.0404361   -4.3930885    967.72603  0.060317005  0.060646762            3 
 1338000    1.0434786   -4.3843216    968.20963  0.060302044  0.060635171            5 
 1339000    1.0418572   -4.3663299    966.45909  0.060148064  0.060623946            4 
 1340000    1.0312363      -4.3288    974.63425  0.060611583  0.060612663            2 
 1341000    1.0404611   -4.3718505     971.9311  0.060398403    0.0606018            5 
 1342000    1.0648152   -4.3557253    976.77823  0.060654386   0.06059128            6 
 1343000    1.0327074   -4.3514414     974.0482  0.060439824  0.060580509            4 
 1344000    1.0176983    -4.395354    972.01254  0.060268634  0.060569337            2 
 1345000    1.0159044    -4.381362    974.80152  0.060396624  0.060557953            1 
 1346000    1.0411489   -4.3913664     973.8921  0.060295449  0.060546805            4 
 1347000    1.0107719   -4.4061287     974.6772  0.060299258  0.060535966            2 
 1348000    1.0642668   -4.4356372    970.28842  0.059983211  0.060524675            2 
 1349000    1.0274155   -4.3971106    975.43437  0.060256633  0.060513262            4 
 1350000    1.0330271   -4.3874463    974.55965  0.060158003  0.060501881            6 
 1351000    1.0376055   -4.3503784    976.63436  0.060241448  0.060490679            5 
 1352000    1.0427574   -4.3597165    981.07971  0.060470889  0.060479679            3 
 1353000    1.0328849   -4.3940963    979.34718  0.060319486  0.060468541            1 
 1354000    1.0487618   -4.3710581    977.02892  0.060132257  0.060457391            4 
 1355000    1.0386457   -4.3678721    980.12329  0.060278185  0.060446343            2 
 1356000    1.0279412   -4.3749496    978.70394  0.060146505  0.060435226            5 
 1357000    1.0501981   -4.3833981    977.07093  0.060001899  0.060423996            3 
 1358000    1.0388658   -4.3962068    975.25831  0.059846484  0.060412601            3 
 1359000    1.0560906   -4.3990226    978.61169  0.060008075  0.060401294            6 
 1360000    1.0736542   -4.3891393    980.03475  0.060051149  0.060390001            3 
 1361000    1.0518719   -4.3622498    985.06247  0.060314871  0.060379002            3 
 1362000    1.0525331   -4.3712967    984.11848  0.060212829  0.060368094            5 
 1363000     1.036427   -4.3794744    986.15999  0.060293469  0.060356916            6 
 1364000    1.0435047   -4.3648005    982.02916  0.059996894  0.060345948            4 
 1365000    1.0194328   -4.3900564     982.9707  0.060010421  0.060334807            2 
 1366000    1.0479398   -4.3800676    984.26665   0.06004555  0.060323542            3 
 1367000    1.0561063    -4.366711    983.26856   0.05994078  0.060312126            3 
 1368000    1.0275615   -4.3802314    980.41101  0.059722893  0.060300614            2 
 1369000    1.0450195   -4.4155995    981.42873  0.059741218  0.060288801            3 
 1370000    1.0427775   -4.4181897    982.70415  0.059775192  0.060276599            3 
 1371000    1.0323278   -4.3745511    983.66889  0.059790231  0.060264808            5 
 1372000    1.0478813   -4.3551547    986.35258  0.059909656  0.060252938            4 
 1373000    1.0344449   -4.3910156    986.86063  0.059896858  0.060241122            2 
 1374000    1.0298584   -4.4035701    987.49671  0.059891843  0.060229064            5 
 1375000    1.0354255    -4.364801    985.03484  0.059699081  0.060217213            4 
 1376000    1.0374405   -4.3614597    989.43535  0.059922199  0.060205455            3 
 1377000    1.0185113   -4.3882508    987.98574  0.059790955  0.060193733            9 
 1378000    1.0086844   -4.3924717    988.25785  0.059764021  0.060182023            3 
 1379000    1.0179366   -4.3885373    990.17102  0.059836296  0.060170625            2 
 1380000    1.0312811   -4.3334863    990.87085  0.059835196  0.060159178            2 
 1381000    1.0122074   -4.3704063    993.63331  0.059958563  0.060147695            5 
 1382000    1.0170487   -4.3794122    990.78879  0.059743656  0.060136045            2 
 1383000    1.0274375    -4.350665    991.92267   0.05976878  0.060124776            3 
 1384000    1.0209866   -4.3750944    995.33162  0.059930854  0.060112941            4 
 1385000    1.0414641   -4.3636509    995.88292  0.059920753  0.060101786            6 
 1386000    1.0288303   -4.3640693     991.0166  0.059584933  0.060090308            2 
 1387000    1.0277819     -4.38911    992.85962  0.059652705  0.060078781            3 
 1388000    1.0578879   -4.4092804    990.52097  0.059469319  0.060067136            2 
 1389000    1.0445357    -4.388618     992.7619  0.059560949  0.060055215            5 
 1390000    1.0330038   -4.4047606    991.73626   0.05945661  0.060043171            2 
 1391000    1.0246289   -4.3566062    997.66689  0.059769164  0.060031254            2 
 1392000    1.0436227   -4.3928683    996.62115  0.059663622  0.060019544            1 
 1393000    1.0176996   -4.3617495    996.47499  0.059612048  0.060007976            3 
 1394000     1.043726   -4.3509379    1001.0438  0.059842409  0.059996674            2 
 1395000    1.0471163   -4.3773905     1003.217  0.059929333  0.059985522            3 
 1396000    1.0188518    -4.413212    998.38692  0.059598073  0.059973868            4 
 1397000    1.0137408   -4.4094469    999.48459  0.059620889   0.05996227            2 
 1398000     1.024376   -4.3818115    999.59561   0.05958486  0.059950338            2 
 1399000    1.0373006   -4.3884089    999.68362  0.059547511   0.05993863            4 
 1400000    1.0165471   -4.3879459    1001.0489  0.059586244  0.059927034            4 
 1401000    1.0349386   -4.3760716     1003.837   0.05970955  0.059915463            2 
 1402000    1.0218945     -4.38394    999.97047  0.059437142   0.05990393            3 
 1403000    1.0234715   -4.4142901    1001.4267   0.05948127  0.059892412            2 
 1404000    1.0246941    -4.357477    1001.8145  0.059461922  0.059880634            2 
 1405000    1.0200554   -4.3991968    1003.5069  0.059519982  0.059868769            4 
 1406000     1.034209   -4.3831836    1005.4827  0.059594754  0.059857312            3 
 1407000    0.9997983   -4.3746725    1003.4878  0.059434245  0.059845569            3 
 1408000    1.0138687   -4.3740886    1004.5004  0.059451968  0.059834375            3 
 1409000    1.0665798   -4.3944124    1005.1356  0.059447337  0.059822872            2 
 1410000    1.0166456   -4.3670055    1006.8769  0.059508093  0.059811284            2 
 1411000    1.0593526   -4.3796647    1005.8806  0.059407075  0.059799727            3 
 1412000    1.0250249   -4.3880391    1007.9977  0.059489951  0.059788093            2 
 1413000    1.0343675   -4.4030457    1004.3454   0.05923245  0.059776484            2 
 1414000    1.0225077     -4.42448    1001.6132   0.05902954  0.059764685            3 
 1415000    1.0378301   -4.4187692    1003.1599  0.059078909  0.059752602            6 
 1416000    1.0332272   -4.3887102    1008.5218   0.05935274  0.059740747            2 
 1417000    1.0375214    -4.396772    1012.4952  0.059544533  0.059729001            3 
 1418000    1.0302015   -4.4216027    1005.2216  0.059075082   0.05971683            4 
 1419000    1.0505131   -4.4177168    1007.4205  0.059162585  0.059704362            5 
 1420000    1.0293385   -4.4064536    1003.9674  0.058918276  0.059691809            7 
 1421000    1.0340783   -4.3825257    1012.3616  0.059369082   0.05967983            2 
 1422000    1.0346771   -4.3964094    1012.0708  0.059310293  0.059667737            3 
 1423000    1.0214193   -4.4204088    1009.2382  0.059102731  0.059655549            4 
 1424000    1.0101683   -4.3922077    1013.3016  0.059299017  0.059643493            3 
 1425000     1.016175   -4.3683071    1011.5327  0.059153957  0.059631308            2 
 1426000    1.0212567    -4.386423    1015.1728  0.059325201  0.059619272            4 
 1427000    1.0221419   -4.4147025    1010.8438  0.059030821  0.059606846            4 
 1428000     1.037583    -4.405321    1010.8877  0.058992047  0.059594679            4 
 1429000    1.0379836   -4.4119737     1012.715  0.059057326  0.059582369            5 
 1430000      1.02194    -4.408706     1014.987  0.059148426  0.059570112            3 
 1431000    0.9993686   -4.3945521    1016.9136  0.059219284  0.059557599            3 
 1432000    1.0104172     -4.40755    1014.5927  0.059042871  0.059545223            5 
 1433000    1.0125047   -4.4011329    1014.3019  0.058984758  0.059533028            8 
 1434000    1.0320322   -4.4285917    1012.9352  0.058864203  0.059520408            2 
 1435000    1.0284909   -4.4103081    1015.0853  0.058948041  0.059508156            5 
 1436000    1.0210423   -4.3723518    1020.8629  0.059242278  0.059495655            4 
 1437000    1.0152199   -4.4117328    1013.7562  0.058788923  0.059483011            4 
 1438000      1.00509   -4.4106037     1014.649  0.058799782  0.059470484            9 
 1439000    1.0178541   -4.3800676    1013.9194  0.058716665  0.059457741            4 
 1440000    1.0248017   -4.3949111    1017.2099  0.058866314  0.059445073            1 
 1441000    1.0206535   -4.4233819    1018.6896  0.058911035  0.059432052            2 
 1442000      1.01706   -4.4100486    1019.7365   0.05893068  0.059419541            2 
 1443000    1.0327735   -4.3862697      1017.82  0.058779166  0.059407277            3 
 1444000    1.0196253   -4.3973721      1020.68  0.058903507   0.05939508            2 
 1445000    1.0258897   -4.3963265    1019.7681  0.058810153  0.059382778            4 
 1446000    1.0360706    -4.428924    1021.1251  0.058847691  0.059370637            4 
 1447000    1.0192778   -4.4179125    1021.1008  0.058805621  0.059358311            2 
 1448000    1.0415769   -4.4264446    1019.0407  0.058646447  0.059346048            2 
 1449000    1.0159566   -4.4128037    1023.4837  0.058861494  0.059333852            2 
 1450000    1.0631791   -4.4209159    1023.5709  0.058825913  0.059321374            9 
 1451000    1.0411487   -4.4023442    1022.4493  0.058720957  0.059309049            4 
 1452000    1.0172607   -4.3921701    1025.0975  0.058832502  0.059296683            2 
 1453000    1.0310508   -4.4129498    1022.6524  0.058651779   0.05928434            2 
 1454000    1.0127357   -4.4009487    1022.7488  0.058616967  0.059272262            3 
 1455000    1.0177295   -4.4047329    1029.1291  0.058942102  0.059259617            8 
 1456000    1.0106338   -4.4514097    1020.1376  0.058386998  0.059246879            3 
 1457000    1.0123504   -4.4135688     1026.878  0.058732443  0.059234098            3 
 1458000    1.0059468   -4.4058293     1024.916  0.058580021  0.059221628            3 
 1459000    1.0085756    -4.404912    1027.6319  0.058694993  0.059209306            2 
 1460000    1.0234487    -4.407358    1026.9584  0.058616349  0.059196883            4 
 1461000    1.0195623   -4.4284302    1027.6504  0.058615695  0.059184769            2 
 1462000    1.0237238   -4.4282294    1027.8744   0.05858837  0.059172495            5 
 1463000    1.0242604   -4.3969519    1028.7459  0.058597966   0.05916028            3 
 1464000    1.0181734   -4.4163588    1036.4686  0.058997532  0.059148187            4 
 1465000     1.010146   -4.4176449    1028.7055   0.05851567  0.059136058            4 
 1466000    1.0038719   -4.4044341    1033.3341  0.058738865  0.059123681            5 
 1467000    1.0316518   -4.3982361    1033.7843  0.058724398  0.059111547            2 
 1468000    1.0178691   -4.4266282    1037.2095  0.058878831  0.059099736            3 
 1469000    1.0436947   -4.4010903    1034.2267  0.058669541  0.059087956            3 
 1470000     1.019595   -4.4098564    1035.3873  0.058695426  0.059076335            2 
 1471000     1.010881   -4.4281684    1035.0564  0.058636779  0.059064463            3 
 1472000    1.0179313   -4.3914388    1038.0752  0.058767842   0.05905269            4 
 1473000    1.0248479   -4.4291723    1037.3138  0.058684874  0.059041082            2 
 1474000    1.0261097   -4.4333967    1037.2181  0.058639649    0.0590296            3 
 1475000    1.0356806    -4.386127    1037.7572  0.058630351  0.059018175            3 
 1476000    1.0257197   -4.3908623    1039.0891  0.058665826  0.059006689            5 
 1477000    1.0145495   -4.4317585    1039.5331  0.058651158   0.05899507            4 
 1478000    1.0285035   -4.4230122    1038.4794  0.058552062  0.058983583            3 
 1479000    1.0146709   -4.4473653    1042.7802  0.058754803  0.058971727            3 
 1480000    1.0360552      -4.3955    1039.9088  0.058553424   0.05895991            1 
 1481000   0.99777529    -4.420646    1043.3192  0.058705785  0.058948301            3 
 1482000    1.0060627   -4.3662138    1046.3441  0.058836263   0.05893663            2 
 1483000   0.98163716    -4.428895    1038.9254  0.058379716  0.058924943            3 
 1484000   0.99762854   -4.3988616    1045.2575  0.058695952  0.058913462            2 
 1485000   0.98670487   -4.4426604     1044.555  0.058617001  0.058902154            7 
 1486000    1.0048847   -4.4372046    1044.0646  0.058550057  0.058890912            5 
 1487000    1.0010835   -4.4205594    1043.3607  0.058471231  0.058879583            3 
 1488000    1.0194391   -4.3972034    1048.9794  0.058746606  0.058868519            3 
 1489000     1.001073   -4.4250723    1043.3414  0.058391617  0.058857119            3 
 1490000    1.0358839   -4.4367113    1044.3474  0.058408693  0.058845339            3 
 1491000    1.0233255   -4.4022441    1046.1161  0.058468369  0.058833722            2 
 1492000    1.0014723   -4.4372739    1046.8597  0.058470715  0.058822247            2 
 1493000   0.99551233   -4.4304688    1046.6229  0.058418334  0.058810638            1 
 1494000    1.0177623    -4.433836    1048.5191  0.058485002  0.058799038            2 
 1495000     1.001037   -4.4251566    1046.8096  0.058350589  0.058787189            2 
 1496000     1.051217   -4.4214725    1050.2162  0.058501349   0.05877545            2 
 1497000    1.0208117   -4.4183419    1048.4591  0.058364459  0.058763819            2 
 1498000    1.0132459   -4.4164072    1044.8019  0.058122047  0.058752366            6 
 1499000      1.00819   -4.4444617     1047.762  0.058247834  0.058740922            3 
 1500000    1.0040815   -4.4364096    1047.3885  0.058188253  0.058729234            3 
 1501000    1.0105657   -4.4119659    1050.2329  0.058307402  0.058717543            2 
 1502000    1.0142723   -4.4242321    1048.9077  0.058195054   0.05870578            3 
 1503000   0.99804361    -4.453208    1049.6921  0.058199828  0.058693876            3 
 1504000    1.0101897   -4.4157568    1051.7077  0.058272814  0.058682067            3 
 1505000    1.0091633   -4.4431108    1051.9517  0.058247604  0.058670459            2 
 1506000    1.0230561   -4.4408985    1051.4731  0.058182443  0.058658625            2 
 1507000    1.0167651    -4.421259    1052.4388  0.058197234   0.05864643            1 
 1508000   0.99982122   -4.4133095    1053.4708  0.058215673  0.058634385            2 
 1509000   0.99974409   -4.4284428    1055.7617  0.058303604  0.058622369            9 
 1510000   0.98849438   -4.4132102    1057.8282  0.058379041  0.058610687            3 
 1511000    1.0016949    -4.463819    1050.2582  0.057922909  0.058598502            3 
 1512000    1.0107753   -4.4319447    1051.7038  0.057964272  0.058586006            3 
 1513000    1.0063947   -4.4173845    1055.9526  0.058159979   0.05857402            2 
 1514000    1.0218835   -4.4467253     1052.879  0.057952387   0.05856195            2 
 1515000    1.0091864   -4.4297063    1056.2939  0.058101973  0.058549723            3 
 1516000   0.98964679   -4.4207043    1056.2323   0.05806026  0.058537302            2 
 1517000    1.0314729   -4.4159919    1058.5029  0.058146719  0.058525225            5 
 1518000     0.995607   -4.4373999    1052.5443  0.057781307  0.058513057            5 
 1519000   0.99513423   -4.4230195    1059.9545  0.058149796  0.058501033            7 
 1520000    1.0016703   -4.3666847     1062.076  0.058227853  0.058489089            2 
 1521000   0.99257716   -4.4207218    1055.4661  0.057827422  0.058477236            2 
 1522000    1.0093077   -4.4375588    1060.5057  0.058065359  0.058465172            4 
 1523000    0.9927773   -4.4367676    1061.9721  0.058107468  0.058453622            3 
 1524000    1.0180654   -4.4124314    1065.1169    0.0582413  0.058442147            4 
 1525000   0.99647274   -4.3928437    1064.7889  0.058185187  0.058430493            2 
 1526000   0.99834367   -4.4360355    1062.8642  0.058041953  0.058418684            2 
 1527000    1.0291255   -4.4040802    1063.6139  0.058044855  0.058406813            2 
 1528000   0.97614238    -4.435818    1065.4946  0.058109435   0.05839479            3 
 1529000    1.0172189   -4.4084008    1066.0235  0.058100254  0.058382921            3 
 1530000    1.0249283   -4.4213462    1066.1861  0.058071139  0.058370835            5 
 1531000    1.0090714    -4.413741    1069.8592  0.058233136  0.058358858            5 
 1532000    1.0120633   -4.4198857    1066.7626  0.058026685  0.058346915            4 
 1533000   0.99699391   -4.4251582    1062.8626  0.057776833  0.058334833            5 
 1534000   0.99215162   -4.4382274    1066.8047  0.057953318  0.058322745            3 
 1535000     1.021372   -4.4292925    1064.8351  0.057808636  0.058310662            4 
 1536000    0.9908833   -4.4407438    1067.9232  0.057938539  0.058298595            3 
 1537000    1.0116429   -4.4576891    1064.3296  0.057706006  0.058286493            3 
 1538000    1.0029302   -4.4117945    1069.1718  0.057930851   0.05827463            2 
 1539000    1.0140855   -4.4512735    1071.2065  0.058003385  0.058262555            3 
 1540000     1.017948   -4.4411924    1067.4237  0.057761025  0.058250627            3 
 1541000   0.98784479   -4.4052249    1075.0614  0.058136565  0.058238604            2 
 1542000     1.006567   -4.4414957    1070.2242  0.057837454  0.058226342            6 
 1543000   0.99739687   -4.4181844    1072.0329  0.057897648  0.058214266            3 
 1544000    1.0005642   -4.4432338    1070.1605  0.057759094   0.05820219            2 
 1545000    1.0072668   -4.4190286    1072.5146  0.057848685   0.05819018            2 
 1546000    1.0143064   -4.4348986     1066.895  0.057508354  0.058178027            5 
 1547000   0.99049336   -4.4260569    1076.0553  0.057964624  0.058166075            2 
 1548000   0.99620821   -4.4505926    1068.3975  0.057514937  0.058153639            4 
 1549000    1.0278352   -4.4186847    1070.6599   0.05759952  0.058141165            3 
 1550000   0.99837622   -4.4217375    1074.4529  0.057766286  0.058128763            5 
 1551000    1.0135305    -4.442971    1066.4059  0.057296683  0.058116147            5 
 1552000   0.99214093   -4.4474871    1070.2013  0.057463558  0.058103551            4 
 1553000    1.0141643   -4.4413064    1072.8529  0.057568838  0.058090731            6 
 1554000   0.99496614   -4.4604281    1073.3787  0.057559988  0.058078459            4 
 1555000    1.0011058   -4.4165927    1070.8086  0.057385242   0.05806597            2 
 1556000    0.9986745    -4.449641    1069.3403  0.057269723  0.058053303            5 
 1557000   0.99320523   -4.4488199     1075.187  0.057545866   0.05804088            4 
 1558000    1.0212843   -4.4321006    1075.4842   0.05752483   0.05802835            4 
 1559000   0.99908121   -4.4480803    1077.5252  0.057597028  0.058015675            5 
 1560000    1.0086674   -4.4073247    1078.9931  0.057638518  0.058003381            3 
 1561000    0.9963823    -4.420762    1079.0426  0.057604241  0.057990655            3 
 1562000   0.98217991   -4.4731976    1071.7383  0.057177672  0.057977912            5 
 1563000    1.0068712   -4.4496335     1076.339  0.057386386  0.057965198            3 
 1564000    1.0079416   -4.4698994    1077.5827  0.057415957  0.057952598            3 
 1565000    1.0135508    -4.464202    1078.3353  0.057419347  0.057940109            3 
 1566000   0.97388035   -4.4212818    1075.9828   0.05725749  0.057927556            2 
 1567000   0.98915169   -4.4491014    1076.0453  0.057224276  0.057914928            7 
 1568000   0.98894351   -4.4763889    1075.0755  0.057136242  0.057902038            3 
 1569000    1.0103693    -4.453369    1076.9084  0.057197176  0.057889177            3 
 1570000    1.0135989   -4.4396103    1078.4934  0.057244872  0.057876134            2 
 1571000   0.98881116   -4.4306434    1078.8933  0.057229646  0.057863127            5 
 1572000   0.99051521   -4.4598975     1078.004  0.057146099   0.05785024            3 
 1573000   0.98687897   -4.4285839    1080.6577  0.057250357  0.057837389            2 
 1574000    1.0177255   -4.4046458    1081.9707  0.057283497  0.057824132            7 
 1575000    1.0104672   -4.4475332    1080.1324   0.05714986  0.057811187            3 
 1576000   0.97696183   -4.4304591    1080.9877  0.057158828  0.057798113            2 
 1577000    0.9871949    -4.442839    1081.2789  0.057137968  0.057784573            2 
 1578000   0.98252495   -4.4431591    1081.0034  0.057087212  0.057770984            3 
 1579000    1.0107195   -4.4768325    1081.3745  0.057070643  0.057757617            2 
 1580000    1.0002409   -4.4202793    1081.9365  0.057064159  0.057744025            2 
 1581000     1.010374   -4.4381188    1082.6254  0.057064377  0.057730687            4 
 1582000   0.99725194   -4.4315117    1077.8524  0.056776885  0.057717207            6 
 1583000   0.97533794   -4.4567105     1082.446  0.056982838  0.057703898            4 
 1584000   0.99738603   -4.4762643    1082.2876  0.056938533  0.057690329            5 
 1585000     1.017516   -4.4470414     1086.052  0.057100526  0.057676789            3 
 1586000   0.98552181   -4.4400346    1082.3135  0.056868088  0.057663106            2 
 1587000   0.99030386   -4.4380249    1083.8072  0.056910693  0.057649684            4 
 1588000   0.99570334     -4.44056    1081.8199  0.056770565  0.057636053            4 
 1589000   0.99820579   -4.4332567    1085.8961  0.056948611  0.057622767            4 
 1590000   0.99221847   -4.4360326    1085.5805  0.056896255  0.057609326            1 
 1591000    1.0184324   -4.4511965    1082.1198  0.056679229  0.057595835            5 
 1592000   0.98023981   -4.4588488    1086.1389  0.056854004   0.05758256            7 
 1593000   0.97735123    -4.428863     1085.424  0.056780918  0.057569243            2 
 1594000    1.0089283   -4.4756498     1083.926  0.056666979  0.057555867            9 
 1595000     1.011757   -4.4497062    1086.4446  0.056763039  0.057542544            2 
 1596000   0.99167511   -4.4889243      1083.38  0.056567458  0.057529122            5 
 1597000   0.99705404   -4.4341716      1088.11  0.056778856  0.057515713            4 
 1598000    1.0082298   -4.4210367     1091.538  0.056922092   0.05750234            3 
 1599000   0.99242118     -4.44015    1088.1968  0.056712359  0.057489204            2 
 1600000   0.99672102   -4.4286997    1089.2734   0.05673299  0.057476161            5 
 1601000   0.98371969   -4.4658433    1090.4745   0.05676007  0.057462988            3 
 1602000    1.0051685   -4.4551599    1095.4744  0.056984728  0.057449738            1 
 1603000   0.97475739   -4.4614386    1087.6851  0.056544246  0.057436495            3 
 1604000   0.98100983   -4.4619837    1095.9899  0.056940457  0.057422973            8 
 1605000    1.0080746   -4.4714856    1094.1834  0.056811184  0.057409801            3 
 1606000     1.000445    -4.437966    1095.5961  0.056849112  0.057396632            5 
 1607000    0.9957713    -4.461731    1092.3323  0.056644489  0.057383132            4 
 1608000   0.99874595   -4.4306855    1097.4493  0.056874446   0.05737007            4 
 1609000   0.97232518   -4.4506662     1094.895  0.056706803  0.057356678            3 
 1610000     1.004149   -4.4605433    1096.6155  0.056760638   0.05734348            3 
 1611000    1.0183857    -4.478658    1092.9116  0.056533809  0.057330258            5 
 1612000   0.99238225   -4.4514951    1097.0963  0.056715068  0.057317248            3 
 1613000   0.98782057   -4.4612169    1094.7656  0.056559494  0.057304071            5 
 1614000      0.98217   -4.4703159    1097.8239  0.056682358  0.057291048            2 
 1615000   0.98793284   -4.4987609    1097.2662  0.056618483  0.057277956            6 
 1616000    1.0124856   -4.4669009    1102.1749  0.056836576  0.057264895            1 
 1617000   0.98793563   -4.4556795    1098.6124  0.056617832  0.057252156            5 
 1618000    1.0157681   -4.4338408    1101.3709   0.05672491   0.05723934            3 
 1619000   0.98658962   -4.4809934    1097.3009  0.056480382  0.057226803            4 
 1620000   0.98089898   -4.4673389    1101.1643  0.056644257  0.057213951            3 
 1621000    1.0096811   -4.4760643    1101.8789  0.056646047  0.057200864           12 
 1622000   0.98360567   -4.4807196    1103.4983  0.056694322  0.057188355            2 
 1623000   0.99120715   -4.4594946     1101.664  0.056565211  0.057175547            2 
 1624000   0.97928748   -4.4496116    1103.6812  0.056633888   0.05716255            4 
 1625000    1.0130135   -4.4701322    1102.6479  0.056546046  0.057149902            2 
 1626000   0.98549217   -4.4562677    1100.4129  0.056396725  0.057137255            2 
 1627000   0.98812894   -4.4672108    1105.2033  0.056607419  0.057124525            2 
 1628000   0.98518384   -4.4585179    1107.4654  0.056688443  0.057111743            4 
 1629000    1.0008409   -4.4588678    1104.2186  0.056487547  0.057098921            2 
 1630000    1.0146675   -4.4479465    1104.7464  0.056479876   0.05708616            2 
 1631000   0.96851612   -4.4620061    1104.2238  0.056418547  0.057073507            2 
 1632000    1.0086655   -4.4848151    1104.4661   0.05639635  0.057060679            3 
 1633000   0.99224716   -4.4512395    1108.6268  0.056574136  0.057047603            5 
 1634000   0.98769276    -4.466318    1107.0349   0.05645833  0.057034873            3 
 1635000   0.98599921   -4.4432073    1105.2115  0.056330859  0.057022043            4 
 1636000   0.98624046   -4.4447331    1110.0331  0.056542027  0.057009375            3 
 1637000   0.99344493   -4.4874897    1102.8074  0.056139655  0.056996573            6 
 1638000    1.0011229   -4.4774143    1106.4509  0.056290744  0.056983762            3 
 1639000   0.96882865   -4.4752505    1110.9776  0.056486557  0.056970935            2 
 1640000   0.97378908   -4.4568041    1109.7207  0.056388245  0.056958496            2 
 1641000   0.98962996   -4.4703595    1108.0568  0.056269386   0.05694566            4 
 1642000   0.97820305   -4.4613181    1112.1455  0.056442628  0.056932833            1 
 1643000   0.95438658   -4.4547315    1109.6083  0.056279586  0.056920167            2 
 1644000    0.9834849   -4.4777907    1109.4492  0.056237285  0.056907417            3 
 1645000   0.97562903   -4.4608387    1110.9214   0.05627768  0.056894316            4 
 1646000    0.9968264   -4.4555355    1112.5174  0.056324292  0.056881565            3 
 1647000    1.0059566   -4.4517332     1115.029   0.05641717  0.056868999            4 
 1648000   0.96749115   -4.4535233    1115.1974  0.056391454  0.056856704            5 
 1649000    1.0155415   -4.5181211    1114.6065  0.056327394  0.056844172            3 
 1650000   0.98961222   -4.4774214    1114.9313  0.056309663  0.056831431            6 
 1651000    1.0026767    -4.481037    1115.1136  0.056284758  0.056818916            3 
 1652000   0.99598873   -4.4523854    1115.8173  0.056286186  0.056806416            6 
 1653000    0.9590705   -4.4834895    1112.6875  0.056094349  0.056793774            4 
 1654000   0.97313947   -4.4636744    1118.8559  0.056371216  0.056781358            4 
 1655000   0.99096924   -4.4588233    1116.6124  0.056224192  0.056769144            2 
 1656000   0.98939899   -4.4438937    1118.7336  0.056296982  0.056756804            4 
 1657000    0.9655661   -4.4424059     1120.076  0.056330515  0.056744541            4 
 1658000    1.0086261   -4.4495388    1122.9993  0.056443472  0.056732031            4 
 1659000    1.0101284   -4.4452837    1121.9144  0.056354955  0.056719707            3 
 1660000    1.0038836   -4.4742572     1118.581  0.056153666  0.056707241            2 
 1661000   0.99780818    -4.452504    1123.3998   0.05636162  0.056694929            3 
 1662000   0.98217012   -4.4926317    1120.8789  0.056201308    0.0566823            4 
 1663000   0.98290477   -4.4826047    1120.7499  0.056161048  0.056669691            2 
 1664000   0.99807293   -4.4785064    1120.6857  0.056124082  0.056657186            4 
 1665000   0.98176602   -4.4388793    1123.3277  0.056222608  0.056644642            4 
 1666000   0.98575247   -4.4669557    1122.1051  0.056127708  0.056632058            5 
 1667000    0.9982237   -4.4723066    1122.4076  0.056109158   0.05661959            2 
 1668000   0.97888816   -4.4671386    1124.3058  0.056170354  0.056607014            2 
 1669000   0.99711535   -4.4680073    1122.2707  0.056035087  0.056594662            2 
 1670000   0.97766144   -4.4817216    1124.5078  0.056113162  0.056582469            2 
 1671000    0.9901623   -4.4770845    1125.9889  0.056153446  0.056570255            2 
 1672000   0.97998689   -4.4775883    1128.9817  0.056269026  0.056557812            3 
 1673000   0.99635199   -4.4810593    1128.5647   0.05621462  0.056545251            6 
 1674000    1.0008134   -4.4467339    1131.7975  0.056341971  0.056532672            5 
 1675000   0.97637718   -4.4711725    1126.5176  0.056045653  0.056520306            3 
 1676000   0.97540706   -4.4953523     1126.288  0.056000796  0.056507651            4 
 1677000   0.98406174   -4.4585303    1130.0893  0.056156298  0.056495058            7 
 1678000   0.98113258   -4.4746798    1128.8779  0.056062669  0.056482962            4 
 1679000    0.9873639   -4.4634292     1128.714  0.056021144  0.056470695            2 
 1680000    1.0012002   -4.4572677    1131.7857  0.056140164  0.056458375            4 
 1681000   0.98498353    -4.485359    1130.0942  0.056022911  0.056446101            5 
 1682000   0.97460956   -4.4494104    1135.6546  0.056265093  0.056433609            5 
 1683000   0.98269213   -4.4612987    1133.9077  0.056145161  0.056421418            4 
 1684000   0.98078348   -4.4812608    1129.7528  0.055906215  0.056409172            6 
 1685000   0.99567187   -4.4910534    1130.8908  0.055929317  0.056396776            3 
 1686000   0.99176071    -4.486997    1124.9561  0.055602812  0.056384278            3 
 1687000   0.99031873    -4.466744    1130.7403  0.055855579  0.056371821            4 
 1688000   0.97182892   -4.4524035     1128.884  0.055730847   0.05635973            3 
 1689000   0.98243186   -4.4873339    1133.4861   0.05592491  0.056347775            3 
 1690000   0.97768694   -4.4918194    1133.6479    0.0558998  0.056335619            4 
 1691000   0.99999253   -4.4780105    1130.2636  0.055699962  0.056323516            5 
 1692000   0.99098457   -4.4645646    1133.4982  0.055826348  0.056311452            2 
 1693000    1.0023896   -4.4699209    1139.1822  0.056073156  0.056299272            6 
 1694000   0.98459745   -4.4755257    1136.1433  0.055890559  0.056287133            7 
 1695000   0.97672691   -4.4902581    1134.9449  0.055798669  0.056275091            4 
 1696000    0.9828234   -4.4386899    1142.8135  0.056152392  0.056263224            2 
 1697000   0.94726285   -4.4687264    1147.5648   0.05635262  0.056251178            3 
 1698000   0.96399356   -4.4829238    1139.5764  0.055927387  0.056239397            4 
 1699000   0.98395789    -4.481751    1139.7825  0.055904576  0.056227529            3 
 1700000   0.99303142   -4.4918979    1137.2408  0.055747099  0.056215387            6 
 1701000   0.97206392   -4.4916237    1139.3696  0.055818615  0.056203263            7 
 1702000   0.99646728   -4.4827543    1140.2275  0.055827823  0.056191239            3 
 1703000    0.9823901   -4.4786783    1142.3771  0.055900232  0.056179259            3 
 1704000   0.98937095   -4.4782268    1146.4006   0.05606419  0.056167614            1 
 1705000   0.98548066   -4.4749343    1141.2947  0.055781753  0.056155694            2 
 1706000    0.9514738   -4.5033183    1141.0188  0.055735582   0.05614351            2 
 1707000   0.96155711   -4.4639353    1150.6273  0.056172004  0.056131925            1 
 1708000   0.98187846   -4.5074247     1143.543  0.055793471  0.056120279            3 
 1709000    0.9659982   -4.4823427    1146.4006  0.055900167  0.056108657            3 
 1710000   0.97963656   -4.4782301    1142.5542  0.055680029  0.056097079            2 
 1711000   0.99808695   -4.5022782     1147.193  0.055873417   0.05608532            3 
 1712000   0.95829354   -4.4766071    1146.5729  0.055810597  0.056073469            4 
 1713000    0.9691514    -4.507057    1147.6214  0.055829023  0.056061679            3 
 1714000   0.99088343   -4.4680358    1145.2764   0.05568244  0.056050007            3 
 1715000   0.96846802    -4.487383     1149.203  0.055840768  0.056038417            5 
 1716000   0.96997966   -4.4660286    1149.6498  0.055829922  0.056026566            3 
 1717000   0.97748878   -4.4654134    1146.1284  0.055626501   0.05601478            3 
 1718000   0.98581654   -4.4711427    1147.3094  0.055651406  0.056003157            7 
 1719000   0.96678676   -4.4927898    1147.5633  0.055631341  0.055991469            4 
 1720000   0.94913935   -4.4960066    1148.1643  0.055628114  0.055979701            3 
 1721000   0.96978147   -4.4958011    1151.6892  0.055766474  0.055968069            4 
 1722000   0.96289306   -4.4608843     1155.424   0.05591483  0.055956625            9 
 1723000   0.97864137   -4.4517576    1156.9403   0.05595571  0.055944729            2 
 1724000   0.94959085   -4.4797293     1151.112  0.055641532   0.05593285            5 
 1725000     0.989478    -4.486891    1152.3573  0.055669434   0.05592091            2 
 1726000   0.97067625   -4.4845063    1150.7312  0.055558673  0.055908945            5 
 1727000   0.97642564   -4.4680676    1151.9669  0.055586126  0.055897044            4 
 1728000   0.96791198   -4.4959608    1151.4852  0.055530728  0.055885281            7 
 1729000   0.97880609   -4.4702703    1158.3139  0.055827736  0.055873481            4 
 1730000   0.98324961   -4.4954265    1152.8368  0.055531639  0.055861712            2 
 1731000   0.97331424   -4.4893006     1153.848  0.055548236  0.055849562            4 
 1732000   0.98530818   -4.4691513    1155.0346   0.05557326  0.055837845            3 
 1733000   0.98300676    -4.480529    1160.5876  0.055808215  0.055826066           10 
 1734000   0.96961974    -4.493384    1155.7416  0.055543137  0.055814353            3 
 1735000    0.9740561   -4.4960964     1155.225  0.055486309  0.055802903            3 
 1736000   0.96699307   -4.4507988    1156.9623  0.055537743  0.055791206            3 
 1737000   0.98205118   -4.4734136    1156.1581   0.05546719  0.055779336            2 
 1738000   0.96584657   -4.4910122    1158.0624  0.055526581  0.055767129            2 
 1739000   0.97342295   -4.4809028    1154.6202  0.055329701   0.05575504            2 
 1740000   0.95850402   -4.5060375    1154.5823  0.055296087  0.055743079            3 
 1741000   0.98505761   -4.4759278    1160.8836  0.055565939  0.055730971            6 
 1742000    0.9645949   -4.4841976    1158.3555  0.055413102  0.055719146            6 
 1743000   0.95777565   -4.4392883    1161.9554  0.055553425  0.055707207            3 
 1744000   0.96195409   -4.4834626    1156.0477  0.055239284  0.055695279            2 
 1745000   0.96211457   -4.4949535    1161.0476  0.055446397  0.055683287            3 
 1746000   0.99287478   -4.5132924    1162.7849  0.055497563  0.055671448            2 
 1747000   0.96350612   -4.4628832    1161.3707  0.055398336  0.055659573            3 
 1748000   0.97693118   -4.4808946    1161.5426  0.055374839  0.055647654            2 
 1749000   0.95949016   -4.4924819    1160.5773  0.055297186  0.055635543            2 
 1750000   0.98915359   -4.5007143    1163.0845  0.055384978  0.055623418            7 
 1751000    0.9653255   -4.5010803    1161.6938  0.055287162  0.055611003            1 
 1752000   0.97973621   -4.4881882    1161.9074  0.055265762  0.055598857            1 
 1753000   0.97062262   -4.5084934    1162.9424  0.055283439   0.05558654            4 
 1754000   0.94867822   -4.5019548    1158.1574  0.055024581  0.055574085            2 
 1755000   0.98084966   -4.5202991     1161.141  0.055134902  0.055561842            2 
 1756000   0.94757464   -4.5051061    1159.9789  0.055048353  0.055549256            2 
 1757000   0.97483181   -4.4908776    1160.0973  0.055022638  0.055536695            9 
 1758000   0.95393684   -4.5197698    1158.4219  0.054911921  0.055524001            2 
 1759000   0.98923596   -4.4902686    1163.8201  0.055136447  0.055511604            3 
 1760000   0.97319731   -4.4634676    1166.2513  0.055220233   0.05549927            4 
 1761000   0.96574379   -4.4878126    1163.5476   0.05506093  0.055486905            3 
 1762000   0.96280123    -4.473465    1164.7819  0.055088059  0.055474503            2 
 1763000   0.94241072    -4.506507    1163.9629  0.055018098  0.055462101            3 
 1764000    0.9723355   -4.5163062    1163.2395  0.054952736  0.055449797            5 
 1765000   0.94433156   -4.4375334    1169.4557  0.055215094  0.055437737            3 
 1766000    0.9658216   -4.5097681    1167.1562  0.055075321  0.055425704            2 
 1767000   0.96278915   -4.4851313    1169.8157  0.055169575  0.055413444            5 
 1768000   0.97526963   -4.5202852    1164.5274  0.054889113  0.055401094            4 
 1769000   0.96596665   -4.5258132    1168.4609  0.055043383  0.055389031            3 
 1770000   0.98234483   -4.5102254    1169.5776   0.05506486   0.05537697            2 
 1771000   0.96127265   -4.5009667    1164.6259  0.054800769  0.055364898            5 
 1772000   0.97112357   -4.4856377    1172.9024  0.055159067   0.05535257            7 
 1773000   0.99006734   -4.5059928    1167.2426   0.05486194  0.055340411            4 
 1774000   0.96691874   -4.4468406    1174.6915  0.055180922  0.055328412            1 
 1775000    0.9908168    -4.501913    1170.2275  0.054940256  0.055316299            3 
 1776000    0.9603204   -4.5080785    1169.2147    0.0548618  0.055303958            6 
 1777000   0.94712011   -4.4980567    1169.4359    0.0548413   0.05529161            3 
 1778000   0.97936188   -4.5059738     1175.234  0.055082209  0.055279315            4 
 1779000   0.96165317   -4.5151512    1170.9954  0.054852697  0.055266885            5 
 1780000   0.95773467    -4.483401    1173.7299    0.0549499  0.055254372            2 
 1781000   0.95875509   -4.4934431    1174.5889  0.054959243  0.055242068            3 
 1782000   0.96703514   -4.4886125    1172.1694  0.054815255  0.055230006            3 
 1783000   0.97226795   -4.4967648    1176.3994   0.05498221  0.055217851            3 
 1784000   0.95211302   -4.5071951    1172.5517  0.054771662  0.055205596            6 
 1785000   0.93689273   -4.5083929     1173.971  0.054807238  0.055193566            3 
 1786000   0.95723752   -4.5154958    1173.9172   0.05477404  0.055181363            2 
 1787000   0.97740156   -4.4771648    1177.4137   0.05490644  0.055169162            4 
 1788000   0.94599853   -4.5254066    1175.1416  0.054769838  0.055156906            3 
 1789000   0.95954651   -4.5085508    1176.2641  0.054791506  0.055144686            3 
 1790000   0.95732146   -4.4862293    1180.1279  0.054940777  0.055132577            8 
 1791000   0.97587622   -4.4768985    1179.8589  0.054897583  0.055120647            3 
 1792000   0.96827561   -4.4874871    1177.7055  0.054766812   0.05510848            3 
 1793000   0.97740809   -4.4857019    1177.9571   0.05474796   0.05509643            4 
 1794000   0.94892254   -4.4867438    1179.7034  0.054798561  0.055084116            7 
 1795000   0.96643256   -4.5061575    1179.7786  0.054771521  0.055071888            2 
 1796000     0.974109   -4.4742564    1177.5141  0.054635957  0.055059485            3 
 1797000   0.97528521   -4.5483849    1174.8837  0.054483571  0.055047103            3 
 1798000   0.94875844   -4.4914398      1179.09   0.05464822  0.055034475            7 
 1799000   0.96884304   -4.5245641    1176.5088  0.054498278  0.055021904            8 
 1800000   0.98053032   -4.5327316    1175.4765   0.05442021  0.055009221            2 
 1801000   0.91769612   -4.4956058    1182.6681   0.05472275   0.05499665            4 
 1802000   0.95395311   -4.4957523    1180.0862  0.054572984  0.054984225            2 
 1803000   0.98230735   -4.4859252    1184.4248  0.054743241  0.054972258            3 
 1804000   0.96213383   -4.5379113    1176.7708  0.054359332  0.054959932            4 
 1805000   0.96788839   -4.4913951    1183.3961  0.054635091  0.054947641            7 
 1806000   0.95929995   -4.5510061     1180.745  0.054482513  0.054935254            4 
 1807000   0.95385006   -4.4955599    1183.3544  0.054572697  0.054923026            3 
 1808000   0.95705124   -4.5353555    1185.8257   0.05465642  0.054911011            3 
 1809000   0.97500993   -4.5297909    1180.8907   0.05439887  0.054898949            7 
 1810000   0.95304517   -4.5079265    1184.4513   0.05453275  0.054886924            4 
 1811000   0.94403458    -4.496611    1186.5856  0.054600848   0.05487499            5 
 1812000   0.95169069    -4.505143    1186.4066  0.054562482  0.054863103            5 
 1813000   0.95552063   -4.4963171    1185.0609  0.054470532   0.05485116            3 
 1814000   0.97940956   -4.4663416    1189.6201  0.054649951  0.054839353            5 
 1815000   0.97329723   -4.5129951    1188.0479  0.054547654  0.054827511            5 
 1816000   0.94499966    -4.517575    1187.9686  0.054513977  0.054815481            2 
 1817000   0.96165055   -4.5207673     1191.882  0.054663457  0.054803509            4 
 1818000   0.96494453   -4.5248725    1188.7263  0.054488736  0.054791777            4 
 1819000   0.95795254   -4.4856725    1193.7198  0.054687548   0.05478014            3 
 1820000   0.94642584   -4.5063389    1190.4417  0.054507405  0.054768472            3 
 1821000   0.96078292   -4.4886009    1191.8346  0.054541215  0.054756566            4 
 1822000   0.97680439   -4.4946785    1191.4498   0.05449368  0.054744666            3 
 1823000   0.98036269   -4.4934263    1191.3106  0.054457426  0.054732911            4 
 1824000    0.9504012   -4.5168631    1193.5626  0.054530456  0.054720918            3 
 1825000   0.96830621   -4.5125362    1191.7157   0.05441624  0.054708793            2 
 1826000   0.96117842   -4.5080874    1196.5767  0.054608282  0.054696944            3 
 1827000   0.93837324   -4.4955476    1197.5175  0.054621304  0.054685075            2 
 1828000   0.94191699   -4.5075359    1190.3845  0.054266252  0.054673128            7 
 1829000   0.94912373   -4.4944476    1194.6755  0.054432088  0.054661174            1 
 1830000   0.94886509   -4.5279034    1193.5156  0.054349527  0.054649344            4 
 1831000   0.95430253    -4.512692    1195.4102  0.054406071  0.054637238            5 
 1832000   0.94110333   -4.4847214    1196.7779  0.054438585  0.054625172            5 
 1833000   0.95424236   -4.5137301    1194.2578  0.054294316  0.054613425            2 
 1834000   0.94490441   -4.5161892    1190.9238  0.054113222  0.054601256           10 
 1835000   0.96103756   -4.5149664    1201.0666  0.054544351  0.054589274            4 
 1836000   0.96761564   -4.5241171    1198.7435  0.054409199  0.054577354            5 
 1837000   0.93699987   -4.4826613    1200.0814  0.054440272  0.054565426            2 
 1838000   0.94938939   -4.5473892    1199.4939  0.054384019  0.054553454            7 
 1839000   0.95732788   -4.5461973    1195.0921  0.054154979  0.054541437            3 
 1840000   0.94165904   -4.5125823    1197.3431  0.054227497  0.054529284            2 
 1841000   0.94375429   -4.5210108    1193.8788  0.054041226  0.054517424            3 
 1842000   0.95081256   -4.4892324    1201.1855  0.054342449  0.054505323            9 
 1843000   0.95579086   -4.5256904     1199.114  0.054219297  0.054493191            3 
 1844000   0.94461975    -4.529397    1196.0424  0.054051087  0.054481098            5 
 1845000   0.96517613   -4.5229235    1198.6586  0.054139956  0.054468988            3 
 1846000    0.9651451   -4.4930301    1200.6306  0.054199646  0.054457093            4 
 1847000    0.9430242   -4.4914321    1204.5258  0.054346045  0.054445116            4 
 1848000   0.96253613   -4.5242535    1196.4074   0.05395055  0.054433136            5 
 1849000    0.9768024   -4.4928003    1204.3417  0.054278964  0.054421018            4 
 1850000   0.94876056   -4.5345235    1201.4571  0.054119687  0.054409098            5 
 1851000   0.94740781   -4.5176202    1202.3319  0.054129835  0.054397131            3 
 1852000   0.95967914   -4.5267873     1202.298  0.054099082  0.054385102            5 
 1853000   0.95522333   -4.4918728    1201.8126  0.054048058  0.054373009            2 
 1854000      0.92999   -4.5147175    1203.6885  0.054103221  0.054361001            5 
 1855000   0.96349772   -4.5045009    1204.9873  0.054132404  0.054348869            3 
 1856000    0.9580489   -4.5310074    1200.9945  0.053923962  0.054336486            2 
 1857000   0.94543539   -4.5200563    1202.0591  0.053942699  0.054324104            4 
 1858000   0.95428826   -4.5108929    1206.8273  0.054127525  0.054311848            5 
 1859000   0.96670036    -4.546551    1203.4464  0.053946852  0.054299892            1 
 1860000   0.93920085   -4.5155021    1204.6191  0.053970391  0.054287916            4 
 1861000   0.95217679   -4.5359949    1201.4253  0.053798375  0.054275643            3 
 1862000   0.95904516   -4.5339333    1202.1707  0.053802842    0.0542634            2 
 1863000   0.93888622   -4.5104092    1208.7036  0.054066183  0.054251322            2 
 1864000   0.96269904   -4.5459485    1203.2433  0.053793064  0.054239191            4 
 1865000   0.96466731   -4.5742031    1203.6195  0.053781031  0.054226949            5 
 1866000   0.93414138   -4.4693279    1208.1427   0.05395421  0.054214699            3 
 1867000   0.94330872   -4.4891862    1208.9835  0.053962842  0.054202609            5 
 1868000   0.95819102   -4.5363669    1207.7247  0.053877797  0.054190461            4 
 1869000   0.96022343   -4.5461997    1203.9289  0.053679727  0.054178226            3 
 1870000   0.94333509     -4.53974    1210.6556  0.053950782  0.054166034            6 
 1871000   0.96005347   -4.5595767    1205.5077  0.053692663  0.054153935            3 
 1872000   0.96036042   -4.5601813    1207.7572  0.053764119  0.054141504            3 
 1873000   0.96636554   -4.5341196     1207.893  0.053741458   0.05412938            5 
 1874000   0.92923337   -4.5216035    1209.8069  0.053797887  0.054117365            2 
 1875000   0.95110253   -4.5467681     1209.012  0.053733867  0.054105193            5 
 1876000   0.94367923   -4.5469449    1210.7487  0.053782372  0.054093134            4 
 1877000   0.94779122   -4.5215737    1214.8904  0.053937594  0.054081021            4 
 1878000   0.95552783   -4.5354408    1212.9929  0.053824676   0.05406893            9 
 1879000    0.9564019   -4.5490213    1212.7029  0.053783168  0.054056734            3 
 1880000   0.96281027   -4.5467556    1211.4006  0.053696836  0.054044684            7 
 1881000   0.95470748   -4.4936138    1215.3527  0.053843375  0.054032532            4 
 1882000   0.96744346   -4.5511161    1209.3598  0.053549406  0.054020295            4 
 1883000   0.95024361   -4.5428718    1214.7192  0.053758152  0.054008218            4 
 1884000   0.95538395   -4.5138457    1214.1202  0.053703123  0.053996098            5 
 1885000   0.92664362   -4.5349392    1213.0717   0.05362828  0.053983922           10 
 1886000   0.94679442    -4.561283    1212.7688  0.053586463  0.053971669            6 
 1887000   0.95931105   -4.5708351    1213.7883  0.053603088   0.05395939            5 
 1888000   0.95928927   -4.5299516    1214.9342  0.053625272  0.053947178            2 
 1889000    0.9633629   -4.5261748    1212.2984  0.053480609  0.053934832            4 
 1890000   0.93786861   -4.5312256    1216.9525  0.053657517   0.05392261            1 
 1891000   0.95227001   -4.5460315    1219.2659   0.05373109   0.05391043            4 
 1892000    0.9544117   -4.5261219    1216.7453  0.053591672  0.053898402            6 
 1893000   0.93996525   -4.5423331    1217.4633  0.053594969   0.05388649            2 
 1894000   0.94537471   -4.5336157    1214.0914  0.053418312  0.053874491            3 
 1895000   0.93307908   -4.5456089    1217.3615  0.053533927  0.053862272            2 
 1896000   0.95149236   -4.5280125    1219.1066  0.053582395  0.053850292            4 
 1897000   0.94505802     -4.54853    1220.8178  0.053629316  0.053838218            7 
 1898000   0.93974564   -4.5295998    1221.3954  0.053626422  0.053826246            5 
 1899000   0.94874721   -4.5487411    1220.8778  0.053575472  0.053813999            4 
 1900000    0.9310119   -4.5417796    1217.3858  0.053394114  0.053801733            3 
 1901000   0.94262816   -4.5300776    1219.9944  0.053480377  0.053789618            2 
 1902000   0.94078827   -4.5412904    1220.7454  0.053485166  0.053777449            6 
 1903000   0.93603803   -4.5157761    1226.3448  0.053702262  0.053765379            5 
 1904000   0.95986537    -4.532425    1216.0043  0.053221476   0.05375331            4 
 1905000   0.94886472     -4.51679    1219.5507  0.053348675  0.053741168            3 
 1906000   0.95157425   -4.5447345    1221.0006  0.053384078  0.053729018            7 
 1907000   0.93850932   -4.5530094    1223.6171  0.053470421  0.053716705            2 
 1908000   0.94671079   -4.5318117    1220.2116  0.053293658  0.053704292            4 
 1909000   0.94624617   -4.5255449    1226.8922  0.053557368  0.053692006            5 
 1910000   0.96657233   -4.5362526     1221.909  0.053311913  0.053679943            6 
 1911000   0.93240559   -4.5161831    1223.8171  0.053367222  0.053667984            3 
 1912000   0.92837738    -4.520328    1228.7809  0.053555653  0.053655844            4 
 1913000   0.93801865   -4.5375115    1223.9447  0.053316986  0.053643765            4 
 1914000   0.94081071   -4.5206918    1228.3096   0.05347917  0.053631784            2 
 1915000   0.93310254   -4.5366939    1226.5757  0.053375791  0.053619893            5 
 1916000   0.92791654   -4.5385084     1228.802  0.053444763  0.053607903            3 
 1917000   0.93734366   -4.5316808    1225.9704  0.053293793  0.053595904            3 
 1918000   0.96152029   -4.5502173    1228.5714  0.053379013  0.053583943            5 
 1919000   0.93223899   -4.5182109    1228.0687  0.053329368  0.053571947            6 
 1920000   0.94352509   -4.5497194     1224.144  0.053131251  0.053559962            3 
 1921000   0.95499039   -4.4761788     1234.277  0.053543162  0.053548034            2 
 1922000    0.9723373   -4.5513367    1230.8194  0.053365393  0.053536103            3 
 1923000   0.94726087   -4.5570346     1225.851  0.053122336  0.053524203            3 
 1924000   0.96149899   -4.5691748    1223.7065  0.053001841  0.053511904            3 
 1925000   0.95899956   -4.5486856     1228.375  0.053176405  0.053499796            6 
 1926000   0.93637451   -4.5508749     1230.608  0.053245415   0.05348779            2 
 1927000   0.93926206   -4.5607665    1228.3827  0.053121548  0.053475734            5 
 1928000   0.93319021   -4.5631713    1230.8763  0.053201776  0.053463416            3 
 1929000   0.96613576   -4.5477421    1228.3905   0.05306681  0.053451313            6 
 1930000   0.95205447   -4.5422678    1228.2925  0.053035081  0.053439018            4 
 1931000   0.96473964    -4.552131    1227.8405   0.05298811  0.053426616            4 
 1932000   0.94360774   -4.5414255    1230.6141  0.053080318  0.053414394            4 
 1933000   0.94122784    -4.551483    1230.9788  0.053068579  0.053402203            5 
 1934000   0.92546129   -4.5450595    1230.9879  0.053041535  0.053390063            5 
 1935000   0.94300637   -4.5664191     1233.136  0.053106633   0.05337796            5 
 1936000   0.94847496   -4.5508013    1231.0932   0.05299127  0.053365927            6 
 1937000   0.96119893    -4.525302     1234.622  0.053115727   0.05335402            3 
 1938000   0.92995166   -4.5448206      1238.56  0.053257653  0.053341921            3 
 1939000   0.95228843   -4.5795209    1227.5544  0.052757196  0.053329636            5 
 1940000   0.94517514   -4.5293032    1235.5957  0.053075418  0.053317482            3 
 1941000   0.96518446   -4.5536679    1235.4753  0.053042904  0.053305426            2 
 1942000   0.94608568   -4.5395815    1236.5419  0.053061359  0.053293501            5 
 1943000   0.94824142   -4.5376083    1238.0484   0.05309866  0.053281541            2 
 1944000   0.94931523    -4.513007    1239.7099  0.053142572  0.053269562            2 
 1945000   0.91735847   -4.5569671    1239.7131  0.053115386  0.053257406            2 
 1946000   0.92496827   -4.5674407    1236.3894  0.052945759  0.053245342            8 
 1947000   0.92852707   -4.5336879     1240.099   0.05307734  0.053233383            4 
 1948000   0.93689926   -4.5490714    1238.4584   0.05297991  0.053221369            4 
 1949000   0.94665069   -4.5661054    1244.3551  0.053204855  0.053209369            4 
 1950000   0.91882546   -4.5270583    1242.1309  0.053082518  0.053197459            4 
 1951000   0.95858775   -4.5231249     1242.686  0.053079021  0.053185667            2 
 1952000   0.93406776    -4.519775    1238.7425  0.052883475  0.053173776            3 
 1953000   0.92947359   -4.5248596    1239.8233  0.052902512  0.053161854            3 
 1954000   0.93228491    -4.551015    1239.7134  0.052870751  0.053149622            3 
 1955000   0.94824003   -4.5204643    1240.6631  0.052884192  0.053137631            4 
 1956000    0.9321413   -4.5625312    1239.8898  0.052824207  0.053125681            4 
 1957000   0.93173823    -4.548102     1239.675  0.052788068  0.053113627            4 
 1958000   0.93635259   -4.5465869    1241.0135  0.052818074  0.053101497            5 
 1959000   0.93669416   -4.5529409    1243.8156   0.05291031  0.053089557            3 
 1960000   0.93884461   -4.5504517    1245.0577  0.052936125  0.053077734            2 
 1961000   0.93868124   -4.5381094    1244.3456   0.05287887   0.05306584            2 
 1962000   0.93830481   -4.5231664    1241.4525  0.052729038   0.05305389            3 
 1963000   0.93163751   -4.5586884    1246.1352  0.052900969  0.053041818            3 
 1964000   0.96085195   -4.5501765    1246.1674    0.0528754  0.053030089            2 
 1965000   0.91820663   -4.5370452    1247.0967  0.052887902  0.053018386            2 
 1966000    0.9202724   -4.5645344    1249.6003  0.052967119  0.053006785            4 
 1967000   0.93700621    -4.579615    1245.4446  0.052764133  0.052994979            5 
 1968000   0.92003129   -4.5546389    1249.7125  0.052918044  0.052983344            3 
 1969000   0.95722355   -4.5403769    1253.3014  0.053043058  0.052971769            2 
 1970000   0.94126318   -4.5722308    1247.7555  0.052781538  0.052960189            3 
 1971000   0.92923935   -4.5673286     1248.763  0.052797352  0.052948716            2 
 1972000   0.92946165   -4.5596163    1248.8822  0.052775615  0.052937206            1 
 1973000     0.947913   -4.5317868    1255.1677  0.053014349  0.052925748            4 
 1974000   0.93811186   -4.5396117    1252.8642  0.052890249    0.0529144            1 
 1975000   0.93240336   -4.5551362    1248.5901  0.052683126  0.052902897            3 
 1976000   0.92764451   -4.5762547    1248.8352    0.0526668  0.052891336            6 
 1977000   0.92325943   -4.5451494    1252.8178  0.052808033   0.05287975            5 
 1978000   0.94422433   -4.5622591    1248.0775  0.052581629  0.052868516            2 
 1979000   0.94138976   -4.5541509    1251.1712  0.052685328  0.052857139            4 
 1980000    0.9327267   -4.5548978    1253.5092   0.05275712  0.052845681            3 
 1981000   0.92486868   -4.5933612    1251.9859  0.052666412  0.052834053            2 
 1982000   0.91417827   -4.5566014    1253.3254  0.052696155  0.052822401            4 
 1983000   0.93609707   -4.5751568    1252.8149  0.052648129  0.052810809            5 
 1984000   0.92642405   -4.5671156    1251.9729  0.052586227  0.052799423            9 
 1985000   0.94217227   -4.5459488    1256.6786  0.052757287  0.052788105            2 
 1986000   0.94182374   -4.5642258     1259.211  0.052836986  0.052776571            4 
 1987000   0.91759501    -4.541376    1256.4954  0.052696502  0.052765069            3 
 1988000    0.9369284   -4.5511433     1260.804  0.052850605  0.052753415            1 
 1989000   0.94871548   -4.5901822    1254.3236  0.052552522  0.052741842            3 
 1990000   0.93526452   -4.5770247    1254.0153  0.052513202  0.052730279            7 
 1991000   0.92431427   -4.5639836    1252.2262  0.052411944  0.052718775            7 
 1992000   0.92867329   -4.5539479    1254.5744  0.052483869  0.052707304           11 
 1993000   0.93569848   -4.5975038    1254.6521  0.052460785  0.052695682            2 
 1994000   0.91659646   -4.5768101    1258.1422  0.052580335  0.052683906            7 
 1995000   0.90513231   -4.5610031    1260.6366   0.05265817   0.05267232            4 
 1996000   0.92554947   -4.5683767    1257.3198  0.052493312  0.052660818            5 
 1997000   0.93717329   -4.5415611    1261.6767  0.052648834   0.05264937           12 
 1998000   0.93616969   -4.5578968    1259.7845  0.052543563  0.052638015            9 
 1999000   0.95581266   -4.5460667    1261.8276  0.052602451   0.05262667            3 
 2000000    0.9447967    -4.568239    1261.0879   0.05254533  0.052615206            3 
 2001000   0.92650945   -4.5622623    1262.8285   0.05259156   0.05260371            3 
 2002000   0.92392328   -4.5845648    1260.0737  0.052450621  0.052592301            4 
 2003000   0.92344754   -4.5435374    1265.9191  0.052667627  0.052580982            4 
 2004000   0.94267686   -4.5597276    1262.3658  0.052493586  0.052569641            4 
 2005000   0.95601353   -4.5796297    1266.8226  0.052652645  0.052558409            3 
 2006000   0.92880644   -4.5527438    1267.3351  0.052647687  0.052547269            4 
 2007000   0.93684842   -4.5553006    1265.9665  0.052564627  0.052536139            2 
 2008000   0.91613146   -4.5658986    1263.7197  0.052445205  0.052525049            4 
 2009000   0.92466425    -4.541412    1263.0735  0.052392299  0.052513829            5 
 2010000   0.94069552   -4.5638347    1266.5535   0.05251051  0.052502679            4 
 2011000   0.90960306     -4.55442    1267.2581  0.052513597  0.052491472            4 
 2012000   0.92421795   -4.5838208    1267.9236  0.052515061  0.052480395            4 
 2013000   0.92246168   -4.5555619    1269.4208  0.052550954  0.052469306            3 
 2014000   0.92782995   -4.5543444    1269.8954  0.052544497  0.052458237            6 
 2015000   0.91488216    -4.571042    1270.9831  0.052563404  0.052447113            4 
 2016000   0.92032803   -4.5546548    1267.7562  0.052403944  0.052435944            3 
 2017000   0.93242186   -4.5705223    1268.2555  0.052398589  0.052424911            4 
 2018000   0.92208579   -4.5804103    1270.1798   0.05245209  0.052413771            5 
 2019000   0.93106137   -4.6024085    1272.9178   0.05253912  0.052402617            5 
 2020000   0.93549579   -4.5859975     1269.309  0.052364232  0.052391455            3 
 2021000   0.93840638   -4.5684143    1276.1697  0.052621217  0.052380366            3 
 2022000   0.94731597     -4.58441    1272.8767  0.052459474  0.052369295            3 
 2023000   0.92618153   -4.6021985    1272.8276  0.052431522  0.052358201            4 
 2024000   0.92889893    -4.551476    1276.7765  0.052568202  0.052347079            3 
 2025000   0.93301872   -4.5553516    1276.6887  0.052538629  0.052336188            2 
 2026000    0.9342338   -4.5817527    1272.0219  0.052320742  0.052325267            2 
 2027000   0.91947674   -4.5959197    1271.9739  0.052292959  0.052314104            3 
 2028000   0.95999738   -4.5458516    1277.6427   0.05250011  0.052303072            3 
 2029000      0.92174   -4.6050774    1271.8511  0.052236368  0.052291903            9 
 2030000   0.95373402   -4.5387841    1280.0348  0.052546585  0.052280828            4 
 2031000   0.93828074   -4.5911835    1275.2867  0.052325895  0.052269754            2 
 2032000   0.90706929   -4.6036648    1273.6833  0.052234386  0.052258436            3 
 2033000   0.93390029   -4.5688281    1272.1443  0.052145612  0.052247243            4 
 2034000   0.92349414   -4.6051477    1274.6875  0.052224166  0.052236119            3 
 2035000   0.92529518   -4.5790789    1272.6181  0.052113761   0.05222488            3 
 2036000   0.93445025   -4.5630765    1278.0712  0.052311363  0.052213589            5 
 2037000   0.95014462   -4.5585148    1274.0018  0.052119205  0.052202618            6 
 2038000   0.93342647   -4.5869807    1278.5503  0.052279615  0.052191685            3 
 2039000   0.94456111   -4.5553222    1278.0638  0.052234095  0.052180758           11 
 2040000   0.93342302   -4.5673003    1279.1118  0.052251299  0.052169582            4 
 2041000    0.9196534   -4.5698928    1277.7463  0.052169944  0.052158661            4 
 2042000   0.95029408   -4.5862003    1278.2564  0.052165212  0.052147694            4 
 2043000   0.91574037   -4.5832867     1275.066  0.052009546  0.052136631            4 
 2044000   0.95604742   -4.5678722    1280.7819  0.052217135   0.05212553            5 
 2045000   0.93902668   -4.5360288    1280.8259  0.052193396  0.052114548            5 
 2046000   0.93116706   -4.5565863    1278.0038  0.052052942  0.052103493            4 
 2047000   0.95343986   -4.5750375    1286.1056  0.052357337  0.052092491            4 
 2048000   0.93207306   -4.6010282    1280.7322  0.052113128  0.052081401            1 
 2049000   0.92173106   -4.5452006    1284.8507  0.052255192   0.05207039            2 
 2050000   0.92594428     -4.60375    1282.2019   0.05212203  0.052059469            6 
 2051000   0.91842003   -4.5565754    1285.9998  0.052250926  0.052048407            4 
 2052000   0.93964041   -4.5783819    1285.4344  0.052202501  0.052037642            5 
 2053000   0.89988718   -4.5759515    1285.5365  0.052181218  0.052026604            2 
 2054000   0.91185412   -4.6087443    1282.8092  0.052045163  0.052015632            4 
 2055000   0.92457241    -4.582132    1284.8134  0.052101113  0.052004767            2 
 2056000   0.91243855   -4.5825435    1285.3251  0.052096511  0.051993763            6 
 2057000   0.93435654   -4.5573202    1284.6375  0.052043327  0.051982903            4 
 2058000    0.9084274   -4.5595559    1288.8911  0.052190278  0.051972063            2 
 2059000   0.92392447   -4.5765427     1285.145  0.052013317  0.051961087            4 
 2060000   0.92745967   -4.5804168    1281.8008  0.051852782  0.051950235            3 
 2061000   0.91397164     -4.59764    1288.5615  0.052100984   0.05193933            4 
 2062000   0.93802265    -4.574027    1287.3311  0.052025988  0.051928367            3 
 2063000   0.91832047   -4.5793743    1292.2616  0.052199937  0.051917434            3 
 2064000   0.91757804   -4.5968309    1290.9083  0.052120004  0.051906447            3 
 2065000   0.90991005   -4.5896243     1287.331  0.051950405  0.051895403            5 
 2066000   0.94241436   -4.5748486     1282.862  0.051744997  0.051884339            2 
 2067000    0.8950714    -4.585458    1287.0337  0.051888152  0.051873165            3 
 2068000   0.91081801   -4.5947619    1287.9107  0.051898402  0.051862082            6 
 2069000   0.90813428   -4.6087105     1282.887  0.051670978  0.051850789            4 
 2070000   0.89417855    -4.593393    1289.6894  0.051919863  0.051839633            5 
 2071000   0.91593393   -4.5883405    1288.4484  0.051844858   0.05182843            5 
 2072000   0.92636492   -4.5872211    1286.5211  0.051742321  0.051817205            3 
 2073000   0.91685445   -4.5841593    1287.0673  0.051739318  0.051806112            7 
 2074000   0.90772375   -4.5652262    1290.3715  0.051847133  0.051794832            8 
 2075000   0.91281302    -4.602259    1290.2779   0.05181839  0.051783831            5 
 2076000   0.92151403   -4.5920917    1290.5645  0.051804932  0.051772732            6 
 2077000   0.92383715   -4.5953098    1291.2622  0.051807984  0.051761626            4 
 2078000   0.92866274    -4.577074    1290.4073  0.051748769  0.051750592            6 
 2079000    0.9270133   -4.6330281     1289.424  0.051684463  0.051739376            7 
 2080000   0.92271673   -4.5899003    1292.5575  0.051785157  0.051728325            4 
 2081000   0.92399713    -4.600291    1296.0194  0.051898905   0.05171742            6 
 2082000   0.92068878   -4.5872212    1293.6036  0.051777282  0.051706332            4 
 2083000   0.91965898   -4.5596487    1292.9812  0.051727526  0.051695034            3 
 2084000   0.92265755   -4.6069254     1290.218  0.051592209  0.051683684            4 
 2085000   0.93116355   -4.6029979    1293.7874  0.051710128  0.051672333            5 
 2086000    0.9216905    -4.626183    1288.8468  0.051487969   0.05166098            4 
 2087000   0.91686713    -4.582359    1289.9597  0.051507735  0.051649647            7 
 2088000   0.92366171   -4.5741774    1291.9977  0.051564404  0.051638337            4 
 2089000   0.90957504    -4.603581    1292.4784  0.051558895  0.051627079            3 
 2090000   0.92684435   -4.5846255    1296.3784  0.051689728  0.051615881            1 
 2091000   0.92380321    -4.590485    1295.6011  0.051634032   0.05160481            7 
 2092000   0.91673356   -4.6314154    1297.5745  0.051687957  0.051594001            4 
 2093000   0.91724754   -4.6044038    1292.8875  0.051476649  0.051582753            2 
 2094000   0.92028745   -4.5939677    1298.3295  0.051668636  0.051571786            3 
 2095000   0.89867586   -4.5637506    1297.5685  0.051613704  0.051560805            5 
 2096000   0.92915961   -4.5851996    1298.3818  0.051621414  0.051550053            4 
 2097000   0.92206443   -4.6051139    1297.0799  0.051545061  0.051539079            4 
 2098000   0.90847214   -4.5761168    1299.9985   0.05163642  0.051528085            6 
 2099000    0.9177481   -4.6016651     1299.029  0.051573329  0.051517194            3 
 2100000   0.91587293   -4.5961293    1298.5608   0.05153019  0.051505901            2 
 2101000   0.91847485   -4.5953272    1302.8009  0.051673843  0.051494984            4 
 2102000   0.91773604   -4.5949062    1304.3584  0.051711004   0.05148424            3 
 2103000   0.90357591   -4.6050043    1296.7752  0.051385923  0.051473282            4 
 2104000   0.89270365   -4.5915784    1307.1138  0.051770984  0.051462199            3 
 2105000   0.89598069   -4.5813817    1303.0387  0.051585065   0.05145124            6 
 2106000    0.9096665   -4.5931543    1305.3444  0.051651805  0.051440483            5 
 2107000   0.93497377   -4.5775379    1306.7532  0.051683008   0.05142961            5 
 2108000   0.90706472   -4.5864001    1305.5137  0.051609491  0.051418874            2 
 2109000   0.93406289   -4.6138707    1300.8876  0.051402227  0.051408097            5 
 2110000   0.91495428   -4.5721919    1305.3339  0.051553472  0.051397285            3 
 2111000   0.93517658   -4.6089712    1301.5095  0.051378077  0.051386452            4 
 2112000   0.91402676   -4.6097778    1306.7687  0.051561266  0.051375676            3 
 2113000   0.91732096   -4.6014857    1305.9754  0.051505577  0.051364715            3 
 2114000   0.91154414   -4.6143077    1307.8042  0.051553305  0.051354017            5 
 2115000   0.92686899   -4.5912121    1305.0762  0.051421443  0.051343181            5 
 2116000   0.90499322   -4.6072337    1307.8343  0.051505762  0.051332471            4 
 2117000   0.90848175   -4.5992122    1309.2037  0.051535337  0.051321632            5 
 2118000   0.92206882   -4.5915655    1312.7428  0.051650253     0.051311            3 
 2119000   0.92739446    -4.615673    1303.9727  0.051280979  0.051300204            6 
 2120000   0.92947995   -4.6037985     1309.567  0.051476692  0.051289379            6 
 2121000   0.92822877   -4.6101364    1310.0391  0.051470968  0.051278824            2 
 2122000   0.91734978   -4.5680631    1312.8023  0.051555226  0.051268145            4 
 2123000   0.91429214   -4.5561461    1312.6836  0.051526284  0.051257414            3 
 2124000   0.91122364   -4.5883776     1310.921   0.05143287  0.051246715            4 
 2125000      0.92433   -4.5739567     1312.118  0.051455607  0.051236026            5 
 2126000   0.91327094    -4.633049    1306.9728  0.051229727  0.051225331            8 
 2127000   0.92401079   -4.6030782    1314.9034  0.051516354  0.051214442            7 
 2128000   0.91508434   -4.5897517    1309.5689  0.051283244  0.051203603            2 
 2129000   0.91698909   -4.5972309    1312.4971   0.05137377  0.051192539            3 
 2130000   0.90189624   -4.5857381    1313.0496  0.051371266  0.051181682            4 
 2131000   0.91264131   -4.5750443    1314.8877  0.051419041  0.051170845            3 
 2132000   0.90913516   -4.6179705    1311.0244   0.05124392  0.051160047            2 
 2133000   0.91317218   -4.6074697    1315.1101  0.051379516  0.051149111            8 
 2134000   0.89790307   -4.6200647    1315.8264  0.051383411  0.051138165            6 
 2135000   0.90684416   -4.5893592    1317.5571  0.051426896  0.051127619            6 
 2136000   0.90443204   -4.6221534    1314.2641  0.051274349   0.05111704            8 
 2137000   0.90033906   -4.5799244    1319.1944  0.051442614  0.051106356            6 
 2138000   0.92929296   -4.6087792    1321.4746  0.051507429  0.051095835            4 
 2139000   0.90008405   -4.5912135    1320.1311  0.051431008  0.051085338            9 
 2140000   0.91283061   -4.5929179    1316.6883  0.051272908  0.051074959            6 
 2141000   0.93119492   -4.6044049    1319.2157  0.051347334  0.051064515            4 
 2142000   0.91995457   -4.6319646     1319.304  0.051326797  0.051054062            3 
 2143000   0.91338651   -4.6129969    1314.1521  0.051102507  0.051043542            3 
 2144000   0.91349434   -4.5974094    1321.7566  0.051374246  0.051032895            4 
 2145000   0.89958352   -4.6312914    1318.1411  0.051209834  0.051022262           13 
 2146000   0.89962175   -4.6100157    1325.0326  0.051453582  0.051011914            6 
 2147000    0.9152214    -4.580992    1322.8939  0.051346602   0.05100166            4 
 2148000   0.92393343   -4.6190532    1318.3027  0.051144578  0.050991162            7 
 2149000   0.90835816   -4.6035721    1318.2335  0.051118098  0.050980643            3 
 2150000   0.89175967   -4.6008581    1322.3907  0.051255454  0.050970242            3 
 2151000   0.89919439   -4.6348602    1319.1066  0.051104393  0.050959994            6 
 2152000   0.90274904   -4.6143065    1321.2583  0.051163967  0.050949542            2 
 2153000   0.91004401   -4.6000168    1324.2302  0.051255234  0.050939363            4 
 2154000   0.89522256   -4.5874526    1327.5862  0.051361275  0.050929192            8 
 2155000   0.93961074   -4.6044344     1324.335  0.051211717  0.050919098            3 
 2156000   0.90977939   -4.6292835    1321.1349  0.051064274  0.050908823            2 
 2157000    0.8912385   -4.6121693    1328.3431   0.05131908   0.05089855            2 
 2158000   0.92253412   -4.6317554    1328.2877  0.051293162  0.050888114            4 
 2159000   0.90310964   -4.6202466    1327.4365  0.051236548  0.050877682            4 
 2160000   0.88870357    -4.626713    1326.3525  0.051171008  0.050867292            2 
 2161000   0.89006885   -4.6216992    1326.7699  0.051163424  0.050857023            6 
 2162000   0.90875059    -4.570575    1330.3663  0.051278379  0.050846874            8 
 2163000   0.89430366   -4.6225323    1330.1485  0.051246281  0.050836636            7 
 2164000   0.93234091   -4.5821541     1333.486  0.051351126  0.050826465            4 
 2165000   0.88931647   -4.5985475    1327.7507  0.051106646  0.050816171            4 
 2166000   0.90704882   -4.6359798    1331.8732  0.051241659  0.050805962            4 
 2167000   0.90449777   -4.5976994    1331.8186  0.051215911  0.050795727            9 
 2168000   0.90334655   -4.6247385    1324.2013  0.050899496  0.050785473            9 
 2169000   0.89147893   -4.6080294     1329.203  0.051068196  0.050775124            3 
 2170000   0.91316885   -4.6245723    1330.9316  0.051111045  0.050764974            3 
 2171000   0.88755536   -4.6393303    1332.7875  0.051158739  0.050754651            8 
 2172000   0.88420825   -4.6231788    1324.3988  0.050813335  0.050744195            3 
 2173000   0.90285924   -4.6218269    1334.0962  0.051161843  0.050733672            4 
 2174000   0.89573968   -4.5996612    1331.4389  0.051036449  0.050723346            4 
 2175000   0.88856896   -4.6279755     1330.295  0.050969158  0.050712998            3 
 2176000   0.90523766   -4.6524187    1329.2576  0.050906005  0.050702582            4 
 2177000   0.90501303   -4.6088925    1331.0214  0.050950136  0.050692105            9 
 2178000   0.88621316   -4.6276512    1328.0527  0.050813157  0.050681614            5 
 2179000   0.89244471   -4.6112732    1329.4521  0.050843356  0.050671055            5 
 2180000    0.9159117   -4.5982377    1334.6477  0.051018641  0.050660605            3 
 2181000   0.87661593   -4.6003608    1334.9038  0.051005034  0.050650096            3 
 2182000   0.89886479   -4.6180639    1331.0528  0.050834586  0.050639459            6 
 2183000   0.90554005    -4.640292    1328.7071  0.050721756  0.050628679            8 
 2184000   0.93482919   -4.6031798     1331.429   0.05080239  0.050617994            7 
 2185000   0.87418986   -4.6020258     1335.056  0.050917468  0.050607288            5 
 2186000   0.90415681   -4.6089436    1328.1226  0.050629864  0.050596621            2 
 2187000   0.90807821   -4.6068616    1330.6769  0.050704041  0.050585882            4 
 2188000    0.8874875   -4.5980353    1334.2788  0.050818052  0.050575105            4 
 2189000   0.91146044   -4.6091757    1337.1484  0.050904081  0.050564397            2 
 2190000   0.91179171   -4.6215756    1331.4213  0.050662911  0.050553605            3 
 2191000   0.92499051   -4.6076579    1330.3732  0.050599925  0.050542766            3 
 2192000   0.90041295   -4.6268689    1330.5694  0.050584298  0.050531931            4 
 2193000   0.89938346   -4.6376055    1332.3927  0.050630516  0.050520985            4 
 2194000   0.90817348   -4.5889085    1336.3084  0.050756167  0.050510142            6 
 2195000   0.90577337    -4.612221    1330.9803  0.050530763  0.050499394            5 
 2196000   0.89488972   -4.6195854    1334.4655  0.050640007  0.050488647            2 
 2197000   0.90647701   -4.6011947    1334.4989  0.050618227   0.05047805            4 
 2198000    0.8723955   -4.6073815    1334.3846  0.050590862  0.050467269            7 
 2199000   0.88557794   -4.6270129    1334.0362  0.050554653  0.050456424            3 
 2200000   0.89569415   -4.6224309    1332.7816   0.05048415  0.050445575            5 
 2201000   0.90111876   -4.6496593    1332.1637  0.050437821  0.050434633            6 
 2202000   0.88865607   -4.6271275    1334.5408  0.050504873  0.050423643            2 
 2203000   0.87544949   -4.6266794    1339.8197  0.050681635  0.050412797            4 
 2204000   0.90174944   -4.6278251    1337.5693   0.05057355  0.050401835            8 
 2205000   0.88491407   -4.6232797    1335.8162  0.050484363  0.050390751            7 
 2206000   0.90611587   -4.6315726    1332.7067  0.050344014  0.050379858            2 
 2207000    0.8961895   -4.6454971    1337.7662  0.050512242  0.050368924            2 
 2208000    0.9101178   -4.6201241     1337.588  0.050482637  0.050357797            6 
 2209000   0.90413537   -4.6479304    1333.7569  0.050315258  0.050346826            2 
 2210000   0.88836205   -4.6289488    1336.7282  0.050404531  0.050335682            4 
 2211000   0.90229161   -4.6068879    1336.8065  0.050384685  0.050324595            4 
 2212000   0.89943864   -4.6238309    1335.5225  0.050313536  0.050313366            6 
 2213000   0.89300327   -4.6347229    1338.2674  0.050394165  0.050302393            3 
 2214000   0.88682237   -4.6194187    1340.8907  0.050470139  0.050291305            4 
 2215000   0.89348573   -4.6368719    1338.6895  0.050364543  0.050280158            2 
 2216000   0.89617882   -4.6518421    1336.7764  0.050269872  0.050269191            2 
 2217000   0.89407005   -4.6632912    1336.4206  0.050233823  0.050258257            2 
 2218000   0.91011352   -4.6121699    1338.5941  0.050292836  0.050247193            3 
 2219000   0.88429135   -4.6162952    1342.8335   0.05042938  0.050236198            1 
 2220000   0.88144892   -4.6567898    1337.2944  0.050198739  0.050225342            3 
 2221000   0.89261163   -4.6179734    1342.5859  0.050374676  0.050214568            4 
 2222000   0.90217882   -4.6283546    1343.5366   0.05038766  0.050203641            2 
 2223000   0.88846337   -4.6561381    1339.6716  0.050220107  0.050192587            3 
 2224000   0.89637483   -4.6311812    1342.1315    0.0502897  0.050181576            3 
 2225000   0.89332926   -4.6578192    1339.3472  0.050162817  0.050170774            4 
 2226000   0.89396086   -4.6196609    1341.6431  0.050226231    0.0501599            4 
 2227000   0.87987713   -4.6350706    1345.0898  0.050332653  0.050149067            4 
 2228000   0.90671066   -4.6219521     1342.388  0.050209008   0.05013832            4 
 2229000   0.90692669   -4.6018992    1348.5059  0.050415205  0.050127656            7 
 2230000   0.87896071    -4.629452    1347.0361  0.050337673  0.050117076            9 
 2231000   0.88648279   -4.6184702    1345.2881  0.050249817  0.050106364            3 
 2232000   0.90292964   -4.5914032    1354.5545  0.050573272  0.050095874            4 
 2233000   0.89069208   -4.6321117    1345.8953  0.050227472  0.050085314            3 
 2234000   0.89607226   -4.6297984    1346.9778  0.050245368  0.050074541            5 
 2235000   0.88313878   -4.6348761    1348.2484  0.050270261  0.050063739            4 
 2236000   0.87543792   -4.6317568    1347.2773  0.050211587  0.050053144            6 
 2237000   0.87445573   -4.6553852    1346.3742  0.050155498  0.050042354            4 
 2238000   0.90932275   -4.6244611    1347.2725  0.050166535  0.050031578            9 
 2239000   0.88938027   -4.6357021    1348.1795  0.050177887    0.0500208            5 
 2240000   0.88505639   -4.6417957    1348.8325  0.050179781  0.050010003            6 
 2241000   0.87581997   -4.6186716    1348.1977  0.050133782  0.049999118            3 
 2242000   0.86398845   -4.6566772    1350.6344  0.050201992  0.049988257            3 
 2243000   0.89715442   -4.6516506    1346.2016  0.050014919  0.049977279            6 
 2244000   0.87439003   -4.6530327     1349.811  0.050126671  0.049966361            5 
 2245000     0.894839   -4.6636582    1351.4083  0.050163635  0.049955394            3 
 2246000   0.89010574   -4.6505249    1347.9519  0.050013055  0.049944502            3 
 2247000   0.91948205   -4.6637565    1344.5328  0.049863998  0.049933479            5 
 2248000    0.8784346   -4.6412864    1351.3014  0.050092727  0.049922799            3 
 2249000   0.89843982   -4.6283791    1352.1008  0.050100075  0.049911819            2 
 2250000   0.89071105   -4.6619562    1351.6513  0.050061158  0.049901131            3 
 2251000   0.89736137   -4.6305469    1355.4849  0.050180841  0.049890553            2 
 2252000   0.89290799   -4.6529074    1350.3879  0.049969947  0.049880055            9 
 2253000   0.89842207    -4.657116    1351.1796  0.049977054  0.049869399            5 
 2254000   0.90784682   -4.6593325    1352.7213  0.050011879   0.04985873            5 
 2255000    0.8907265   -4.6852841    1351.9497  0.049961187  0.049848117            5 
 2256000   0.89003772   -4.6311242    1353.2422  0.049986782  0.049837369            3 
 2257000   0.89025393   -4.6255232    1350.7411   0.04987229  0.049826638            5 
 2258000   0.87922067    -4.646747    1354.1509  0.049976046  0.049815837            3 
 2259000   0.89262575   -4.6460475    1356.9117  0.050055767  0.049805143            2 
 2260000   0.89889207   -4.6462323    1359.7871  0.050139644  0.049794586            6 
 2261000   0.87239647   -4.6324069    1358.8065  0.050081325  0.049784003            3 
 2262000     0.890349   -4.6393115      1352.73  0.049835324  0.049773298            3 
 2263000   0.89141888   -4.6325801    1355.6914  0.049922352  0.049762653            4 
 2264000    0.8682979   -4.6453787    1358.1114  0.049989377  0.049751981            4 
 2265000   0.88399095    -4.646332    1354.6796  0.049841045   0.04974137            2 
 2266000   0.90019634   -4.6337559     1355.515  0.049849773  0.049730662            5 
 2267000   0.89665617   -4.6450171    1357.7454  0.049909772  0.049719896            3 
 2268000   0.87622286   -4.6339491    1359.2478  0.049942968  0.049709182            4 
 2269000   0.90442299   -4.6691538    1354.2783  0.049738443  0.049698436            4 
 2270000   0.90820405   -4.6378212     1358.956  0.049888251  0.049687719            5 
 2271000    0.9080186   -4.6482458    1358.2045   0.04983871  0.049676941            4 
 2272000    0.8795791   -4.6785511    1355.0745  0.049701969  0.049666073            2 
 2273000   0.88614036   -4.6296726    1363.0946  0.049974137  0.049655166            3 
 2274000    0.8938383   -4.6216236    1361.1896   0.04988235  0.049644262            4 
 2275000     0.872919   -4.6591659    1358.4888  0.049761493  0.049633407            4 
 2276000   0.89745296   -4.6569661    1354.3164  0.049586865   0.04962248            9 
 2277000   0.88801391   -4.6387476    1363.8378  0.049913548  0.049611707            6 
 2278000   0.89031874   -4.6345131    1356.6393  0.049628304  0.049601028            5 
 2279000   0.89423851   -4.6349536    1362.8087  0.049832117  0.049590162            2 
 2280000   0.90078077   -4.6498626    1356.6711  0.049585933  0.049579417            6 
 2281000    0.8981097   -4.6390733    1361.8008  0.049751601  0.049568485            4 
 2282000   0.88724928   -4.6183539     1363.485  0.049791301  0.049557825            4 
 2283000   0.89622082   -4.6369035    1363.0558  0.049753827  0.049547034            9 
 2284000   0.88672104   -4.6565421    1358.3264  0.049559486  0.049536258            5 
 2285000    0.8914071   -4.6263056    1363.1723  0.049714526  0.049525384            5 
 2286000   0.88884226    -4.648254    1358.1924  0.049511244  0.049514654            7 
 2287000   0.88581305   -4.6345634    1363.3288  0.049676751  0.049503987            4 
 2288000   0.88127225   -4.6547345    1365.0355  0.049717202   0.04949322            3 
 2289000   0.87484123   -4.6782284    1367.0829  0.049770021  0.049482318            5 
 2290000   0.89031976    -4.665193    1365.0447  0.049674117  0.049471574            2 
 2291000   0.87051311   -4.6784241     1363.522  0.049597047  0.049461001           11 
 2292000    0.8765006   -4.6197022    1366.0055  0.049665702  0.049450267            4 
 2293000   0.88355259   -4.6537209    1371.3319  0.049837619  0.049439779            3 
 2294000   0.87423223    -4.675438     1366.616   0.04964458  0.049429385            5 
 2295000   0.90966494   -4.6490372    1369.5543   0.04972964  0.049418731            6 
 2296000   0.88460085    -4.667738    1369.8998   0.04972052  0.049408286            4 
 2297000   0.88670958   -4.6476785    1368.3162  0.049641422  0.049397602            3 
 2298000   0.89363565   -4.6348782    1371.1742  0.049723463  0.049387143            2 
 2299000   0.88653802   -4.6490124    1371.0856  0.049698623  0.049376558            7 
 2300000   0.90740155    -4.648716    1370.3024  0.049648639  0.049366047            8 
 2301000   0.88171351   -4.6515445    1370.7068  0.049641705  0.049355528            3 
 2302000   0.89404969   -4.6387584    1373.9869  0.049738884  0.049345057            2 
 2303000    0.8953928   -4.6560795    1374.6712  0.049742046  0.049334513            7 
 2304000   0.87799856   -4.6786031    1364.3861  0.049348454  0.049324121            3 
 2305000    0.8756097   -4.6653923    1371.3218  0.049577794  0.049313725            6 
 2306000   0.87172207   -4.6877818    1369.2354  0.049480898  0.049303175            7 
 2307000   0.89420895   -4.6442957    1373.7372  0.049622062  0.049292671            3 
 2308000   0.86999641    -4.682775     1369.468  0.049446417  0.049282144            4 
 2309000   0.90047433   -4.6554206    1374.8363  0.049618749  0.049271608            3 
 2310000   0.86328881   -4.6567907    1372.3976  0.049509292  0.049261079            3 
 2311000   0.90974134   -4.6646847    1372.6168  0.049495774  0.049250449            5 
 2312000   0.88970384   -4.6745648     1376.013  0.049596779  0.049239988            6 
 2313000   0.88254189   -4.6585222    1374.2124  0.049510462  0.049229411            7 
 2314000   0.87993445   -4.6303811    1374.9999  0.049517427  0.049218984            3 
 2315000   0.87397532   -4.6638744    1371.6638  0.049375947  0.049208426            2 
 2316000   0.86106534   -4.6600692    1370.7909   0.04932322  0.049197859            3 
 2317000   0.88393171   -4.6526223    1377.3451  0.049537661  0.049187381            4 
 2318000   0.87104199    -4.665426    1374.6755  0.049420314  0.049176989            4 
 2319000   0.88729612   -4.6648077    1372.2207   0.04931079  0.049166572            3 
 2320000   0.90196691   -4.6664305    1378.1937  0.049504083  0.049156152            2 
 2321000   0.88863556   -4.6507749    1381.2659   0.04959306  0.049145795            4 
 2322000   0.87275778   -4.6742389    1378.3994  0.049468829  0.049135542            3 
 2323000   0.88519257   -4.6690656    1376.8865   0.04939326   0.04912513           10 
 2324000   0.88529322   -4.6328797    1385.2607  0.049672286  0.049114827            4 
 2325000   0.88633399   -4.6732306    1377.4789  0.049372002  0.049104613            8 
 2326000   0.88616862   -4.6496359    1380.3545  0.049453803  0.049094277            7 
 2327000   0.90225863   -4.6166947    1381.3669  0.049468804  0.049083991            4 
 2328000   0.88628572   -4.6841637    1375.3134  0.049230864   0.04907356            3 
 2329000   0.87780984   -4.6795419    1379.1459  0.049346853  0.049063129            4 
 2330000   0.89966126   -4.6452349    1378.9281  0.049317887  0.049052596            2 
 2331000   0.86455553   -4.6602176    1373.4873   0.04910222  0.049042065            4 
 2332000   0.86879815   -4.6389265    1377.7049  0.049231881  0.049031497            4 
 2333000   0.88159107    -4.641213    1382.2068  0.049371582  0.049021148            4 
 2334000   0.88174465   -4.6562161     1380.653  0.049294953  0.049010777            4 
 2335000   0.89658931   -4.6535793    1383.2831  0.049367706  0.049000477            2 
 2336000    0.8743668   -4.6565918    1381.5079  0.049283243  0.048990171            5 
 2337000   0.86726878   -4.6600517    1381.1733  0.049250224  0.048979682            9 
 2338000   0.86954822   -4.6654794    1387.0293  0.049437885  0.048969281            4 
 2339000   0.87221852   -4.6409909    1382.2819   0.04924761  0.048958865            4 
 2340000    0.8782394    -4.674309    1384.2322   0.04929602  0.048948688            6 
 2341000   0.87521983   -4.6518309    1385.3313  0.049314085  0.048938418            3 
 2342000   0.87026752   -4.6524411    1384.2467  0.049254436  0.048928159            3 
 2343000   0.88049013   -4.6434043    1390.4498  0.049454041  0.048917963            2 
 2344000   0.88596591   -4.6590421    1389.1048  0.049385125  0.048907662            2 
 2345000   0.87800824    -4.676037    1387.2363  0.049297665  0.048897544            5 
 2346000   0.86961254   -4.6428406      1387.42  0.049283175  0.048887288            5 
 2347000   0.88234483   -4.6704978    1388.5867  0.049303605  0.048877196            3 
 2348000   0.86829267   -4.6295257    1394.0969  0.049478169  0.048867045            3 
 2349000   0.88579926   -4.6601245    1386.5743  0.049190232  0.048856875            4 
 2350000   0.88211899   -4.6793256    1390.4514  0.049306788  0.048846715            4 
 2351000   0.86638063   -4.6746148    1389.3909  0.049248225  0.048836469            3 
 2352000   0.87635265   -4.6732758    1388.3336  0.049189823  0.048826323            3 
 2353000   0.90231233   -4.6890739    1388.2008  0.049164215  0.048816111            3 
 2354000   0.87810702   -4.6899326    1388.1866  0.049142829  0.048806068            4 
 2355000   0.85240037   -4.6852329    1391.9107  0.049253741  0.048795975            4 
 2356000    0.8698455   -4.6859435    1387.6502  0.049082137  0.048785751            5 
 2357000   0.85972898   -4.6898184    1393.0911   0.04925368  0.048775777            7 
 2358000   0.87831933   -4.6614818    1393.9622  0.049263577  0.048765869            3 
 2359000   0.87529076   -4.6714111    1388.8578  0.049062376  0.048755998            4 
 2360000   0.84335593   -4.6767261    1391.8311  0.049146578  0.048746017            3 
 2361000   0.85589606    -4.626876    1396.6823  0.049296988  0.048735958            5 
 2362000   0.89127989   -4.6928822    1390.4739  0.049057079  0.048725908            5 
 2363000   0.86487727   -4.6686516    1392.7525  0.049116677  0.048715702            6 
 2364000   0.88519494   -4.6667391     1392.863  0.049099797  0.048705661            4 
 2365000    0.8699077   -4.6705356    1394.9862  0.049153848  0.048695557            7 
 2366000   0.89045935    -4.660543    1396.4939  0.049186177  0.048685582            3 
 2367000   0.87848905   -4.6627637    1396.3611  0.049160722  0.048675583            6 
 2368000   0.87453362   -4.6964062    1393.3265  0.049033168  0.048665669            3 
 2369000   0.86156398   -4.6626808    1393.4049  0.049015228  0.048655649            5 
 2370000   0.87408341   -4.6905042    1394.1708  0.049021478  0.048645758            5 
 2371000   0.87904393   -4.6735779    1396.6748   0.04908881  0.048635717            1 
 2372000   0.87458522    -4.694629    1396.0952  0.049047752  0.048625756            3 
 2373000   0.87913488   -4.6565045    1393.3132  0.048929386  0.048615633            4 
 2374000   0.88192357   -4.6433576    1397.1667  0.049044044  0.048605661            4 
 2375000   0.88004946   -4.6580023    1394.1869  0.048918837  0.048595615            4 
 2376000   0.87068059   -4.6753694    1401.1918  0.049143931  0.048585541            5 
 2377000   0.87563334   -4.6634011    1399.8213  0.049075212   0.04857565            6 
 2378000   0.87075939   -4.6750508    1397.9005  0.048987261  0.048565521            8 
 2379000   0.87666363   -4.6746725    1398.6585  0.048993223   0.04855543            6 
 2380000   0.86764702    -4.683775    1394.5818  0.048829894  0.048545283            7 
 2381000   0.87217769   -4.6718326     1400.993  0.049033776  0.048535246            5 
 2382000   0.87801741   -4.6479801    1397.6186  0.048895138  0.048525202            4 
 2383000   0.85652742   -4.6678609    1397.0595  0.048855067  0.048515045            7 
 2384000   0.89128425   -4.7083886    1393.8698  0.048723078  0.048504872            2 
 2385000   0.88731604   -4.6768871     1403.002  0.049021734  0.048494681            4 
 2386000    0.8665051   -4.6908627    1401.3467  0.048943376  0.048484659            4 
 2387000    0.8749722   -4.6585202    1401.3775  0.048923947  0.048474533            4 
 2388000   0.88352253   -4.7112195    1393.6522  0.048633872  0.048464587            5 
 2389000   0.87421138   -4.6922845    1398.0629  0.048767367  0.048454368            4 
 2390000   0.88002616   -4.6858384    1404.7101  0.048978733  0.048444297            3 
 2391000   0.85979136   -4.6983603     1398.638  0.048746618  0.048434228           15 
 2392000   0.88034218   -4.6734424    1400.8604  0.048803664   0.04842405            5 
 2393000   0.87529918   -4.6693345    1398.4639  0.048699815  0.048413898            9 
 2394000   0.85489029   -4.6724143    1403.7189  0.048862396  0.048403855            2 
 2395000   0.86458858   -4.6676837     1403.011  0.048817363  0.048393947            4 
 2396000     0.869309   -4.6918059     1402.933  0.048794275  0.048383787            5 
 2397000   0.89950269   -4.6933432    1404.5818  0.048831241  0.048373901           10 
 2398000    0.8571406    -4.709521    1403.3775  0.048769027  0.048363843            5 
 2399000   0.86779731   -4.6542046    1409.6875  0.048967885  0.048353813            3 
 2400000   0.86730758   -4.6807261     1401.004  0.048645971  0.048343698            5 
 2401000   0.87914237   -4.6851711    1400.4429  0.048606239  0.048333519            2 
 2402000   0.84762097   -4.6704254    1405.2219    0.0487518  0.048323465            3 
 2403000   0.87236848    -4.693858    1399.1784  0.048521932  0.048313454           13 
 2404000   0.87719608   -4.6762209    1408.4292  0.048822421  0.048303356            3 
 2405000   0.87689901   -4.6890732     1406.664  0.048740955  0.048293371            6 
 2406000   0.86704174   -4.6953734    1409.9092  0.048833097  0.048283362            3 
 2407000   0.84557689   -4.6664728    1411.1923  0.048857233  0.048273369            5 
 2408000   0.84433026   -4.6722579     1407.977   0.04872567   0.04826333            9 
 2409000   0.85303492   -4.7048161    1403.4679  0.048549463  0.048253192            7 
 2410000   0.87026782   -4.7032695     1411.894  0.048820677  0.048243211            3 
 2411000   0.85791737   -4.7039624    1404.1306  0.048532095  0.048232974            4 
 2412000   0.86507605   -4.6950289    1406.2951  0.048586757   0.04822288            3 
 2413000    0.8613459   -4.6931317    1405.8327  0.048550654  0.048212608            4 
 2414000   0.87765046   -4.6837739    1407.4884  0.048587698  0.048202588            5 
 2415000   0.85131955    -4.698539    1406.8432  0.048545314  0.048192433            7 
 2416000     0.880009    -4.683318    1410.5333    0.0486525  0.048182203            4 
 2417000   0.88600559   -4.7052997    1406.6876   0.04849978  0.048171938            5 
 2418000     0.870827    -4.696019    1407.3897  0.048503918  0.048161779            3 
 2419000   0.85220315   -4.7004311    1405.0962  0.048404857  0.048151588            3 
 2420000   0.86784838   -4.6986652    1408.6163   0.04850607  0.048141426            4 
 2421000   0.87274422    -4.684291    1408.2981  0.048475082  0.048131355            5 
 2422000   0.86558498   -4.6888671    1410.8128  0.048541591  0.048121197            4 
 2423000   0.86844229   -4.6955393    1401.7599  0.048210203  0.048111021            7 
 2424000   0.86139755    -4.698239    1407.6936  0.048394306  0.048100824            2 
 2425000   0.85206167    -4.710616    1409.3228  0.048430336   0.04809065            4 
 2426000   0.84335852     -4.68288     1411.944  0.048500412  0.048080633            3 
 2427000   0.85409507   -4.6811557    1412.4006  0.048496108  0.048070465            4 
 2428000   0.84614063    -4.656608    1410.9951  0.048427892  0.048060306            3 
 2429000   0.87544208   -4.7071829    1406.2379  0.048244749  0.048050193            6 
 2430000   0.86684422   -4.6761321    1418.8735  0.048658214  0.048040061            6 
 2431000   0.84819398   -4.6989566    1413.5301  0.048455028   0.04802999            6 
 2432000   0.86644474   -4.6717845    1416.4674  0.048535751  0.048019981            4 
 2433000   0.86272482   -4.7117524    1412.7525  0.048388565  0.048010067            4 
 2434000   0.85089061   -4.7038226    1409.7212  0.048264899  0.047999937            3 
 2435000   0.86480357   -4.6996361    1414.2623   0.04840049  0.047989939            7 
 2436000   0.87320773    -4.717276    1414.1225  0.048375839  0.047979856            4 
 2437000   0.85647688   -4.6668833     1419.159   0.04852821  0.047969921            3 
 2438000   0.86040427   -4.6825266    1421.3823  0.048584301  0.047960103            7 
 2439000    0.8565019    -4.709953    1418.3244  0.048459902  0.047950326            4 
 2440000   0.84826651    -4.698507    1417.9848  0.048428442  0.047940383            8 
 2441000   0.84873216   -4.6846718    1414.1276  0.048276921  0.047930403            4 
 2442000   0.87304482   -4.6858916    1416.3629  0.048333433  0.047920513            4 
 2443000   0.88412966   -4.6912944    1418.9153  0.048400712  0.047910604            6 
 2444000   0.85403218   -4.6930331    1415.0155  0.048247938   0.04790046           10 
 2445000   0.86336944   -4.6747468    1414.2162   0.04820096  0.047890293            4 
 2446000   0.87113641   -4.6712674     1421.027  0.048413292  0.047880352            4 
 2447000   0.86150545   -4.6815055    1418.8186  0.048318302   0.04787049            4 
 2448000   0.86828915   -4.7033564    1418.9125  0.048301759  0.047860636            3 
 2449000   0.87548987   -4.7228287    1421.0419  0.048354495  0.047850637            3 
 2450000   0.85307363    -4.696235    1427.7763  0.048563819  0.047840863            5 
 2451000   0.86123718   -4.7243563    1420.6707  0.048302416  0.047830986            7 
 2452000   0.85466712   -4.6722482    1427.8103  0.048525362  0.047821219            5 
 2453000   0.84932847   -4.7135001    1419.1265  0.048210574  0.047811326            4 
 2454000   0.86647908   -4.6930024    1422.3274  0.048299627  0.047801622            3 
 2455000   0.87379129   -4.7028178    1419.1461  0.048171965  0.047791706            4 
 2456000   0.85000914   -4.7095664    1422.8685  0.048278654  0.047781826            4 
 2457000   0.82012485   -4.7099704    1424.1072  0.048301017  0.047771913            2 
 2458000   0.86988916   -4.6796925    1419.4215  0.048122507  0.047761933            2 
 2459000   0.86068291   -4.7005736    1423.7424  0.048249369  0.047752045            4 
 2460000   0.85038517   -4.7011748    1425.0916  0.048275459  0.047742111            5 
 2461000   0.85304476   -4.7340622    1423.2791  0.048194471  0.047732278           10 
 2462000   0.83706706   -4.6840205    1421.1098   0.04810147  0.047722405           13 
 2463000   0.86307878   -4.7193081    1423.1649  0.048151473  0.047712375            4 
 2464000   0.85001645   -4.6964591    1424.5461  0.048178643  0.047702572            4 
 2465000   0.83145818   -4.7005846    1419.7902  0.047998316   0.04769269            3 
 2466000   0.86281791   -4.7157067    1423.4431  0.048102296  0.047682648            3 
 2467000   0.86588389   -4.6976108    1419.5026   0.04794969  0.047672651            3 
 2468000   0.87349923   -4.7298274    1420.2386  0.047955112  0.047662614            9 
 2469000   0.84245318   -4.6617216    1428.8844  0.048227503  0.047652727            7 
 2470000   0.86693827   -4.7122852    1421.9924  0.047975453  0.047642739            7 
 2471000   0.85431288   -4.6824031    1425.2026  0.048064299  0.047632686           12 
 2472000   0.84800857    -4.709674    1429.0126  0.048173295  0.047622607            7 
 2473000   0.87135585   -4.7384088    1423.5846  0.047970907   0.04761276            7 
 2474000   0.86106477   -4.7198468    1423.8499  0.047960453  0.047602777            4 
 2475000   0.83628186   -4.7311997    1423.7122  0.047936436  0.047592718            5 
 2476000   0.86484528    -4.705806    1428.0865  0.048064302  0.047582678            4 
 2477000   0.85464605   -4.6830859    1427.9456  0.048040157  0.047572714            3 
 2478000   0.85052341   -4.7095746    1430.8509  0.048118473  0.047562739            3 
 2479000   0.85545003   -4.7286885     1425.712  0.047926315  0.047552601            5 
 2480000   0.86641889   -4.7120241    1427.1862  0.047956526  0.047542457            7 
 2481000   0.85938556   -4.7288193     1424.403  0.047843712  0.047532363            2 
 2482000   0.84362823   -4.6820935    1429.3361  0.047990064  0.047522178            8 
 2483000   0.85631212   -4.7166495    1425.9074  0.047855664  0.047512184            4 
 2484000   0.84724598   -4.7179479     1424.176  0.047778315  0.047502059            4 
 2485000   0.84136387    -4.707328    1428.8739  0.047916629  0.047491889            4 
 2486000   0.86611299   -4.7232382     1424.506  0.047750938   0.04748181            3 
 2487000   0.86441845   -4.7214114    1429.9071  0.047912715  0.047471766            4 
 2488000   0.83862175   -4.7129761    1433.6255  0.048018003  0.047461657            2 
 2489000   0.85392505   -4.6727375    1433.0787  0.047980402  0.047451754            3 
 2490000   0.87307503   -4.7121226    1424.1119   0.04766104  0.047441582            7 
 2491000   0.85498887   -4.6875267    1431.7219  0.047896492  0.047431443            5 
 2492000   0.85884558   -4.7081371    1431.3953   0.04786635  0.047421427            4 
 2493000   0.84851779   -4.7319117    1428.9344  0.047764888  0.047411319            6 
 2494000   0.85105266   -4.7169352     1429.544  0.047766105   0.04740125            7 
 2495000   0.87630649   -4.7082757    1433.5727  0.047881519  0.047391318            3 
 2496000   0.85789207   -4.7074316    1432.3692  0.047822157   0.04738131            3 
 2497000   0.85491205   -4.7104755     1431.891  0.047787044  0.047371308            5 
 2498000   0.86670847   -4.7335471    1433.5873  0.047824502  0.047361172           10 
 2499000   0.86326728   -4.7109776    1435.3267  0.047863368  0.047351145            6 
 2500000   0.84703791   -4.7069602    1431.4199  0.047713997  0.047341249            3 
 2501000   0.85903073   -4.7120712    1434.9443  0.047812353  0.047331168            4 
 2502000   0.85836015   -4.7250332    1429.0391  0.047596559  0.047321073            7 
 2503000   0.85070702    -4.733332    1430.7641  0.047634974  0.047311021            6 
 2504000   0.86021959   -4.7272365    1430.0681  0.047592788   0.04730083            5 
 2505000   0.85360974   -4.7025882    1435.6556  0.047759668  0.047290943            6 
 2506000   0.86329491   -4.7152309    1436.7122  0.047775746  0.047280975            3 
 2507000   0.82859236   -4.6896855    1438.0491  0.047801126  0.047270995            5 
 2508000   0.84514104   -4.7126687    1436.5705  0.047732939  0.047261115            2 
 2509000   0.84013776   -4.7170107    1436.9028  0.047724951  0.047251155            4 
 2510000   0.85639476   -4.7302552    1433.9527  0.047607992   0.04724123            6 
 2511000   0.85734849   -4.7430368    1434.0752  0.047593098  0.047231262            3 
 2512000   0.85697756   -4.7172244    1431.7462  0.047496889  0.047221189            6 
 2513000   0.84071511   -4.7039618    1434.8712  0.047581617  0.047211136            3 
 2514000   0.85498471   -4.7026495    1438.1779  0.047672299  0.047201114            5 
 2515000   0.84469967    -4.735906    1436.0146  0.047581662  0.047191116            6 
 2516000   0.86688144   -4.7458862    1435.4534  0.047544163  0.047181016            6 
 2517000   0.84939987   -4.7072636    1443.7611  0.047800328  0.047171168            3 
 2518000   0.84794353   -4.7298352    1437.4441  0.047572282  0.047161292            5 
 2519000    0.8490706   -4.7337577    1436.5684  0.047524428   0.04715134            3 
 2520000   0.85143333   -4.7290658    1436.2679  0.047495632  0.047141519            5 
 2521000   0.84650848   -4.7323825    1441.3322  0.047644196  0.047131609            5 
 2522000   0.85254989    -4.721025    1439.1807  0.047554215   0.04712164            3 
 2523000   0.85655628   -4.7330507    1435.3476  0.047408759  0.047111667            6 
 2524000   0.84262329       -4.729    1438.7879  0.047503564  0.047101696            5 
 2525000   0.84387632   -4.7129361    1437.1735   0.04743147  0.047091834           10 
 2526000   0.85676445   -4.7031198    1442.7131  0.047595445  0.047081886            6 
 2527000   0.84804924   -4.7512717    1437.8746  0.047417049  0.047071841            4 
 2528000   0.85113847   -4.7244327    1443.3141  0.047577601   0.04706176            9 
 2529000   0.81672154   -4.7379662    1439.7791  0.047442306   0.04705168            8 
 2530000   0.84699943   -4.6809214     1443.744   0.04755415  0.047041668            4 
 2531000   0.83486689   -4.7090947    1444.2807  0.047553032  0.047031805            3 
 2532000   0.84912225   -4.7304224    1441.4212   0.04744014  0.047021769            3 
 2533000   0.85484026   -4.7196994    1440.3903  0.047387496  0.047011865            2 
 2534000   0.84099219   -4.7422979    1444.8042  0.047513951  0.047001892            3 
 2535000   0.84182017   -4.7209575    1438.3681  0.047283631  0.046991708            5 
 2536000   0.82243447   -4.7281135    1441.8733  0.047380168    0.0469816            2 
 2537000   0.85109049   -4.7295842    1438.9561  0.047265672  0.046971606            6 
 2538000   0.83952533   -4.7370526    1446.9521   0.04750959  0.046961621            6 
 2539000   0.82552362   -4.7185641    1441.2561  0.047303928  0.046951767            8 
 2540000   0.84055733   -4.7351698    1442.7549  0.047334478  0.046941851            6 
 2541000   0.82559706   -4.7234101    1448.3191   0.04749833  0.046931954            5 
 2542000    0.8572549   -4.7010785    1447.9644  0.047468016  0.046921992           11 
 2543000   0.82136693   -4.7353997    1443.9489  0.047317765  0.046911971            3 
 2544000   0.86139439   -4.7206998     1444.967  0.047332514  0.046902062            4 
 2545000   0.84490653   -4.7086281    1446.0057  0.047347929  0.046892176            4 
 2546000   0.83809546   -4.7114598    1445.8993  0.047325848  0.046882147            9 
 2547000   0.84371792   -4.7642485    1444.5951  0.047264597  0.046872113           16 
 2548000   0.84695917    -4.738649     1444.825  0.047253564  0.046862181            4 
 2549000    0.8270807   -4.6927632    1444.5238  0.047225181  0.046852231            7 
 2550000   0.83886842   -4.7354924    1450.2967  0.047395317  0.046842383            8 
 2551000   0.82870765   -4.7179668    1447.1521  0.047274012  0.046832418            5 
 2552000   0.84825857   -4.7386814    1449.5556  0.047333972  0.046822544            5 
 2553000   0.84571934   -4.7123617    1446.4426  0.047213822  0.046812672            4 
 2554000   0.84556218   -4.7373317    1451.4474  0.047358633    0.0468028            4 
 2555000   0.83700597   -4.7052227    1451.4279  0.047339462  0.046793074            3 
 2556000   0.84732667   -4.7690376    1449.9905  0.047274077  0.046783381            2 
 2557000   0.84001815   -4.7277147     1454.601  0.047405846  0.046773496            3 
 2558000   0.86376295   -4.7585815    1445.9764  0.047106347  0.046763729            2 
 2559000   0.84461806   -4.7620895    1448.9281   0.04718406  0.046753912            6 
 2560000   0.83940504   -4.7130234    1452.8381  0.047292907   0.04674404            9 
 2561000   0.85153807   -4.7453273    1454.8065  0.047338491    0.0467343            3 
 2562000   0.84806026   -4.7282105    1453.9708  0.047292831  0.046724584            7 
 2563000   0.84620683   -4.7517801    1450.4118   0.04715866  0.046714687            5 
 2564000    0.8350568    -4.738007    1455.3582  0.047301033  0.046705041            3 
 2565000   0.82576355   -4.7138554     1451.142  0.047145614  0.046695316            5 
 2566000   0.82599985   -4.7304848    1454.3737  0.047232194  0.046685662            5 
 2567000   0.85707355    -4.751695    1452.9777  0.047168474  0.046675867            5 
 2568000   0.84984846   -4.7241096    1455.0313  0.047216749  0.046666173            3 
 2569000   0.84398834   -4.7603271    1458.5953  0.047313978  0.046656547            4 
 2570000   0.82680728   -4.7453958    1456.1503  0.047216288  0.046646962            5 
 2571000   0.86640923   -4.7302795    1455.9582  0.047191695  0.046637339            4 
 2572000   0.84075004   -4.7294432    1458.7757  0.047264636  0.046627739            6 
 2573000   0.84156729   -4.7268159     1459.926  0.047283521  0.046618075            5 
 2574000   0.84344878   -4.7625482     1455.216  0.047112665  0.046608435            5 
 2575000   0.83746918   -4.7206135    1455.9791  0.047119065  0.046598745            4 
 2576000   0.83294629   -4.7420839    1453.4376  0.047018554  0.046589163            4 
 2577000   0.84266706   -4.7332054    1456.8169  0.047109588   0.04657965            6 
 2578000   0.82982896   -4.7131185    1462.6286  0.047279177  0.046569965            3 
 2579000   0.84754065   -4.7524891    1457.8156  0.047105326  0.046560494            3 
 2580000   0.84403176   -4.7296214    1455.6168  0.047016047  0.046550773            3 
 2581000    0.8566698   -4.7773501    1454.4922  0.046961519  0.046541032            5 
 2582000   0.84625562   -4.7395016    1456.6014  0.047011405  0.046531236            5 
 2583000   0.81801052    -4.726746    1457.7191  0.047029265  0.046521588            5 
 2584000   0.84108348   -4.7870629    1451.3027  0.046804137  0.046511659            6 
 2585000   0.85969402    -4.725358    1460.2682  0.047075053  0.046501867            4 
 2586000   0.82923257   -4.7556817    1457.7788   0.04697663  0.046492119            5 
 2587000   0.84337638   -4.7597399    1453.6854  0.046826613  0.046482362            5 
 2588000    0.8468525    -4.764604    1457.0926  0.046918232  0.046472468            5 
 2589000   0.83597196   -4.7454134    1463.8393  0.047117268  0.046462703            5 
 2590000   0.83133073   -4.7418512    1459.5684  0.046961661  0.046452901            4 
 2591000   0.81754622   -4.7678944      1453.52  0.046749003  0.046442993            9 
 2592000   0.82916456   -4.7425384    1457.7432  0.046866742  0.046433138            5 
 2593000   0.83517546   -4.6947345    1459.3588  0.046900591  0.046423283            5 
 2594000   0.85094257   -4.7377954    1458.5602  0.046856855  0.046413374            5 
 2595000   0.83948736   -4.7421744    1457.2318  0.046796139  0.046403509            4 
 2596000    0.8378325   -4.7767187    1459.8363  0.046861721  0.046393501            5 
 2597000   0.83234774    -4.732132     1456.006  0.046720769  0.046383414            4 
 2598000   0.82756726   -4.7222057     1461.685  0.046884943  0.046373397            7 
 2599000   0.83080229   -4.7213751    1462.3933  0.046889614  0.046363399            4 
 2600000    0.8359846   -4.7565636    1457.6226  0.046718672  0.046353454           10 
 2601000    0.8245121   -4.7546775    1455.5851  0.046635431  0.046343465            4 
 2602000   0.83386282   -4.7207031     1461.378  0.046803038   0.04633352            8 
 2603000   0.83658296   -4.7581481     1455.662  0.046602062  0.046323601            8 
 2604000   0.83246176    -4.769253    1456.6168  0.046614722  0.046313433            2 
 2605000   0.82146719   -4.7560998    1459.1839  0.046678946  0.046303476            3 
 2606000   0.83049423   -4.7381533    1462.7735  0.046775822  0.046293471            9 
 2607000   0.81985205   -4.7578506    1462.1195  0.046736974  0.046283473            5 
 2608000   0.83082949   -4.7364562    1461.5309  0.046700245  0.046273523            4 
 2609000   0.85030298   -4.7366092    1462.6075  0.046716735  0.046263567            8 
 2610000   0.82228878   -4.7584629    1464.1195  0.046747109  0.046253681            4 
 2611000    0.8087291    -4.711418    1468.8485   0.04688014  0.046243873           10 
 2612000   0.83481908   -4.7698422    1462.3099  0.046653584  0.046233987            3 
 2613000   0.84626053   -4.7691585      1461.74  0.046617553  0.046224057            6 
 2614000   0.82645759    -4.765147    1459.3448  0.046523362  0.046214073           14 
 2615000   0.84806606   -4.7392613    1464.7424  0.046677579  0.046204134            6 
 2616000   0.81796211   -4.7498908    1462.9997   0.04660422  0.046194275            4 
 2617000   0.81811029   -4.7500695    1463.1799  0.046592149  0.046184444            2 
 2618000    0.8409178   -4.7537992    1460.4135  0.046486297  0.046174546            8 
 2619000   0.84177754   -4.7738747    1461.9224  0.046516559   0.04616458            4 
 2620000    0.8186408   -4.7641366    1463.5192  0.046549593  0.046154585            5 
 2621000   0.83252604   -4.7464616    1460.6699   0.04644124  0.046144516            5 
 2622000   0.83161457   -4.7466448    1468.6376  0.046676761  0.046134529            5 
 2623000   0.82410592   -4.7604257    1462.0045  0.046448231  0.046124562            3 
 2624000   0.80886175   -4.7459259    1466.0753   0.04655981  0.046114567            5 
 2625000   0.84541769   -4.7558889    1466.6598  0.046560627  0.046104576            5 
 2626000   0.83670321   -4.7553117    1465.1706  0.046495641  0.046094616            5 
 2627000   0.83055197   -4.7614028    1463.0154  0.046409574  0.046084671            5 
 2628000   0.82582808   -4.7349599    1466.2862   0.04649563  0.046074638            4 
 2629000   0.83111172   -4.7748997    1465.3676  0.046448827   0.04606458            9 
 2630000   0.85664646   -4.7412525    1467.2245  0.046490002  0.046054574            4 
 2631000   0.83107561   -4.7619054    1464.2366  0.046377696  0.046044525            7 
 2632000   0.81889357   -4.7744392    1467.0311  0.046448552  0.046034296            4 
 2633000   0.82163772   -4.7310475    1460.5495  0.046225773  0.046024324            6 
 2634000   0.82668573   -4.7581118    1469.9337  0.046505115  0.046014285           12 
 2635000   0.83420407   -4.7616184    1466.6538  0.046383739  0.046004147            3 
 2636000   0.84539454   -4.7402287    1466.1718  0.046350903  0.045994187            7 
 2637000   0.83030057   -4.7434843    1468.2011  0.046397455  0.045984036            8 
 2638000   0.84791806   -4.7496714    1466.3804  0.046322354  0.045973952            6 
 2639000   0.83718024   -4.7521436    1463.9288  0.046227386  0.045963834            2 
 2640000   0.82640123   -4.7826497    1466.5829  0.046293653  0.045953686            5 
 2641000   0.81033609   -4.7613671     1463.828  0.046189195   0.04594358            5 
 2642000   0.82556884   -4.7866397     1462.487  0.046129414  0.045933448           11 
 2643000   0.82503068   -4.7483582    1466.1228  0.046226599  0.045923225            3 
 2644000   0.83552595   -4.7483736    1467.9208  0.046265785  0.045913048            6 
 2645000   0.81900175   -4.7581832    1469.4342  0.046295975  0.045902998            5 
 2646000   0.83775343    -4.756637    1467.3221   0.04621196  0.045892781            4 
 2647000   0.82450261   -4.7537509    1464.4483  0.046104027  0.045882603            3 
 2648000   0.83833657   -4.7567523    1466.6308  0.046155301  0.045872376            6 
 2649000    0.8380663   -4.7679886    1467.7074  0.046171744  0.045862111            4 
 2650000   0.82642196   -4.7660675    1465.6712  0.046090289  0.045851975            9 
 2651000   0.83795238   -4.7406156    1467.8235  0.046140559  0.045841864            5 
 2652000   0.82342743   -4.7515811    1469.2612  0.046168337  0.045831705            6 
 2653000   0.82581412   -4.7625243    1466.1149  0.046052107  0.045821413            6 
 2654000   0.84464283    -4.799519    1467.2142  0.046069274  0.045811173            6 
 2655000   0.82983269   -4.7574166    1464.7441  0.045974391  0.045800828            3 
 2656000   0.81055184   -4.7811947     1468.116  0.046062876  0.045790547            3 
 2657000   0.84728724   -4.7677006    1471.4497  0.046150096  0.045780214            6 
 2658000   0.83182465   -4.7856575    1466.1231  0.045965735  0.045769841            6 
 2659000   0.83731624    -4.779029    1466.5923  0.045963153  0.045759448            4 
 2660000   0.83662381     -4.74874    1468.5507  0.046007228  0.045749149            3 
 2661000   0.83359413    -4.761954    1473.1023  0.046132479  0.045738839            3 
 2662000   0.82000676   -4.7496539    1473.0794  0.046114433  0.045728616           12 
 2663000   0.81596163   -4.7423619    1470.9469  0.046030382  0.045718357            6 
 2664000   0.83274595   -4.8087658      1468.18  0.045926552  0.045708033            6 
 2665000   0.83141236   -4.7932843     1466.077  0.045843559  0.045697628            9 
 2666000   0.81436595   -4.7515919    1466.7676   0.04584795  0.045687291            8 
 2667000   0.81330386   -4.7376739    1472.4195  0.046007357  0.045677056            4 
 2668000   0.80557302   -4.7316219    1473.4411  0.046022024  0.045666892            6 
 2669000   0.83771392     -4.75719    1470.2839  0.045906204   0.04565669            7 
 2670000   0.83959209   -4.7211521    1476.5653  0.046085059  0.045646599            9 
 2671000   0.84197124   -4.7857141    1468.5952  0.045819143  0.045636497            4 
 2672000   0.82285349   -4.7659897    1471.2348   0.04588432  0.045626311            5 
 2673000   0.81876713   -4.7648961    1469.0576  0.045799278  0.045616043            8 
 2674000   0.83585057   -4.7730826    1474.1676  0.045941398   0.04560594            4 
 2675000   0.82820232   -4.7516649     1477.536  0.046029159  0.045595863            6 
 2676000   0.82868828   -4.7995528     1470.527  0.045793692  0.045585605            7 
 2677000   0.82450921   -4.7608255    1469.9544  0.045758759  0.045575303            6 
 2678000   0.81162678    -4.786638    1471.8996  0.045802202  0.045565074            5 
 2679000   0.81825893   -4.7620266    1472.2762   0.04579682  0.045554799            5 
 2680000   0.82258571   -4.7679194    1473.4433  0.045816024  0.045544558            4 
 2681000   0.82172844    -4.749806    1476.1704  0.045883702  0.045534274            5 
 2682000   0.82203838   -4.7529054     1477.381  0.045904207  0.045524208            5 
 2683000   0.83296026    -4.767041    1473.9577  0.045780772  0.045513971            5 
 2684000   0.83743864   -4.7762987    1471.2548  0.045679795  0.045503659           11 
 2685000   0.81546141   -4.7648375    1471.1596  0.045659825  0.045493303            5 
 2686000   0.81503818   -4.7700232    1475.4599  0.045776243  0.045482937            8 
 2687000   0.82272003   -4.7636894     1474.816  0.045739238  0.045472545            5 
 2688000   0.80777409   -4.7582434    1476.4602  0.045773194  0.045462252            7 
 2689000   0.82825621   -4.7323127     1479.885  0.045862309  0.045452099            4 
 2690000   0.81664779   -4.7738695    1476.7828  0.045749157  0.045441952            4 
 2691000   0.82500626   -4.7461578    1479.6929  0.045822275  0.045431723            6 
 2692000   0.82353651    -4.780667    1476.4316  0.045704296  0.045421517            6 
 2693000   0.82239352   -4.8204589    1472.6645  0.045570755  0.045411278            4 
 2694000   0.83113861   -4.7887577    1478.1187  0.045722552  0.045401056            9 
 2695000   0.82752211   -4.7799354    1475.5659  0.045626651  0.045390886            6 
 2696000   0.81471784   -4.7948195    1478.8407  0.045710953  0.045380912            5 
 2697000   0.79011693   -4.7845503     1479.523  0.045715084  0.045370633            5 
 2698000   0.81585147   -4.8042371     1473.031  0.045497621  0.045360325            7 
 2699000   0.82030738   -4.7882358    1474.6481  0.045530692  0.045349962            9 
 2700000   0.82693033   -4.7625939    1479.1673  0.045653311  0.045339684            6 
 2701000   0.82565291   -4.7719367    1479.7299  0.045653767  0.045329431            6 
 2702000   0.80797529   -4.7666733    1480.4858  0.045660183  0.045319125            4 
 2703000   0.82263327   -4.7783281    1477.7299  0.045558327  0.045308828            5 
 2704000   0.82471529   -4.7528184    1476.1695  0.045493391  0.045298459            4 
 2705000   0.80985883   -4.7449348     1479.957  0.045593253  0.045288264            5 
 2706000    0.8211207   -4.7832164    1475.7419  0.045446598  0.045277937            4 
 2707000   0.81421871   -4.7743388    1481.4821  0.045606517  0.045267586            5 
 2708000   0.81958557   -4.7560976     1480.434  0.045557421  0.045257318            4 
 2709000   0.80269582   -4.8214604    1477.6612  0.045455311  0.045246934            5 
 2710000   0.83542818   -4.7793433    1483.9183  0.045630943  0.045236597            5 
 2711000   0.82437193   -4.8207524    1480.2538  0.045501471  0.045226292            4 
 2712000   0.83222055   -4.7655538    1481.0333  0.045508642  0.045216068            4 
 2713000   0.80988512   -4.7948618    1474.1411  0.045280166  0.045205765            7 
 2714000   0.82302226   -4.7735667    1479.0326  0.045413676  0.045195413            4 
 2715000   0.84682447   -4.7855064    1478.9019  0.045392938  0.045185242            5 
 2716000   0.81634611   -4.7459053    1485.3409  0.045573789  0.045175006            9 
 2717000   0.81738262   -4.7758182    1478.0325  0.045332859  0.045164821            4 
 2718000   0.81792447   -4.7898882    1478.1161  0.045318742  0.045154581            5 
 2719000   0.81023482   -4.7855485     1478.741  0.045321228  0.045144308            6 
 2720000   0.81498554   -4.7763647    1481.2591  0.045381713  0.045133921            6 
 2721000   0.80784699   -4.7386862    1483.9214  0.045446569  0.045123591            5 
 2722000   0.82132447   -4.7740182    1484.4932  0.045447379  0.045113423            4 
 2723000   0.83181028   -4.7935801    1482.2246  0.045361261  0.045103289            6 
 2724000   0.81297866    -4.808314    1481.1626   0.04531212  0.045092879            4 
 2725000   0.81915006    -4.795114    1485.7045  0.045434389  0.045082411            6 
 2726000   0.83144411   -4.7922632    1486.2148  0.045433321  0.045072122            7 
 2727000   0.80598171    -4.771428    1482.5061  0.045303328  0.045061888            7 
 2728000    0.8171293   -4.7774867     1485.065  0.045364888  0.045051792            6 
 2729000   0.81854557   -4.7889324    1483.2326   0.04529231  0.045041424            5 
 2730000   0.82820161    -4.784443    1482.4137  0.045250724  0.045031208            5 
 2731000   0.79926734   -4.8012584    1484.0183  0.045283117  0.045020938            6 
 2732000   0.82285275   -4.7582262    1487.2852  0.045366189  0.045010812            8 
 2733000   0.82298182   -4.8176699    1484.7604  0.045272607  0.045000758            5 
 2734000   0.83684547   -4.8107154    1487.2308  0.045331345  0.044990625            5 
 2735000   0.82065765   -4.7882486     1490.713  0.045420871  0.044980484           11 
 2736000   0.81295394   -4.7906371    1485.1595   0.04523512  0.044970362            7 
 2737000   0.81046015   -4.7902417    1486.3216  0.045253977  0.044960238            4 
 2738000   0.81540827   -4.7985079    1486.4159  0.045240317  0.044950085            8 
 2739000   0.82726589   -4.7832399    1491.8712  0.045389778  0.044939845            6 
 2740000   0.81223866   -4.7716456    1484.2058   0.04514008  0.044929694            4 
 2741000   0.81403688   -4.7833576    1494.3488  0.045431982  0.044919622            5 
 2742000   0.82290861   -4.8167888    1489.6855   0.04527369  0.044909526            6 
 2743000   0.80474978   -4.8121383    1486.7857  0.045169088  0.044899416            3 
 2744000   0.81918008   -4.7835148    1484.4634    0.0450821  0.044889279            6 
 2745000   0.80383859   -4.8222585    1487.9576  0.045171754  0.044879179            7 
 2746000    0.8151506   -4.7958148    1493.4804  0.045322905  0.044869071            5 
 2747000   0.79538218   -4.7881222    1491.4084   0.04524355  0.044859022            5 
 2748000   0.82534305   -4.7816982    1492.7707  0.045268398  0.044849021            5 
 2749000   0.82242454    -4.812599    1490.0335  0.045168957  0.044839019            6 
 2750000   0.81510641   -4.8212829    1489.5541  0.045138003  0.044828802           15 
 2751000   0.81854686   -4.8011041    1492.3181  0.045205323  0.044818686            4 
 2752000   0.81289515   -4.7926117    1494.6906  0.045260738  0.044808527            3 
 2753000    0.8091666   -4.7924207    1492.4554  0.045176638  0.044798461            4 
 2754000   0.81701632   -4.7898594     1493.914   0.04520437  0.044788253            2 
 2755000    0.8126968   -4.7989403    1493.4128    0.0451728  0.044778113            9 
 2756000   0.81736548   -4.7750742    1490.9826  0.045082928  0.044768045            5 
 2757000   0.81100947   -4.7902271    1491.8177  0.045091818  0.044757919            3 
 2758000   0.82406794   -4.8075392    1490.4562  0.045034331   0.04474785            4 
 2759000   0.81595575   -4.8076906    1491.7602  0.045057395  0.044737772            4 
 2760000   0.81437883   -4.7928041    1491.3969  0.045030099  0.044727489           14 
 2761000   0.79905431   -4.8042461    1489.2579   0.04494923  0.044717205           13 
 2762000   0.79814986   -4.8139237    1491.3084  0.044994822  0.044706947            9 
 2763000   0.80209976   -4.7947838    1495.7886  0.045113663  0.044696842            7 
 2764000   0.81822549   -4.7663769    1498.1692  0.045169116  0.044686854            4 
 2765000   0.81484058   -4.8482282    1490.5703  0.044923757  0.044676804            3 
 2766000   0.83055821   -4.8095303    1493.9472  0.045009255  0.044666721            4 
 2767000   0.79817573   -4.7998867    1496.4003  0.045066867  0.044656718            2 
 2768000   0.82818028   -4.8098277    1495.6652  0.045028458  0.044646724           17 
 2769000   0.81002718   -4.7900555    1493.0135   0.04493239  0.044636654            5 
 2770000    0.7971263   -4.8327439    1494.1082  0.044949104  0.044626543            7 
 2771000   0.81752696   -4.8160815    1491.1073  0.044842635  0.044616352            4 
 2772000   0.81139764   -4.8099282    1494.5975  0.044931382  0.044606235            7 
 2773000   0.80717617   -4.8148148    1494.3098  0.044906534   0.04459617            3 
 2774000   0.81452123   -4.8099889    1491.6567  0.044810642   0.04458604            5 
 2775000   0.81030449   -4.8087402    1498.2517  0.044992543  0.044575957            6 
 2776000   0.83526107   -4.7869174    1500.3513  0.045039363  0.044566006            4 
 2777000   0.80397437   -4.7878745    1497.9178   0.04495012  0.044555985            4 
 2778000   0.81009874   -4.7963358    1504.5412  0.045132625   0.04454613            7 
 2779000   0.80081545   -4.8236369    1499.9897  0.044979899  0.044536256           10 
 2780000   0.80914448   -4.8021558     1497.876   0.04490036  0.044526398            3 
 2781000   0.79577488   -4.8010024     1499.618  0.044936413  0.044516458            8 
 2782000   0.80079891    -4.817506    1496.9021  0.044838907  0.044506497            9 
 2783000   0.81173893   -4.8188355    1499.1994  0.044891585   0.04449644           10 
 2784000   0.80678007   -4.7889706     1501.142  0.044933608  0.044486537            4 
 2785000   0.79283836   -4.8145912    1501.4459  0.044926569  0.044476452            7 
 2786000   0.79261435   -4.8114262    1499.6787  0.044857581  0.044466474            5 
 2787000   0.80157302   -4.8149904    1497.8217  0.044785963  0.044456473            5 
 2788000   0.81132969   -4.7904716    1499.8928  0.044831803  0.044446599            3 
 2789000   0.80936997   -4.8053111    1501.9193  0.044876278  0.044436606            7 
 2790000   0.80784662   -4.8140183    1503.2711   0.04490057  0.044426582            8 
 2791000   0.80273806   -4.8007012    1502.2592  0.044854271  0.044416606            4 
 2792000   0.81087402   -4.7857525    1504.5433  0.044906377  0.044406827            4 
 2793000   0.80300875   -4.7952322    1499.3299  0.044734752  0.044396986            3 
 2794000   0.80257201   -4.7880605    1503.9228  0.044855727  0.044387045            3 
 2795000   0.79237103     -4.78895    1503.4446  0.044825419  0.044377082            3 
 2796000   0.79645233   -4.8022946    1504.6946  0.044846645  0.044367203            4 
 2797000   0.79536453   -4.8026943    1502.8673  0.044776168  0.044357236            8 
 2798000   0.80246298   -4.8233182    1507.4933  0.044897941  0.044347212            3 
 2799000   0.81454827   -4.8082075    1501.3103  0.044697819  0.044337172            3 
 2800000   0.79875189   -4.8054412    1501.8402  0.044697624  0.044327287            4 
 2801000   0.80354985   -4.8070653     1502.655  0.044705907  0.044317251           11 
 2802000   0.80891495   -4.8085159    1503.5391  0.044716248  0.044307275            7 
 2803000   0.80746027    -4.821192    1504.8416  0.044739017  0.044297403            4 
 2804000   0.79861548   -4.8439976    1505.1547  0.044732368  0.044287434            4 
 2805000   0.79428345   -4.8012547    1508.5358  0.044816869  0.044277477            4 
 2806000   0.81402886   -4.8261846    1501.0048  0.044577239    0.0442676            4 
 2807000   0.79758337   -4.8111228    1502.9432  0.044618905  0.044257665            3 
 2808000   0.81155099   -4.7812599    1505.6116  0.044682206  0.044247735            3 
 2809000   0.78914979   -4.8408927    1504.2593  0.044626179   0.04423772            9 
 2810000   0.81909746   -4.8304334     1504.924  0.044630011  0.044227713            3 
 2811000   0.80958958   -4.8108974    1508.8038  0.044729152  0.044217753            8 
 2812000   0.79902275   -4.8214353    1505.6162  0.044618782  0.044207786            8 
 2813000   0.81192154   -4.7936392    1504.5472  0.044571252   0.04419784            6 
 2814000   0.80291244   -4.8138153    1500.6552  0.044440156  0.044187924            7 
 2815000   0.79690807   -4.8158144     1506.851  0.044607786  0.044178024            5 
 2816000   0.81679711   -4.8211428    1507.9448  0.044624315  0.044168107            5 
 2817000    0.8115608   -4.8039451    1505.8418   0.04454626  0.044158211            5 
 2818000   0.79194965   -4.8179112    1509.0023  0.044623915  0.044148397            4 
 2819000   0.79700202   -4.8146294    1509.3568  0.044618563   0.04413852           10 
 2820000   0.80744909   -4.8293767    1508.4038  0.044574581  0.044128595            6 
 2821000    0.7986581   -4.7854951     1509.328  0.044586079  0.044118851           11 
 2822000   0.80193254   -4.8238863    1507.3906  0.044513069  0.044109005            6 
 2823000   0.81200379   -4.8288108    1505.3108  0.044435908  0.044099189            3 
 2824000   0.80132767   -4.8183961    1512.2612  0.044625271  0.044089493            2 
 2825000   0.80943893   -4.7955305    1513.1821  0.044636641  0.044079721            4 
 2826000   0.78907413   -4.7988582    1509.0601  0.044499296   0.04406993            9 
 2827000   0.78896974   -4.7993532    1515.1319  0.044662536  0.044060246            7 
 2828000   0.79572549    -4.839479    1511.2499  0.044532351   0.04405047            4 
 2829000   0.79798214   -4.8302235    1509.0889  0.044452953  0.044040671            4 
 2830000   0.79840115   -4.8278011    1515.5701  0.044628094  0.044030966            6 
 2831000    0.7982288   -4.8249961    1513.6511  0.044555844  0.044021207            6 
 2832000   0.78784205   -4.8109285    1512.9165  0.044518493  0.044011487            5 
 2833000   0.79614294   -4.8424583    1510.6658  0.044436575  0.044001661            9 
 2834000   0.79760501   -4.8128672    1521.0487  0.044726201  0.043991967            4 
 2835000   0.79761255   -4.8107077    1514.7419  0.044525042  0.043982251           18 
 2836000   0.79561483   -4.8263962     1512.293  0.044437384  0.043972427            6 
 2837000   0.78110549   -4.8283861    1513.3756   0.04445352  0.043962606            8 
 2838000   0.80438226   -4.8268266    1519.3393  0.044612971  0.043952864            6 
 2839000   0.79462618   -4.8263691    1512.1271  0.044385556  0.043943226            5 
 2840000   0.79304781   -4.8243746    1518.6284  0.044560693  0.043933507            3 
 2841000   0.80229595   -4.8374137    1512.1479  0.044354918  0.043923776            5 
 2842000   0.80702109   -4.8396901    1516.7933  0.044475524  0.043913929            7 
 2843000    0.8066492   -4.8168091    1513.4522  0.044361948  0.043904214           18 
 2844000   0.80929168   -4.8093786    1512.2579  0.044311353  0.043894527            7 
 2845000   0.79910561   -4.8044984     1518.943  0.044491593  0.043884764           10 
 2846000   0.80233199   -4.8242329    1518.7088  0.044469104  0.043874988            6 
 2847000   0.78820776    -4.826465    1512.0788  0.044259418  0.043865195            5 
 2848000   0.80145768   -4.8047641     1516.958  0.044386646  0.043855463            6 
 2849000   0.80034983   -4.8190425    1523.1887  0.044553315  0.043845712            4 
 2850000   0.80500404   -4.8543908    1513.6704  0.044259367  0.043835898            5 
 2851000   0.78634598   -4.8379583    1522.9705  0.044515681  0.043826144            6 
 2852000   0.79596807    -4.806276    1518.2169  0.044361176  0.043816524            5 
 2853000   0.79421985   -4.7874141    1524.5599  0.044530899  0.043806884            4 
 2854000   0.79119805   -4.8459455    1514.2605  0.044214566  0.043797136            8 
 2855000   0.77338365   -4.8324901    1519.3764  0.044348407   0.04378744            3 
 2856000   0.80430662   -4.8403334    1517.7591  0.044285689  0.043777692            4 
 2857000   0.78661324   -4.8424201    1521.6467  0.044383582  0.043767945            6 
 2858000   0.78195129   -4.8733233    1512.2418  0.044093823  0.043758152           16 
 2859000   0.79717772   -4.8551624    1514.9822  0.044158279  0.043748257            4 
 2860000    0.7991751   -4.8381255     1516.132   0.04417634  0.043738417            4 
 2861000   0.79435855   -4.8333813    1517.0912  0.044188837  0.043728549            4 
 2862000   0.81693331   -4.8248552    1517.5804  0.044187644  0.043718802            8 
 2863000   0.79237179   -4.8312558    1516.1504  0.044130586  0.043708957            4 
 2864000   0.78969753   -4.8416977    1514.8699  0.044077918  0.043699162            6 
 2865000   0.78702311   -4.8491197    1516.2443   0.04410251  0.043689345            5 
 2866000   0.79154421   -4.8123257    1520.7342  0.044217674  0.043679524            4 
 2867000   0.80484056   -4.8492219    1518.3482  0.044132898  0.043669778           15 
 2868000   0.80741906   -4.8166626    1516.9694  0.044077446  0.043659975            4 
 2869000    0.7947795   -4.8046365    1522.5764  0.044224944   0.04365014            3 
 2870000   0.79590182   -4.8356735    1518.3689  0.044087366  0.043640348            6 
 2871000   0.78180382   -4.7887506    1520.7712   0.04414174  0.043630543            5 
 2872000   0.77933052   -4.8321448    1518.2543  0.044053338  0.043620659            5 
 2873000   0.80170488   -4.8394588    1517.8403  0.044025997   0.04361074           14 
 2874000   0.79447741   -4.8256277    1521.7734   0.04412472  0.043600862           12 
 2875000    0.7983669   -4.8125583    1523.6575  0.044163987  0.043591088            3 
 2876000   0.79157247    -4.822607     1518.081  0.043987048  0.043581178            7 
 2877000   0.80382379   -4.8249086     1519.123   0.04400194  0.043571305            4 
 2878000   0.80045569   -4.8225916    1520.9561  0.044039729  0.043561419            3 
 2879000   0.78926773   -4.8306286    1523.3489  0.044093693   0.04355157            4 
 2880000     0.790239   -4.8453957    1518.5702  0.043940111  0.043541685            5 
 2881000   0.80796936   -4.8165574    1524.1743  0.044086958   0.04353176            3 
 2882000   0.78475385   -4.8266287    1519.0583  0.043923729  0.043521927            5 
 2883000   0.78237125   -4.8463138    1522.3999  0.044005085  0.043511989            6 
 2884000   0.77178928   -4.8156248    1526.9082  0.044120093  0.043502037            4 
 2885000   0.80728011   -4.8367722     1523.406   0.04400364  0.043492178            4 
 2886000   0.81457806   -4.8445859    1523.8047  0.043999904  0.043482279            9 
 2887000   0.79090514   -4.8419609     1520.184  0.043880152    0.0434724            4 
 2888000   0.78100442   -4.8465011    1523.2727  0.043954082  0.043462457            7 
 2889000   0.79595603   -4.8225242     1523.399  0.043942511  0.043452634            5 
 2890000   0.79169422   -4.8236771    1524.2308  0.043951292  0.043442814            2 
 2891000   0.79633179   -4.8481107    1524.9347  0.043956378  0.043432908            7 
 2892000   0.80829932    -4.836778    1523.5423  0.043901058  0.043423108            8 
 2893000   0.77882253   -4.7987975    1522.3697  0.043852105  0.043413259            6 
 2894000   0.78134563   -4.8352675     1523.677  0.043874596  0.043403447           12 
 2895000   0.79584613    -4.835255     1523.436  0.043852505  0.043393565            4 
 2896000   0.81354344   -4.8040506    1525.9969  0.043911053  0.043383719            7 
 2897000   0.78665184   -4.8391487    1520.2944  0.043731861  0.043373928            4 
 2898000   0.79758862   -4.8088338    1525.3188  0.043861248  0.043364129            6 
 2899000   0.80281754   -4.8508441    1521.2704  0.043729745  0.043354283            5 
 2900000   0.78100016   -4.8337845    1524.5128  0.043807839   0.04334441            5 
 2901000   0.77937313   -4.8612718    1526.2891  0.043843762  0.043334635            4 
 2902000   0.80729822   -4.8673424    1522.1052  0.043708511   0.04332476            4 
 2903000   0.78119595   -4.8284894    1523.8113  0.043742431  0.043314891            3 
 2904000   0.78951493   -4.8493075    1527.5213   0.04383383  0.043304986            4 
 2905000    0.7768326   -4.8185627     1528.521  0.043847417  0.043295247            7 
 2906000   0.78472182   -4.8214996    1525.5601  0.043747423   0.04328543            7 
 2907000   0.79777594   -4.8488124    1524.6479  0.043706224  0.043275553            5 
 2908000   0.77681394   -4.8425488     1529.141   0.04381995  0.043265671            3 
 2909000   0.79161884   -4.8526799    1524.1609  0.043662225  0.043255806            6 
 2910000   0.78509995    -4.840738    1526.7034  0.043720029  0.043245904            5 
 2911000   0.78297796   -4.8502507    1525.5776  0.043672782  0.043236011            4 
 2912000   0.79820903   -4.8490794    1524.1369  0.043616556  0.043226144            5 
 2913000   0.78249144   -4.8234659    1525.5032  0.043640668   0.04321629            6 
 2914000   0.76951323   -4.8526302    1523.8196  0.043577544   0.04320633            5 
 2915000   0.80565295   -4.8492538    1523.7775  0.043561392  0.043196301            7 
 2916000   0.76550853   -4.8652198    1521.2266  0.043473553  0.043186304            4 
 2917000   0.78557529   -4.8573856    1522.7112  0.043501062  0.043176208            4 
 2918000   0.80676195   -4.8334967    1523.7403  0.043515543  0.043166265            5 
 2919000   0.80313913   -4.8281683    1522.7581  0.043472597  0.043156277            4 
 2920000   0.80053896   -4.8489639    1528.4172  0.043619213  0.043146223            6 
 2921000   0.77773962   -4.8225202    1526.2408  0.043542189  0.043136204            8 
 2922000   0.78522811   -4.8319445    1525.8193  0.043515266  0.043126153            5 
 2923000   0.77706405   -4.9055846    1520.7928  0.043357076  0.043116036            6 
 2924000   0.79522754   -4.8428106    1527.3059  0.043527871  0.043105894            4 
 2925000   0.77048059   -4.8658593    1528.0289  0.043533586  0.043095805            8 
 2926000   0.79503711   -4.8248804    1524.5943  0.043420889  0.043085715            5 
 2927000   0.77471917   -4.8537272    1527.2488  0.043481632  0.043075655            3 
 2928000   0.78404443   -4.8379502    1522.7351  0.043338316   0.04306549            7 
 2929000   0.78635927   -4.8631073    1524.7148  0.043379846  0.043055467            4 
 2930000    0.7852126   -4.8476521     1526.857  0.043425966  0.043045365            4 
 2931000   0.78756376    -4.881306    1521.3412  0.043254327  0.043035196            5 
 2932000   0.78605245   -4.8421618    1527.1464  0.043404571  0.043025039            6 
 2933000   0.78207706   -4.8487649    1524.1057  0.043303377  0.043014961            4 
 2934000   0.78610252   -4.8322136    1526.3566   0.04335255  0.043004788            4 
 2935000   0.77592709     -4.84156    1527.3867  0.043367027   0.04299466            8 
 2936000   0.77931485   -4.8643198    1523.5373  0.043242998  0.042984449           10 
 2937000   0.77541094   -4.8496925    1526.0368  0.043299194  0.042974233            5 
 2938000     0.792367   -4.8346438    1524.8691  0.043251335  0.042964242            5 
 2939000   0.77149996   -4.8419505    1527.4383  0.043309467  0.042954074            8 
 2940000   0.77860703   -4.8763392    1523.4041  0.043180389  0.042943917           15 
 2941000   0.77220907    -4.837334     1527.443  0.043280147  0.042933743           10 
 2942000   0.76983452   -4.8494285    1527.7355  0.043273721  0.042923523            6 
 2943000   0.80920323   -4.8538542     1527.208  0.043244083  0.042913327            5 
 2944000   0.78334654   -4.8668691     1522.828  0.043105412  0.042903106            3 
 2945000   0.78072505   -4.8538341    1528.0752  0.043239252  0.042892952            4 
 2946000   0.78684464   -4.8595676    1523.6273  0.043098758  0.042882811            3 
 2947000   0.79755463    -4.865623    1523.0828  0.043068737  0.042872579           10 
 2948000   0.79993122   -4.8566662    1521.8922   0.04302047  0.042862283            7 
 2949000   0.77982517   -4.8498861    1532.7268   0.04331205  0.042851985           17 
 2950000   0.77140113   -4.8456396    1523.9561  0.043049608  0.042841812            3 
 2951000   0.77865292    -4.848487    1524.0233  0.043036918   0.04283153           10 
 2952000   0.76983844    -4.826179    1526.3186  0.043087134   0.04282127            7 
 2953000   0.77562633   -4.8401558    1527.1986  0.043097374  0.042811017           14 
 2954000   0.78182794   -4.8609526    1527.3046  0.043085776  0.042800794            8 
 2955000   0.77182278   -4.8634567    1529.6351  0.043136917  0.042790653            2 
 2956000   0.78106376   -4.8598925    1527.8163  0.043071049  0.042780524            7 
 2957000   0.79423838   -4.8404751    1530.3114  0.043126802  0.042770338            4 
 2958000   0.78317323   -4.8255019    1529.6416  0.043093351  0.042760242            4 
 2959000    0.7505801   -4.8523763    1529.7415  0.043081603  0.042750074            7 
 2960000   0.78396484    -4.865196    1525.5811  0.042949919  0.042739905           10 
 2961000    0.7766321   -4.8659302    1530.1445  0.043063843  0.042729723            5 
 2962000   0.79874437   -4.8543378    1529.5399  0.043032296  0.042719552            9 
 2963000   0.79787716   -4.8432465    1529.1685  0.043007327  0.042709372            6 
 2964000   0.77063994   -4.8460959    1532.4002  0.043083676  0.042699272            6 
 2965000   0.77928345   -4.8302273    1529.6161  0.042990897   0.04268927           11 
 2966000   0.77732953   -4.8579775     1530.568  0.043003148  0.042679162            5 
 2967000   0.78915015   -4.8732749    1531.3715  0.043011221  0.042669074           11 
 2968000   0.77398333   -4.8728225    1527.5566  0.042889617  0.042658849            4 
 2969000   0.77044585   -4.8723077    1530.1546  0.042948092  0.042648753            3 
 2970000   0.78479741   -4.8670036    1527.8174  0.042868053  0.042638561            4 
 2971000   0.77433716   -4.8413965    1532.6687  0.042989697  0.042628402            5 
 2972000   0.77775375   -4.8576662     1533.002  0.042984578  0.042618303            4 
 2973000   0.77391888   -4.8775508    1530.5659  0.042901836  0.042608152            9 
 2974000   0.76957498   -4.8710794    1527.0798  0.042789727  0.042598034           12 
 2975000    0.7794808    -4.855818    1528.5376  0.042816179  0.042587898            7 
 2976000   0.77973972   -4.8722016    1533.9583  0.042953581  0.042577735            5 
 2977000   0.77828802   -4.8568517    1532.1126  0.042887488  0.042567651            4 
 2978000   0.78554561   -4.8595515    1537.7295  0.043030264  0.042557608            7 
 2979000   0.77623263   -4.8688913     1533.032  0.042884413  0.042547533           10 
 2980000    0.7902757    -4.867574    1530.7459  0.042806094  0.042537375            8 
 2981000   0.79792912   -4.8609024    1535.3133  0.042919414  0.042527281            6 
 2982000   0.78436179   -4.8532821    1534.3112  0.042877017  0.042517262           14 
 2983000   0.77555263   -4.8604901    1536.4371  0.042922034  0.042507185            8 
 2984000   0.77238054   -4.8556954    1534.1195  0.042842926  0.042497084            9 
 2985000   0.77066117   -4.8420017    1530.5042  0.042727643  0.042486957            4 
 2986000   0.77393232   -4.8766635    1532.0115  0.042755399  0.042476744            4 
 2987000   0.77309331   -4.8905595    1533.0804  0.042770908   0.04246653            6 
 2988000   0.76600766   -4.8653418    1530.5184   0.04268514  0.042456324            4 
 2989000   0.77250165   -4.8705738    1528.9335  0.042626674  0.042446205            4 
 2990000   0.79492692   -4.8815629    1531.3407  0.042679506  0.042435941            9 
 2991000   0.77329093   -4.8604617    1534.8822  0.042763908  0.042425756            7 
 2992000   0.76470874   -4.8580403    1534.0792  0.042727251  0.042415566           10 
 2993000   0.78680409   -4.8814413    1534.1738  0.042715609  0.042405331            3 
 2994000   0.77094999   -4.8698448    1537.5291  0.042794731   0.04239516            5 
 2995000   0.76546326   -4.8649502    1536.1818  0.042742954  0.042384971            6 
 2996000   0.77608459   -4.8751001    1531.5434  0.042599671   0.04237477            7 
 2997000    0.7696537   -4.8544919    1533.3084  0.042634535  0.042364655            9 
 2998000   0.76832956   -4.8772584    1535.3259  0.042676393  0.042354472            7 
 2999000   0.76577543   -4.8668783    1531.1523  0.042546191  0.042344154            6 
 3000000   0.77103034   -4.8923047    1534.0351  0.042612087  0.042333912            5 
 3001000   0.79130707   -4.8773578    1533.0021  0.042569202  0.042323668           13 
 3002000   0.79494326   -4.9013014    1531.7719  0.042520873  0.042313402            6 
 3003000   0.76319037   -4.8765262    1532.4956  0.042526796  0.042303146            3 
 3004000   0.76533668   -4.8696394    1541.3367  0.042757898  0.042292906            3 
 3005000   0.75759579   -4.8608014    1538.0224  0.042651759   0.04228284            9 
 3006000   0.78014801   -4.8526372    1538.4855  0.042650409  0.042272673           12 
 3007000   0.77849976   -4.8565095    1536.8851  0.042591872  0.042262597            7 
 3008000   0.77235213   -4.8861461    1533.8089   0.04249249  0.042252486            3 
 3009000   0.76195282   -4.8604214    1537.8727  0.042590913   0.04224239            3 
 3010000   0.77153675   -4.8761037    1539.3046  0.042616406  0.042232282            8 
 3011000   0.76352861   -4.8897749    1530.1164  0.042347956  0.042222146            4 
 3012000   0.77862515   -4.8795079    1534.4529  0.042453876  0.042211953            5 
 3013000   0.78342387   -4.8566963    1542.5388  0.042663426  0.042201802            6 
 3014000   0.76732602   -4.8748149    1539.1321  0.042555079  0.042191714            4 
 3015000   0.77432245   -4.8642253    1537.5934  0.042498436  0.042181715            6 
 3016000     0.776594   -4.8834216    1541.1204  0.042581797  0.042171666            3 
 3017000   0.78093218   -4.8846772    1535.3386  0.042407983  0.042161522            8 
 3018000   0.78521584   -4.8874838    1534.1038  0.042359835  0.042151375            3 
 3019000   0.76060285   -4.8546984    1538.9992  0.042480932  0.042141292            5 
 3020000   0.76311771   -4.8971628    1539.3582   0.04247677  0.042131144            9 
 3021000   0.76437572   -4.8827677    1540.5123  0.042494547   0.04212102            7 
 3022000   0.77182209   -4.8907199    1535.6325  0.042345922  0.042110997            5 
 3023000   0.76431573    -4.875988    1542.9852  0.042534602  0.042100947            8 
 3024000   0.77255368   -4.8920153    1536.6289  0.042345374  0.042090966            8 
 3025000   0.76787283   -4.8924757    1545.0189  0.042562505    0.0420809            6 
 3026000   0.75622375   -4.8944537     1543.458  0.042505453  0.042070958            4 
 3027000   0.76175474   -4.8886711    1542.4804  0.042464498  0.042060861            5 
 3028000   0.75784153   -4.8967806    1535.9582  0.042270977  0.042050764            8 
 3029000   0.76040826   -4.8787407    1541.5414  0.042410626  0.042040701            4 
 3030000   0.78470689   -4.8824506    1540.4493  0.042366592  0.042030658            7 
 3031000   0.77932836    -4.857783    1535.8561   0.04222633   0.04202062            9 
 3032000   0.76208161    -4.904407    1541.3992  0.042364753  0.042010553            4 
 3033000   0.78214712   -4.8746744     1544.336  0.042431476  0.042000545           15 
 3034000   0.75416037   -4.8868474    1543.8855  0.042405118  0.041990624            5 
 3035000   0.77450112   -4.8780294    1539.8198  0.042279511  0.041980746            5 
 3036000   0.74695992   -4.9143527    1539.7923  0.042264831  0.041970761            9 
 3037000   0.77162619   -4.8849514    1542.8554  0.042334962  0.041960786            8 
 3038000   0.76681786   -4.8851125    1547.2503  0.042441582  0.041950902            6 
 3039000    0.7753255   -4.9131417    1537.6313  0.042163851  0.041940968           18 
 3040000   0.76030191   -4.8811664    1545.2684   0.04235933  0.041930982            6 
 3041000    0.7683804   -4.8711795      1540.18  0.042205962  0.041921063            6 
 3042000   0.76896285   -4.8888552     1546.861  0.042375109  0.041911134            5 
 3043000   0.77033191   -4.8826427    1545.0199  0.042310766  0.041901209            7 
 3044000   0.76668481   -4.9015133    1543.0135  0.042241938  0.041891306           10 
 3045000   0.76475569   -4.8733854    1541.6094  0.042189639  0.041881291            3 
 3046000   0.76199966   -4.8594437    1544.9876  0.042268209  0.041871323            5 
 3047000   0.77259029   -4.8941183    1544.8633  0.042250939  0.041861303            5 
 3048000   0.77089984    -4.913606    1542.6634  0.042176931  0.041851286            7 
 3049000   0.77014893   -4.8980007    1544.6501  0.042217395  0.041841284            8 
 3050000   0.76750615   -4.9146927    1542.1674  0.042135722  0.041831244           12 
 3051000   0.75249126    -4.888135    1544.7223  0.042191693  0.041821255           12 
 3052000   0.76080451   -4.8695538    1547.0933  0.042242609  0.041811408            3 
 3053000   0.76406573   -4.8811833    1547.2182  0.042232182   0.04180153            8 
 3054000   0.76514484   -4.9031506    1548.8781  0.042263646  0.041791634            4 
 3055000   0.75528568   -4.8635584    1546.9397  0.042196937  0.041781643            5 
 3056000   0.76159541   -4.8776956    1548.9392  0.042237651  0.041771783           10 
 3057000   0.76596944   -4.8982817    1547.6404   0.04218843  0.041761904           13 
 3058000   0.77978677   -4.8819816     1546.344  0.042139306  0.041752051            3 
 3059000   0.74802239   -4.8889802     1552.504  0.042293341  0.041742146            7 
 3060000   0.75969158   -4.8892494    1547.4382  0.042141562  0.041732297            6 
 3061000    0.7567396   -4.8682133    1546.4213  0.042100112  0.041722447            7 
 3062000   0.76545323   -4.9007609    1548.6873  0.042148031  0.041712574            3 
 3063000   0.75632782   -4.8804831    1548.2761  0.042123086  0.041702692            7 
 3064000   0.76890389   -4.9078855    1541.2715  0.041918829  0.041692808            8 
 3065000   0.76810363   -4.8985807    1549.3859  0.042125771  0.041682826            4 
 3066000   0.74775494   -4.9202256    1548.1086  0.042077317  0.041672961            9 
 3067000   0.74624026   -4.9028146    1552.7607  0.042189999  0.041663081            6 
 3068000   0.76658315   -4.8934995    1552.2579   0.04216259  0.041653212           11 
 3069000   0.75657084   -4.9194392    1542.3622  0.041880152  0.041643231            5 
 3070000   0.77547739   -4.9297747    1544.6057  0.041927407  0.041633194            5 
 3071000   0.76378953   -4.9104941    1547.6157  0.041995432  0.041623327            3 
 3072000   0.74889108   -4.8928472    1547.4413  0.041977033   0.04161346            4 
 3073000   0.76421006    -4.894148    1549.8099  0.042027603  0.041603613            4 
 3074000   0.76074718   -4.8845477    1557.0837  0.042211118  0.041593747            5 
 3075000   0.76640924    -4.902187    1549.3429  0.041987613  0.041583809            7 
 3076000    0.7688879   -4.8755726    1550.5752  0.042007347   0.04157388           14 
 3077000   0.76087622    -4.887739    1552.6286  0.042049305  0.041563951            8 
 3078000   0.76686685   -4.8900963    1555.1036  0.042102653  0.041554108            5 
 3079000   0.75467026   -4.8970764    1552.6715  0.042023155  0.041544332            4 
 3080000   0.76237251   -4.8806723    1550.6492  0.041954793  0.041534431            5 
 3081000   0.74468437   -4.8664286    1552.8553  0.042000846  0.041524543           10 
 3082000   0.75291166   -4.9170865    1550.3865  0.041920466  0.041514624            4 
 3083000    0.7458386   -4.8959408    1550.2556   0.04190333  0.041504724            4 
 3084000   0.75465294   -4.8987552    1552.0333  0.041937779  0.041494891            8 
 3085000   0.74146647   -4.9256107    1551.5887  0.041912176  0.041485014            7 
 3086000   0.75418621   -4.9077589    1553.5249  0.041950877  0.041475114            5 
 3087000   0.75223483   -4.9135266    1552.8744  0.041919728  0.041465272            7 
 3088000   0.75183765    -4.903476     1551.405    0.0418665  0.041455411            3 
 3089000    0.7739998   -4.8831998    1556.9042  0.042001302  0.041445611            9 
 3090000   0.74530428   -4.9122077    1552.8396  0.041878091  0.041435752            4 
 3091000   0.75311867   -4.8920837    1558.2411  0.042010166  0.041425831            5 
 3092000   0.73936204   -4.8944447    1551.3949  0.041812066  0.041415943            7 
 3093000   0.76702454   -4.8862243    1554.0862  0.041871058  0.041406073            4 
 3094000   0.76358531   -4.8944272     1559.459  0.042002236  0.041396322           10 
 3095000   0.75297244   -4.9016634    1554.4024  0.041852515  0.041386513            2 
 3096000   0.76134665   -4.9113765    1553.7298  0.041820894  0.041376654            6 
 3097000   0.76099131   -4.9006459    1550.7508   0.04172723  0.041366759           10 
 3098000    0.7659792   -4.9091716    1549.9958  0.041693452  0.041356885            6 
 3099000   0.73383894   -4.8789187    1554.0131  0.041788026  0.041347072            4 
 3100000    0.7721472   -4.8823971     1555.809  0.041822823  0.041337287            9 
 3101000   0.75248304   -4.9367863    1549.6245  0.041643141  0.041327476            6 
 3102000   0.75832777   -4.9336436    1548.7769  0.041606946  0.041317661            9 
 3103000   0.76173707   -4.8823005    1554.9445  0.041759171  0.041307832            4 
 3104000    0.7461448    -4.886626    1554.7456  0.041740377  0.041297954            6 
 3105000   0.76978578   -4.8920321    1559.3168  0.041849619  0.041288135            4 
 3106000   0.75635884   -4.9296879    1551.5847  0.041628693  0.041278291           10 
 3107000   0.74013218   -4.9008157    1555.9147  0.041731433  0.041268513            6 
 3108000   0.75268743   -4.8950422    1557.3472  0.041756414  0.041258619            8 
 3109000   0.74870984   -4.8937131    1554.6798  0.041671485  0.041248755            8 
 3110000   0.75799495   -4.9099732    1554.0399  0.041640941  0.041238823            8 
 3111000   0.76750002   -4.9200262    1551.0113  0.041546429  0.041228933            6 
 3112000   0.75853629   -4.9073004    1559.3079  0.041755245   0.04121908            8 
 3113000    0.7691224   -4.8827043    1559.5095  0.041747229  0.041209204           14 
 3114000   0.74601763   -4.9153606    1554.8183  0.041608283  0.041199281            7 
 3115000   0.75685065    -4.931791    1552.9496  0.041544934  0.041189286            9 
 3116000   0.75574438   -4.9109421    1552.4812  0.041519073  0.041179403            4 
 3117000   0.75132073   -4.9124585    1554.1622  0.041550696  0.041169481            5 
 3118000    0.7565548   -4.9088203    1556.2236  0.041592464  0.041159633           11 
 3119000   0.76633707   -4.8997019    1554.6112  0.041536048  0.041149756            2 
 3120000   0.76398328   -4.8933101    1558.6476  0.041630545  0.041139871           14 
 3121000   0.76401126   -4.9060213    1555.3629  0.041529501  0.041130027            7 
 3122000   0.74980476   -4.9137753    1557.9463  0.041585155  0.041120128            6 
 3123000   0.75651198   -4.8991731    1558.6362   0.04159025   0.04111026            5 
 3124000   0.75386982   -4.9067003    1562.4981  0.041679954  0.041100447            3 
 3125000   0.74853831   -4.9002883    1556.9963  0.041519901  0.041090675            9 
 3126000   0.75628028   -4.9218093    1557.6863  0.041525013   0.04108082            7 
 3127000   0.75744098   -4.9428887    1553.4654  0.041399249  0.041071038            8 
 3128000   0.76080197   -4.9013831    1561.8379  0.041609066   0.04106122            8 
 3129000   0.75172052   -4.9739928     1554.539  0.041401381  0.041051369            8 
 3130000   0.75097983   -4.9103858    1556.1825  0.041431909  0.041041539            6 
 3131000   0.75181328   -4.9107801    1561.5591  0.041561777   0.04103183            5 
 3132000   0.74164491   -4.9079874    1559.7369  0.041500023  0.041022064           11 
 3133000   0.73612469   -4.9206175    1561.1029  0.041523111  0.041012293            2 
 3134000   0.75468045   -4.9021725    1557.6289  0.041417488  0.041002554            6 
 3135000   0.73998382   -4.9142662     1557.022  0.041388144  0.040992759            5 
 3136000   0.72769785   -4.9397154    1552.7861  0.041262386  0.040982932           10 
 3137000   0.75591629   -4.9080339    1559.8611  0.041437177  0.040973153            4 
 3138000   0.75532757   -4.9396761    1560.8103   0.04144918   0.04096339            6 
 3139000   0.76891583   -4.9197914    1560.5977   0.04143033  0.040953611            5 
 3140000   0.74149916   -4.9103655    1561.9797  0.041453815  0.040943823            4 
 3141000   0.75888085   -4.9074627     1566.701  0.041565875  0.040934042            5 
 3142000   0.74075527    -4.914868    1564.4662  0.041493376  0.040924329           12 
 3143000   0.75006432   -4.9145818    1559.4925  0.041348301  0.040914605           12 
 3144000   0.73798476   -4.9178471    1564.1459  0.041458489  0.040904848           12 
 3145000   0.73686374   -4.9233137    1563.3451  0.041424088    0.0408951            7 
 3146000   0.73754811   -4.9569531    1560.3732    0.0413322  0.040885222            8 
 3147000    0.7418152    -4.897921     1565.112  0.041444551  0.040875396            4 
 3148000   0.74743521   -4.9197354    1562.3225  0.041357543  0.040865567            4 
 3149000   0.74794456   -4.9306987    1561.0174  0.041309872  0.040855734            4 
 3150000   0.74100897   -4.9241838    1557.1178  0.041193592  0.040845936            6 
 3151000   0.75855457   -4.9059821    1568.1478  0.041472226  0.040836174            4 
 3152000   0.74965074   -4.8730852    1567.8647  0.041451584   0.04082648            6 
 3153000    0.7560896   -4.9428753    1560.8527   0.04125311  0.040816739            7 
 3154000   0.74301624   -4.9201407    1560.8969  0.041241198  0.040806996            5 
 3155000   0.74805728   -4.9361052    1564.5301  0.041324093  0.040797204            4 
 3156000   0.74475427   -4.9154547    1564.4308  0.041308376  0.040787384            8 
 3157000   0.75205179   -4.9178177     1562.232  0.041237252  0.040777552            4 
 3158000   0.75296349   -4.9326065    1561.4777  0.041204289  0.040767707            6 
 3159000   0.75891294   -4.9409051    1558.0825   0.04110168  0.040757867            9 
 3160000   0.75864595   -4.9298533    1561.7643  0.041185767  0.040747967            6 
 3161000   0.74841556   -4.9510386    1562.1885  0.041183922  0.040738076            5 
 3162000    0.7306316   -4.9053581    1561.4754  0.041152103  0.040728227            4 
 3163000   0.74540725   -4.9248229    1564.1956  0.041210759  0.040718388            6 
 3164000   0.74630737   -4.9135971    1563.5167  0.041179854  0.040708513            4 
 3165000   0.71915344    -4.932567    1563.9439  0.041178092  0.040698647            5 
 3166000   0.73938196   -4.9493282    1560.0974  0.041063839  0.040688794            5 
 3167000   0.74368347   -4.9019043    1565.7206  0.041198837  0.040678929            5 
 3168000   0.75610732   -4.8959735     1562.707   0.04110656  0.040669053            4 
 3169000   0.73353605   -4.9064758     1565.178  0.041158566  0.040659156            6 
 3170000   0.74131852   -4.9290077    1562.0509  0.041063378  0.040649225            8 
 3171000    0.7494774   -4.9395756    1561.7843  0.041043423  0.040639186           12 
 3172000   0.74129458   -4.9262567    1558.4779  0.040943619    0.0406293           10 
 3173000   0.73098675    -4.956616    1562.1249  0.041026497  0.040619406           13 
 3174000    0.7386918    -4.931362    1563.3916  0.041046829  0.040609499            6 
 3175000   0.72933149   -4.9550596    1566.3623  0.041111871  0.040599671           11 
 3176000   0.74322622   -4.9169333    1564.6146   0.04105307  0.040589777           14 
 3177000   0.77091847   -4.9258934    1561.1363  0.040948912  0.040579916            5 
 3178000   0.72729547   -4.9150761    1565.4064  0.041047996  0.040570033            4 
 3179000   0.74693431   -4.9433091    1569.3658  0.041138875  0.040560198            6 
 3180000   0.75486172   -4.9163186    1567.8678  0.041086682  0.040550342            4 
 3181000   0.74107217   -4.9347377    1561.5526  0.040908324  0.040540446            5 
 3182000   0.72420073   -4.9258334    1563.4609  0.040945446  0.040530568            6 
 3183000    0.7298505   -4.9219991    1564.7993  0.040967622  0.040520653            9 
 3184000   0.73395931   -4.9089134    1564.9668  0.040959139  0.040510765            3 
 3185000   0.74915759   -4.9472714    1564.5331  0.040934931  0.040500942            6 
 3186000   0.75223301   -4.9421237    1565.1537  0.040938317  0.040491046            7 
 3187000   0.73588953   -4.8972772     1565.986  0.040947233  0.040481217            8 
 3188000    0.7395212   -4.9340595    1567.2609  0.040967715  0.040471399            5 
 3189000   0.73501242   -4.9044732     1571.533  0.041066504  0.040461552            8 
 3190000   0.76426294   -4.9125393    1567.5028  0.040948349  0.040451701            5 
 3191000   0.73731431   -4.9347141     1566.632  0.040912775  0.040441871            6 
 3192000   0.73164656   -4.9275558    1562.3373  0.040787838  0.040432013            5 
 3193000   0.75032382   -4.9373101    1565.2818  0.040851911  0.040422205            6 
 3194000   0.74107683   -4.9548394    1558.4071  0.040659755  0.040412356           15 
 3195000   0.74673492    -4.928701    1567.2757  0.040878345  0.040402475            6 
 3196000   0.75098494   -4.9568592    1564.1803  0.040784842  0.040392645            5 
 3197000   0.76211028   -4.9333686    1567.1255  0.040848857  0.040382855            6 
 3198000    0.7634638   -4.9168411    1564.5801  0.040769754  0.040373048            9 
 3199000   0.73863487   -4.9367588    1563.0145  0.040716227  0.040363176           10 
 3200000   0.73820919   -4.9301672    1569.1394  0.040863005  0.040353384           10 
 3201000   0.73357974   -4.9382588    1563.0538   0.04069181  0.040343413            5 
 3202000   0.73073955   -4.9401431    1561.2601   0.04063242  0.040333445            7 
 3203000   0.74774115   -4.9199323      1568.72  0.040813819  0.040323627            4 
 3204000   0.74106269   -4.9369199    1561.4861  0.040612936  0.040313744           10 
 3205000   0.73087166   -4.9465035    1566.2302  0.040723613  0.040303795            5 
 3206000   0.74936129   -4.9304884    1567.1089  0.040733753  0.040293864           17 
 3207000   0.73954194   -4.9200129    1563.9254  0.040638327  0.040283973            5 
 3208000    0.7355353   -4.9224868    1568.3852   0.04074151   0.04027418           11 
 3209000   0.74548025   -4.9479225    1568.0388   0.04071982  0.040264327            7 
 3210000   0.75111478   -4.9411982    1563.1196  0.040579428  0.040254436            5 
 3211000     0.724921   -4.9323994    1571.1322  0.040774737  0.040244513           10 
 3212000   0.73702613   -4.9418318    1568.2995   0.04068855  0.040234695           11 
 3213000   0.72055926   -4.9420641    1569.5226   0.04070761  0.040224911           12 
 3214000   0.74450723   -4.9590812     1567.049  0.040630807  0.040215049            7 
 3215000   0.73119362   -4.9412859    1566.9808  0.040616403  0.040205183            6 
 3216000   0.73267458   -4.9314181    1565.8074  0.040573368  0.040195222            8 
 3217000   0.73123963   -4.9220755    1568.8396  0.040639302    0.0401853           19 
 3218000   0.73541558   -4.9272104     1567.646  0.040595763  0.040175339            7 
 3219000   0.72579251   -4.9686853    1567.0174  0.040566878  0.040165449            3 
 3220000   0.75012318   -4.9462174    1567.3527  0.040562959  0.040155489            8 
 3221000   0.73677633   -4.9278241    1570.3354  0.040627534  0.040145575            7 
 3222000   0.73772227   -4.9887321    1567.1229  0.040531836  0.040135668            7 
 3223000   0.74491928   -4.9811317     1565.277  0.040471532  0.040125763           17 
 3224000    0.7403541   -4.9400268    1565.9353  0.040475996  0.040115906            5 
 3225000   0.74204215   -4.9320057    1572.4524  0.040631845  0.040106041            9 
 3226000    0.7482194   -4.9359892    1566.3436  0.040461449  0.040096228            7 
 3227000   0.71797128   -4.9523503    1570.7815  0.040563514  0.040086351            5 
 3228000   0.73309223   -4.9254716    1568.6171  0.040495071  0.040076472           14 
 3229000   0.73103127   -4.9668212     1565.158  0.040393259  0.040066564            8 
 3230000   0.73260746   -4.9586188    1564.7349  0.040369838   0.04005657            6 
 3231000   0.73254435   -4.9403231    1567.8058  0.040436546   0.04004668            7 
 3232000   0.70079203   -4.9375309    1569.2268  0.040460675  0.040036797           13 
 3233000   0.71641907   -4.9644044    1566.5638  0.040379518  0.040026967            2 
 3234000   0.72901416   -4.9575871    1569.9399  0.040454027   0.04001714            5 
 3235000   0.72949589   -4.9780995     1566.164  0.040344256  0.040007261            9 
 3236000   0.74182947   -4.9396829    1576.4124  0.040595705  0.039997461            5 
 3237000   0.73580022   -4.9475287     1568.596  0.040381937  0.039987595           25 
 3238000   0.72281128   -4.9598126    1568.5008  0.040367018  0.039977628           16 
 3239000   0.73182431    -4.964623    1570.5552  0.040407411  0.039967743            6 
 3240000   0.74579438   -4.9413857     1566.703  0.040295858  0.039957959            9 
 3241000   0.74120592   -4.9434509    1576.3266  0.040530871  0.039948201            4 
 3242000   0.73163151    -4.960179    1570.6461  0.040372354  0.039938377            5 
 3243000   0.74601575   -4.9622802    1571.8105  0.040389828  0.039928521           18 
 3244000   0.72281267   -4.9516067    1569.1477  0.040308972   0.03991876            6 
 3245000   0.72815623   -4.9651494     1566.878  0.040238265  0.039908899            8 
 3246000   0.74847448   -4.9590037    1571.7659  0.040351352  0.039899016            9 
 3247000   0.72747015   -4.9545382    1574.2431  0.040402503  0.039889179           12 
 3248000   0.71839047   -4.9484687    1568.8637  0.040252045  0.039879373            7 
 3249000   0.73980446   -4.9768249    1573.9981  0.040371348  0.039869497            8 
 3250000   0.74165857   -4.9499749    1571.2468  0.040288379  0.039859595            9 
 3251000   0.73710169   -4.9469825    1577.3247  0.040431781   0.03984979            4 
 3252000   0.72408819   -4.9429938    1575.3732  0.040369342  0.039840004            5 
 3253000   0.74354165   -4.9567463    1574.3921  0.040331798  0.039830319           11 
 3254000   0.73347704   -4.9602425    1573.2302  0.040289647  0.039820611            7 
 3255000    0.7195993   -4.9708105    1574.5101  0.040310039  0.039810757            8 
 3256000   0.71552427    -4.958082    1573.1877  0.040263813  0.039800973           17 
 3257000   0.72092032   -4.9607034    1573.4925  0.040259249  0.039791168           11 
 3258000   0.74350541   -4.9886336    1570.5559  0.040171781  0.039781339            8 
 3259000   0.72320119    -4.941804    1577.0004   0.04032424  0.039771534            7 
 3260000   0.73852685   -4.9519102    1574.6551   0.04025192  0.039761848           14 
 3261000   0.71498857   -4.9743012    1574.6518  0.040239493  0.039752133            5 
 3262000   0.73763085   -4.9282736    1576.9015  0.040284629  0.039742383           11 
 3263000    0.7237006   -4.9889465    1573.6645  0.040189612  0.039732679           10 
 3264000   0.71500322     -4.93217    1580.0568  0.040340502  0.039722964            6 
 3265000   0.73045391   -4.9569016    1574.8075  0.040194168  0.039713189            8 
 3266000   0.72386972   -4.9299806    1580.5663    0.0403288  0.039703533            6 
 3267000    0.7260332   -4.9537076     1575.858  0.040196358  0.039693859            5 
 3268000   0.72510923   -4.9391933    1578.0467  0.040239868  0.039684171            7 
 3269000   0.72600251   -4.9645327    1575.4107  0.040160363  0.039674461           10 
 3270000   0.73134815   -4.9743408    1574.6003  0.040127429  0.039664792            6 
 3271000    0.7360027   -4.9980078    1570.9015  0.040020929  0.039655057            6 
 3272000   0.72212361   -4.9614132    1579.4587  0.040226637  0.039645362            5 
 3273000   0.74309287   -4.9534164    1576.3628  0.040135522  0.039635744            5 
 3274000   0.72296091   -4.9587688    1578.9011  0.040187873  0.039626089           19 
 3275000   0.71816508   -4.9399503    1579.8446  0.040199608   0.03961643            5 
 3276000   0.73527297   -4.9837177    1574.1649  0.040042861  0.039606847            5 
 3277000   0.73578386   -4.9636701    1576.9405  0.040101223  0.039597107           10 
 3278000   0.72073691   -4.9697306    1576.3157  0.040073107  0.039587455            6 
 3279000   0.73880369   -4.9661906    1577.2802  0.040085398  0.039577801            7 
 3280000   0.73275821   -4.9705154    1577.8547  0.040087773  0.039568116            4 
 3281000   0.72410694   -4.9397012    1580.3967  0.040140118  0.039558456           10 
 3282000   0.72628876   -4.9570098    1579.7793  0.040112211  0.039548796            3 
 3283000   0.72424432   -4.9784781     1577.596  0.040044572  0.039539158            8 
 3284000   0.72759403   -4.9667436    1572.9268  0.039913896  0.039529451            4 
 3285000   0.73318595    -4.983746    1572.9818   0.03990314  0.039519713           13 
 3286000   0.73543657   -4.9669489    1583.3955   0.04015509   0.03951004            7 
 3287000   0.72960646   -4.9762478    1579.5353  0.040045008  0.039500409            6 
 3288000   0.72649489   -4.9647907    1578.8419  0.040015256  0.039490677           20 
 3289000   0.73021673    -4.974454    1578.5586  0.039995911  0.039481064            8 
 3290000   0.72246221   -4.9615644    1582.8751  0.040093089   0.03947141            7 
 3291000   0.72857235   -4.9591419    1583.2483  0.040090354  0.039461824            9 
 3292000   0.71152635   -4.9590315    1580.6492  0.040012383  0.039452212           11 
 3293000    0.7155212   -4.9588813     1578.548  0.039947061  0.039442575           10 
 3294000   0.72624287   -4.9704136    1579.7767  0.039966016  0.039432875            7 
 3295000   0.71787284   -4.9634211      1579.58  0.039948913  0.039423238            4 
 3296000    0.7281358   -4.9434734    1581.0421  0.039973758   0.03941361           11 
 3297000    0.7335743   -4.9891673    1579.3503  0.039918874  0.039403945            8 
 3298000   0.72910156   -4.9327851    1579.9443  0.039921779  0.039394269            4 
 3299000   0.72146608   -4.9782059    1581.1291  0.039939606  0.039384566            9 
 3300000   0.71372522   -4.9731457     1574.759   0.03976664  0.039374865            7 
 3301000   0.72422232   -4.9625952    1580.1458  0.039890583  0.039365141           13 
 3302000   0.71027601    -4.972284    1584.7755  0.039995343  0.039355481            7 
 3303000     0.725394   -4.9544472    1578.9596  0.039836503  0.039345919            6 
 3304000   0.71368128   -4.9904659    1577.6175  0.039790596  0.039336261            6 
 3305000   0.71579611   -4.9720334    1579.7083  0.039831274   0.03932659            3 
 3306000   0.71135483   -4.9813163    1578.5235  0.039789361  0.039316905            9 
 3307000   0.72588321    -4.969922    1578.9538  0.039788173  0.039307187           14 
 3308000   0.72506343   -4.9755842    1583.2297   0.03988386  0.039297537            4 
 3309000   0.72733352   -4.9718237    1578.2392  0.039746127  0.039287877            6 
 3310000   0.70774495   -4.9752074    1579.0217  0.039753819  0.039278169            6 
 3311000   0.71633874   -4.9699899    1581.3494  0.039800397  0.039268522           15 
 3312000   0.72233847   -4.9547671    1582.0366  0.039805672  0.039258877            7 
 3313000   0.71511922   -4.9714145     1580.589  0.039757245  0.039249252            7 
 3314000   0.70996653   -4.9694793    1585.2168  0.039861618  0.039239653            5 
 3315000   0.72808705   -4.9604228     1584.891  0.039841404  0.039230026            6 
 3316000   0.73044523   -4.9769329    1583.1945  0.039786753  0.039220507           19 
 3317000   0.71738036   -4.9873025    1581.6502   0.03973596  0.039210852           12 
 3318000   0.71192594   -4.9797268    1579.6842  0.039674607   0.03920127            6 
 3319000   0.71432329   -4.9762464    1578.3129  0.039628224  0.039191626            8 
 3320000   0.71858538   -5.0033453    1579.3062  0.039641219  0.039181983            6 
 3321000   0.71441076   -4.9800466       1579.4  0.039631636  0.039172365           12 
 3322000   0.71996687   -4.9794136    1581.5633  0.039673975  0.039162657            6 
 3323000   0.71675859   -4.9762683    1583.7966   0.03971804  0.039153043           29 
 3324000   0.71939564   -5.0078409    1586.3559  0.039770255  0.039143506            7 
 3325000   0.73691167   -4.9780117    1587.7789  0.039793956  0.039133979            5 
 3326000   0.71365547   -4.9703492    1583.2695  0.039669008  0.039124489            7 
 3327000   0.74436963    -4.954971    1583.9856  0.039675021  0.039114913            6 
 3328000   0.71212857    -4.999357    1582.4818  0.039625445  0.039105255            8 
 3329000   0.72185769    -4.984396    1586.6853  0.039718767  0.039095595            8 
 3330000   0.70685412   -4.9694378    1586.2163  0.039695102  0.039085983           13 
 3331000   0.72549223   -5.0004949    1580.2677  0.039534367  0.039076399            9 
 3332000   0.71978242   -4.9796001    1583.1676  0.039595029  0.039066785            7 
 3333000   0.72858958   -4.9867431    1582.1338  0.039557302  0.039057201           12 
 3334000   0.70623078   -4.9639184    1588.3918  0.039701855  0.039047568            9 
 3335000   0.72028338   -4.9784971    1581.7075  0.039522925  0.039037952            9 
 3336000   0.71371807   -4.9745236      1586.53  0.039631545  0.039028427            7 
 3337000   0.72981406   -4.9804684    1587.2305  0.039637163  0.039018799           14 
 3338000   0.71285268   -4.9712533    1585.1106  0.039572364   0.03900918            9 
 3339000   0.71441572   -4.9547186    1581.0609  0.039459442  0.038999588            6 
 3340000   0.71978862   -4.9665625    1590.7357  0.039689015  0.038990038            9 
 3341000   0.70736672   -4.9916322    1587.6678  0.039600615  0.038980493            7 
 3342000   0.71767391   -4.9788529    1585.1281  0.039525436  0.038970929           13 
 3343000    0.7456643   -5.0054525    1586.9488  0.039558999  0.038961346            7 
 3344000   0.73317488   -4.9947753    1582.8479  0.039444974  0.038951727            6 
 3345000   0.73326533   -4.9804121    1583.0871  0.039439141  0.038942092            8 
 3346000   0.73405742   -4.9797196    1589.6666  0.039591219  0.038932479           10 
 3347000   0.72016352   -4.9721832     1584.021  0.039438826  0.038922888           10 
 3348000   0.71704077   -4.9941958     1582.591  0.039391453  0.038913296           13 
 3349000   0.72133877   -4.9873737    1587.8713   0.03951108  0.038903674           24 
 3350000   0.71058191   -4.9658214    1589.6438  0.039543379  0.038894071            9 
 3351000   0.71830935   -5.0163388    1581.2873  0.039323765  0.038884469            8 
 3352000   0.69876357   -4.9888216    1585.8254  0.039424857  0.038874807            5 
 3353000   0.71785394   -4.9834392    1582.8766  0.039339809  0.038865184           15 
 3354000   0.71270008   -5.0011249    1583.1938  0.039335962  0.038855566            8 
 3355000   0.72032509   -4.9638971    1591.0954  0.039520501  0.038846011            6 
 3356000   0.70820847    -4.978857    1589.3233  0.039464722  0.038836446           10 
 3357000   0.70617727   -5.0055647    1584.0924  0.039323116  0.038826806           10 
 3358000    0.7108002   -5.0085014    1581.3943  0.039244449  0.038817115           16 
 3359000   0.70803826   -5.0091703    1585.2714  0.039328953  0.038807458           19 
 3360000   0.71512776    -4.988574     1585.959  0.039334299  0.038797768            9 
 3361000   0.72219352   -5.0026123    1586.9661  0.039347567  0.038788056           11 
 3362000   0.70658209   -5.0189662    1584.4647  0.039273863  0.038778348            6 
 3363000   0.71055997    -4.976225     1587.576  0.039339282  0.038768648            5 
 3364000   0.72074768   -4.9849427    1586.2876   0.03929567  0.038759013            8 
 3365000   0.71234274   -4.9695119     1586.593  0.039291554  0.038749345            3 
 3366000    0.7195499   -4.9982431    1583.9265  0.039213867  0.038739728            4 
 3367000   0.71001092   -5.0132964    1583.5438  0.039192749  0.038730003            4 
 3368000   0.70123271   -5.0002821    1587.9278  0.039289583    0.0387203            5 
 3369000   0.72856654   -5.0129277    1583.9206  0.039178801  0.038710623           10 
 3370000   0.71450874   -4.9772833    1586.3401  0.039227005  0.038700973           11 
 3371000   0.71779653   -4.9638704    1587.1105  0.039234413  0.038691415           10 
 3372000   0.70690099   -4.9983242    1589.8697  0.039290968  0.038681809            7 
 3373000   0.70364667   -4.9651342    1590.8886  0.039304493  0.038672227            6 
 3374000    0.7131997   -4.9950066    1588.0787  0.039223443  0.038662595            8 
 3375000   0.70195579   -4.9781475    1585.6129  0.039150936  0.038652962            4 
 3376000   0.70294889   -5.0114939    1590.8569  0.039268783    0.0386433           17 
 3377000    0.7047737   -4.9844468    1589.5462  0.039224809  0.038633576           13 
 3378000   0.71646797    -4.986559    1585.3662  0.039110079  0.038623895            5 
 3379000   0.71552145   -5.0042847    1585.8813   0.03911121   0.03861424            6 
 3380000   0.71329156   -4.9815906    1591.1002  0.039228309  0.038604624            8 
 3381000   0.69729255   -4.9929566    1588.4455  0.039151275  0.038594995            5 
 3382000   0.72098841   -4.9869363    1587.2346  0.039109862  0.038585342           11 
 3383000   0.72368621   -4.9996084    1585.8878  0.039065124  0.038575711            7 
 3384000   0.71814453   -4.9855285    1586.8978  0.039078452  0.038566067            3 
 3385000   0.71662492   -5.0016573    1589.3531  0.039127354  0.038556413            8 
 3386000   0.70663165    -4.963771    1595.5005  0.039267093  0.038546836            8 
 3387000   0.71292675   -4.9908078    1586.6317  0.039037293  0.038537329            8 
 3388000   0.70171151   -5.0294882    1589.6977  0.039101183   0.03852769            9 
 3389000   0.71383694   -5.0081158     1585.368  0.038983182  0.038518039           11 
 3390000   0.70974287   -5.0076376    1588.4824  0.039048239  0.038508363            7 
 3391000    0.7044322   -4.9847436    1585.1036  0.038953691  0.038498756           22 
 3392000   0.70788118   -5.0006614    1589.1065  0.039040549  0.038489087            8 
 3393000   0.70299749    -5.014665    1588.7053   0.03901919    0.0384794            5 
 3394000   0.70226861   -5.0109037    1588.6147  0.039005467  0.038469723            5 
 3395000   0.70335373   -4.9845368    1589.4898  0.039015459  0.038460023            5 
 3396000   0.70548747   -5.0076592     1586.808  0.038938163  0.038450341            6 
 3397000   0.71579286   -5.0320033     1584.049  0.038859017  0.038440638            4 
 3398000   0.72177992   -5.0315446    1585.4325  0.038881512  0.038430926            5 
 3399000   0.71518126   -5.0151776    1589.2929  0.038964717    0.0384212            4 
 3400000   0.72622822   -5.0169524    1586.5416  0.038885824  0.038411594            7 
 3401000   0.70523125   -5.0020318    1589.3845  0.038944048    0.0384019           15 
 3402000   0.68678713   -4.9882036    1590.0904  0.038949891  0.038392181           11 
 3403000   0.71501231   -5.0003348     1585.252  0.038819963  0.038382494            9 
 3404000    0.6978855   -4.9935835    1587.6325  0.038866836  0.038372802            7 
 3405000   0.71211655   -5.0058529    1589.3186  0.038896686  0.038363174            8 
 3406000    0.6946636   -4.9925485    1590.0736  0.038903739  0.038353499            6 
 3407000   0.71248657   -4.9891192    1594.4885  0.039000306  0.038343858           10 
 3408000   0.70870674   -4.9964789     1590.426  0.038889524  0.038334267            9 
 3409000   0.72879674   -5.0086131    1588.2223  0.038824247  0.038324685           10 
 3410000   0.71354615   -5.0049719    1595.5795  0.038992656  0.038315089            9 
 3411000   0.70771145   -4.9936364    1593.5127  0.038930731  0.038305472            8 
 3412000   0.69560564   -5.0354158    1590.9143   0.03885586  0.038295852            5 
 3413000   0.71001925   -5.0194018    1592.2617  0.038877373  0.038286269           10 
 3414000   0.72106961   -5.0163136    1588.7674  0.038780693  0.038276688           13 
 3415000   0.71765485   -5.0080946    1593.2392  0.038878458  0.038267095            9 
 3416000   0.69093081   -5.0116997    1596.7519   0.03895277  0.038257513            8 
 3417000    0.7203538   -5.0056052     1592.046  0.038826603  0.038247949           10 
 3418000   0.69251416   -4.9987929    1593.2134  0.038843706  0.038238432            7 
 3419000   0.70699401   -5.0004831    1590.4643  0.038765338  0.038228947            6 
 3420000   0.73043712   -4.9954415    1589.7629  0.038736912  0.038219472            8 
 3421000   0.70696645   -5.0231786    1590.3381  0.038739601  0.038210007           21 
 3422000   0.71915942   -5.0249081    1593.7796  0.038812088  0.038200492           12 
 3423000   0.69633259   -5.0170901    1591.9845  0.038757047  0.038190975           17 
 3424000   0.72584147   -5.0160595    1590.5707   0.03871132  0.038181452            6 
 3425000    0.7024083   -5.0282892    1591.5187  0.038723083  0.038171943            9 
 3426000   0.69436327   -5.0430282    1587.5998  0.038616457  0.038162401           24 
 3427000   0.69686338    -4.998762    1596.2817  0.038816305  0.038152876           16 
 3428000   0.70695737    -5.028573    1593.1832  0.038729659  0.038143365           16 
 3429000   0.70518708   -5.0146411    1593.4464  0.038724758  0.038133926            8 
 3430000   0.70802666   -5.0102094    1591.7581  0.038672451  0.038124409            7 
 3431000   0.71083854   -4.9708144     1596.812  0.038783932  0.038114943           19 
 3432000    0.7088422   -5.0203941    1595.7803  0.038747578  0.038105468            7 
 3433000   0.70270197   -5.0187751    1590.9489  0.038619013   0.03809591           11 
 3434000   0.70405822    -5.039487    1593.3465  0.038665951  0.038086354            6 
 3435000   0.70355414   -5.0169444    1596.2826  0.038725924  0.038076824           10 
 3436000   0.70461115   -5.0119785    1596.6234  0.038722919   0.03806734            7 
 3437000   0.70406877   -5.0099774    1594.1065  0.038650628  0.038057892           10 
 3438000   0.71102932   -5.0058624    1600.2847  0.038789139  0.038048481            9 
 3439000   0.70655117   -5.0198644    1596.1648  0.038678025  0.038039016            9 
 3440000   0.68346978   -5.0322203    1592.7528  0.038584128  0.038029508            8 
 3441000   0.72423665   -4.9935447    1603.0924  0.038823317  0.038020028            3 
 3442000   0.70088919   -5.0192534    1596.7712  0.038658997   0.03801054            7 
 3443000   0.69818157   -5.0061628    1598.3173   0.03868519  0.038001167            6 
 3444000    0.6918226   -5.0175155     1593.272  0.038551878  0.037991695            6 
 3445000   0.70617785   -5.0337351    1597.7601  0.038649253  0.037982186           12 
 3446000   0.70391009   -5.0328277    1593.6464  0.038538556  0.037972618           11 
 3447000   0.69865536    -5.023641    1596.8624  0.038605125  0.037963152            7 
 3448000   0.71026918   -5.0254937      1593.76  0.038518949  0.037953665            6 
 3449000    0.6910652   -4.9952309    1595.5742  0.038551614  0.037944154            5 
 3450000   0.69743126   -5.0358938    1596.8455  0.038571147  0.037934658            7 
 3451000   0.68749939    -5.014999    1593.9898  0.038491012  0.037925168            7 
 3452000   0.70019708   -5.0070322     1592.717  0.038449136  0.037915669            7 
 3453000   0.69184167    -5.019009    1592.5574  0.038434148  0.037906128            7 
 3454000    0.7120117   -5.0170639    1595.3362  0.038490064  0.037896596            5 
 3455000   0.67938957   -5.0160245     1597.872  0.038540086  0.037887133           17 
 3456000   0.70183355   -5.0018176    1592.8125  0.038406937  0.037877665           12 
 3457000   0.69988072   -5.0023205    1600.3948  0.038578603  0.037868189            6 
 3458000   0.69222324   -5.0315188    1594.7254  0.038430822  0.037858771            5 
 3459000   0.70714485   -5.0041419    1595.7923  0.038445415  0.037849327           11 
 3460000   0.67476128   -5.0302091    1599.0253   0.03851217  0.037839821            8 
 3461000   0.69050861   -5.0329618    1595.4027  0.038413819  0.037830318            8 
 3462000   0.69864551   -5.0376735    1595.4177  0.038403084  0.037820827            5 
 3463000   0.70886401   -5.0430863    1593.7155  0.038351031  0.037811313           10 
 3464000   0.70153042    -5.039288    1589.3699   0.03823542  0.037801705            6 
 3465000   0.71434597   -5.0191935    1599.6519  0.038471668  0.037792154            9 
 3466000   0.70187625   -5.0011724    1598.9811   0.03844444  0.037782693            6 
 3467000   0.68013151   -5.0132683    1602.2656  0.038512297  0.037773219           12 
 3468000   0.69623987   -5.0118991    1598.5115  0.038410984  0.037763803           15 
 3469000    0.7067064   -5.0442579    1594.7366  0.038309229  0.037754395            9 
 3470000   0.70318545    -5.052208    1595.2989  0.038311694  0.037744963            7 
 3471000   0.70285569   -5.0493747    1595.8633  0.038314205  0.037735476            4 
 3472000    0.6994852   -5.0378411    1594.7232  0.038275806  0.037725995            9 
 3473000   0.69552102   -5.0286565    1597.1132  0.038322131   0.03771652            9 
 3474000   0.67696504   -5.0219892    1601.4728  0.038415677  0.037707003            6 
 3475000   0.69271825   -5.0168902     1594.162  0.038229305  0.037697549           20 
 3476000   0.69444958   -5.0232972    1600.9046  0.038379953  0.037688063            8 
 3477000   0.67420424   -5.0727417    1594.0614  0.038204905  0.037678578            4 
 3478000   0.70354577   -5.0161933    1601.8058  0.038379477  0.037669074           13 
 3479000   0.68731479   -5.0547266    1592.6391  0.038148872  0.037659544           10 
 3480000   0.71003629   -5.0200459    1597.5815  0.038256262  0.037650048            7 
 3481000   0.71573706   -5.0276113    1599.2868  0.038286097  0.037640606           14 
 3482000    0.6991211   -5.0334617    1595.7671  0.038190864  0.037631115            6 
 3483000   0.69289023   -5.0458728    1600.3431  0.038289383  0.037621671            3 
 3484000   0.69689471   -5.0290192    1594.5049  0.038138751  0.037612237           14 
 3485000   0.70021121   -5.0223917    1595.9692  0.038162821  0.037602756            6 
 3486000   0.68511145   -5.0186742    1597.5761  0.038190287   0.03759325           13 
 3487000    0.6883595   -5.0497303    1599.0347  0.038214192  0.037583834            7 
 3488000   0.70265578   -5.0213075    1595.0657  0.038108412  0.037574361            8 
 3489000    0.6828409   -5.0356861    1598.8327  0.038187464  0.037564926            4 
 3490000   0.70460976   -5.0363887    1605.3471  0.038332071  0.037555484           11 
 3491000   0.70420544   -5.0189532    1601.8657  0.038237987  0.037546097            6 
 3492000   0.68213431   -5.0238044    1600.8056  0.038201736  0.037536718            6 
 3493000   0.69669916    -5.051389     1596.849  0.038096406    0.0375273            9 
 3494000   0.68795048   -5.0031771    1599.5389  0.038149659  0.037517786            5 
 3495000   0.69537753   -5.0085718    1600.9726  0.038172929  0.037508302            5 
 3496000    0.7016057   -5.0502633    1593.5341    0.0379847  0.037498836           10 
 3497000   0.68637525   -5.0405689     1596.564  0.038046039  0.037489403            9 
 3498000   0.68628972   -5.0284845    1600.2906  0.038123942  0.037480022            5 
 3499000   0.68526459   -5.0386634     1595.246  0.037992903  0.037470565            4 
 3500000   0.69202457   -5.0536609    1599.3655  0.038080132   0.03746111            6 
 3501000   0.69925603     -5.01913    1599.5688  0.038074092  0.037451652            7 
 3502000   0.70910568   -5.0294286    1605.3728  0.038201331  0.037442257            7 
 3503000    0.6853741   -5.0567467    1595.5516  0.037956789  0.037432798            9 
 3504000   0.69602969   -5.0276704    1603.4418  0.038133605  0.037423365            7 
 3505000   0.68835558   -5.0322761    1595.2836  0.037928758  0.037413977            7 
 3506000   0.69211281   -5.0579758    1601.8788    0.0380747  0.037404489            9 
 3507000   0.68785655    -5.060066    1597.2439   0.03795371  0.037394988            8 
 3508000   0.68749999   -5.0513991    1597.8358  0.037956951  0.037385443            4 
 3509000   0.69422726    -5.026793    1598.0894  0.037952157  0.037375977            5 
 3510000   0.69968944   -5.0504388    1600.7734  0.038005066  0.037366558            5 
 3511000   0.68649552   -5.0520292    1597.2424  0.037910433  0.037357056           10 
 3512000   0.68753981   -5.0445742    1599.0685  0.037942969  0.037347588            6 
 3513000   0.69326115   -5.0601133    1605.3438  0.038081027  0.037338094            4 
 3514000    0.6922813   -5.0682778     1598.038  0.037896937  0.037328625           12 
 3515000   0.70378655   -5.0814185    1597.1797  0.037865807  0.037319092            8 
 3516000   0.70249871   -5.0657509    1598.0538  0.037875754   0.03730961            8 
 3517000   0.68716099   -5.0440346    1599.1325  0.037890543   0.03730013            9 
 3518000   0.69059027   -5.0295171      1599.04  0.037877582  0.037290716            9 
 3519000   0.67759515   -5.0303373    1604.4803   0.03799565  0.037281323           10 
 3520000   0.70422491   -5.0346461    1599.8313  0.037874794  0.037271907            6 
 3521000   0.70481844   -5.0397889    1602.8425  0.037935305  0.037262461            7 
 3522000   0.69686133   -5.0509601    1598.6875  0.037826224  0.037253067            7 
 3523000   0.68592443   -5.0405042     1603.549   0.03793048  0.037243671            7 
 3524000   0.66854139   -5.0434647     1600.908  0.037857266    0.0372343            9 
 3525000   0.68991683   -5.0526248    1601.8814  0.037869536  0.037224882            7 
 3526000   0.69056323   -5.0587825    1600.1097  0.037816924  0.037215486            7 
 3527000   0.70641334   -5.0713697    1601.2417  0.037832947  0.037206118            8 
 3528000   0.68609979   -5.0230339    1604.2448   0.03789316  0.037196777           16 
 3529000   0.68735681   -5.0424039    1601.6311  0.037820703  0.037187326            9 
 3530000   0.67467046   -5.0365892    1602.2229  0.037823958  0.037177961            8 
 3531000   0.69683703   -5.0458189    1598.6084  0.037727944  0.037168575            5 
 3532000     0.688073   -5.0573753    1600.9527  0.037772573  0.037159151           13 
 3533000   0.67840888   -5.0375301    1603.4786   0.03782146  0.037149768            7 
 3534000   0.69037821   -5.0526102    1602.9584  0.037798491  0.037140436            9 
 3535000   0.67082891    -5.042039    1603.0094  0.037789001  0.037131071            5 
 3536000   0.69039552   -5.0422132     1602.941  0.037776701  0.037121722            9 
 3537000   0.68779624   -5.0545005    1603.5203   0.03777967  0.037112338            6 
 3538000   0.67315234   -5.0507859    1602.6878  0.037749382  0.037102949           21 
 3539000   0.67830804   -5.0519267    1602.9356  0.037744551  0.037093558            6 
 3540000   0.68974211   -5.0597286    1607.1904   0.03783405  0.037084236           15 
 3541000    0.6828792   -5.0520264    1604.7337  0.037765549  0.037074884            8 
 3542000   0.69829904   -5.0650938     1601.685  0.037683158  0.037065567            6 
 3543000   0.69200275   -5.0422815    1603.2205   0.03770864  0.037056165            5 
 3544000   0.68279607   -5.0527171    1603.8302  0.037712334  0.037046806            9 
 3545000   0.67897065   -5.0666972    1604.1251  0.037708629  0.037037414            5 
 3546000   0.68919911   -5.0763331    1603.5899  0.037685419  0.037028086           12 
 3547000   0.68535598   -5.0336562     1605.835   0.03772754  0.037018715            8 
 3548000   0.68391588   -5.0304695    1608.7851  0.037786195  0.037009384            6 
 3549000    0.6984714    -5.046691    1605.7668  0.037704676  0.037000055            9 
 3550000    0.6793335    -5.039187    1604.8797  0.037673232  0.036990741            5 
 3551000   0.68889404   -5.0721792    1601.5419  0.037584293  0.036981465           12 
 3552000   0.67987256   -5.0704666    1603.0722  0.037609614  0.036972131            4 
 3553000   0.67210595   -5.0585168    1606.7846  0.037686102  0.036962789            8 
 3554000   0.67499722   -5.0592141     1603.137  0.037589969   0.03695346           13 
 3555000   0.68492746   -5.0646005    1604.4933  0.037611188  0.036944154           22 
 3556000    0.6804159   -5.0441065    1603.5212  0.037577831  0.036934793           31 
 3557000   0.69179469   -5.0552802    1606.3054  0.037632493  0.036925461           11 
 3558000   0.68090704   -5.0789216    1604.3571  0.037576287  0.036916098           13 
 3559000   0.67711131   -5.0237345    1608.4708  0.037662048  0.036906745           13 
 3560000    0.6722478   -5.0215925    1609.1549  0.037667484  0.036897423            6 
 3561000   0.67886288   -5.0642038    1605.3586  0.037568066  0.036888136            8 
 3562000   0.68981391   -5.0383663    1603.8508  0.037522244  0.036878784           18 
 3563000   0.67613056   -5.0598747    1605.0978  0.037540878  0.036869479            8 
 3564000   0.68059118   -5.0372302    1606.0674  0.037553016  0.036860136            7 
 3565000   0.68019541   -5.0490198    1611.4281  0.037667792  0.036850805           12 
 3566000     0.685753   -5.0557296    1606.1992  0.037535035  0.036841579            5 
 3567000    0.6788821   -5.0389869    1604.6363  0.037487999  0.036832285            7 
 3568000   0.67951916   -5.0628944    1603.8192  0.037458409  0.036823033            8 
 3569000   0.69444837   -5.0532211    1606.0017  0.037498872  0.036813715            6 
 3570000   0.68435385    -5.041214    1606.3873  0.037497369  0.036804398            7 
 3571000   0.66990345   -5.0461256    1609.0951  0.037550059  0.036795073            7 
 3572000   0.67171134   -5.0523742    1606.5997   0.03748133  0.036785782            6 
 3573000   0.67820571   -5.0623907    1604.9784  0.037433025  0.036776469            5 
 3574000   0.67416292   -5.0752998    1604.4958  0.037411299  0.036767139            7 
 3575000   0.68652364   -5.0783938    1604.3218  0.037396779   0.03675773            4 
 3576000   0.68597102   -5.0656258    1610.5179  0.037530712  0.036748373            9 
 3577000   0.66521916   -5.0590356    1607.1126  0.037440887   0.03673905            6 
 3578000   0.68225816   -5.0747856    1603.3603  0.037343029   0.03672973            5 
 3579000   0.68451295   -5.0493284    1607.9499  0.037439459  0.036720404            5 
 3580000   0.68259583   -5.0706549    1605.7799   0.03737849  0.036711131           16 
 3581000   0.67894581      -5.0438    1610.9947  0.037489404  0.036701839            5 
 3582000   0.66686469   -5.0680309    1600.6294  0.037237796   0.03669249            6 
 3583000   0.66548917   -5.0737719    1605.2696  0.037335324  0.036683188            7 
 3584000   0.69982827   -5.0744639     1604.739  0.037312569  0.036673878           12 
 3585000   0.69329519    -5.088205    1606.4694  0.037342386  0.036664627           11 
 3586000   0.67125927   -5.0836918     1603.295  0.037258203  0.036655267            9 
 3587000   0.66939443   -5.0737267    1606.1555   0.03731427  0.036645953            5 
 3588000   0.65790467   -5.0878472    1606.7038  0.037316606    0.0366366            7 
 3589000    0.6864934   -5.0719983    1605.2108  0.037271542  0.036627221            7 
 3590000   0.68088646   -5.0918898    1603.0606  0.037211248  0.036617874           15 
 3591000   0.67772323   -5.0729752    1605.7761  0.037263903  0.036608477            9 
 3592000   0.67668954   -5.0847909     1603.204  0.037193857  0.036599093           12 
 3593000   0.68252246   -5.0857811     1608.727  0.037311601  0.036589721           10 
 3594000   0.68106468   -5.0895391    1602.7925  0.037163617  0.036580398            7 
 3595000   0.68827275   -5.0895984    1604.7248  0.037198071  0.036571051            6 
 3596000   0.67433349   -5.0879219    1606.2147  0.037222253  0.036561688            8 
 3597000   0.67519278   -5.0574002      1606.07  0.037208553  0.036552351           10 
 3598000   0.67847181   -5.0939664    1607.1716  0.037223726  0.036542994            7 
 3599000   0.68973889   -5.0977011    1607.5295  0.037221671  0.036533645           17 
 3600000   0.67128734   -5.0495207    1607.9367  0.037220756   0.03652428            8 
 3601000   0.66807525   -5.0837423    1606.1609  0.037169325  0.036514935           11 
 3602000   0.67189643   -5.0743298    1607.1837  0.037182669  0.036505641           10 
 3603000    0.6767777   -5.0807412    1606.7028  0.037161226  0.036496396            7 
 3604000   0.67180661   -5.0527375    1609.4308  0.037213995  0.036487144            7 
 3605000   0.66395948   -5.0662497    1606.9602   0.03714656  0.036477834            5 
 3606000   0.66204977   -5.0672831    1609.2592  0.037189388  0.036468548            9 
 3607000   0.66583302    -5.083783    1611.7073  0.037235637  0.036459293            7 
 3608000   0.66015454   -5.0777434    1609.4183  0.037172447  0.036450042           20 
 3609000   0.68333078   -5.0556047    1610.5308  0.037187836  0.036440823           13 
 3610000   0.68185162   -5.0941404    1609.9087  0.037163173    0.0364316            8 
 3611000   0.68521139   -5.0958018    1612.7317  0.037218031  0.036422359           11 
 3612000   0.66224944   -5.0770951    1616.3979  0.037292311  0.036413115            9 
 3613000   0.67349115   -5.0779806     1605.652  0.037034137   0.03640387           15 
 3614000   0.66638202   -5.0692753    1611.5016  0.037158772  0.036394547           15 
 3615000   0.67950412   -5.0614525    1604.4491  0.036985917  0.036385299           20 
 3616000    0.6727809   -5.0639539    1606.6363  0.037026094  0.036376031            7 
 3617000    0.6814789   -5.0879127    1608.3171  0.037054583  0.036366728            8 
 3618000   0.67888467   -5.0794661    1611.9454  0.037127912  0.036357498            5 
 3619000    0.6685098   -5.0789486    1608.5627  0.037039759  0.036348286            8 
 3620000   0.66242889   -5.0609696    1613.4623  0.037142318  0.036339044           10 
 3621000   0.66605607   -5.0755392    1611.1898  0.037079762  0.036329868            7 
 3622000   0.67711455   -5.0835772    1611.6161  0.037079333   0.03632064            9 
 3623000   0.67460777   -5.0868125    1611.0728  0.037056601  0.036311413           10 
 3624000   0.67055009   -5.0769707    1617.0011  0.037182697  0.036302202            7 
 3625000   0.67227094   -5.0812592    1612.2813  0.037063938  0.036292951           18 
 3626000   0.66432859   -5.0652954    1605.7336  0.036903236  0.036283697            5 
 3627000   0.66729509   -5.1000519    1609.2211  0.036973189  0.036274459           15 
 3628000    0.6733875   -5.0779772    1611.6013   0.03701767  0.036265223            6 
 3629000   0.67212582    -5.088639    1609.9278   0.03696904   0.03625599           12 
 3630000    0.6725905   -5.0885514    1611.6198  0.036997699  0.036246788            6 
 3631000   0.66413883   -5.0967879     1610.694  0.036966262  0.036237606           10 
 3632000   0.66450994   -5.0896806    1615.1266  0.037057788  0.036228413            8 
 3633000   0.66679864    -5.082179    1608.3417  0.036891955  0.036219197           10 
 3634000   0.67199725     -5.08803    1604.8088   0.03680079  0.036209981            9 
 3635000   0.68467843   -5.0842679    1611.3416  0.036940431  0.036200766           21 
 3636000   0.67527527   -5.0735751    1615.0657  0.037015623  0.036191603            8 
 3637000    0.6560483   -5.0941803    1611.6332  0.036926799  0.036182368            4 
 3638000   0.65101993   -5.0609482    1617.9724  0.037061856  0.036173193           12 
 3639000   0.67918667   -5.1145163    1605.8276  0.036773555  0.036164014            9 
 3640000   0.66656609   -5.0825176     1610.709  0.036875205  0.036154804            6 
 3641000   0.67645779   -5.0991678     1612.799  0.036912914   0.03614557            5 
 3642000   0.66165127   -5.0793654    1610.3682  0.036847158  0.036136366            8 
 3643000   0.67448714   -5.0697477    1614.2402  0.036925615  0.036127193           12 
 3644000   0.65744284   -5.0908554     1616.141   0.03695895  0.036118025           11 
 3645000    0.6679848   -5.0940436    1608.5611  0.036775516  0.036108738            9 
 3646000   0.67094338   -5.0968336    1614.7407  0.036906672  0.036099505            7 
 3647000   0.67332014   -5.0747988    1617.0554  0.036949443  0.036090286           10 
 3648000   0.66577022   -5.0944992    1610.8769  0.036798175  0.036081126           11 
 3649000   0.66869977    -5.108852    1611.3761   0.03679949  0.036071941           21 
 3650000   0.67064773   -5.1058073    1609.6348  0.036749653  0.036062637           12 
 3651000   0.67677696   -5.0953841    1605.6409  0.036648428  0.036053333            8 
 3652000   0.67767779    -5.087443    1610.9023  0.036758449  0.036044043            9 
 3653000   0.65909675   -5.1139777    1612.2824  0.036779869  0.036034737            7 
 3654000   0.66718382   -5.1153432    1610.6748  0.036733142  0.036025507           10 
 3655000   0.66454848   -5.1153889    1607.6206  0.036653457  0.036016247            8 
 3656000   0.65932492   -5.1012569    1610.9461  0.036719231  0.036006978           18 
 3657000    0.6644552   -5.0986304    1610.3329  0.036695217  0.035997797            7 
 3658000   0.68084205    -5.105359    1610.5645  0.036690461  0.035988602            7 
 3659000   0.65906791   -5.0953621    1610.1568  0.036671148  0.035979406            9 
 3660000   0.66931675   -5.0661886    1610.8714  0.036677399  0.035970247            4 
 3661000   0.66305758   -5.0966682    1613.0201   0.03671629   0.03596113           16 
 3662000   0.65299229   -5.0926493    1612.8896  0.036703295   0.03595197            7 
 3663000   0.65885759   -5.1098549    1615.7972  0.036759424  0.035942819            8 
 3664000   0.64686877   -5.1140208    1615.4356  0.036741167  0.035933653           10 
 3665000   0.65401624   -5.0903337    1612.8463  0.036672266  0.035924515            6 
 3666000   0.67069718   -5.1144391    1609.8855   0.03659496  0.035915304           12 
 3667000   0.66913319   -5.0831569    1613.5702  0.036668717  0.035906127            6 
 3668000   0.65875037   -5.1070635    1610.4086  0.036586892  0.035896978           11 
 3669000   0.66343613   -5.1049238    1610.1414  0.036570849  0.035887878           12 
 3670000   0.67099554   -5.0938805    1616.5808  0.036707102  0.035878796            6 
 3671000   0.67356271   -5.0628287    1616.4629  0.036694428  0.035869706            7 
 3672000   0.66545259   -5.0946171    1616.8011  0.036692108  0.035860593           11 
 3673000   0.65959375   -5.0878061     1613.676  0.036611217  0.035851502            6 
 3674000   0.68792508   -5.0795942    1619.4185  0.036731503  0.035842463            7 
 3675000   0.65081493   -5.0627835    1616.3345  0.036651576   0.03583339           16 
 3676000   0.67802862   -5.0937409    1616.5572  0.036646655  0.035824332           29 
 3677000   0.65763313   -5.0984898     1614.347  0.036586598  0.035815255            9 
 3678000   0.67083018   -5.1090969    1616.4215  0.036623652  0.035806111            8 
 3679000   0.65920593   -5.1128632    1618.1461  0.036652761  0.035796987            4 
 3680000   0.66790536   -5.1112036    1611.9953  0.036503517  0.035787875            9 
 3681000   0.66091015   -5.0672651    1617.6966   0.03662267  0.035778816            9 
 3682000   0.65757324   -5.0780389    1618.4686  0.036630196  0.035769732            6 
 3683000   0.66426266   -5.0912373     1617.631  0.036601299  0.035760646           15 
 3684000   0.66008159   -5.0992569    1615.3698  0.036540216  0.035751534            6 
 3685000   0.66783203   -5.0904659     1615.185  0.036526119  0.035742383            5 
 3686000   0.65309995   -5.1068409    1617.1595  0.036560849   0.03573332           14 
 3687000   0.66718003    -5.102962    1616.5594   0.03653737  0.035724273            7 
 3688000   0.64738809   -5.1119825    1616.5267  0.036526724   0.03571517            4 
 3689000   0.65837265   -5.0918517    1616.8814  0.036524836  0.035706065           11 
 3690000   0.65576788   -5.1060025    1616.1486  0.036498388  0.035696937            4 
 3691000   0.65195777   -5.1020726    1613.7514  0.036434377  0.035687838            9 
 3692000   0.65357043   -5.0943528    1618.1016  0.036522697  0.035678797           16 
 3693000   0.67334404   -5.0765912    1616.9665  0.036487194  0.035669751           20 
 3694000   0.66385864   -5.1254255    1615.5102  0.036444463  0.035660673            6 
 3695000   0.66778381   -5.1012201    1618.4052  0.036499891  0.035651575           14 
 3696000   0.67215206    -5.082001    1615.7506  0.036430163  0.035642508            6 
 3697000    0.6643829   -5.1105911    1612.8523  0.036354979  0.035633394           14 
 3698000   0.66551401   -5.0856925    1621.3069   0.03653567   0.03562431            5 
 3699000   0.68122841   -5.0959993    1617.9307  0.036449732  0.035615232           32 
 3700000   0.65908385   -5.0712439    1621.8503  0.036528161  0.035606174           22 
 3701000   0.65385144   -5.1053333     1621.227  0.036504255  0.035597162            4 
 3702000   0.65740162   -5.1076094    1617.1173  0.036401884  0.035588107            8 
 3703000   0.66684332   -5.1261184    1616.8675  0.036386432  0.035579056            9 
 3704000   0.64698609   -5.1225553    1619.3353  0.036432131  0.035569991            8 
 3705000   0.65869663   -5.1192742     1617.688  0.036385245  0.035560949           13 
 3706000   0.66772158   -5.1236468    1622.2585  0.036478201  0.035551964            7 
 3707000   0.66743789   -5.0945675    1616.6053  0.036341276   0.03554296            6 
 3708000   0.66218416   -5.1068384     1618.887  0.036382753  0.035533961            9 
 3709000   0.66274268   -5.0951346    1618.2793  0.036359291  0.035524931            8 
 3710000   0.66077404   -5.1237095    1622.4271  0.036442657  0.035515907            6 
 3711000   0.66021412   -5.1272167    1619.9614  0.036377468   0.03550694            5 
 3712000   0.66413605   -5.1134457    1618.5098  0.036335079  0.035497924           10 
 3713000   0.66778335   -5.0997158    1621.7395  0.036397779  0.035488907            8 
 3714000   0.65513343   -5.1075782    1617.9644  0.036303276  0.035479933            6 
 3715000     0.657723   -5.1298407    1620.7268  0.036355469  0.035470918           10 
 3716000   0.65294313   -5.1379915    1617.8065  0.036280197  0.035461867           14 
 3717000   0.65943985   -5.0995303    1620.4499    0.0363297   0.03545287            6 
 3718000   0.66703889   -5.0977326    1621.9999  0.036354669  0.035443931            5 
 3719000   0.65175329   -5.1263286    1618.4763  0.036265938  0.035435008           21 
 3720000   0.65681785   -5.1075121    1622.7446  0.036351805  0.035426019           14 
 3721000   0.65023034   -5.0942916    1619.8236  0.036276619  0.035417092           12 
 3722000   0.63716611   -5.1151616    1619.3863  0.036257082  0.035408174            6 
 3723000   0.65092774   -5.0970215    1616.3181  0.036178666  0.035399257            9 
 3724000   0.64920825   -5.1084714    1622.0153  0.036296439  0.035390316           12 
 3725000   0.65307283   -5.1226598    1618.6021  0.036210338  0.035381376            8 
 3726000   0.65802966    -5.104067    1621.2666  0.036260212   0.03537244           10 
 3727000    0.6567992   -5.1074387    1621.0585  0.036245831  0.035363498            9 
 3728000   0.66527712   -5.1235927    1621.5397  0.036246863  0.035354582            8 
 3729000   0.66110539   -5.1022153    1623.2511  0.036275389  0.035345601            7 
 3730000   0.65204724   -5.0985543     1621.468  0.036225827  0.035336627            8 
 3731000   0.67347506   -5.1208565    1621.4099  0.036214819  0.035327734           10 
 3732000   0.65419707   -5.1097752    1620.7941  0.036191366  0.035318791            8 
 3733000   0.65836156   -5.1075217    1624.0655  0.036254698  0.035309831           28 
 3734000   0.64198449   -5.1044319    1619.0991  0.036134152  0.035300864            6 
 3735000   0.65915605   -5.1110031    1618.5778  0.036112847  0.035291883           10 
 3736000   0.64733169   -5.1201652    1620.5893  0.036148047  0.035282934           19 
 3737000   0.66289773   -5.1146572    1623.3278  0.036199443   0.03527396           17 
 3738000   0.65529883   -5.1257275    1622.7177  0.036176158  0.035265009           34 
 3739000   0.66211634   -5.0953895    1619.3899  0.036092313  0.035256109            6 
 3740000    0.6515515   -5.1293932    1623.3424  0.036170731  0.035247176           15 
 3741000   0.64117707   -5.1147669    1624.0159  0.036176066  0.035238194           12 
 3742000   0.64247704   -5.1250351    1625.5222  0.036199943  0.035229259           12 
 3743000   0.66863059   -5.1221478    1615.8798  0.035975594  0.035220278           11 
 3744000   0.64944539   -5.1475529    1619.0046  0.036035536  0.035211362            9 
 3745000   0.64754901   -5.1319151    1620.7875  0.036065587  0.035202414           10 
 3746000   0.64759913   -5.1261737    1627.1683  0.036197907  0.035193511            9 
 3747000   0.65532123   -5.1349152    1620.0186  0.036029238   0.03518462           11 
 3748000   0.65600924   -5.1310635    1626.3561  0.036160532  0.035175746            6 
 3749000   0.65533911   -5.1155109    1626.0704  0.036144537  0.035166935           12 
 3750000   0.66286491   -5.1161196    1627.0325  0.036156278  0.035158046           10 
 3751000   0.65461671   -5.1255654    1625.1462  0.036104732  0.035149195           15 
 3752000   0.63993309   -5.1141883    1621.8192  0.036021215  0.035140395            9 
 3753000   0.65043798   -5.1157017    1622.0153  0.036015973  0.035131473           20 
 3754000   0.64755836   -5.1168855    1628.0669  0.036140715  0.035122629            8 
 3755000   0.64899828   -5.1341381    1624.1171  0.036043434  0.035113729           10 
 3756000   0.66721775   -5.1277999    1624.3921  0.036039939  0.035104837            9 
 3757000   0.64083497    -5.107379    1624.4414  0.036031438  0.035095958            9 
 3758000   0.65924097   -5.1297604    1621.2215  0.035950449  0.035087073            6 
 3759000   0.64846512   -5.1233327     1624.641  0.036016694   0.03507819           12 
 3760000   0.65821925   -5.1458083    1621.1044  0.035928732  0.035069276            9 
 3761000   0.64720783   -5.1410687    1627.0791  0.036051562   0.03506035            7 
 3762000   0.65408277    -5.118924    1624.4127  0.035982916  0.035051479           11 
 3763000   0.63756773   -5.1186913    1624.6155  0.035977843  0.035042615            7 
 3764000   0.64162388   -5.1129285    1627.5434  0.036033108  0.035033817            7 
 3765000   0.65644655   -5.1197523    1631.4947  0.036110993  0.035025004           11 
 3766000    0.6448407    -5.142956    1621.8734  0.035888506  0.035016121           31 
 3767000   0.64959771   -5.1154905    1627.3632  0.036000425  0.035007287            6 
 3768000   0.65469277   -5.1439063     1627.323  0.035989981   0.03499851            9 
 3769000   0.64820756   -5.1455797    1623.1245  0.035887603  0.034989703            7 
 3770000   0.65568977   -5.1362018    1622.7828   0.03587053  0.034980864            6 
 3771000   0.66023689   -5.1073869    1625.0742  0.035911655  0.034972022           10 
 3772000   0.65618935    -5.135765    1627.5451  0.035956724  0.034963254           17 
 3773000   0.64414323   -5.0899287     1630.977  0.036022993  0.034954491           10 
 3774000   0.64421659   -5.1244117    1622.7936  0.035832751  0.034945726           18 
 3775000    0.6643591   -5.1328573    1626.6096  0.035907497  0.034936971           15 
 3776000   0.63398653   -5.1237805    1623.4735  0.035828776  0.034928201           11 
 3777000   0.63164782   -5.1482657    1617.6288  0.035690336    0.0349194            7 
 3778000   0.64056487   -5.1404152    1627.8561  0.035906479  0.034910573            8 
 3779000    0.6584665    -5.139746    1625.9621  0.035855212   0.03490177            7 
 3780000   0.64677603   -5.1500551    1627.4832  0.035879259  0.034892983           11 
 3781000   0.64145516   -5.1302425    1624.1305  0.035795877  0.034884204            4 
 3782000   0.64433047    -5.130056    1625.7093    0.0358212  0.034875432            6 
 3783000   0.65104048   -5.1260009    1624.8759  0.035793371  0.034866669            4 
 3784000   0.63449975   -5.1465648    1630.3637  0.035904768  0.034857938           17 
 3785000   0.63929672   -5.1352462    1630.3615  0.035895234  0.034849205           26 
 3786000   0.64863537   -5.1279477     1625.912  0.035787815  0.034840499           13 
 3787000   0.64999195   -5.1407707    1622.5246  0.035703824  0.034831711            6 
 3788000   0.64238411   -5.1435775     1623.994  0.035726724   0.03482293           10 
 3789000   0.66108037    -5.140902    1630.8184  0.035867388  0.034814155            7 
 3790000   0.64916852   -5.1286058    1624.7095  0.035723604  0.034805399           10 
 3791000   0.65070657    -5.147529    1626.7807   0.03575971  0.034796648           10 
 3792000   0.64972247   -5.1359566    1627.5753  0.035767742   0.03478792            9 
 3793000   0.64537617   -5.1416753    1628.0013   0.03576767  0.034779159            9 
 3794000   0.64310393   -5.1338231    1628.4645  0.035768418  0.034770387            7 
 3795000   0.63176504   -5.1419729     1631.036   0.03581546  0.034761643           29 
 3796000    0.6479464   -5.1441148    1631.2153  0.035809959  0.034752925            8 
 3797000   0.65880536   -5.1284131    1626.8946  0.035705702  0.034744222           20 
 3798000   0.64644303   -5.1536054    1627.4781  0.035709104  0.034735527            9 
 3799000   0.63628467   -5.1324148    1629.4917  0.035743874  0.034726794           11 
 3800000   0.66098071   -5.1544474     1627.826  0.035697939  0.034718045            5 
 3801000   0.63127658   -5.1536537     1626.414  0.035657591  0.034709328           11 
 3802000   0.63074032   -5.1437503    1627.5786  0.035673738  0.034700629            7 
 3803000   0.66385501   -5.1366029    1629.5113  0.035706707  0.034691951           12 
 3804000   0.64208244   -5.1416206    1630.4363  0.035717584  0.034683217            8 
 3805000   0.64560245    -5.139351     1625.494  0.035599956  0.034674498            6 
 3806000   0.62072534   -5.1558104    1632.2504  0.035738535  0.034665771           13 
 3807000   0.65239323   -5.1364403    1630.9507  0.035700698   0.03465705            8 
 3808000   0.63136075   -5.1594671    1626.2417  0.035588273  0.034648352           10 
 3809000   0.64723968   -5.1285894     1628.856  0.035636126  0.034639606           13 
 3810000   0.64167167   -5.1495697    1627.7104  0.035601715  0.034630852            7 
 3811000   0.65056049   -5.1352239    1628.8727  0.035617789  0.034622117            5 
 3812000   0.63212286   -5.1444706    1633.8601  0.035717473  0.034613418            7 
 3813000   0.63881474   -5.1483929    1628.9148  0.035600026  0.034604693           12 
 3814000   0.64760025   -5.1469889    1626.2445  0.035532349  0.034595897            7 
 3815000   0.63483195   -5.1531884    1628.5759  0.035573961  0.034587133           11 
 3816000   0.63464178   -5.1369536    1628.9197  0.035572145  0.034578396            9 
 3817000   0.64382835   -5.1459668    1630.5229  0.035597827  0.034569662            8 
 3818000   0.62459016   -5.1540415    1629.7273  0.035571138  0.034560938            7 
 3819000   0.64230507   -5.1312954    1631.1817   0.03559356  0.034552214           12 
 3820000   0.64031204    -5.125305    1629.2484  0.035542068  0.034543476           12 
 3821000    0.6339358   -5.1441843    1626.4801  0.035472392  0.034534766           28 
 3822000   0.63186279   -5.1469676    1626.6573  0.035466975  0.034526042           12 
 3823000   0.63956188   -5.1399601    1626.7449  0.035459606  0.034517274           11 
 3824000    0.6446302   -5.1317459    1632.1601  0.035568343   0.03450851            4 
 3825000   0.63864376   -5.1492419    1626.5183  0.035436128  0.034499829            7 
 3826000   0.63015287   -5.1501087    1632.5493  0.035558227  0.034491179           10 
 3827000   0.64108797   -5.1480821    1629.1128  0.035474106  0.034482517            8 
 3828000   0.63126068   -5.1426513    1628.0982  0.035442751  0.034473885           24 
 3829000   0.62841069   -5.1568274    1630.5132  0.035486054  0.034465221            7 
 3830000   0.63113485   -5.1625289    1631.5826  0.035500057  0.034456541            9 
 3831000   0.64475338   -5.1680029    1632.3205  0.035506842  0.034447858           11 
 3832000   0.62341239   -5.1557606    1632.9795  0.035511906  0.034439129           18 
 3833000   0.63954279   -5.1264717    1630.2979   0.03544434   0.03443039           11 
 3834000   0.64849792   -5.1323338    1629.5797  0.035419485  0.034421657           10 
 3835000   0.64212526    -5.153187    1630.9322  0.035439639  0.034412935           40 
 3836000   0.63157292   -5.1802137    1628.4148  0.035375712  0.034404207            9 
 3837000   0.63167601   -5.1779067    1629.7386  0.035395245   0.03439545           15 
 3838000    0.6501381   -5.1610532    1632.0944  0.035437171  0.034386729           10 
 3839000   0.64661653   -5.1742261    1628.8837  0.035358246  0.034378026            9 
 3840000   0.63865608   -5.1399485    1634.4308  0.035469418  0.034369356            7 
 3841000    0.6425011   -5.1545968    1633.8303  0.035447155  0.034360728           34 
 3842000   0.63917907   -5.1445769    1633.1628   0.03542345  0.034352096           11 
 3843000   0.63688769   -5.1608906    1631.9305  0.035387512  0.034343462            9 
 3844000   0.65494293   -5.1590933    1632.2312  0.035384824  0.034334805           19 
 3845000   0.64735098   -5.1768878    1630.0587  0.035328538  0.034326113           28 
 3846000    0.6403515    -5.165279    1627.3921  0.035261572   0.03431737           20 
 3847000   0.63799794   -5.1645032    1630.3288   0.03531602  0.034308589           15 
 3848000   0.63912144   -5.1681214    1632.4564  0.035352919  0.034299855           12 
 3849000    0.6444834   -5.1613517    1631.1617  0.035315703  0.034291111           12 
 3850000   0.64291118   -5.1771882    1629.9399  0.035280085  0.034282371            5 
 3851000   0.64843687   -5.1688388    1631.6272  0.035307436  0.034273651            6 
 3852000   0.62778688   -5.1509166    1633.6449  0.035341919  0.034265006            7 
 3853000   0.63353976   -5.1482266    1635.1409  0.035365103  0.034256362           45 
 3854000   0.62337573   -5.1474318    1627.4932  0.035190565  0.034247709            7 
 3855000   0.62169133   -5.1640447    1632.8285  0.035296769  0.034239071           19 
 3856000   0.63814295   -5.1703648    1630.1349  0.035229402  0.034230391           13 
 3857000   0.63493339   -5.1385759    1634.3474  0.035311282  0.034221757           15 
 3858000   0.62122972    -5.118827      1633.46  0.035282962  0.034213127            8 
 3859000   0.60971969     -5.15569    1634.4305  0.035294775  0.034204491           11 
 3860000   0.63305722   -5.1693164    1632.4893  0.035243724  0.034195884           19 
 3861000   0.62219436   -5.1611125    1632.3633  0.035231877  0.034187205            9 
 3862000   0.65029005   -5.1565641    1629.0659  0.035151602   0.03417848           13 
 3863000   0.64650293   -5.1722223    1634.9888  0.035270274  0.034169809           10 
 3864000   0.62740642   -5.1636211    1629.8269   0.03514982  0.034161148            4 
 3865000   0.63792629   -5.1805162    1631.4583  0.035175902  0.034152471           35 
 3866000   0.64614436    -5.152314    1633.3092  0.035206699   0.03414379           11 
 3867000   0.63455983    -5.132846    1635.5357  0.035245576  0.034135183           10 
 3868000   0.61853691   -5.1621753    1634.9844  0.035224586  0.034126578           11 
 3869000   0.62466838   -5.1440201    1640.2385  0.035328648  0.034118004           14 
 3870000   0.63231694   -5.1415643    1637.2654  0.035255499  0.034109415           17 
 3871000    0.6482183   -5.1590785    1636.5538  0.035231072  0.034100825            8 
 3872000   0.61924916   -5.1610491    1633.4162  0.035154447   0.03409225           18 
 3873000   0.62759248   -5.1711192    1632.1956  0.035119106  0.034083645           15 
 3874000   0.63455224   -5.1559163    1638.4272   0.03524409  0.034075049           10 
 3875000    0.6339022   -5.1835486    1634.3507  0.035147327  0.034066481            8 
 3876000   0.63141299   -5.1435399    1635.6182  0.035165511  0.034057941            5 
 3877000   0.62535572   -5.1432316    1638.3809  0.035215823  0.034049432           14 
 3878000   0.63519782   -5.1426484    1635.1001   0.03513624  0.034040876            8 
 3879000   0.62065145   -5.1739874    1634.0078  0.035103716  0.034032336           12 
 3880000   0.61887396   -5.1782037    1632.8799  0.035070445  0.034023716           10 
 3881000   0.63927535   -5.1754859    1634.8341  0.035103368  0.034015104           12 
 3882000   0.63292143    -5.162952    1635.6171  0.035111136  0.034006542            8 
 3883000   0.63061168   -5.1859846    1634.6096   0.03508047  0.033997988            5 
 3884000   0.63708962   -5.1628374      1636.62  0.035114572  0.033989422           11 
 3885000   0.61561225   -5.1693717    1634.1026  0.035051536  0.033980858            9 
 3886000   0.63010817   -5.1936346    1631.5565  0.034987916  0.033972246            8 
 3887000   0.63555341   -5.1661128    1633.6817  0.035024478  0.033963632           10 
 3888000   0.63066993   -5.2029474    1628.1961  0.034897893  0.033955038           13 
 3889000   0.64573562   -5.1715725    1637.1073  0.035079869  0.033946412           11 
 3890000   0.64186864   -5.1674079    1635.8467  0.035043845  0.033937861           24 
 3891000   0.62414559    -5.152984    1638.0796  0.035082662    0.0339293            7 
 3892000   0.64022903   -5.1616719    1637.3946   0.03505898  0.033920743            8 
 3893000   0.62791032   -5.1681313    1636.4268  0.035029257  0.033912143            8 
 3894000   0.63792937   -5.1845647    1637.2325  0.035037504  0.033903541            6 
 3895000   0.63245269   -5.1911563    1633.9007  0.034957226  0.033894947            9 
 3896000    0.6359154   -5.1641652    1632.2661  0.034913289  0.033886321           11 
 3897000   0.62996558   -5.1679786    1635.2219  0.034967536    0.0338777           10 
 3898000   0.63211058   -5.1535527    1633.2808  0.034917068  0.033869132           10 
 3899000   0.62801402   -5.1833581    1638.9916   0.03503017  0.033860616            7 
 3900000   0.62610941   -5.1569445    1633.7436  0.034909051  0.033852052           15 
 3901000   0.61713863   -5.1819254    1634.6227  0.034918881    0.0338435           25 
 3902000   0.63357943   -5.1760137    1634.7831  0.034913358  0.033834927           31 
 3903000   0.64307241   -5.1926195    1635.0852  0.034910864  0.033826411           13 
 3904000   0.63386473   -5.1845944    1636.3007  0.034927866   0.03381791           31 
 3905000   0.61435251   -5.2099326    1636.1974  0.034916718   0.03380939           10 
 3906000   0.62053514   -5.1703581    1637.7312  0.034940502  0.033800869            6 
 3907000   0.64801258   -5.1620942    1637.0702  0.034917459   0.03379235            9 
 3908000   0.61871384   -5.1969338     1634.475  0.034853187  0.033783783            9 
 3909000   0.62237329   -5.1653517    1635.8367  0.034873298  0.033775214           18 
 3910000   0.64096436   -5.1690039    1636.6935   0.03488264   0.03376669           10 
 3911000   0.63208183    -5.160475     1636.969  0.034879592  0.033758189           35 
 3912000    0.6254165   -5.1971679    1632.9752  0.034785599  0.033749665           23 
 3913000    0.6199512   -5.1765972    1634.4235  0.034807555  0.033741171           13 
 3914000   0.62656631   -5.1738245    1639.9645  0.034916636  0.033732654            8 
 3915000   0.64191927   -5.1893563    1637.0835  0.034846392  0.033724136           11 
 3916000   0.62791758   -5.1984035    1638.5427  0.034868546  0.033715555           29 
 3917000   0.62470352   -5.2038801    1636.0936   0.03480754  0.033706977           18 
 3918000   0.61521485     -5.18074     1633.215   0.03473743   0.03369845           10 
 3919000   0.63346153    -5.183798    1635.2543   0.03477193  0.033689949            7 
 3920000   0.62359748   -5.1603939      1636.23  0.034783801   0.03368142            9 
 3921000   0.61967359   -5.1708828    1636.8005  0.034787055  0.033672911            6 
 3922000   0.63519835    -5.148747    1639.6533  0.034838801  0.033664446           17 
 3923000   0.62733849   -5.1818355    1638.3917   0.03480312  0.033655994           15 
 3924000   0.63076741   -5.1751028     1636.555  0.034755244  0.033647482           12 
 3925000     0.616558   -5.1635393    1636.6339  0.034748066  0.033639001            5 
 3926000   0.60505816   -5.1748568    1639.6077  0.034802337   0.03363055           10 
 3927000   0.62050058   -5.1785481    1636.0218   0.03471738  0.033622055           12 
 3928000   0.61136192    -5.196405    1636.4105  0.034716789  0.033613592           10 
 3929000   0.62498576   -5.1690491    1635.3163  0.034684745  0.033605091            7 
 3930000   0.63080104   -5.1792677     1636.908  0.034709669  0.033596605            5 
 3931000   0.61553487   -5.1948232    1632.5162  0.034607738  0.033588068           12 
 3932000   0.62635412   -5.1928507    1635.3626  0.034659262  0.033579556            9 
 3933000    0.6202084   -5.1809234    1638.1843  0.034710235  0.033570991           10 
 3934000   0.63062228   -5.1832806    1637.6429  0.034689945  0.033562493            7 
 3935000   0.61886821   -5.1512007    1640.8267  0.034748554  0.033554041            9 
 3936000   0.63060549   -5.1645431    1638.3193  0.034686639   0.03354562           14 
 3937000   0.62512367   -5.1952593     1635.923  0.034627106  0.033537131           17 
 3938000   0.63127655   -5.1762944    1638.0213  0.034662715  0.033528667           14 
 3939000    0.6155386     -5.19417    1639.6899  0.034689218  0.033520211           16 
 3940000   0.61501566   -5.1693698    1637.6325  0.034636898  0.033511812            8 
 3941000   0.62328097   -5.1996884    1639.7642  0.034673183   0.03350339           13 
 3942000   0.63509399   -5.2022711    1635.6795  0.034578039   0.03349497           19 
 3943000   0.60516034   -5.1738704    1636.7888  0.034592712  0.033486542           15 
 3944000   0.62549715   -5.1716387    1643.3553  0.034722687  0.033478154            7 
 3945000   0.62292739   -5.1832221    1640.4437   0.03465238  0.033469757           15 
 3946000   0.62900357   -5.1977446    1640.6573   0.03464811  0.033461382           19 
 3947000   0.62748527   -5.2156567     1637.608  0.034574952  0.033452902           21 
 3948000    0.6203722   -5.2193556    1639.7322   0.03461103   0.03344441            6 
 3949000   0.62156428   -5.1733434    1642.2884  0.034656207  0.033435962            8 
 3950000   0.62434205   -5.2036036    1638.6531  0.034570742  0.033427509           17 
 3951000   0.62617516   -5.1867148    1638.0171  0.034548577  0.033419115            8 
 3952000   0.63956016   -5.2074065    1635.3586  0.034483775  0.033410687           23 
 3953000   0.61339363   -5.1976078    1645.3395   0.03468546  0.033402287           13 
 3954000   0.62029338   -5.1864693    1641.2846  0.034591228  0.033393851           23 
 3955000   0.61980895     -5.18516     1645.019  0.034661168  0.033385434           11 
 3956000   0.61438145   -5.1763828    1641.3285  0.034574666  0.033377079           19 
 3957000    0.6347679   -5.1977778    1640.7242  0.034553201   0.03336874            3 
 3958000   0.61651991   -5.1833453    1643.9644  0.034612692  0.033360358            5 
 3959000   0.61222332   -5.1881762    1638.7446  0.034494076  0.033351974           13 
 3960000   0.63122291   -5.2079509    1640.0348  0.034512517  0.033343557            9 
 3961000     0.625307   -5.2101406    1638.1104  0.034463317   0.03333515            9 
 3962000   0.61311236   -5.2014333    1638.9951  0.034473226   0.03332674           27 
 3963000   0.61417988   -5.2078022    1638.6998  0.034458318  0.033318336           14 
 3964000   0.60045535    -5.217045    1640.9576   0.03449709  0.033309949            9 
 3965000   0.62713113    -5.175804    1640.5847  0.034480554  0.033301555           11 
 3966000   0.62917471   -5.1916977    1641.3352  0.034487629  0.033293222           15 
 3967000   0.61776748   -5.2043726    1637.8902  0.034406566  0.033284835            9 
 3968000    0.6170902   -5.2254904    1642.7669  0.034500314   0.03327644            4 
 3969000   0.61448599   -5.1928805    1643.3659  0.034504197  0.033268064           24 
 3970000   0.61773835   -5.2044681    1639.8693  0.034422109  0.033259657           12 
 3971000   0.62037858   -5.2107538    1638.1855  0.034378106  0.033251256           13 
 3972000   0.62386861   -5.1972331    1642.4864  0.034459684  0.033242846            9 
 3973000   0.60886646   -5.1965191    1642.8699  0.034459055  0.033234508           11 
 3974000   0.62310743   -5.2204449    1639.3637   0.03437686  0.033226099           11 
 3975000   0.62055834   -5.2007282    1640.4711  0.034391428  0.033217716           10 
 3976000    0.6169327   -5.2066323    1642.9023  0.034433734  0.033209326           21 
 3977000   0.61968461   -5.2196847    1641.0686  0.034386653  0.033200962           13 
 3978000   0.62206779   -5.1927354    1640.0264  0.034356176  0.033192601           22 
 3979000    0.6149724   -5.2087871    1641.5647  0.034379758  0.033184263           16 
 3980000   0.61122017   -5.2110784    1640.5595  0.034350073    0.0331759            7 
 3981000   0.62105303    -5.199902    1643.0081    0.0343927  0.033167532            7 
 3982000   0.60592072   -5.2082549    1638.8129  0.034296269  0.033159162           36 
 3983000   0.61907834   -5.2066526    1642.1734  0.034357967  0.033150816           14 
 3984000    0.6130773   -5.2064832    1642.8686  0.034363884  0.033142455            8 
 3985000   0.62427743   -5.1839891    1642.0395  0.034337923  0.033134116           11 
 3986000   0.61318301    -5.202513    1641.2118  0.034312005  0.033125795           13 
 3987000   0.60481681   -5.2115661    1639.5566  0.034268804  0.033117463           19 
 3988000   0.61397927   -5.1986057    1636.8913  0.034204517   0.03310911           10 
 3989000   0.61494084    -5.200707    1641.7029  0.034296459   0.03310076            9 
 3990000   0.61085765   -5.2035331    1640.1562   0.03425556  0.033092425           12 
 3991000   0.61380439   -5.2140911    1637.1749  0.034184726  0.033084068           16 
 3992000   0.61144647   -5.2151428    1642.3197  0.034283561  0.033075709           19 
 3993000   0.60404916      -5.2032    1646.7873  0.034368214  0.033067379           11 
 3994000   0.61018423   -5.2094219    1643.0914  0.034282495  0.033059055           12 
 3995000   0.62341917   -5.1902387    1644.7833  0.034309205  0.033050724            6 
 3996000   0.60994957   -5.1709213    1644.0557  0.034285445  0.033042467           12 
 3997000   0.61756512   -5.1997002    1642.0009  0.034234027  0.033034168           10 
 3998000   0.61538743   -5.2182087    1639.9518  0.034182753  0.033025859           11 
 3999000   0.60276393   -5.1990134    1644.4232  0.034267384  0.033017564           12 
 4000000   0.61590525   -5.2189897    1644.0999  0.034252081  0.033009257           15 
 4001000   0.61573275   -5.2095873    1645.1073  0.034264502    0.0330009           13 
 4002000   0.61740553   -5.2320079    1642.4096  0.034199767  0.032992547           13 
 4003000   0.60453656   -5.2156763    1644.0111  0.034224564  0.032984194           14 
 4004000   0.61714311   -5.2304371     1643.641  0.034208313  0.032975811           15 
 4005000   0.60711208   -5.2188162    1645.8444  0.034245618  0.032967525           11 
 4006000   0.61415777   -5.2188202    1642.4532  0.034166526  0.032959225            8 
 4007000   0.61710917   -5.2172177     1643.426   0.03417823  0.032950915           18 
 4008000   0.61932789    -5.213692    1646.7114  0.034238012  0.032942647           15 
 4009000   0.60868316    -5.193828      1646.61  0.034227363  0.032934342           10 
 4010000   0.61472945   -5.2561611    1644.1621  0.034167957  0.032926033            7 
 4011000   0.61099129   -5.2184999     1645.392  0.034184992  0.032917716            9 
 4012000   0.60600858   -5.2093367    1641.8937  0.034103808   0.03290943           23 
 4013000   0.60146807   -5.2032658    1645.7587  0.034175569  0.032901129           14 
 4014000   0.61565791   -5.2186334    1644.6731  0.034144517  0.032892849            7 
 4015000   0.59325233   -5.2078849    1645.3494  0.034150051  0.032884579           11 
 4016000   0.60073008   -5.2028618    1647.1867  0.034179671  0.032876341            7 
 4017000   0.60654151   -5.2218108    1642.6521  0.034077092  0.032868041           15 
 4018000   0.60712266   -5.2063332    1644.6543  0.034110136  0.032859792           13 
 4019000   0.59758656   -5.1984184    1646.5514  0.034140984  0.032851522           21 
 4020000   0.61079602   -5.2145611    1640.9822  0.034017045  0.032843229            9 
 4021000   0.60303925   -5.2243794    1641.5124  0.034019573  0.032834983           12 
 4022000    0.6150525   -5.2236768    1644.4645  0.034072279  0.032826685            6 
 4023000   0.62140323   -5.2129342    1643.5628  0.034045133  0.032818431           22 
 4024000   0.61577264   -5.2190062    1646.5201  0.034097916  0.032810212            8 
 4025000   0.59926188    -5.215096    1645.3042  0.034064269  0.032801978            9 
 4026000   0.62137189   -5.2146604      1644.09  0.034030676  0.032793706            9 
 4027000   0.61274854   -5.1957659    1647.6454  0.034095799  0.032785412           13 
 4028000   0.60912045   -5.2283858    1643.6707  0.034005105  0.032777134           15 
 4029000   0.59978175   -5.2208796    1640.7419  0.033936085  0.032768827            9 
 4030000   0.60513889   -5.2260393    1643.4534  0.033983734  0.032760494            8 
 4031000   0.60874978   -5.2124241    1641.0679  0.033925987  0.032752209            9 
 4032000   0.61279204   -5.2272133    1642.2818  0.033942664  0.032743908           18 
 4033000   0.61037057   -5.2265509    1644.2502   0.03397492  0.032735635           11 
 4034000   0.62446955   -5.2240562     1641.042  0.033900223  0.032727355           16 
 4035000   0.59976954   -5.2220348    1642.6573  0.033925182  0.032719089           11 
 4036000   0.62854563   -5.2368575    1641.4457  0.033891759  0.032710815           10 
 4037000   0.61785472   -5.2167527    1646.2582  0.033982707  0.032702523            9 
 4038000   0.60960775   -5.2205175    1643.4074  0.033915457  0.032694223           16 
 4039000   0.59310602   -5.2315996    1643.7059   0.03391322  0.032685959            5 
 4040000   0.61254693   -5.1920831    1645.6357  0.033944631  0.032677727           11 
 4041000   0.58602869   -5.2134395    1645.8856  0.033941385  0.032669524           11 
 4042000   0.59939423   -5.2163621    1647.8805  0.033974115  0.032661326           11 
 4043000   0.61251283   -5.1992146    1647.8591  0.033965272  0.032653176           10 
 4044000   0.60952667   -5.2115135    1646.3344  0.033925454  0.032644986           24 
 4045000   0.61167277   -5.2241689    1647.3672  0.033938343  0.032636762           10 
 4046000   0.60613327     -5.21271     1642.513  0.033829976  0.032628564           16 
 4047000   0.60382687   -5.2115115    1642.9364  0.033830335  0.032620287           15 
 4048000    0.6072155   -5.2294214    1639.5693  0.033752662   0.03261199           19 
 4049000    0.5992162   -5.2307414     1645.467  0.033865708  0.032603701           19 
 4050000   0.58404927   -5.2417327    1641.3469  0.033772571  0.032595422           31 
 4051000   0.60049006   -5.2002483    1643.8903  0.033816554   0.03258715            9 
 4052000   0.60172482   -5.2085177    1642.8267  0.033786333  0.032578899           16 
 4053000   0.59527233   -5.2345407    1648.0385  0.033885158  0.032570661            8 
 4054000   0.59829091   -5.2110373     1649.032   0.03389722  0.032562419           21 
 4055000   0.60197158   -5.2301793    1643.0354  0.033765626  0.032554184           14 
 4056000   0.60618977   -5.2242672    1647.3407  0.033845756  0.032545919           27 
 4057000   0.60008421   -5.2411148    1643.5875  0.033760321  0.032537672           39 
 4058000   0.60310977   -5.2210179    1646.9625   0.03382131  0.032529412           11 
 4059000    0.6073185   -5.2140761    1643.3397  0.033738599  0.032521181           15 
 4060000   0.60139915   -5.2209852    1648.0391  0.033826746  0.032512966           11 
 4061000   0.60062181   -5.2400238     1646.661  0.033790137  0.032504775           48 
 4062000    0.6075179   -5.2211862    1646.8047  0.033784768  0.032496587           17 
 4063000   0.58207227   -5.2377024    1645.0535  0.033740534  0.032488352           10 
 4064000   0.60682702   -5.2477672    1641.8487  0.033666516  0.032480103           15 
 4065000   0.60685085   -5.2221354     1642.623  0.033674107  0.032471813           12 
 4066000   0.60782256   -5.2315824    1644.3596  0.033701418  0.032463556           25 
 4067000   0.59831224   -5.2704683    1643.2641  0.033670686  0.032455285           27 
 4068000   0.60047611   -5.2399515    1644.6003   0.03368978  0.032447008           11 
 4069000    0.6091186   -5.2514403    1643.1222  0.033651228   0.03243876           10 
 4070000   0.59396059   -5.2473783    1646.1334  0.033704615  0.032430495           10 
 4071000   0.60906701   -5.2359025     1644.266   0.03365811  0.032422238            7 
 4072000   0.60133755   -5.2393646    1646.4798   0.03369515  0.032413991           10 
 4073000   0.59567178   -5.2333434    1642.5441  0.033606352  0.032405765           28 
 4074000    0.5913855   -5.2418113    1644.3177  0.033634383  0.032397518            7 
 4075000   0.60343513   -5.2354075    1644.4726  0.033629296  0.032389257           16 
 4076000    0.5970535   -5.2516735    1643.2915  0.033596898  0.032381018           26 
 4077000   0.58967112    -5.263111    1643.7732  0.033598504   0.03237272           12 
 4078000   0.61392426   -5.2521446    1649.1926  0.033701009  0.032364466           15 
 4079000   0.60764075    -5.245279    1643.5106  0.033576665  0.032356243           15 
 4080000   0.59378081   -5.2352168    1649.2723  0.033686118  0.032348028            9 
 4081000   0.60886618   -5.2170826    1645.4657  0.033600133  0.032339833            4 
 4082000   0.59574377   -5.2351524    1646.5957  0.033614971  0.032331657            7 
 4083000   0.60572651   -5.2368109    1644.4663  0.033563276   0.03232348           10 
 4084000   0.59829182   -5.2256131    1644.2064  0.033549754  0.032315282           10 
 4085000   0.59956612   -5.2317994    1644.2473  0.033542377  0.032307092           18 
 4086000   0.59654125   -5.2306457    1648.3918  0.033618695  0.032298899           17 
 4087000   0.60036402   -5.2325503    1646.2452    0.0335667  0.032290703           21 
 4088000   0.60431044   -5.2305509    1647.6873  0.033587885  0.032282507           23 
 4089000   0.60119485   -5.2535523    1646.5844  0.033557193  0.032274282           63 
 4090000   0.60469953   -5.2452511    1644.4122  0.033504732  0.032266051           28 
 4091000   0.59837838   -5.2510566    1644.3581  0.033495438  0.032257836           22 
 4092000   0.59025985   -5.2401758    1644.4757  0.033489649  0.032249618           21 
 4093000   0.58740738   -5.2425977    1641.5237  0.033421365  0.032241434           29 
 4094000   0.60016087   -5.2477426    1646.2441  0.033509284  0.032233255           13 
 4095000   0.59249681   -5.2466343    1648.0618  0.033538092  0.032225102            8 
 4096000   0.61055005   -5.2357021    1647.8832  0.033526269  0.032216914           10 
 4097000   0.58558609   -5.2529477    1649.9455  0.033560034  0.032208757            5 
 4098000   0.60564987   -5.2250462    1645.6306    0.0334641    0.0322006           15 
 4099000    0.5954603   -5.2455257    1646.2231  0.033467983  0.032192437           24 
 4100000   0.58488308   -5.2425658    1644.2393  0.033419499  0.032184251           12 
 4101000   0.59141315    -5.252956    1643.8194  0.033402816  0.032176062           12 
 4102000    0.5844487   -5.2517931    1645.4864  0.033428539  0.032167844           23 
 4103000   0.59550044   -5.2412524    1646.5734  0.033442468  0.032159679           12 
 4104000   0.58934566   -5.2275389    1646.4802  0.033432428  0.032151542           37 
 4105000   0.60555374   -5.2594393    1645.3634  0.033401611  0.032143382           29 
 4106000   0.58754553   -5.2422858     1649.582  0.033479095   0.03213522           30 
 4107000   0.58992091   -5.2383176    1649.5764   0.03347083  0.032127064           20 
 4108000   0.58820263   -5.2536974    1645.1867  0.033373635  0.032118888           14 
 4109000   0.58972534   -5.2594901    1646.0987  0.033384009  0.032110712           30 
 4110000   0.59025741   -5.2427654    1650.4827  0.033464774   0.03210252           14 
 4111000   0.61187236   -5.2347374    1646.9722  0.033385473  0.032094372           21 
 4112000   0.59096468   -5.2484826    1645.6403  0.033350363  0.032086246           41 
 4113000   0.59079066   -5.2638502    1650.0557  0.033431715  0.032078124            8 
 4114000   0.60109813   -5.2699828    1645.9538  0.033340501  0.032069992           14 
 4115000   0.58948098   -5.2431814    1651.2069  0.033438778  0.032061863            7 
 4116000   0.58841872   -5.2629304    1642.8973  0.033262417  0.032053742            8 
 4117000   0.58164362   -5.2595677    1645.8778  0.033314666  0.032045594           11 
 4118000   0.59233316   -5.2481647    1652.1772  0.033434053  0.032037473           10 
 4119000   0.59549422   -5.2495968    1649.1822  0.033365344  0.032029365            8 
 4120000   0.59263793   -5.2672239         1646   0.03329288  0.032021241           36 
 4121000   0.60146474   -5.2640534    1645.2719  0.033270079   0.03201309           39 
 4122000   0.60386701   -5.2696156    1646.9897  0.033296735  0.032004941           24 
 4123000   0.58843423   -5.2495842    1650.1659  0.033352856  0.031996807            9 
 4124000   0.58675672   -5.2488533    1652.4944   0.03339182  0.031988679           13 
 4125000   0.59406616    -5.258101    1646.4429  0.033261473  0.031980567           43 
 4126000   0.59737211    -5.243435    1642.1975  0.033167666  0.031972447           62 
 4127000    0.5777579   -5.2764657    1649.1767  0.033300555  0.031964306           80 
 4128000   0.57972099   -5.2619732     1643.314  0.033174137  0.031956129           75 
 4129000   0.57448156    -5.263608    1643.8641  0.033177203  0.031947926           46 
 4130000   0.59468771   -5.2620945    1646.7189  0.033226773  0.031939737           28 
 4131000     0.586443   -5.2543409    1646.9705  0.033223806  0.031931628           14 
 4132000   0.57853834   -5.2684074    1646.3174  0.033202594   0.03192351           14 
 4133000   0.58856152   -5.2626388    1648.3769  0.033236086   0.03191534           10 
 4134000   0.60123339   -5.2686544     1649.094  0.033242502  0.031907218           14 
 4135000   0.59917506   -5.2751675       1646.9  0.033190246  0.031899119           12 
 4136000   0.59639787   -5.2544427    1645.9379  0.033162836  0.031891033            9 
 4137000   0.60569066   -5.2679947    1648.2677  0.033201751  0.031882937            8 
 4138000   0.58144424   -5.2560868    1646.8924   0.03316603  0.031874873           26 
 4139000   0.58919315   -5.2723477     1645.156  0.033123057  0.031866738            6 
 4140000   0.60344997    -5.253368    1648.7629  0.033187659  0.031858657           18 
 4141000   0.59964472   -5.2468198    1648.7413   0.03317921  0.031850573           18 
 4142000    0.5971393   -5.2529978     1649.709  0.033190668  0.031842481           15 
 4143000   0.58206011   -5.2642941    1650.1796  0.033192124  0.031834372           24 
 4144000   0.58014545   -5.2443316    1651.2559  0.033205758  0.031826279           13 
 4145000   0.58971078   -5.2666563    1648.3344  0.033139011  0.031818192           15 
 4146000   0.58533512   -5.2614789    1645.9956  0.033084008  0.031810079           10 
 4147000   0.58524644   -5.2526282    1647.5862  0.033107995  0.031801982            9 
 4148000   0.58370007   -5.2728379    1648.0912  0.033110158   0.03179389           15 
 4149000   0.59386045   -5.2591113    1650.6936  0.033154447  0.031785831           19 
 4150000   0.58777143   -5.2566195    1644.1992  0.033016048  0.031777721           14 
 4151000   0.59543072   -5.2537363    1650.5817  0.033136225  0.031769636           20 
 4152000   0.57761098   -5.2612223     1650.194  0.033120464  0.031761537           15 
 4153000   0.59357923   -5.2476299     1650.514   0.03311891  0.031753445            8 
 4154000   0.57809975   -5.2544036    1647.3791  0.033048047  0.031745354           11 
 4155000   0.58809939     -5.28481    1652.5839  0.033144482   0.03173722           13 
 4156000   0.58932805   -5.2801861     1649.616  0.033076997   0.03172912           29 
 4157000   0.58391354   -5.2777063    1649.2878   0.03306246  0.031721037           21 
 4158000   0.59939793   -5.2696676    1647.7977  0.033024645  0.031712921           14 
 4159000    0.5775982   -5.2819371    1646.3319  0.032987336  0.031704814           21 
 4160000   0.59318975   -5.2572688    1650.2774  0.033058442  0.031696708           15 
 4161000    0.5823803    -5.260956    1651.2376  0.033069726  0.031688642           10 
 4162000   0.58825799   -5.2670279    1649.3724  0.033024436  0.031680558           20 
 4163000   0.59392691   -5.2730123    1647.5757  0.032980536  0.031672471           15 
 4164000   0.58255541    -5.258182    1648.2407  0.032985926  0.031664421           35 
 4165000   0.58715034   -5.2748984    1650.1098  0.033015402  0.031656341           27 
 4166000   0.59007243   -5.2562997    1655.4265  0.033113829  0.031648297           14 
 4167000   0.58545699   -5.2703074    1647.9554  0.032956472  0.031640241           19 
 4168000   0.57533163   -5.2665384    1650.5712  0.033000863   0.03163219           10 
 4169000   0.58861632     -5.25228     1647.949  0.032940533  0.031624134           14 
 4170000   0.56850817   -5.2654321    1650.9884  0.032993374  0.031616068           24 
 4171000    0.5901556   -5.2702674    1649.3431  0.032952592  0.031608015            8 
 4172000   0.58677974   -5.2552447    1650.1236  0.032960283  0.031599934           26 
 4173000   0.58932552   -5.2589146    1647.0865  0.032891736  0.031591884            9 
 4174000   0.59691596   -5.2711385    1649.3514  0.032929074  0.031583849           29 
 4175000   0.58635336   -5.2477273    1652.0301  0.032974652  0.031575798           15 
 4176000   0.58500351   -5.2716863    1648.3137  0.032892594  0.031567729           13 
 4177000   0.58876519   -5.2675728    1649.1444  0.032901292  0.031559663           27 
 4178000   0.57059983   -5.2464389    1652.1076  0.032952522  0.031551601            9 
 4179000   0.59061434   -5.2796363    1646.4149  0.032831117   0.03154354           14 
 4180000   0.57821201   -5.2838084    1651.7024  0.032928676  0.031535457           24 
 4181000   0.58563292   -5.2739816    1649.8242  0.032883366  0.031527333           16 
 4182000   0.57217254   -5.2690277    1647.9218  0.032837595  0.031519209           20 
 4183000   0.58432417   -5.2669677    1648.1641  0.032834571  0.031511111           14 
 4184000   0.57616489   -5.2719046    1651.0501  0.032884203  0.031503082            9 
 4185000   0.58668573   -5.2734679    1647.5423  0.032806497  0.031495025           14 
 4186000   0.59017379   -5.2747071    1648.8242   0.03282418  0.031486984           30 
 4187000   0.58647242   -5.2657011    1648.8842  0.032817534  0.031478938           11 
 4188000   0.59020684    -5.262019    1648.4302  0.032800665  0.031470902            9 
 4189000   0.58728063   -5.2854851     1645.577  0.032736075  0.031462834           12 
 4190000   0.57114386   -5.2749113    1652.1551  0.032859092  0.031454779           19 
 4191000   0.58277798   -5.2724175    1643.6502  0.032682141  0.031446711           27 
 4192000   0.58085624   -5.2900345    1649.0249  0.032781189  0.031438618           19 
 4193000   0.59107912   -5.2997633     1648.231  0.032757592   0.03143053           33 
 4194000   0.59137575   -5.2727426    1649.6906  0.032778784  0.031422444           12 
 4195000   0.57717585   -5.2908994    1650.8677  0.032794352  0.031414393           27 
 4196000   0.58852157   -5.2987045    1647.9619  0.032728828  0.031406283           21 
 4197000    0.5820045   -5.2998349    1644.4104  0.032650512  0.031398139           38 
 4198000   0.58778103   -5.3134276    1645.3425  0.032661238  0.031389976           33 
 4199000   0.58345429   -5.2589712    1652.7593  0.032800652  0.031381845           24 
 4200000   0.58191941   -5.2955558    1643.0395   0.03259999  0.031373746           20 
 4201000   0.58198484   -5.2607206    1648.6302   0.03270313  0.031365657           61 
 4202000   0.59496339   -5.2722026    1647.7118  0.032677134  0.031357563           56 
 4203000   0.57893545   -5.2580478    1649.3973  0.032702778  0.031349547           42 
 4204000   0.59645699   -5.2786947    1650.0146  0.032707235  0.031341561           13 
 4205000   0.58650432   -5.2549709    1644.5179  0.032590525  0.031333473           12 
 4206000    0.5708068   -5.2768961    1646.9632  0.032631225  0.031325375           10 
 4207000   0.57189694   -5.2847878    1648.2183   0.03264833  0.031317289           41 
 4208000   0.57816906   -5.2957491    1643.7036  0.032551165  0.031309214           41 
 4209000   0.56834354   -5.2891772    1646.4106  0.032597025  0.031301142           22 
 4210000   0.58020151   -5.2810589     1648.791  0.032636402  0.031293065           17 
 4211000   0.57964612   -5.2726231    1644.7255  0.032548197  0.031284977           41 
 4212000   0.57612239   -5.2956512    1647.4907  0.032595178  0.031276901           13 
 4213000   0.59056604   -5.2863012     1649.911  0.032635315  0.031268799           11 
 4214000   0.56794191   -5.2981904    1649.6587  0.032622582  0.031260735           15 
 4215000   0.57339513   -5.3007714    1648.4673  0.032591288  0.031252632           26 
 4216000   0.57366916   -5.2892447    1646.8313  0.032551219  0.031244568           10 
 4217000   0.57628447    -5.270716    1648.7875  0.032582158  0.031236537            9 
 4218000   0.57830499   -5.3029368    1648.8543  0.032575753  0.031228478           33 
 4219000   0.59375779   -5.2911641    1644.9593  0.032491098  0.031220381           29 
 4220000   0.56770182   -5.3202746    1646.3944  0.032511737  0.031212289           11 
 4221000   0.57967043   -5.2894917    1648.3074  0.032541803  0.031204204           17 
 4222000    0.5748482    -5.301585    1646.9178  0.032506668  0.031196176           35 
 4223000   0.56888441   -5.2713185    1649.0139  0.032540333   0.03118818           14 
 4224000   0.58067054   -5.2580272    1650.0761  0.032553586  0.031180179           12 
 4225000   0.57041507   -5.2816402    1645.5149  0.032455915  0.031172161           12 
 4226000    0.5688848   -5.2855089     1651.753  0.032571245  0.031164137           18 
 4227000   0.57767053   -5.2886465     1645.477  0.032439811  0.031156116           12 
 4228000   0.56679804   -5.2733977     1645.938  0.032441226  0.031148094           15 
 4229000   0.56763496   -5.2865663     1652.241  0.032557756  0.031140092           20 
 4230000   0.57694326   -5.2912229     1648.498   0.03247632  0.031132104           15 
 4231000   0.57277476   -5.2829605    1648.5308  0.032469289  0.031124129           13 
 4232000   0.56868888   -5.2577787    1648.4608  0.032460239  0.031116166           14 
 4233000   0.56879103   -5.2876796    1645.5042  0.032394366  0.031108145           12 
 4234000   0.56616345   -5.2826126    1653.2981  0.032540113  0.031100142           21 
 4235000   0.57242054   -5.2795561     1651.743  0.032501829  0.031092154           28 
 4236000   0.56395491   -5.2748646    1647.2595  0.032405954  0.031084189           17 
 4237000   0.57391338   -5.2869133    1648.2612  0.032418009  0.031076173           14 
 4238000   0.57370662   -5.2901426    1646.9091  0.032383771  0.031068164           17 
 4239000   0.58104284   -5.2883193    1649.7279  0.032431547  0.031060168           16 
 4240000   0.57792118   -5.2912786    1649.3933  0.032417321  0.031052175           34 
 4241000   0.57765482   -5.2988043    1649.2385  0.032406635  0.031044158           11 
 4242000   0.56927877   -5.2843827    1650.5079  0.032423932  0.031036181           15 
 4243000   0.57812596   -5.2894384    1649.0761  0.032388171  0.031028201           26 
 4244000   0.58263895   -5.2796978    1659.2797  0.032580892  0.031020242           25 
 4245000   0.57845723   -5.2789841    1649.0384  0.032372171  0.031012298           20 
 4246000   0.57121562   -5.3008344     1648.044  0.032345031  0.031004291           27 
 4247000   0.57299931   -5.3165499    1650.2829  0.032381346  0.030996266           18 
 4248000   0.56710907   -5.3196208    1649.4789  0.032357952  0.030988227           17 
 4249000   0.57088458     -5.32047    1642.9871  0.032223015  0.030980212           15 
 4250000   0.56826577   -5.2835067    1654.7512  0.032446101  0.030972221           14 
 4251000   0.57063672   -5.2944163    1649.6356  0.032338187   0.03096424            9 
 4252000   0.56335995   -5.2985691     1651.444  0.032366024  0.030956273           20 
 4253000   0.57014422   -5.2910962    1651.6643   0.03236273  0.030948313           23 
 4254000   0.57380962    -5.304003    1649.8608  0.032319793  0.030940348            9 
 4255000   0.58689919   -5.2965699    1651.1426  0.032337301  0.030932382           15 
 4256000   0.56948484   -5.2935493    1652.2656  0.032351692   0.03092443           40 
 4257000   0.55997441   -5.2880043    1650.4907  0.032309348  0.030916472           21 
 4258000   0.58378939   -5.3137182    1647.5786  0.032244768  0.030908476           24 
 4259000   0.57182941   -5.3095447     1649.509  0.032274966  0.030900548           23 
 4260000     0.563983   -5.3135753    1652.0391  0.032316884  0.030892616           16 
 4261000   0.57500429   -5.2971505    1653.7606  0.032342967  0.030884683            9 
 4262000   0.56808943   -5.2844579    1653.0108  0.032320719    0.0308768           14 
 4263000   0.57834623   -5.2708818    1653.2558  0.032317926  0.030868901           14 
 4264000   0.56926727   -5.2974689    1648.9064  0.032225344   0.03086099           13 
 4265000   0.56583815   -5.2915721    1652.3189  0.032284465  0.030853049           11 
 4266000   0.56782303   -5.3244603    1651.6126  0.032263099  0.030845108           21 
 4267000    0.5653318    -5.299729    1643.2713  0.032092636  0.030837146           27 
 4268000    0.5604501   -5.3246729    1647.7476  0.032172517  0.030829147           28 
 4269000   0.56627896   -5.3265941    1649.6008  0.032201156  0.030821155           16 
 4270000   0.56485886   -5.3081974    1645.6837  0.032117168   0.03081318           20 
 4271000   0.56399963   -5.3162946    1648.1313  0.032157405  0.030805199           11 
 4272000   0.56025549   -5.3124466    1650.2686  0.032191569  0.030797236           17 
 4273000   0.58183238   -5.3285433    1645.2884  0.032086911  0.030789251            7 
 4274000   0.55603374   -5.3175769    1648.1294  0.032134795  0.030781287           14 
 4275000   0.56640124    -5.315695    1652.1735  0.032206112  0.030773314           16 
 4276000   0.57531791   -5.3160257    1651.6351  0.032188087  0.030765349           34 
 4277000    0.5618219    -5.329044    1649.6541  0.032141963  0.030757365           18 
 4278000    0.5704896   -5.3431906    1648.8535  0.032118854  0.030749387           19 
 4279000    0.5504491   -5.3156651    1646.6404  0.032068249  0.030741404           21 
 4280000   0.56418429   -5.3374001    1650.5805   0.03213747  0.030733422           24 
 4281000    0.5806019   -5.3139413    1649.2003  0.032103097  0.030725445           13 
 4282000   0.55334244   -5.2973909    1648.4604  0.032081201   0.03071749           20 
 4283000   0.58070063   -5.2942064    1647.7335  0.032059567  0.030709595           18 
 4284000   0.56024282   -5.2996962    1652.3636   0.03214215  0.030701694           18 
 4285000   0.56170387   -5.2989309    1653.2065   0.03215104  0.030693793           22 
 4286000   0.56384799    -5.304619     1653.746  0.032154028  0.030685884            8 
 4287000   0.57640494   -5.2839593    1649.9018  0.032071803  0.030678009           13 
 4288000   0.55549371    -5.307742    1645.5871  0.031980471  0.030670089           16 
 4289000    0.5685049   -5.2978354    1651.0022  0.032078228  0.030662165           12 
 4290000   0.56267161   -5.3034244    1651.0414   0.03207151  0.030654246           32 
 4291000   0.55980883   -5.2997297    1651.4336  0.032071653  0.030646338           10 
 4292000   0.56901886   -5.3235955    1648.6786   0.03201069  0.030638403           18 
 4293000   0.56418366   -5.3129698    1648.7411  0.032004448  0.030630456           27 
 4294000   0.55875878    -5.311381    1652.4121  0.032068236  0.030622549           22 
 4295000   0.56391205   -5.3030743    1653.3718  0.032079391  0.030614641           12 
 4296000   0.55943532   -5.3046729    1652.4547  0.032054133  0.030606739            8 
 4297000   0.58266604   -5.3141167    1649.0526  0.031980695  0.030598819           20 
 4298000    0.5474768   -5.3050301    1652.9731   0.03204927   0.03059092           20 
 4299000   0.56200343    -5.318058    1650.6267  0.031996331  0.030583007           13 
 4300000   0.56245952   -5.3275581    1649.7551  0.031971998  0.030575092           19 
 4301000   0.56526478   -5.3249852    1650.6632  0.031982159  0.030567167            8 
 4302000   0.56957375    -5.334862    1646.5374  0.031894804  0.030559245           19 
 4303000    0.5586945   -5.3192381    1647.1495  0.031899247  0.030551313            9 
 4304000   0.56866646   -5.3128641    1648.2534  0.031913208  0.030543375           30 
 4305000   0.56665314   -5.3336349      1653.54  0.032008131  0.030535458           15 
 4306000   0.56214545    -5.339193    1649.3869  0.031920322  0.030527537           25 
 4307000   0.56796628   -5.3195767    1651.0709  0.031945494   0.03051962           13 
 4308000   0.56976706   -5.3176452    1649.4023  0.031905802  0.030511734            9 
 4309000   0.56559905   -5.3209069    1652.8624  0.031965314  0.030503844           20 
 4310000   0.55737006   -5.3428575    1646.1563  0.031828235  0.030495905           11 
 4311000    0.5758065   -5.3147024    1647.4481  0.031845822  0.030487986           15 
 4312000   0.55798095   -5.3442199    1648.2467  0.031853871  0.030480051           37 
 4313000   0.56153163   -5.3188026    1647.9065  0.031839912  0.030472107           48 
 4314000   0.56808487   -5.3321868    1650.0146  0.031873253  0.030464177           27 
 4315000   0.55372844   -5.3511603    1647.4303  0.031815958  0.030456246           26 
 4316000    0.5548579   -5.3163122    1646.9872  0.031800031   0.03044832           16 
 4317000   0.55626755   -5.3198061    1653.2277  0.031913128  0.030440405           46 
 4318000    0.5611896   -5.3321315    1650.4312  0.031851768  0.030432471           20 
 4319000   0.56142593   -5.3284182    1650.4414  0.031844589  0.030424545           25 
 4320000   0.56303205   -5.3356987    1652.1414  0.031870012   0.03041662           30 
 4321000   0.56071243   -5.3201112    1647.0473  0.031764392  0.030408698           21 
 4322000   0.56827031   -5.3219043    1648.3398  0.031781964  0.030400815           17 
 4323000   0.56447081    -5.313918    1650.5271  0.031816777  0.030392953           32 
 4324000    0.5578902   -5.3103518    1649.4368  0.031788406  0.030385068           15 
 4325000   0.56171608   -5.3349961    1647.0671  0.031735397  0.030377192           10 
 4326000   0.56135952   -5.3327205    1650.2587  0.031789543  0.030369312           28 
 4327000   0.54549365   -5.3212602    1650.2719   0.03178245  0.030361453           14 
 4328000   0.56428734   -5.3299786    1648.7012  0.031744862  0.030353558           20 
 4329000   0.55634687   -5.3283218    1651.5183  0.031791759  0.030345674           21 
 4330000   0.55482867   -5.3218255    1649.9262  0.031753775  0.030337782           14 
 4331000   0.56607078    -5.329054    1650.6819  0.031760984  0.030329897           15 
 4332000   0.55837864   -5.3250893    1650.9575  0.031758954  0.030322004           15 
 4333000   0.54850953    -5.335052    1647.0957  0.031677355  0.030314083            8 
 4334000   0.54886359    -5.335918    1651.9929  0.031764207  0.030306183           15 
 4335000   0.55322456   -5.3251382    1651.9386  0.031755837   0.03029832           14 
 4336000   0.56495929   -5.3349206    1651.8705  0.031747203   0.03029045           22 
 4337000   0.56631352   -5.3280162     1648.751  0.031679943  0.030282553           11 
 4338000    0.5479434   -5.3385697    1648.9814  0.031677066  0.030274672           12 
 4339000   0.55447085   -5.3451016    1651.0599  0.031709685  0.030266787           17 
 4340000   0.56737236   -5.3157305    1651.9532  0.031719531  0.030258946           40 
 4341000   0.55298174    -5.335382    1653.4458  0.031740879  0.030251098            9 
 4342000   0.55970262   -5.3232674    1651.1703  0.031689895   0.03024324           11 
 4343000   0.56955004   -5.3306129    1648.3808  0.031629074  0.030235372            5 
 4344000   0.55621384   -5.3582505    1648.9166  0.031632071   0.03022749           15 
 4345000   0.54920779   -5.3323065    1653.5264  0.031713202  0.030219649           20 
 4346000    0.5607175   -5.3335434    1651.3224  0.031663645  0.030211798           17 
 4347000   0.55695115   -5.3381566     1652.048   0.03167027  0.030203933            9 
 4348000   0.55747676   -5.3485963    1650.8216  0.031639481   0.03019606           13 
 4349000   0.54605286   -5.3326264    1651.2692  0.031640784  0.030188184           11 
 4350000   0.54650639    -5.325503    1650.1877  0.031612792  0.030180307           18 
 4351000   0.55349429    -5.347002    1650.3567  0.031608763  0.030172426           39 
 4352000   0.55836335   -5.3301301    1650.7886  0.031609769  0.030164562           26 
 4353000   0.55052339   -5.3265304    1647.5469  0.031540449  0.030156692           10 
 4354000   0.54529151   -5.3336561    1652.4509  0.031627064  0.030148864           15 
 4355000   0.54667742   -5.3517195    1650.2178  0.031577072  0.030141022           19 
 4356000    0.5559149   -5.3450853    1652.9114  0.031621355  0.030133158           14 
 4357000   0.56514325    -5.328087    1650.9944  0.031577432  0.030125298           15 
 4358000   0.54834212   -5.3268984    1650.7922  0.031566319  0.030117485           12 
 4359000   0.55402017   -5.3199284    1651.1875  0.031566635  0.030109654           14 
 4360000   0.55801989   -5.3411517    1647.8897  0.031496362  0.030101828           11 
 4361000   0.55436467   -5.3471529    1649.7648  0.031524972  0.030093986           19 
 4362000   0.55470475   -5.3392305    1648.4658  0.031492928  0.030086171            9 
 4363000   0.54927836   -5.3243854    1649.9993     0.031515  0.030078344           17 
 4364000   0.55387968   -5.3282816    1650.1331  0.031510333  0.030070508           14 
 4365000   0.55194292   -5.3360538    1653.1296  0.031560321  0.030062679           18 
 4366000   0.56404943   -5.3317347    1649.0869   0.03147593  0.030054873           44 
 4367000   0.56481963   -5.3335642     1651.073  0.031506621  0.030047043           32 
 4368000   0.54770172   -5.3262602    1653.4591   0.03154493  0.030039246           35 
 4369000   0.54871972   -5.3417944    1649.5975  0.031464055   0.03003146           30 
 4370000   0.55941543   -5.3334133    1652.9968  0.031521678  0.030023668           12 
 4371000   0.54740828   -5.3551728    1650.6842  0.031470377  0.030015878           12 
 4372000   0.56086954   -5.3507599    1652.0689  0.031489572  0.030008093           12 
 4373000   0.54348367   -5.3488102    1652.0558  0.031482121  0.030000285           12 
 4374000   0.55961331   -5.3480643    1649.1077  0.031418757  0.029992451           15 
 4375000   0.54980503   -5.3449374      1651.64  0.031459809  0.029984618           37 
 4376000   0.55253737   -5.3482636    1651.7586  0.031454879  0.029976796           19 
 4377000   0.55051405   -5.3379514    1651.5498  0.031443717  0.029968994           43 
 4378000   0.54884038   -5.3278821    1652.4703  0.031454057    0.0299612           25 
 4379000   0.53848323   -5.3404021    1652.6562  0.031450411   0.02995342           21 
 4380000   0.56178977   -5.3573794     1650.005   0.03139279  0.029945639           20 
 4381000   0.54972639   -5.3533011    1650.2199  0.031389711  0.029937872           24 
 4382000   0.53993064   -5.3506549    1650.9847  0.031397092  0.029930083           39 
 4383000   0.55552813   -5.3402885    1651.6328  0.031402251    0.0299223           53 
 4384000   0.54754616   -5.3553412    1654.1308  0.031442571  0.029914494           35 
 4385000   0.54833877   -5.3546241    1651.7078  0.031389354  0.029906697           31 
 4386000   0.54199713   -5.3571126    1651.8681  0.031385243  0.029898904           20 
 4387000   0.55452398   -5.3407712    1647.0121  0.031285846  0.029891125           21 
 4388000   0.54393677    -5.355851    1653.4117  0.031400252   0.02988335            9 
 4389000   0.54855963   -5.3593777    1650.7105  0.031341811  0.029875572           16 
 4390000   0.54049061   -5.3507528    1651.9867  0.031358897  0.029867791           21 
 4391000   0.55202372   -5.3651248     1649.341  0.031301544  0.029860002           25 
 4392000   0.55580853   -5.3280719    1653.8511  0.031379992  0.029852244           14 
 4393000   0.55785506   -5.3454525    1652.7442  0.031351851  0.029844492           29 
 4394000   0.53900898   -5.3394258    1656.4562  0.031415116  0.029836755           12 
 4395000   0.55614653   -5.3364607    1654.1151  0.031363579   0.02982903           25 
 4396000   0.55765768   -5.3452331    1654.3976  0.031361799  0.029821294           53 
 4397000   0.56203762   -5.3736499    1650.9257  0.031288865  0.029813529           40 
 4398000   0.55520862   -5.3499444    1653.3408  0.031327512  0.029805738           14 
 4399000   0.54778499   -5.3540069    1653.1495  0.031316766  0.029797993           27 
 4400000   0.54276394   -5.3723518    1649.2031  0.031234906  0.029790217           61 
 4401000   0.54123393   -5.3786824    1653.6129   0.03131131  0.029782429           66 
 4402000   0.53346416   -5.3599446    1652.8018  0.031288842  0.029774643           18 
 4403000   0.54081773   -5.3414887    1650.2161  0.031232798  0.029766847           40 
 4404000   0.54466099   -5.3703109    1648.4279  0.031191869  0.029759046           35 
 4405000   0.53458394   -5.3742997    1647.8883  0.031174579  0.029751248           33 
 4406000     0.548435   -5.3638962    1650.9264  0.031224966  0.029743469           22 
 4407000   0.54932403   -5.3718996    1653.3475  0.031263662  0.029735659           29 
 4408000   0.55393358   -5.3705694    1653.6443  0.031262181  0.029727865           28 
 4409000   0.56375168   -5.3613682    1654.6543   0.03127418  0.029720094           26 
 4410000   0.55395846   -5.3630306    1648.6356  0.031153355   0.02971233           17 
 4411000    0.5573566   -5.3742692    1647.3769  0.031122514  0.029704567           43 
 4412000   0.54762869    -5.355011    1654.9877  0.031259212  0.029696788           14 
 4413000   0.54453347   -5.3613303    1648.5304  0.031130191  0.029689049           28 
 4414000   0.54747545   -5.3689825    1650.0385   0.03115161  0.029681301           26 
 4415000   0.54781863   -5.3714626    1655.4934  0.031247517  0.029673536           33 
 4416000   0.53347318   -5.3510651    1651.1143  0.031157804  0.029665758           53 
 4417000    0.5566061   -5.3878043    1647.9817  0.031091649  0.029657982           35 
 4418000    0.5475315   -5.3723947    1652.4103  0.031168144  0.029650192           33 
 4419000    0.5381263   -5.3695187    1651.5053  0.031144024  0.029642447           35 
 4420000   0.54598576   -5.3560832    1651.3535  0.031134117    0.0296347           30 
 4421000   0.54199237   -5.3594845    1652.8381  0.031155057  0.029626937           37 
 4422000   0.55101515   -5.3778988    1653.7006  0.031164267  0.029619178           22 
 4423000   0.54774574   -5.3577753    1650.5895  0.031098603  0.029611459           63 
 4424000   0.54718756   -5.3735772    1651.7092  0.031112666  0.029603749           26 
 4425000   0.54546686   -5.3520998    1653.7128  0.031143367  0.029596026           15 
 4426000   0.54362653   -5.3561193    1651.4578  0.031093874  0.029588321           23 
 4427000    0.5450075   -5.3729811    1652.4486    0.0311055  0.029580607           26 
 4428000   0.54621179   -5.3790024    1652.4373  0.031098264  0.029572921           38 
 4429000   0.54586355   -5.3482072    1648.8574  0.031023884  0.029565226           41 
 4430000   0.55222586   -5.3657833    1651.5698  0.031067905  0.029557518           16 
 4431000   0.55478242   -5.3676064    1653.7283  0.031101487  0.029549809           19 
 4432000    0.5452217    -5.373717    1651.3785  0.031050288  0.029542105           22 
 4433000   0.53815889    -5.359578    1653.2795  0.031079018  0.029534375           41 
 4434000   0.54032361   -5.3594161    1652.0638  0.031049161  0.029526654           19 
 4435000    0.5374786   -5.3753302    1653.2458   0.03106437  0.029518964           20 
 4436000    0.5343732   -5.3514071    1653.4084  0.031060422  0.029511264           32 
 4437000    0.5489604   -5.3528473    1651.5419  0.031018366  0.029503555           34 
 4438000   0.53746773   -5.3604544    1649.4261  0.030971649  0.029495875           23 
 4439000   0.55187415   -5.3825314    1650.0628  0.030976623  0.029488171           34 
 4440000   0.55341849   -5.3683319    1653.3572  0.031031479  0.029480487           26 
 4441000   0.54221131   -5.3559539    1653.0574  0.031018866  0.029472832           55 
 4442000   0.52973397   -5.3699459    1654.4875  0.031038712  0.029465176           23 
 4443000   0.54398805   -5.3860975    1650.5733  0.030958311   0.02945751           37 
 4444000   0.54802471   -5.3731998    1653.7119  0.031010199  0.029449837           22 
 4445000   0.53426514   -5.3705002    1649.8284  0.030930416  0.029442172           28 
 4446000   0.54219886   -5.3600092    1653.4426  0.030991201  0.029434497           22 
 4447000   0.55136658    -5.361726    1655.2255  0.031017642   0.02942687           38 
 4448000   0.54872984   -5.3584162    1651.8728  0.030947857   0.02941922           39 
 4449000    0.5460624   -5.3864475    1653.2383  0.030966477  0.029411549           30 
 4450000   0.53684151   -5.3720414    1654.2983  0.030979368  0.029403889           23 
 4451000   0.54683598   -5.3771317    1650.5169  0.030901612  0.029396214           28 
 4452000   0.53175804   -5.3828339    1653.7572  0.030955324  0.029388587           13 
 4453000   0.52610321   -5.3710424     1652.079  0.030916967  0.029380946           16 
 4454000   0.54335637   -5.3564904    1652.5477  0.030918793  0.029373293           14 
 4455000   0.53730635   -5.3518601    1655.3752  0.030964744  0.029365658            8 
 4456000   0.54240041   -5.3634141    1650.4977  0.030866578  0.029358036           19 
 4457000   0.54063007   -5.3646304    1653.0616   0.03090759  0.029350415           30 
 4458000   0.54067804   -5.3432489    1656.6894  0.030968472  0.029342816           10 
 4459000   0.54893192   -5.3709787    1655.0603  0.030931081  0.029335193           14 
 4460000   0.54020031   -5.3632033     1654.949  0.030922066   0.02932755           25 
 4461000   0.54765551   -5.3899429     1653.684  0.030891504   0.02931989           26 
 4462000    0.5267773   -5.3859985    1650.6995  0.030828842  0.029312236           12 
 4463000   0.53651824   -5.3707278     1654.156  0.030886474  0.029304619           14 
 4464000   0.54078275   -5.3805023    1652.7695  0.030853673  0.029296976           12 
 4465000   0.53718575   -5.3865153    1654.5989  0.030880906  0.029289333           26 
 4466000   0.54178926   -5.3523735    1653.4868  0.030853239  0.029281688           23 
 4467000   0.53455513   -5.3760223    1650.5135  0.030790865  0.029274059           22 
 4468000   0.53998767   -5.3767671    1650.7979  0.030789278  0.029266442           20 
 4469000   0.53692925   -5.3785453    1652.9339  0.030822217  0.029258838           27 
 4470000   0.52766073   -5.3633195     1655.863   0.03086993  0.029251236           28 
 4471000   0.54403439   -5.3787157    1653.4402  0.030817867  0.029243634           14 
 4472000   0.53643457   -5.3837105    1655.7146  0.030853359   0.02923605           22 
 4473000   0.53873347   -5.3730517    1653.0835  0.030797442  0.029228437           25 
 4474000   0.53574091    -5.375009    1653.3138  0.030794847  0.029220808           18 
 4475000   0.53433668   -5.3825812    1652.6538  0.030775676   0.02921318           24 
 4476000   0.54293362   -5.3862051    1653.5609  0.030785688  0.029205542           33 
 4477000   0.53145657   -5.4023308    1650.7915  0.030727264  0.029197901           26 
 4478000   0.53605638   -5.3780464    1656.1689  0.030820472   0.02919024           50 
 4479000   0.52569048   -5.3810051    1652.3818  0.030743132   0.02918259           57 
 4480000   0.54091918   -5.3738531    1653.7928  0.030762516   0.02917495           53 
 4481000   0.52533458   -5.3658552    1653.4357  0.030749009  0.029167314            9 
 4482000   0.52817881   -5.3922223    1650.7619  0.030692435  0.029159702           16 
 4483000   0.53567783    -5.387241    1651.6053  0.030701266  0.029152064           32 
 4484000   0.54097413   -5.4038797    1651.8581  0.030699117  0.029144425           83 
 4485000   0.52615074     -5.38076    1650.7579   0.03067183  0.029136804           47 
 4486000   0.54103597   -5.3766147    1652.5418  0.030698132  0.029129177           25 
 4487000   0.52966855   -5.3990459    1653.8439  0.030715472  0.029121568           50 
 4488000   0.53191023   -5.3852898    1648.4165  0.030607852  0.029113956           40 
 4489000   0.53107205   -5.3988392    1650.9925  0.030648855  0.029106336           45 
 4490000   0.53665866   -5.3917922    1650.6982  0.030636567  0.029098692           72 
 4491000    0.5274637   -5.3907939    1654.2968  0.030696518  0.029091069           93 
 4492000   0.52045767   -5.3801012    1651.0699  0.030629821  0.029083443          111 
 4493000    0.5389032   -5.3977297    1649.4527  0.030593009  0.029075818           96 
 4494000   0.52617478   -5.3817076    1653.1512  0.030654783  0.029068196           93 
 4495000   0.53670664   -5.3861406    1654.1369  0.030666238  0.029060563          117 
 4496000   0.53474758   -5.3973493    1651.1417  0.030603901  0.029052921           85 
 4497000   0.52544306    -5.396112    1651.0867  0.030596076  0.029045283          118 
 4498000   0.54161855   -5.3955121    1651.9618  0.030605487  0.029037652           87 
 4499000   0.54150511   -5.3876488     1649.945  0.030561329  0.029030033           67 
 4500000    0.5272408   -5.3796599    1653.3537  0.030617661   0.02902243          111 
 4501000   0.53516198   -5.4077475    1651.3605  0.030573956  0.029014824           74 
 4502000   0.51877393   -5.4046416    1655.8309  0.030649914  0.029007189           79 
 4503000   0.53443198   -5.3939478    1650.8853  0.030551581   0.02899956           66 
 4504000   0.52432545   -5.3940224    1653.8098  0.030598909  0.028991962           60 
 4505000   0.54244181   -5.3863155    1656.1593  0.030635578  0.028984368           23 
 4506000   0.53694177   -5.3843524    1652.6198  0.030563319  0.028976763           42 
 4507000   0.52637662   -5.3667765    1650.1208  0.030510331  0.028969159           24 
 4508000   0.52928376   -5.4003398      1652.01  0.030538487  0.028961576           48 
 4509000   0.53153992    -5.394821     1653.518  0.030559584  0.028953976           19 
 4510000   0.52798423   -5.3789829     1654.392  0.030568957  0.028946406           31 
 4511000   0.53338054   -5.3904911    1650.1369  0.030483575  0.028938815           48 
 4512000   0.53595298   -5.4079353    1654.8516  0.030563896  0.028931186           43 
 4513000   0.52176242   -5.3668409    1653.7684  0.030537123   0.02892358           68 
 4514000   0.53617666   -5.3944061    1650.3931  0.030468045  0.028915953           51 
 4515000   0.53279707    -5.399374    1650.2381  0.030458438  0.028908366           38 
 4516000   0.54256129    -5.410638    1654.2814  0.030526303  0.028900759           32 
 4517000   0.52240442   -5.3877451    1650.6155  0.030451914  0.028893165           26 
 4518000   0.52854423   -5.3987274    1651.5516   0.03046244  0.028885572           17 
 4519000   0.53942167    -5.397734    1651.5551  0.030455764  0.028878023           29 
 4520000   0.52628567   -5.3872058    1652.9166  0.030474126  0.028870491           34 
 4521000   0.52014504   -5.3715512    1650.7848  0.030428092  0.028862943           61 
 4522000   0.52138156   -5.3909221    1654.6202  0.030492043  0.028855411           28 
 4523000   0.52628405   -5.4047415    1652.3172  0.030442871  0.028847873           23 
 4524000   0.50362369   -5.4145538    1650.0764  0.030394864   0.02884031           49 
 4525000   0.51731523   -5.3910891    1652.3368  0.030429776  0.028832752           38 
 4526000    0.5352294   -5.3951127    1653.3401  0.030441525  0.028825191           25 
 4527000   0.52572918   -5.3814435    1653.6246  0.030440038   0.02881767           18 
 4528000    0.5248064   -5.3989838    1653.1291  0.030424195  0.028810134           16 
 4529000   0.52796981   -5.3879881    1653.8037   0.03042989   0.02880259           29 
 4530000   0.53241077   -5.4011724    1653.6529  0.030420399  0.028795038           27 
 4531000    0.5314949   -5.4007861    1651.3453  0.030371244  0.028787484           43 
 4532000   0.51549556     -5.41227    1649.1748  0.030324632  0.028779922           22 
 4533000   0.51738745   -5.4011466    1653.0375  0.030388953  0.028772351           37 
 4534000   0.52463402   -5.3987482    1649.7016  0.030320938  0.028764792           20 
 4535000   0.52902835   -5.4074296    1653.3582  0.030381445  0.028757228           29 
 4536000   0.53679556   -5.4235814    1649.3628  0.030301345  0.028749664           42 
 4537000   0.51639039   -5.3963826    1655.9545  0.030415738    0.0287421           19 
 4538000   0.53351647   -5.4068593    1650.7652  0.030313743  0.028734507           19 
 4539000   0.53407436   -5.4219135    1646.5172  0.030229075  0.028726934           18 
 4540000   0.52530908   -5.4047713     1650.814  0.030301285  0.028719362           26 
 4541000   0.52443862   -5.3943612    1652.0854  0.030317944  0.028711839           21 
 4542000   0.52911132   -5.3776134    1651.5207  0.030300908  0.028704338            8 
 4543000   0.52160624   -5.3929689    1653.3696  0.030328153  0.028696832           24 
 4544000   0.52502264   -5.3862609    1654.5345  0.030342843  0.028689328           15 
 4545000   0.52411702   -5.3956659    1655.1369  0.030347212  0.028681833           12 
 4546000   0.52011738   -5.3678044    1654.5549  0.030329868  0.028674325           14 
 4547000   0.52789946   -5.4031776    1648.5463  0.030213076  0.028666798           22 
 4548000   0.52728371   -5.4168568    1653.2173   0.03029202  0.028659271           31 
 4549000   0.52740448   -5.3894404    1654.2347  0.030303999  0.028651756           25 
 4550000   0.52195025   -5.3945454    1653.8255  0.030289845  0.028644244           12 
 4551000   0.51271653    -5.418382    1652.6364  0.030261414  0.028636725           19 
 4552000   0.51950661   -5.4125726    1650.9897  0.030224621  0.028629185           14 
 4553000   0.53387712   -5.4165485    1653.8671  0.030270647  0.028621658           34 
 4554000   0.52135908   -5.4074141    1654.0628  0.030267582  0.028614138           42 
 4555000   0.51441495   -5.4093268     1654.151  0.030262549  0.028606617           33 
 4556000    0.5298414   -5.4091423    1653.9795  0.030252771  0.028599086           18 
 4557000   0.52613301   -5.4297874    1653.2009  0.030231894  0.028591565           28 
 4558000    0.5311658   -5.4190613    1650.2419  0.030171163  0.028584025           23 
 4559000   0.52050847   -5.4269017    1652.2082  0.030200487  0.028576505           18 
 4560000   0.52351881    -5.411755    1649.6107  0.030146395  0.028568955           45 
 4561000   0.51115654   -5.4290785    1652.3608  0.030190032  0.028561426           36 
 4562000   0.53035369   -5.3865866     1652.967  0.030194486  0.028553901           27 
 4563000   0.52094772   -5.4074955    1650.1359  0.030136165  0.028546358           29 
 4564000   0.51721563   -5.4242511    1651.3912  0.030152483  0.028538819           34 
 4565000    0.5108133   -5.4141632    1651.6214   0.03015008  0.028531297           13 
 4566000   0.52636026   -5.4250878    1648.2767  0.030082434   0.02852376           24 
 4567000   0.52157017   -5.4079951    1651.9225  0.030142371  0.028516251           32 
 4568000    0.5254884   -5.4241613    1652.0454  0.030138014  0.028508737           21 
 4569000   0.52706042   -5.4300173     1648.685  0.030070128  0.028501211           47 
 4570000   0.51671765   -5.4196611    1652.3904  0.030131117    0.0284937           27 
 4571000   0.51611574   -5.4141177    1651.1423  0.030101771  0.028486176           28 
 4572000   0.51077515   -5.3998957    1654.4736  0.030155905  0.028478682           21 
 4573000   0.51063613   -5.4280748    1652.1239  0.030106493  0.028471185           30 
 4574000   0.51970971   -5.4268522    1653.7966  0.030130386  0.028463708           25 
 4575000   0.52759543   -5.4200962    1652.7572  0.030104868  0.028456217           26 
 4576000    0.5286099    -5.407727    1653.6531  0.030114603  0.028448745           22 
 4577000    0.5330571   -5.4377525    1653.7303  0.030109429  0.028441252           42 
 4578000    0.5157366   -5.4081923    1653.0532  0.030090526  0.028433766           19 
 4579000   0.52842303   -5.4237343    1650.4459  0.030036506  0.028426273           22 
 4580000   0.51353231   -5.4270615    1650.4934  0.030030811  0.028418772           16 
 4581000   0.51682096    -5.423325    1648.9723  0.029996586  0.028411261           17 
 4582000   0.51746066   -5.4291899    1651.1295  0.030029272  0.028403756           17 
 4583000   0.51233204   -5.4254328    1649.0499  0.029984905  0.028396271           15 
 4584000   0.52619878   -5.4301971    1654.4002  0.030075628  0.028388798           36 
 4585000   0.52389072   -5.4402883    1652.2992  0.030030883  0.028381303           23 
 4586000   0.51425286   -5.4363689    1653.3227  0.030042933   0.02837383           36 
 4587000    0.5269044    -5.440128     1647.601  0.029932435   0.02836633           20 
 4588000   0.51690236   -5.4143488     1651.423  0.029995332  0.028358849           13 
 4589000   0.52419852   -5.4559837     1651.169  0.029984183  0.028351357           15 
 4590000   0.50723467   -5.4299413    1654.8024  0.030043616  0.028343873           11 
 4591000   0.52288661   -5.4435928    1651.1423  0.029970636  0.028336402           41 
 4592000   0.51222223   -5.4297367    1650.4117   0.02995085  0.028328945           16 
 4593000   0.51138045   -5.4311068    1651.2282  0.029959144  0.028321486           30 
 4594000   0.51240562    -5.437166    1651.3946  0.029955641   0.02831401           53 
 4595000   0.51882392   -5.4326245    1650.7276  0.029937026  0.028306532           39 
 4596000   0.51818481   -5.4264881    1653.6328  0.029983188  0.028299066           28 
 4597000   0.52111359   -5.4086186    1653.9285  0.029982025  0.028291636           34 
 4598000   0.53152717   -5.4155433      1654.17  0.029979883  0.028284227           94 
 4599000   0.51860709   -5.4261954    1652.8902  0.029950174  0.028276808           79 
 4600000   0.51210421    -5.418188    1652.8043  0.029942107  0.028269366           34 
 4601000    0.5228633    -5.435077    1652.6361  0.029932552  0.028261915           44 
 4602000   0.53114367   -5.4408589    1654.6096  0.029961785  0.028254455           34 
 4603000   0.51116328    -5.442961    1649.0504  0.029854631  0.028247011           61 
 4604000   0.51796727    -5.428616    1651.5367  0.029893149  0.028239589           69 
 4605000   0.51359338   -5.4208971    1650.5086  0.029868054  0.028232165           37 
 4606000   0.51377056   -5.4162875    1653.7481  0.029920179  0.028224739           20 
 4607000   0.51169841   -5.4204092    1655.4647  0.029944735  0.028217309           39 
 4608000   0.51307425   -5.4496329    1651.4726  0.029866042  0.028209872           63 
 4609000   0.50959979   -5.4423716    1654.8733  0.029921048   0.02820244           25 
 4610000   0.51483419   -5.4131546    1651.5987  0.029855364  0.028195011           63 
 4611000   0.50808575   -5.4235427    1650.7061  0.029832757   0.02818758           19 
 4612000    0.4974035    -5.431638     1655.404  0.029911175  0.028180159           44 
 4613000   0.51130392   -5.4383091    1652.8175  0.029857965  0.028172722           49 
 4614000   0.51116327    -5.421987     1651.491  0.029827536  0.028165306           17 
 4615000    0.5263671   -5.4350695    1649.9908  0.029793983  0.028157882           21 
 4616000    0.5086857   -5.4233974    1652.2058  0.029827516  0.028150458           12 
 4617000   0.50784947   -5.4431972     1651.158  0.029802144  0.028143027           20 
 4618000   0.51502731   -5.4070024    1653.5466  0.029838793  0.028135618           38 
 4619000   0.51746434   -5.4445921    1647.8698  0.029729916  0.028128216           37 
 4620000   0.51240225   -5.4420817    1650.4957  0.029770845  0.028120817           31 
 4621000   0.51582121   -5.4111499    1655.3267  0.029851523  0.028113442           32 
 4622000   0.51193266   -5.4454056    1652.1583  0.029787939  0.028106062           36 
 4623000   0.50465896   -5.4439253    1653.1866  0.029800033  0.028098667           20 
 4624000   0.52131947   -5.4506036    1654.1609  0.029811147  0.028091298           15 
 4625000   0.50692793   -5.4491552    1654.3575  0.029808243  0.028083908           16 
 4626000    0.5077811   -5.4507645    1652.5403  0.029769064  0.028076518           17 
 4627000   0.51485787   -5.4439328    1652.8304  0.029767856  0.028069133           33 
 4628000   0.51068919   -5.4226947    1649.5616  0.029702563   0.02806175           42 
 4629000   0.51811615   -5.4453056      1654.51  0.029785231   0.02805436           23 
 4630000   0.50305617   -5.4364999     1654.894  0.029785708  0.028047003           20 
 4631000   0.51363689   -5.4338092    1654.5103  0.029772373  0.028039652           33 
 4632000   0.50275131   -5.4300399    1650.8565   0.02970021  0.028032301           20 
 4633000   0.51168212   -5.4355212    1652.7231  0.029727375  0.028024941           28 
 4634000   0.50625367    -5.431764    1653.1881  0.029729321  0.028017588           57 
 4635000   0.51093406   -5.4245707    1655.0886  0.029757077  0.028010225           43 
 4636000   0.50459225   -5.4340182     1653.141  0.029715649  0.028002852           16 
 4637000   0.51150978   -5.4417389    1652.2759  0.029693693   0.02799549           13 
 4638000   0.50634862   -5.4434755    1652.4491  0.029690404  0.027988102           20 
 4639000   0.49055904   -5.4350701    1657.6493  0.029777417   0.02798071           20 
 4640000   0.51521222   -5.4411519     1652.298  0.029674892  0.027973339           44 
 4641000   0.50100976   -5.4369614    1655.2413  0.029721347  0.027965981           69 
 4642000   0.50788615   -5.4482148    1651.7082  0.029651518  0.027958628           70 
 4643000   0.50091969   -5.4331126      1655.07  0.029705471  0.027951279           33 
 4644000   0.50138716     -5.45033    1655.2487   0.02970228  0.027943922           18 
 4645000   0.50164824    -5.434644    1651.2184   0.02962358  0.027936569           30 
 4646000   0.51672521   -5.4551106    1648.9301  0.029576161  0.027929213           49 
 4647000   0.50824191   -5.4508114    1650.2075  0.029592703  0.027921865           18 
 4648000   0.51210454   -5.4398049    1653.0076  0.029636538  0.027914526           22 
 4649000   0.51492979   -5.4388374    1650.5194  0.029585564  0.027907183           36 
 4650000   0.52253523   -5.4462505    1654.5041  0.029650612  0.027899848           75 
 4651000   0.50787758   -5.4343138    1653.6851  0.029629561  0.027892504           57 
 4652000   0.50904767   -5.4305344    1652.7838  0.029607047  0.027885154           16 
 4653000   0.49379856   -5.4443269    1653.3786  0.029611336  0.027877813           28 
 4654000   0.49478008   -5.4337815    1652.3336  0.029586263  0.027870498           39 
 4655000   0.49994355   -5.4525793    1654.9708  0.029627118  0.027863163           40 
 4656000   0.50362024   -5.4423216    1653.0051  0.029585573  0.027855837           34 
 4657000   0.51233456   -5.4348385    1653.7488  0.029592527   0.02784851           17 
 4658000      0.51895   -5.4390495     1654.448  0.029598684  0.027841168           34 
 4659000   0.51450122   -5.4456564     1655.659   0.02961399  0.027833831           27 
 4660000   0.49768067   -5.4330788    1651.9687  0.029541643  0.027826481           40 
 4661000   0.51416008   -5.4481591    1651.5469  0.029527764  0.027819138           32 
 4662000   0.49620546   -5.4511639    1652.0608  0.029530616  0.027811767           42 
 4663000   0.50300513   -5.4554743    1655.4551  0.029584943  0.027804422           17 
 4664000   0.50628587   -5.4343611    1650.8701  0.029496678  0.027797054           33 
 4665000   0.50735698   -5.4349445    1650.2215  0.029478769  0.027789707           39 
 4666000    0.4921596    -5.442033     1655.419  0.029565278  0.027782359           50 
 4667000    0.5050087   -5.4360886    1650.0696  0.029463424  0.027775019           17 
 4668000   0.49688104   -5.4499808    1651.4543  0.029481833  0.027767648           26 
 4669000   0.50062686   -5.4397528    1652.3437  0.029491392  0.027760274           18 
 4670000   0.50631614    -5.464164    1647.9174  0.029406092  0.027752904           57 
 4671000      0.50329   -5.4495792    1651.0064  0.029454906   0.02774552           30 
 4672000   0.49891025   -5.4489696    1652.8637  0.029481729  0.027738164           36 
 4673000   0.50705531   -5.4700165     1652.303  0.029465421  0.027730795           25 
 4674000   0.51111254   -5.4685678    1652.0282  0.029454217  0.027723425           56 
 4675000   0.50303625   -5.4754416    1651.4374  0.029437388  0.027716082           38 
 4676000   0.49962729   -5.4646272     1648.593  0.029380401   0.02770873           19 
 4677000    0.5007207    -5.453487    1652.2774  0.029439765  0.027701387           23 
 4678000   0.50312464   -5.4557633    1652.0061  0.029428639  0.027694036           16 
 4679000   0.50642269   -5.4615597    1650.8824  0.029402337  0.027686714           32 
 4680000   0.50508873    -5.439598    1650.4849  0.029388976  0.027679361           22 
 4681000   0.50843178   -5.4590722    1647.8799  0.029336322  0.027672008           18 
 4682000    0.5027506   -5.4761285    1646.5849  0.029307008  0.027664631           54 
 4683000   0.49231515   -5.4706166    1649.9917  0.029361373  0.027657254           61 
 4684000   0.50646633   -5.4810496    1648.2466  0.029324058  0.027649896          118 
 4685000   0.50049205    -5.458259    1647.6184  0.029306624  0.027642532           26 
 4686000   0.49847953   -5.4494434    1650.0859   0.02934425   0.02763519           29 
 4687000   0.49891929    -5.462773    1649.7986  0.029332881  0.027627858           19 
 4688000   0.49468967   -5.4596193    1651.1051  0.029349849  0.027620552           31 
 4689000   0.50550934   -5.4380504    1653.4105  0.029384562  0.027613222           43 
 4690000   0.49659714   -5.4660645    1652.2541   0.02935775  0.027605903           27 
 4691000   0.50770427   -5.4600054     1649.417  0.029301091  0.027598589           32 
 4692000   0.50827921   -5.4541438    1648.7509  0.029283016  0.027591265           34 
 4693000   0.50328877   -5.4708707    1652.5773  0.029344721  0.027583949           51 
 4694000   0.51160595   -5.4475747    1651.5339  0.029319946  0.027576625           43 
 4695000   0.49856734   -5.4640095     1648.064  0.029252111  0.027569316           44 
 4696000    0.5049266   -5.4715847    1648.1683  0.029247734  0.027561966           92 
 4697000   0.49458465   -5.4613724    1650.0128  0.029274232  0.027554638           69 
 4698000    0.4980928   -5.4500326    1650.7423  0.029280941  0.027547308           87 
 4699000   0.49553998   -5.4840944    1647.2999   0.02921366  0.027539975           48 
 4700000   0.50197818   -5.4608162    1651.0048  0.029273135  0.027532639           42 
 4701000   0.49843042   -5.4615955    1652.1132  0.029286557  0.027525327           18 
 4702000   0.49374681   -5.4637908    1649.1393  0.029227621  0.027518007           18 
 4703000   0.49500958   -5.4794338    1650.9366  0.029253253   0.02751069           95 
 4704000   0.50589566   -5.4834739    1646.8637  0.029174882   0.02750336           47 
 4705000   0.48419727   -5.4574766    1647.4719  0.029179453   0.02749601           88 
 4706000   0.48766769   -5.4689955    1650.0086  0.029218171  0.027488678           26 
 4707000   0.49266888   -5.4870363    1646.8881  0.029156719  0.027481343           25 
 4708000   0.50789792   -5.4581753     1650.902  0.029221573  0.027474004           33 
 4709000   0.50621722   -5.4502282    1646.7328  0.029141588  0.027466687           36 
 4710000   0.49840554   -5.4711735    1648.4687  0.029166113  0.027459374           54 
 4711000   0.50344728    -5.450324    1651.5708  0.029214795  0.027452051           45 
 4712000   0.48866704    -5.465043    1650.1829   0.02918405  0.027444751           42 
 4713000   0.49521585   -5.4652891    1650.7635  0.029188122  0.027437454           30 
 4714000   0.50286263   -5.4690794    1650.4059   0.02917561  0.027430151           36 
 4715000   0.48608782   -5.4925093    1652.4407  0.029205386  0.027422835           54 
 4716000    0.4873539   -5.4678833    1651.6865  0.029185865  0.027415535           25 
 4717000    0.4944719   -5.4702626    1650.5674  0.029159907  0.027408227           25 
 4718000   0.50792727   -5.4742146    1647.8758  0.029106186  0.027400901           38 
 4719000   0.50038657   -5.4596087    1648.9955  0.029119791  0.027393578           34 
 4720000   0.50000182   -5.4840618    1649.8429  0.029128582  0.027386265           46 
 4721000   0.49356658    -5.471728    1649.1605  0.029110367  0.027378956           25 
 4722000   0.49125224    -5.468658     1649.014  0.029101617   0.02737165           43 
 4723000   0.50197062    -5.469108    1647.1237  0.029062102  0.027364343           21 
 4724000   0.49555819   -5.4628989    1648.1014  0.029073198  0.027357043           28 
 4725000   0.49460053   -5.4788643    1649.0533  0.029083832  0.027349723           34 
 4726000   0.49840265    -5.470264    1648.5221  0.029068312  0.027342419           31 
 4727000   0.49742991   -5.4632935    1650.7158  0.029100835  0.027335129           22 
 4728000   0.47860506   -5.4849934    1648.4412   0.02905459  0.027327842           40 
 4729000   0.49189405   -5.4685896    1648.5035  0.029049543  0.027320565           25 
 4730000   0.48709563   -5.4745206    1652.6844   0.02911706  0.027313299           43 
 4731000   0.49595912   -5.4809224    1649.3051  0.029051383   0.02730602           18 
 4732000   0.50724183   -5.4722427    1648.0548  0.029023226  0.027298749           26 
 4733000   0.49914211   -5.4655274    1650.4872  0.029059919   0.02729148           37 
 4734000   0.50570912   -5.4643498    1651.8554  0.029077866  0.027284208           49 
 4735000   0.49180355   -5.4682845    1651.7694  0.029070212  0.027276956           19 
 4736000   0.49078038   -5.4766838    1646.4851  0.028971091  0.027269694           22 
 4737000   0.48969885   -5.4611306    1648.9774  0.029008821  0.027262439           35 
 4738000   0.49934063   -5.4739176     1647.446  0.028975764  0.027255168           49 
 4739000   0.48297731   -5.4652609    1648.6599  0.028990995  0.027247892           23 
 4740000   0.49847595   -5.4786063    1646.1614  0.028940954  0.027240621           31 
 4741000   0.49864595   -5.4941116    1646.2415  0.028936256  0.027233344           32 
 4742000   0.49573381   -5.4794348    1647.1497  0.028946114  0.027226072           41 
 4743000     0.488832   -5.4765383    1648.3547  0.028961183  0.027218803           52 
 4744000   0.49780667   -5.4875738    1649.7667  0.028979881  0.027211535           50 
 4745000   0.48819614     -5.47736    1650.8042  0.028991996   0.02720426           35 
 4746000   0.49118374   -5.4793522    1645.2531  0.028888416  0.027196987           41 
 4747000   0.49036674   -5.4810123    1647.9706  0.028930037  0.027189736           31 
 4748000   0.49551771    -5.462331    1644.3405   0.02886023  0.027182476           29 
 4749000    0.4945214   -5.4756953    1648.8967  0.028934104  0.027175218           57 
 4750000   0.49748452   -5.4930121    1652.1747  0.028985521  0.027167955           31 
 4751000   0.48399027   -5.4979439    1647.4063  0.028895782  0.027160688           63 
 4752000   0.48466844   -5.4760485      1646.48  0.028873456  0.027153416           22 
 4753000   0.48450412     -5.50073     1645.696  0.028853637  0.027146151           82 
 4754000   0.50991301   -5.4838028    1651.0451  0.028941332  0.027138891           37 
 4755000   0.49352908   -5.4761412    1650.5697  0.028926914  0.027131647           39 
 4756000    0.4864067   -5.4825668     1649.291  0.028898427  0.027124407           64 
 4757000   0.48973266   -5.4727994    1651.9478  0.028938894  0.027117172           96 
 4758000   0.48522765   -5.4671119    1646.7244  0.028841326  0.027109963           54 
 4759000   0.49062228   -5.4687544    1649.6073  0.028885748  0.027102738           35 
 4760000   0.50219813   -5.4718782    1649.1509   0.02887169  0.027095512           47 
 4761000   0.49511859   -5.4879258    1648.2106  0.028849168  0.027088279           77 
 4762000   0.47920413   -5.4641366    1648.6444    0.0288507  0.027081056          171 
 4763000   0.48204771    -5.486189    1651.1012  0.028887627  0.027073837          184 
 4764000   0.49512133   -5.4780322    1648.6297  0.028838332  0.027066604           95 
 4765000    0.4826538    -5.490465    1648.1434  0.028823774  0.027059387           58 
 4766000   0.48948601   -5.4813702    1650.3391  0.028856117  0.027052143          121 
 4767000   0.49093989   -5.4965581    1646.5087  0.028783104  0.027044908          106 
 4768000   0.48858565   -5.4661214    1647.8574   0.02880064  0.027037682           50 
 4769000   0.48654513   -5.4933774    1651.9113  0.028865439  0.027030457          118 
 4770000    0.4772434   -5.4857658    1648.3052  0.028796387  0.027023235           71 
 4771000   0.47923017     -5.49434    1646.4778  0.028758433  0.027016001           64 
 4772000   0.50209898   -5.4885089    1645.9701   0.02874354  0.027008766           66 
 4773000   0.48967802   -5.4826274    1648.1605  0.028775762  0.027001514          103 
 4774000   0.49563258   -5.5039834    1646.6977  0.028744199   0.02699426          119 
 4775000   0.47597245   -5.4864232     1645.534  0.028717871   0.02698701          119 
 4776000    0.4835214   -5.5070455    1646.5679  0.028729898  0.026979777          159 
 4777000   0.48643393   -5.4853285    1647.8712  0.028746619  0.026972557          181 
 4778000   0.49150456   -5.5054646    1647.3103  0.028730819   0.02696532          119 
 4779000   0.48798157   -5.5003583    1648.7696  0.028750255  0.026958103          148 
 4780000   0.48736827    -5.493629    1646.8302  0.028710428  0.026950863          150 
 4781000   0.49190314   -5.5040534    1643.2161   0.02864143  0.026943627          178 
 4782000   0.48080899   -5.4977959    1646.1687  0.028686893  0.026936402          200 
 4783000   0.49495553   -5.4827178    1648.6092  0.028723416  0.026929183          158 
 4784000   0.49203488   -5.4988278    1643.0227  0.028620101  0.026921961          139 
 4785000   0.49028984   -5.5022966     1642.917  0.028612278  0.026914727          121 
 4786000   0.48903415   -5.5080031     1647.172  0.028680387  0.026907485          132 
 4787000   0.48022941    -5.520892    1645.2481  0.028640904  0.026900253          139 
 4788000   0.48817384   -5.4950071    1648.8972  0.028698434  0.026893019           61 
 4789000   0.49383011   -5.5034738    1647.0626  0.028660517  0.026885796          110 
 4790000   0.48444549   -5.5048007    1643.6438  0.028595055  0.026878565           44 
 4791000   0.49369192   -5.4907598    1646.1162  0.028632091  0.026871353           60 
 4792000    0.4805252   -5.5020466     1647.236  0.028645589  0.026864144           61 
 4793000   0.48437383   -5.4985425    1646.0173  0.028618424  0.026856938           53 
 4794000    0.4857226   -5.5160344    1642.2341  0.028546693   0.02684972           41 
 4795000   0.48848065    -5.510225     1648.915  0.028656847    0.0268425          138 
 4796000   0.47793813   -5.4966771     1647.222  0.028621456  0.026835283           86 
 4797000   0.48643642   -5.5055395    1646.0097  0.028594429  0.026828071           95 
 4798000   0.48758522    -5.504549    1645.4416  0.028578601  0.026820876           90 
 4799000   0.48804484    -5.507678    1648.1721  0.028620062  0.026813683          109 
 4800000   0.47991547   -5.5142351    1645.1089  0.028560919  0.026806489          103 
 4801000   0.48326222   -5.5109096    1643.1786  0.028521464  0.026799287           65 
 4802000   0.49040769   -5.5040933    1646.3848  0.028571165  0.026792085           62 
 4803000   0.48653969     -5.50569    1645.2539  0.028545594  0.026784902           55 
 4804000   0.47449953   -5.5056588    1646.9459  0.028569003  0.026777718           43 
 4805000    0.4896072   -5.5009857    1646.1693   0.02854959  0.026770556           45 
 4806000   0.48422837     -5.51083     1647.591    0.0285683  0.026763402           53 
 4807000   0.47812042   -5.5100118    1648.8337    0.0285839  0.026756239           67 
 4808000   0.48484046   -5.5090671    1646.8801  0.028544094  0.026749089          110 
 4809000   0.47380738   -5.4911864    1646.2565  0.028527353  0.026741935           50 
 4810000   0.48785681   -5.5017185    1645.4706  0.028507806  0.026734779           61 
 4811000   0.47443094   -5.4953793    1650.4611  0.028588324  0.026727625           53 
 4812000   0.48634476   -5.5100411    1645.2289  0.028491772  0.026720471           49 
 4813000   0.48012601   -5.5092097    1648.1044   0.02853564  0.026713296          177 
 4814000   0.48420976    -5.502836    1647.4077  0.028517651  0.026706151           80 
 4815000   0.49701105   -5.5068599    1644.8618  0.028467667   0.02669901          138 
 4816000   0.48465309   -5.4898948    1647.2399  0.028502906  0.026691872           78 
 4817000   0.48271107   -5.5102809    1646.5074  0.028484316  0.026684719          146 
 4818000   0.47096929   -5.4924594    1647.8902  0.028502321  0.026677573          194 
 4819000   0.49334538   -5.5149802    1649.0376  0.028516248  0.026670414          182 
 4820000   0.48620314   -5.5251831    1647.1366  0.028477465  0.026663255          222 
 4821000   0.47963557   -5.4968342    1646.9545  0.028468411  0.026656087          277 
 4822000   0.47833978   -5.5119345    1648.5111  0.028489408  0.026648941          199 
 4823000    0.4805101    -5.505671    1647.0332  0.028457965  0.026641811          265 
 4824000   0.47234193   -5.5049478    1646.2464  0.028438474  0.026634667          189 
 4825000   0.48010169   -5.5088751    1644.8445  0.028408367  0.026627545          207 
 4826000   0.47283133   -5.5061988    1649.1527  0.028476874  0.026620415          170 
 4827000   0.47994083   -5.5077236    1646.4514   0.02842434  0.026613304          254 
 4828000   0.49100031   -5.5211556    1646.5012   0.02841931   0.02660618          266 
 4829000   0.47723747   -5.5046088    1646.9983  0.028422004   0.02659906          151 
 4830000   0.47148085   -5.5196974    1649.0735  0.028451923  0.026591947          213 
 4831000   0.47880006   -5.5166465    1646.3631   0.02839928  0.026584826          214 
 4832000   0.47443115    -5.501571    1649.6002   0.02844923  0.026577709          189 
 4833000   0.48695497   -5.5120678     1648.186  0.028418959  0.026570588          257 
 4834000   0.48628782   -5.5289365    1645.6975  0.028370182  0.026563456          184 
 4835000   0.48754809   -5.5094216    1647.5815  0.028396785   0.02655633          252 
 4836000   0.48610543   -5.5164004      1647.79  0.028394507  0.026549208          318 
 4837000   0.47774018   -5.5256494    1645.0937  0.028342183   0.02654208          375 
 4838000   0.46604515   -5.5153498    1650.2265  0.028424737   0.02653497          260 
 4839000   0.46914062   -5.5106541    1645.6705  0.028340403  0.026527844          344 
 4840000   0.46663264   -5.5149298    1643.4872  0.028296956  0.026520732          348 
 4841000   0.47507085   -5.5186324    1646.1892  0.028337623  0.026513607          176 
 4842000   0.47355011    -5.524587    1646.1066   0.02833035  0.026506499          283 
 4843000   0.47846391   -5.5273929    1643.8603  0.028285848  0.026499398          173 
 4844000   0.47888422   -5.5191339    1648.4179  0.028358415  0.026492292          296 
 4845000   0.47400542   -5.5217568    1646.5735  0.028320837  0.026485177          332 
 4846000    0.4772513   -5.5145552    1645.9477  0.028304232  0.026478065          222 
 4847000   0.47721963   -5.5208278    1645.1679  0.028284985  0.026470939          409 
 4848000   0.47669304   -5.5053321    1648.2354  0.028331879  0.026463815          382 
 4849000   0.48746887   -5.5081379    1646.4629  0.028295575  0.026456696          346 
 4850000   0.48332246   -5.5381559    1643.9678  0.028246869  0.026449575          464 
 4851000   0.47311477   -5.5601416    1646.3809  0.028282501  0.026442424          390 
 4852000   0.48215075   -5.5306792    1647.6108  0.028297795  0.026435285          270 
 4853000   0.47532962   -5.5346242    1644.1685  0.028232854  0.026428147          377 
 4854000   0.47631488   -5.5482966    1645.4376  0.028248825  0.026421003          404 
 4855000   0.47992817   -5.5297453    1643.7112  0.028213374  0.026413861          363 
 4856000   0.48402564   -5.5334422     1646.369  0.028253174  0.026406733          454 
 4857000   0.47328091   -5.5290138    1642.7881  0.028185918  0.026399598          333 
 4858000   0.47896183    -5.541521    1643.9982  0.028200875  0.026392473          407 
 4859000   0.47041774   -5.5461939    1645.9668  0.028228833  0.026385355          456 
 4860000   0.48028421   -5.5466802     1645.484  0.028214746  0.026378235          475 
 4861000   0.46575257    -5.530852    1646.7091  0.028229945    0.0263711          326 
 4862000   0.46798242   -5.5512004    1646.0112  0.028212175   0.02636397          362 
 4863000   0.47289929   -5.5486373    1644.8425  0.028186348  0.026356817          355 
 4864000    0.4720083   -5.5310346    1642.0644  0.028132956  0.026349683          328 
 4865000   0.47547896   -5.5313969    1647.1607  0.028214469  0.026342546          496 
 4866000   0.47055098   -5.5417187    1645.7557  0.028184609  0.026335417          381 
 4867000   0.47788581   -5.5305876    1643.1398  0.028134029  0.026328297          375 
 4868000   0.47389964   -5.5497159    1644.3381  0.028148762  0.026321172          356 
 4869000   0.47539947   -5.5306936    1642.0901  0.028104507  0.026314035          460 
 4870000   0.46022237   -5.5322068    1641.6035   0.02809041  0.026306915          374 
 4871000   0.47439902   -5.5545636    1645.8351  0.028157037  0.026299808          446 
 4872000   0.46627381   -5.5258987    1644.2807   0.02812467  0.026292705          338 
 4873000   0.47548125   -5.5465238    1643.2875  0.028101913   0.02628561          405 
 4874000   0.46967251   -5.5333739     1642.336   0.02807988  0.026278515          397 
 4875000   0.47610822   -5.5337921    1642.7083  0.028080484   0.02627142          472 
 4876000   0.47196526    -5.533989    1646.1264  0.028133143  0.026264334          504 
 4877000   0.47762593   -5.5525187    1641.5239  0.028048731  0.026257246          420 
 4878000   0.47233162    -5.525449     1643.591  0.028078293  0.026250165          439 
 4879000   0.47823793   -5.5461027    1642.9233  0.028061135  0.026243084          504 
 4880000   0.46845737   -5.5293432     1643.768  0.028069809   0.02623601          393 
 4881000   0.47065992   -5.5308629    1646.1163   0.02810415  0.026228948          510 
 4882000   0.47056089   -5.5163052     1646.091  0.028097962  0.026221883          348 
 4883000   0.47212239   -5.5450707    1647.3923  0.028114416  0.026214817          394 
 4884000   0.47134618    -5.528192    1642.6889  0.028028407  0.026207757          276 
 4885000   0.46901683   -5.5316422     1644.573   0.02805481  0.026200689          430 
 4886000   0.45589393   -5.5390388    1644.7403  0.028051923  0.026193635          265 
 4887000   0.46607955   -5.5335231    1643.8394  0.028030819  0.026186579          330 
 4888000   0.46953745   -5.5325526    1642.4689   0.02800172  0.026179529          369 
 4889000   0.47442017   -5.5278814    1643.9872  0.028021873  0.026172477          349 
 4890000   0.46789686   -5.5460507    1644.7139  0.028028525  0.026165414          373 
 4891000   0.46908099   -5.5409478    1642.8297  0.027990693  0.026158367          389 
 4892000   0.45519964   -5.5341599    1643.6061  0.027998197  0.026151313          264 
 4893000   0.48067451   -5.5319908    1646.5081  0.028041898  0.026144267          198 
 4894000   0.47321955   -5.5470319    1642.7457  0.027972104   0.02613722          171 
 4895000   0.46308291   -5.5468622    1646.0507  0.028022654  0.026130167          259 
 4896000    0.4769582   -5.5550358    1645.7256  0.028011397  0.026123112          179 
 4897000     0.468133   -5.5325035    1646.8199    0.0280243  0.026116067          219 
 4898000   0.47586695    -5.532789    1642.4107   0.02794356  0.026109033          312 
 4899000   0.47292417   -5.5552394    1645.8769  0.027996817  0.026101991          203 
 4900000   0.46486062   -5.5501681     1647.228  0.028014082   0.02609495          246 
 4901000   0.46790241   -5.5294705    1644.9837  0.027970205  0.026087907          371 
 4902000   0.47110035   -5.5208393    1644.5395  0.027956948  0.026080878          279 
 4903000   0.47217329   -5.5434176    1647.2128  0.027996683   0.02607386          211 
 4904000   0.46341686   -5.5355636    1647.2811  0.027992133  0.026066842          186 
 4905000   0.46578992   -5.5388124    1642.9041  0.027912064  0.026059825          232 
 4906000   0.46286961   -5.5292916    1645.8024  0.027955605  0.026052809          239 
 4907000   0.47101756   -5.5531208    1646.9902   0.02797008  0.026045802          150 
 4908000    0.4642056   -5.5373378    1643.9705  0.027913109  0.026038767          183 
 4909000   0.46461952   -5.5559248     1645.841  0.027939177  0.026031754          196 
 4910000   0.46523703   -5.5422991    1642.0394  0.027868964   0.02602472          155 
 4911000   0.47343369   -5.5330343    1644.5997  0.027906734  0.026017704          172 
 4912000   0.46367058   -5.5661864     1644.817  0.027904739  0.026010687          167 
 4913000   0.46688064   -5.5401305    1642.6815  0.027862839  0.026003684          164 
 4914000    0.4579643   -5.5580142    1642.7129  0.027857701   0.02599668          320 
 4915000   0.46468841   -5.5406068     1647.308  0.027929942  0.025989686          363 
 4916000   0.46137455    -5.538329     1645.367  0.027891358  0.025982689          229 
 4917000   0.45684182   -5.5493971    1643.6808  0.027857108  0.025975688          232 
 4918000   0.45996549   -5.5453248    1646.4055  0.027897613  0.025968696          197 
 4919000   0.46536518   -5.5577875     1643.501  0.027842736  0.025961678          184 
 4920000   0.46035484   -5.5440481    1645.5661  0.027872055  0.025954661          222 
 4921000   0.47021406   -5.5552592    1638.9454  0.027754275  0.025947644          177 
 4922000   0.45867841   -5.5469859    1645.1295  0.027853336  0.025940635          224 
 4923000   0.46627414   -5.5507908    1645.4121  0.027852463  0.025933643          170 
 4924000   0.46380044     -5.54707    1644.9762  0.027839429   0.02592664          155 
 4925000   0.47365849    -5.547239    1645.2107  0.027837745  0.025919635          295 
 4926000   0.45828238   -5.5495539    1644.4071  0.027818499  0.025912644          192 
 4927000   0.46389376   -5.5516236    1645.0723  0.027824103  0.025905638          356 
 4928000   0.47428382   -5.5421264    1643.9091  0.027798787  0.025898642          365 
 4929000   0.45858405   -5.5561207    1644.2264  0.027798513   0.02589165          168 
 4930000    0.4586351   -5.5322369    1645.5508   0.02781526  0.025884655          200 
 4931000    0.4644446   -5.5689847     1642.616  0.027760021  0.025877653          215 
 4932000    0.4647639   -5.5391583    1645.0095  0.027794836  0.025870663          174 
 4933000   0.45180841   -5.5461864    1643.4572  0.027762978  0.025863679          394 
 4934000   0.46135952   -5.5462103     1642.914  0.027748176  0.025856703          400 
 4935000   0.46802327   -5.5539547    1640.1691  0.027696202  0.025849722          188 
 4936000   0.46000019   -5.5440197    1642.6153  0.027731889  0.025842753          165 
 4937000   0.46571764   -5.5487285    1644.9999  0.027766523  0.025835782          162 
 4938000   0.45818694   -5.5530248    1645.8198  0.027774736  0.025828813          228 
 4939000   0.45275689   -5.5510063    1642.5521  0.027713979  0.025821839          191 
 4940000    0.4602462   -5.5586427    1644.6785  0.027744239  0.025814871          304 
 4941000   0.45827081   -5.5505149    1641.4932  0.027684902  0.025807905          386 
 4942000   0.46555213   -5.5502327    1641.4795  0.027679069  0.025800923          385 
 4943000   0.46355554   -5.5494785    1644.0159  0.027716229  0.025793949          485 
 4944000   0.46398321   -5.5384696    1641.9216  0.027675324  0.025786964          473 
 4945000    0.4545036   -5.5560304    1640.7702  0.027650324  0.025779982          390 
 4946000   0.45836006   -5.5484542    1641.3993  0.027655332  0.025772997          378 
 4947000   0.46368605    -5.556352    1643.0395  0.027677371  0.025766019          402 
 4948000   0.46610099   -5.5651155    1643.1413  0.027673493  0.025759055          476 
 4949000   0.46373806   -5.5610079    1643.3263  0.027671016  0.025752073          411 
 4950000   0.46701973    -5.565035    1644.6285  0.027687348  0.025745103          489 
 4951000   0.46384956   -5.5727465    1642.8607  0.027652001  0.025738138          480 
 4952000   0.46252437   -5.5733047    1643.3564  0.027654758  0.025731182          383 
 4953000   0.44617854   -5.5568278    1642.5328  0.027635319  0.025724215          434 
 4954000   0.46728031   -5.5865101    1644.4976  0.027662791  0.025717233          486 
 4955000    0.4483418    -5.564326    1639.5011  0.027573178  0.025710253          459 
 4956000   0.45351773   -5.5726208    1639.6852  0.027570708  0.025703267          427 
 4957000   0.45577277   -5.5618318    1639.7397  0.027566064  0.025696264          492 
 4958000   0.46238265   -5.5671236    1640.0023  0.027564917  0.025689273          537 
 4959000   0.45014995   -5.5610333    1638.7799  0.027538817  0.025682276          611 
 4960000   0.45832488   -5.5464083    1643.2161  0.027607797  0.025675298          574 
 4961000   0.45458067   -5.5740975    1641.8282  0.027578919  0.025668325          483 
 4962000   0.45694721   -5.5688915    1640.5607  0.027552074  0.025661339          249 
 4963000   0.45260597   -5.5698373     1644.761   0.02761705  0.025654354          515 
 4964000    0.4565248   -5.5678446    1639.2646  0.027519214  0.025647376          584 
 4965000   0.45016066   -5.5797641    1639.5369  0.027518242  0.025640406          563 
 4966000   0.44241318   -5.5685166    1640.5984  0.027530514  0.025633446          524 
 4967000   0.46045087   -5.5836655    1640.5599  0.027524325  0.025626495          519 
 4968000   0.45207417   -5.5755844    1641.5777  0.027535857  0.025619525          332 
 4969000   0.46344227    -5.568167    1640.0417  0.027504557  0.025612556          548 
 4970000   0.44975422   -5.5693292    1640.2571  0.027502635  0.025605589          353 
 4971000   0.46717669   -5.5679869    1640.9355  0.027508474  0.025598627          352 
 4972000    0.4578349   -5.5694277    1644.1061  0.027556083  0.025591663          570 
 4973000   0.45784343    -5.588496    1642.7912  0.027528508  0.025584694          360 
 4974000   0.45743909   -5.5746254    1641.6815  0.027504381  0.025577742          324 
 4975000   0.43981968    -5.607948    1640.2468  0.027474821  0.025570769          604 
 4976000   0.45811675   -5.5788729    1639.7986  0.027461793    0.0255638          493 
 4977000   0.45676122   -5.5737746    1636.3422  0.027398403  0.025556839          415 
 4978000   0.45596486   -5.5790644    1641.5774  0.027480538  0.025549893          451 
 4979000   0.44965134   -5.5881311    1639.3758  0.027438171  0.025542926          341 
 4980000   0.46172839   -5.5798644     1642.463   0.02748432  0.025535962          370 
 4981000   0.45961059   -5.5630439    1640.9003  0.027452659  0.025529016          508 
 4982000   0.46334431   -5.5795491    1640.4922  0.027440323  0.025522063          488 
 4983000   0.45228579   -5.5756556    1642.3936  0.027466612  0.025515129          279 
 4984000   0.45707456   -5.5721583    1642.6158  0.027464817  0.025508196          526 
 4985000   0.45548972   -5.5844004    1639.2783  0.027403515  0.025501254          347 
 4986000   0.45019478   -5.5811719    1644.0577  0.027477899  0.025494318          449 
 4987000   0.44979772   -5.5886152    1639.9118  0.027403112  0.025487397          381 
 4988000   0.45283425   -5.5808458    1640.9368  0.027414742  0.025480468          191 
 4989000   0.44614452   -5.5840827    1640.8573  0.027407918  0.025473537          525 
 4990000   0.46241436   -5.5917175    1640.3971   0.02739474   0.02546659          549 
 4991000     0.459843   -5.5759643    1640.9742  0.027398887  0.025459662          425 
 4992000    0.4593114   -5.6034815    1642.5718  0.027420069  0.025452737          423 
 4993000    0.4491191   -5.5905302    1640.4305  0.027378839  0.025445796          515 
 4994000    0.4429512   -5.5734125    1639.7613  0.027362189  0.025438855          481 
 4995000    0.4458176    -5.583734    1639.8251  0.027357776  0.025431913          497 
 4996000   0.44853399   -5.5841669    1640.4753  0.027363145  0.025424966          504 
 4997000   0.45154152   -5.5673385    1640.8785  0.027364394  0.025418034          431 
 4998000    0.4505117   -5.5621094    1639.7106  0.027339446  0.025411108          543 
 4999000   0.45860217   -5.5781207    1642.3834  0.027378533  0.025404194          525 
 5000000   0.45805765   -5.5791297    1639.8156   0.02733026  0.025397279          582 
 5001000   0.45476937    -5.563383    1640.1817  0.027330896  0.025390359          567 
 5002000   0.45794054   -5.5797552     1638.734  0.027301313  0.025383452          666 
 5003000   0.45115328   -5.5952346     1637.012  0.027267173  0.025376535          602 
 5004000   0.44259751   -5.5801891    1640.7937  0.027324702  0.025369619          638 
 5005000   0.44689882   -5.6123875    1641.2762  0.027327276  0.025362709          662 
 5006000   0.44611665   -5.5815423    1639.7653  0.027296666  0.025355798          608 
 5007000    0.4599948   -5.5856574       1640.3  0.027300114  0.025348897          609 
 5008000   0.44628804   -5.5894317    1637.1386  0.027242056  0.025341997          568 
 5009000   0.44810574   -5.6032738    1642.5053  0.027325902  0.025335099          505 
 5010000   0.44335975   -5.5956593    1639.3725  0.027268339  0.025328203          511 
 5011000   0.44993473   -5.5949362     1639.454  0.027264252  0.025321292          553 
 5012000    0.4524648   -5.5964919     1641.452  0.027292032  0.025314389          691 
Loop time of 12628.8 on 48 procs for 5000000 steps with 4000 atoms

Performance: 68415.191 tau/day, 395.921 timesteps/s
99.4% CPU use with 48 MPI tasks x no OpenMP threads

MPI task timing breakdown:
Section |  min time  |  avg time  |  max time  |%varavg| %total
---------------------------------------------------------------
Pair    | 901.85     | 957.51     | 1023.1     | 100.9 |  7.58
Neigh   | 84.932     | 88.23      | 91.501     |  19.5 |  0.70
Comm    | 806.93     | 872.4      | 926.29     | 110.4 |  6.91
Output  | 45.833     | 45.837     | 45.92      |   0.2 |  0.36
Modify  | 10523      | 10549      | 10573      |  10.2 | 83.54
Other   |            | 115.3      |            |       |  0.91

Nlocal:        83.3333 ave          90 max          75 min
Histogram: 2 1 7 1 8 7 7 4 7 4
Nghost:        2323.25 ave        2346 max        2301 min
Histogram: 1 2 5 9 9 8 4 5 2 3
Neighs:        15798.1 ave       17435 max       13709 min
Histogram: 1 2 3 6 6 10 7 3 7 3
FullNghs:      31595.6 ave       34418 max       28225 min
Histogram: 1 2 6 4 6 10 5 5 5 4

Total # of neighbors = 1516589
Ave neighs/atom = 379.14725
Neighbor list builds = 269388
Dangerous builds = 1

#clear
#
#next RN
#
#jump SELF
Total wall time: 3:30:32
