
units lj                  # Use reduced LJ style units
atom_style atomic         # Uncharged point particles
atom_modify map hash      # Needed for indexing of clusters etc
                          # Used to be able to find where atoms are in relation to each other.

lattice fcc 1.0 spacing 1 1 1
Lattice spacing in x,y,z = 1.5874011 1.5874011 1.5874011
region box block 0 10 0 10 0 10 units lattice
create_box 2 box
Created orthogonal box = (0.0000000 0.0000000 0.0000000) to (15.874011 15.874011 15.874011)
  3 by 4 by 4 MPI processor grid
create_atoms 1 box
Created 4000 atoms
  using lattice units in orthogonal box = (0.0000000 0.0000000 0.0000000) to (15.874011 15.874011 15.874011)
  create_atoms CPU = 0.017 seconds
set type 1 type/fraction 2 0.16 78393
Setting atom values ...
  677 settings made for type/fraction
mass 1 1.0
mass 2 1.0
pair_style lj/cut  3.5
pair_modify tail  yes
pair_coeff 1  1  1.0  1.0   # Intearaction between 1 and 1 set with epsilon = 1 and sigma = 1
pair_coeff 1  2  1.5  0.8
pair_coeff 2  2  0.5  0.88

write_data data.0
System init for write_data ...
Neighbor list info ...
  update every 1 steps, delay 10 steps, check yes
  max neighbors/atom: 2000, page size: 100000
  master list distance cutoff = 3.8
  ghost atom cutoff = 3.8
  binsize = 1.9, bins = 9 9 9
  1 neighbor lists, perpetual/occasional/extra = 1 0 0
  (1) pair lj/cut, perpetual
      attributes: half, newton on
      pair build: half/bin/atomonly/newton
      stencil: half/bin/3d
      bin: standard
WARNING: Not all mixed pair coeffs generated from mixing. Use write_data with 'pair ij' option to store all pair coeffs. (../write_data.cpp:312)


#############################
#   M E L T   S Y S T E M   #
#############################

velocity all create 2.4 8172548 mom yes dist gaussian # Assign velocities
                                                    # Temperature 2.4, random number seed, zero linear momentum
                                                                                # Gaussian distribution

timestep 0.002   # simulation timestep
thermo 1000       # output thermodynamic data every 1000 steps bf 100

# Define a fix  in this case with index 1 applied to all
# particles in the simulation. This fix is for simulations
# in the anisotropic NPT ensemble. Note that we use the MTK
# correction.
fix 1 all npt temp 2.4 2.4 0.1 iso 5.68 5.68 0.5 mtk yes tchain 5 pchain 5 # Use NPT ensemble
                                                                         # Set temperature and pressure and damping
                                                                         # Numbers of thermostats in chain and in barostat
run 10000          # run for 10000 steps
Per MPI rank memory allocation (min/avg/max) = 3.642 | 3.644 | 3.648 Mbytes
Step Temp E_pair E_mol TotEng Press Volume 
       0          2.4   -7.2871769            0   -3.6880769   -3.4159639         4000 
    1000    2.3818143   -4.7486305            0   -1.1768023    5.5655125    4614.3897 
    2000    2.3596501   -4.7739141            0   -1.2353238    5.7911799    4584.7945 
    3000    2.4229076   -4.7332984            0   -1.0998456    5.5834065    4634.5401 
    4000    2.3963971   -4.8041287            0   -1.2104317    5.7646411    4578.4298 
    5000    2.3681385   -4.7251772            0   -1.1738576    5.6423204    4621.5198 
    6000    2.4232611     -4.76532            0   -1.1313371    5.6247938    4609.6557 
    7000     2.420101   -4.8073898            0   -1.1781459    5.8488114    4554.8639 
    8000     2.434056   -4.7332149            0   -1.0830437    5.6728465    4621.2484 
    9000    2.3685954   -4.7903872            0   -1.2383824    5.4148661    4614.0359 
   10000    2.4171283   -4.7444605            0   -1.1196745    5.9881825    4590.3548 
Loop time of 2.26806 on 48 procs for 10000 steps with 4000 atoms

Performance: 761883.518 tau/day, 4409.048 timesteps/s
99.6% CPU use with 48 MPI tasks x no OpenMP threads

MPI task timing breakdown:
Section |  min time  |  avg time  |  max time  |%varavg| %total
---------------------------------------------------------------
Pair    | 0.95224    | 1.0116     | 1.1115     |   3.1 | 44.60
Neigh   | 0.19242    | 0.20436    | 0.22907    |   1.3 |  9.01
Comm    | 0.69911    | 0.78535    | 0.87436    |   4.3 | 34.63
Output  | 0.00025123 | 0.00025816 | 0.00033636 |   0.0 |  0.01
Modify  | 0.21267    | 0.25189    | 0.28045    |   3.8 | 11.11
Other   |            | 0.01457    |            |       |  0.64

Nlocal:        83.3333 ave          92 max          70 min
Histogram: 1 2 1 2 6 13 6 6 6 5
Nghost:        1506.56 ave        1539 max        1482 min
Histogram: 2 9 6 6 6 6 5 5 1 2
Neighs:        8309.17 ave        9641 max        6468 min
Histogram: 1 1 2 2 13 8 5 9 4 3

Total # of neighbors = 398840
Ave neighs/atom = 99.710000
Neighbor list builds = 912
Dangerous builds = 237

# Equilibrate just above the melting temperature to avoid step fn in T

fix 1 all npt temp 1.25 1.25 0.1 iso 5.68 5.68 0.5 mtk yes tchain 5 pchain 5
run 2000
Per MPI rank memory allocation (min/avg/max) = 3.642 | 3.644 | 3.648 Mbytes
Step Temp E_pair E_mol TotEng Press Volume 
   10000    2.4171283   -4.7444605            0   -1.1196745    5.9881825    4590.3548 
   11000    1.2606081   -6.4067028            0   -4.5162634    5.6429823    3780.9623 
   12000    1.2116944   -6.4216392            0    -4.604552    5.7740448     3763.808 
Loop time of 0.497895 on 48 procs for 2000 steps with 4000 atoms

Performance: 694122.433 tau/day, 4016.912 timesteps/s
99.6% CPU use with 48 MPI tasks x no OpenMP threads

MPI task timing breakdown:
Section |  min time  |  avg time  |  max time  |%varavg| %total
---------------------------------------------------------------
Pair    | 0.21726    | 0.24069    | 0.27508    |   2.4 | 48.34
Neigh   | 0.031827   | 0.034141   | 0.03793    |   0.7 |  6.86
Comm    | 0.13508    | 0.16915    | 0.19369    |   3.1 | 33.97
Output  | 5.2522e-05 | 5.3586e-05 | 6.5735e-05 |   0.0 |  0.01
Modify  | 0.04064    | 0.049193   | 0.05927    |   2.2 |  9.88
Other   |            | 0.004667   |            |       |  0.94

Nlocal:        83.3333 ave          97 max          76 min
Histogram: 4 9 9 9 8 4 2 2 0 1
Nghost:        1707.46 ave        1741 max        1656 min
Histogram: 1 0 2 5 5 10 8 7 8 2
Neighs:        10132.1 ave       12190 max        9055 min
Histogram: 4 8 11 8 7 7 0 1 1 1

Total # of neighbors = 486343
Ave neighs/atom = 121.58575
Neighbor list builds = 141
Dangerous builds = 9

#############################
# L I N E A R  Q U E N C H  #
#############################

# Define solid atoms. This closely follows ten Wolde  Ruiz-Montero and Frenkel  Faraday Discuss  1996  104  93-110
# Compute components of the per-atom q6 vector
compute q6 all orientorder/atom degrees 1 6 components 6 nnn NULL cutoff 1.3 # compute the Q6 parameter.
                                                                             # Use all neighbours within 1.3 unit cell.

# get number of connections
compute coord_number all coord/atom orientorder q6 0.5

# An atom is solid if it has 8 or more connections (of a possible 14)
variable is_solid atom c_coord_number>=8
group solid dynamic all var is_solid    # Must be dynamic to update
dynamic group solid defined

# do clustering
compute cluster solid cluster/atom 1.3 # Create a cluster where all atoms within are solid and max 1.3 units from another member

# define chunks one chunk per cluster
compute clus_chunks solid chunk/atom c_cluster nchunk every compress yes  # Says which atoms are in which chunk

# count the size of each chunk
compute size_chunks solid property/chunk clus_chunks count


# Find the maximum entry in the vector of chunk sizes
variable max_n equal max(c_size_chunks)


# Thermo style which includes this variable
# thermo_style custom step temp pe vol v_max_n

thermo ${N}  # Print the thermo information every 100 steps
thermo 1000  

# Reset the npt fix at a lower temperature (below freezing)
fix 1  all npt temp  ${temp} ${temp}  0.1  iso  5.68  5.68  0.5  mtk yes tchain  5  pchain  5
fix 1  all npt temp  0.45 ${temp}  0.1  iso  5.68  5.68  0.5  mtk yes tchain  5  pchain  5
fix 1  all npt temp  0.45 0.45  0.1  iso  5.68  5.68  0.5  mtk yes tchain  5  pchain  5

dump dmp2 all dcd ${N} traj.dcd
dump dmp2 all dcd 1000 traj.dcd


compute msd all msd com yes
variable twopoint equal c_msd[4]/6/(step*dt+1.0e-6)
fix 9 all vector 10 c_msd[4]
variable fit equal slope(f_9)/6/(10*dt)
thermo_style custom step temp pe c_msd[4] v_twopoint v_fit v_max_n

fix 1 all npt temp 1.25 ${temp} 0.1 iso 5.68 5.68 0.5 mtk yes tchain 5 pchain 5
fix 1 all npt temp 1.25 0.45 0.1 iso 5.68 5.68 0.5 mtk yes tchain 5 pchain 5
run 2000000 # 5000000  # Run for this many steps
Neighbor list info ...
  update every 1 steps, delay 10 steps, check yes
  max neighbors/atom: 2000, page size: 100000
  master list distance cutoff = 3.8
  ghost atom cutoff = 3.8
  binsize = 1.9, bins = 9 9 9
  4 neighbor lists, perpetual/occasional/extra = 1 3 0
  (1) pair lj/cut, perpetual
      attributes: half, newton on
      pair build: half/bin/atomonly/newton
      stencil: half/bin/3d
      bin: standard
  (2) compute orientorder/atom, occasional
      attributes: full, newton on
      pair build: full/bin/atomonly
      stencil: full/bin/3d
      bin: standard
  (3) compute coord/atom, occasional
      attributes: full, newton on
      pair build: full/bin/atomonly
      stencil: full/bin/3d
      bin: standard
  (4) compute cluster/atom, occasional
      attributes: full, newton on
      pair build: full/bin/atomonly
      stencil: full/bin/3d
      bin: standard
Per MPI rank memory allocation (min/avg/max) = 9.762 | 9.772 | 9.779 Mbytes
Step Temp PotEng c_msd[4] v_twopoint v_fit v_max_n 
   12000    1.2116944   -6.4216392 7.6637837e-31 5.3220718e-33 8.3333333e+20            2 
   13000     1.260897   -6.3999697   0.57876142  0.003710009  0.047785564            1 
   14000    1.2112232   -6.4306252    1.1136203 0.0066286923  0.046470691            2 
   15000    1.2368636   -6.4289813    1.6074119 0.0089300659  0.044675625            2 
   16000    1.2395501   -6.4036364    2.0989103  0.010931824  0.043189134            4 
   17000    1.2531936   -6.4672118    2.6285539  0.012885068  0.042986488            2 
   18000    1.2486854   -6.4689738    3.0354584  0.014053048  0.042226564            3 
   19000    1.2460792   -6.4218354     3.532908   0.01549521   0.04149346            3 
   20000     1.255964   -6.4273896    4.0514693  0.016881122  0.041261846            2 
   21000     1.238664   -6.3804727    4.5601105  0.018095676  0.041128672            1 
   22000     1.235601   -6.4632681    5.0472454  0.019118353  0.041254242            3 
   23000    1.2525098   -6.4106523    5.6409448  0.020438205  0.041447264            2 
   24000    1.2795498   -6.4063426    6.1626963  0.021398251  0.041686214            2 
   25000    1.2320513   -6.4267333    6.7149366  0.022383122  0.041943028            1 
   26000    1.2470842   -6.3799275    7.2863848  0.023353797   0.04225727            1 
   27000    1.2386893   -6.4293107    7.7552277  0.023935888  0.042536958            3 
   28000    1.2613856   -6.4167502    8.3406652  0.024823408  0.042714788            3 
   29000    1.2301271   -6.4583665     8.806389  0.025305715  0.042852044            3 
   30000    1.2598169   -6.4751514    9.3432743  0.025953539  0.042974838            1 
   31000    1.2475742   -6.4327876    9.8057362  0.026359506  0.043005557            4 
   32000    1.2362247    -6.437773    10.350033  0.026953212  0.043010161            1 
   33000      1.24611   -6.4943567    10.874298  0.027460348  0.043008769            4 
   34000    1.2274913   -6.4406667    11.499303  0.028184565  0.043082657            3 
   35000     1.261088   -6.4525871    12.044322  0.028676957  0.043208637            5 
   36000    1.2356746    -6.420555    12.581524  0.029123897  0.043348326            3 
   37000    1.2206195   -6.4585875    13.207606   0.02974686  0.043479655            2 
   38000    1.2376498   -6.4319267    13.648126    0.0299301  0.043576278            1 
   39000    1.2429178    -6.447058    14.064104  0.030051504   0.04361521            2 
   40000    1.2348827   -6.4122279    14.609041  0.030435501  0.043602859            4 
   41000     1.243926   -6.4469145    15.184098  0.030861988  0.043634368            3 
   42000    1.2231293   -6.4392814    15.711965  0.031174533  0.043650976            2 
   43000    1.2506723   -6.4644772    16.230732  0.031454907  0.043659893            3 
   44000     1.257954   -6.4598638    16.760417  0.031743213  0.043697263            2 
   45000    1.2199994   -6.4300842    17.313994  0.032062952  0.043762805            1 
   46000    1.2451024   -6.4686641    17.752619  0.032160541  0.043789561            3 
   47000    1.2120781   -6.4994396    18.114911  0.032118637  0.043754848            3 
   48000    1.2287007   -6.4397629     18.60286  0.032296631  0.043680967            5 
   49000    1.2608501   -6.4752989    18.996093  0.032306281  0.043594646            3 
   50000    1.2333116   -6.4770911    19.410777  0.032351295  0.043476786            3 
   51000    1.2338995   -6.4875677    19.918013  0.032545772  0.043361259            2 
   52000    1.2516818   -6.4597834    20.484028  0.032826967   0.04327733            3 
   53000    1.2180126   -6.4697566    20.983041  0.032992203  0.043201125            3 
   54000    1.2309552   -6.4418003    21.584404  0.033309265  0.043134583            2 
   55000    1.2494776   -6.4723867    22.015297  0.033356511  0.043065101            1 
   56000    1.2154367   -6.4572405    22.413209   0.03335299   0.04298598            2 
   57000    1.2154926   -6.4731344    22.989364  0.033610181  0.042899155            1 
   58000    1.2267448   -6.4669541    23.534853  0.033814443  0.042853599            2 
   59000    1.2204248   -6.4684762    23.967998  0.033853104  0.042808507            3 
   60000    1.2304904   -6.4705423    24.673501  0.034268752  0.042773264            2 
   61000    1.2136387   -6.4780465    25.144365  0.034350225  0.042747151            1 
   62000    1.2458552   -6.4524595    25.769591  0.034636546  0.042735843            4 
   63000    1.2304277   -6.4908437    26.231365  0.034697573  0.042744947            4 
   64000    1.2506551   -6.4856565    26.986535  0.035138717  0.042779358            2 
   65000     1.211951   -6.4765954    27.420168  0.035154062  0.042815472            3 
   66000     1.242662   -6.4565889    28.328946  0.035768871  0.042866251            3 
   67000    1.2419898   -6.4910273    28.771885  0.035785927  0.042937584            2 
   68000    1.2311279    -6.444323    29.383838  0.036009605  0.043006145            2 
   69000    1.2013524   -6.4772824    29.787158  0.035974828  0.043063906            1 
   70000    1.2288589   -6.4299269    30.285914   0.03605466  0.043103185            1 
   71000    1.2380708   -6.4741431    30.721135  0.036057669  0.043125662            3 
   72000    1.2266212    -6.502191    31.328767  0.036260147  0.043153815            3 
   73000    1.2167334   -6.4662774     31.63826  0.036116735  0.043180587            2 
   74000    1.2143396   -6.5057761    32.272234  0.036342606  0.043194019            3 
   75000    1.2360445   -6.4328657    33.085118  0.036761242  0.043228893            2 
   76000    1.2069766   -6.4511623    33.540072  0.036776395  0.043260271            5 
   77000    1.2254512   -6.5330556    33.831225   0.03661388  0.043280717            2 
   78000    1.2452505   -6.4606816    34.410957  0.036763843   0.04329138            1 
   79000    1.2525145   -6.4720295    34.940949  0.036857541  0.043307196            3 
   80000    1.2171552   -6.4777643    35.372982  0.036846856  0.043319715            2 
   81000    1.2362992   -6.4438744    35.890211  0.036924085  0.043319889            1 
   82000    1.2340683   -6.5140303     36.46176  0.037054634   0.04332764            3 
   83000    1.2402873   -6.4882229    36.871354  0.037019431  0.043333561            2 
   84000    1.2196606   -6.4996787    37.431726  0.037134648  0.043334222            2 
   85000    1.2186652   -6.4264367    38.061564  0.037315258  0.043347942            1 
   86000    1.2189481   -6.4601609    38.552724   0.03735729  0.043360957            2 
   87000    1.2132681   -6.5000337    39.205768  0.037553418  0.043371971            2 
   88000    1.2071439   -6.4485114    39.837711  0.037725105  0.043390714            3 
   89000    1.2100259   -6.4674118    40.160759  0.037603706  0.043407943            1 
   90000    1.2163135   -6.5250867    40.438517  0.037443071  0.043406522            3 
   91000    1.2206194   -6.4919154    40.863553  0.037420836  0.043400377            2 
   92000    1.2001235   -6.4900069    41.430864  0.037527957  0.043389357            1 
   93000    1.2160069    -6.506525     41.82371  0.037476442  0.043379787            1 
   94000    1.2093074   -6.4689785    42.510004  0.037686174  0.043367627            1 
   95000    1.2304711   -6.5085951    43.072785  0.037783145  0.043355436            1 
   96000    1.2193229   -6.4458966    43.757621  0.037984046  0.043352862            2 
   97000    1.1853345   -6.4729592    44.051961  0.037845327   0.04335008            2 
   98000    1.2124291   -6.4794854    44.305076  0.037674384  0.043338644            2 
   99000     1.232167   -6.4975544    44.691308  0.037618946  0.043313729            1 
  100000    1.2010373   -6.4742085    45.405525  0.037837938  0.043286454            3 
  101000    1.2112331   -6.5382269    45.549323   0.03758195  0.043258778            2 
  102000    1.1896149    -6.526598    45.989358  0.037573005  0.043220952            4 
  103000    1.2004681   -6.4998735    46.413867  0.037551672  0.043181064            3 
  104000    1.1947284   -6.4990595    46.795505  0.037496398  0.043134437            4 
  105000    1.1949901   -6.4908152    47.493364  0.037693146  0.043087939            1 
  106000    1.2036763   -6.4989076    47.997641  0.037733994  0.043049931            1 
  107000     1.213892   -6.4851205    48.658297   0.03789587  0.043016008            2 
  108000    1.1944812   -6.4856811    49.259263  0.038008691  0.042991669            1 
  109000     1.226743   -6.4788343    49.676434  0.037978925  0.042970315            5 
  110000    1.1951333   -6.4798922    50.034255  0.037904738  0.042942347            3 
  111000    1.2289801   -6.5032418    50.299388  0.037762303  0.042911846            2 
  112000    1.2111988   -6.4819618    50.696904  0.037720911  0.042869578            6 
  113000     1.224716   -6.5036437    51.128661  0.037705502  0.042823108            2 
  114000     1.215116   -6.4944556    51.409905  0.037580339  0.042774274            1 
  115000    1.2105956   -6.5158705    52.163644  0.037799742  0.042732831            4 
  116000    1.2184907   -6.4966208    53.021508  0.038090164  0.042704008            1 
  117000    1.2019367   -6.5484828    53.170502  0.037870728  0.042673963            3 
  118000    1.1948112   -6.5148657    53.694236  0.037919658  0.042641864            2 
  119000    1.2008956   -6.5321941    53.808895  0.037681299  0.042601096            1 
  120000    1.2182346   -6.5020241    54.314038  0.037718082  0.042547674            2 
  121000    1.2145484   -6.5050187    54.628559  0.037622974  0.042491132            3 
  122000    1.2092782   -6.4818003    55.090525   0.03763014  0.042433983            1 
  123000    1.2137587   -6.5161806    55.782985   0.03779335  0.042385863            2 
  124000    1.2306648   -6.5028098    56.165438   0.03774559  0.042340084            1 
  125000    1.1993366   -6.5255482    56.321185  0.037547457    0.0422926            1 
  126000    1.1783427   -6.5482625    56.783175   0.03755501  0.042241899            3 
  127000    1.2047995   -6.4728074    57.398942  0.037663348  0.042191516            6 
  128000    1.2101012   -6.5603957    57.900221  0.037695456  0.042143302            2 
  129000    1.1868312   -6.5199963    58.358451  0.037699258  0.042095767            1 
  130000    1.2063507   -6.4897807    58.818088  0.037703902  0.042054975            1 
  131000    1.2047384   -6.5004463    59.233771  0.037680516  0.042012237            2 
  132000    1.2095639   -6.4660067    59.714995   0.03769886  0.041967791            2 
  133000    1.1683769   -6.5133198    60.227198  0.037736339  0.041921515            1 
  134000    1.2032154   -6.5409177    60.546049  0.037653015   0.04187671            2 
  135000    1.2008428   -6.5187662    60.944312  0.037619945  0.041830952            2 
  136000    1.1905032   -6.5245772    61.613315  0.037753256  0.041788135            1 
  137000    1.2035344   -6.5285882    61.798062  0.037590062  0.041749835            1 
  138000    1.1942761   -6.5071534    62.382086  0.037670342   0.04170615            1 
  139000    1.1935057   -6.5223361     62.91865  0.037721013  0.041664937            1 
  140000     1.209368    -6.510217    63.397987  0.037736897   0.04162895            1 
  141000     1.214699   -6.5676444    63.960895  0.037801947  0.041593039            2 
  142000    1.1949678   -6.5635426    64.438537  0.037816043  0.041561957            1 
  143000    1.2034507   -6.5327972    64.923828  0.037834399  0.041528826            2 
  144000    1.1907319   -6.5066881    65.268137  0.037770912  0.041490481            2 
  145000     1.180969   -6.4990239    65.899002  0.037872989  0.041455881            7 
  146000    1.2018825   -6.5404594    66.501852  0.037957678  0.041423945            3 
  147000     1.183789   -6.5380374    66.736559  0.037832517   0.04139287            1 
  148000    1.1808709   -6.5038194    67.394023  0.037947085  0.041361586            3 
  149000    1.1751447   -6.5635954    67.738021  0.037884799  0.041334596            3 
  150000    1.2021561   -6.5479558    68.127408   0.03784856  0.041305358            2 
  151000    1.1908167   -6.4839324    68.729875  0.037930394  0.041276497            2 
  152000    1.1983308   -6.5451283    68.793894   0.03771595  0.041247461            2 
  153000    1.1640178   -6.4949718    69.492017  0.037849682  0.041218052            1 
  154000    1.1798018   -6.4948233    69.922707  0.037836962  0.041189943            2 
  155000    1.2076909   -6.5596056    70.355751  0.037825672  0.041160228            1 
  156000    1.1835248   -6.5255822    71.042502  0.037950055  0.041131681            2 
  157000     1.208301   -6.5456881    71.452607  0.037926012  0.041105094            1 
  158000    1.1889391   -6.5192853    71.663648  0.037797282  0.041076206            3 
  159000    1.1866594   -6.5781768    71.991804  0.037731554  0.041042524            2 
  160000    1.2011238   -6.5238024     72.65507  0.037841182  0.041013215            2 
  161000    1.1924669   -6.5402295      73.1594  0.037867184  0.040987373            1 
  162000    1.1598677   -6.5226149    73.856934   0.03799225  0.040966645            1 
  163000    1.1767197    -6.543857    74.367373  0.038020129  0.040944291            1 
  164000    1.1824127   -6.5480478    74.430151  0.037820199  0.040922094            3 
  165000    1.1916565   -6.5399703    75.030872   0.03789438  0.040896786            2 
  166000    1.2183944   -6.5449181    75.134865  0.037718306  0.040870475            5 
  167000    1.1884833   -6.5443805    75.840997  0.037844809  0.040843478            5 
  168000    1.1864274   -6.5496267    76.247204  0.037821034   0.04081751            3 
  169000     1.163538   -6.5361903    76.568196  0.037755521  0.040787427            1 
  170000    1.1699968   -6.5301155    76.581101  0.037539756   0.04075233            2 
  171000    1.1677738   -6.5495001    77.248649   0.03764554  0.040716305            2 
  172000    1.2108432   -6.5680808    77.512193  0.037554357  0.040680371            2 
  173000    1.1828187   -6.5550003    77.774209  0.037463492  0.040645037            3 
  174000    1.2078938   -6.5374917    77.942759  0.037328908   0.04060799            2 
  175000    1.1709771   -6.5522776     78.69589  0.037474233  0.040570493            2 
  176000    1.1795086   -6.5076305    79.018052   0.03741385    0.0405319            1 
  177000    1.1835512   -6.5490378    79.373154  0.037369658  0.040492367            2 
  178000    1.1898175   -6.5537249    79.698424  0.037311996  0.040454377            1 
  179000     1.183952   -6.5666933    80.156482  0.037316798  0.040413654            7 
  180000    1.1901802    -6.561409    80.782973  0.037399524  0.040375664            3 
  181000     1.187279   -6.5697036    81.229239   0.03739836  0.040337394            2 
  182000    1.1738981   -6.5531239      81.6268  0.037374908  0.040302305            2 
  183000    1.1809092    -6.573925    82.041058  0.037359316  0.040268081            1 
  184000    1.1940521   -6.5638093    82.823574  0.037510677  0.040238479            2 
  185000    1.1823374   -6.5592054    83.171554  0.037464664  0.040211673            2 
  186000    1.1706685   -6.5518043    83.826222  0.037556551  0.040183581            6 
  187000    1.1871904   -6.5551835     84.15991  0.037504416  0.040155238            1 
  188000    1.1654462   -6.5617405    84.988101   0.03767203  0.040129204            2 
  189000    1.1859774   -6.5581286    85.397112  0.037653048  0.040105014            2 
  190000    1.1872032   -6.5464928    85.967032  0.037704839  0.040084191            3 
  191000    1.1669656   -6.5504393    86.474724  0.037728937  0.040064413            2 
  192000    1.1830618   -6.5577817    86.580508  0.037578346  0.040043896            2 
  193000    1.1772006   -6.5470345    87.364649  0.037722215  0.040022618            2 
  194000    1.1487539   -6.5510894    87.722441  0.037681461  0.040001396            1 
  195000    1.1887492   -6.6178639    87.943459  0.037582675  0.039978405            1 
  196000     1.180734   -6.5562022    88.412487  0.037590343  0.039954455            3 
  197000    1.1753816   -6.6068126    88.650658  0.037500278  0.039929249            1 
  198000    1.2014586   -6.5693328    89.377387  0.037616745  0.039904486            3 
  199000    1.1448225   -6.5229063    90.267671  0.037800532  0.039882186            2 
  200000    1.1686955   -6.5976987    89.936609  0.037473587  0.039860356            2 
  201000    1.1701629   -6.5636476    90.720943  0.037612331  0.039839374            1 
  202000    1.1489705   -6.5918909    91.147431  0.037602075  0.039817304            2 
  203000    1.1824272   -6.5859186    91.670805  0.037631693  0.039796084            4 
  204000    1.1960868    -6.519023    91.947343  0.037560189  0.039776347            2 
  205000    1.1954119   -6.5548543    92.634353  0.037656241  0.039757596            3 
  206000    1.2239935   -6.6099485    92.850781  0.037560996  0.039738169            5 
  207000    1.1798421   -6.5590933    93.738382  0.037736869  0.039719811            2 
  208000    1.1601031   -6.5579916    94.346469  0.037799066    0.0397034            6 
  209000    1.1531439    -6.601245    93.835274  0.037414383  0.039683263            2 
  210000    1.1595887   -6.5896987    94.725646  0.037589542  0.039662036            2 
  211000    1.1948026   -6.5788617    95.118395  0.037566507  0.039642733            2 
  212000    1.1612504   -6.5885628    95.494566  0.037537172  0.039623295            2 
  213000    1.1412871    -6.575159     95.46926   0.03735104  0.039602609            4 
  214000    1.1480964   -6.5764302    96.488192  0.037573283  0.039583695            2 
  215000    1.1575549    -6.571279    96.743426  0.037497452  0.039564514            4 
  216000    1.1730214   -6.5785387     97.01802  0.037429792  0.039542924            3 
  217000    1.1544953   -6.5457709     97.81969  0.037565165  0.039522817            3 
  218000    1.1862564   -6.5877513    98.689658  0.037725404  0.039504576            4 
  219000    1.1538913     -6.53435    99.275779  0.037776171  0.039488327            3 
  220000      1.16635   -6.6088723    99.343704  0.037630191  0.039472866            3 
  221000     1.154249   -6.5861036    99.369622  0.037469692  0.039456666            3 
  222000     1.166536   -6.5903112    100.07834  0.037566945  0.039440142            3 
  223000      1.16454    -6.601846    100.52082  0.037563834  0.039424845            2 
  224000    1.1507436   -6.5924965    100.94764  0.037554925  0.039407218            3 
  225000    1.1844032   -6.5829319    101.21087  0.037485508  0.039388895            4 
  226000    1.1912195   -6.5994918     101.6032  0.037464307  0.039371403            2 
  227000     1.186338   -6.6190869    101.99736  0.037443966  0.039355146            2 
  228000    1.1747491   -6.5951644    102.39818  0.037426234  0.039336591            4 
  229000     1.159188   -6.5979895    102.48491  0.037294364  0.039318326            1 
  230000    1.1563657   -6.5743492    103.20693  0.037393815  0.039298146            3 
  231000    1.1398929   -6.6010522    103.59361  0.037371433  0.039279065            3 
  232000    1.1499097   -6.5906423    103.72125  0.037256197  0.039255375            5 
  233000    1.1482205    -6.611171    104.63915  0.037424589  0.039234274            2 
  234000    1.1765324   -6.5878994    104.66598  0.037274211  0.039210172            2 
  235000    1.1666476    -6.549217    104.50747  0.037059386   0.03918575            1 
  236000    1.1320303   -6.5943044     105.0647  0.037099119  0.039160969            2 
  237000    1.1527015   -6.5851219    105.41807  0.037066834  0.039135713            2 
  238000    1.1390421   -6.5774137    106.54815  0.037306775  0.039112095            1 
  239000    1.1550835   -6.5664456    106.75519  0.037222869  0.039090047            3 
  240000      1.19235   -6.5974547    107.05636  0.037172348   0.03906695            7 
  241000    1.1605067   -6.5930344    107.41807  0.037143177   0.03904396            3 
  242000    1.1683549   -6.6230681    108.01433  0.037195017   0.03902101            2 
  243000    1.1664841   -6.5862375    107.92075   0.03700986  0.038997582            2 
  244000    1.1552998   -6.6181072    108.29465  0.036985878  0.038970634            2 
  245000    1.1614746   -6.6049098    109.31187   0.03718091  0.038944835            2 
  246000     1.143482   -6.5915115     108.9336  0.036901627  0.038919892            2 
  247000    1.1781256   -6.5928167    109.63512  0.036988906  0.038893949            1 
  248000    1.1435038   -6.6536129    110.11366  0.037000556  0.038870301            3 
  249000    1.1356724   -6.6046524    110.38615  0.036943155  0.038845354            2 
  250000    1.1555721   -6.6155245    110.52846   0.03684282  0.038820704            2 
  251000    1.1532281   -6.5995989     110.9247   0.03682759  0.038795918            2 
  252000    1.1660679   -6.6093023    111.82281  0.036978443   0.03877239            4 
  253000    1.1672184    -6.622772    111.99017  0.036887408  0.038749051            5 
  254000    1.1352372    -6.593759    112.25233  0.036828192  0.038724429            4 
  255000    1.1680493   -6.6600494    112.32662  0.036708046  0.038699518            2 
  256000    1.1579468   -6.6215827     113.2854  0.036876757   0.03867547            4 
  257000    1.1783496   -6.5974982    113.79845  0.036899628  0.038651873            1 
  258000    1.1556717   -6.6077606    113.58511  0.036687697  0.038628597            4 
  259000    1.1294069   -6.6107773    114.43899  0.036820781  0.038604522            2 
  260000    1.1683618   -6.6175884    114.76874  0.036784852   0.03858041            1 
  261000    1.1491949   -6.5623295    115.91452  0.037009743  0.038558393            2 
  262000    1.1500444   -6.6062308    115.97753  0.036888527  0.038537638            3 
  263000    1.1688499   -6.5962838    116.47514  0.036905939   0.03851707            1 
  264000    1.1522715   -6.6081612      116.672  0.036828282  0.038495861            1 
  265000    1.1287826    -6.598936     117.4917  0.036947077  0.038475212            3 
  266000    1.1662845   -6.6030382    117.88539  0.036931512  0.038455682            2 
  267000    1.1624606   -6.6229081     118.1034  0.036861237  0.038436668            1 
  268000     1.152015   -6.5947508    119.02376  0.037009875  0.038418665            2 
  269000     1.145804   -6.6039436    118.98758  0.036861085  0.038400533            2 
  270000    1.1356138    -6.600538    119.14696  0.036773754  0.038381016            2 
  271000    1.1359415    -6.600536    119.76741  0.036828848  0.038361229            2 
  272000    1.1563601   -6.6710983     119.6455  0.036656096   0.03833994            3 
  273000    1.1309509   -6.6229314    119.99786  0.036629383   0.03831628            2 
  274000    1.1473034   -6.6070066    120.46374   0.03663739  0.038291641            2 
  275000    1.1162166    -6.608178    120.89977  0.036636294  0.038268816            4 
  276000    1.1416771   -6.6298076    121.48771  0.036681073  0.038245768            2 
  277000    1.1479033   -6.6218767    121.96843   0.03669327   0.03822313            2 
  278000    1.1325328   -6.6195952    122.40555  0.036692311  0.038201254            2 
  279000    1.1613619   -6.6254851    122.92559  0.036716125  0.038179908            2 
  280000     1.136684   -6.6198489    122.71361  0.036521909  0.038158426            1 
  281000    1.1556875   -6.6533604    122.87883  0.036440935  0.038135859            3 
  282000    1.1329086   -6.6268508    123.47468  0.036487791  0.038111006            4 
  283000    1.1401224   -6.6091063    123.45817  0.036353996  0.038087444            1 
  284000    1.1725622   -6.6242593    123.94154  0.036367824  0.038062561            5 
  285000    1.1328418   -6.6566568    124.30999  0.036347949     0.038037            3 
  286000    1.1629935   -6.6394752    124.53154  0.036285415  0.038011906            2 
  287000    1.1484912   -6.6095528    125.23684  0.036363776  0.037985965            1 
  288000    1.1602597   -6.6429629    125.38599  0.036280669  0.037959539            2 
  289000    1.1562561   -6.6401919    125.57259  0.036208937  0.037933659            3 
  290000    1.1415718    -6.636712    126.22729  0.036272209  0.037908378            4 
  291000    1.1011254   -6.6447996    127.16106  0.036414966  0.037884498            2 
  292000    1.1584173   -6.6552236     127.0986  0.036272433  0.037861252            1 
  293000    1.1251495   -6.6578653    127.55487  0.036278404   0.03783695            2 
  294000    1.1711138   -6.6037423    128.21229  0.036341351  0.037814083            3 
  295000    1.1120126   -6.6565887    128.45838  0.036287677  0.037790612            3 
  296000    1.1090084   -6.6809214    128.24413  0.036104767  0.037766702            2 
  297000    1.1297523   -6.6156641    129.36625   0.03629805  0.037742684            2 
  298000    1.1353767   -6.6587189    129.69641   0.03626857  0.037719248            3 
  299000    1.1326913   -6.6396293    129.57441  0.036113268  0.037695041            3 
  300000    1.1102074   -6.6542881    129.51579  0.035976609  0.037670369            1 
  301000    1.1573365   -6.6699352    129.99128  0.035988725  0.037645565            3 
  302000    1.1545694   -6.6219802    130.81312  0.036096336  0.037620913            2 
  303000    1.1418489   -6.6329552    130.98883  0.036025532  0.037596494            2 
  304000    1.1246643   -6.6242166    131.80165  0.036129838  0.037573099            3 
  305000    1.1296207   -6.6451928     132.0924  0.036090818  0.037549719            2 
  306000    1.1537295   -6.6746905     132.7736  0.036158388   0.03752727            1 
  307000    1.1176317   -6.6583902     133.0207  0.036107682  0.037505564            2 
  308000    1.1349895   -6.6589467    133.58431  0.036142941  0.037484499            4 
  309000    1.1347848   -6.6774654    133.76437  0.036074532   0.03746258            4 
  310000     1.137148   -6.6917734    134.26263  0.036092105  0.037441756            2 
  311000    1.1481146   -6.6226872    134.87593  0.036140387  0.037420901            3 
  312000    1.1288293   -6.6465678    135.46291  0.036181334  0.037401486            3 
  313000     1.122757   -6.6565605    135.56865   0.03609389  0.037382286            1 
  314000    1.1196668   -6.6866242    136.17182  0.036139017  0.037364287            5 
  315000    1.1084146   -6.6497208    136.55012  0.036124371  0.037346068            2 
  316000    1.1410894   -6.6546299    137.10414  0.036156154  0.037327869            2 
  317000    1.1159837   -6.6686886    137.16889   0.03605912  0.037309669            3 
  318000    1.1128331   -6.6696361     137.5092  0.036034905  0.037290491            2 
  319000    1.0965924    -6.656705    138.17005  0.036094579  0.037270732            1 
  320000    1.1497485   -6.6908787    138.02134  0.035943057  0.037250691            1 
  321000    1.1148978    -6.689863    138.19914  0.035877244  0.037230796           10 
  322000    1.1305277   -6.6522883    138.85132  0.035934607  0.037211595            2 
  323000    1.1408132   -6.6613832     139.2603   0.03592887   0.03719246            1 
  324000    1.1091726   -6.6702921    139.43996  0.035864188  0.037172791            3 
  325000    1.1175076   -6.6590508    140.10052   0.03592321  0.037152283            1 
  326000    1.1080434   -6.6495407    140.52374  0.035921202  0.037131458            3 
  327000    1.1272639   -6.7002861    140.82169  0.035887281  0.037111198            3 
  328000    1.1209966   -6.6552514    141.06188  0.035838893  0.037090708            1 
  329000    1.1369075    -6.678582     141.1948  0.035763627  0.037068697            3 
  330000    1.1011401   -6.6615675    141.41919  0.035711917  0.037046563            2 
  331000     1.113734   -6.6487786    141.26537    0.0355653  0.037023799            4 
  332000    1.1111794   -6.6283099    142.76873  0.035835526  0.037002229            2 
  333000    1.1089225   -6.6770036    142.82137  0.035741083  0.036981195            3 
  334000    1.1400524   -6.6457814    143.87758  0.035897599  0.036959983            2 
  335000    1.1234122   -6.6511987     143.9651  0.035812213  0.036939946            3 
  336000    1.1089894   -6.6699417     143.9826   0.03570997  0.036919144            3 
  337000    1.1150552   -6.6782881    144.40625  0.035708767  0.036899334            3 
  338000    1.1117588   -6.7085388    144.08845  0.035524765   0.03687671            2 
  339000    1.1332394    -6.675411    144.64245  0.035556158  0.036854649            3 
  340000    1.1172013   -6.6864011    145.22027  0.035593203  0.036832824            1 
  341000    1.1078557   -6.6935806    145.07884  0.035454261  0.036809632            4 
  342000    1.1067736   -6.6760702    145.76414  0.035517577  0.036786268            3 
  343000    1.1319911    -6.695084    145.65386  0.035387235  0.036764238            2 
  344000    1.1053761     -6.70157     146.4954  0.035488227  0.036741766            3 
  345000    1.1420787   -6.6797522    147.29888   0.03557944  0.036720303            2 
  346000     1.112963   -6.6807186    147.44665  0.035512199  0.036698821            2 
  347000    1.1148125   -6.6912313    147.92729  0.035525286  0.036677509            1 
  348000    1.1354726   -6.6615436    148.03112  0.035448065  0.036655642            2 
  349000    1.1071035   -6.6664058      148.207  0.035388491  0.036633474            3 
  350000    1.1173672    -6.703132    148.45221  0.035345764  0.036611159            4 
  351000    1.1024436   -6.6826812    148.57949  0.035275283  0.036588592            2 
  352000    1.0976615   -6.6809777    149.01876  0.035279061  0.036566023            2 
  353000    1.1091117   -6.6635929    149.92013   0.03539191  0.036544274            2 
  354000    1.1018923   -6.6729244     150.1529  0.035346729  0.036522462            7 
  355000    1.1184919   -6.7162939    150.86314  0.035413883  0.036501468            1 
  356000    1.1090861   -6.6595125    151.37872  0.035435094   0.03648146            2 
  357000     1.094131   -6.6423391    151.55318  0.035376558  0.036461326            2 
  358000    1.0889389   -6.7143942    151.38015  0.035237466  0.036441082            4 
  359000    1.0909226   -6.6692893     152.1588  0.035320055  0.036420176            2 
  360000    1.1066712   -6.7077236    151.93236  0.035169527  0.036399817            4 
  361000    1.1160385   -6.7294993     152.7218   0.03525434  0.036378942            6 
  362000    1.1079349    -6.648242     152.7113  0.035154536  0.036357553            2 
  363000    1.1237377   -6.7020807    153.64611  0.035272294  0.036336085            2 
  364000    1.1273874   -6.6777003    153.50713  0.035143573  0.036313311            1 
  365000    1.1164525   -6.6928537     154.1562   0.03519548  0.036291182            1 
  366000    1.1341797   -6.7139333    154.30374   0.03513291  0.036270478            6 
  367000    1.0786114   -6.7129839    154.66245  0.035118631  0.036249349            2 
  368000    1.1036058   -6.6653504    155.47938  0.035208193  0.036227904            5 
  369000    1.1211554   -6.6901338    155.28326  0.035068487  0.036206589            1 
  370000    1.0977878   -6.7183327    156.05834  0.035148275  0.036186257            3 
  371000    1.0988564   -6.6948057    156.07758  0.035057857  0.036165705            2 
  372000    1.0865284   -6.6776552    156.86188  0.035139311  0.036145559            3 
  373000    1.1077299   -6.6961107    156.97201  0.035069707  0.036125239            6 
  374000    1.1046227   -6.7371418    157.58527  0.035112582  0.036104678            2 
  375000    1.0945296   -6.6428018    157.98301  0.035107335  0.036084063            3 
  376000    1.1013283   -6.7124307    158.74488   0.03518282  0.036064421            2 
  377000    1.1026616   -6.6655249    158.36433  0.035005379  0.036044027            2 
  378000    1.1076428   -6.6754838    158.76208   0.03500046  0.036023122            1 
  379000     1.077499   -6.7282526    158.90942  0.034940505  0.036002502            4 
  380000    1.1201232   -6.7194848     159.2234  0.034917412  0.035981527            2 
  381000    1.1069281   -6.7107333    159.80575  0.034953138  0.035961907            2 
  382000    1.1027092   -6.7090691    160.04498  0.034913826  0.035941993            2 
  383000     1.099425    -6.722312    160.63223  0.034950443  0.035922148            3 
  384000     1.092775   -6.7055605    161.27274  0.034998425  0.035903278            2 
  385000    1.1328403    -6.681843    161.94146  0.035052263   0.03588417            4 
  386000    1.1100911   -6.6925549    162.11866  0.034999711   0.03586509            4 
  387000     1.105849   -6.7091592    162.24421  0.034936306   0.03584557            4 
  388000    1.0925872   -6.7308791    162.32126  0.034862814  0.035826031            2 
  389000    1.0890275   -6.7151788    162.66418  0.034846653    0.0358061            2 
  390000    1.1045349   -6.7276771    162.91776  0.034811488  0.035786734            4 
  391000    1.0756843   -6.7042227    163.61432  0.034870912  0.035768544            2 
  392000    1.1020088   -6.6957816    164.93239  0.035062157   0.03575127            6 
  393000    1.1024397   -6.7310506    165.08031  0.035004306  0.035733996            2 
  394000    1.0844323   -6.7423517    165.81259  0.035070345  0.035717057            2 
  395000    1.0951647   -6.7602736    165.86728  0.034993097  0.035699566            2 
  396000     1.118265   -6.7329721    165.67364  0.034863982  0.035682688            3 
  397000    1.1013271   -6.6993391    166.44984  0.034939093  0.035666026            1 
  398000    1.1042928   -6.7168404    166.46101  0.034853646  0.035648841            3 
  399000    1.0976768   -6.7219736    167.07791  0.034895135  0.035632302            2 
  400000    1.1023619   -6.7210354    167.12408  0.034817516  0.035615887            5 
  401000    1.0917614   -6.7265523    167.49342  0.034807445  0.035598297            3 
  402000    1.0976413   -6.7524274    167.66493  0.034756412  0.035580408            2 
  403000    1.1033875   -6.7382511    168.42359  0.034827045  0.035562707            3 
  404000    1.0982758   -6.7319327    168.36988   0.03472976   0.03554492            2 
  405000    1.0868169   -6.7085292    169.20081  0.034814982  0.035527194            4 
  406000    1.1104658   -6.7293709    169.44406  0.034779158  0.035510434            3 
  407000    1.0842542   -6.7400663    170.14498   0.03483722  0.035493925            2 
  408000    1.0866336   -6.7312971    170.08448  0.034739476  0.035477367            4 
  409000    1.0881274   -6.7134334    170.83205  0.034806855  0.035459999            5 
  410000    1.0858146   -6.7641326    170.97876   0.03475178  0.035442944            4 
  411000    1.0894878   -6.7358309    170.69762  0.034610223  0.035424629            4 
  412000     1.092941   -6.7393285    171.48318  0.034685108  0.035407029            2 
  413000    1.0942809    -6.712254    171.61773  0.034628275  0.035389068            7 
  414000    1.0776207   -6.7663312    171.88103  0.034597632  0.035371159            1 
  415000    1.0927061   -6.7564889    171.90927  0.034519935   0.03535248            3 
  416000    1.0692915   -6.7239078    172.06419  0.034467987  0.035334107            3 
  417000    1.0834494   -6.7291393    172.85731  0.034543826  0.035316533            2 
  418000    1.1050608   -6.7300721    173.63771  0.034616769  0.035298843            2 
  419000    1.0931471   -6.7425038    173.52428  0.034511591  0.035281207            4 
  420000    1.0874251   -6.7485205    174.30324  0.034583975  0.035263561            4 
  421000     1.079848   -6.7369617    174.28779  0.034498772  0.035246193            2 
  422000    1.0908624   -6.7658358    174.77394   0.03451302   0.03522862            3 
  423000    1.0861188   -6.7247818    175.33636  0.034542231  0.035210851            3 
  424000    1.1019686   -6.7140228    175.50233  0.034493382  0.035193904            2 
  425000    1.0869672    -6.734604    176.19246  0.034547542   0.03517671            4 
  426000    1.0853959   -6.7087244    176.44683  0.034516202  0.035159526            2 
  427000    1.0846462   -6.7343382    176.01034  0.034350183  0.035142069            2 
  428000    1.1117506   -6.7631088    176.53186  0.034371468  0.035124451            3 
  429000     1.058656   -6.7149057    177.59005  0.034496902  0.035107129            3 
  430000    1.1165019   -6.7954702    177.17474   0.03433619  0.035089344            3 
  431000    1.0847182   -6.7243615    178.02731  0.034421367  0.035072313            4 
  432000    1.0721655   -6.7201888     177.9406   0.03432496  0.035054793            2 
  433000    1.0695931   -6.7396751    178.58265  0.034369255   0.03503752            4 
  434000    1.0959423    -6.736124    179.19975  0.034408553  0.035020888            3 
  435000    1.0688085   -6.7406167    179.48783  0.034384641  0.035003824            3 
  436000    1.0736234   -6.7476555    180.21995  0.034445709  0.034986501            2 
  437000    1.0897261   -6.7408827    179.79083  0.034285055  0.034969186            3 
  438000    1.0916439   -6.7513085    179.86524  0.034220935   0.03495146            2 
  439000    1.0852514   -6.7625983    180.63688  0.034289461  0.034934043            2 
  440000    1.0901445    -6.751347    180.93883  0.034268717  0.034916778            2 
  441000    1.0838182   -6.7255941    181.24746  0.034249332  0.034899138            3 
  442000    1.0823373   -6.7783869    181.10299  0.034144606  0.034881077            3 
  443000    1.0760317   -6.7252305    181.94999  0.034226861  0.034863482            2 
  444000     1.092139    -6.770428    181.45584  0.034057027  0.034844961            2 
  445000    1.0877504   -6.7655955    181.81919  0.034048538  0.034826461            2 
  446000    1.0675913   -6.7740039    182.33258  0.034068121   0.03480854            3 
  447000    1.0685691   -6.7571302    182.99939  0.034116217  0.034791519            3 
  448000    1.0728582    -6.734492    184.30242  0.034282443  0.034774794            3 
  449000    1.0741193   -6.7938323      183.557  0.034067744  0.034757525            6 
  450000    1.0846992   -6.7446143     184.2779  0.034125536  0.034740397            2 
  451000     1.070202    -6.731901    184.82095  0.034150212  0.034723556            2 
  452000     1.065989   -6.7700874    184.66487  0.034045883  0.034705931            4 
  453000    1.0936909   -6.7597176    184.86028  0.034006675  0.034688144            1 
  454000    1.0680641    -6.771735     184.9355  0.033945576  0.034670264            2 
  455000    1.0493143   -6.7702691    185.38629  0.033953533  0.034651956            1 
  456000    1.0682799   -6.7548002    185.59563   0.03391733   0.03463405            4 
  457000    1.0520545   -6.7913782    185.44357  0.033815384   0.03461553            5 
  458000    1.0500695   -6.7680059    186.47902  0.033929953  0.034596814            2 
  459000    1.0952589   -6.8068378    186.42663  0.033846519  0.034578767            6 
  460000    1.0825218   -6.8192442    187.19179  0.033911556   0.03456107            3 
  461000     1.076485   -6.7521938    187.90128  0.033966247  0.034543575            3 
  462000    1.0748809    -6.809496    187.40851  0.033803843  0.034526199            3 
  463000    1.0828496   -6.7325503    188.79444  0.033980281  0.034509285            3 
  464000     1.076396   -6.7253454     188.5518  0.033863469  0.034491994            2 
  465000    1.1048878   -6.7909547    189.37533  0.033938231  0.034475526            2 
  466000    1.0908087   -6.7894699    189.51818  0.033890947   0.03445916            4 
  467000     1.080064   -6.7784851    189.55331  0.033824644  0.034442524            3 
  468000    1.0741887   -6.7702072     190.1271  0.033854541  0.034425986            3 
  469000    1.0802814   -6.7869036    189.69591  0.033705741  0.034408476            2 
  470000    1.0991623   -6.7491712     190.8739  0.033842891  0.034390723            2 
  471000    1.0794044   -6.7359945    191.37289  0.033859323  0.034373396            2 
  472000    1.0787309   -6.7264214    191.72491  0.033849737  0.034356118            3 
  473000    1.0584415   -6.8260756    191.01617  0.033653307  0.034338302            3 
  474000    1.0720912   -6.7799184    190.97278   0.03357468   0.03431988            2 
  475000    1.0793621   -6.7264253    191.50059  0.033596595  0.034301657            2 
  476000    1.0691707   -6.7811506    192.22562  0.033652944  0.034283845            2 
  477000    1.0704278   -6.7666315    193.08503  0.033732535  0.034266556            1 
  478000    1.0800155   -6.7916903    192.71116  0.033596786  0.034249211            3 
  479000    1.0513638    -6.797481    192.11898  0.033423622  0.034231496            3 
  480000    1.0469006   -6.8049559     192.8316  0.033477708  0.034213415            2 
  481000    1.0742945   -6.8036569    193.64999  0.033549895  0.034195048            4 
  482000    1.0654527   -6.7456779    193.72465  0.033493198  0.034177259            3 
  483000    1.0453124   -6.7784823    193.95524  0.033463637  0.034158746            3 
  484000    1.0391743   -6.8015519    193.59255  0.033332051  0.034140007            2 
  485000    1.0560006   -6.8248195    194.12897  0.033355493  0.034121027            5 
  486000    1.0621538   -6.7617225    195.37907  0.033501212  0.034102081            3 
  487000    1.0641616   -6.7549158    195.21718  0.033404719  0.034083292            2 
  488000    1.0649101   -6.8069605    195.49209  0.033383212  0.034064597            5 
  489000    1.0440377   -6.7748317    195.07387  0.033243672  0.034044863            4 
  490000    1.0626746   -6.7812329    195.91008  0.033318041  0.034025789            3 
  491000    1.0788676   -6.7949904    195.85949  0.033241596  0.034006324            2 
  492000    1.0488929    -6.775486    196.75759  0.033326151   0.03398666            2 
  493000    1.0371909   -6.7499665    197.32364  0.033354233  0.033967613            3 
  494000     1.045003   -6.7638271    197.11052  0.033250762  0.033948774            3 
  495000    1.0376089   -6.7947564    197.54251  0.033256314   0.03392957            2 
  496000    1.0451234    -6.811479    197.74648  0.033223534  0.033910148            3 
  497000    1.0652151      -6.7899    197.78041  0.033162376   0.03389063            2 
  498000    1.0428545   -6.7769363    198.03662  0.033138658  0.033871348            4 
  499000    1.0722852   -6.8128045    198.33908  0.033122759   0.03385183            5 
  500000    1.0533015   -6.7554993     198.8587  0.033143117  0.033832707            2 
  501000    1.0574524   -6.7889015    198.72494  0.033054714  0.033813581            5 
  502000    1.0440032   -6.8070539    199.54802  0.033125502  0.033793848            2 
  503000    1.0678635   -6.8052615    199.16312  0.032995878  0.033774378            2 
  504000    1.0507518   -6.7949917    199.82021  0.033039055   0.03375465            3 
  505000    1.0283796    -6.800932    200.44767  0.033077173  0.033735485            2 
  506000    1.0401907   -6.8043809    200.45645   0.03301325  0.033716276            3 
  507000    1.0792413   -6.8097226    200.64298  0.032978793  0.033696986            2 
  508000    1.0373245   -6.7864333    200.93396  0.032961607  0.033677523            2 
  509000     1.078275    -6.829413    201.21577  0.032942988  0.033657915            2 
  510000    1.0407238   -6.8174856    201.06865  0.032854354  0.033638625            5 
  511000    1.0562471   -6.8358438    201.84312   0.03291636   0.03361905            2 
  512000     1.025389   -6.8104202     202.5073  0.032960173   0.03359978            3 
  513000    1.0562114   -6.8204846    202.28332  0.032859539  0.033580838            2 
  514000    1.0594279   -6.8011994    203.26848  0.032955331  0.033561687            3 
  515000    1.0598786   -6.8120648    202.52036  0.032770285  0.033543039            4 
  516000    1.0263607   -6.7848765    204.21821  0.032980976  0.033524815            7 
  517000    1.0371156   -6.8307644     203.8455  0.032857108  0.033506521            3 
  518000    1.0513397   -6.8343205    204.66659  0.032925771  0.033488233            3 
  519000    1.0531114   -6.8411145    204.67076     0.032863  0.033469782            4 
  520000    1.0381243   -6.8260732    205.21742  0.032887407  0.033451507            1 
  521000    1.0442932   -6.7831827    206.55701   0.03303855   0.03343394            3 
  522000     1.034563   -6.8378277    206.54988  0.032974119  0.033416873            2 
  523000    1.0269429    -6.829249    206.18588  0.032853073  0.033399863            4 
  524000    1.0479076   -6.8402819     206.5757  0.032852369  0.033382256            2 
  525000    1.0789428    -6.841298    206.97623   0.03285337  0.033364683            3 
  526000    1.0423531   -6.8279052      207.231  0.032831274  0.033347437            2 
  527000    1.0248906   -6.8043415    207.49166  0.032810193  0.033330653            6 
  528000    1.0390174   -6.7911128    208.50615  0.032908167  0.033313322            8 
  529000    1.0373477   -6.8091026    207.47379  0.032683332  0.033295345            2 
  530000    1.0308926    -6.819938    207.95195  0.032696847  0.033277421            1 
  531000    1.0201222   -6.8156916    208.40114  0.032705766  0.033259755            2 
  532000    1.0467133    -6.778075    209.60638  0.032833079  0.033242817            2 
  533000    1.0548386   -6.8297346    209.26247  0.032717709  0.033225613            2 
  534000    1.0588382   -6.8077056    209.99169  0.032770238  0.033208912            2 
  535000    1.0252654   -6.8329764    210.47557  0.032784356  0.033192348            2 
  536000    1.0451311   -6.8533435    210.38221  0.032708677  0.033175629            4 
  537000    1.0500893   -6.8136229    211.18321  0.032772068  0.033159309            2 
  538000    1.0349403   -6.8308478    210.58432   0.03261839  0.033142045            2 
  539000    1.0653205     -6.83206     210.7052  0.032576562  0.033124061            6 
  540000    1.0520371   -6.8374007    210.48947  0.032482943  0.033105996            4 
  541000    1.0313973   -6.8063333    211.32788  0.032552045  0.033087644            1 
  542000    1.0493069   -6.8856665    210.80865  0.032412154  0.033069322            6 
  543000    1.0334447   -6.8413182    211.64452  0.032480742  0.033051049            5 
  544000    1.0492078   -6.8672106      211.684  0.032427084  0.033032869            3 
  545000     1.022113   -6.8611366    212.19686  0.032446003   0.03301508            3 
  546000     1.062113   -6.8460557     212.9003  0.032493941  0.032997331            2 
  547000    1.0463273   -6.8666148    213.08761  0.032463073  0.032980069            3 
  548000    1.0586157   -6.8755364    213.46477  0.032461188     0.032963            2 
  549000    1.0450361   -6.8208552    214.71875  0.032592403  0.032945841            2 
  550000    1.0280222   -6.8451448     214.2357  0.032459955  0.032928719            4 
  551000    1.0247278   -6.8251953    214.02367  0.032368976  0.032911565            4 
  552000    1.0123552    -6.800961    215.61973  0.032551287  0.032894416            2 
  553000    1.0387807   -6.8368161    215.40623  0.032460251  0.032877424            2 
  554000    1.0442515   -6.8192288    214.37751  0.032246919  0.032859963            3 
  555000     1.038396   -6.8321372    215.73103  0.032392046   0.03284213            2 
  556000    1.0380988   -6.8616369    215.50002  0.032299164  0.032824392            6 
  557000    1.0371515   -6.8587062    215.20762   0.03219743  0.032806453            8 
  558000    1.0380547   -6.8505647    216.05908  0.032266888  0.032788791            1 
  559000     1.045863   -6.8336347    217.09221   0.03236318  0.032770908            5 
  560000    1.0390359   -6.8640436     217.0539  0.032299688  0.032752846            3 
  561000    1.0532898   -6.8424833    217.43431  0.032298619  0.032734928            3 
  562000    1.0558054   -6.8238414    218.17513  0.032350997  0.032717143            3 
  563000    1.0362781   -6.8565619    217.52513  0.032197325  0.032699598            4 
  564000    1.0204899   -6.8414024    217.64993  0.032158678  0.032681455            2 
  565000    1.0409243   -6.8797003    217.45793  0.032073441  0.032663613            2 
  566000      1.01471    -6.838896    219.03374  0.032248784  0.032646367            2 
  567000    1.0447357   -6.8355912    219.01232   0.03218876  0.032629684            4 
  568000    1.0172111   -6.8519787    219.52914  0.032207913  0.032612985            6 
  569000    1.0319809   -6.8310921    220.75014  0.032330132  0.032596514            1 
  570000    1.0231484    -6.859455    220.06375  0.032173063   0.03257977            3 
  571000    1.0415149   -6.8632173    219.57846  0.032045893  0.032562201            7 
  572000    1.0252363   -6.8919221    220.57489  0.032135037   0.03254552            4 
  573000    1.0281585   -6.8709436    220.93941  0.032131968  0.032529211            2 
  574000    1.0272906   -6.8514792    221.22192  0.032117004  0.032512803            2 
  575000    1.0233344   -6.8740369    221.84489  0.032151433  0.032496202            2 
  576000     1.016148   -6.8565955    222.14814  0.032139488  0.032479985            3 
  577000    1.0405838   -6.8258193    222.69589  0.032162896  0.032463905            4 
  578000    1.0125148   -6.8806166    222.75643  0.032115979  0.032447277            3 
  579000    1.0181263   -6.8638848    222.99532  0.032094893  0.032430726            2 
  580000    1.0099986   -6.8628934    222.29485  0.031938915  0.032413976            2 
  581000    1.0208347   -6.8681959    222.85606  0.031964437  0.032397356            4 
  582000    1.0358712   -6.8981046    223.15346    0.0319521  0.032380413            1 
  583000    1.0147944   -6.8618611    223.03665  0.031880596  0.032363178            4 
  584000    1.0229031   -6.8622177    223.97485  0.031959881  0.032346336            9 
  585000    1.0248829   -6.8754792    225.22085  0.032082743  0.032329428            4 
  586000    1.0035802    -6.848271    225.07057  0.032006623  0.032313172            2 
  587000    1.0157752   -6.8453581    225.48158  0.032010446  0.032297245            1 
  588000    1.0127838   -6.8594069    225.52385  0.031961996  0.032281515            2 
  589000    1.0197623   -6.8546065    225.86523  0.031956032   0.03226539            4 
  590000   0.99742034   -6.8816045    225.76876  0.031888243  0.032249235            3 
  591000    1.0084405   -6.8678244    226.64032  0.031957179  0.032233061            5 
  592000   0.99455054   -6.9033145    226.48993  0.031882029  0.032216436            1 
  593000    1.0174334   -6.8588044    226.44803  0.031822377  0.032200061            4 
  594000    1.0177659   -6.8352571    227.85343   0.03196597  0.032184043            5 
  595000    1.0246302   -6.8642371    227.54236  0.031868678  0.032168019            2 
  596000   0.99864054   -6.8907355    227.23828   0.03177269  0.032151489            2 
  597000     1.016139   -6.8543545    228.09809  0.031839487  0.032135029            2 
  598000    1.0161564   -6.8526932     228.4127  0.031830087  0.032118805            3 
  599000    1.0067386   -6.8930402    228.43456  0.031779988  0.032102634            4 
  600000    1.0216032   -6.8639769    228.89161  0.031790501  0.032086522            3 
  601000    1.0013742   -6.8498801    229.10061  0.031766584  0.032070338            2 
  602000    1.0035144   -6.8571083    230.04574  0.031844648  0.032054113            1 
  603000    1.0251316   -6.8750426    229.06135  0.031655798  0.032038004            5 
  604000    1.0198635    -6.865441    229.95633  0.031726867   0.03202195            2 
  605000    0.9989182   -6.9047807    230.57564  0.031759729  0.032006116            1 
  606000    1.0347655   -6.9002306    230.40255  0.031683519  0.031990071            2 
  607000    1.0117462   -6.8885253    231.12002  0.031729822  0.031973986            5 
  608000   0.99479086   -6.8721766    231.26661  0.031697726  0.031958098            3 
  609000    1.0123761   -6.8416265     231.0006  0.031609277  0.031941989            5 
  610000    1.0149321   -6.8959386    230.83409  0.031534711  0.031925887            3 
  611000    1.0289071   -6.8743476    231.67259  0.031597461  0.031909141            3 
  612000    1.0138639   -6.8780883       231.56  0.031530501  0.031892579            4 
  613000   0.99162828   -6.8685045    232.20478  0.031566718  0.031876004            4 
  614000    1.0431611   -6.8854902    231.24995  0.031385715  0.031859443            3 
  615000    1.0146306   -6.9107008    232.55837  0.031511975  0.031842624            2 
  616000     1.005302   -6.8457324    232.61715  0.031468771  0.031825679            3 
  617000    1.0245275   -6.8608049    232.82843  0.031446303  0.031808651            3 
  618000    1.0421684   -6.8932605    231.94819  0.031276725  0.031791307            2 
  619000     1.015321    -6.886533    232.79296  0.031339925  0.031773433            6 
  620000    1.0084682   -6.9109337    232.52753  0.031253701  0.031755925            3 
  621000    1.0015946    -6.902825    232.72922  0.031230438  0.031738374            3 
  622000    1.0324676   -6.9121003    233.87931  0.031334312   0.03172045            1 
  623000    1.0069316   -6.8833756    234.13712  0.031318501  0.031703232            3 
  624000    1.0238237   -6.9103615    234.43237  0.031307741  0.031685813            5 
  625000    1.0085785   -6.9235466    234.88046  0.031317395  0.031668739            3 
  626000   0.98285494   -6.9042969      234.807  0.031257588  0.031651779            3 
  627000    1.0198291   -6.8847369    235.51946  0.031302427  0.031634845            4 
  628000    1.0078824   -6.9067116    235.52874  0.031253814  0.031617641            2 
  629000   0.99416423   -6.9189473    235.65754   0.03122119  0.031600441            3 
  630000    1.0112065   -6.9267139    234.75928  0.031052815   0.03158281            3 
  631000    1.0091374   -6.9203127    235.12369  0.031051729   0.03156479            2 
  632000   0.99648792   -6.9070397    235.88302  0.031102719  0.031546582            2 
  633000   0.99602767   -6.9038143    235.96036  0.031063766  0.031528365           10 
  634000    1.0073067   -6.8919346    236.21234  0.031047889  0.031510162            3 
  635000    1.0077063   -6.9286884    235.92651  0.030961485  0.031491821            5 
  636000    1.0263005   -6.8963737    236.40553  0.030975567   0.03147332            6 
  637000    1.0093673   -6.8967405    236.27743  0.030910181  0.031455076            3 
  638000   0.99233661   -6.9007315    237.03551   0.03096075  0.031436748            1 
  639000   0.99979962   -6.8972858    236.87097  0.030890841  0.031418399            3 
  640000   0.98439951   -6.9072245    237.63607  0.030942197  0.031400087            3 
  641000   0.99392054   -6.9122077    237.94419  0.030933982  0.031381708            3 
  642000   0.98647578   -6.9068091    238.49258  0.030956981  0.031363259            4 
  643000     1.009817    -6.956953    237.64394  0.030798851  0.031344804            7 
  644000    1.0074142   -6.9273771    238.57841  0.030871947  0.031326157            3 
  645000    1.0047075   -6.8845695    238.92721  0.030869148  0.031307907            3 
  646000    0.9993072   -6.9301398    238.94239  0.030823322  0.031289512            6 
  647000   0.98347102   -6.9115877    239.00709  0.030784015   0.03127086            5 
  648000    1.0050641   -6.9255807    239.01181  0.030737116  0.031252021            7 
  649000    0.9887708   -6.9318863    239.39454  0.030738898  0.031233766            4 
  650000   0.98736597   -6.9208684    239.95966   0.03076406  0.031215072            4 
  651000   0.99494563   -6.9419811    239.28493  0.030630432  0.031196439            3 
  652000   0.99406741   -6.8893007    240.05268   0.03068158  0.031177729            9 
  653000   0.99829738   -6.9205321    240.37208  0.030675355  0.031158822            3 
  654000   0.99656701   -6.8927457     240.5439  0.030650344  0.031140001            2 
  655000   0.99715753   -6.9373498    239.91009  0.030522912  0.031120668            8 
  656000    1.0164949   -6.9477205    240.75421  0.030583614  0.031101244            2 
  657000   0.99851059   -6.9519257    240.56429  0.030512974  0.031081927            7 
  658000    0.9781455   -6.9447193    241.05953  0.030529322   0.03106255            3 
  659000   0.98974434   -6.9415768    240.72038  0.030440109  0.031043253            3 
  660000    0.9914941   -6.9429448     240.4622  0.030361389  0.031023916            3 
  661000   0.98306167   -6.8938437    241.22835  0.030412046  0.031004532            3 
  662000    1.0000774   -6.9188965    241.64905  0.030419065  0.030985065            8 
  663000   0.97777621   -6.9330531    242.26661  0.030450805  0.030965786            3 
  664000   0.97604157   -6.9215175    242.27872  0.030406466  0.030946769            2 
  665000    1.0015331   -6.9395865    242.68291  0.030411392  0.030927428            3 
  666000   0.98789406   -6.9466297    242.69751  0.030367556  0.030908255            3 
  667000   0.97755974   -6.9071478    243.39073  0.030408637  0.030889112            3 
  668000   0.99279339   -6.9333989    243.35311  0.030358422  0.030870252            2 
  669000    1.0028486   -6.9985066    242.82699  0.030247508     0.030851           10 
  670000   0.97557063   -6.9368994    243.77303  0.030320029  0.030831628            2 
  671000   0.99791954   -6.9535808    243.79954  0.030278135  0.030812523            3 
  672000    1.0031042   -6.9299738    243.14738  0.030152205  0.030793142            6 
  673000   0.97845417   -6.9192292    243.88767  0.030199068  0.030773857            2 
  674000   0.97527059   -6.9809142    243.97731  0.030165345  0.030754493            2 
  675000     1.006595   -6.9588561    243.70163  0.030086621   0.03073511            2 
  676000   0.98416207   -6.9755433    244.24257  0.030108798  0.030715777            4 
  677000   0.98935338   -6.9399673    245.40152  0.030206981  0.030696472            3 
  678000   0.98537274   -6.9577733    245.31627  0.030151951  0.030677193            5 
  679000   0.99177324   -6.9436976    245.74977  0.030160748  0.030658029            3 
  680000   0.97641098   -6.9568928    245.27576  0.030058303  0.030638598            4 
  681000   0.98339216   -6.9552584    245.13181   0.02999655  0.030618836            5 
  682000   0.98755329   -6.9639551    245.50147  0.029997736  0.030599176            4 
  683000    1.0002845   -6.9769968    245.63452  0.029970049  0.030579329            4 
  684000   0.96372122   -6.9665182    246.38684   0.03001789  0.030559587            2 
  685000    0.9885917   -6.9413768     246.3951  0.029975073  0.030540335            4 
  686000   0.96561263    -6.954891    246.79945  0.029980497  0.030521009            4 
  687000   0.98902724   -6.9579366    247.19004  0.029984235  0.030501487            7 
  688000   0.97549232   -6.9339299    247.65304  0.029996735  0.030481786            3 
  689000   0.98722379   -6.9301096    246.69585  0.029837428  0.030462391            3 
  690000   0.99031672   -6.9813145    247.47234  0.029887964  0.030443125            5 
  691000    0.9938654   -6.9645488    247.91305  0.029897859  0.030423683            2 
  692000   0.98654394   -6.9666796    248.08797  0.029875719  0.030404317            5 
  693000   0.97182905    -6.918351    248.88668  0.029928653   0.03038498            4 
  694000   0.97234873   -6.9671944    247.83188  0.029758871  0.030365421            4 
  695000   0.97203655   -6.9364546    248.68103   0.02981787  0.030346016            2 
  696000   0.97724166   -6.9444274    249.20008  0.029837174   0.03032691            3 
  697000   0.97784778   -6.9609982    249.23649  0.029798719  0.030307614            2 
  698000   0.96364142   -6.9556809    249.67844  0.029808792  0.030288201            2 
  699000    0.9723825   -6.9370076    249.57782  0.029754151  0.030268897            3 
  700000   0.97968094   -6.9428534    249.36791  0.029686655   0.03024934            3 
  701000    0.9681317   -6.9799224    249.68164  0.029681602  0.030229766            2 
  702000   0.98769045   -6.9655545    249.75344  0.029647844  0.030210121            5 
  703000   0.96986618   -6.9846091    249.55099  0.029581672  0.030190464            1 
  704000    0.9747099   -7.0059004    249.93316  0.029584891  0.030170772            3 
  705000   0.98295451   -6.9729554    250.07999  0.029560283  0.030150674            2 
  706000   0.95256959   -6.9529513    250.01723  0.029511004  0.030130885            4 
  707000   0.97854455   -6.9654599    251.24149  0.029613565  0.030111043            3 
  708000   0.98060108   -6.9416767    251.01447  0.029545018  0.030091333            3 
  709000   0.95782211   -6.9487325    251.72435  0.029586783  0.030071437            2 
  710000   0.97612232   -6.9873799    250.80887   0.02943766  0.030051546            2 
  711000   0.95171532   -6.9697753    251.13444  0.029434417  0.030031721            7 
  712000   0.96952402   -6.9918669    251.29294  0.029411627   0.03001179            5 
  713000   0.95581287   -6.9424592     251.4117  0.029384257  0.029992147            4 
  714000    0.9516841   -6.9735265    252.05381  0.029418045  0.029972448            7 
  715000   0.97199196   -6.9941134    251.78153  0.029345167   0.02995266            6 
  716000   0.96270155   -6.9977673    252.54128  0.029392607  0.029933134            2 
  717000   0.97885422   -6.9501628    253.02226  0.029407515  0.029913607            2 
  718000   0.95755021   -6.9588176    253.19441  0.029386538  0.029893996            3 
  719000   0.97017412   -7.0038784    252.78586  0.029298315  0.029874553            2 
  720000   0.97108224   -6.9898987    253.37575  0.029325896  0.029854892            2 
  721000   0.96492789   -6.9664043      252.968  0.029238095  0.029835087            4 
  722000   0.97136909   -6.9761215     253.7438  0.029287142  0.029815103            3 
  723000   0.93002832   -6.9717837    253.07981  0.029170103  0.029795174            4 
  724000   0.97104651   -7.0028856    253.78222   0.02921066  0.029775123            4 
  725000   0.95220074   -6.9747588    253.99024   0.02919428  0.029755256            5 
  726000   0.95791462    -7.022823    254.46087  0.029208088  0.029735127            3 
  727000   0.98322528   -6.9610067    254.28533  0.029147792  0.029715058            2 
  728000   0.98192075   -6.9671426    254.23771  0.029102302  0.029694973            2 
  729000    0.9629215   -6.9421498     254.0751  0.029043793  0.029674771            1 
  730000   0.95494327   -6.9756295    254.51404  0.029054114  0.029654674            4 
  731000   0.96424743   -6.9741019    254.66705  0.029031811  0.029634753            4 
  732000   0.96609711   -6.9908168    255.32838  0.029067439  0.029614511            4 
  733000   0.95739974   -6.9827229    255.06528  0.028997871  0.029594323            2 
  734000   0.96579078   -6.9809308    255.43321  0.029000137  0.029574155            3 
  735000   0.98313557   -6.9985251    255.36094  0.028952488  0.029554119            2 
  736000   0.94349796   -6.9808199    255.44241  0.028922374  0.029534023            4 
  737000   0.95992967   -6.9850346    256.02265   0.02894874  0.029513808            3 
  738000   0.94076519   -6.9977055    256.28633  0.028939287  0.029494023            6 
  739000   0.95643936   -7.0357947    255.41431  0.028801794  0.029473838            3 
  740000   0.96350085    -6.984347    256.98238  0.028939457  0.029453627            4 
  741000   0.93520637   -7.0081885    257.10659  0.028914371  0.029433333            2 
  742000   0.95598163   -7.0145169    256.63302  0.028822217  0.029413059            9 
  743000   0.95783808   -6.9721319    256.97195  0.028821439  0.029392771            5 
  744000   0.93780789   -6.9942423    257.09314  0.028796274  0.029372576            2 
  745000   0.93204766   -6.9964524      257.648  0.028819686  0.029352551            8 
  746000   0.94687003   -6.9975483    258.12052  0.028833838  0.029332693            1 
  747000   0.94925607    -6.996774      258.464  0.028833557  0.029313071            2 
  748000   0.96176162   -7.0018982    258.35355  0.028782704  0.029293532            3 
  749000   0.95879337   -7.0245175    258.57542  0.028768961   0.02927383            4 
  750000   0.95024322   -7.0062178    258.08224  0.028675805  0.029254181            3 
  751000   0.94840436   -7.0313502    258.78263  0.028715338  0.029234297            2 
  752000   0.96665792   -7.0092236    259.23006  0.028726735  0.029214564            6 
  753000   0.95505361   -7.0048009     259.4335    0.0287111  0.029194871            1 
  754000   0.93364351   -6.9784814    259.22546  0.028650029  0.029175226            3 
  755000   0.94005375   -7.0006249    259.23898  0.028613574  0.029155457            3 
  756000   0.96367873   -7.0046534     259.4133  0.028594941  0.029135621            2 
  757000   0.94277738   -7.0217013    259.50781   0.02856757  0.029115616            1 
  758000   0.95279609   -7.0144047    259.76035  0.028557646  0.029095478            4 
  759000   0.96258765    -7.036071    260.16128   0.02856404  0.029075424            3 
  760000   0.92001346   -6.9787641    260.92341  0.028610023   0.02905549            3 
  761000   0.94418549   -7.0076871    260.87542  0.028567173  0.029035775            3 
  762000   0.94003186   -7.0423242    260.65334  0.028505396  0.029016004            3 
  763000   0.94376224   -7.0219206    261.19726  0.028527442  0.028996228            6 
  764000   0.93248332   -6.9814586    261.77252  0.028552849  0.028976699            2 
  765000   0.93701266   -7.0225879    261.19804  0.028452946  0.028957037            2 
  766000   0.94091177   -7.0150337    261.75006  0.028475855  0.028937376            5 
  767000   0.94594629   -7.0079675    261.67444  0.028430512  0.028917446            3 
  768000   0.95805867   -6.9735055    261.81124  0.028408338  0.028897825            3 
  769000    0.9282818   -7.0294115    261.95932  0.028387443  0.028878295            3 
  770000   0.93785954   -7.0417837    261.63651   0.02831564  0.028858525            4 
  771000   0.94587567   -7.0117003     262.4625   0.02836819   0.02883859            5 
  772000   0.93470865   -7.0083949    262.31869  0.028315921  0.028818748            2 
  773000   0.95703534   -7.0248192    261.99505    0.0282444  0.028798754            4 
  774000   0.94003766   -7.0280988    262.25353  0.028235737  0.028778772            7 
  775000   0.95411803   -7.0195746     262.7966  0.028257699  0.028759001            6 
  776000   0.95937492   -7.0337452    263.36596  0.028282427  0.028739334            3 
  777000   0.96436444   -7.0184076    263.92687  0.028306185  0.028719722            4 
  778000   0.96491148   -7.0531299    262.97301  0.028167631  0.028699945            3 
  779000   0.96286838   -7.0494631    263.31729  0.028168302  0.028680269            4 
  780000   0.93962073   -7.0487521    263.44429  0.028145757  0.028660277            4 
  781000   0.93789339   -7.0001805    263.10711  0.028073742  0.028640433            4 
  782000   0.94005744   -7.0131741    263.48345  0.028077947  0.028620405            6 
  783000   0.94759744   -7.0654622    263.45725  0.028039298    0.0286002            3 
  784000   0.93574385   -7.0310871    263.43399  0.028001061  0.028579923            5 
  785000   0.94061572   -7.0009875    264.21557  0.028048362  0.028559783           10 
  786000   0.93251482   -7.0309026    263.86185  0.027975175   0.02853964            2 
  787000   0.93447437   -7.0518419    264.20535  0.027976001  0.028519293            2 
  788000   0.92433742   -7.0607026    264.11965  0.027931435  0.028499047            3 
  789000   0.93506882   -7.0505494    264.49476  0.027935653  0.028478738            3 
  790000   0.94986795   -7.0669317    264.59491  0.027910855  0.028458033            2 
  791000   0.95134578   -7.0362702    264.69936  0.027886574  0.028437574           11 
  792000   0.94131457   -7.0347875    265.15351  0.027899149  0.028417167            3 
  793000   0.95772722   -7.0607122    264.36219   0.02778081  0.028396729            2 
  794000   0.94493671   -7.0259037    264.22738  0.027731673  0.028376118            8 
  795000   0.95079464   -7.0572028    264.82778  0.027759725  0.028355516           12 
  796000   0.94042133   -7.0729504    265.02488  0.027745486  0.028334856            6 
  797000   0.94571524   -7.0205358    265.36996  0.027746755  0.028314474            3 
  798000   0.95399619   -7.0694868    264.97249  0.027670477  0.028294082            5 
  799000    0.9209197   -7.0577548    264.92563  0.027630958  0.028273211            3 
  800000    0.9395424   -7.0686226    264.79211  0.027582511  0.028252193            3 
  801000   0.93532259   -7.0480072    265.88286  0.027661554  0.028231329            3 
  802000    0.9359859   -7.0585156    266.00156  0.027639397   0.02821067            4 
  803000   0.93274163   -7.0316904    265.69527  0.027573191  0.028190104            3 
  804000   0.93379352   -7.0671547    266.54546  0.027627017  0.028169292            4 
  805000   0.94376022   -7.0468109    266.79058  0.027618072  0.028148697            4 
  806000   0.93498616   -7.0153488    266.80089  0.027584873   0.02812832           11 
  807000   0.93047444   -7.0730635    266.19391  0.027488013  0.028107691            3 
  808000     0.948077    -7.062071    266.69288  0.027505454  0.028087142            4 
  809000    0.9254187   -7.0374091    267.48701  0.027553256  0.028066493            3 
  810000    0.9136803   -7.0779992     266.8708  0.027455844  0.028045949            3 
  811000   0.94179481   -7.0430297    266.98025  0.027433235  0.028025364            4 
  812000   0.92689903   -7.0666587    266.52473  0.027352702  0.028004664            8 
  813000   0.91829467   -7.0333453    268.21113  0.027491916  0.027984211            5 
  814000   0.93546626   -7.0346479    267.62389  0.027398023   0.02796372            4 
  815000   0.94723333   -7.0612625    267.63988  0.027366041   0.02794334            3 
  816000   0.93041455   -7.0836374    268.11865  0.027381398  0.027922796            4 
  817000   0.93272937   -7.0576386    268.79933  0.027417313   0.02790246            5 
  818000   0.94531232    -7.063851    268.64323  0.027367893   0.02788211            1 
  819000    0.9357456   -7.0638965     268.6373  0.027333873  0.027861694            6 
  820000   0.91495907   -7.0584393    268.67036  0.027303898  0.027841423            2 
  821000   0.93371163   -7.0844507    269.07731  0.027311948  0.027821146            6 
  822000   0.93199021   -7.0401883     269.9738  0.027369607  0.027800804            5 
  823000    0.9210249   -7.0238777     271.0215  0.027442436  0.027780831            4 
  824000   0.92596191   -7.0836281    268.98316   0.02720299  0.027760847            4 
  825000     0.921381   -7.0456314    270.77148  0.027350654  0.027740782            5 
  826000   0.91352689   -7.0493026    270.22235  0.027262142  0.027720623            2 
  827000   0.92006672   -7.0763854    270.55976  0.027263176  0.027700536            5 
  828000    0.9242934   -7.0393453    271.69677  0.027344683  0.027680599            3 
  829000   0.92132037   -7.0502071    270.48786  0.027190175  0.027660813            4 
  830000   0.94524911    -7.050515    271.62164  0.027271249  0.027640995            3 
  831000   0.92704916    -7.068639    271.20004  0.027196153  0.027621134            3 
  832000   0.91583728   -7.0270582    271.07737  0.027151179  0.027601211            3 
  833000   0.91068893   -7.0673733    271.78885  0.027189761  0.027581321            5 
  834000    0.9243163   -7.0549866    271.17146   0.02709547  0.027561488            3 
  835000   0.92285205   -7.1024492    270.73102  0.027019064  0.027541509            3 
  836000   0.93973159   -7.0562408    271.92952  0.027106212  0.027521483            2 
  837000   0.92306278   -7.0746229    272.10694  0.027091492  0.027501517            3 
  838000   0.91117739   -7.0697598    272.21503  0.027069911   0.02748159            1 
  839000   0.91895625   -7.0718047    272.49997  0.027065948  0.027462063            1 
  840000   0.93195489   -7.0789418    271.80954  0.026965232  0.027442367            3 
  841000   0.91047784   -7.1050874    272.10772  0.026962715  0.027422732            7 
  842000   0.91770414   -7.0819017    273.30804   0.02704949  0.027403232            6 
  843000   0.91711619    -7.095767    272.57627  0.026945065  0.027383471            3 
  844000   0.91742767   -7.0778152    272.77101  0.026932367  0.027363782            4 
  845000   0.91919748   -7.0861394    273.03334  0.026926365  0.027344147            3 
  846000   0.91379568   -7.0691022    272.99558  0.026890817  0.027324372            2 
  847000   0.91096599   -7.0729879    272.40898  0.026801356  0.027304321            3 
  848000   0.92791433   -7.0930677    272.67037  0.026795437  0.027284398            4 
  849000   0.90501774   -7.0898767    273.51843  0.026847117  0.027264279            5 
  850000   0.91997736   -7.0588061    274.13792  0.026876267  0.027244402            9 
  851000   0.90464417   -7.0919026    273.19253  0.026752109   0.02722454            3 
  852000   0.90812943   -7.0815762    273.88298  0.026788241  0.027204775            3 
  853000   0.91522726   -7.0893353    274.01831  0.026770058  0.027184873            3 
  854000   0.90333988   -7.1038754    274.40588   0.02677653  0.027165002            4 
  855000   0.92294972    -7.086832    274.21938  0.026727035  0.027145169            8 
  856000   0.93157213   -7.0946624    274.45986  0.026719223   0.02712545            6 
  857000   0.90613287   -7.0923884    275.10268  0.026750553  0.027105789            2 
  858000   0.88555518   -7.0674266     275.3931  0.026747582  0.027086387            5 
  859000   0.91287414   -7.0906416    275.24712  0.026702282  0.027067011            3 
  860000   0.90406878   -7.1068946    274.94241  0.026641706  0.027047584            4 
  861000   0.90522883   -7.0952473    275.41747  0.026656743  0.027028084            7 
  862000   0.90495963   -7.0837112    275.59113  0.026642608  0.027008561            6 
  863000   0.89555606   -7.1091287    275.12071   0.02656631  0.026989091            5 
  864000   0.91445737   -7.0815079     276.1719   0.02663695  0.026969706            6 
  865000    0.9001645   -7.0816232     276.0329  0.026592764  0.026950279            4 
  866000   0.91424176   -7.1194738       275.21  0.026482871  0.026930891            3 
  867000   0.91705296   -7.0817103    276.07609  0.026535572   0.02691144            3 
  868000   0.92200022   -7.0944409    276.53283  0.026548851  0.026891936            4 
  869000   0.92315411   -7.1153188    276.52087  0.026517153  0.026872405            2 
  870000    0.9161838   -7.0843267    277.12339  0.026544386  0.026853103            4 
  871000   0.90770048   -7.0746352    276.96531  0.026498786   0.02683389            3 
  872000   0.90282596   -7.0843627    278.03502  0.026570625   0.02681468            7 
  873000   0.92240095   -7.1188666    277.62756  0.026501295   0.02679548            2 
  874000   0.89857831    -7.123506    276.87088  0.026398825   0.02677614           15 
  875000   0.89237946   -7.0875383    278.39015  0.026513348   0.02675697            3 
  876000   0.88422048   -7.1271884    277.43038  0.026391779  0.026737722            7 
  877000   0.90685699    -7.077803    278.53352  0.026466507  0.026718303            5 
  878000   0.89965783   -7.1532848    277.28308   0.02631768  0.026698967            3 
  879000    0.9149295   -7.1164422    277.65868  0.026323348  0.026679588            4 
  880000   0.89355951    -7.130982    278.04245  0.026329777   0.02666022            3 
  881000     0.914173    -7.128194    277.88615  0.026285107  0.026640831            4 
  882000   0.88900655   -7.0997155    278.30645  0.026295016  0.026621397            5 
  883000   0.92544718   -7.1423837    278.72534   0.02630477   0.02660193            4 
  884000   0.87486998   -7.0617855    278.05963  0.026212258  0.026582497            3 
  885000   0.88955462   -7.1267957    278.67805  0.026240871  0.026563108            3 
  886000   0.90497119   -7.0932708    279.04138  0.026245427  0.026543651            2 
  887000   0.87491093   -7.1163559    278.41989  0.026157449  0.026524167            3 
  888000   0.89996141   -7.1074931    279.21299   0.02620242  0.026504673            7 
  889000   0.90409588   -7.1166592    278.74864  0.026129419  0.026485199            5 
  890000   0.89333546   -7.1314039     279.0301  0.026126414  0.026465777           11 
  891000   0.91044294   -7.1556964    278.83302  0.026078659  0.026446358            4 
  892000    0.8891816   -7.1471845    279.23251  0.026086744  0.026427057            3 
  893000   0.89539805    -7.153636    278.69135  0.026007032  0.026407643            6 
  894000   0.90547976   -7.1594716    279.28251  0.026033045  0.026388008            2 
  895000   0.90469884   -7.1124655    279.31435  0.026006923  0.026368494            9 
  896000   0.90577625   -7.1272793    279.44916  0.025990435  0.026348963            5 
  897000   0.90450551    -7.121753    279.22592  0.025940721   0.02632944            4 
  898000   0.88167957   -7.1320667    279.68181   0.02595414   0.02631005            3 
  899000   0.90413512   -7.1530481    279.51165  0.025909497  0.026290616            1 
  900000   0.89369985    -7.126847    280.54869   0.02597673  0.026271125            5 
  901000   0.90395759   -7.1194118    281.49634  0.026035547  0.026252053            5 
  902000   0.89905989   -7.1179181    281.39535  0.025997353  0.026232987            2 
  903000   0.89538942   -7.1239446    281.46235  0.025974746  0.026214035            6 
  904000   0.90382424   -7.1201033    280.93638  0.025897528  0.026194889            8 
  905000   0.89661775   -7.1423747    280.61633  0.025839441  0.026175615            4 
  906000   0.91350882   -7.1690625    281.31435  0.025875125  0.026156476            3 
  907000   0.88078462   -7.1210929    281.84004  0.025894895   0.02613733            4 
  908000   0.90157014   -7.0937444    281.51529  0.025836572  0.026118297            3 
  909000   0.88322269   -7.1783909    282.18998  0.025870002  0.026099293            7 
  910000   0.90112087   -7.1392057    281.65241  0.025792346  0.026080128            4 
  911000   0.90286744   -7.1504575    282.72022   0.02586171  0.026061149            3 
  912000   0.90211824   -7.1813288    281.30813  0.025704325  0.026042108            4 
  913000   0.88268192   -7.1339828    282.97455  0.025828273  0.026023047            1 
  914000   0.89588909   -7.1728772    282.36975  0.025744872  0.026004078            8 
  915000   0.88493175   -7.1457177    282.48999  0.025727686  0.025984988            7 
  916000    0.8865893   -7.1225936    282.96983  0.025743253  0.025965855            3 
  917000   0.91733615   -7.1451381     281.9282   0.02562052   0.02594663            6 
  918000   0.88830334   -7.1466633    282.69014  0.025661777  0.025927388            3 
  919000   0.89663975   -7.1270437    281.65101  0.025539627    0.0259082            7 
  920000   0.86426223   -7.1680581    282.03051  0.025546241  0.025889068            9 
  921000   0.89512715    -7.174009    282.52672  0.025563402  0.025869852            9 
  922000   0.89373787   -7.1463069    282.66375  0.025548061  0.025850826            2 
  923000   0.88507796   -7.1818749    282.78876  0.025531668   0.02583174            7 
  924000   0.89934992   -7.1935266    283.28832  0.025549091  0.025812674            5 
  925000   0.89572125   -7.1753134    283.14899  0.025508918  0.025793473            4 
  926000   0.87259288    -7.147707    283.46213  0.025509551  0.025774298            4 
  927000   0.87380675   -7.2056699    283.43397  0.025479501  0.025755155            4 
  928000   0.86798414    -7.212415      283.407  0.025449623  0.025735717            3 
  929000   0.88167795   -7.2124732    282.08295  0.025303458  0.025716353            6 
  930000   0.87958086   -7.1451048    283.97772  0.025446033  0.025697093            3 
  931000   0.90334071   -7.1671847    283.90288  0.025412002  0.025678094            5 
  932000   0.88437031   -7.1404477    285.37391  0.025516265  0.025658921            2 
  933000   0.89680807   -7.1381915    285.24323  0.025477245  0.025640102            3 
  934000   0.90175903   -7.1757393    285.28905  0.025454055  0.025621398            4 
  935000   0.87637436   -7.1621868    284.56531  0.025362327  0.025602721            6 
  936000   0.87548811   -7.1568259    284.47352  0.025327058  0.025583875            6 
  937000   0.88926581   -7.1819604    284.54569  0.025306447  0.025565058            4 
  938000   0.91123872   -7.1631007    285.19206  0.025336892  0.025546336            2 
  939000   0.87674281   -7.1528325    285.73689  0.025358261  0.025527768            4 
  940000   0.89486169   -7.1556186    285.19293  0.025283061  0.025509191            6 
  941000   0.88404855   -7.1521667    286.47525  0.025369753  0.025490668            6 
  942000   0.88616252   -7.1665932    285.73081  0.025276965  0.025472179            4 
  943000   0.85723296   -7.1670529    286.39595  0.025308939   0.02545371            5 
  944000   0.86727561   -7.1771215    285.99215  0.025246482  0.025434973            5 
  945000   0.87822552   -7.1961175    285.82849  0.025205334  0.025416433            4 
  946000   0.87500928   -7.1916309    286.29273  0.025219585  0.025397905            5 
  947000   0.87012047    -7.183979    286.13523  0.025179095   0.02537932            3 
  948000    0.8684909   -7.1604912    286.53015  0.025187249  0.025360755            6 
  949000   0.87022129   -7.1769485    286.57819  0.025164927  0.025342445            3 
  950000   0.86130773   -7.2028036    286.51227  0.025132655   0.02532408            5 
  951000   0.88025095   -7.1686471    286.98862  0.025147969  0.025305701            5 
  952000   0.88746752   -7.1668873    287.02766  0.025124971  0.025287475            3 
  953000   0.85518971   -7.1228351    287.83689  0.025169368  0.025269139            5 
  954000   0.89279146   -7.1664587    286.57881  0.025033089  0.025250656            2 
  955000   0.86527613   -7.1811294    287.58414  0.025094602  0.025232057            6 
  956000   0.86706562   -7.1378222     287.7271  0.025080814  0.025213556            3 
  957000   0.87669257   -7.1868642    287.29001  0.025016545  0.025195117            3 
  958000   0.86211985   -7.1550618    287.57782  0.025015468  0.025176669            3 
  959000   0.87922864   -7.1524828    287.79374  0.025008146  0.025158198            5 
  960000   0.87899005   -7.1917398    287.28645   0.02493806  0.025139658            6 
  961000   0.86666446   -7.2014046    287.27895   0.02491146  0.025121074            5 
  962000   0.86886143   -7.1888664    286.69216  0.024834733  0.025102399            8 
  963000   0.85548943   -7.1743776    287.29588  0.024861187   0.02508363            5 
  964000   0.86630057   -7.1986944    287.53891  0.024856407  0.025064862            7 
  965000   0.87732018   -7.1956576    287.72118  0.024846388  0.025046247           13 
  966000   0.87699859   -7.1660663    288.35469  0.024875319  0.025027678            4 
  967000   0.87746566    -7.154515    288.35506  0.024849626   0.02500894            5 
  968000   0.85552959   -7.2170411    288.05741  0.024798331  0.024990158            5 
  969000   0.86103504   -7.1599451    287.68865  0.024741026  0.024971194            4 
  970000   0.86768667   -7.1719539    287.80636  0.024725632  0.024952259            2 
  971000   0.88043777   -7.2136143    287.55254  0.024678385  0.024933343            9 
  972000   0.86254357   -7.2022254     288.1136  0.024701097  0.024914428            3 
  973000   0.85630201   -7.1831782    288.48561  0.024707572  0.024895619            6 
  974000   0.86323903   -7.1853476    287.93763  0.024635321  0.024876771            4 
  975000   0.87503502   -7.1965489    287.68222  0.024588224  0.024858046            7 
  976000   0.86074405   -7.2157617    288.61975   0.02464308  0.024839466            3 
  977000   0.85874069   -7.1956124    288.39583  0.024598757  0.024820838            5 
  978000    0.8612935   -7.2023265    288.60939  0.024591802   0.02480207            5 
  979000   0.87170481   -7.2242436    288.35997  0.024545452  0.024783123            3 
  980000   0.84859145   -7.1753971    288.58649  0.024539668  0.024764183            3 
  981000   0.84787769   -7.2119863    288.18944  0.024480924    0.0247453            3 
  982000   0.86683492   -7.1791036    288.73344  0.024502159  0.024726464            4 
  983000   0.85344459   -7.2003888    288.94792  0.024495415  0.024707641            4 
  984000   0.85968271   -7.1903779    289.15255  0.024487851  0.024688835            4 
  985000   0.87205099   -7.2269735    288.99984  0.024450071  0.024669983            4 
  986000    0.8612174   -7.1756536    288.86109  0.024413547  0.024651135            4 
  987000   0.85614199   -7.1774225    289.40216  0.024434495  0.024632284            7 
  988000   0.86594575   -7.1748471    289.10724  0.024384889  0.024613617            4 
  989000   0.86069628    -7.186912    290.01406  0.024436641  0.024595027           12 
  990000    0.8623251   -7.2112731    290.08632  0.024418041  0.024576453            4 
  991000   0.84990333   -7.2027844    289.83158   0.02437198  0.024557732            8 
  992000   0.85759417   -7.1926956    289.55275  0.024323988  0.024538892            7 
  993000   0.84894755   -7.1966284    289.62359  0.024305437  0.024520033            2 
  994000   0.87601077   -7.2010974    289.19229  0.024244826  0.024501155            4 
  995000   0.85754199   -7.2114382    289.61901  0.024256199   0.02448218            7 
  996000   0.86469719   -7.2092761    288.93161  0.024174332  0.024463139            2 
  997000   0.86648515   -7.2119006    290.06693  0.024244979  0.024444135            6 
  998000   0.84605509   -7.2348392    289.56013  0.024178368  0.024425237            4 
  999000     0.869507    -7.212253    290.97906  0.024272528  0.024406437            5 
 1000000   0.85752614   -7.2064383    290.69721  0.024224768  0.024387668            4 
 1001000   0.86753991    -7.225092    290.56138  0.024189259   0.02436896            3 
 1002000   0.84941817   -7.2443661    291.33995   0.02422987  0.024350333            4 
 1003000   0.85764821   -7.2186936    290.51871   0.02413748  0.024331675            5 
 1004000   0.87463167   -7.2468125    291.26015  0.024174979  0.024312944            3 
 1005000    0.8509974   -7.2344335    290.39469  0.024079161  0.024294279            4 
 1006000   0.84159653   -7.2202824    290.66889   0.02407794  0.024275566            6 
 1007000   0.85084415   -7.2158657    291.70687  0.024139927  0.024257101            5 
 1008000   0.85191237   -7.2367071    291.15832  0.024070628  0.024238716            7 
 1009000   0.83862929   -7.2294348     291.5138  0.024076131    0.0242202            5 
 1010000   0.86692191   -7.2248476    290.23849   0.02394707  0.024201669           12 
 1011000   0.84725235   -7.2155174    291.55399  0.024031816  0.024183216            1 
 1012000   0.85955306   -7.2147588    292.51691  0.024087361  0.024164801            5 
 1013000   0.86293325   -7.2410488     291.2144  0.023956433   0.02414623            5 
 1014000   0.84971045   -7.2219961    291.95041  0.023993295  0.024127804            7 
 1015000   0.85832266   -7.2446911    291.25463  0.023912531  0.024109199            4 
 1016000   0.85348468    -7.227932    292.15956  0.023963219   0.02409073            2 
 1017000   0.83951596   -7.2238634     292.6057  0.023976213  0.024072319            4 
 1018000   0.86132892   -7.2722671    292.19053  0.023918675  0.024053805            6 
 1019000   0.83916839   -7.2433793     291.8598  0.023868155  0.024035311            8 
 1020000   0.86465207   -7.2232966    291.85249  0.023844158   0.02401684            6 
 1021000   0.84302674   -7.2187734    292.52122  0.023875385  0.023998407            6 
 1022000     0.860501   -7.2186469    292.44839  0.023846085  0.023980067            3 
 1023000    0.8360216   -7.2203324    293.01282  0.023868753  0.023961803            6 
 1024000   0.85230648   -7.2061961    293.14968  0.023856582  0.023943656            6 
 1025000   0.84087438   -7.2523836    293.16518  0.023834567   0.02392557            4 
 1026000    0.8464997   -7.2146956    293.86277  0.023867996  0.023907483            3 
 1027000   0.83106925   -7.2427442     293.8487  0.023843614  0.023889356            6 
 1028000   0.84003589   -7.2424286    293.29709  0.023775704   0.02387109            6 
 1029000   0.83985126   -7.2591927    293.13143  0.023739183  0.023852911            5 
 1030000   0.83880361   -7.2111009    294.65754  0.023839607  0.023834819            4 
 1031000   0.85108664   -7.2366499     294.3799  0.023794043  0.023816827            5 
 1032000     0.853037   -7.2401994    293.63039  0.023710464  0.023798886            4 
 1033000   0.85186754   -7.2315262    294.15494  0.023729828  0.023781036            5 
 1034000   0.83027462   -7.2542507    294.53688   0.02373766  0.023763228            6 
 1035000    0.8353175   -7.2513698    294.52905  0.023714094  0.023745405            3 
 1036000   0.83610283   -7.2495537    294.55041  0.023692922  0.023727561           11 
 1037000   0.85054356   -7.2636777    293.90406  0.023618134  0.023709595            2 
 1038000   0.84801818   -7.2204007    295.09416  0.023690925  0.023691683            3 
 1039000   0.82787089   -7.2433609    294.19473  0.023595984  0.023673854            6 
 1040000   0.85549109   -7.2446861    295.27259  0.023659663  0.023656012            3 
 1041000   0.82339157    -7.245636    295.25016  0.023635139  0.023638297            5 
 1042000   0.83674417   -7.2618732    295.28556  0.023615288  0.023620496            7 
 1043000   0.82494466   -7.2393907    295.85827  0.023638405  0.023602677            4 
 1044000   0.85207413   -7.2345983    294.97298  0.023545097  0.023584831            5 
 1045000   0.82717698   -7.2269664    295.79422  0.023588056  0.023566914            3 
 1046000   0.84202765   -7.2514322    296.29385   0.02360531  0.023549124            5 
 1047000   0.84056204   -7.2509699    295.81529  0.023544674  0.023531394            6 
 1048000   0.81845372   -7.2485556    295.44878  0.023493065  0.023513731            5 
 1049000    0.8562918   -7.2717286    295.37078  0.023464473  0.023496037            6 
 1050000   0.84567056   -7.2601032    295.77063   0.02347386  0.023478195            3 
 1051000   0.82045504   -7.2211766    296.22393  0.023487467  0.023460358            7 
 1052000   0.82946579   -7.2435499    296.05516  0.023451771  0.023442665            8 
 1053000   0.82208124   -7.2405437    296.29403  0.023448403  0.023424984            5 
 1054000   0.81974593   -7.2819826     296.1529  0.023414999  0.023407413            5 
 1055000   0.84922613    -7.264823     296.1043  0.023388965  0.023389658            4 
 1056000   0.83890714   -7.2413915    296.53111  0.023400498  0.023371994            4 
 1057000   0.82909158   -7.2545986    296.93321  0.023410061  0.023354348            5 
 1058000   0.85915886   -7.2863402    296.50713  0.023354374  0.023336698            9 
 1059000   0.82992503   -7.2601871    296.85566  0.023359747  0.023319038            5 
 1060000   0.83353746   -7.2602482    296.39103  0.023301182  0.023301369           19 
 1061000   0.82023426   -7.2608885    296.57997   0.02329406  0.023283876           16 
 1062000   0.81356604   -7.2760521    296.84335  0.023292793  0.023266416           12 
 1063000   0.82951732    -7.283474    297.02155   0.02328485  0.023249077            4 
 1064000   0.80424729   -7.2588628    297.02318  0.023263093   0.02323171            5 
 1065000   0.82197593   -7.2600369    297.46123  0.023275527  0.023214328            4 
 1066000   0.82326708   -7.2463427    296.71752  0.023195553   0.02319685            8 
 1067000   0.84103237   -7.2953396    297.12269  0.023205458  0.023179227            5 
 1068000   0.82435016   -7.2574068    297.18755  0.023188792  0.023161611            2 
 1069000   0.82717275   -7.2545439    298.32551  0.023255808  0.023144137            6 
 1070000   0.82433544   -7.2745824    297.29307  0.023153666  0.023126619            6 
 1071000   0.81970935   -7.2690155    298.04844  0.023190822   0.02310916            6 
 1072000   0.80675092   -7.2409033    297.64331  0.023137695  0.023091835            2 
 1073000   0.83740734   -7.2574637    297.32045  0.023091057  0.023074488            9 
 1074000   0.82968094   -7.2534163    298.54114  0.023164272  0.023057182            5 
 1075000    0.8231485   -7.2965913    298.14726   0.02311219   0.02303985            5 
 1076000   0.81945711   -7.2764902    298.62572  0.023127766   0.02302245            5 
 1077000   0.82345934   -7.2722054    297.90555  0.023050569   0.02300513            4 
 1078000   0.81931507   -7.2657957     299.1968  0.023129004  0.022987916            8 
 1079000    0.8263122   -7.2800689     299.5838  0.023137458  0.022970804            4 
 1080000   0.83334083   -7.2881976    299.76115  0.023129718  0.022953691            4 
 1081000   0.81918981   -7.3099652    298.68102  0.023025055  0.022936637            8 
 1082000   0.82265427      -7.2749    299.02583  0.023030332  0.022919648            5 
 1083000   0.84008651   -7.3047115    299.64705  0.023056867  0.022902811            2 
 1084000   0.83389711   -7.3165037    299.54679   0.02302789  0.022885915            4 
 1085000   0.82284516   -7.2901991    300.01697  0.023042778  0.022869092            5 
 1086000   0.81703447   -7.2512851    299.39741  0.022974018  0.022852433            3 
 1087000   0.80515964   -7.2513104    299.94577  0.022994922  0.022835676            4 
 1088000   0.82546418   -7.2503855     299.9885  0.022977061  0.022818887            5 
 1089000   0.82409258   -7.2927544    299.96966  0.022954519  0.022802046            5 
 1090000   0.82085805   -7.3045281    300.35266  0.022962741  0.022785242            8 
 1091000   0.81553862    -7.296338    300.92565  0.022985461  0.022768472            4 
 1092000   0.81510744   -7.3016231    300.77611     0.022953  0.022751763            5 
 1093000   0.81574536   -7.2928496    300.57558  0.022916711  0.022735017            7 
 1094000   0.82141307   -7.2949731    300.30415  0.022875088  0.022718265            5 
 1095000   0.82843593   -7.2952737    301.00473  0.022907514  0.022701432           11 
 1096000   0.81442767   -7.3010703    301.29855  0.022908953  0.022684785            7 
 1097000   0.81339844   -7.3163176    301.03714  0.022868212  0.022668124           11 
 1098000   0.81443113   -7.3068989    300.88748  0.022836026  0.022651578           17 
 1099000   0.81230794   -7.2762998    300.86286   0.02281338  0.022635015            4 
 1100000    0.8048091   -7.2867526     301.5738    0.0228465  0.022618412            3 
 1101000   0.83039151   -7.2915621    301.34517  0.022808444  0.022601914            2 
 1102000   0.81498391   -7.3424173    301.24574  0.022780229  0.022585281            4 
 1103000   0.81684874   -7.2841872    301.29151  0.022763034  0.022568576            8 
 1104000   0.81591725   -7.2834436    301.59021  0.022764962  0.022552002            4 
 1105000    0.8309782   -7.3298707    301.08683  0.022706397  0.022535412            5 
 1106000   0.81686828   -7.2857267    301.51751  0.022718318   0.02251878            5 
 1107000   0.81583185    -7.297895    302.22906  0.022751359  0.022502238            6 
 1108000   0.81113619   -7.2806035    302.42111   0.02274527  0.022485654            6 
 1109000   0.82366417   -7.2589282    302.03287  0.022695587  0.022469185            6 
 1110000   0.81682003   -7.3128037    301.48696  0.022634156   0.02245272            3 
 1111000   0.81196071   -7.2661411    302.42743  0.022684326  0.022436217            5 
 1112000   0.80430617   -7.3023755    302.50848      0.02267  0.022419636           10 
 1113000   0.80442036   -7.3145166    301.99513  0.022611196  0.022403043            4 
 1114000    0.8152766   -7.3084423    301.25174  0.022535289  0.022386379            4 
 1115000   0.80986002   -7.3108523    301.49281  0.022533095  0.022369666           10 
 1116000   0.80540605   -7.3091251    301.62174  0.022522531   0.02235296            5 
 1117000   0.79807511   -7.2998657    301.89679  0.022522888  0.022336338            7 
 1118000   0.81154473   -7.3440704    301.43824  0.022468563  0.022319708            3 
 1119000   0.80010533   -7.3415378    301.93747  0.022485662  0.022303052            5 
 1120000   0.80403122   -7.3305565    302.14767  0.022481226  0.022286523            4 
 1121000   0.82560301   -7.3451543    302.56423  0.022492137  0.022269925           12 
 1122000   0.80844204   -7.3261785    302.37268  0.022457864  0.022253406            3 
 1123000   0.80574789    -7.345885    302.33448  0.022435031  0.022236882            6 
 1124000   0.82658458   -7.3423538    303.23057  0.022481507  0.022220442            7 
 1125000   0.80529815   -7.2932464    303.29866  0.022466568   0.02220399            7 
 1126000   0.81030175   -7.3509257    303.53131  0.022463833  0.022187555            4 
 1127000   0.81452513   -7.3191621    303.33423  0.022429328  0.022171184            4 
 1128000   0.80362433   -7.3005851    303.36586  0.022411781  0.022154964            3 
 1129000   0.80460356   -7.3495156    302.96922  0.022362652  0.022138806            5 
 1130000   0.80508386   -7.3449009    302.94478   0.02234106  0.022122555            5 
 1131000   0.81354558   -7.3171288    304.35683  0.022425348  0.022106346            6 
 1132000   0.79282919   -7.3259015    304.15111  0.022390394  0.022090263            2 
 1133000   0.81303339   -7.3320603    304.70477  0.022411354  0.022074167            6 
 1134000   0.80968709    -7.364252    303.78824  0.022324239  0.022057988            6 
 1135000   0.80336032   -7.3517401    303.66612  0.022295604   0.02204173            9 
 1136000   0.78948217    -7.352776    304.06155  0.022304984  0.022025559           11 
 1137000   0.80716556   -7.3253663    304.41692  0.022311413  0.022009477            4 
 1138000   0.80654763   -7.3278669    304.53369  0.022300358  0.021993476            7 
 1139000   0.79999961   -7.3275653    304.39397  0.022270557  0.021977483            3 
 1140000   0.80705238   -7.3040703    305.37316  0.022322599  0.021961617            3 
 1141000   0.78879325   -7.3336047    304.79792  0.022261023  0.021945794            3 
 1142000   0.79929628   -7.3367432    304.83615  0.022244319  0.021929851            4 
 1143000   0.78217392   -7.3449025    304.99054  0.022236114  0.021913985            4 
 1144000   0.80139983   -7.3387486    305.25317  0.022235807  0.021898087            4 
 1145000   0.80074473   -7.3273528    304.98629  0.022196964  0.021882287            3 
 1146000   0.80224507   -7.3672073    305.81475  0.022237838  0.021866313            7 
 1147000   0.78371203     -7.33168      305.511  0.022196382  0.021850315            4 
 1148000   0.78950331   -7.3591801    305.06749  0.022144853  0.021834279            8 
 1149000   0.79162701   -7.3628145    306.02272  0.022194859  0.021818272            7 
 1150000    0.7956311   -7.3177486     305.7839  0.022158254  0.021802407            7 
 1151000    0.8051717   -7.3379651    305.57303  0.022123735  0.021786605            6 
 1152000   0.79583872   -7.3423013    306.03453  0.022137914  0.021770745            5 
 1153000    0.7792108   -7.3442277    305.13621  0.022053788  0.021754928            4 
 1154000   0.80249862   -7.3304335    306.27992  0.022117267  0.021739159            7 
 1155000   0.78821162   -7.3676242    305.16152  0.022017425  0.021723292            4 
 1156000   0.76922074   -7.3369298    306.25281  0.022077048  0.021707522            4 
 1157000    0.7902777   -7.3178892    306.68927  0.022089403  0.021691883            8 
 1158000   0.79561685   -7.3409891    306.06531  0.022025426  0.021676217            3 
 1159000   0.78543025   -7.3516462    306.61402  0.022045874  0.021660512           15 
 1160000   0.77813822    -7.366377    307.00431  0.022054908  0.021644886            4 
 1161000   0.78018238   -7.3344169    307.33623  0.022059735  0.021629255            5 
 1162000   0.78025799   -7.3677363    305.95345  0.021941584  0.021613623            6 
 1163000   0.79265951   -7.3487969    307.03031  0.021999879  0.021597965            5 
 1164000   0.80151185   -7.3361465    306.53831  0.021945756  0.021582374            4 
 1165000   0.79013026   -7.3279775    307.48225  0.021994438  0.021566819           13 
 1166000   0.80112367   -7.3432169    307.35481  0.021966467  0.021551369            7 
 1167000   0.77976684    -7.335803      307.093  0.021928949  0.021535781            4 
 1168000    0.7667497   -7.3697671    307.81074  0.021961383  0.021520274            5 
 1169000   0.78297921   -7.3397159    307.20271  0.021899252   0.02150479            5 
 1170000   0.77590847    -7.350453    307.84779  0.021926481  0.021489325            7 
 1171000   0.79200676   -7.3785387    307.53222  0.021885299  0.021473932           11 
 1172000   0.78873812     -7.38179    307.42328   0.02185888   0.02145852            4 
 1173000   0.79207927   -7.3792321    307.95496  0.021878016  0.021443059            3 
 1174000   0.78073371   -7.3506928    307.51157  0.021827908  0.021427677            3 
 1175000   0.78371347   -7.3423201    308.27003  0.021863123  0.021412229            5 
 1176000   0.79037176   -7.3769133    308.38295  0.021852534  0.021396927            4 
 1177000   0.78407954   -7.3480826    308.24644  0.021824302  0.021381534            6 
 1178000    0.7771541   -7.3613698    307.99874  0.021788253  0.021366171            5 
 1179000   0.78519602   -7.3867053    308.35702  0.021795096  0.021350825            3 
 1180000   0.78448261   -7.4219794    307.42657  0.021710916  0.021335437            5 
 1181000   0.77786036   -7.3480984    308.27451  0.021752365  0.021320119           10 
 1182000   0.78449317   -7.3860287    308.49469  0.021749484  0.021304792            8 
 1183000   0.79700706   -7.3782028    308.48123  0.021730151  0.021289518            4 
 1184000   0.77635005    -7.363812    308.17614  0.021690325  0.021274175            5 
 1185000   0.77534161   -7.3804041    308.91746  0.021724153  0.021258885            5 
 1186000   0.78552949   -7.3688431    308.80195   0.02169772  0.021243505            4 
 1187000   0.79087766   -7.3824861    309.13739   0.02170299  0.021228194           10 
 1188000   0.77071677   -7.3868759     308.4132  0.021633922  0.021212974            6 
 1189000   0.76343492   -7.4023886    308.93412  0.021652237  0.021197733            4 
 1190000   0.78939926   -7.3965878    308.66109  0.021614922  0.021182503            6 
 1191000   0.78377862    -7.404169    308.48528  0.021584473  0.021167281            4 
 1192000   0.78274125   -7.3857757    309.45708  0.021634304  0.021152101            7 
 1193000   0.77490009   -7.3826592    309.36844  0.021609978  0.021136915            6 
 1194000   0.77131291   -7.4194586    309.53567   0.02160355    0.0211217            4 
 1195000   0.78330639   -7.3904021    308.33108   0.02150147  0.021106465            4 
 1196000   0.78989913   -7.3874195    309.21633  0.021545173  0.021091243            4 
 1197000   0.78317744   -7.3899332    309.04684  0.021515375   0.02107602            6 
 1198000   0.79335876    -7.397982    309.83359  0.021552141  0.021060815            4 
 1199000    0.7673043   -7.3577029    309.13476  0.021485596   0.02104572            6 
 1200000   0.77552938   -7.3743363    309.57666  0.021498379  0.021030602           10 
 1201000   0.76748738   -7.4090434    310.24276  0.021526697  0.021015461            7 
 1202000   0.77259185   -7.4069183    309.41122  0.021451138  0.021000219            8 
 1203000   0.80001645   -7.4098543     309.5263  0.021441279   0.02098504            6 
 1204000    0.7665929   -7.4053101    309.64009  0.021431346  0.020969937            6 
 1205000   0.77680234   -7.4181705    309.85066  0.021428123  0.020954823            5 
 1206000   0.77722648   -7.3797558    310.19281  0.021433997  0.020939784            8 
 1207000   0.77561849   -7.3706461    310.69507  0.021450916  0.020924816            7 
 1208000    0.7598783    -7.394468    310.24447  0.021402074   0.02090986            4 
 1209000   0.75783035    -7.397105    310.37281  0.021393218  0.020894833            8 
 1210000   0.77276873   -7.4056255    309.59766  0.021322153  0.020879821            8 
 1211000   0.78171243   -7.4263961    310.11317   0.02134002  0.020864811            3 
 1212000   0.78800327   -7.4080781    310.01294  0.021315521  0.020849741            3 
 1213000     0.771525   -7.4087273     310.0097  0.021297726  0.020834679            4 
 1214000   0.77598683   -7.4110027    309.40528  0.021238693  0.020819553            5 
 1215000   0.78426702   -7.3842347    309.56007  0.021231829  0.020804479            3 
 1216000   0.75822634   -7.3974925    309.44385  0.021206404  0.020789361            2 
 1217000   0.77414168   -7.3931303    310.64005  0.021270888  0.020774282            5 
 1218000   0.76988805   -7.3975927    310.93131  0.021273352  0.020759244            3 
 1219000   0.76284229   -7.3866536    310.22664  0.021207728  0.020744209            4 
 1220000   0.75698608   -7.3918389    310.65124  0.021219347  0.020729208            5 
 1221000   0.74845149   -7.4043884    310.45023  0.021188249  0.020714122            4 
 1222000   0.76649782   -7.4225129     310.8386  0.021197395  0.020699117            4 
 1223000   0.74496265   -7.4089926    310.50859  0.021157576  0.020684122            4 
 1224000   0.78666036   -7.3956425    310.78168  0.021158883  0.020669175            5 
 1225000   0.77291963   -7.4378879    310.86395  0.021147208  0.020654173            8 
 1226000   0.78279538   -7.4075443    310.53374  0.021107514  0.020639247            4 
 1227000   0.74314515   -7.4326317    311.55664  0.021159783  0.020624283            4 
 1228000   0.76078169   -7.3618005    311.23941  0.021121024  0.020609339            4 
 1229000   0.75920046   -7.4055873     310.7663  0.021071759  0.020594484           11 
 1230000   0.74708853   -7.3686153    311.42566    0.0210993  0.020579581            7 
 1231000   0.74702057   -7.3917963    311.60743  0.021094465  0.020564583            4 
 1232000   0.75966506   -7.4392441    310.62331  0.021010776  0.020549544           10 
 1233000   0.77184931   -7.4063536    311.28628  0.021038543  0.020534517            6 
 1234000   0.74349718    -7.422102    311.37962  0.021027797  0.020519496            6 
 1235000   0.76936277   -7.4236044     310.8415   0.02097446  0.020504408            8 
 1236000   0.76860148   -7.3967203     311.2136  0.020982578  0.020489364            5 
 1237000   0.76478368   -7.4311434    311.37576   0.02097654  0.020474385            8 
 1238000    0.7499118   -7.4160303    310.94481  0.020930588  0.020459398            8 
 1239000   0.76204358   -7.4195083    311.34999  0.020940946  0.020444434            4 
 1240000   0.75495181    -7.422006    311.33693  0.020923181   0.02042958            6 
 1241000   0.75265183   -7.4114566    312.18721  0.020963418   0.02041472            4 
 1242000   0.75202659    -7.419604    311.74996  0.020917201  0.020399878            6 
 1243000   0.76283672   -7.4101055     311.4005  0.020876944  0.020385032            5 
 1244000   0.73724953   -7.4024388    311.20427  0.020847017  0.020370259            7 
 1245000   0.75051727     -7.40924    312.22773  0.020898777  0.020355486            9 
 1246000    0.7563837   -7.4108526    311.82122  0.020854817  0.020340785            4 
 1247000   0.74842657   -7.4056569    312.44816  0.020879989   0.02032606            3 
 1248000   0.76050645   -7.4165715    311.95437  0.020830287  0.020311289            5 
 1249000   0.75026907   -7.4151248    311.34446  0.020772916  0.020296442            5 
 1250000   0.74542819   -7.4372661    312.47624   0.02083175  0.020281593            3 
 1251000   0.74166427   -7.4249715    311.98174  0.020782157   0.02026685           11 
 1252000   0.75196346   -7.4435898    311.56322  0.020737701  0.020252013            9 
 1253000   0.76205621   -7.4340524    311.69056  0.020729619  0.020237211           10 
 1254000   0.76622317   -7.4372575    312.07747  0.020738801  0.020222447            9 
 1255000     0.776171   -7.4470572    312.32321  0.020738593  0.020207696            9 
 1256000   0.74264589   -7.4778849    312.03428  0.020702911  0.020192969            7 
 1257000   0.75883822   -7.4638205    312.74081  0.020733281  0.020178177           10 
 1258000   0.75104459   -7.4666094     313.1068  0.020741044    0.0201634           13 
 1259000   0.76151019   -7.4719974    312.21822  0.020665755  0.020148678            6 
 1260000   0.76932773   -7.4452624    312.42854  0.020663263  0.020134084            6 
 1261000   0.74457288    -7.444575    312.89728  0.020677853  0.020119506           10 
 1262000   0.74827475    -7.453256    312.78462  0.020654029  0.020104867           10 
 1263000   0.74916677     -7.44798    312.80572  0.020639068  0.020090235            3 
 1264000   0.75968344   -7.4602719     312.7122  0.020616574  0.020075701            5 
 1265000   0.75618024   -7.4189143    312.93152  0.020614724  0.020061198            4 
 1266000   0.75328774   -7.4508503    313.51599  0.020636913  0.020046748            8 
 1267000   0.74361565   -7.4354814    314.13098  0.020661075  0.020032339            3 
 1268000   0.75678133    -7.477181    313.25117  0.020586959  0.020017914            6 
 1269000   0.74237475   -7.4435838    313.40407  0.020580777  0.020003399           12 
 1270000   0.71904361   -7.4659429    313.37327   0.02056255  0.019988825           16 
 1271000   0.73820935   -7.4530319    313.00773  0.020522405    0.0199743            5 
 1272000   0.75736694   -7.4788477    313.50536  0.020538873  0.019959762            5 
 1273000   0.73658411   -7.4457099    313.64425  0.020531831  0.019945323            8 
 1274000   0.73807106   -7.4425345    313.87572  0.020530856  0.019930918            5 
 1275000   0.74758256   -7.4631248    313.15219  0.020467463  0.019916421            7 
 1276000   0.73663011   -7.4513379    313.52196  0.020475572   0.01990201            6 
 1277000   0.75644034   -7.4422462    313.43607  0.020453933  0.019887505            6 
 1278000   0.73895371   -7.4735659    313.53154  0.020444154  0.019873005            7 
 1279000     0.737885   -7.4566759    313.72441  0.020440736  0.019858542            7 
 1280000   0.74496707    -7.482949    313.80438  0.020429973  0.019844054            6 
 1281000   0.73262302   -7.4758023    314.07918  0.020431901  0.019829599            8 
 1282000   0.74382914   -7.4639227    313.21721  0.020359933  0.019815145            4 
 1283000   0.74455107   -7.4605081    313.75274  0.020378848  0.019800781           14 
 1284000   0.73121171   -7.4372159    313.37446  0.020338426  0.019786389            4 
 1285000   0.73609052   -7.4906073    313.96461   0.02036087  0.019771989            4 
 1286000   0.72507004   -7.4563631    314.29055  0.020366158  0.019757551            5 
 1287000   0.74980994   -7.4662754    314.13651  0.020340359   0.01974313            7 
 1288000    0.7379902   -7.4987364    313.75256  0.020299726  0.019728753           10 
 1289000   0.73799738    -7.484684    314.42696  0.020327577  0.019714413            6 
 1290000    0.7434954   -7.4687268    314.68664  0.020328594  0.019700117           16 
 1291000    0.7278083   -7.4780643    314.73281  0.020315828  0.019685728            6 
 1292000   0.72174208   -7.4746821    313.70657  0.020233912  0.019671311            8 
 1293000   0.74374821   -7.4856398    313.74061  0.020220457  0.019656864            4 
 1294000   0.73432757   -7.4684066    313.77266  0.020206895  0.019642488            3 
 1295000   0.73830138   -7.4647668    313.83487  0.020195294  0.019628131            3 
 1296000   0.74477366   -7.4840439    314.17208  0.020201394  0.019613773           11 
 1297000   0.74578309   -7.4614439    314.85547  0.020229727  0.019599536           10 
 1298000   0.74063899   -7.4726931    315.11023  0.020230497  0.019585381            5 
 1299000   0.74666921   -7.4700647    314.42434  0.020170922  0.019571184            5 
 1300000   0.72886049   -7.4773868    315.22402  0.020206668  0.019556966            9 
 1301000   0.73149257    -7.484305    315.09468  0.020182852  0.019542745            7 
 1302000   0.71534993   -7.4593796    314.88991  0.020154244  0.019528527            7 
 1303000   0.73535142   -7.4805514    315.16983  0.020156679  0.019514328            5 
 1304000   0.73577995   -7.4772117    314.80221  0.020117728  0.019500131            7 
 1305000   0.72592164   -7.4859361    315.53281  0.020148966  0.019485934            9 
 1306000   0.71343038   -7.4940203    314.71856  0.020081582  0.019471754            5 
 1307000   0.74356844   -7.4923442    315.25245  0.020100258  0.019457586            4 
 1308000   0.71377077   -7.4701893    315.44007  0.020096844   0.01944348            2 
 1309000   0.73387098   -7.4896129    315.20295  0.020066396  0.019429424            7 
 1310000   0.72815444    -7.477501    315.60379  0.020076577  0.019415333            4 
 1311000   0.73570805   -7.4938948    315.32757  0.020043705  0.019401213           10 
 1312000   0.74644597   -7.5077064    315.80462  0.020058729  0.019387073            5 
 1313000   0.71630683   -7.4685443    315.63455  0.020032658  0.019372962            5 
 1314000   0.73466514   -7.4750471    315.87113  0.020032416  0.019358884            6 
 1315000   0.70840129   -7.4861574    316.08006  0.020030422  0.019344876            4 
 1316000   0.71181298   -7.4832138    316.12813  0.020018245  0.019330896            8 
 1317000   0.74250862   -7.5070235     315.7207  0.019977265  0.019316908            7 
 1318000   0.72322833   -7.5022273    315.12568  0.019924487  0.019302963            5 
 1319000   0.72201288   -7.4923578    316.47876  0.019994867  0.019288974            3 
 1320000   0.73141642   -7.4925701    315.99951  0.019949464  0.019274975            7 
 1321000   0.72702514   -7.4973778    315.69431  0.019915109  0.019260971            8 
 1322000   0.73467215   -7.4888405    315.19398  0.019868506  0.019247012           14 
 1323000   0.73881167   -7.5188932    316.03649  0.019906556  0.019233001           13 
 1324000   0.73718722   -7.5063947     315.9979  0.019889092  0.019218942           11 
 1325000   0.72007258   -7.5115822    315.51696  0.019843834  0.019204832           13 
 1326000   0.72009869   -7.5192667    314.74186  0.019780157  0.019190688            8 
 1327000   0.72813824   -7.5186124    315.30819  0.019800816  0.019176543            8 
 1328000   0.71525214   -7.5123593    315.65682  0.019807782  0.019162468           11 
 1329000   0.71986541   -7.5311716    316.08282   0.01981959  0.019148338           10 
 1330000   0.73154243    -7.515282    315.92787  0.019794979  0.019134251           12 
 1331000   0.72887578   -7.5384384    315.92449  0.019779895  0.019120231            9 
 1332000   0.72440428    -7.535479    315.72073  0.019752298  0.019106205           17 
 1333000   0.71253068   -7.5252608    315.97819  0.019753576  0.019092206            5 
 1334000   0.72873476   -7.5153505    316.15016  0.019749511  0.019078203           10 
 1335000   0.70694529   -7.5191608    315.84887  0.019715909   0.01906428           19 
 1336000    0.7095828   -7.5099402    316.21547  0.019724019  0.019050372           20 
 1337000   0.72558144   -7.5139657     316.3315  0.019716498  0.019036491            5 
 1338000   0.73474009   -7.5124072    316.39013  0.019705414  0.019022614            4 
 1339000   0.74147494   -7.4935506    316.63786  0.019706115  0.019008771            4 
 1340000   0.72964826   -7.5145506    317.14157  0.019722734  0.018994926            7 
 1341000   0.71205808   -7.5195244    316.95183  0.019696236   0.01898108           13 
 1342000   0.71752836   -7.5052557    316.99817  0.019684437  0.018967242           11 
 1343000    0.7088607   -7.5140476    315.93806     0.019604  0.018953391            9 
 1344000   0.71273637   -7.5261531    315.84601  0.019583706  0.018939553            7 
 1345000   0.72509314   -7.5263924    316.46242  0.019607337  0.018925725            9 
 1346000   0.71490328   -7.5142058    316.02948  0.019565966  0.018911841            9 
 1347000   0.73368313   -7.5051665    316.13327  0.019557861  0.018897979           11 
 1348000    0.7047147   -7.5026914    316.48761  0.019565258  0.018884115            6 
 1349000   0.71025453   -7.5092371    316.77938  0.019568778  0.018870212           10 
 1350000   0.71339622   -7.5212968    316.85423  0.019558903  0.018856314           15 
 1351000   0.72478317   -7.5176088    316.17347  0.019502434  0.018842422            6 
 1352000   0.72347745   -7.5570354    315.62958  0.019454486  0.018828489            4 
 1353000   0.72587942   -7.5279396    316.28233  0.019480311  0.018814544           10 
 1354000    0.7010972   -7.5291337    315.95346  0.019445683  0.018800664            4 
 1355000   0.72259235   -7.5741456    316.21143  0.019447198  0.018786759            6 
 1356000   0.71744792   -7.5520195     316.1554  0.019429412  0.018772887            8 
 1357000   0.71122551   -7.5573222    316.82862  0.019456437  0.018759034            7 
 1358000   0.72412915   -7.5335891    316.73371  0.019436285  0.018745182            8 
 1359000    0.7136362   -7.5419896    316.04584  0.019379804  0.018731301            8 
 1360000   0.72408611   -7.5186995     316.7969  0.019411575  0.018717451            6 
 1361000   0.70992642    -7.537905    316.70434  0.019391644  0.018703677            6 
 1362000   0.71309115   -7.5420386    316.84045  0.019385735  0.018689877            6 
 1363000   0.71261353   -7.5428386    316.58033  0.019355608   0.01867612            2 
 1364000   0.70337049   -7.5296737    316.43791  0.019332717  0.018662278            8 
 1365000   0.69522933   -7.5423556    316.72036  0.019335797  0.018648448            7 
 1366000   0.70818997   -7.5391244    317.13193   0.01934675  0.018634722            7 
 1367000   0.72630623   -7.5226972     316.8387  0.019314722  0.018620971            7 
 1368000   0.71328161   -7.5316186    317.82749  0.019360836  0.018607303            6 
 1369000    0.7033598   -7.5208044    316.63837  0.019274311  0.018593569            8 
 1370000   0.70762285   -7.5271387    318.06395  0.019346956  0.018579904            8 
 1371000   0.72306724   -7.5258116    316.99545  0.019267897  0.018566217            5 
 1372000   0.70516248   -7.5612063    316.71162  0.019236614  0.018552498           10 
 1373000   0.69560046   -7.5500282    316.81263  0.019228735  0.018538735            8 
 1374000   0.72279852   -7.5469421     316.4774  0.019194408   0.01852501            5 
 1375000   0.71750678   -7.5756853    316.70129  0.019194018  0.018511258            5 
 1376000   0.70445602   -7.5438484    316.56769  0.019171977  0.018497493            4 
 1377000   0.69650564   -7.5480515    316.66152  0.019163733  0.018483742            5 
 1378000   0.69601462   -7.5652662    317.43054  0.019196332  0.018470023            6 
 1379000    0.6943822   -7.5338513    317.10757  0.019162894  0.018456324            8 
 1380000   0.69501065   -7.5407472    316.67432  0.019122845  0.018442649            7 
 1381000   0.68797338   -7.5389938    316.56404  0.019102344   0.01842898            7 
 1382000    0.7135318   -7.5324035    317.25253  0.019130037  0.018415338           12 
 1383000   0.69873848   -7.5339874    316.80974  0.019089524  0.018401691            5 
 1384000   0.69977313   -7.5404494    317.88081  0.019140222  0.018388075           12 
 1385000   0.70304963   -7.5496664     317.0789  0.019078153  0.018374509            7 
 1386000    0.7041043   -7.5317156    317.46696   0.01908772  0.018360943           14 
 1387000   0.69339586    -7.558646    317.19914  0.019057867  0.018347372            9 
 1388000   0.70507954   -7.5234323    317.67968  0.019072987  0.018333789            4 
 1389000   0.69493928   -7.5469876    317.48503  0.019047578  0.018320173            3 
 1390000   0.70092602   -7.5462415    317.41381  0.019029605  0.018306598           10 
 1391000   0.70997653   -7.5495706    317.58755  0.019026333  0.018293011            9 
 1392000    0.7023176   -7.5584306    317.44415   0.01900408  0.018279426            6 
 1393000   0.70180747   -7.5588121    316.81464  0.018952778  0.018265797            8 
 1394000   0.69279928   -7.5570484    317.23448   0.01896428  0.018252225            6 
 1395000   0.70052313   -7.5613858    317.32392  0.018956029  0.018238638           21 
 1396000   0.68660502    -7.574765    317.00447   0.01892338  0.018225022            9 
 1397000   0.69008449   -7.5552548    316.82643  0.018899214  0.018211386            6 
 1398000   0.69205231   -7.5635092    318.35479  0.018976799  0.018197793            6 
 1399000    0.6970419   -7.5569712    317.81019  0.018930795  0.018184246            5 
 1400000   0.68126011   -7.5843957    317.71583  0.018911657  0.018170714            8 
 1401000    0.6971098   -7.5477801    317.42821   0.01888105  0.018157184            8 
 1402000   0.70920263   -7.5665464    317.25552  0.018857318  0.018143603            6 
 1403000   0.70381951   -7.5419563    317.86487  0.018880071  0.018130047            5 
 1404000   0.69546777   -7.5625936     317.5681  0.018849009  0.018116525            9 
 1405000   0.69338156   -7.5855233    317.33747  0.018821914  0.018103027            6 
 1406000   0.68241974   -7.6005945    317.47815  0.018816865  0.018089495            7 
 1407000   0.70422921   -7.5905454    317.58426  0.018809776  0.018075904           16 
 1408000   0.69659536   -7.5621887    317.44151  0.018787968  0.018062381            8 
 1409000   0.68635782   -7.5899484    317.86919  0.018799928  0.018048832            5 
 1410000   0.69638517   -7.5747611    317.22243   0.01874837  0.018035258            9 
 1411000   0.70492869   -7.5791472      318.493  0.018810123  0.018021739            7 
 1412000   0.69937443   -7.5622887    317.86903  0.018759976   0.01800823            9 
 1413000   0.69314555   -7.5917416    317.74288  0.018739259  0.017994754            8 
 1414000   0.69574049   -7.5948111    317.33108  0.018701737  0.017981288            6 
 1415000   0.69145587   -7.5792073    317.68503  0.018709366  0.017967855           20 
 1416000   0.67353654   -7.5988284    318.21421  0.018727296  0.017954491            9 
 1417000   0.68321004   -7.5896214    317.85365  0.018692875   0.01794109           12 
 1418000   0.68607565   -7.5760576    318.43508  0.018713862  0.017927685            9 
 1419000   0.67235719   -7.5777219    318.45265  0.018701706  0.017914298            3 
 1420000    0.6922987   -7.5822508    317.54865  0.018635484  0.017900902            7 
 1421000   0.69101258   -7.6014645    317.81393  0.018637927  0.017887448           10 
 1422000   0.68667315   -7.6084318    317.65243  0.018615356   0.01787404           12 
 1423000   0.68849261   -7.5928658     317.7194  0.018606196  0.017860559           10 
 1424000   0.68484395   -7.5885583     317.5731  0.018584568  0.017847064           11 
 1425000   0.69473513   -7.6139279    318.12201  0.018603626  0.017833538           17 
 1426000    0.6778536    -7.573712    317.92057  0.018578809  0.017820036           12 
 1427000   0.69400113   -7.5802119    317.97693   0.01856908  0.017806541           12 
 1428000   0.69052963   -7.6104283    317.41624  0.018523357  0.017793138            7 
 1429000   0.67454838   -7.5966786    317.88275  0.018537599  0.017779711            4 
 1430000   0.66428486   -7.5832006    317.72084    0.0185152  0.017766301            4 
 1431000   0.68616685   -7.5933213     318.3164  0.018536944  0.017752858            5 
 1432000   0.68628936   -7.6012195    317.41263  0.018471406  0.017739457            7 
 1433000   0.68838359   -7.5922263    317.72843   0.01847688  0.017726051            6 
 1434000   0.67236191   -7.5729981    317.73833  0.018464571  0.017712676            7 
 1435000   0.68371369   -7.5952691    318.35216   0.01848735  0.017699299            4 
 1436000   0.66409709    -7.582787    317.91762  0.018449259  0.017685921            7 
 1437000   0.70039913   -7.5959494    317.42546  0.018407879  0.017672564            5 
 1438000   0.68959034   -7.5950871    317.13325  0.018378144  0.017659233            5 
 1439000   0.67261595   -7.6193083     317.3477  0.018377792  0.017645809            7 
 1440000    0.6699511   -7.6141348    317.78985  0.018390616  0.017632378            8 
 1441000   0.66828585   -7.6104454    318.16792  0.018399718  0.017618966           14 
 1442000    0.6670404   -7.6327662     317.5047   0.01834863  0.017605557            4 
 1443000   0.67869343   -7.6241484    317.85694  0.018356257  0.017592192            4 
 1444000   0.68924467   -7.6223389    317.50625  0.018323306  0.017578793            5 
 1445000   0.68226686   -7.6232983    317.74889  0.018324619  0.017565432            6 
 1446000   0.66624686   -7.6399944    317.21441  0.018281144  0.017552023           11 
 1447000    0.6569689   -7.6104494    317.63098  0.018292501  0.017538666           25 
 1448000   0.66847372    -7.619977     317.7507  0.018286758  0.017525341            9 
 1449000   0.66282264   -7.6194255    317.92137  0.018283953  0.017512021           15 
 1450000   0.67800104   -7.6106977    318.11918  0.018282711  0.017498715            5 
 1451000   0.67151935   -7.6054232    318.17537  0.018273338  0.017485404            7 
 1452000   0.67642446   -7.6255447    317.85218  0.018242205  0.017472074            7 
 1453000   0.67728439   -7.6214606    318.13894  0.018246097  0.017458835            9 
 1454000   0.68237392   -7.5970048      318.112  0.018232003  0.017445588           11 
 1455000   0.67832017   -7.5981631    317.88922  0.018206714  0.017432372            8 
 1456000   0.66633038   -7.5917666    317.52516  0.018173372  0.017419133            4 
 1457000   0.66302915   -7.6116375    317.82351  0.018177963  0.017405912            6 
 1458000   0.67811272   -7.6093197    318.68908  0.018214968  0.017392739            9 
 1459000    0.6698707   -7.6046839    317.58092  0.018139189  0.017379527            7 
 1460000   0.67917762   -7.6172754    317.28259  0.018109737  0.017366366           10 
 1461000   0.66424839   -7.6124752     318.2389  0.018151888  0.017353229           10 
 1462000   0.65610981   -7.6223007    318.50214  0.018154477  0.017340111            9 
 1463000   0.66759314   -7.6378654    318.38479  0.018135383  0.017326996           19 
 1464000   0.69083107   -7.6284044    318.33806  0.018120336  0.017313916            8 
 1465000   0.66852006   -7.6092576    319.29209  0.018162235  0.017300827           14 
 1466000   0.66689348   -7.6453266    318.49048  0.018104279  0.017287754           10 
 1467000   0.66893226   -7.6221104     318.5381  0.018094643  0.017274706           11 
 1468000   0.65742442   -7.6246713    318.87409   0.01810139  0.017261617            8 
 1469000   0.66642235   -7.6350859    318.86425   0.01808851  0.017248628            8 
 1470000   0.66165148   -7.6290931    319.02564  0.018085354  0.017235613            6 
 1471000   0.66728905   -7.6201786     319.1197  0.018078387  0.017222621           13 
 1472000   0.65818682   -7.6185934    318.69999  0.018042346  0.017209636           12 
 1473000   0.65536779   -7.6404092    318.66199  0.018027947  0.017196693            2 
 1474000   0.65468465   -7.6563846     318.6822  0.018016859  0.017183731            6 
 1475000   0.66716169   -7.6503797    318.08115  0.017970686  0.017170731            7 
 1476000   0.66216974    -7.638782    319.40216  0.018033094  0.017157773            6 
 1477000   0.66585123   -7.6453251    318.82878  0.017988534  0.017144849            7 
 1478000   0.65943228   -7.6402152    318.63606  0.017965497  0.017131956            5 
 1479000   0.66118715   -7.6597325    318.89318  0.017967837  0.017119019            9 
 1480000   0.65429015    -7.643013     319.1149  0.017968181  0.017106107           13 
 1481000   0.65202475   -7.6327299     318.7253  0.017934127  0.017093212            9 
 1482000   0.66379751   -7.6325562    318.89741  0.017931703  0.017080337           10 
 1483000   0.65869832   -7.6285501    319.26664   0.01794036  0.017067452            6 
 1484000   0.66926495    -7.650262    318.49826  0.017885123  0.017054579            6 
 1485000   0.65567032   -7.6596745    318.37938  0.017866407  0.017041729            9 
 1486000   0.64566669   -7.6648344    318.80453  0.017878226  0.017028838            5 
 1487000    0.6674337   -7.6646459    318.58438  0.017853866  0.017015939            5 
 1488000   0.66996923   -7.6624637     318.5013  0.017837215  0.017003074            7 
 1489000   0.65088146     -7.67566    318.64471  0.017833261  0.016990179            5 
 1490000   0.65486922    -7.666835    318.34724  0.017804656  0.016977311            7 
 1491000   0.65553806   -7.6886838    318.77308  0.017816515  0.016964443            8 
 1492000   0.64355802   -7.6672302    318.90313  0.017811837   0.01695161            7 
 1493000   0.65287685   -7.6524748    318.87089  0.017798107  0.016938813           12 
 1494000    0.6610701   -7.6537543     319.6153  0.017827716  0.016926037           18 
 1495000   0.65698814   -7.6634276    319.22253  0.017793898  0.016913256            7 
 1496000    0.6584316    -7.645507    319.41187   0.01779255  0.016900518            6 
 1497000   0.64629418   -7.6542684    319.25498  0.017771932    0.0168878            4 
 1498000   0.66720075    -7.634548    319.19356  0.017756651  0.016875126            9 
 1499000   0.64900432   -7.6622284    318.83574  0.017724913  0.016862465           11 
 1500000   0.66344957   -7.6573153    318.78415   0.01771023  0.016849751            9 
 1501000    0.6594018   -7.6520554    319.16019  0.017719309  0.016837069            8 
 1502000   0.65652859   -7.6688778    318.94281  0.017695451   0.01682434            6 
 1503000   0.64818727   -7.6582895    319.32021  0.017704603  0.016811614            8 
 1504000   0.65282399   -7.6619198    319.16368  0.017684158  0.016798894            7 
 1505000   0.66539591   -7.6680678    319.53272  0.017692841  0.016786189            7 
 1506000   0.65966354   -7.6561334       319.23  0.017664343  0.016773494           12 
 1507000   0.65977755   -7.6641916    319.32189  0.017657702  0.016760788           10 
 1508000   0.65693747    -7.673199    318.86304  0.017620637  0.016748088            7 
 1509000   0.64653025   -7.6875742     318.9159  0.017611879  0.016735375           31 
 1510000   0.66087882   -7.6988047     319.0073  0.017605259   0.01672265           14 
 1511000   0.64940441   -7.6629473    318.93179  0.017589443  0.016709983           10 
 1512000   0.64278927   -7.6825915    319.41695   0.01760455  0.016697338           14 
 1513000   0.65501327   -7.6623897    319.30827  0.017586929  0.016684694           10 
 1514000   0.65703774   -7.6731995    318.63791  0.017538414  0.016672043           16 
 1515000   0.63986155   -7.6857158    318.99608  0.017546539  0.016659371            5 
 1516000   0.63945737   -7.6656097    319.33737  0.017553725  0.016646713            5 
 1517000   0.65101777   -7.6685935    319.61511  0.017557411  0.016634066            8 
 1518000   0.64682826   -7.6573213     318.9727  0.017510578  0.016621442            8 
 1519000   0.65073762    -7.696885    319.21018  0.017512079  0.016608812           15 
 1520000   0.64684388   -7.6861525    319.40768  0.017511386  0.016596187            9 
 1521000   0.64600985   -7.6941257    318.65639  0.017458711  0.016583547            6 
 1522000   0.65020617   -7.6707573    318.98823  0.017465409  0.016570949            6 
 1523000   0.63269003   -7.6881216    318.53685  0.017429243  0.016558338            8 
 1524000   0.64804391   -7.7047907    319.35531  0.017462561  0.016545724            8 
 1525000   0.64484949   -7.6942336    319.15361  0.017440088  0.016533126            6 
 1526000   0.63735529   -7.7000041    319.02013   0.01742137  0.016520523            9 
 1527000    0.6468856    -7.686029    319.04433  0.017411282  0.016507926            6 
 1528000   0.63205071   -7.6641015    319.36379  0.017417309  0.016495346           10 
 1529000   0.65566297   -7.6918483    319.51215  0.017414004  0.016482803            9 
 1530000   0.65597013   -7.6862822    319.16372  0.017383645  0.016470269            6 
 1531000   0.64679393   -7.6964418    319.59124   0.01739556  0.016457717            4 
 1532000   0.62932392   -7.7130359    319.15634  0.017360549  0.016445179            6 
 1533000   0.64591981   -7.6975774    318.76089  0.017327729  0.016432643            6 
 1534000   0.64654792   -7.7106524    319.34787   0.01734832  0.016420138            8 
 1535000   0.64458119   -7.7360665    318.40575  0.017285871  0.016407587           11 
 1536000   0.64582364   -7.7026155    318.86466  0.017299515  0.016395072           13 
 1537000   0.63634282   -7.7039331    319.35993  0.017315112   0.01638256            6 
 1538000   0.64015298    -7.710027    319.43525  0.017307935  0.016370004           11 
 1539000   0.65424101   -7.7174475    318.73304  0.017258666   0.01635746           10 
 1540000   0.64762131   -7.7322556    318.72153  0.017246836  0.016344919            4 
 1541000   0.64524755   -7.7107799    319.34836  0.017269542  0.016332439            5 
 1542000   0.63154288   -7.7034971    319.45773  0.017264253  0.016319964            8 
 1543000   0.63753656   -7.7040089    319.05311  0.017231211  0.016307517            8 
 1544000   0.63480715   -7.7086459    319.73764  0.017256997  0.016295036            6 
 1545000   0.64179731   -7.7217886    318.77576  0.017193946  0.016282567            7 
 1546000   0.63066167   -7.7294195    318.51588  0.017168816  0.016270109           12 
 1547000    0.6413748   -7.7107683    319.03254  0.017185549  0.016257654            6 
 1548000   0.63585342   -7.7104145    319.36384  0.017192282  0.016245199           10 
 1549000   0.63778132   -7.6953929     318.5642  0.017138164  0.016232754           11 
 1550000   0.64131488   -7.6991461    318.43788  0.017120316  0.016220291            8 
 1551000   0.63914916   -7.6881113     318.5958  0.017117763  0.016207861           11 
 1552000   0.63580892   -7.7255669     318.6306  0.017108602   0.01619543            9 
 1553000   0.62124859   -7.7235377    318.97805   0.01711623  0.016183002            7 
 1554000   0.64032382   -7.7020417    318.48312  0.017078675  0.016170584            8 
 1555000   0.63766888   -7.7139026    319.12024  0.017101835   0.01615821            7 
 1556000   0.63135829   -7.7238258    319.15432  0.017092669  0.016145867            4 
 1557000   0.63245974   -7.6969166    319.72819  0.017112406  0.016133574           12 
 1558000   0.62568013   -7.7119909    319.54785  0.017091776  0.016121269           10 
 1559000   0.62902945   -7.7257383    319.40537  0.017073197  0.016108927            8 
 1560000   0.62581175     -7.72995    319.34602  0.017059082  0.016096579            6 
 1561000   0.63883169   -7.6993182    318.54069  0.017005161   0.01608423            5 
 1562000   0.64646187   -7.7377777    318.44036  0.016988922   0.01607187            6 
 1563000    0.6361836   -7.7179013    319.74527  0.017047626   0.01605952            9 
 1564000   0.63537499    -7.717154    318.93058  0.016993317  0.016047211           12 
 1565000   0.62970565    -7.722686    319.12386  0.016992751  0.016034869            7 
 1566000   0.62380239   -7.7498914     319.1121  0.016981274  0.016022527            7 
 1567000   0.60495171   -7.7242688     319.0244  0.016965773  0.016010199            6 
 1568000   0.62121327   -7.7310276    319.20256  0.016964422  0.015997872            8 
 1569000    0.6359606   -7.7201327    318.78814  0.016931599  0.015985538           11 
 1570000   0.62387202   -7.7057466    318.56232  0.016908828  0.015973211           10 
 1571000    0.6395847   -7.7309587    318.97174  0.016919782  0.015960878            9 
 1572000   0.60616182   -7.7164696    318.56704  0.016887566  0.015948562           11 
 1573000    0.6346923   -7.7352018    318.53582  0.016875176  0.015936228            5 
 1574000   0.61785132   -7.7417846    319.18713  0.016898937  0.015923886           11 
 1575000   0.62432039     -7.74208    318.76546  0.016865897   0.01591158           10 
 1576000   0.63049514   -7.7332698    318.59726  0.016846302  0.015899279            5 
 1577000   0.62296336   -7.7411614    318.95969  0.016854771  0.015886994            5 
 1578000   0.62509138   -7.7229885    318.53824  0.016821834  0.015874728            5 
 1579000   0.62763366   -7.7401757    318.43141  0.016805542  0.015862473            5 
 1580000   0.62741184   -7.7625484    318.31407  0.016788717  0.015850206            7 
 1581000   0.62337562    -7.723655     318.7481  0.016800975  0.015837953            9 
 1582000   0.62510355    -7.735069    319.14591   0.01681131  0.015825736            5 
 1583000   0.64052098   -7.7342879    319.01208  0.016793645  0.015813524            6 
 1584000   0.61873596   -7.7244813    318.90369  0.016777341  0.015801331            5 
 1585000   0.61264352   -7.7197341    318.78768  0.016760656  0.015789141            5 
 1586000   0.61850444   -7.7610322    318.91526  0.016756792  0.015776936           12 
 1587000   0.62659488   -7.7344721    318.31259  0.016714587  0.015764781            6 
 1588000   0.62396028   -7.7243214    319.26559  0.016754072  0.015752617            9 
 1589000   0.61836562   -7.7263386    319.09558  0.016734612  0.015740463           13 
 1590000   0.62195601   -7.7424249    318.93971  0.016715918  0.015728273           10 
 1591000   0.61426221   -7.7465269    318.96593  0.016706785  0.015716106            6 
 1592000   0.62167398   -7.7352814    318.37183  0.016665192  0.015703944            5 
 1593000   0.62406276   -7.7397734    319.05067  0.016690242  0.015691801            9 
 1594000   0.61552703    -7.750205    318.57939  0.016655133  0.015679662            7 
 1595000   0.60378036   -7.7494693    319.28559  0.016681588  0.015667513            9 
 1596000   0.62652293   -7.7457232     319.3025  0.016672018  0.015655425            9 
 1597000   0.61176129   -7.7183355    318.80341  0.016635536  0.015643336            6 
 1598000   0.61578077   -7.7301612    318.64672  0.016616954  0.015631285            9 
 1599000    0.6025186   -7.7422906    318.31639  0.016589347  0.015619207            9 
 1600000   0.60687622   -7.7488732    318.56854  0.016592111  0.015607128           28 
 1601000   0.60910419   -7.7481353    318.71925  0.016589593  0.015595042           21 
 1602000   0.61003359    -7.728805    318.18294  0.016551339  0.015582977           27 
 1603000   0.60729952   -7.7425987    319.38728  0.016603622  0.015570889           19 
 1604000   0.61515422   -7.7560366     318.9942  0.016572849  0.015558803           18 
 1605000    0.6076671   -7.7668023    318.57011  0.016540504  0.015546714           30 
 1606000    0.6098253   -7.7780027    318.58979  0.016531226  0.015534633           35 
 1607000   0.61767386   -7.7763156    318.46188  0.016514306  0.015522522           24 
 1608000   0.60041684   -7.7609711    319.03464  0.016533719  0.015510456           14 
 1609000   0.62092059   -7.7687042    318.83563  0.016513136  0.015498387            9 
 1610000   0.60215047   -7.7575985    318.17579  0.016468726  0.015486312           26 
 1611000   0.59964147   -7.7794285    319.02913  0.016502645  0.015474275           17 
 1612000   0.59205485   -7.7708331    318.36373  0.016458009   0.01546225           17 
 1613000   0.61206212   -7.7709238    318.93443   0.01647729  0.015450189           16 
 1614000   0.60656264    -7.758267    318.62084   0.01645089  0.015438139           34 
 1615000   0.59928909   -7.7684363    318.77224  0.016448516  0.015426128           16 
 1616000   0.60061447   -7.7599068    318.17608  0.016407595  0.015414104           25 
 1617000    0.6112728   -7.7647138    318.18071  0.016397687  0.015402074           19 
 1618000   0.59816552   -7.7749033    318.20542  0.016388825  0.015390099           18 
 1619000   0.61386881   -7.7596102    318.32054  0.016384627  0.015378123           23 
 1620000   0.60914655   -7.7767971    318.51862  0.016384702  0.015366127           21 
 1621000   0.60191999   -7.7713045     319.0573  0.016402288  0.015354165           18 
 1622000   0.62616401   -7.7608817    318.32512  0.016354558  0.015342211           15 
 1623000    0.6088022   -7.7568938    318.63047   0.01636016  0.015330299           11 
 1624000   0.61256485   -7.7785159    318.61744  0.016349417   0.01531836           25 
 1625000   0.60738023   -7.7572085    318.80153  0.016348796  0.015306439           14 
 1626000   0.60054816   -7.7799673    318.30925  0.016313512  0.015294493           10 
 1627000   0.60610659   -7.7659723     318.1886  0.016297306  0.015282555           18 
 1628000   0.60460265   -7.7746343    318.44842  0.016300595   0.01527063           19 
 1629000   0.58972464   -7.7943638    318.43531  0.016289918  0.015258697           19 
 1630000    0.6076825   -7.7769978    318.06181  0.016260829  0.015246772           12 
 1631000   0.59665774   -7.7866055    318.23193  0.016259551   0.01523487           25 
 1632000   0.60761141   -7.7697998    319.21204  0.016299634   0.01522297           18 
 1633000   0.59858589   -7.7701296    317.89445  0.016222415  0.015211108           18 
 1634000   0.60679979   -7.7881154    318.23247  0.016229726  0.015199212           16 
 1635000   0.61551664   -7.7752072    318.56868  0.016236936  0.015187339           21 
 1636000   0.59941388   -7.7930124    318.63012   0.01623014  0.015175476           26 
 1637000   0.58892812    -7.788473     318.3078  0.016203818  0.015163626           23 
 1638000   0.60564312   -7.8023609    317.86653  0.016171476  0.015151783           25 
 1639000   0.61029907   -7.7981639    317.75387  0.016155881  0.015139922           23 
 1640000   0.59905364   -7.7872306    319.06676  0.016212742  0.015128109           15 
 1641000   0.59522133   -7.7886172    318.42011  0.016170024  0.015116286           25 
 1642000   0.59315516    -7.795845    318.43918  0.016161144  0.015104482           14 
 1643000   0.59479054   -7.7955887    318.48046  0.016153401  0.015092695           16 
 1644000   0.60178269   -7.7992176    318.70046  0.016154727  0.015080896           17 
 1645000   0.59560613    -7.805949    318.29572  0.016124403  0.015069096           18 
 1646000   0.60401543   -7.7845369    318.63284  0.016131675  0.015057341           13 
 1647000    0.5963263   -7.7993092    318.17634  0.016098782  0.015045599           27 
 1648000   0.58068579   -7.7859814    317.96607  0.016078381  0.015033852           37 
 1649000    0.6045098   -7.7849359    318.73376  0.016107427  0.015022119           21 
 1650000   0.59246609   -7.7853805    317.95431  0.016058298  0.015010385           16 
 1651000   0.59232029   -7.7762802    317.85438  0.016043528  0.014998668           12 
 1652000   0.58701312   -7.8074385    318.25276  0.016053912  0.014986952           13 
 1653000   0.59332651   -7.7970233    318.78256  0.016070909  0.014975228            9 
 1654000   0.58872223   -7.7953415    318.24702  0.016034211   0.01496352           18 
 1655000   0.59967567   -7.7993621      318.264  0.016025378  0.014951803            8 
 1656000   0.60058303    -7.779089    318.51931  0.016028548   0.01494012           10 
 1657000   0.59542016    -7.816968    318.21729  0.016003686  0.014928436           17 
 1658000   0.58464465   -7.7962024    318.18097  0.015992208  0.014916772           12 
 1659000   0.58167796   -7.7969639    318.39058  0.015993097  0.014905096           23 
 1660000   0.59510703   -7.7900214    317.78804  0.015953215  0.014893428           11 
 1661000   0.60230751    -7.786796    317.78727  0.015943572  0.014881785           20 
 1662000   0.60689392   -7.7732912    317.88417  0.015938837  0.014870159           17 
 1663000   0.59286469   -7.7729125    318.17501  0.015943827  0.014858564           16 
 1664000   0.58041371   -7.7970064    318.76743  0.015963914  0.014846957           19 
 1665000   0.58376965   -7.7983694    318.32935    0.0159324  0.014835327           24 
 1666000   0.59624574   -7.8077959    317.77143  0.015894929  0.014823698           18 
 1667000   0.58294969   -7.8012713    318.33222  0.015913428  0.014812069            9 
 1668000   0.57236244   -7.8115688    317.96144  0.015885364  0.014800472           11 
 1669000   0.58624957   -7.8038798    317.74825  0.015865201  0.014788872            9 
 1670000   0.58946719   -7.8072885    317.85361  0.015860958  0.014777292           12 
 1671000   0.59515086   -7.8097302    318.60551  0.015888964  0.014765715            7 
 1672000   0.58807286      -7.8236    318.47717  0.015873065  0.014754144            8 
 1673000    0.5845783   -7.8167379    318.43949    0.0158617  0.014742582            6 
 1674000   0.57423357    -7.814635    318.21314  0.015840957   0.01473104           15 
 1675000   0.58151795   -7.7941575    318.41525  0.015841555  0.014719532           12 
 1676000   0.57713285   -7.7977424    318.40138  0.015831413  0.014708009           12 
 1677000   0.58728386   -7.8169119    317.91914  0.015798009  0.014696495           18 
 1678000   0.58247646   -7.8229826    317.63097  0.015774284  0.014684973           16 
 1679000   0.58200864   -7.8100249    317.71031  0.015768826  0.014673482            7 
 1680000   0.58908104   -7.8155945    318.44282  0.015795775  0.014661982           16 
 1681000   0.56504451   -7.8223451    317.81194  0.015755103  0.014650502           13 
 1682000   0.58539099   -7.8198482    318.17162  0.015763556  0.014639017           20 
 1683000   0.57151542   -7.8290369    318.08705  0.015750003  0.014627523            8 
 1684000   0.56710525   -7.8272191    317.86655  0.015729738  0.014616051           26 
 1685000   0.57031525   -7.8303554     318.2929  0.015741489  0.014604575           21 
 1686000   0.57980344   -7.8222257    317.54507   0.01569519  0.014593111           23 
 1687000   0.58008593   -7.8464643     318.0018  0.015708447  0.014581637            8 
 1688000   0.58345486   -7.8320297    317.87988  0.015693122   0.01457018           10 
 1689000   0.57227423   -7.8263391    317.50779  0.015665472  0.014558727           10 
 1690000   0.57924189   -7.8403192    317.95145  0.015678079  0.014547291            9 
 1691000    0.5910705   -7.8388339    318.13369  0.015677789  0.014535866           11 
 1692000   0.57738447    -7.842354    317.65579  0.015644986  0.014524444            7 
 1693000   0.57439552   -7.8253432    317.52629   0.01562937  0.014513036           12 
 1694000    0.5742421   -7.8320475    317.88414  0.015637748  0.014501636           12 
 1695000   0.57304293    -7.831348    318.14562  0.015641377  0.014490271            7 
 1696000   0.57231353   -7.8482819    317.91081  0.015620617  0.014478914            5 
 1697000   0.57878244   -7.8103359    317.60898  0.015596591  0.014467553           13 
 1698000   0.57329603   -7.8201607    317.37346  0.015575847   0.01445621            9 
 1699000   0.57513961   -7.8329477       318.12  0.015603296  0.014444857           15 
 1700000   0.57823233   -7.8566073    318.26673   0.01560131  0.014433518           12 
 1701000   0.56777004     -7.85886    318.50136  0.015603633  0.014422157            9 
 1702000   0.57811046   -7.8277196    317.74162  0.015557267  0.014410824           11 
 1703000   0.58659411   -7.8481538    317.56561  0.015539519  0.014399489            9 
 1704000   0.57419815   -7.8375802    317.66267  0.015535146  0.014388168           10 
 1705000   0.55685651   -7.8451468    317.78782  0.015532152  0.014376847            8 
 1706000   0.56908314   -7.8367779    318.10308  0.015538447  0.014365546           13 
 1707000   0.55677058    -7.837697    317.21484  0.015485981  0.014354261           11 
 1708000   0.58115906   -7.8412247    317.84026  0.015507429  0.014342965            9 
 1709000   0.57196317   -7.8572988    317.71071  0.015492038  0.014331673            7 
 1710000   0.58021936   -7.8455363    317.77024  0.015485879  0.014320398            8 
 1711000   0.56384666    -7.851342     317.7517  0.015475925  0.014309147           10 
 1712000   0.56391481   -7.8707204    318.06176  0.015481978  0.014297884           10 
 1713000   0.57262264   -7.8424559    317.38011   0.01543978  0.014286616            7 
 1714000   0.55191551   -7.8388327    318.04247  0.015462975  0.014275369            9 
 1715000   0.57777161   -7.8434357    317.74012  0.015439267  0.014264163           12 
 1716000   0.57214131   -7.8315469     318.3769  0.015461194  0.014252947           12 
 1717000   0.56505618   -7.8605486    317.79378  0.015423888  0.014241753           11 
 1718000   0.56113268   -7.8490233      317.995   0.01542467   0.01423055           10 
 1719000   0.55917778   -7.8310828    317.79819  0.015406156  0.014219358           14 
 1720000    0.5721585   -7.8439412    317.46522  0.015381067  0.014208165            9 
 1721000   0.56327981   -7.8521459    317.40329  0.015369131  0.014196986           13 
 1722000   0.56579284   -7.8451339    317.81729  0.015380241  0.014185831           13 
 1723000   0.57287234    -7.861383    317.29168  0.015345893  0.014174696           11 
 1724000   0.56818284   -7.8437789    317.63131  0.015353408  0.014163574           11 
 1725000     0.569219   -7.8391375    317.41942  0.015334271  0.014152483           11 
 1726000   0.55471553   -7.8447664     318.1234  0.015359376  0.014141394            6 
 1727000   0.55709373   -7.8422167    317.25774  0.015308712  0.014130318            9 
 1728000   0.54179208   -7.8526421    317.90405  0.015331021  0.014119214            7 
 1729000   0.56226881   -7.8735943    317.70766  0.015312688  0.014108119            9 
 1730000   0.56458512   -7.8658508    317.52122  0.015294857  0.014097027           10 
 1731000   0.56541914    -7.849279    318.09428  0.015313609  0.014085959            8 
 1732000   0.56665717    -7.857062    317.61448  0.015281682  0.014074904            7 
 1733000   0.55957254   -7.8739946    317.88345  0.015285798  0.014063861           17 
 1734000   0.54994193   -7.8560601    317.80067  0.015273004  0.014052827           10 
 1735000   0.56825659   -7.8657432    317.13434  0.015232197  0.014041793           10 
 1736000   0.56472699   -7.8563551    317.63486  0.015247449  0.014030772           19 
 1737000   0.56485678   -7.8624406    317.34211  0.015224626  0.014019756            7 
 1738000   0.56787088   -7.8481524    317.78821  0.015237256  0.014008768           12 
 1739000   0.56382936     -7.88539    317.15384  0.015198095  0.013997788           10 
 1740000    0.5507788   -7.8760419    317.44002  0.015203066  0.013986795            7 
 1741000   0.55162295   -7.8937576    317.59929  0.015201957  0.013975816           11 
 1742000   0.56247574   -7.8567335    317.18112  0.015173226  0.013964866           11 
 1743000   0.54968997   -7.8475391    317.96232   0.01520187  0.013953917            7 
 1744000    0.5497865   -7.8555459    317.97776  0.015193891  0.013942986           20 
 1745000   0.55579884   -7.8636938    317.48791  0.015161791  0.013932081           19 
 1746000   0.56376854   -7.8630365    317.46496  0.015152012  0.013921153           18 
 1747000   0.56566387   -7.8786932    318.00916  0.015169298   0.01391025           19 
 1748000   0.55432602   -7.8734638    317.57858  0.015140092  0.013899361           14 
 1749000   0.54788802   -7.8521921    317.46128  0.015125847  0.013888483           17 
 1750000   0.53848943   -7.8711747    318.09978  0.015147609   0.01387761           10 
 1751000   0.55524715   -7.8756406    317.41811  0.015106516  0.013866744           17 
 1752000   0.56019772   -7.8573862    318.38711  0.015143983  0.013855908           10 
 1753000   0.57246364   -7.8697394    317.72921   0.01510407  0.013845067           16 
 1754000   0.55189109   -7.8729512    317.73783  0.015095868  0.013834229           19 
 1755000   0.55519886   -7.8725444    317.24891  0.015064051  0.013823413           16 
 1756000    0.5477837   -7.8811849    317.22127  0.015054161  0.013812604            8 
 1757000   0.55542716   -7.8764759    318.10726  0.015087614  0.013801781           10 
 1758000    0.5451938   -7.8718152    317.76048  0.015062594  0.013790956           17 
 1759000   0.55584448   -7.8741291    317.38746  0.015036359  0.013780151            7 
 1760000   0.55205598   -7.8722721     318.0238  0.015057945  0.013769359           20 
 1761000   0.55020627   -7.8814196    317.76669  0.015037228  0.013758576            9 
 1762000   0.55459558   -7.8890266    317.89012  0.015034531  0.013747808           12 
 1763000   0.55016179   -7.8940272    317.55228  0.015010034  0.013737032           15 
 1764000   0.54453232   -7.8710393    317.49901  0.014999008  0.013726254           16 
 1765000   0.54657736   -7.8622756    317.48684  0.014989936  0.013715503           17 
 1766000   0.55039627   -7.8926633    317.40866  0.014977759  0.013704765            8 
 1767000   0.54468037   -7.8897712    317.13163  0.014956217  0.013694024           13 
 1768000   0.55142031   -7.8932126    317.31305  0.014956309  0.013683288           12 
 1769000    0.5358424   -7.8847762     317.0536  0.014935632  0.013672594           26 
 1770000   0.54200567   -7.8962678    317.39514  0.014943274  0.013661895           12 
 1771000    0.5462066   -7.8577401      317.377  0.014933983  0.013651204           13 
 1772000   0.54439543   -7.9016196    317.90325  0.014950303  0.013640535           15 
 1773000   0.54664393   -7.8893433    317.40197   0.01491831  0.013629879           20 
 1774000   0.55152311   -7.8802476    317.41902  0.014910702  0.013619213           19 
 1775000   0.54435968   -7.8844599    317.11995   0.01488826  0.013608554           23 
 1776000   0.54194278   -7.8962996    317.00776  0.014874613  0.013597909           17 
 1777000   0.54194701   -7.8951859    317.83065  0.014904832  0.013587264           18 
 1778000   0.55382598   -7.8924224    317.73845  0.014892129  0.013576645           11 
 1779000   0.54477599   -7.8955591    318.01421  0.014896675  0.013566019           13 
 1780000   0.54263603   -7.8954964    317.30221  0.014854972  0.013555405           17 
 1781000   0.53752793   -7.9211052    317.34152  0.014848471  0.013544806           16 
 1782000   0.53312062   -7.8857821    316.66004   0.01480827  0.013534215            8 
 1783000   0.53911182   -7.9121446    317.41815  0.014835397  0.013523618           16 
 1784000    0.5391357   -7.9249783    317.31547  0.014822285  0.013513019           11 
 1785000   0.54624896   -7.8900817    317.62058  0.014828225  0.013502437           15 
 1786000   0.52852075   -7.9374473    317.08724  0.014795037  0.013491872           25 
 1787000   0.54760572   -7.9305548    317.05298   0.01478516  0.013481314            9 
 1788000   0.53791705   -7.8979019    317.12267   0.01478014  0.013470766           13 
 1789000   0.55420842   -7.8932495    317.19285  0.014775147  0.013460233           18 
 1790000   0.53425243   -7.9165832    317.28924   0.01477138  0.013449713           20 
 1791000   0.53148937   -7.9206375    317.11419  0.014754988  0.013439185           13 
 1792000   0.53561157   -7.9233358    317.10331  0.014746248  0.013428656           40 
 1793000   0.52950627   -7.8996369    317.61116  0.014761627  0.013418143           21 
 1794000   0.54389591   -7.9058816    317.13447  0.014731256  0.013407652           13 
 1795000   0.54384071   -7.8972144    317.18722  0.014725498  0.013397157            5 
 1796000    0.5313076   -7.9090916    317.27769  0.014721496   0.01338667           11 
 1797000   0.52966322    -7.913829    317.26747   0.01471283  0.013376188           21 
 1798000   0.54408783   -7.9166657    317.11628   0.01469764  0.013365713           11 
 1799000   0.53893746   -7.9191708    317.20201  0.014693441  0.013355261           39 
 1800000   0.52809755   -7.9360206    317.14884  0.014682817  0.013344798           15 
 1801000   0.53723753   -7.9100721    316.72876  0.014655227   0.01333434            9 
 1802000   0.53551666   -7.9290653     317.6538  0.014689872  0.013323892            9 
 1803000    0.5406636   -7.9205298    316.82521  0.014643428  0.013313465            9 
 1804000   0.53493507   -7.9060309    317.40521  0.014662103  0.013303057            8 
 1805000   0.55377715   -7.9179881    317.05901  0.014637997  0.013292655           31 
 1806000   0.53458383   -7.9158597    316.58423  0.014607984   0.01328226           22 
 1807000    0.5386184   -7.9272466    316.99763  0.014618965  0.013271868           20 
 1808000   0.52534088   -7.9004378    316.96779  0.014609503  0.013261484           15 
 1809000    0.5340458   -7.9233391    316.72541  0.014590262  0.013251105           20 
 1810000   0.52736967   -7.9257931    316.76435  0.014583994  0.013240731           33 
 1811000   0.52645257   -7.9233616    316.47651  0.014562696  0.013230377           28 
 1812000   0.51604479   -7.9196284    316.87681  0.014573069  0.013220021           11 
 1813000   0.52526452    -7.932266    317.32239  0.014585512  0.013209689           13 
 1814000   0.52685314   -7.9280964    317.03003   0.01456404  0.013199352            8 
 1815000   0.52372294   -7.9064812     317.0776    0.0145582  0.013189016           33 
 1816000   0.52832553    -7.945326    316.60297  0.014528403  0.013178705           10 
 1817000   0.52027547   -7.9189355     316.8618  0.014532279  0.013168388           14 
 1818000   0.54818982   -7.9337161    317.06387  0.014533547  0.013158078           22 
 1819000   0.53397545   -7.9320265    316.66638  0.014507348  0.013147795           13 
 1820000   0.52685743   -7.9185386    316.56957  0.014494944   0.01313752           25 
 1821000   0.52337923   -7.9315129    317.35006  0.014522701  0.013127251            9 
 1822000   0.54070628   -7.9329784    317.38425  0.014516294  0.013116992           10 
 1823000   0.53639729   -7.9338925    316.90694  0.014486512  0.013106737           11 
 1824000   0.54604767    -7.928251    316.63593  0.014466188  0.013096493            7 
 1825000   0.52489496   -7.9261939    316.63922  0.014458412  0.013086253           10 
 1826000    0.5363293   -7.9321611    317.04174  0.014468864  0.013076031           12 
 1827000   0.52218427   -7.9471911    316.59417   0.01444053  0.013065814           11 
 1828000   0.53210034   -7.9243128    316.94867   0.01444879  0.013055603           13 
 1829000   0.52050491   -7.9308171    317.00428  0.014443425  0.013045404           13 
 1830000   0.52804299   -7.9486441    316.72975  0.014423031  0.013035206           25 
 1831000   0.50229893   -7.9444137    316.90173  0.014422981  0.013025012           15 
 1832000   0.52534172   -7.9259857    317.05719  0.014422179  0.013014846           21 
 1833000   0.50910115   -7.9308426    316.15884   0.01437347   0.01300468            9 
 1834000   0.52448999    -7.942354    317.17115   0.01441163  0.012994518            9 
 1835000   0.51883652   -7.9482215    316.80217   0.01438702  0.012984362            7 
 1836000   0.52096771   -7.9322465    316.36853  0.014359501  0.012974204            6 
 1837000   0.52018585   -7.9594326    316.53041  0.014359028  0.012964066            7 
 1838000   0.50822735   -7.9371594    316.66288  0.014357222  0.012953934            7 
 1839000   0.51470576   -7.9627562    316.41238  0.014338063  0.012943812           13 
 1840000   0.52812361   -7.9591653     316.6176  0.014339565  0.012933691           15 
 1841000   0.52209455   -7.9430084    316.60457  0.014331186  0.012923559            8 
 1842000   0.51033145   -7.9344619    316.84252  0.014334171  0.012913451            7 
 1843000   0.51858112   -7.9540974    316.68924  0.014319463  0.012903336           10 
 1844000   0.51036988   -7.9426072    316.34799  0.014296276   0.01289323           20 
 1845000   0.51733799   -7.9420129    316.49747  0.014295279   0.01288313           12 
 1846000   0.52410627   -7.9501851    316.23461  0.014275669  0.012873038            6 
 1847000   0.51903679   -7.9567854    316.55872  0.014282563  0.012862963           11 
 1848000   0.51294814   -7.9335553    316.23399  0.014260191  0.012852906            7 
 1849000   0.50651612   -7.9685688    316.49622  0.014264297  0.012842856           15 
 1850000   0.51763075   -7.9610726    316.60646  0.014261552  0.012832823           11 
 1851000   0.51740977   -7.9518989    316.66779  0.014256609  0.012822804           16 
 1852000   0.51485063   -7.9453129    316.48704  0.014240778  0.012812787            9 
 1853000    0.5180113   -7.9375342    316.28689  0.014224091  0.012802778           19 
 1854000   0.51661715    -7.933384    316.34234  0.014218911   0.01279278           13 
 1855000   0.50848996   -7.9541725    316.89625   0.01423613  0.012782785           12 
 1856000   0.50629251   -7.9506813    316.33957  0.014203465  0.012772799           16 
 1857000    0.4994797   -7.9636576    316.77116  0.014215184  0.012762814           31 
 1858000   0.50935967   -7.9635486    315.83048  0.014165343  0.012752831           16 
 1859000   0.51649594   -7.9509103    316.37552  0.014182155  0.012742874           23 
 1860000   0.51518583   -7.9413478    316.52806  0.014181365  0.012732924           19 
 1861000   0.51895403   -7.9588592    316.85641  0.014188447  0.012722979           19 
 1862000   0.51110258    -7.948843     316.2217  0.014152421  0.012713054           11 
 1863000   0.49966197   -7.9396624    316.67185   0.01416496  0.012703143           22 
 1864000   0.52302571   -7.9428386     316.3765  0.014144157  0.012693222           23 
 1865000   0.50339308   -7.9638028    316.10569  0.014124472  0.012683311           32 
 1866000   0.51161109   -7.9549352    316.29251  0.014125246  0.012673401           22 
 1867000   0.51204037   -7.9544193    316.58414  0.014130697  0.012663511           12 
 1868000    0.5197304   -7.9621897    316.42507  0.014116036  0.012653624           16 
 1869000   0.50061712   -7.9613089    316.50483   0.01411204  0.012643743           14 
 1870000   0.51722747   -7.9662747    316.75724  0.014115741   0.01263387           13 
 1871000   0.50634412   -7.9572717    316.36256  0.014090618  0.012624023           19 
 1872000   0.50533629   -7.9724687    316.20688  0.014076161   0.01261418           18 
 1873000   0.50245679   -7.9632687    315.96985    0.0140581  0.012604334           11 
 1874000    0.4950694   -7.9715611    316.48274  0.014073406  0.012594507           22 
 1875000   0.49958057   -7.9500788    316.11946  0.014049754  0.012584691            9 
 1876000   0.50514772   -7.9665394    316.53154  0.014060569   0.01257489           19 
 1877000   0.50369086   -7.9620815    316.60529  0.014056353  0.012565091           12 
 1878000   0.49913064   -7.9688174    316.22019   0.01403178  0.012555288           13 
 1879000   0.50249459   -7.9685426    316.77138  0.014048757  0.012545489           11 
 1880000   0.50020957   -7.9751945    316.57481  0.014032571  0.012535718           12 
 1881000   0.51084022   -7.9694235    316.41215  0.014017905  0.012525938           14 
 1882000   0.49995984   -7.9761042    316.22941  0.014002365  0.012516171            9 
 1883000   0.50322558   -7.9587811    316.20841  0.013993999  0.012506406           26 
 1884000   0.50335971   -7.9602172    316.08181  0.013980972  0.012496649            9 
 1885000   0.50980069   -7.9480778     316.0561  0.013972418  0.012486912           24 
 1886000   0.49697455   -7.9707746     316.4702  0.013983307  0.012477183           11 
 1887000   0.49107173   -7.9691772    316.31046  0.013968842  0.012467475           20 
 1888000   0.50891514   -7.9645501    316.44636  0.013967442  0.012457769           14 
 1889000   0.50713184   -7.9764466    316.29163  0.013953222  0.012448065           15 
 1890000   0.49736684   -7.9591143     315.7957  0.013923973  0.012438366           12 
 1891000   0.49656756   -7.9558741     316.1643  0.013932853  0.012428675           19 
 1892000   0.50411613   -7.9836822    316.62569  0.013945811  0.012418998           17 
 1893000   0.48895691   -7.9748685    315.78534   0.01390145  0.012409303           12 
 1894000   0.49588285   -7.9728753     315.8004  0.013894773  0.012399643           12 
 1895000   0.49210147   -7.9766181    315.83856  0.013889119  0.012389988           13 
 1896000   0.49341647   -7.9776649    315.63038  0.013872643  0.012380341            9 
 1897000   0.49737766    -7.991898    316.33369  0.013896226  0.012370697           13 
 1898000   0.49091607   -7.9809958    315.80097  0.013865515  0.012361057           21 
 1899000   0.48959452    -7.984225    315.81155  0.013858678  0.012351424           17 
 1900000   0.48647981   -7.9848111    316.52985  0.013882888  0.012341787           19 
 1901000   0.49839315    -7.970671    316.04311  0.013854248  0.012332172           19 
 1902000   0.50302855   -7.9831423    315.84232  0.013838167  0.012322564           13 
 1903000   0.50694701   -7.9845031    316.10577  0.013842432  0.012312966           11 
 1904000   0.48796213   -7.9910257    316.11329   0.01383549  0.012303379           22 
 1905000   0.49437714   -7.9743229    316.03544  0.013824823  0.012293808           27 
 1906000   0.49385737   -8.0069934    316.15116  0.013822629  0.012284232           30 
 1907000   0.49227972   -7.9906275    315.56272  0.013789666  0.012274671           32 
 1908000   0.49185527   -7.9741823    315.71632  0.013789147  0.012265121           14 
 1909000   0.49541953    -8.001422    316.60266  0.013820615  0.012255572            8 
 1910000   0.49043314   -7.9976926    316.16555  0.013794308  0.012246029           18 
 1911000   0.50035909    -7.975351    315.88929  0.013775043  0.012236507           16 
 1912000   0.48534715   -7.9873676     315.9356  0.013769857  0.012226988           14 
 1913000   0.49517985   -7.9862366    315.99525  0.013765257  0.012217462           11 
 1914000   0.48922881   -8.0023228    316.38246  0.013774924  0.012207959           19 
 1915000   0.48924538   -7.9964181    315.76341  0.013740792  0.012198466           14 
 1916000   0.48388612   -7.9893103    315.69248  0.013730536  0.012188964           12 
 1917000   0.48108642   -7.9886056    315.27855   0.01370538  0.012179476           27 
 1918000   0.48058803   -7.9962448     316.1346  0.013735427  0.012169994           33 
 1919000   0.48415007   -7.9847229     315.6635  0.013707812  0.012160527           10 
 1920000   0.48389247   -7.9890035    315.74089  0.013704032  0.012151073           15 
 1921000   0.48292132   -8.0016474    315.67332  0.013693967   0.01214162           14 
 1922000   0.48617124   -7.9928647    316.47026  0.013721395  0.012132176           14 
 1923000   0.48040632   -7.9945075    315.43448  0.013669374  0.012122738           18 
 1924000   0.49128417   -7.9940291    315.78664  0.013677522  0.012113308           56 
 1925000   0.47976639   -8.0117272    315.58005  0.013661474  0.012103898           13 
 1926000   0.48363689   -8.0130843     315.7545  0.013661929  0.012094488           28 
 1927000   0.48618515     -7.98848    315.49321   0.01364354  0.012085087           16 
 1928000   0.48417944   -8.0054653     315.8117  0.013650229  0.012075706           24 
 1929000   0.47670412   -7.9938793    315.77508  0.013641571   0.01206632           35 
 1930000    0.4748053   -8.0059164    316.06704  0.013647109  0.012056941            7 
 1931000   0.47839726   -7.9955898    316.02753  0.013638336  0.012047573           23 
 1932000   0.47767945   -7.9925309    315.54288  0.013610373  0.012038223           19 
 1933000   0.48100402   -8.0009994    315.53307  0.013602909  0.012028877           23 
 1934000   0.48686927   -8.0102656    315.40907  0.013590532  0.012019531           11 
 1935000   0.47504369   -7.9970956    315.53287   0.01358884  0.012010202           16 
 1936000   0.47832884    -8.011548    315.83551  0.013594848  0.012000876           14 
 1937000   0.48605763   -7.9933807    315.81931  0.013587132  0.011991563            9 
 1938000   0.46298916   -8.0076378    315.44395  0.013563981  0.011982252           22 
 1939000   0.48030848   -8.0235927     316.0954  0.013584984  0.011972953           13 
 1940000   0.47889567   -8.0040906    315.95387  0.013571902  0.011963666           17 
 1941000   0.46938196   -8.0120851    315.60263  0.013549829  0.011954381           15 
 1942000    0.4735677   -8.0020074    315.33445  0.013531344  0.011945105           12 
 1943000   0.48181362   -8.0047981    315.56524  0.013534279   0.01193583           13 
 1944000   0.47221567   -8.0164597    315.35319  0.013518227  0.011926554           26 
 1945000   0.47450869   -7.9955804    315.48994  0.013517135  0.011917296           21 
 1946000   0.46764845   -8.0009528    315.83211  0.013524842  0.011908044           12 
 1947000   0.47266189   -8.0155765    315.23061  0.013492151  0.011898807           22 
 1948000   0.47105695   -8.0149439    315.62363  0.013502038  0.011889574           23 
 1949000   0.46517478   -8.0026254    315.27589  0.013480242  0.011880344           14 
 1950000   0.47422861   -8.0133205    315.03595  0.013463075  0.011871123           21 
 1951000   0.46950853   -8.0160755    315.46793  0.013474625  0.011861919           14 
 1952000   0.48028579    -8.005011    315.51014  0.013469524  0.011852727           28 
 1953000   0.47237159   -8.0101772    315.69175  0.013470377  0.011843541           27 
 1954000   0.47407129   -7.9893231    314.93695  0.013431293  0.011834364           11 
 1955000   0.47722101   -8.0124373    315.59361  0.013452413  0.011825194           27 
 1956000   0.47372803   -8.0196114    315.53531  0.013443052  0.011816029           18 
 1957000   0.47299648   -8.0039727     315.7727  0.013446291  0.011806877           13 
 1958000   0.46297695   -8.0106503    315.86008  0.013443143  0.011797748           18 
 1959000   0.47340987   -8.0211056    315.25466  0.013410527  0.011788618           28 
 1960000   0.46571778   -8.0154817    315.06514  0.013395627  0.011779495           36 
 1961000   0.47154151   -8.0144366    315.71857  0.013416563  0.011770367           25 
 1962000   0.46369448   -8.0169263    315.51506  0.013401081  0.011761252           30 
 1963000   0.46716351   -8.0285904    315.61057  0.013398309  0.011752145           31 
 1964000   0.47006204   -8.0335237    315.89935   0.01340374  0.011743052           26 
 1965000   0.46945932   -8.0199504    315.31371  0.013372083  0.011733966           13 
 1966000   0.47012634   -8.0132482    315.56477  0.013375923  0.011724881           14 
 1967000   0.47681784   -8.0368824    314.99584  0.013345019  0.011715808           27 
 1968000   0.46656208    -8.004058    315.12858  0.013343859  0.011706749           17 
 1969000   0.47378013   -8.0200212    315.69682  0.013361132  0.011697695           37 
 1970000   0.46693374   -8.0130452    315.50306  0.013346153  0.011688666           16 
 1971000   0.46823026   -8.0047082    314.73267   0.01330681  0.011679632           41 
 1972000   0.46320969    -8.026829    315.61279  0.013337255  0.011670612           18 
 1973000   0.46233237   -8.0275732    315.27412   0.01331619  0.011661594           23 
 1974000    0.4690392   -8.0129539    315.32006  0.013311384  0.011652592           11 
 1975000   0.47107741   -8.0139632    315.37298  0.013306877  0.011643595           38 
 1976000   0.47487117   -8.0190291    315.64118  0.013311453  0.011634611           12 
 1977000   0.45404228   -8.0118096     314.8783  0.013272564  0.011625635           19 
 1978000   0.45634164   -8.0470224    315.12844  0.013276392  0.011616669           32 
 1979000   0.46542716   -8.0278855      315.725  0.013294804  0.011607703           15 
 1980000   0.45639103    -8.017618    315.22844   0.01326719  0.011598744           11 
 1981000   0.47879075   -8.0258869    315.45336  0.013269955  0.011589799           17 
 1982000   0.45859431    -8.021627     314.9714  0.013242995   0.01158086           26 
 1983000    0.4729229    -8.027431    315.12987  0.013242977  0.011571918           19 
 1984000   0.46218529   -8.0344463    315.30818  0.013243791  0.011562981           13 
 1985000   0.47068227   -8.0237932    314.90198  0.013220066   0.01155406           16 
 1986000   0.46350249   -8.0492144    315.60975  0.013243108  0.011545152           19 
 1987000   0.45942446   -8.0335687    315.29776  0.013223358  0.011536246           34 
 1988000   0.46193102   -8.0354057    315.23846  0.013214221   0.01152736           13 
 1989000   0.44361848    -8.022707    315.53744  0.013220104   0.01151847           15 
 1990000   0.45460882   -8.0469032    315.62393  0.013217082  0.011509592           16 
 1991000   0.44824803   -8.0370687    315.33531  0.013198364  0.011500726           20 
 1992000      0.46974   -8.0315885    315.36468  0.013192967  0.011491869           24 
 1993000   0.45406269   -8.0324389      315.031  0.013172395  0.011483028           18 
 1994000   0.44760401   -8.0511365    315.48382  0.013184713  0.011474195           17 
 1995000    0.4530773   -8.0159178    314.98638  0.013157326  0.011465362           22 
 1996000   0.45315231   -8.0342001    315.56038  0.013174699  0.011456544           34 
 1997000   0.45122821   -8.0373355    315.36593  0.013159987  0.011447728           33 
 1998000   0.45208365    -8.041555    315.28464   0.01315001  0.011438926           16 
 1999000   0.45896239   -8.0580763    314.95488  0.013129685  0.011430134           25 
 2000000   0.45391916   -8.0403594    314.67865  0.013111611  0.011421341           28 
 2001000   0.45907732   -8.0453745     315.2155  0.013127416  0.011412544           14 
 2002000   0.44267852   -8.0366502     314.9855  0.013111285  0.011403766           67 
 2003000   0.45318182   -8.0460044    315.19156  0.013113312  0.011394988           30 
 2004000   0.45058816   -8.0550073    314.93012  0.013095896   0.01138622           18 
 2005000   0.45367507   -8.0315213    315.17773  0.013099656  0.011377461           13 
 2006000   0.44415292   -8.0408349    315.26607  0.013096796  0.011368707           11 
 2007000   0.45475165    -8.044145    315.01734  0.013079942  0.011359962           17 
 2008000    0.4516109   -8.0414747    314.94748   0.01307053  0.011351221           43 
 2009000   0.45959753   -8.0395826    315.22224  0.013075421   0.01134249           18 
 2010000   0.45315243   -8.0312464    314.80844   0.01305176  0.011333764           22 
 2011000   0.44724997   -8.0450762    315.20925  0.013061878  0.011325051           11 
 2012000   0.43879432   -8.0337538    314.47595  0.013025014  0.011316351           20 
Loop time of 4502.98 on 48 procs for 2000000 steps with 4000 atoms

Performance: 76749.101 tau/day, 444.150 timesteps/s
99.4% CPU use with 48 MPI tasks x no OpenMP threads

MPI task timing breakdown:
Section |  min time  |  avg time  |  max time  |%varavg| %total
---------------------------------------------------------------
Pair    | 283.05     | 303.29     | 317.96     |  43.3 |  6.74
Neigh   | 28.692     | 29.497     | 31.637     |   9.5 |  0.66
Comm    | 266.51     | 283.89     | 306.53     |  53.3 |  6.30
Output  | 4.16       | 4.162      | 4.1957     |   0.2 |  0.09
Modify  | 3816.2     | 3834.4     | 3848       |  11.8 | 85.15
Other   |            | 47.71      |            |       |  1.06

Nlocal:        83.3333 ave          93 max          75 min
Histogram: 2 1 8 9 7 8 7 4 0 2
Nghost:        1887.29 ave        1923 max        1864 min
Histogram: 5 6 5 12 5 5 6 1 2 1
Neighs:        11819.1 ave       13581 max       10198 min
Histogram: 3 1 7 7 5 9 9 6 0 1
FullNghs:      23637.9 ave       27123 max       21191 min
Histogram: 2 4 7 11 8 8 5 2 0 1

Total # of neighbors = 1134621
Ave neighs/atom = 283.65525
Neighbor list builds = 107609
Dangerous builds = 0

#clear
#
#next RN
#
#jump SELF
Total wall time: 1:15:06
