
units lj                  # Use reduced LJ style units
atom_style atomic         # Uncharged point particles
atom_modify map hash      # Needed for indexing of clusters etc
                          # Used to be able to find where atoms are in relation to each other.

lattice fcc 1.0 spacing 1 1 1
Lattice spacing in x,y,z = 1.5874011 1.5874011 1.5874011
region box block 0 10 0 10 0 10 units lattice
create_box 2 box
Created orthogonal box = (0.0000000 0.0000000 0.0000000) to (15.874011 15.874011 15.874011)
  3 by 4 by 4 MPI processor grid
create_atoms 1 box
Created 4000 atoms
  using lattice units in orthogonal box = (0.0000000 0.0000000 0.0000000) to (15.874011 15.874011 15.874011)
  create_atoms CPU = 0.027 seconds
set type 1 type/fraction 2 0.33 78393
Setting atom values ...
  1342 settings made for type/fraction
mass 1 1.0
mass 2 1.0
pair_style lj/cut  3.5
pair_modify tail  yes
pair_coeff 1  1  1.0  1.0   # Intearaction between 1 and 1 set with epsilon = 1 and sigma = 1
pair_coeff 1  2  1.5  0.8
pair_coeff 2  2  0.5  0.88

write_data data.0
System init for write_data ...
Neighbor list info ...
  update every 1 steps, delay 10 steps, check yes
  max neighbors/atom: 2000, page size: 100000
  master list distance cutoff = 3.8
  ghost atom cutoff = 3.8
  binsize = 1.9, bins = 9 9 9
  1 neighbor lists, perpetual/occasional/extra = 1 0 0
  (1) pair lj/cut, perpetual
      attributes: half, newton on
      pair build: half/bin/atomonly/newton
      stencil: half/bin/3d
      bin: standard
WARNING: Not all mixed pair coeffs generated from mixing. Use write_data with 'pair ij' option to store all pair coeffs. (../write_data.cpp:312)


#############################
#   M E L T   S Y S T E M   #
#############################

velocity all create 2.4 1741580 mom yes dist gaussian # Assign velocities
                                                    # Temperature 2.4, random number seed, zero linear momentum
                                                                                # Gaussian distribution

timestep 0.002   # simulation timestep
thermo 1000       # output thermodynamic data every 1000 steps bf 100

# Define a fix  in this case with index 1 applied to all
# particles in the simulation. This fix is for simulations
# in the anisotropic NPT ensemble. Note that we use the MTK
# correction.
fix 1 all npt temp 2.4 2.4 0.1 iso 5.68 5.68 0.5 mtk yes tchain 5 pchain 5 # Use NPT ensemble
                                                                         # Set temperature and pressure and damping
                                                                         # Numbers of thermostats in chain and in barostat
run 10000          # run for 10000 steps
Per MPI rank memory allocation (min/avg/max) = 3.642 | 3.644 | 3.648 Mbytes
Step Temp E_pair E_mol TotEng Press Volume 
       0          2.4   -6.2616635            0   -2.6625635   -4.0519521         4000 
    1000    2.3416596   -5.0848595            0   -1.5732483    5.8867395    4010.5138 
    2000    2.4154625   -5.0186716            0   -1.3963836    5.6166744    4076.7064 
    3000    2.3844066   -4.9568116            0    -1.381096    5.7726757    4088.9074 
    4000    2.4306278   -5.0030513            0   -1.3580211    5.6309749    4082.6036 
    5000    2.3996416   -5.0454808            0   -1.4469184    5.6177026    4058.7729 
    6000    2.3814009   -4.9782874            0   -1.4070791    5.6941434    4087.4025 
    7000    2.4299909   -5.0923788            0   -1.4483036     5.376625    4057.0005 
    8000    2.4339226   -4.9678253            0   -1.3178542    6.1286381    4057.5032 
    9000    2.4199231   -5.0197615            0   -1.3907842    5.3679276    4097.2914 
   10000    2.3417111   -5.0016349            0   -1.4899465    5.6113862    4070.7751 
Loop time of 2.56197 on 48 procs for 10000 steps with 4000 atoms

Performance: 674479.707 tau/day, 3903.239 timesteps/s
99.5% CPU use with 48 MPI tasks x no OpenMP threads

MPI task timing breakdown:
Section |  min time  |  avg time  |  max time  |%varavg| %total
---------------------------------------------------------------
Pair    | 1.0654     | 1.1396     | 1.3054     |   3.9 | 44.48
Neigh   | 0.20687    | 0.21605    | 0.2402     |   1.1 |  8.43
Comm    | 0.71155    | 0.87051    | 0.95655    |   4.4 | 33.98
Output  | 0.0002496  | 0.0002559  | 0.00032267 |   0.0 |  0.01
Modify  | 0.27243    | 0.32056    | 0.37545    |   5.2 | 12.51
Other   |            | 0.01498    |            |       |  0.58

Nlocal:        83.3333 ave          91 max          75 min
Histogram: 1 3 2 8 5 11 11 2 3 2
Nghost:        1625.98 ave        1648 max        1591 min
Histogram: 1 1 2 1 8 12 6 5 8 4
Neighs:        9359.35 ave       10415 max        8335 min
Histogram: 3 2 6 7 9 4 6 7 2 2

Total # of neighbors = 449249
Ave neighs/atom = 112.31225
Neighbor list builds = 912
Dangerous builds = 239

# Equilibrate just above the melting temperature to avoid step fn in T

fix 1 all npt temp 1.25 1.25 0.1 iso 5.68 5.68 0.5 mtk yes tchain 5 pchain 5
run 2000
Per MPI rank memory allocation (min/avg/max) = 3.643 | 3.645 | 3.649 Mbytes
Step Temp E_pair E_mol TotEng Press Volume 
   10000    2.3417111   -5.0016349            0   -1.4899465    5.6113862    4070.7751 
   11000    1.2309114   -6.9210377            0   -5.0751321    5.6283889    3264.6447 
   12000    1.2222214   -6.9897195            0   -5.1568457    5.9014206    3231.0711 
Loop time of 0.590002 on 48 procs for 2000 steps with 4000 atoms

Performance: 585760.560 tau/day, 3389.818 timesteps/s
99.6% CPU use with 48 MPI tasks x no OpenMP threads

MPI task timing breakdown:
Section |  min time  |  avg time  |  max time  |%varavg| %total
---------------------------------------------------------------
Pair    | 0.24633    | 0.28216    | 0.32013    |   2.2 | 47.82
Neigh   | 0.036797   | 0.040683   | 0.044677   |   0.7 |  6.90
Comm    | 0.17614    | 0.21716    | 0.25736    |   2.8 | 36.81
Output  | 5.2867e-05 | 5.4204e-05 | 7.6771e-05 |   0.0 |  0.01
Modify  | 0.041117   | 0.04509    | 0.049672   |   1.0 |  7.64
Other   |            | 0.004847   |            |       |  0.82

Nlocal:        83.3333 ave          92 max          74 min
Histogram: 1 4 5 3 6 12 6 7 1 3
Nghost:        1891.46 ave        1915 max        1861 min
Histogram: 1 0 3 6 7 12 8 4 4 3
Neighs:        11846.1 ave       13946 max        9851 min
Histogram: 1 1 6 9 8 12 6 4 0 1

Total # of neighbors = 568614
Ave neighs/atom = 142.15350
Neighbor list builds = 142
Dangerous builds = 5

#############################
# L I N E A R  Q U E N C H  #
#############################

# Define solid atoms. This closely follows ten Wolde  Ruiz-Montero and Frenkel  Faraday Discuss  1996  104  93-110
# Compute components of the per-atom q6 vector
compute q6 all orientorder/atom degrees 1 6 components 6 nnn NULL cutoff 1.3 # compute the Q6 parameter.
                                                                             # Use all neighbours within 1.3 unit cell.

# get number of connections
compute coord_number all coord/atom orientorder q6 0.5

# An atom is solid if it has 8 or more connections (of a possible 14)
variable is_solid atom c_coord_number>=8
group solid dynamic all var is_solid    # Must be dynamic to update
dynamic group solid defined

# do clustering
compute cluster solid cluster/atom 1.3 # Create a cluster where all atoms within are solid and max 1.3 units from another member

# define chunks one chunk per cluster
compute clus_chunks solid chunk/atom c_cluster nchunk every compress yes  # Says which atoms are in which chunk

# count the size of each chunk
compute size_chunks solid property/chunk clus_chunks count


# Find the maximum entry in the vector of chunk sizes
variable max_n equal max(c_size_chunks)


# Thermo style which includes this variable
# thermo_style custom step temp pe vol v_max_n

thermo ${N}  # Print the thermo information every 100 steps
thermo 1000  

# Reset the npt fix at a lower temperature (below freezing)
fix 1  all npt temp  ${temp} ${temp}  0.1  iso  5.68  5.68  0.5  mtk yes tchain  5  pchain  5
fix 1  all npt temp  0.45 ${temp}  0.1  iso  5.68  5.68  0.5  mtk yes tchain  5  pchain  5
fix 1  all npt temp  0.45 0.45  0.1  iso  5.68  5.68  0.5  mtk yes tchain  5  pchain  5

dump dmp2 all dcd ${N} traj.dcd
dump dmp2 all dcd 1000 traj.dcd


compute msd all msd com yes
variable twopoint equal c_msd[4]/6/(step*dt+1.0e-6)
fix 9 all vector 10 c_msd[4]
variable fit equal slope(f_9)/6/(10*dt)
thermo_style custom step temp pe c_msd[4] v_twopoint v_fit v_max_n

fix 1 all npt temp 1.25 ${temp} 0.1 iso 5.68 5.68 0.5 mtk yes tchain 5 pchain 5
fix 1 all npt temp 1.25 0.45 0.1 iso 5.68 5.68 0.5 mtk yes tchain 5 pchain 5
run 2000000 # 5000000  # Run for this many steps
Neighbor list info ...
  update every 1 steps, delay 10 steps, check yes
  max neighbors/atom: 2000, page size: 100000
  master list distance cutoff = 3.8
  ghost atom cutoff = 3.8
  binsize = 1.9, bins = 8 8 8
  4 neighbor lists, perpetual/occasional/extra = 1 3 0
  (1) pair lj/cut, perpetual
      attributes: half, newton on
      pair build: half/bin/atomonly/newton
      stencil: half/bin/3d
      bin: standard
  (2) compute orientorder/atom, occasional
      attributes: full, newton on
      pair build: full/bin/atomonly
      stencil: full/bin/3d
      bin: standard
  (3) compute coord/atom, occasional
      attributes: full, newton on
      pair build: full/bin/atomonly
      stencil: full/bin/3d
      bin: standard
  (4) compute cluster/atom, occasional
      attributes: full, newton on
      pair build: full/bin/atomonly
      stencil: full/bin/3d
      bin: standard
Per MPI rank memory allocation (min/avg/max) = 9.814 | 9.820 | 9.825 Mbytes
Step Temp PotEng c_msd[4] v_twopoint v_fit v_max_n 
   12000    1.2222214   -6.9897195 1.8443568e-30 1.2808033e-32 8.3333333e+20            3 
   13000    1.2694571   -6.9911468   0.50081945  0.003210381  0.041085282            2 
   14000     1.251676   -6.9340422   0.97923422 0.0058287749  0.040501063            1 
   15000    1.2269327    -6.950715     1.437953 0.0079886277  0.039780994            1 
   16000    1.2469509   -6.9595577    1.9398351  0.010103308  0.039741798            3 
   17000    1.2319074   -6.9208752     2.439889   0.01196024  0.040193138            1 
   18000    1.2719246   -6.9818715    2.8686089  0.013280596  0.039994914            1 
   19000    1.2286139   -6.9860799    3.3393011  0.014646057  0.039685605            1 
   20000    1.2606402   -6.9741947     3.735362  0.015564008  0.039181207            1 
   21000    1.2709112   -6.9930649    4.1017189  0.016276662  0.038473092            2 
   22000    1.2789349   -6.9943427     4.521286  0.017126083  0.037741529            1 
   23000    1.2628669   -6.9670333    5.0490428  0.018293633   0.03748829            1 
   24000    1.2618385    -6.946008    5.5872217  0.019400075  0.037628926            1 
   25000    1.2558834   -6.9735858    6.0119059  0.020039686  0.037786991            2 
   26000    1.2237979   -6.9596891    6.4196589  0.020575829  0.037719073            1 
   27000    1.2361958   -6.9472554     6.892615  0.021273503  0.037723169            1 
   28000    1.2522642   -6.9581499     7.370569  0.021936217  0.037749463            1 
   29000    1.2535153   -6.9419668    7.8360381   0.02251735  0.037816074            1 
   30000    1.2440408   -6.9474184    8.2757453  0.022988181  0.037857318            1 
   31000    1.2286551   -6.9430271    8.7294925  0.023466377  0.037868762            1 
   32000    1.2619021   -6.9675534     9.244301    0.0240737   0.03791286            1 
   33000    1.2159198   -6.9771097    9.6700598  0.024419343  0.037965258            1 
   34000    1.2626359   -6.9713289    10.135593   0.02484214  0.037995369            2 
   35000    1.2216568   -6.9697567    10.624374  0.025296129  0.038034654            1 
   36000    1.2544804   -7.0332512    11.018533  0.025505864  0.038067427            2 
   37000     1.235583   -6.9328609    11.482823  0.025862215   0.03806704            1 
   38000    1.2497039   -6.9866062    11.855289  0.025998439  0.037992947            3 
   39000    1.2548808   -6.9960078    12.263266   0.02620356  0.037911184            2 
   40000     1.239685   -7.0092436    12.567613  0.026182528   0.03779316            2 
   41000    1.2627434   -6.9931239     13.09048  0.026606666  0.037684759            1 
   42000    1.2667846   -6.9900753    13.584496  0.026953365  0.037618744            1 
   43000    1.2319383   -7.0042563    13.886888  0.026912574  0.037549612            2 
   44000    1.2352717   -7.0019688      14.4523  0.027371779  0.037486895            1 
   45000    1.2467274   -6.9658626     14.79757  0.027402907  0.037426738       -1e+20 
   46000    1.2024689   -7.0171524    15.201592  0.027539116  0.037336617            2 
   47000    1.2500224   -6.9639214     15.76974  0.027960532  0.037295691            1 
   48000    1.2627833   -7.0094955    16.069617  0.027898641  0.037248643            1 
   49000    1.2594312   -7.0072791    16.544173  0.028136349  0.037208934            2 
   50000    1.2540467   -6.9973093    16.952391  0.028253985  0.037151915            2 
   51000    1.2412587   -6.9731931    17.377979   0.02839539  0.037080225            2 
   52000    1.2534365   -7.0266956    17.773888  0.028483794  0.037009268            1 
   53000    1.2465389   -7.0319152     18.27223  0.028729921  0.036973484            2 
   54000    1.2444168   -6.9705756     18.77005  0.028966126  0.036948849            3 
   55000    1.2288914   -7.0276376    19.146464  0.029009794  0.036939292            4 
   56000    1.2077699    -7.001657     19.65741  0.029252097  0.036918884            1 
   57000    1.2371308   -7.0005556    20.213322   0.02955164  0.036914583            2 
   58000    1.2357188    -6.992136    20.691258  0.029728819  0.036938359            1 
   59000     1.201733   -6.9422865      21.2117  0.029960028   0.03694814            1 
   60000    1.2276288   -7.0044643     21.79263  0.030267541  0.036992892            1 
   61000    1.2319145    -7.009541     22.25604  0.030404425   0.03705187            1 
   62000     1.206404   -7.0368628    22.472704  0.030205247  0.037088558            2 
   63000    1.2341497   -7.0221773    22.926514  0.030326077  0.037095781            1 
   64000    1.2155812   -7.0144968    23.212551  0.030224676  0.037072527            1 
   65000    1.2508546   -7.0130695    23.792675  0.030503429  0.037055614            2 
   66000    1.2238383   -7.0301357    24.297252  0.030678348  0.037062099            1 
   67000    1.2401946   -6.9648411    24.851698  0.030910072  0.037084754            1 
   68000    1.2440946   -7.0563532    25.113485  0.030776329  0.037116213            1 
   69000    1.2318232   -7.0119291    25.824116  0.031188546  0.037139206            2 
   70000    1.2181351   -6.9754995    26.247901  0.031247501  0.037170548            1 
   71000    1.2213969   -6.9998328    26.641572   0.03126945  0.037208211            1 
   72000    1.2156057   -7.0205278    27.151078  0.031424859  0.037237017            2 
   73000    1.2531705   -7.0390438    27.574609  0.031477864  0.037263728            1 
   74000    1.2408364   -7.0829076    28.024137  0.031558713  0.037285938            3 
   75000    1.2303352    -7.072733     28.37295    0.0315255  0.037308261            1 
   76000    1.1948831   -7.0484232    28.827355  0.031608942  0.037325139            1 
   77000    1.2301583   -7.0341906    29.256733   0.03166313  0.037330195            1 
   78000    1.2263144   -6.9984597    29.662596  0.031690808  0.037332892            1 
   79000     1.213411   -7.0717286    30.029534  0.031676723  0.037341254            1 
   80000    1.1985682   -7.0116101    30.489624  0.031760025  0.037334025            1 
   81000    1.2006573   -7.0273706    30.878656  0.031768164  0.037320988            1 
   82000    1.2462428   -7.0745812    31.027633  0.031532147  0.037301163            3 
   83000    1.2074637   -7.0138057    31.654955  0.031782083  0.037267856            1 
   84000    1.2205847   -7.0143518    32.060751    0.0318063  0.037246182            2 
   85000    1.2027714   -7.0326433      32.4287  0.031792843  0.037220857            1 
   86000    1.2042609   -7.0231473    32.762519  0.031746626  0.037182239            2 
   87000      1.24209   -7.0588174    33.137943  0.031741325  0.037142736            2 
   88000    1.2022438   -6.9964307    33.520048  0.031742469  0.037105117            2 
   89000    1.2090125   -6.9965786     34.01237  0.031846788  0.037066306            2 
   90000     1.222444   -7.0308656    34.327052  0.031784307  0.037026627            3 
   91000    1.2208127   -6.9828574    34.627472  0.031710139  0.036978697            4 
   92000    1.2195173   -7.0243427    35.031255  0.031731209  0.036925327            1 
   93000    1.2204751   -7.0010534    35.561044  0.031864734  0.036876155            2 
   94000    1.1942245   -7.0290563    35.882133  0.031810402  0.036828266            1 
   95000    1.2017391   -7.0512837    36.227835  0.031778803  0.036779655            1 
   96000    1.2327452   -7.0452933    36.562785  0.031738529  0.036728296            4 
   97000    1.2407182   -7.0196495    37.064654  0.031842486  0.036680525            1 
   98000    1.1962318   -7.0613219    37.472657  0.031864504  0.036634344            1 
   99000    1.2295831   -7.0628263    37.641849  0.031685058  0.036576075            1 
  100000    1.1954125   -7.0501564    37.999277  0.031666064  0.036513719            1 
  101000    1.2135829   -7.0081918    38.326159  0.031622243  0.036449976            1 
  102000    1.2224612   -6.9977793     38.85203  0.031741854  0.036391476            1 
  103000     1.224539   -7.0615366    39.299106  0.031795393  0.036337448            3 
  104000     1.184085   -7.0231784    39.654571  0.031774496  0.036285549            1 
  105000    1.2167098    -7.077678    39.988389  0.031736817  0.036233605            1 
  106000     1.244504   -7.0132369    40.609768  0.031925918  0.036185731            1 
  107000    1.2117604   -6.9930767    40.833846  0.031802061  0.036139726            2 
  108000     1.192454   -7.0472812    41.244603  0.031824539  0.036089216            3 
  109000    1.2199999   -7.0210581    41.288806  0.031566365  0.036035901            1 
  110000    1.1961013   -7.0013258    42.139357  0.031923755  0.035979833            1 
  111000    1.2293681   -7.0503556    42.369759  0.031809129  0.035929907            2 
  112000    1.1950919   -7.0371506    42.676615  0.031753434  0.035882187            1 
  113000    1.2212664   -6.9984544      43.3919  0.031999926  0.035839724            4 
  114000    1.2242404   -7.0238438    43.689776   0.03193697  0.035800956            2 
  115000    1.1988017   -7.0821003    44.041656  0.031914243  0.035760694            1 
  116000     1.197392   -7.0635649    44.501667  0.031969588  0.035725142            2 
  117000    1.2197249   -7.0485866    44.596571   0.03176394  0.035685505            1 
  118000    1.2059008   -7.0240488    44.950606  0.031744778  0.035636715            1 
  119000    1.1731122   -7.0716497    45.233729   0.03167628  0.035586692            1 
  120000    1.1900948    -7.056651    45.699956  0.031736081  0.035537456            2 
  121000     1.205119    -7.047349     46.09872   0.03174843  0.035491187            2 
  122000    1.2248426   -7.0668664    46.615048   0.03184088  0.035448181            1 
  123000    1.1901432   -7.0250146     47.03641  0.031867486  0.035408474            1 
  124000    1.2136851   -7.0763064    47.390558  0.031848493  0.035371254            1 
  125000    1.1901445   -7.1347325    47.828917  0.031885945  0.035334269            2 
  126000    1.1861356   -7.0424965    48.051647   0.03178019  0.035296158            2 
  127000    1.2235296   -7.0670758     48.83736  0.032045512  0.035259568            3 
  128000    1.2363783   -7.0236301    49.351847  0.032130108  0.035227975            1 
  129000    1.2384877   -7.0098317    49.516683  0.031987521  0.035201554            1 
  130000    1.1972577   -7.0809822    50.080925  0.032103157  0.035173021            3 
  131000    1.2009488   -7.0848865    50.438607  0.032085628  0.035142701            1 
  132000    1.1835147   -7.0790378    50.714846  0.032016948  0.035116206            2 
  133000    1.2024945   -7.0607621    51.338635  0.032167065  0.035092746            2 
  134000    1.2022535   -7.0628313    51.862199  0.032252612  0.035074362            1 
  135000    1.2227591    -7.059689    52.052503  0.032131175  0.035053891            1 
  136000    1.1970565   -7.0489343    52.598643  0.032229561  0.035037339            4 
  137000    1.1740365   -7.0844052    53.114662  0.032308188  0.035026158            3 
  138000      1.22823   -7.1109774    53.256146  0.032159508  0.035008726            2 
  139000    1.1997959   -7.0551128    54.056226  0.032407809  0.034995072            3 
  140000    1.2243491   -7.0393329    54.508173  0.032445341  0.034982993            2 
  141000     1.210986   -7.0241735    54.939339  0.032470058  0.034972365            2 
  142000    1.1909388   -7.0317589    55.204084  0.032396763   0.03496632            1 
  143000    1.2041023   -7.0774571    55.572907  0.032385144  0.034959964            1 
  144000    1.2139004    -7.093918    56.103205  0.032467133   0.03494956            3 
  145000    1.1774997   -7.0826282    56.507896  0.032475802  0.034942606            2 
  146000    1.1761921   -7.0479958    57.248535  0.032676104  0.034939356            2 
  147000    1.1892375   -7.0347206    57.470908   0.03257988  0.034934542            1 
  148000    1.1949785   -7.0656188    57.544394  0.032401123  0.034926546            1 
  149000    1.2032309   -7.0452939    58.135459  0.032514239  0.034915373            1 
  150000    1.1756182    -7.086343    58.242146  0.032356748  0.034901088            1 
  151000    1.2068584   -7.1064155    58.575703  0.032326547  0.034883439            1 
  152000    1.1858263   -7.0544885    59.170897  0.032440185  0.034868468            2 
  153000    1.1723054   -7.1060465    59.173276  0.032229453  0.034850288            2 
  154000    1.1932694   -7.0818677    59.836695  0.032379164  0.034831252            1 
  155000     1.205986   -7.0607795    60.209507  0.032370702  0.034816594            1 
  156000    1.1916798   -7.0989821    60.757218  0.032455779  0.034803301            1 
  157000    1.2171223   -7.0652815    61.339456  0.032558098   0.03479214            4 
  158000    1.2296273   -7.0833478     61.25851  0.032309341  0.034779868            1 
  159000    1.2121929   -7.0597526    61.957615  0.032472544  0.034763045            1 
  160000     1.182798   -7.0858901    62.405827  0.032503035  0.034748934            2 
  161000    1.1812658    -7.119727    62.454894  0.032326549  0.034735376            2 
  162000    1.1753705   -7.1093971    62.983434  0.032398886  0.034722197            1 
  163000    1.2025676   -7.0587474    63.335367  0.032380044  0.034706334            1 
  164000    1.2017777   -7.0838817    63.941887  0.032490796  0.034694044            3 
  165000    1.2001963    -7.073263    64.289544  0.032469467  0.034681082            2 
  166000    1.1740403   -7.0470883    64.993531  0.032627274  0.034670401            1 
  167000     1.201361   -7.1327011     65.22011  0.032544965   0.03465991            1 
  168000    1.1730286   -7.1209754    65.650289  0.032564628  0.034650805            2 
  169000    1.1965044   -7.1538323    65.829368  0.032460241  0.034642346            3 
  170000    1.1836355   -7.0912013    66.275752  0.032488114  0.034629905            1 
  171000    1.1623213   -7.0795308    66.729008   0.03251901  0.034619719            1 
  172000    1.1928952   -7.1050676    66.938883  0.032431629  0.034607865            1 
  173000    1.1940789   -7.1223678    67.471159  0.032500558   0.03459695            1 
  174000    1.1816585   -7.0853161    67.653652  0.032401174  0.034583859            1 
  175000    1.2147768   -7.0610648    68.148816  0.032451817   0.03456771            1 
  176000    1.1712955   -7.0920542    68.535703  0.032450617  0.034552845            3 
  177000    1.1462135   -7.1213914    68.811045  0.032396914  0.034538684            1 
  178000    1.2004558   -7.1039588    69.128037  0.032363313  0.034521262            1 
  179000    1.1470999   -7.0857672    69.505727  0.032358346  0.034502445            2 
  180000    1.2011442    -7.080212    69.862859  0.032343916  0.034482552            1 
  181000     1.200043   -7.0747267    70.226243  0.032332524  0.034463711            1 
  182000    1.1915678   -7.1169822    70.601111  0.032326516  0.034446641            1 
  183000    1.1987642   -7.0957146    71.078601  0.032367305  0.034430914            2 
  184000     1.153875   -7.0824296    71.629316  0.032440814  0.034415925            3 
  185000    1.1934051     -7.13519    71.845067  0.032362643  0.034396889            1 
  186000    1.1726967   -7.0729167    72.310781  0.032397303  0.034378992            1 
  187000    1.1737599   -7.1207085     72.46044  0.032290749  0.034360969            3 
  188000     1.173809   -7.1154426    72.744671  0.032244978  0.034343595            2 
  189000    1.1766929   -7.1007992    73.079544  0.032222021  0.034324622            1 
  190000    1.1636133   -7.0455678    73.561687  0.032263898  0.034303985            2 
  191000    1.1784851   -7.1159095    73.539087  0.032085117  0.034281495            1 
  192000    1.1725014   -7.1155456    73.963245  0.032102103  0.034258306            2 
  193000    1.1530794   -7.1050429    74.262877  0.032065145  0.034236755            1 
  194000     1.170719   -7.1322531    74.637159  0.032060635   0.03421365            2 
  195000    1.1825595    -7.084115    75.159319  0.032119367   0.03419059            3 
  196000     1.203668   -7.0990694     75.72824  0.032197381  0.034168012            1 
  197000    1.1701241   -7.1190615    75.729181   0.03203434  0.034145416            3 
  198000    1.1651135   -7.1299699     76.48498  0.032190648  0.034124458            1 
  199000    1.1996965   -7.1390744    76.549618  0.032055954  0.034103511            2 
  200000    1.1820858   -7.1240036    76.928296  0.032053456  0.034083424            4 
  201000     1.156557   -7.1214702    77.255392  0.032029598   0.03406082            1 
  202000    1.1787027   -7.0888467    77.813663  0.032101346  0.034039512            2 
  203000    1.1757686   -7.0972415    78.026325  0.032030511  0.034018281            2 
  204000    1.1870978   -7.0907308    78.499425  0.032066758  0.033996679            2 
  205000    1.1901949   -7.1305293     78.92783  0.032084484  0.033976208            1 
  206000    1.1422816   -7.1185982    79.306202  0.032081797   0.03395642            1 
  207000    1.1790725   -7.1269712    79.954017  0.032187608  0.033937194            2 
  208000    1.1494916    -7.092756    80.370557  0.032199742   0.03392096            1 
  209000     1.169512   -7.1356916    80.296495  0.032016146  0.033903993            1 
  210000     1.163361   -7.1055136    81.638415  0.032396196  0.033889842            2 
  211000    1.1540729   -7.1424748    81.605527  0.032229671  0.033876121            2 
  212000    1.1745373   -7.1333337    82.089391  0.032267842  0.033862462            2 
  213000    1.1468538   -7.1515449     82.19986  0.032159569  0.033850424            2 
  214000    1.1936058   -7.1271631    82.834521  0.032256433  0.033837825            1 
  215000    1.1623774   -7.1421847    82.805758  0.032095255  0.033822539            2 
  216000     1.212433   -7.1698768    82.921101  0.031991166  0.033805653            2 
  217000    1.1629771   -7.1778803    83.448179  0.032046152  0.033787887            2 
  218000    1.2065488    -7.144582    83.907806  0.032074849  0.033770132            3 
  219000    1.1582219   -7.1359802    83.927813  0.031936002  0.033752338            2 
  220000    1.1769487   -7.1297054    84.810057  0.032125022  0.033735221            2 
  221000    1.1768799   -7.1008884    85.146614  0.032106566  0.033719481       -1e+20 
  222000    1.1495666   -7.1528991    84.951277  0.031888617  0.033702067            1 
  223000    1.2009885   -7.1218628    86.021711  0.032145632  0.033685714            1 
  224000    1.1661409   -7.1857247    85.827133  0.031929737  0.033669146            2 
  225000    1.1691747   -7.1843553    86.417188  0.032006366  0.033650667            1 
  226000    1.1759252   -7.1086042    86.771394  0.031995352  0.033632457            2 
  227000    1.1699917   -7.1394574    87.082113   0.03196847  0.033614604            4 
  228000     1.160997   -7.1626484    87.458087  0.031965675  0.033597259            2 
  229000    1.1597003   -7.1396039    87.908073  0.031989837  0.033579272            1 
  230000    1.1496903   -7.1294439    88.204361  0.031958102  0.033560625            2 
  231000    1.1736116   -7.1414021    88.510773  0.031930293  0.033543724            2 
  232000    1.1629728   -7.1252721    89.218031  0.032046707  0.033527664            1 
  233000     1.171934   -7.1033039    89.648483   0.03206312  0.033511414            2 
  234000    1.1739079   -7.1253784    90.120866  0.032094326  0.033495697            2 
  235000    1.1505775     -7.13713     90.31346   0.03202605  0.033480856            1 
  236000    1.1416995   -7.1824469    90.699098  0.032026517  0.033467199            1 
  237000    1.1680856   -7.1168953    91.244656  0.032083212  0.033453413            3 
  238000    1.1456554   -7.1190952    91.620329  0.032079947  0.033441056            2 
  239000       1.1453   -7.1519941     92.26882  0.032171834  0.033429172            1 
  240000    1.1838846   -7.1794702     92.37109  0.032073295  0.033418406            1 
  241000    1.1679339   -7.1324191    92.866655  0.032111568  0.033408566            2 
  242000    1.1415979   -7.1628963    93.144956  0.032074709   0.03339805            2 
  243000    1.1963817   -7.1782709    93.720997   0.03214026   0.03338738            2 
  244000    1.1387216   -7.1788746    94.271772  0.032196644  0.033377089            2 
  245000    1.1487056   -7.1117751     94.35957  0.032095092  0.033367345            2 
  246000     1.129941    -7.113769    95.206615  0.032251563  0.033358475            1 
  247000    1.1524774   -7.1790715    95.120567  0.032091959  0.033349678            3 
  248000    1.1466489   -7.1285463    96.082902  0.032285921  0.033341339            1 
  249000    1.1525682   -7.1424865    96.335039  0.032240642  0.033334833            1 
  250000    1.1546596   -7.1842512    96.134114  0.032044705  0.033326887            1 
  251000    1.1332399    -7.180413    96.698239  0.032104329  0.033318764            1 
  252000    1.1629286   -7.1883902    97.222485  0.032150293  0.033311064            4 
  253000    1.1428051    -7.152112     97.86176  0.032233781  0.033303575            1 
  254000    1.1712236   -7.1588675    97.971453  0.032142865  0.033294096            1 
  255000    1.1611795   -7.1959786     98.25071  0.032108075  0.033283991            2 
  256000    1.1800403    -7.179477    98.902894  0.032194953  0.033275559            2 
  257000    1.1681601   -7.1607114     98.94174  0.032082276  0.033267347            1 
  258000    1.1541777   -7.1425968     99.01519  0.031981651  0.033257591            1 
  259000    1.1493107   -7.1833082    99.606327  0.032048368  0.033247394            1 
  260000    1.1477898   -7.1887792    99.950164  0.032035309  0.033234727            1 
  261000     1.142381   -7.1340162    100.43338  0.032066852  0.033223955            1 
  262000      1.16834   -7.2112987    100.70392  0.032030508  0.033214195            2 
  263000     1.147924   -7.1539893    101.01593  0.032007583  0.033202881            3 
  264000    1.1691996   -7.1818025    100.91992  0.031856036  0.033190761            1 
  265000    1.1610357   -7.1603072    101.66869  0.031971287  0.033177695            2 
  266000    1.1541849   -7.1797744     101.6774  0.031853823  0.033164883            2 
  267000    1.1273099   -7.1679257    102.53341   0.03200169  0.033152362            2 
  268000    1.1488001   -7.2112103    102.30016  0.031809751  0.033140317            1 
  269000    1.1443414    -7.191048    103.11362  0.031943501  0.033128615            2 
  270000    1.1466757   -7.1848949    103.82021  0.032043275  0.033118695            3 
  271000    1.1054923   -7.1645877    104.49724  0.032133222  0.033109056            1 
  272000    1.1519184    -7.175803    103.80105  0.031801792  0.033097678            3 
  273000    1.1427836   -7.1724848    104.40665  0.031870161   0.03308615            3 
  274000    1.1561378   -7.2070487    104.79281  0.031871293  0.033073464            3 
  275000    1.1477105   -7.2048644    105.01984  0.031824193  0.033061072            1 
  276000    1.1203199   -7.1907156    105.16674  0.031753243  0.033048384            2 
  277000    1.1486747   -7.1680623    106.02221  0.031895971  0.033035863            3 
  278000    1.1391849   -7.1913841    106.18235  0.031829241   0.03302294            2 
  279000    1.1417702   -7.1583315     106.5581  0.031827389  0.033010342            3 
  280000    1.1185398   -7.1940864    106.37755  0.031659986  0.032996023            1 
  281000    1.1432319   -7.1977719    106.80569  0.031674285   0.03298207            1 
  282000    1.1291479   -7.1600396    107.00482  0.031620809  0.032966632            1 
  283000    1.1475449   -7.1969446    107.49935  0.031654695  0.032950745            1 
  284000    1.1133387   -7.1386929    107.93689  0.031671623  0.032936396            1 
  285000    1.1630122   -7.1879186    108.12022    0.0316141  0.032921604            3 
  286000    1.1284449   -7.1903337    108.82897  0.031710074  0.032907334            2 
  287000    1.1421967   -7.1967662    109.15624  0.031694611  0.032892474            2 
  288000     1.143617   -7.1995866    108.91649  0.031515188  0.032877244            2 
  289000    1.1483283   -7.2303549    109.76184  0.031649895  0.032861687            2 
  290000    1.1511543   -7.2041311    109.90093  0.031580726   0.03284583            1 
  291000    1.1520125   -7.1965067    110.08872  0.031525979  0.032828393            1 
  292000     1.146143   -7.1819573    110.81919  0.031626482  0.032811947            2 
  293000    1.1462988   -7.1858347    110.69493    0.0314832   0.03279631            1 
  294000    1.1362827   -7.2300828     111.2246  0.031526247  0.032779515            2 
  295000    1.1460823   -7.1558735    111.72963  0.031562043  0.032763247            1 
  296000    1.1596721   -7.1942502    112.09337  0.031557819  0.032747691            2 
  297000    1.1536187   -7.1972875    112.37185  0.031529699  0.032731751            3 
  298000    1.1094429   -7.2281769    112.51173  0.031463013  0.032716246            2 
  299000    1.1156593   -7.2181918    112.73292  0.031419431  0.032699368            2 
  300000    1.1451461   -7.1949039    113.48799  0.031524441  0.032683226            3 
  301000    1.1328621   -7.1868315    113.68751  0.031474948  0.032667381            2 
  302000    1.1210204   -7.2287683     113.6546  0.031361646  0.032651946            2 
  303000    1.1564041   -7.2116589    114.32892  0.031443596  0.032635486            1 
  304000    1.1253264     -7.21084    114.53631  0.031397015  0.032619168            1 
  305000    1.1235753    -7.219571    114.96191  0.031410359  0.032602507            1 
  306000    1.1690869    -7.202752    115.61002  0.031484211  0.032586943            1 
  307000    1.1388819    -7.176742    115.80137  0.031433596   0.03257202            1 
  308000    1.1442543   -7.1991088    116.38093  0.031488346   0.03255839            1 
  309000    1.1045624   -7.2059503    116.55329  0.031432926  0.032543725            1 
  310000    1.1296222   -7.2335086    116.58958  0.031341284  0.032527911            2 
  311000    1.1284307    -7.204344    117.20583  0.031405635  0.032514141            2 
  312000    1.1499232   -7.2270201    117.18729  0.031300025  0.032499293            1 
  313000    1.1230249   -7.2177562    117.76128  0.031352844  0.032483637            1 
  314000    1.1387672   -7.2001645    118.32748  0.031403259  0.032468341            2 
  315000    1.1296065   -7.2464959    118.54026  0.031359858  0.032454048            1 
  316000    1.1605383   -7.1970137    119.10528   0.03140962  0.032439136            2 
  317000    1.1524502   -7.2075751    119.08741  0.031305839   0.03242313            1 
  318000    1.1497421   -7.2028951    119.34305  0.031274383  0.032406593            2 
  319000     1.132831   -7.2379923    119.57186  0.031236118  0.032391067            1 
  320000    1.1337425    -7.228172    120.15518  0.031290411   0.03237671            1 
  321000    1.1385608   -7.1958906    120.55054   0.03129557  0.032363136            4 
  322000    1.1504124   -7.2263428    121.15512  0.031354844  0.032348653            1 
  323000    1.1429153   -7.2269461    120.92756  0.031199062  0.032333788            2 
  324000    1.1312528   -7.2578207    121.07959  0.031141871  0.032318473            1 
  325000    1.1467211   -7.2480887    121.75668  0.031219661  0.032302521            1 
  326000    1.1207245   -7.2538675    122.06506  0.031202726  0.032286705            1 
  327000    1.1117318   -7.2514283    122.27083  0.031159742  0.032270877            2 
  328000    1.1355318    -7.214648    122.73229  0.031181983  0.032254946            1 
  329000     1.145217   -7.2094713    123.36853  0.031248362  0.032240061            3 
  330000    1.1004837   -7.2227354    123.80358  0.031263529  0.032226002            2 
  331000    1.1477942    -7.179481    124.02963   0.03122599   0.03221226            5 
  332000    1.1173963     -7.24857    123.88131  0.031094707  0.032198299            1 
  333000    1.1434493    -7.197843    124.51267  0.031159328   0.03218356            2 
  334000    1.1261059   -7.2384992    124.65002  0.031100304  0.032167522            2 
  335000     1.125436   -7.2088397    124.81974  0.031049686   0.03215142            1 
  336000     1.115369   -7.2473235    124.97611  0.030996059  0.032135646            1 
  337000    1.1193702   -7.2188214    125.41251  0.031011995  0.032118523            1 
  338000    1.1154752   -7.2237614    125.52878   0.03094891  0.032101317            1 
  339000    1.1084443   -7.2136953    125.57255  0.030868375  0.032084272            1 
  340000    1.1201915   -7.2776604    125.94586  0.030869084  0.032065863            1 
  341000    1.1093976   -7.2595743    126.01971  0.030796606  0.032047201            2 
  342000    1.1185508   -7.2741255    126.17322  0.030743961  0.032028188            2 
  343000    1.1172686   -7.2224354    127.24071   0.03091368  0.032010158            3 
  344000    1.1308383   -7.2604218    126.84134   0.03072707  0.031991547            3 
  345000    1.0984966   -7.2310949    127.50106  0.030797357  0.031972658            2 
  346000    1.1376258   -7.2774556    127.89229  0.030802574  0.031954046            1 
  347000    1.1261377   -7.2599654    127.67794  0.030662329  0.031934049            1 
  348000    1.1256704   -7.2398837    128.46746  0.030763282  0.031914344            1 
  349000    1.0944557   -7.2752348    128.55447   0.03069591  0.031894675            3 
  350000    1.1212027   -7.2641006    129.25828  0.030775781  0.031875535            4 
  351000    1.1119371   -7.2349159     129.2347  0.030682503  0.031855709            1 
  352000    1.0982131   -7.2848306    129.31435  0.030614194  0.031835696            1 
  353000    1.1141135   -7.2577071    129.97561  0.030683572  0.031816501            3 
  354000    1.1040792    -7.262907    130.38005  0.030692103  0.031798879            3 
  355000    1.1169912   -7.2481393    130.75989   0.03069481  0.031780741            1 
  356000    1.1071756   -7.2732437    131.01384  0.030668033  0.031763314            2 
  357000    1.0989894   -7.2474713    131.67813  0.030737192  0.031746678            1 
  358000    1.1424511   -7.2322722     132.0013   0.03072656  0.031730606            2 
  359000    1.0978291   -7.2331769    132.38219  0.030729386  0.031714431            1 
  360000     1.107547   -7.2406082    132.67237  0.030711197  0.031698722            1 
  361000    1.1235565   -7.2622839    133.08629  0.030721673  0.031682698            2 
  362000    1.1076628   -7.3050516    133.22562  0.030668881  0.031666985            2 
  363000    1.1114395   -7.2577676    133.60893  0.030672389  0.031650646            2 
  364000    1.1028535   -7.2835284    133.58811  0.030583358  0.031633983            1 
  365000    1.1121935   -7.3001617    133.65746  0.030515401  0.031616282            2 
  366000    1.1010755   -7.2835459    133.70196  0.030442158  0.031598778            2 
  367000    1.0999688   -7.2448489    134.67642  0.030580477  0.031581003            2 
  368000    1.1152417   -7.2824383     134.8619   0.03053938  0.031564488            2 
  369000    1.1030224   -7.2610005    135.42535  0.030583864  0.031547942            3 
  370000      1.09917   -7.2572122    135.93388  0.030615739  0.031531411            1 
  371000     1.119227    -7.246941    136.48051     0.030656  0.031515624            1 
  372000    1.1301333   -7.2330364     135.9992   0.03046577  0.031499466            1 
  373000    1.1103033   -7.2751362    136.44502  0.030483694  0.031483022            1 
  374000    1.0734171   -7.2735425    137.18061  0.030566089  0.031466271            2 
  375000    1.0914817   -7.2399273    137.89156  0.030642568  0.031450279            4 
  376000    1.1153533   -7.2377966    137.89569  0.030561988  0.031434603            1 
  377000    1.1030889   -7.2686911    138.11368  0.030529108   0.03141892            2 
  378000    1.1295692   -7.2752314     138.2008  0.030467547  0.031403982            3 
  379000    1.1006788   -7.2776311    138.66701  0.030489667  0.031389596            1 
  380000    1.1113733   -7.2813394    139.44947  0.030581024  0.031374361            1 
  381000    1.0878744   -7.2676312     139.4432  0.030499387  0.031359048            2 
  382000    1.1040935    -7.261936    139.01373  0.030325857  0.031342292            1 
  383000    1.1135605   -7.2834545    139.41323    0.0303336  0.031326052            1 
  384000    1.1230901   -7.2858294    139.77185  0.030332432  0.031310321            1 
  385000    1.1055983   -7.2660899    140.66734  0.030447475  0.031295235            1 
  386000    1.1000232   -7.2427067    141.28864  0.030502728  0.031280433            1 
  387000    1.1202109   -7.2949163    140.83896   0.03032708  0.031265719            2 
  388000    1.1167888   -7.2952784    141.08272  0.030301272  0.031249567            2 
  389000    1.1221964   -7.2782374    141.60704  0.030335699  0.031233468            2 
  390000    1.1292184   -7.2777435     142.2887  0.030403569  0.031218325            1 
  391000    1.1082918   -7.3176143    142.00905  0.030266208  0.031203589            1 
  392000    1.0797045   -7.2876621    142.54556  0.030303053  0.031188036            1 
  393000    1.0926314   -7.2422484     142.8789  0.030296629  0.031172351            2 
  394000    1.1082525   -7.2711079    142.74436  0.030191278  0.031155769            3 
  395000    1.1096853   -7.2671108    143.26177  0.030224003  0.031139535            2 
  396000    1.1035853   -7.3081606    143.90702  0.030283463  0.031123446            2 
  397000    1.1123289   -7.3078262    143.98294  0.030223119  0.031107095            1 
  398000     1.088057   -7.2869093    144.47642  0.030250506  0.031091331            2 
  399000    1.0781919   -7.3231028    144.55044  0.030190149  0.031075498            1 
  400000    1.0780383   -7.2667846    145.15925   0.03024151  0.031059836            1 
  401000    1.0930941   -7.3245943    144.83895  0.030099533  0.031044071            2 
  402000    1.1024637   -7.2568363    145.81298  0.030226572   0.03102751            2 
  403000    1.0764532   -7.3566232    145.05554  0.029994941  0.031010184            2 
  404000    1.0983085   -7.2810527    145.73797  0.030061463  0.030993164            2 
  405000    1.0984819    -7.286153    146.39302  0.030122021  0.030976692            1 
  406000    1.1091856   -7.2821853      146.326  0.030034072  0.030960011            1 
  407000     1.069899   -7.3326248    146.95271  0.030088597  0.030943719            2 
  408000    1.0931205   -7.3239053    146.82059  0.029987866  0.030927432            2 
  409000     1.075174   -7.3003966    147.55763  0.030064716  0.030911373            1 
  410000    1.1092499   -7.3148793    147.43996  0.029967471  0.030894474            2 
  411000    1.0918609   -7.2836637    147.60954  0.029928941  0.030877506            2 
  412000    1.0905678   -7.3247766    148.11936  0.029959418  0.030860574            3 
  413000    1.0697488    -7.296454    148.42206  0.029947954  0.030843138            2 
  414000      1.09967   -7.3112789    148.33628  0.029858349  0.030825583            1 
  415000    1.0934987   -7.2937045    148.96317  0.029912284  0.030808206            2 
  416000    1.0882682   -7.3173573    149.30204  0.029908262  0.030790475            3 
  417000    1.0912669   -7.3142333    149.32966  0.029842058  0.030773034            1 
  418000    1.0930051    -7.297528    149.74621  0.029853711  0.030755879            3 
  419000         1.08   -7.3163376    149.82519  0.029798168  0.030738288            3 
  420000    1.0807549   -7.3296266    150.17023  0.029795681  0.030721034            1 
  421000    1.1170506   -7.2996784      150.839  0.029857284   0.03070368            1 
  422000     1.070204   -7.2852875    151.46838  0.029910818  0.030687733            3 
  423000    1.0828949   -7.3115425    150.97042  0.029742006  0.030671064            2 
  424000    1.0733435   -7.3348658    150.85607  0.029649384  0.030653143            1 
  425000    1.0935288   -7.3394628    151.80009  0.029764724  0.030635161            2 
  426000    1.0929833   -7.3222331    152.42075  0.029816265  0.030617609       -1e+20 
  427000    1.0874235   -7.3166434    152.88261  0.029836576  0.030601183            2 
  428000    1.0915026   -7.2721692    153.33937  0.029855796  0.030585073            1 
  429000    1.0682711   -7.3442809    152.93196  0.029707063  0.030569082            1 
  430000    1.0946414    -7.315505    154.02109  0.029849048  0.030552446            3 
  431000    1.0609787   -7.3108058     153.4153  0.029662664   0.03053569            3 
  432000    1.0936869   -7.3328403      154.181  0.029741704  0.030519062            4 
  433000    1.0739959   -7.3516328     153.7378  0.029587721  0.030502894            1 
  434000    1.0630702    -7.296026    154.76539  0.029716857  0.030486147            3 
  435000    1.0670261   -7.3548293    154.59372  0.029615655  0.030469741            2 
  436000    1.0765689   -7.3235491    155.55741  0.029731921  0.030453287            1 
  437000    1.0856695   -7.3017142    155.52981  0.029658622  0.030437018            3 
  438000    1.0589579   -7.3741922    155.80329   0.02964294  0.030421085            3 
  439000     1.073247   -7.3228837     155.8142  0.029577488   0.03040475            2 
  440000    1.0643901   -7.4026347    155.90743  0.029527923  0.030387774            2 
  441000     1.056954   -7.3616133    156.47448  0.029568117  0.030370995            2 
  442000     1.098965   -7.3348078    157.26721  0.029650681  0.030355163            3 
  443000     1.070974   -7.3482365    157.18581  0.029568437  0.030339907            1 
  444000    1.0730388   -7.3413807    157.92344  0.029640286   0.03032446            1 
  445000    1.0836472   -7.3122243    157.98616  0.029585424  0.030309153            3 
  446000    1.0766717   -7.3145079    158.10021  0.029540397  0.030294381            3 
  447000    1.0646505   -7.3150638    159.05554  0.029652412  0.030280046            1 
  448000    1.0834359   -7.3252301    159.69828  0.029705781  0.030266076            1 
  449000    1.0738962   -7.3352056    159.70485   0.02964084  0.030251642            4 
  450000    1.0939007   -7.3387488     159.7145  0.029576759  0.030237037            4 
  451000    1.0682108   -7.3080681    160.52655  0.029661225  0.030222892            2 
  452000    1.0664103   -7.3448085    160.92804  0.029669624  0.030209368            2 
  453000    1.0838991    -7.314763    161.13798  0.029642748  0.030195463            2 
  454000     1.052208     -7.32709    161.70267  0.029681107  0.030182335            2 
  455000       1.0813    -7.365753    161.18449  0.029520969  0.030168392            1 
  456000     1.052781   -7.3646999     161.7076  0.029551828  0.030154326            1 
  457000    1.0745106   -7.3415564    162.16533  0.029570629  0.030140051            2 
  458000    1.0898535   -7.3606115    162.10598  0.029495265  0.030125423            1 
  459000    1.0539114   -7.3298279    162.76771  0.029551145  0.030111025            1 
  460000    1.0773805   -7.3480221    162.52818  0.029443511  0.030096678            4 
  461000    1.0536151   -7.3366722    163.21864  0.029504454   0.03008244            1 
  462000    1.0732387   -7.3199685    163.62636  0.029514134  0.030067638            2 
  463000    1.0866773    -7.325642    163.92038  0.029503308  0.030053708            1 
  464000    1.0957199   -7.3596235    163.87423  0.029431434  0.030038956            1 
  465000    1.0625809   -7.3254528    164.08935  0.029406694   0.03002386            3 
  466000    1.0729505   -7.3685893    164.09179  0.029344026  0.030008462            1 
  467000    1.0655087   -7.3516452    164.09768  0.029282241  0.029992401            1 
  468000    1.0844658    -7.343177    164.36062  0.029266493  0.029976187            2 
  469000    1.0649379   -7.3762419    164.10573  0.029158801  0.029959579            2 
  470000    1.0567486   -7.3902009    164.46562   0.02916057  0.029942318            2 
  471000    1.0334513   -7.3234518    164.76207  0.029151109  0.029924846            1 
  472000    1.0763193   -7.3661786     164.7724  0.029091173  0.029907136            2 
  473000    1.0756414   -7.3570246    165.14731   0.02909572   0.02988908            1 
  474000    1.0763419   -7.4004823    165.32527  0.029065625  0.029871642            1 
  475000    1.0402336   -7.4119501    165.15392  0.028974372  0.029853905            1 
  476000    1.0391831   -7.4080549     165.1928  0.028920309  0.029836167            1 
  477000    1.0815258   -7.3740033    166.20427  0.029036386  0.029818567            1 
  478000     1.039641   -7.3877224    166.53356  0.029033047  0.029800899            1 
  479000    1.0529242   -7.3535524    166.92186  0.029039989  0.029783516            2 
  480000    1.0473869   -7.3772349    166.96994  0.028987836  0.029765722            2 
  481000    1.0723022    -7.331309    167.41884  0.029005343  0.029748901            1 
  482000    1.0619351   -7.3805201    166.94971  0.028864058  0.029731242            1 
  483000    1.0417257   -7.3594311    167.44685  0.028890072  0.029713578            2 
  484000    1.0589157   -7.3823237    167.62019  0.028860225  0.029696567            5 
  485000    1.0568798   -7.3264155    168.43508  0.028940736   0.02967914            1 
  486000    1.0836954   -7.3832531    168.25064  0.028849561  0.029661741            2 
  487000    1.0551343   -7.3981822    168.14003  0.028771395  0.029644698            1 
  488000    1.0645894   -7.3624025    169.34616  0.028918401  0.029627332            1 
  489000    1.0697452   -7.3400225    169.07723  0.028813434  0.029609547            2 
  490000    1.0531034   -7.4123331    169.13839  0.028765033  0.029591324            3 
  491000    1.0741137   -7.3679884    169.97899  0.028849115  0.029573727            1 
  492000    1.0539124   -7.3612689     169.9493  0.028785451  0.029556397            1 
  493000    1.0696691   -7.3851904    169.99065  0.028734052  0.029538425            3 
  494000    1.0684429   -7.4216472    170.62851  0.028783487    0.0295214            1 
  495000    1.0437337   -7.3600818    170.71809   0.02874042  0.029503445            1 
  496000    1.0459255   -7.3824742    169.74421  0.028518853  0.029485523            1 
  497000    1.0445552   -7.3853778     170.5901  0.028603303  0.029467102            2 
  498000    1.0420049     -7.37542    170.74833  0.028572345  0.029448507            2 
  499000    1.0711768   -7.3995453    171.11107  0.028575663  0.029429959            4 
  500000    1.0443142   -7.4225172      171.769  0.028628166  0.029411624            2 
  501000    1.0559512   -7.3968495    171.97184  0.028604764  0.029392926            1 
  502000    1.0625493    -7.380537    172.34509  0.028609743  0.029374554            1 
  503000    1.0494361   -7.3542269    172.83769  0.028634475   0.02935602            2 
  504000    1.0526375   -7.3615974    172.52087  0.028525276  0.029337613            2 
  505000    1.0321955   -7.3909122    172.32367  0.028436248  0.029318611            2 
  506000    1.0504884    -7.408529    172.53869  0.028415463  0.029299642            3 
  507000    1.0715031   -7.4184679    172.55918  0.028362785  0.029280767            2 
  508000    1.0529379   -7.4296529    173.07952   0.02839231  0.029261915            2 
  509000     1.055712   -7.4118283    173.23152  0.028361414  0.029242775            2 
  510000    1.0344256   -7.4214084     173.3402  0.028323563  0.029223748            2 
  511000    1.0355973   -7.3510493    173.52578  0.028298399  0.029204973            1 
  512000    1.0678862   -7.3931526    173.67857  0.028267997  0.029185512            1 
  513000     1.041417   -7.3915282    174.08221  0.028278462  0.029166362            2 
  514000    1.0411061   -7.4265198    174.31427  0.028261069  0.029146869            3 
  515000    1.0428889   -7.3968707    174.97282  0.028312754   0.02912735            3 
  516000    1.0604058   -7.3861393    174.72605  0.028218031  0.029108172            2 
  517000    1.0588241   -7.4194369    174.74311  0.028166201  0.029088703            2 
  518000    1.0623439    -7.424399    175.32926  0.028206123  0.029068751            1 
  519000    1.0500484   -7.4144412    175.77987  0.028224128  0.029049466            1 
  520000    1.0161927   -7.3627925    175.82619  0.028177275   0.02903053            2 
  521000    1.0370467   -7.3733118    175.84514  0.028126222  0.029011604            2 
  522000    1.0605842   -7.3947243    176.39189  0.028159624  0.028992254            1 
  523000    1.0479196   -7.4277019    176.91914  0.028189793  0.028973046            1 
  524000    1.0599912   -7.4224886    176.62805  0.028089703  0.028954072            2 
  525000    1.0376101   -7.4054478    177.06438  0.028105457  0.028935271            2 
  526000    1.0316801   -7.4363462    176.88784  0.028024055  0.028915876            1 
  527000    1.0313425   -7.3998425    177.36331  0.028046064  0.028896475            2 
  528000    1.0518736   -7.4323392     177.0028  0.027936048  0.028876553            1 
  529000    1.0573147   -7.4052146    177.54125  0.027968061  0.028856747            1 
  530000    1.0244893     -7.40294    177.86256  0.027965812  0.028836811            2 
  531000    1.0337523   -7.4200909    178.05084  0.027942693  0.028816826            6 
  532000    1.0525955   -7.4296765      178.008  0.027883459  0.028796867            2 
  533000     1.040673   -7.4674566    178.40274  0.027892861  0.028777018            1 
  534000    1.0368004   -7.3992483    178.93251  0.027923301  0.028757481            2 
  535000    1.0406377   -7.4562403    178.78208  0.027847676    0.0287383            3 
  536000    1.0548162   -7.4339583    179.75861  0.027947546  0.028718676            3 
  537000    1.0367871   -7.3994158    179.67157  0.027881995   0.02869953            1 
  538000    1.0194255    -7.430514    179.69483  0.027833772  0.028680616            3 
  539000    1.0347803   -7.4171031    179.90222  0.027814196  0.028661552            2 
  540000    1.0496238    -7.422851    180.81321  0.027903273  0.028642723            1 
  541000    1.0335367   -7.4470425    181.16244   0.02790549  0.028623895            1 
  542000    1.0259265   -7.4310448    181.50357  0.027906452  0.028605607            1 
  543000    1.0236757   -7.4107003    181.60591  0.027870765  0.028587356            1 
  544000    1.0377581   -7.4366919    181.24107  0.027763644  0.028568557            2 
  545000    1.0542606   -7.4360186    182.26678  0.027869538  0.028550254            2 
  546000    1.0316852   -7.4069319    182.79803  0.027899577  0.028531857            1 
  547000    1.0216152   -7.4413728    182.48788  0.027801322  0.028513683            2 
  548000    1.0545759   -7.4233644     183.2027  0.027859292  0.028495825            1 
  549000    1.0396136   -7.3986418    183.23263  0.027813089  0.028477652            1 
  550000    1.0400782    -7.457096    183.16716  0.027752601  0.028459609            1 
  551000    1.0350539     -7.42815    183.78077  0.027795034  0.028441579            1 
  552000    1.0428451   -7.4272586    183.16362  0.027651513  0.028423395            2 
  553000    1.0259416   -7.4410465    184.22745  0.027761822  0.028404778            2 
  554000    1.0380689   -7.4224548    183.76736  0.027642503  0.028386636            2 
  555000    1.0246894   -7.4395386    184.21947   0.02766058   0.02836798            3 
  556000    1.0263256   -7.4319584    184.16721  0.027602999  0.028349583            1 
  557000    1.0535179   -7.4694585    184.99857  0.027677824  0.028331118            2 
  558000    1.0355227   -7.4093303    184.32867  0.027528176  0.028312812            1 
  559000    1.0277627   -7.4480392    185.60393  0.027669042  0.028294612            1 
  560000    1.0146348   -7.4021145    185.02562  0.027533574  0.028276076            6 
  561000     1.015291   -7.4381481    185.61724  0.027572377  0.028257567            1 
  562000     1.017269   -7.4470756    185.50602  0.027506824  0.028239292            1 
  563000    1.0398101   -7.4371655    186.15063   0.02755338  0.028221166            1 
  564000    1.0382533   -7.4639189     186.4532  0.027549232   0.02820373            2 
  565000    1.0163394   -7.4332582    185.70536  0.027390171  0.028185944            3 
  566000    1.0163304   -7.4684436     185.9972  0.027384747  0.028167948            3 
  567000    1.0497071   -7.4717882    186.14322   0.02735791   0.02814971            1 
  568000    1.0339567   -7.4774131    187.11371  0.027452129  0.028131842            3 
  569000    1.0438325   -7.4502839    187.25634  0.027424771  0.028114447            1 
  570000    1.0163846   -7.4739395    187.68503  0.027439332  0.028096513            2 
  571000    1.0327138   -7.4515219    187.59466  0.027378088  0.028078488            2 
  572000    1.0368103   -7.4640689    187.76922  0.027355656   0.02806038            5 
  573000    1.0592083   -7.4186388    188.36155  0.027394059  0.028042031            1 
  574000    1.0252977   -7.4232029    189.29136  0.027481323  0.028024483            1 
  575000    1.0281172   -7.4590282    188.97103  0.027387106  0.028006754            2 
  576000    1.0206782   -7.4680388    189.20679  0.027373668  0.027989164            2 
  577000    1.0140031   -7.4742027    189.08738   0.02730898  0.027970993            1 
  578000    1.0087688   -7.4261757    189.78659  0.027362542  0.027952712            3 
  579000    1.0121447    -7.491885     189.5706  0.027284196  0.027934958            2 
  580000    1.0108615   -7.4871388    189.71617  0.027258071   0.02791684            1 
  581000    1.0076094   -7.4398826    190.09224  0.027265095  0.027898795            1 
  582000    1.0236999   -7.4998797    189.19968  0.027090447  0.027880803            2 
  583000    1.0355249   -7.4275433    190.43299  0.027220267   0.02786261            4 
  584000    1.0041787   -7.4677825    190.13667  0.027131375  0.027844275            1 
  585000     1.021035   -7.4611626     190.6203  0.027153889  0.027826341            2 
  586000    1.0105237   -7.4352637    191.50145  0.027232857  0.027808365            1 
  587000    1.0161587   -7.4871496    191.03239  0.027119873  0.027790077            1 
  588000     1.030373   -7.5145416    190.98397   0.02706689  0.027771913            2 
  589000    1.0160635   -7.4309664    192.12266   0.02718204   0.02775386            1 
  590000    1.0062447   -7.4543383    191.98273  0.027116205  0.027735911            2 
  591000    1.0285378   -7.5003801    191.76966  0.027040279   0.02771754            3 
  592000    1.0071171   -7.5042348    192.08145  0.027038493   0.02769939            1 
  593000    1.0211462    -7.415888    192.70902  0.027081088  0.027681412            3 
  594000    1.0158316   -7.4742325    192.54284  0.027012183  0.027663406            3 
  595000    1.0194911   -7.4983598    192.51334  0.026962653  0.027645173            1 
  596000    1.0179492   -7.5085453     193.1608  0.027007941  0.027627556            1 
  597000    1.0159734   -7.5161234    193.10795  0.026955325  0.027609896            4 
  598000    1.0158044   -7.4126373    194.10858   0.02704969   0.02759222            1 
  599000    1.0033793    -7.448698    194.78868  0.027099149  0.027574775            1 
  600000    1.0142479   -7.4840023    194.51668  0.027016206  0.027556964            2 
  601000    1.0192444   -7.5045146    194.16859  0.026922987  0.027538902            2 
  602000    1.0149138   -7.4802977    194.52774  0.026927981  0.027520778            2 
  603000    1.0051007   -7.4887005    194.17478  0.026834547  0.027502322            3 
  604000    1.0133026    -7.472766    194.16298  0.026788491  0.027484332            1 
  605000    1.0240745   -7.4601581    195.23452  0.026891807  0.027466297            2 
  606000    1.0047963   -7.4972392    194.58618  0.026758276  0.027448187            1 
  607000    1.0091925   -7.4885772    195.40094  0.026826049  0.027429813            3 
  608000    1.0064349   -7.4955265    195.50192  0.026795768  0.027411464            3 
  609000    1.0109106    -7.492284    195.86601  0.026801589  0.027393376            2 
  610000    0.9910795      -7.4883    196.29381  0.026816094  0.027375466            3 
  611000     1.006046     -7.49857    195.61373   0.02667945   0.02735745            1 
  612000    1.0052588   -7.4923711    196.31056   0.02673074  0.027339094            1 
  613000    1.0162192    -7.452697    196.49437  0.026712123  0.027320888            2 
  614000    0.9992944   -7.5094998    196.54428  0.026675391  0.027302713            1 
  615000    1.0119399   -7.5050659    197.01158  0.026695336  0.027284661            5 
  616000   0.98956461   -7.5204924    197.28555  0.026689063  0.027266735            2 
  617000    1.0197565   -7.5038077    197.08299  0.026618449  0.027248428            1 
  618000   0.99933275   -7.4818576    197.24731  0.026597534  0.027230295            1 
  619000   0.99740227   -7.4546976    198.17775  0.026679827  0.027211927            3 
  620000    1.0065815   -7.5033637    197.67313  0.026568969  0.027193544            3 
  621000   0.99544975   -7.4515699    198.22823  0.026600675  0.027175323            2 
  622000   0.99711069   -7.5113121    198.50905  0.026595531  0.027157012            2 
  623000   0.99674664   -7.5030078    198.58358  0.026562812  0.027138624            4 
  624000    1.0230354   -7.4536143    198.30347  0.026482835  0.027120504            2 
  625000     1.015823   -7.5123752    198.53607  0.026471475  0.027102093            1 
  626000   0.99913571   -7.4924519    198.88439  0.026475558  0.027083961            3 
  627000    1.0056196   -7.5368783    198.65221  0.026402473  0.027065534            2 
  628000   0.99823145   -7.4803536     199.0755    0.0264166  0.027047258            1 
  629000    1.0162162   -7.5593202    199.03961  0.026369847  0.027029031            2 
  630000   0.98128122    -7.534781    199.97729  0.026452022  0.027011136            1 
  631000    1.0079276   -7.5291965    199.43238  0.026338138  0.026993135            3 
  632000   0.98545911   -7.5142368    199.86936  0.026354082  0.026974791            2 
  633000    1.0108511   -7.4687134    200.08282   0.02634055  0.026956579            3 
  634000    1.0157292   -7.4798734    200.47436  0.026350467  0.026938572            2 
  635000    1.0003728    -7.535373     200.6164  0.026327611  0.026920372            2 
  636000   0.99450267   -7.5305101    201.01041  0.026337841   0.02690227            2 
  637000    1.0030988    -7.545183    200.28372  0.026201428  0.026884064            1 
  638000   0.97852021   -7.5020919    201.43472    0.0263107  0.026866091            1 
  639000   0.98827717   -7.5414764    201.30569  0.026252698  0.026848049            5 
  640000    1.0038532   -7.5312306    201.55916  0.026244682  0.026830384            3 
  641000   0.98442832   -7.5176492    202.05685  0.026268442  0.026812609            3 
  642000    1.0119252   -7.4954881    202.91764  0.026339258  0.026795015            2 
  643000    1.0100084   -7.5221428      203.173  0.026331389  0.026777548            1 
  644000    1.0007884   -7.5015051    202.45042     0.026197  0.026759775            1 
  645000   0.99851497   -7.5421745    202.71361  0.026190389  0.026741934            1 
  646000    1.0100582   -7.5000432    203.36453  0.026233815  0.026724047            2 
  647000    1.0141931   -7.5275634    202.63741  0.026099614  0.026706038            2 
  648000   0.99089885   -7.5268357    203.22142  0.026134442  0.026687838            2 
  649000    1.0137477    -7.550169    203.16928  0.026087478  0.026669583            2 
  650000    1.0016404   -7.5103907    204.39114  0.026203993  0.026651544            1 
  651000   0.99237625   -7.5265859    204.19385  0.026138486  0.026633956            2 
  652000    1.0077943   -7.5446173    203.85585  0.026055196  0.026616524            1 
  653000   0.99099223   -7.4944594    205.36791  0.026208259  0.026598844            3 
  654000   0.98660568   -7.5671577    204.17547  0.026016243  0.026580953            1 
  655000    1.0067111   -7.5389639    204.41112  0.026006503  0.026563197            4 
  656000   0.99125468   -7.5147726      205.165  0.026062627  0.026545505            1 
  657000   0.99091644   -7.5327205     205.3673  0.026048617  0.026528211            2 
  658000    1.0044676    -7.590343    205.52694  0.026029247  0.026510824            1 
  659000   0.98881463   -7.5537567    205.80087  0.026024389   0.02649375            1 
  660000   0.96910613   -7.5660334    206.53226  0.026077306   0.02647629            2 
  661000    1.0052573   -7.5149263    206.24352  0.026001452  0.026458848            1 
  662000   0.99687103   -7.5244157    205.70538  0.025894433   0.02644117            2 
  663000   0.97856626   -7.5120305     206.2666  0.025925918  0.026423558            1 
  664000   0.98749554   -7.5279069    206.53701   0.02592081  0.026405932            1 
  665000   0.97039902   -7.5673076    206.50834  0.025878238  0.026388484            2 
  666000   0.99169021   -7.5978316    206.72769  0.025866828  0.026370952            2 
  667000   0.97078597   -7.5816302    206.42634  0.025790397    0.0263533            2 
  668000   0.99382928   -7.5373589    207.17848  0.025845619  0.026335702            1 
  669000   0.98970472   -7.5345052    206.85381  0.025766544  0.026317815            1 
  670000   0.99269773   -7.5551499    207.53347  0.025812621  0.026299873            1 
  671000   0.98682644   -7.5134892    207.59013  0.025781189  0.026282351            1 
  672000     1.004119   -7.5318981    208.09076  0.025804905  0.026265157            4 
  673000   0.98642058   -7.5478999    208.46367  0.025812738  0.026247668            2 
  674000    0.9917168   -7.5303916    208.83048  0.025819793  0.026230176            2 
  675000   0.98142297   -7.5834845    208.46246  0.025736107  0.026212453            3 
  676000   0.99463347   -7.5562335     208.1447  0.025658863  0.026194828            1 
  677000   0.99011797   -7.5411021    209.62889  0.025803654  0.026177656            1 
  678000   0.97317579    -7.551109    209.41802  0.025739678  0.026160576            2 
  679000   0.96648444   -7.5606688    209.21016   0.02567626  0.026143128            1 
  680000   0.98669882   -7.5601747      210.095  0.025746936  0.026125986            1 
  681000    0.9844459   -7.5680147    209.77116  0.025669501  0.026108605            3 
  682000    0.9772395   -7.5795169    210.77132  0.025754072   0.02609137            2 
  683000   0.98474193   -7.5354938    210.08978  0.025633209   0.02607401            2 
  684000   0.97657821   -7.5688795    210.05046  0.025590943  0.026056723            2 
  685000   0.97198088   -7.5924524    210.67894  0.025630041  0.026039369            4 
  686000   0.98720707    -7.568107     210.4968  0.025570554  0.026022052            2 
  687000   0.97144741   -7.5634172    210.13969  0.025490016  0.026004405            2 
  688000   0.96819355   -7.5649712    210.49138  0.025495564  0.025986937            1 
  689000   0.99689127   -7.5363326    211.65916  0.025599801  0.025969386            2 
  690000   0.95697097   -7.5739371    211.19336  0.025506445  0.025951755            1 
  691000   0.96654035     -7.57025    211.29288  0.025481533  0.025934305            1 
  692000   0.97960665   -7.5794794    211.19608  0.025433054  0.025916632            2 
  693000   0.96467573    -7.538946    212.27646  0.025526269  0.025899295            1 
  694000   0.96757347   -7.5420017    211.69487  0.025419653    0.0258819            1 
  695000   0.99087124   -7.5656183    211.72206  0.025386338   0.02586436            1 
  696000   0.98970818   -7.5744411    212.56479  0.025450765  0.025846846            1 
  697000   0.98737221   -7.5511091    212.63558  0.025422714  0.025829418            2 
  698000   0.95963732   -7.5133269    213.01609  0.025431721  0.025811979            5 
  699000   0.97707389   -7.5514984      212.857  0.025376371  0.025794733            3 
  700000   0.97856935   -7.5570757    213.40971  0.025405918  0.025777681            2 
  701000   0.98758247   -7.5761702    213.18315  0.025342743  0.025760724            2 
  702000   0.98218074   -7.5754524    213.34824  0.025326239   0.02574368            1 
  703000   0.98096773   -7.6034341    213.51374  0.025309832  0.025726159            2 
  704000    0.9881821   -7.6015742    213.73807  0.025300434  0.025708836            2 
  705000   0.96893946   -7.5813405    214.49919  0.025354514  0.025691706            2 
  706000   0.95206746   -7.6082575    214.18843  0.025281921  0.025674809            3 
  707000   0.96704893   -7.6067406    214.14357  0.025240873  0.025658015            2 
  708000   0.96791007   -7.5400034     214.8451  0.025287795   0.02564111            2 
  709000   0.95946893   -7.5511196    215.23207  0.025297611  0.025624276            3 
  710000   0.95368797   -7.5934214    215.14242  0.025251458  0.025607306            1 
  711000   0.96859843    -7.611895    215.39843  0.025245948  0.025590327            3 
  712000   0.95847492   -7.5713412    215.66754  0.025241987  0.025573621            4 
  713000   0.99371979   -7.5945936    215.65806  0.025205477  0.025556885            2 
  714000   0.95711165    -7.615785    215.79766  0.025186468   0.02554011            1 
  715000   0.97426984   -7.5980409    215.82183  0.025154059  0.025523338            1 
  716000   0.96963584    -7.600989    216.26614   0.02517064  0.025506515            3 
  717000   0.97178481   -7.5840132    216.14494  0.025121448  0.025489555            3 
  718000   0.97629353   -7.5983834    216.11379  0.025082845  0.025472709            2 
  719000   0.95485391   -7.6001782    216.27686  0.025066859  0.025455884            2 
  720000   0.95333538   -7.5518488    216.73945  0.025085584  0.025439132            1 
  721000   0.96458648   -7.5966744     216.7234  0.025048937  0.025422225            1 
  722000   0.98874772   -7.5728056    217.03309  0.025049988  0.025405274            1 
  723000   0.94579672    -7.593093    216.41493  0.024944091  0.025388105            1 
  724000   0.96668708   -7.6378693    216.81441  0.024955619  0.025370886            2 
  725000   0.95209795   -7.5875446     217.5381   0.02500438  0.025353411            2 
  726000   0.96823622   -7.6345667    216.78287  0.024883249  0.025336024            1 
  727000   0.95781307   -7.5839287    216.66425  0.024835425  0.025318672            2 
  728000    0.9575388   -7.6106199    217.02936  0.024843104  0.025301448            1 
  729000   0.96528479   -7.6033537    216.92782  0.024797418  0.025283707            2 
  730000   0.95452473    -7.657566    216.96873  0.024768119  0.025265728            1 
  731000    0.9480523   -7.5824555     218.2034  0.024874989  0.025247761            1 
  732000    0.9357874   -7.5859904    218.33589  0.024856089  0.025230312            1 
  733000   0.94694303   -7.6076121    218.10813  0.024796286  0.025212652            2 
  734000   0.93030316   -7.6133607    218.30553  0.024784915  0.025195043            2 
  735000    0.9495443   -7.6057484    218.13241  0.024731566  0.025177564            2 
  736000   0.95827429   -7.6293102    218.31895  0.024719084  0.025160028            3 
  737000   0.95941381   -7.6019261      218.781  0.024737789  0.025142587            1 
  738000   0.95113145   -7.6412942    218.76811  0.024702813   0.02512496            2 
  739000   0.95171054   -7.6120391    218.79833  0.024672793   0.02510736            3 
  740000   0.95588118   -7.5946433    219.81146  0.024753543   0.02508967            2 
  741000   0.93886006   -7.6292062    218.88735  0.024616211  0.025072182            2 
  742000    0.9451694   -7.6349937    219.92211  0.024699249  0.025054889            3 
  743000   0.95097757   -7.6072453    220.03749  0.024678947  0.025037469            1 
  744000   0.95900604   -7.6319251    219.64932  0.024602299  0.025020035            1 
  745000   0.96220994   -7.6220719    220.33362  0.024645819  0.025002499            1 
  746000   0.96330597    -7.626979    219.91664  0.024566201  0.024985184            3 
  747000   0.97442801   -7.6544029    220.50567  0.024599026  0.024967746            1 
  748000   0.94618635   -7.6061304    220.68076  0.024585646  0.024950468            1 
  749000    0.9285565   -7.6505972    220.14801  0.024493548  0.024933314            1 
  750000    0.9357105   -7.6570905    220.50181  0.024500201  0.024916102            2 
  751000   0.96073043   -7.6553221    220.30932  0.024446219  0.024898623            1 
  752000   0.96390009    -7.669002     220.5923  0.024445069  0.024881271            1 
  753000    0.9498317   -7.6536734    221.40805  0.024502883  0.024863931            2 
  754000   0.95378031   -7.6371674    221.19682   0.02444704  0.024846511            2 
  755000   0.96179567   -7.6401253    221.30153  0.024426218  0.024828757            3 
  756000   0.96442658   -7.6476748    221.26686  0.024390085  0.024811062            1 
  757000   0.94008504   -7.6658632    221.08875  0.024338259   0.02479308            1 
  758000   0.95341874   -7.6629353    221.05487  0.024302426  0.024775344            1 
  759000   0.94681244   -7.6219172    222.12386  0.024387776  0.024757755            1 
  760000   0.94847986   -7.6886902     221.2924  0.024264518  0.024740187            2 
  761000   0.95532752   -7.6310643    222.29508  0.024342431  0.024722592            2 
  762000   0.96368933    -7.657204     222.0569  0.024284438   0.02470507            1 
  763000   0.95705607   -7.6052646    222.51202  0.024302317  0.024687651            3 
  764000   0.95870972   -7.6254184     222.8233  0.024304461  0.024670197            1 
  765000   0.95012231   -7.6225934    222.76591  0.024266439  0.024652775            2 
  766000   0.94404827    -7.637141    223.40264  0.024304029  0.024635385            2 
  767000   0.94341841   -7.6210461    223.77941  0.024313277  0.024618197            2 
  768000   0.93629136   -7.6605038    223.27176  0.024226537  0.024600973            2 
  769000   0.95578905    -7.660318    223.30953  0.024199125  0.024583639            3 
  770000   0.96744156   -7.6212743    224.08511  0.024251635  0.024566453            4 
  771000   0.93859513   -7.6599358    223.88649  0.024198712  0.024549217            1 
  772000   0.93715246   -7.6387584    224.00773  0.024180454  0.024531953            3 
  773000   0.94207691   -7.6566513    223.79141  0.024125853  0.024514504            3 
  774000   0.94081293    -7.651119    223.42586  0.024055325  0.024496986            4 
  775000   0.94366254   -7.6770065    223.90986  0.024076329  0.024479483            1 
  776000   0.92542737   -7.6442993    224.76614  0.024137257  0.024462233            3 
  777000   0.93187158    -7.617926    225.20305  0.024153051  0.024445183            3 
  778000   0.94388401   -7.6356052    225.51528   0.02415545  0.024427923            2 
  779000   0.92977297   -7.6600198    224.56595  0.024022887  0.024410833            1 
  780000   0.93946582   -7.6460878    225.26261  0.024066518  0.024393681            3 
  781000    0.9312599   -7.6708577    225.70036  0.024082412  0.024376665            2 
  782000   0.93456945   -7.6407091    224.97599  0.023974423  0.024359471            1 
  783000   0.93380132   -7.6637725    225.52528  0.024002265  0.024342254            3 
  784000   0.94029012   -7.6730355    225.52638  0.023971766  0.024325164            3 
  785000   0.93711027   -7.6624777    225.61473  0.023950609  0.024307972            3 
  786000   0.93260386   -7.6715301    225.05732  0.023861039  0.024290796            1 
  787000   0.95334396   -7.6667274    226.17519  0.023949088  0.024273665            1 
  788000   0.91991989   -7.6853139    225.73868  0.023872534  0.024256375            3 
  789000   0.92681744   -7.6653401    226.45566  0.023918004   0.02423939            1 
  790000   0.95443944   -7.6274365    227.33622  0.023980614  0.024222702            3 
  791000   0.93405893   -7.6451791    227.28828  0.023945247  0.024206075            1 
  792000   0.94200865   -7.7002499    227.02738  0.023887561  0.024189458            3 
  793000   0.94093224   -7.6715203     227.2491  0.023880737   0.02417267            2 
  794000   0.94518471   -7.6719445    227.52146  0.023879246  0.024155636            3 
  795000   0.92779616   -7.6759406    227.14111  0.023809341  0.024138626            2 
  796000   0.92691053   -7.6404887    227.80644  0.023849083   0.02412169            1 
  797000   0.93419599   -7.6826021    227.96781  0.023836032  0.024104984            2 
  798000   0.92223781    -7.700406    227.59268  0.023766988  0.024088201            1 
  799000   0.90317468   -7.6677809    228.25155   0.02380596  0.024071461            2 
  800000    0.9511988   -7.6931907    228.69164  0.023822046  0.024054814            1 
  801000   0.93760646   -7.6743571    229.27555  0.023853053   0.02403827            2 
  802000   0.90283461   -7.6976368    227.86396  0.023676638  0.024021504            3 
  803000   0.93560546   -7.6396023    228.23135  0.023685279  0.024004687            2 
  804000   0.93785437   -7.6757864    228.30488  0.023663441  0.023988107            2 
  805000   0.94204451   -7.6444073    229.77942  0.023786689  0.023971655            2 
  806000   0.92389514   -7.6723052    229.46613  0.023724786  0.023955109            3 
  807000   0.94022645   -7.6840914    229.77413  0.023727192  0.023938715            1 
  808000   0.93359064   -7.6722928    230.34485  0.023756688  0.023922229            1 
  809000   0.90679996   -7.6708329    230.05592  0.023697561    0.0239059            2 
  810000   0.93552307   -7.6682545    230.44489  0.023708322    0.0238895            1 
  811000   0.96251005   -7.6713237    230.44882  0.023679493  0.023873007            2 
  812000   0.94177142   -7.6497326    230.37769   0.02364303  0.023856759            1 
  813000   0.91621462   -7.6730577    230.88584  0.023666035  0.023840478            1 
  814000   0.93996632    -7.712288    230.20502  0.023567263  0.023824326            5 
  815000   0.92087163   -7.6898909    230.99064  0.023618675  0.023807928            1 
  816000   0.92743215   -7.6854021    231.47324  0.023639016  0.023791736            2 
  817000   0.94524846   -7.6636079     231.9062  0.023654243  0.023775879            2 
  818000   0.94103275   -7.6915091    231.45622  0.023579485  0.023759934            2 
  819000   0.93717786   -7.6613717    231.89404  0.023595242  0.023744014            1 
  820000   0.92967081   -7.7195311    231.66199  0.023542885  0.023727991            1 
  821000   0.92436224   -7.7178114     231.2221   0.02346956  0.023711898            4 
  822000   0.93672451   -7.6590821    232.28967  0.023549236  0.023695691            1 
  823000    0.9438918   -7.7103672    232.07573   0.02349896  0.023679607            1 
  824000   0.91876605   -7.7041012     232.4847  0.023511803  0.023663542            2 
  825000   0.93607791    -7.755255    232.01546  0.023435905  0.023647374            1 
  826000   0.93784106   -7.7141902    232.43652  0.023450012  0.023631202            5 
  827000    0.9364415     -7.70098    233.12234  0.023490763  0.023614922            2 
  828000   0.93401981   -7.7107682    232.16495  0.023366038  0.023598846            1 
  829000   0.91391622   -7.7211211    233.15817  0.023437693  0.023582677            3 
  830000   0.93995788   -7.6862145    233.50071  0.023443846  0.023566574            2 
  831000   0.90827728   -7.6678068    233.39239  0.023404773  0.023550653            1 
  832000   0.93425484   -7.6903381    233.65045  0.023402489  0.023534694            3 
  833000   0.92654274   -7.6690088    233.71899  0.023381252  0.023518837            2 
  834000   0.91974573   -7.7013509    233.89399  0.023370703  0.023503089            2 
  835000   0.92871961   -7.6871956    234.50159  0.023403353  0.023487221            2 
  836000   0.93689954   -7.6816266     234.4764  0.023372847  0.023471391            3 
  837000   0.91202663   -7.6824425    234.31731  0.023329083  0.023455533            4 
  838000   0.93964519    -7.706566    234.74036  0.023343313   0.02343972            3 
  839000   0.91350432   -7.7006877    234.91589  0.023332925  0.023423942            2 
  840000   0.90817304   -7.7108206    234.63263  0.023277047  0.023407948            2 
  841000   0.93437328   -7.7307113     234.2839  0.023214814  0.023392171            3 
  842000   0.93497768    -7.692206    235.57603  0.023315126   0.02337631            3 
  843000   0.90040839   -7.7350662    235.06595  0.023237045  0.023360654            2 
  844000   0.90626113   -7.6857591    235.32691   0.02323528  0.023344929            2 
  845000   0.92363542   -7.7431084    234.84742  0.023160495  0.023329113            4 
  846000   0.92382962   -7.7408743    235.17057   0.02316495  0.023313308            2 
  847000   0.92832895   -7.7196988    235.24772   0.02314519  0.023297651            1 
  848000   0.91965275   -7.7250507    236.04546  0.023196292  0.023282016            1 
  849000   0.91294754   -7.6961869    236.88435   0.02325131  0.023266554            3 
  850000   0.91975856   -7.7466527    236.28604  0.023165298  0.023251008            1 
  851000   0.90448609   -7.7075567    236.11624  0.023121449  0.023235503            2 
  852000   0.93408739    -7.699263    236.92668   0.02317358  0.023220114            2 
  853000   0.90320074   -7.7657585    236.89282  0.023143104  0.023204817            2 
  854000   0.90942318   -7.6874312    237.26321  0.023152148  0.023189315            1 
  855000   0.92502704   -7.7761686    236.70213  0.023070383  0.023173855            2 
  856000   0.90097174   -7.7168801    236.87943  0.023060693  0.023158071            1 
  857000   0.92153419    -7.770319     236.2573  0.022973288  0.023142098            1 
  858000   0.90895989   -7.7302749    237.19462  0.023037551  0.023126224            2 
  859000   0.89609474   -7.7440064    237.03323  0.022995075  0.023110481            3 
  860000   0.92094121    -7.738182    237.09527  0.022974348  0.023094593            2 
  861000    0.9067509   -7.7094702    237.04256  0.022942562  0.023078715            2 
  862000   0.89557309   -7.7282975    237.70107  0.022979608  0.023062851            1 
  863000   0.89778678    -7.714996    237.52638  0.022936112  0.023046943            5 
  864000   0.90066068   -7.7708981    237.45329  0.022902517   0.02303111            1 
  865000   0.92613257   -7.7213025    238.33684   0.02296116   0.02301545            2 
  866000   0.91163469   -7.7192893    237.46852   0.02285109  0.022999646            1 
  867000   0.90781377   -7.6949113    238.76608   0.02294945   0.02298411            2 
  868000   0.89841023   -7.7218405    238.12933  0.022861879  0.022968649            2 
  869000      0.90164   -7.7056395    238.50754  0.022871839  0.022953138            2 
  870000   0.90702479   -7.6991871    238.51483  0.022846248  0.022937626            3 
  871000   0.90713389   -7.7489988    238.63585  0.022831597  0.022922133            2 
  872000   0.91315427    -7.728506    239.11192  0.022850909  0.022906533            1 
  873000   0.89388007   -7.7705326    238.29653  0.022746901  0.022890786            2 
  874000   0.92727065   -7.7464339    238.66913  0.022756401  0.022875071            2 
  875000   0.91020586   -7.7461531    238.24306  0.022689815  0.022859477            2 
  876000   0.89564761   -7.7418605    239.29322  0.022763815   0.02284393            3 
  877000   0.90225796   -7.7697274    239.02619  0.022712485  0.022828197            2 
  878000   0.90051108   -7.7964932    239.11127  0.022694691  0.022812311            2 
  879000    0.9096802   -7.7777473    239.50937  0.022706614  0.022796571            2 
  880000   0.88834942   -7.8040335    239.40431  0.022670863  0.022780727            2 
  881000   0.89355451   -7.7420428    239.05931  0.022612496  0.022764777            1 
  882000   0.89159783   -7.7806679    239.17288  0.022597589  0.022748751            3 
  883000    0.8816937   -7.7245225    239.22256  0.022576685  0.022732773            1 
  884000   0.87883068   -7.7291828     240.3836  0.022660596  0.022716803            4 
  885000   0.89099371   -7.7822529    239.19422  0.022522996  0.022700692            2 
  886000   0.90917196   -7.7601231    239.46618  0.022523155   0.02268457            2 
  887000   0.89621625   -7.7734564     239.6962  0.022519372  0.022668471            1 
  888000   0.89490471   -7.7958705    240.08974  0.022530944  0.022652172            1 
  889000   0.90143621   -7.7536807    239.78567  0.022477097  0.022636014            1 
  890000   0.89530584   -7.7551434    239.58292  0.022432857  0.022619959            2 
  891000   0.89276744   -7.7597946    240.22964  0.022468167  0.022603972            2 
  892000   0.90770606   -7.7608712    239.53212  0.022377814  0.022587996            4 
  893000   0.90178584   -7.7596878    240.92605  0.022482834  0.022572163            1 
  894000   0.88111867    -7.745818    241.04597  0.022468864  0.022556293            2 
  895000   0.89783098   -7.7811501    240.77771  0.022418781  0.022540424            3 
  896000     0.911525   -7.7818426    241.15781  0.022429112  0.022524613            6 
  897000   0.89820374    -7.768193    241.31415  0.022418631  0.022508778            5 
  898000     0.887033   -7.7826342    241.18645  0.022381816  0.022493067            2 
  899000   0.88050929   -7.7560705    241.14585  0.022353156  0.022477423            1 
  900000   0.88479627   -7.7651158     241.9164  0.022399667  0.022461709            1 
  901000   0.90474158   -7.7871803    241.34969  0.022322391   0.02244606            3 
  902000   0.89490532   -7.7554424     242.1387  0.022370538  0.022430478            3 
  903000   0.88866733   -7.7610506    241.76603  0.022311372  0.022414721            4 
  904000   0.87444996   -7.8013608    240.86334  0.022203479  0.022398723            2 
  905000   0.90418153   -7.8187616    241.13799  0.022204234  0.022382678            2 
  906000   0.89874765   -7.7433271    241.77688  0.022238491  0.022366738            3 
  907000   0.90690238   -7.7945324    240.94011  0.022137092  0.022350658            1 
  908000   0.90715614   -7.7809208    242.68172  0.022272551  0.022334514            3 
  909000   0.90386703    -7.756979    241.76784  0.022164268   0.02231857            1 
  910000   0.87832599   -7.7800935    242.84135  0.022238219  0.022302557            2 
  911000   0.89193564   -7.7880991    241.65452  0.022105243  0.022286477            2 
  912000   0.90118443   -7.7780715    242.19487  0.022130379  0.022270288            1 
  913000   0.91062705   -7.7784692    242.36001  0.022121213  0.022254114            2 
  914000   0.88398602   -7.7430364    242.89947  0.022146195  0.022237998            1 
  915000   0.90665501   -7.7659526    242.42806  0.022079059  0.022222023            1 
  916000   0.91192748   -7.7842702    242.95616  0.022102999  0.022206031            1 
  917000   0.89105191   -7.7932244    242.68718  0.022054451  0.022189863            3 
  918000   0.88925342   -7.7555929      242.355  0.022000272  0.022173682            4 
  919000   0.87995921   -7.7745692    242.51444  0.021990791  0.022157651            1 
  920000   0.88265891   -7.7856964    242.76615  0.021989687  0.022141477            3 
  921000   0.87933145   -7.7646462    243.21558  0.022006477  0.022125372            1 
  922000   0.90103261    -7.800399    243.84972  0.022039924  0.022109388            3 
  923000   0.88954591   -7.8143964    243.06783  0.021945453  0.022093296            2 
  924000   0.87776014    -7.795519    242.72442  0.021890731   0.02207716            1 
  925000   0.89317935   -7.7853406    243.05458  0.021896809  0.022061001            1 
  926000   0.90511825   -7.7977301    244.09011  0.021966352  0.022044889            1 
  927000   0.89014083   -7.8139502    243.33585  0.021874852  0.022028711            3 
  928000   0.88108607   -7.7702812    243.52794  0.021868529  0.022012488            1 
  929000   0.89570196   -7.7941742    243.66575  0.021857351  0.021996209            1 
  930000    0.8891341   -7.8200833    243.07085  0.021780542  0.021979916            3 
  931000   0.87787685   -7.8315876    243.57921  0.021802651  0.021963623            4 
  932000    0.8989026   -7.8050118    243.88044  0.021806191  0.021947479            2 
  933000   0.89157065   -7.8232777    243.82511  0.021777877  0.021931228            1 
  934000   0.88899181    -7.809711    243.66416    0.0217402  0.021914943            1 
  935000   0.87293038   -7.8157162    243.91552  0.021739351  0.021898663            2 
  936000   0.89025979   -7.8143864    243.89167  0.021714002  0.021882448            2 
  937000   0.86441426   -7.8052715    244.02015  0.021702254  0.021866324            4 
  938000   0.89123909    -7.813144    243.84805  0.021663828  0.021850128            2 
  939000   0.88351336   -7.8207454    244.52941  0.021701226  0.021833917            3 
  940000   0.88325728   -7.8205441    244.19246  0.021648267  0.021817737            2 
  941000   0.87297619   -7.8477176    244.22761  0.021628375  0.021801591            3 
  942000   0.86035705   -7.7983339    245.15778  0.021687701  0.021785459            1 
  943000   0.89869284   -7.8011417    245.37975  0.021684319  0.021769509            5 
  944000   0.85981438   -7.8022692    245.01586  0.021629225   0.02175365            1 
  945000   0.87924399   -7.8408083    245.48548   0.02164775  0.021737705            1 
  946000   0.87377025   -7.8208212    244.39658  0.021528945  0.021721694            3 
  947000   0.87272469   -7.8249485    245.91782  0.021640076   0.02170575            3 
  948000   0.89176656    -7.854877    245.11348  0.021546544  0.021689766            2 
  949000   0.87015477   -7.8067979    245.87986  0.021591136  0.021673975            1 
  950000   0.88707347   -7.8557708      246.118  0.021589298  0.021658252            1 
  951000   0.88222422   -7.8025906    246.05026  0.021560661  0.021642499            2 
  952000    0.8574698   -7.8600404     246.2886  0.021558876  0.021626678            2 
  953000   0.86907134   -7.8382792    246.29548  0.021536856  0.021610955            2 
  954000   0.88435961   -7.7808503    247.21436  0.021594546  0.021595368            2 
  955000   0.86678899   -7.8344561    246.97119  0.021550714  0.021579873            2 
  956000   0.85753611   -7.8559048    246.53573  0.021490213  0.021564262            1 
  957000   0.89271018   -7.8133589    247.01524  0.021509512  0.021548693            6 
  958000   0.88730461   -7.8754329    246.58992  0.021450063  0.021532968            4 
  959000   0.86536952    -7.852082    246.38088  0.021409531  0.021517281            3 
  960000   0.87651146   -7.8258384    246.78436  0.021422254  0.021501606            2 
  961000    0.8731039   -7.8199389    246.97606  0.021416585   0.02148597            2 
  962000   0.87037985   -7.8277297    247.13673  0.021408241  0.021470387            1 
  963000   0.88391327    -7.838782    247.08596  0.021381617  0.021454678            1 
  964000   0.85816992   -7.8295676    247.05942  0.021357142  0.021439015            1 
  965000   0.86189615   -7.8489896    247.24075   0.02135067  0.021423315            3 
  966000   0.88020566   -7.8339993    247.43647  0.021345451   0.02140777            2 
  967000    0.8705763   -7.8270902    248.09105  0.021379787  0.021392165            1 
  968000   0.84244598   -7.8094417    246.95417  0.021259828  0.021376621            1 
  969000   0.87510223   -7.8634891    246.84048  0.021228112  0.021360734            1 
  970000   0.86040977   -7.8521147    248.08758  0.021313366  0.021344912            3 
  971000   0.87340358   -7.8470286    246.97674  0.021196082  0.021328929            1 
  972000   0.85190367   -7.8153256    248.16367  0.021276034  0.021312933            1 
  973000   0.85507985   -7.8501209    247.91115  0.021232541  0.021296998            2 
  974000    0.8584624    -7.848434    248.16737  0.021232663  0.021281228            3 
  975000   0.87171061   -7.8894914    247.38504   0.02114402  0.021265296            2 
  976000   0.86651666   -7.8158312    247.62708  0.021143023  0.021249313            2 
  977000   0.85770785   -7.8587646    247.93077  0.021147285  0.021233382            2 
  978000    0.8751649   -7.8561126    247.80372  0.021114837  0.021217475            2 
  979000   0.88897397   -7.8697839    248.01464  0.021111222  0.021201407            1 
  980000   0.87836044    -7.862003    247.42627  0.021039649  0.021185315            1 
  981000   0.83844036   -7.8602453    248.03596  0.021069993  0.021169262            2 
  982000   0.85943426   -7.8447227    248.06323  0.021050851  0.021153078            1 
  983000   0.87830452   -7.8691598    247.43065   0.02097581  0.021137061            2 
  984000   0.85963815   -7.8457063    247.95943  0.020999274  0.021120935            3 
  985000   0.86488066   -7.8483538    248.22534  0.021000452  0.021104807            2 
  986000   0.86666085   -7.8435787    247.89688  0.020951393  0.021088748            2 
  987000   0.86998603   -7.8001932    248.97426  0.021021129  0.021072823            2 
  988000   0.84256171   -7.8942464      248.659  0.020973263  0.021056862            3 
  989000   0.86984527   -7.8595839    248.29794  0.020921633  0.021040873            1 
  990000    0.8447492   -7.8395145    248.35684  0.020905458   0.02102486            3 
  991000   0.85883523   -7.8733871     247.4945  0.020811848  0.021008753            4 
  992000   0.84905391   -7.8534999     247.7446  0.020811879  0.020992682            2 
  993000   0.85913062   -7.9106715    247.60447   0.02077916  0.020976423            2 
  994000   0.87979612   -7.8564212     248.2003  0.020808208  0.020960036            3 
  995000   0.85496358   -7.8549979    248.91264  0.020846955   0.02094378            2 
  996000    0.8497603   -7.8847754    248.69679  0.020807965   0.02092759            1 
  997000   0.84605295   -7.8698664    248.93427  0.020806944  0.020911584            2 
  998000   0.84308487   -7.8692087    249.77845  0.020856584  0.020895559            2 
  999000   0.85927234    -7.891555    249.30393  0.020796124  0.020879584            2 
 1000000   0.84947284   -7.8774797    249.71489  0.020809575  0.020863641            2 
 1001000   0.85362465   -7.9112004    248.85106  0.020716872  0.020847799            1 
 1002000   0.85617037   -7.8904592    249.17251   0.02072293  0.020831842            4 
 1003000   0.86926132   -7.8828272     250.0447  0.020774734  0.020815992            4 
 1004000   0.84913526   -7.8743373    249.60852  0.020717839   0.02080021            2 
 1005000   0.85193711   -7.8740786    249.80986  0.020713919  0.020784311            1 
 1006000     0.850327   -7.8959789     249.5236  0.020669616  0.020768447            3 
 1007000   0.85036794   -7.9196744    249.44338  0.020642451  0.020752511            2 
 1008000   0.85108057   -7.8877333    249.68813  0.020642206  0.020736456            2 
 1009000   0.86531962   -7.8769083    249.61669  0.020615848  0.020720532            6 
 1010000   0.86506889   -7.8967716    250.54331   0.02067189  0.020704639            3 
 1011000   0.85441796   -7.8951005    249.59502  0.020573279  0.020688773            4 
 1012000   0.84823835   -7.8799639    249.79218  0.020569185  0.020672908            3 
 1013000   0.84030018   -7.8794336    250.74874   0.02062757  0.020657005            3 
 1014000   0.85541748   -7.8980384    249.84459  0.020532922  0.020641117            1 
 1015000   0.86552688   -7.8659004    250.13647  0.020536656  0.020625233            1 
 1016000   0.84575976   -7.8611702    250.69478  0.020562236  0.020609403            2 
 1017000    0.8448051   -7.8919215     250.5452   0.02052976  0.020593715            1 
 1018000   0.84614703   -7.8432749    250.55489  0.020510387  0.020577945            1 
 1019000   0.85065431   -7.9336332    249.83121  0.020431077   0.02056207            2 
 1020000   0.81607307   -7.8936961    250.68972  0.020481186  0.020546254            2 
 1021000   0.84576534    -7.922451    250.01775  0.020406281  0.020530369            2 
 1022000   0.84571027   -7.8948208    250.72804   0.02044423  0.020514433            3 
 1023000   0.85386298   -7.8874058    249.82933  0.020351037  0.020498556            4 
 1024000   0.81973567   -7.8874163     251.2181  0.020444181  0.020482697            1 
 1025000   0.85689761   -7.8746753    251.15961   0.02041948  0.020466991            3 
 1026000   0.86091813   -7.8999785     250.8261   0.02037249    0.0204512            2 
 1027000    0.8431957   -7.8720719    251.25226  0.020387233  0.020435444            1 
 1028000   0.84196492   -7.9064382    251.02447  0.020348936  0.020419563            2 
 1029000   0.83567205   -7.9354551    251.39578  0.020359231  0.020403736            1 
 1030000   0.83953735   -7.9028117    251.75626   0.02036863  0.020387957            1 
 1031000   0.85604186   -7.9153728    250.76362  0.020268641  0.020372269            5 
 1032000   0.83484731    -7.930031    251.00874  0.020268794  0.020356492            1 
 1033000   0.83830912   -7.9282608    250.82292  0.020234182   0.02034074            1 
 1034000   0.83891539   -7.8915289      252.193  0.020325032  0.020325134            4 
 1035000   0.82023453   -7.8986777    251.87123  0.020279487  0.020309596            1 
 1036000   0.85604592   -7.9006372    251.29134  0.020213267  0.020294021            2 
 1037000   0.84715267   -7.8997851    252.45431  0.020287232   0.02027847            2 
 1038000   0.82811759    -7.906144    252.08409  0.020237964  0.020262987            3 
 1039000   0.84131871   -7.9198912    252.06381   0.02021686  0.020247597            2 
 1040000   0.82983947   -7.9230368    252.05329  0.020196578  0.020232049            1 
 1041000   0.82270983   -7.9256072     252.3631  0.020201977  0.020216448            2 
 1042000   0.81094733   -7.9163049    251.74695  0.020133314  0.020200772            2 
 1043000   0.82623288   -7.9567105    252.23153  0.020152727  0.020185118            2 
 1044000   0.83315577   -7.9318244    252.35221  0.020143056  0.020169577            2 
 1045000   0.83890965   -7.9566436    251.11748  0.020025317  0.020153957            2 
 1046000   0.84489379   -7.9618774    251.75421    0.0200569  0.020138169            2 
 1047000   0.85347631   -7.9415467    252.19805   0.02007307   0.02012244            2 
 1048000   0.83211122   -7.9394473    252.38518  0.020068796  0.020106729            2 
 1049000   0.83891774   -7.8902974    253.47934  0.020136586  0.020091193            1 
 1050000   0.81483081   -7.9093038     253.3685  0.020108611  0.020075707            1 
 1051000   0.83530868   -7.9117408    253.39272  0.020091398  0.020060295            3 
 1052000   0.82167787   -7.9351838    253.08568  0.020047978  0.020044854            3 
 1053000   0.83515705   -7.9053807    253.39548  0.020053457   0.02002949            2 
 1054000   0.82701103   -7.9249946    253.64615   0.02005425  0.020014162            4 
 1055000   0.82328527   -7.9296287    253.26921  0.020005467  0.019998799            3 
 1056000   0.83782563   -7.9543726    252.85552  0.019953876  0.019983256            2 
 1057000   0.83472793   -7.9180528     252.8784  0.019936802  0.019967826            1 
 1058000   0.83575019   -7.9332438    253.22552  0.019945299  0.019952432            2 
 1059000   0.84223224   -7.9298092    253.69872  0.019963702  0.019936992            4 
 1060000   0.83996069   -7.9663438    252.75684   0.01987082  0.019921547            1 
 1061000   0.84616456   -7.9284918    253.97963  0.019948133  0.019906185            1 
 1062000   0.83534394   -7.9156532    254.10409  0.019939115   0.01989095            2 
 1063000   0.80730768   -7.9679146     253.6638  0.019885842  0.019875654            4 
 1064000   0.85300253   -7.9555768    254.10414   0.01990164  0.019860316            2 
 1065000   0.82635733   -7.9612617     253.9946  0.019874382  0.019844973            2 
 1066000   0.81945617   -7.9692997    253.94245  0.019851661  0.019829584            3 
 1067000    0.8285193   -7.9331677    254.56678  0.019881816  0.019814349            1 
 1068000   0.82646702   -7.9205506    254.21134  0.019835467  0.019799113            1 
 1069000   0.84636559   -7.9422418    254.30965  0.019824575  0.019783886            4 
 1070000   0.81450166    -7.937101    254.14726    0.0197934  0.019768639            1 
 1071000    0.8203841   -7.9292686    254.29685  0.019786559   0.01975342            2 
 1072000   0.85337482   -7.9435724    254.31844   0.01976978   0.01973815            4 
 1073000   0.81687842   -7.9591653    254.04936  0.019730457  0.019722991            3 
 1074000   0.82003483   -7.9703213    253.95218  0.019704545  0.019707684            1 
 1075000   0.80672285   -7.9717655    254.38571  0.019719822  0.019692441            1 
 1076000   0.82723164   -7.9642918    254.33871  0.019697855  0.019677251            3 
 1077000   0.82779069   -7.9514662    254.80718  0.019715814  0.019662075            1 
 1078000   0.81560431   -7.9372499    254.70449  0.019689586  0.019646921            2 
 1079000   0.82856969   -7.9426409    255.20209  0.019709769  0.019631736            2 
 1080000   0.82563857   -7.9386772    255.46011  0.019711428  0.019616579            1 
 1081000   0.82130105   -7.9591253    254.83314  0.019644861  0.019601375            3 
 1082000   0.81376327   -7.9374575    255.12313   0.01964904  0.019586222            2 
 1083000   0.82083276   -7.9681767    254.93069  0.019616089  0.019571073            1 
 1084000   0.82600659   -7.9653011    255.10996  0.019611774  0.019555921            1 
 1085000   0.81865765   -7.9728264    254.71215  0.019563145  0.019540687            2 
 1086000   0.82658129   -7.9486694    255.56677   0.01961071  0.019525633            2 
 1087000   0.81325178   -7.9716577    255.09387  0.019556414  0.019510648            7 
 1088000   0.80722526   -7.9474034    255.64953     0.019581  0.019495699            1 
 1089000   0.83197171   -7.9671453    255.35943   0.01954082  0.019480725            2 
 1090000   0.79962522   -7.9604069    255.93826  0.019567145  0.019465689            3 
 1091000   0.81277148   -7.9658059    255.71867  0.019532438  0.019450604            4 
 1092000   0.83319535   -7.9698631    255.36683  0.019487701  0.019435529            1 
 1093000   0.80962789    -7.991049    255.76422  0.019500169  0.019420417            2 
 1094000   0.81881244    -7.969874    256.08272  0.019506606  0.019405348            2 
 1095000   0.79334179   -7.9268151    256.58134  0.019526738  0.019390231            1 
 1096000   0.81057223   -7.9808531    255.42002  0.019420622  0.019375205            1 
 1097000   0.79827082   -7.9641537    255.76219  0.019428911  0.019360119            3 
 1098000   0.80321368   -7.9877666    255.37011   0.01938146  0.019344987            2 
 1099000   0.80673529    -7.987933    255.57271  0.019379187  0.019329767            2 
 1100000   0.80968583   -7.9765123    255.74554  0.019374662  0.019314519            3 
 1101000   0.82007397    -7.969005    255.63502  0.019348699  0.019299304            3 
 1102000   0.82359319     -7.97803    255.85125  0.019347493  0.019284172            2 
 1103000   0.79843488   -8.0056127    255.51602  0.019304626  0.019268993            1 
 1104000    0.8039909   -7.9779603    255.37989  0.019276864  0.019253852            1 
 1105000   0.81894201   -7.9744293    256.05133  0.019310055  0.019238816            2 
 1106000   0.80798487   -7.9743856    256.68639  0.019340445  0.019223707            3 
 1107000    0.8108024   -7.9480593    256.61628  0.019317696  0.019208694            2 
 1108000   0.82118448   -7.9845553    255.93032   0.01924867  0.019193654            1 
 1109000    0.8320454   -7.9815368    255.65541  0.019210656  0.019178532            3 
 1110000   0.81637782    -7.977831     256.3775   0.01924756   0.01916345            2 
 1111000   0.81107214   -7.9594262    256.13159   0.01921179   0.01914844            4 
 1112000   0.82668616   -8.0281048    256.42388  0.019216418  0.019133432            2 
 1113000   0.81481039   -8.0121728    256.69756  0.019219643  0.019118337            2 
 1114000   0.79804047   -8.0030328    255.74547  0.019131169  0.019103276            3 
 1115000   0.80740644   -7.9656939    257.20604  0.019223172  0.019088283            1 
 1116000   0.81005333   -8.0186318    255.81498  0.019102074  0.019073266            1 
 1117000   0.79745153   -7.9793888    256.63371  0.019146054  0.019058276            2 
 1118000   0.81431123   -7.9844298     256.9189  0.019150187  0.019043377            3 
 1119000   0.80792846   -7.9738087    256.57203  0.019107241  0.019028382            1 
 1120000   0.80985333    -8.004228    256.36659  0.019074895   0.01901339            1 
 1121000     0.821132   -7.9261631     257.0197   0.01910643   0.01899856            5 
 1122000   0.79949424   -8.0024927    256.64385  0.019061486  0.018983594            2 
 1123000   0.80631493   -7.9901495    256.71379  0.019049702  0.018968537            1 
 1124000   0.81447658    -8.018561    256.71783  0.019033054   0.01895348            2 
 1125000   0.81980969   -8.0039612    256.78321  0.019020979  0.018938432            2 
 1126000   0.78147931   -8.0109277    256.77153  0.019003222  0.018923358            8 
 1127000   0.80063428   -8.0015654    256.43837  0.018961725  0.018908364            1 
 1128000    0.7930858   -8.0160312    256.92949  0.018981198  0.018893421            2 
 1129000   0.81473752   -8.0262685    256.51199  0.018933569  0.018878455            2 
 1130000   0.81345237   -7.9744739    257.96952  0.019024301  0.018863544            1 
 1131000    0.8054641   -8.0238053    256.76915  0.018919035  0.018848626            3 
 1132000   0.80420595   -8.0363557    257.14153  0.018929736  0.018833745            4 
 1133000   0.79437153   -8.0150628    257.58636  0.018945746  0.018818873            2 
 1134000   0.78921152   -8.0379805    257.48628  0.018921684  0.018803991            2 
 1135000   0.80131701   -8.0173473    257.69435   0.01892029  0.018789175            2 
 1136000   0.81503951   -8.0162479    257.20175    0.0188675  0.018774312            2 
 1137000   0.80014037   -8.0419336    257.48615   0.01887175  0.018759485            3 
 1138000   0.79920857   -8.0376727    257.57798  0.018861891  0.018744617            2 
 1139000   0.81278301   -8.0172936    257.16989  0.018815473  0.018729689            2 
 1140000    0.8014797   -8.0416795    256.83069  0.018774174  0.018714907            2 
 1141000   0.79988311   -7.9977716    257.78377  0.018827328  0.018700123            1 
 1142000   0.79125781   -8.0382735    257.93102  0.018821586  0.018685281            2 
 1143000   0.80207035   -8.0390669    257.15193  0.018748318  0.018670353            1 
 1144000   0.79915491   -8.0242071    257.80153  0.018779249    0.0186554            1 
 1145000   0.78871381   -8.0515446    257.95916  0.018774321  0.018640562            3 
 1146000   0.78575328   -8.0502739    257.91126  0.018754455  0.018625763            1 
 1147000   0.80077378   -8.0215773    258.24908  0.018762648  0.018610908            1 
 1148000   0.80225198   -8.0380607    257.03109  0.018657889  0.018596038            2 
 1149000    0.7947453   -8.0311034    257.57322   0.01868097  0.018581155            1 
 1150000   0.80000967   -8.0548926    258.11432  0.018703936  0.018566322            1 
 1151000   0.79596288   -8.0263533    258.17409  0.018692013  0.018551489            2 
 1152000   0.77234948   -8.0268221    258.26531  0.018682386  0.018536611            6 
 1153000   0.78499512   -8.0407466     257.7412  0.018628303  0.018521821            4 
 1154000   0.80349736   -8.0625459    257.34652   0.01858366  0.018506914            2 
 1155000   0.79458603   -8.0328443    257.84546  0.018603569  0.018491947            1 
 1156000   0.78781104   -8.0432229     257.5673  0.018567424  0.018477071            1 
 1157000   0.79369627   -8.0397573    257.73615  0.018563537  0.018462168            2 
 1158000   0.80020495    -8.041521    258.32528  0.018589902  0.018447341            3 
 1159000    0.7880003    -7.990286    258.40515  0.018579606  0.018432529            1 
 1160000   0.79684992   -8.0166269    258.87686  0.018597476  0.018417802            1 
 1161000   0.79017551   -8.0418809    257.90648  0.018511806  0.018403119            2 
 1162000   0.78186199   -8.0184434    258.52099  0.018539945  0.018388437            2 
 1163000   0.80169862   -7.9976842    257.54301  0.018453927  0.018373756            2 
 1164000   0.79116483   -8.0205612    258.36172  0.018496687  0.018359087            1 
 1165000   0.78417933   -8.0267098    258.64314   0.01850094  0.018344408            2 
 1166000   0.78669008   -8.0532808    258.02018   0.01844055  0.018329672            1 
 1167000   0.78811442   -8.0505477    258.42595  0.018453724  0.018314981            2 
 1168000   0.79293845   -8.0517241    258.46774  0.018440906   0.01830038            2 
 1169000   0.77603192   -8.0686649    258.52433  0.018429165  0.018285697            2 
 1170000   0.78826642   -8.0804545    258.54348  0.018414778   0.01827102            2 
 1171000   0.77812665   -8.0663658    258.44019  0.018391701  0.018256254            2 
 1172000   0.77844714   -8.0630934    258.62173  0.018388917  0.018241539            3 
 1173000   0.78680888   -8.0609095    258.43786  0.018360178  0.018226856            5 
 1174000   0.79645625   -8.0623329    258.47679  0.018347302  0.018212183            1 
 1175000   0.77930724   -8.0552101    258.73643  0.018350101  0.018197555            3 
 1176000   0.78365398   -8.0575767    259.15261  0.018363989  0.018182976            3 
 1177000   0.78585492   -8.0614463    258.58742   0.01830837  0.018168322            1 
 1178000   0.78173413   -8.0736029    258.43465  0.018282021  0.018153552            2 
 1179000   0.77256497   -8.0527666    258.77611   0.01829065  0.018138793            2 
 1180000   0.77605665   -8.0789162    258.75452  0.018273624  0.018124078            1 
 1181000   0.77708418   -8.0832549    258.65549  0.018251164   0.01810941            3 
 1182000   0.77184133    -8.063544    259.40966  0.018288893  0.018094714            4 
 1183000   0.79601165   -8.0685367    258.84942  0.018233969  0.018080112            1 
 1184000   0.79560896   -8.0523216    259.07331  0.018234326  0.018065511            1 
 1185000    0.7739711   -8.0715067    258.97266  0.018211861  0.018050879            1 
 1186000   0.78066622   -8.0692263    258.86669  0.018189059  0.018036259            1 
 1187000   0.77073064    -8.064918    258.99126  0.018182481  0.018021576            2 
 1188000    0.7828999   -8.0473895    259.33716  0.018191439  0.018007007            2 
 1189000   0.76982131   -8.0896039    258.11933  0.018090786  0.017992414            2 
 1190000   0.79810254   -8.0816287    259.09517  0.018143919  0.017977756            2 
 1191000   0.76432251   -8.0805985    259.25203  0.018139661  0.017963151            2 
 1192000   0.77417171   -8.1000446    259.07236  0.018111882  0.017948507            2 
 1193000   0.76311275   -8.1231545    259.27939  0.018111162   0.01793384            2 
 1194000   0.78615148   -8.0707121     259.5949  0.018118013  0.017919277            2 
 1195000   0.79042695   -8.0968788    259.25382  0.018079067   0.01790476            2 
 1196000   0.77386353   -8.0855952    259.97436  0.018114156    0.0178903            1 
 1197000   0.77440657   -8.0927712    260.06423  0.018105279  0.017875845            2 
 1198000    0.7821114   -8.0910131       258.62  0.017989705  0.017861349            3 
 1199000   0.76253747   -8.0629864     260.2455  0.018087677  0.017846911            3 
 1200000   0.77966212   -8.0847787    259.83387  0.018044019  0.017832517            2 
 1201000   0.76511592   -8.0664709    260.17909  0.018052948  0.017818106            1 
 1202000   0.77473684   -8.0922137    259.54646   0.01799407  0.017803672            1 
 1203000   0.77959308   -8.0607878    259.69544  0.017989432  0.017789298            1 
 1204000   0.76876303   -8.1184938    259.31541  0.017948187  0.017774906            2 
 1205000   0.78270113    -8.071808    260.10929  0.017988194   0.01776057            4 
 1206000   0.77941979   -8.0767965    260.34415  0.017989507  0.017746271            2 
 1207000   0.78325415   -8.0932482    259.59015  0.017922545  0.017731903            2 
 1208000   0.77404203   -8.1021762    259.80114  0.017922264   0.01771752            1 
 1209000   0.76570094   -8.0661541    260.04131  0.017923994  0.017703136            3 
 1210000   0.76137935   -8.1008659    259.92297  0.017901031  0.017688786            2 
 1211000   0.74648172   -8.1066628    259.70761  0.017871429  0.017674378            6 
 1212000   0.75812183   -8.1091428    259.75792  0.017860143   0.01766005            4 
 1213000   0.75926352   -8.1056269    260.29576  0.017882369  0.017645691            5 
 1214000   0.77822394   -8.1180452    259.79499  0.017833264  0.017631361            5 
 1215000   0.78815317   -8.1145416    260.05431  0.017836373  0.017617064            5 
 1216000   0.74828294   -8.0913063    260.49805  0.017852114  0.017602795            3 
 1217000   0.77364138   -8.0684479    260.17869  0.017815577  0.017588589            2 
 1218000    0.7871846   -8.0744103    260.81962  0.017844801  0.017574417            3 
 1219000   0.76122203   -8.0825759    259.87852  0.017765827  0.017560209            4 
 1220000   0.75344769   -8.0973326    261.00496  0.017828208  0.017545943            1 
 1221000   0.74977193   -8.1081857    260.65951  0.017790029  0.017531695            2 
 1222000    0.7804443   -8.1057594    260.08254  0.017736125  0.017517435            1 
 1223000   0.76552932   -8.1257338    260.18929  0.017728897  0.017503167            4 
 1224000   0.76875246   -8.0906023    260.66086  0.017746518  0.017488987            2 
 1225000   0.78150521   -8.1086785    260.56454  0.017725479  0.017474784            1 
 1226000   0.75941717   -8.0948301    260.20189  0.017686371  0.017460563            7 
 1227000   0.75095709   -8.1312212    260.22988  0.017673857  0.017446287            2 
 1228000   0.75941637   -8.1301572    260.13261  0.017652864  0.017432021            1 
 1229000   0.75050269   -8.1405871    260.43488  0.017658996  0.017417681            1 
 1230000   0.76628579   -8.1267929     260.1563  0.017625766  0.017403426            3 
 1231000   0.76164221   -8.1357054    259.92394  0.017595718   0.01738914            2 
 1232000   0.75962395    -8.117859    260.17908  0.017598693  0.017374919            3 
 1233000   0.75320725   -8.0894067    260.42027  0.017600721  0.017360742            3 
 1234000   0.76387746   -8.0937888    260.85331  0.017615701  0.017346634            2 
 1235000   0.76218148   -8.1266963    260.62498  0.017586031  0.017332502            1 
 1236000   0.75513166   -8.1147127    260.64024  0.017572832   0.01731837            1 
 1237000   0.75860709   -8.1283819    260.51353   0.01755009  0.017304303            2 
 1238000   0.76298729   -8.1114564    260.87626   0.01756033  0.017290206            2 
 1239000   0.77073234   -8.1178285    261.35051  0.017578054  0.017276188            1 
 1240000   0.76091103   -8.1262634      260.898  0.017533468  0.017262147            2 
 1241000   0.76248629    -8.139989    260.44267  0.017488764  0.017248107            2 
 1242000   0.74800174   -8.1499298    260.38554  0.017470849  0.017234012            4 
 1243000   0.74658736   -8.1289322    260.77817  0.017483117  0.017219874            2 
 1244000   0.76566997   -8.1157113    260.25708  0.017434156  0.017205711            2 
 1245000   0.75869413   -8.1148831    260.51367  0.017437327  0.017191575            2 
 1246000   0.75468743   -8.1262605     260.7804  0.017441172  0.017177426            3 
 1247000   0.75843515   -8.1283396    260.80163  0.017428604   0.01716326            4 
 1248000   0.74727101   -8.1550006    260.90748  0.017421707  0.017149089            2 
 1249000   0.75596652   -8.1376567    260.71663  0.017395025  0.017134905            2 
 1250000   0.75140438   -8.1403725    260.73142  0.017382095  0.017120742            4 
 1251000     0.772071    -8.125518    260.47723  0.017351267  0.017106616            2 
 1252000   0.75057116   -8.1602217    260.46897  0.017336859  0.017092511            1 
 1253000   0.77188567   -8.1417484    261.47163  0.017389707  0.017078398            4 
 1254000   0.75409722   -8.1367936    260.66681  0.017322355  0.017064318            1 
 1255000   0.75253551   -8.1332526    260.31666  0.017285303  0.017050286            1 
 1256000   0.77654647    -8.142383    260.45272  0.017280568  0.017036281            2 
 1257000   0.73636054   -8.1495352    260.49202  0.017269426  0.017022207            2 
 1258000   0.74603299   -8.1341447    261.28882  0.017308481  0.017008161            2 
 1259000   0.73646295   -8.1276602    260.74181  0.017258526  0.016994098            1 
 1260000   0.75029995   -8.1439173    261.25843  0.017278997  0.016980019            2 
 1261000   0.73435225   -8.1404153    260.85678  0.017238751  0.016965984            4 
 1262000   0.74458356    -8.136377    260.62128   0.01720954  0.016952039            2 
 1263000   0.75850563   -8.1178403    261.32235  0.017242171  0.016938025            1 
 1264000   0.75045339    -8.123258    261.13625  0.017216261  0.016924046            1 
 1265000   0.74674727   -8.1483811    261.09199  0.017199736   0.01691011            1 
 1266000   0.74953279   -8.1588014    261.05348  0.017183615  0.016896172            3 
 1267000   0.74101435   -8.1281207    260.90587  0.017160344  0.016882232            4 
 1268000   0.74395956    -8.164995    260.93173   0.01714851  0.016868256            2 
 1269000   0.74487532   -8.1407839    260.89829  0.017132801  0.016854253            1 
 1270000   0.76483514   -8.1569358    260.87156  0.017117557  0.016840309            1 
 1271000      0.75493   -8.1333003    261.17104  0.017123724  0.016826439            2 
 1272000   0.73861036   -8.1510806    261.49299  0.017131354  0.016812558            4 
 1273000    0.7259636   -8.1486763     261.3743  0.017110127  0.016798688            2 
 1274000   0.73944769   -8.1299878    261.26922  0.017089824   0.01678482            3 
 1275000    0.7658417   -8.1450823    261.62088  0.017099404  0.016770992            1 
 1276000   0.75994068   -8.1545112    262.07338  0.017115555  0.016757193            3 
 1277000   0.73388535   -8.1712183    261.64426  0.017074149  0.016743377            2 
 1278000   0.74230502   -8.1898918    261.54066  0.017054034   0.01672961            4 
 1279000   0.74782962   -8.1805744    261.47007  0.017036101    0.0167158            1 
 1280000   0.75314832   -8.1471467    261.99367   0.01705688  0.016701993            1 
 1281000    0.7643198   -8.1378701    261.59591  0.017017688  0.016688261            3 
 1282000   0.76441684   -8.1905896    261.28068  0.016983923  0.016674505            2 
 1283000   0.72993542   -8.1828839    261.39424  0.016978062  0.016660692            3 
 1284000   0.74515813   -8.1767745    261.31379  0.016959618  0.016646909            2 
 1285000   0.74890185   -8.1738993    261.44324  0.016954815  0.016633118            2 
 1286000   0.72772235   -8.1704992    261.78528  0.016963795  0.016619339            4 
 1287000   0.74149211   -8.1769707     261.8029  0.016951755  0.016605612            3 
 1288000   0.73552795   -8.1625692    261.73399  0.016934135  0.016591889            6 
 1289000   0.73525381    -8.155408    261.65431  0.016915846  0.016578157            3 
 1290000   0.74743163    -8.186504    261.15307  0.016870353  0.016564412            2 
 1291000   0.74664599   -8.1263036    261.77068  0.016897152   0.01655067            1 
 1292000   0.73793557   -8.1453019    261.42835  0.016861994  0.016536969            3 
 1293000   0.73098139   -8.2066331    261.63702  0.016862401  0.016523222            2 
 1294000   0.74428135   -8.1876238    261.48625  0.016839661  0.016509468            3 
 1295000    0.7321928   -8.1499409    261.38529   0.01682016  0.016495734            3 
 1296000   0.76282068   -8.1950919    261.76881  0.016831842  0.016481964            2 
 1297000   0.71641442   -8.1905297    261.72762  0.016816218  0.016468226            2 
 1298000   0.74732809   -8.2077486    261.14274  0.016765712  0.016454433            9 
 1299000   0.73724984   -8.1994101    261.13282  0.016752169  0.016440641            2 
 1300000    0.7439035   -8.1961598    260.98327  0.016729696  0.016426833            1 
 1301000   0.73104095   -8.1842162    260.92498  0.016713104  0.016413007            2 
 1302000   0.74036576   -8.2204174    260.69649  0.016685643  0.016399179            1 
 1303000   0.73844188   -8.1982908    260.94574  0.016688778  0.016385382            2 
 1304000    0.7522811   -8.2249905    261.22981  0.016694134  0.016371605            4 
 1305000   0.76279848   -8.2347611    261.47579  0.016697049  0.016357786            1 
 1306000   0.72624667   -8.2067917    261.23157  0.016668681  0.016343991            1 
 1307000   0.72831888   -8.2310988     261.1055  0.016647889  0.016330209            2 
 1308000   0.72900141   -8.2141632    261.17351  0.016639495  0.016316388            2 
 1309000   0.72528092   -8.2425232    261.44513  0.016644075   0.01630259            3 
 1310000   0.72335493    -8.220026    261.46518  0.016632645  0.016288843            3 
 1311000   0.72453118   -8.2081597    261.30331  0.016609669   0.01627515            2 
 1312000   0.74648457   -8.2233872    260.98534  0.016576813  0.016261394            2 
 1313000   0.71976041   -8.2345984    261.48844  0.016596118  0.016247696            3 
 1314000   0.75592913   -8.2254525    261.07738  0.016557419  0.016234026            1 
 1315000   0.72643217   -8.2352104    261.13606  0.016548546  0.016220375            2 
 1316000   0.73965853   -8.2402592    261.57918  0.016564031  0.016206741            2 
 1317000   0.74297141   -8.2321826    261.50319  0.016546646  0.016193123            1 
 1318000   0.72607649   -8.2449514    261.13348  0.016510715  0.016179491            1 
 1319000   0.71919229   -8.2253646    261.73592   0.01653626  0.016165858            1 
 1320000   0.72857633   -8.2028295    261.37887  0.016501191  0.016152263            2 
 1321000   0.73306898   -8.2215857    261.94647  0.016524506  0.016138706            2 
 1322000   0.74032009   -8.2573605    261.77378  0.016501121  0.016125152            1 
 1323000   0.71217014   -8.2224639    261.95414  0.016500009   0.01611158            3 
 1324000   0.70023602   -8.2363524    262.00079  0.016490483  0.016098004            2 
 1325000    0.7257026   -8.2123684    262.59671  0.016515517  0.016084491            2 
 1326000       0.7094   -8.2260153    262.19302  0.016477691  0.016071034            6 
 1327000   0.72943889   -8.2435522    261.74059  0.016436862  0.016057551            6 
 1328000   0.74940209   -8.2094632     261.6163  0.016416686  0.016044095            1 
 1329000   0.73276081   -8.1862531    261.83274  0.016417904  0.016030706            1 
 1330000   0.71883592   -8.2010785    261.80719  0.016403959  0.016017294            1 
 1331000   0.71631768   -8.2111916     262.2238  0.016417718  0.016003858            1 
 1332000   0.71196793   -8.2215242    262.36456  0.016414199  0.015990454            2 
 1333000   0.72397753   -8.2022979    262.40068  0.016404144  0.015977081            1 
 1334000    0.7255855   -8.2429566      261.369  0.016327399  0.015963677            4 
 1335000   0.72711484   -8.2408669    262.20388  0.016367284  0.015950264            2 
 1336000   0.71459203   -8.2521532    261.78656  0.016329002  0.015936868            3 
 1337000   0.70364722   -8.2339436    262.05371   0.01633344  0.015923467            1 
 1338000   0.73030399   -8.2314625    261.96413  0.016315653  0.015910089            3 
 1339000   0.70667576   -8.2229844    262.19036  0.016317548  0.015896769            2 
 1340000   0.71700858    -8.242236    262.02737  0.016295235  0.015883431            2 
 1341000   0.72103302    -8.244788     261.7756  0.016267437  0.015870105            1 
 1342000   0.71745882   -8.2537528    262.16013  0.016279193  0.015856808            1 
 1343000   0.72510105   -8.2492666    261.91858  0.016252083  0.015843476            2 
 1344000   0.73137162   -8.2469452    261.51246   0.01621481  0.015830135            2 
 1345000   0.71803515   -8.2421943    261.61066  0.016208839  0.015816815            2 
 1346000   0.71960433   -8.2418123    262.13501   0.01622926    0.0158035            2 
 1347000   0.71168696   -8.2274425    262.28471  0.016226473  0.015790219            2 
 1348000   0.72280721   -8.2166565    261.82026  0.016185723   0.01577697            1 
 1349000   0.70950395   -8.2474105    261.97278  0.016183147  0.015763728            1 
 1350000   0.70367061   -8.2653956    261.72936  0.016156133  0.015750431            1 
 1351000   0.72039435   -8.2433581    261.87774  0.016153327  0.015737115            4 
 1352000   0.70416309    -8.239755    261.92535  0.016144314  0.015723805            3 
 1353000   0.70817585   -8.2495339    262.12478  0.016144665  0.015710495            3 
 1354000    0.7135273   -8.2332172    261.75489  0.016109976  0.015697214            1 
 1355000   0.71695004    -8.254007    261.71488  0.016095626  0.015683991            5 
 1356000   0.70144034   -8.2758861    261.88379  0.016094137  0.015670731            1 
 1357000   0.71487107    -8.252694    262.37918  0.016112699  0.015657506            2 
 1358000   0.72351944   -8.2490593    262.03226  0.016079544  0.015644254            3 
 1359000   0.71337697   -8.2702689    261.58407   0.01604023  0.015631004            4 
 1360000   0.70539661   -8.2578279      262.071  0.016058272  0.015617774            2 
 1361000   0.69667887   -8.2586805    261.56326  0.016015384  0.015604545            3 
 1362000   0.71400583   -8.2450407     261.9357  0.016026413  0.015591328            3 
 1363000   0.71901665    -8.290704    261.43736  0.015984187  0.015578088            2 
 1364000   0.70133032   -8.2405897    262.13857  0.016015309  0.015564832            2 
 1365000   0.70933058   -8.2905686    261.45824  0.015962041  0.015551625            2 
 1366000    0.7030957   -8.2458374    261.96661  0.015981369  0.015538433            2 
 1367000   0.71117446   -8.2480571    261.75846   0.01595699  0.015525284            2 
 1368000   0.69200899   -8.2628539    262.38898  0.015983734  0.015512155            3 
 1369000   0.70233177   -8.2413727    262.41662  0.015973741  0.015499028            1 
 1370000   0.71149272   -8.2596142     262.3283  0.015956709   0.01548593            4 
 1371000   0.70223062    -8.279332    262.39846  0.015949335  0.015472821            3 
 1372000   0.70414955   -8.2733798    262.10206  0.015919707  0.015459665            1 
 1373000   0.70907648   -8.2712248    261.82006  0.015890997  0.015446525            1 
 1374000    0.6981927   -8.2761571    262.10762  0.015896871  0.015433427            1 
 1375000   0.68859473   -8.2619943    261.87319  0.015871103  0.015420327            1 
 1376000   0.70980125   -8.2772698    262.34263  0.015887998  0.015407242            2 
 1377000   0.69569397   -8.2554172    262.21867  0.015868959  0.015394213            2 
 1378000   0.71175512   -8.2401441    262.38617  0.015867572   0.01538118            1 
 1379000   0.69591798   -8.2677269    261.76715  0.015818658  0.015368138            2 
 1380000     0.695234   -8.2665793    262.68008  0.015862324  0.015355118            2 
 1381000   0.71319055   -8.2567659    262.32965  0.015829692  0.015342118            3 
 1382000   0.71229418   -8.2841017    262.56443  0.015832395  0.015329112            2 
 1383000   0.70279518   -8.2623649    261.72136  0.015770147  0.015316104            1 
 1384000   0.71355367   -8.2878664    261.90841  0.015770015  0.015303103            2 
 1385000    0.7073472   -8.2613469    261.99739  0.015763983  0.015290132            2 
 1386000   0.69976517   -8.2916702    262.28931  0.015770161   0.01527716            1 
 1387000   0.71885835    -8.264267    261.72064  0.015724624  0.015264167            3 
 1388000   0.69854694   -8.2903845    261.87698  0.015722681  0.015251201            1 
 1389000   0.70143121   -8.2736825    262.72421  0.015762192  0.015238236            2 
 1390000     0.695702   -8.2907106    262.31771  0.015726482  0.015225271            2 
 1391000   0.69810132   -8.2920424    262.22033  0.015709341   0.01521236            5 
 1392000   0.69853091   -8.2903188    262.40275  0.015708977  0.015199433            1 
 1393000   0.69710237   -8.2655377    262.20059  0.015685606  0.015186489            3 
 1394000   0.69971443   -8.2951139    262.14536  0.015671052  0.015173574            1 
 1395000   0.70314258   -8.2899586    262.39739  0.015674874  0.015160631            3 
 1396000   0.69047077    -8.309839    261.97522  0.015638445  0.015147704            1 
 1397000   0.70254942   -8.3229554     261.8911  0.015622232  0.015134787            3 
 1398000   0.70387283   -8.2902398    262.23792  0.015631731  0.015121906            2 
 1399000   0.69410641   -8.3116706    261.96539  0.015604324  0.015108997            2 
 1400000    0.6910645   -8.3099054    262.15981  0.015604751  0.015096129            3 
 1401000   0.69562999   -8.3096106    262.04529    0.0155868  0.015083273            1 
 1402000   0.70198951    -8.300541     261.9919   0.01557251  0.015070434            4 
 1403000   0.68910168   -8.2997624    261.78951  0.015549389  0.015057573            2 
 1404000   0.68938323   -8.3141263    261.55913   0.01552464  0.015044745            2 
 1405000   0.67910498   -8.3008549    261.70916  0.015522489  0.015031898            2 
 1406000   0.71033559   -8.3272861    261.61894  0.015506101  0.015019061            2 
 1407000   0.67895235   -8.2943115    262.38703  0.015540572  0.015006276            1 
 1408000   0.68812895   -8.3026013    262.05309  0.015509771  0.014993472            5 
 1409000   0.69073769   -8.3000256    261.87464  0.015488209  0.014980683            1 
 1410000   0.67916553   -8.2980083    262.22557  0.015497965  0.014967884            2 
 1411000   0.68352005   -8.3136904    261.99231  0.015473205  0.014955122            2 
 1412000   0.69776222   -8.3160463    262.16157  0.015472236  0.014942401            2 
 1413000    0.6810992   -8.3358736    261.99169  0.015451268  0.014929698            2 
 1414000   0.70564987     -8.31861    262.16359  0.015450471  0.014917003            2 
 1415000   0.69102176   -8.3244838    262.37738  0.015452142  0.014904294            3 
 1416000   0.68340087   -8.3375573    262.22588  0.015432314  0.014891597            2 
 1417000   0.69101565   -8.3155689    262.57543   0.01544198  0.014878917            2 
 1418000   0.67594195   -8.3134109    262.13775  0.015405368  0.014866281            2 
 1419000   0.69901976   -8.3254554    262.14332  0.015394839  0.014853653            3 
 1420000   0.69359521   -8.3402156    262.10363  0.015381669  0.014841015            2 
 1421000    0.6976091   -8.2978732    262.59428  0.015399618  0.014828434            2 
 1422000   0.69602398   -8.3365596    262.53498  0.015385313  0.014815827            3 
 1423000   0.67600364   -8.3406335    262.11299  0.015349788  0.014803239            5 
 1424000   0.69025304   -8.3101055    262.68914  0.015372726  0.014790672            5 
 1425000   0.68740208   -8.3279315    261.92883  0.015317476  0.014778097            4 
 1426000   0.67731605   -8.3466852    262.16516  0.015320544  0.014765487            6 
 1427000   0.67488997   -8.3580867    262.27081  0.015315978  0.014752893            2 
 1428000   0.67132639   -8.3368616    262.22667  0.015302677  0.014740309            2 
 1429000   0.68422098   -8.3323149    261.95248  0.015275978  0.014727755            2 
 1430000   0.68077585   -8.3572449    262.17084  0.015278021  0.014715196            4 
 1431000   0.67708284   -8.3375856    262.29443  0.015274542  0.014702644            1 
 1432000   0.67924223   -8.3237687    262.12715  0.015254141  0.014690082            2 
 1433000   0.68331351   -8.3714941    261.97023   0.01523437  0.014677515            3 
 1434000   0.67526361   -8.3546011     262.1933   0.01523671  0.014664951            7 
 1435000   0.68216998   -8.3324728    262.36529  0.015236079   0.01465246            2 
 1436000    0.6862765   -8.3515754     262.6406  0.015241446  0.014639947            2 
 1437000   0.67908074   -8.3583756    262.08878  0.015198839  0.014627446            3 
 1438000   0.67794328    -8.347344    262.10326  0.015189109  0.014614964            3 
 1439000   0.68039625   -8.3608259    261.88527  0.015165929  0.014602451            2 
 1440000   0.68681158   -8.3630225    262.33569  0.015181464  0.014589986            1 
 1441000   0.66495691   -8.3625504     262.4856  0.015179598  0.014577518            2 
 1442000    0.6747571   -8.3395867    261.86687  0.015133314  0.014565047            2 
 1443000   0.67736611   -8.3443453      261.949   0.01512757   0.01455258            2 
 1444000   0.68538838   -8.3617877     261.8158  0.015109407  0.014540139            1 
 1445000   0.68533272   -8.3590147    261.82771  0.015099637  0.014527702            3 
 1446000   0.66284362   -8.3500214    262.44872  0.015124984  0.014515257            1 
 1447000   0.69391689    -8.343769    262.43113  0.015113518  0.014502862            1 
 1448000   0.66187434   -8.3563932     262.6244  0.015114203  0.014490504            2 
 1449000   0.68260598   -8.3582645    262.41615  0.015091796  0.014478141            1 
 1450000   0.67504309   -8.3120569    262.30934  0.015075249  0.014465817            1 
 1451000   0.67761088   -8.3251575    262.30839  0.015064806  0.014453485            1 
 1452000   0.66351355   -8.3212401    262.53592  0.015067488  0.014441165            1 
 1453000    0.6718948   -8.3344152    262.69356   0.01506616  0.014428896            2 
 1454000   0.67873095   -8.3315213    262.95923  0.015071024   0.01441661            1 
 1455000   0.66583106   -8.3215344     262.3883  0.015027967  0.014404319            2 
 1456000   0.68450473   -8.3503487    261.85023  0.014986849  0.014392025            2 
 1457000   0.66298596   -8.3387834    262.03286  0.014987009   0.01437975            1 
 1458000   0.66182461   -8.3372923    262.56441  0.015007111  0.014367491            4 
 1459000   0.66777245   -8.3529429     262.1273  0.014971859  0.014355245            2 
 1460000   0.67592329   -8.3459487    261.91117  0.014949268  0.014342983            3 
 1461000   0.68192279   -8.3525524     262.1085  0.014950291   0.01433072            1 
 1462000   0.66441659   -8.3558663    262.18055  0.014944172  0.014318449            1 
 1463000   0.66678183    -8.355332     262.6821  0.014962526    0.0143062            3 
 1464000   0.67662664   -8.3554082    262.68723  0.014952597  0.014293975            4 
 1465000   0.66344844   -8.3556481    262.52118  0.014932946  0.014281748            2 
 1466000     0.668929   -8.3471965    262.08351  0.014897881   0.01426953            2 
 1467000      0.67877   -8.3324148     262.3443  0.014902539  0.014257295            2 
 1468000   0.67115912   -8.3626882    261.97367  0.014871348   0.01424509            1 
 1469000   0.65145011   -8.3551016    262.33187  0.014881545  0.014232884            3 
 1470000   0.68592818   -8.3656765    262.26376   0.01486756  0.014220718            4 
 1471000   0.67163742   -8.3558115    261.92966  0.014838526  0.014208555            6 
 1472000   0.67294865   -8.3500742    262.09012  0.014837529  0.014196401            2 
 1473000   0.66532048   -8.3537422    262.50238   0.01485078  0.014184216            2 
 1474000   0.65175081   -8.3818438    262.07518  0.014816552  0.014172074            3 
 1475000   0.65924867    -8.361984    262.50897  0.014831015  0.014159921            3 
 1476000   0.66510919   -8.4113995    261.79662  0.014780749   0.01414778            2 
 1477000   0.66889642   -8.3581519    262.58641  0.014815302  0.014135675            3 
 1478000   0.67511975   -8.3519431    262.50472  0.014800672  0.014123592            5 
 1479000   0.65505131   -8.3778765     262.1169  0.014768813  0.014111472            1 
 1480000   0.66711945   -8.3824976    262.07905  0.014756703  0.014099356            2 
 1481000   0.65840473     -8.37219    262.36521  0.014762841  0.014087248            1 
 1482000   0.64972547   -8.3803892    262.06791  0.014736162  0.014075143            2 
 1483000    0.6700943   -8.3849044    261.57288  0.014698409  0.014063025            2 
 1484000   0.66609106   -8.3936479    261.49994  0.014684408  0.014050906            2 
 1485000   0.67419197   -8.3841873    262.00976  0.014703129  0.014038788            2 
 1486000   0.66571157   -8.3973156    261.71291  0.014676587  0.014026697            2 
 1487000   0.66643158   -8.3875359    262.31632  0.014700533  0.014014631            1 
 1488000   0.66451824   -8.3896297     262.1776  0.014682885  0.014002604            1 
 1489000   0.66348732   -8.4086111    262.04182  0.014665425  0.013990555            3 
 1490000   0.65684182   -8.3903773    261.95747  0.014650865  0.013978539            5 
 1491000   0.63455089   -8.4022778    261.72157  0.014627855  0.013966527            2 
 1492000   0.65892352   -8.3623611    262.03346   0.01463547  0.013954524            1 
 1493000   0.66158371   -8.3883886    262.18682  0.014634228  0.013942496            2 
 1494000   0.65069528     -8.38929    262.24954  0.014627931  0.013930461            1 
 1495000   0.64420026   -8.3798532    261.59946   0.01458191  0.013918448            1 
 1496000   0.66272072   -8.4046126    261.68132  0.014576722  0.013906468            1 
 1497000   0.64822804   -8.3917677    262.29309   0.01460104  0.013894466            2 
 1498000   0.63984824   -8.4193645    261.48742  0.014546474  0.013882478            4 
 1499000   0.65843923   -8.4288049    261.76102   0.01455198  0.013870497            2 
 1500000   0.65259585   -8.4186747    261.55566   0.01453087  0.013858488            2 
 1501000   0.66187048   -8.4269898    260.99163  0.014489875  0.013846482            3 
 1502000   0.65682966   -8.4207601     261.4305  0.014504577  0.013834511            4 
 1503000   0.66758957   -8.3953259    261.73032   0.01451155  0.013822548            3 
 1504000   0.64803941   -8.4130358    262.06147   0.01452025  0.013810564            1 
 1505000   0.64816308   -8.3907773    262.29781  0.014523688  0.013798636            4 
 1506000   0.63681038   -8.4150102    261.54185  0.014472214  0.013786706            5 
 1507000   0.65492963   -8.4223289    261.92357  0.014483719  0.013774793            1 
 1508000   0.65788388   -8.4140256    261.77757  0.014466046  0.013762874            3 
 1509000   0.66171239    -8.400921    261.56643  0.014444799  0.013750955            1 
 1510000   0.64534434   -8.4337092    261.61923  0.014438147  0.013739054            3 
 1511000   0.65558436   -8.4190786    260.82837  0.014384975  0.013727155            2 
 1512000    0.6581986   -8.4090109    261.34957  0.014404187  0.013715271            2 
 1513000   0.64367625   -8.4149064    262.03002  0.014432145  0.013703385            2 
 1514000    0.6522815   -8.4326698    261.61026  0.014399508   0.01369149            1 
 1515000   0.64643908   -8.4181141    261.36155  0.014376323  0.013679602            3 
 1516000   0.65030526   -8.4147547    262.04793   0.01440457  0.013667746            4 
 1517000   0.64031508    -8.447012    260.80389  0.014326735  0.013655875            2 
 1518000   0.64983587    -8.437481    261.36508  0.014348105   0.01364404            4 
 1519000   0.64915096   -8.4231761    261.20638  0.014329953   0.01363221            1 
 1520000   0.64970666   -8.4297253    261.39348  0.014330783  0.013620378            4 
 1521000   0.64990533   -8.4342937     261.8414  0.014345902  0.013608578            2 
 1522000   0.64425847   -8.4464195    261.29052  0.014306314  0.013596764            1 
 1523000   0.64318212   -8.4485365     261.1509  0.014289281  0.013584969            1 
 1524000   0.65284192   -8.4225012    261.38986  0.014292971  0.013573192            4 
 1525000   0.63897852   -8.4341038    261.26134  0.014276576  0.013561401            2 
 1526000   0.64648755   -8.4367222    261.65896  0.014288934   0.01354962            2 
 1527000   0.65266803   -8.4299569     261.0466  0.014246158  0.013537839            1 
 1528000   0.65677646     -8.42931    261.82185  0.014279115  0.013526073            2 
 1529000   0.63647544   -8.4414914    261.72245  0.014264359  0.013514323            2 
 1530000    0.6464754   -8.4287748    261.36051  0.014235322  0.013502579            1 
 1531000   0.64556871   -8.4223319    260.94938  0.014203646  0.013490834            2 
 1532000   0.64593746   -8.4191212    261.37735  0.014217654  0.013479091            1 
 1533000   0.63515658   -8.4558477     261.2553  0.014201745  0.013467359            2 
 1534000   0.64755639   -8.4566208    260.77632  0.014166467  0.013455655            2 
 1535000   0.63696536   -8.4506932    261.67679  0.014206123  0.013443939            1 
 1536000   0.65414052   -8.4699149    261.22394  0.014172306  0.013432233            2 
 1537000   0.63634223   -8.4479567    261.06972  0.014154723  0.013420561            2 
 1538000   0.64765275   -8.4369706    261.04437  0.014144146  0.013408891            1 
 1539000   0.64311536   -8.4865024    260.85288  0.014124587  0.013397203            3 
 1540000   0.62466953    -8.451313          261  0.014123377  0.013385542            2 
 1541000   0.64210759    -8.474912     261.3775  0.014134626   0.01337386            3 
 1542000   0.63842983   -8.4708276    260.84732  0.014096807  0.013362196            1 
 1543000   0.63209344   -8.4719344    261.10546  0.014101613  0.013350542            1 
 1544000   0.62901272   -8.4543588    260.76664  0.014074193  0.013338911            4 
 1545000   0.63008836   -8.4621296    261.49726  0.014104491  0.013327294            3 
 1546000   0.62578358   -8.4849308    260.65119  0.014049762  0.013315665            2 
 1547000   0.63637803   -8.4827826    260.71841  0.014044301  0.013304036            2 
 1548000   0.63616079    -8.468259    260.90327   0.01404518  0.013292406            2 
 1549000   0.64344156   -8.4538792    261.00527  0.014041601  0.013280814            2 
 1550000   0.63827583   -8.4732927    261.00399  0.014032473  0.013269224            1 
 1551000   0.62675975   -8.4479023    261.40721   0.01404509  0.013257675            3 
 1552000   0.63382758   -8.4640258      261.029  0.014015733  0.013246121            2 
 1553000   0.63433457   -8.4693185    260.58086   0.01398266   0.01323456            3 
 1554000   0.64343675    -8.461335    260.58717  0.013974001  0.013222999            1 
 1555000   0.63327334   -8.4861753    260.91927  0.013982812  0.013211438            3 
 1556000    0.6396678   -8.4841154    260.69446  0.013961786  0.013199888            1 
 1557000   0.63601574   -8.5012132    260.79356  0.013958122  0.013188349            1 
 1558000   0.63577916   -8.4862495    260.65846  0.013941937  0.013176833            2 
 1559000   0.61063047   -8.4652182    260.74367  0.013937549  0.013165308            1 
 1560000   0.63322472   -8.4538303    260.90366  0.013937161    0.0131538            2 
 1561000   0.62839389   -8.4748365    261.34685  0.013951892  0.013142334            2 
 1562000   0.62223509   -8.4828503    260.85902  0.013916935  0.013130858            1 
 1563000   0.62929693   -8.5024578     260.5577  0.013891965  0.013119376            2 
 1564000   0.63384362   -8.4607698    261.21874  0.013918305  0.013107919            2 
 1565000   0.62568699   -8.4641146     260.8667  0.013890666  0.013096472            1 
 1566000   0.62442086   -8.4750567    260.68178  0.013871955  0.013085031            2 
 1567000   0.61946931    -8.469754    260.61127  0.013859353    0.0130736            3 
 1568000   0.60245842   -8.4769861    261.16918  0.013880165  0.013062176            1 
 1569000   0.62029566   -8.4849661    260.68729  0.013845724  0.013050768            2 
 1570000   0.63033225   -8.4739279    260.72586  0.013838952  0.013039341            3 
 1571000   0.62366574   -8.4666748    260.29358  0.013807213  0.013027941            3 
 1572000   0.64185477   -8.5035997    260.34556  0.013801186  0.013016546            3 
 1573000   0.62649243   -8.4830999     260.4668  0.013798835  0.013005185            2 
 1574000   0.63671008   -8.4811143    260.96577  0.013816485  0.012993831            2 
 1575000   0.61864953   -8.4590859    261.04228  0.013811761  0.012982491            2 
 1576000   0.62055875   -8.4909136    260.58442  0.013778787  0.012971155            1 
 1577000    0.6074883   -8.4752162    261.16603  0.013800784  0.012959841            1 
 1578000   0.62935691   -8.4998388    260.79019   0.01377219  0.012948543            1 
 1579000    0.6307187   -8.4436746    260.66996  0.013757123  0.012937243            1 
 1580000    0.6341943   -8.4936678    260.73472  0.013751831  0.012925966            4 
 1581000   0.63348977   -8.4865889    260.39289  0.013725115  0.012914673            2 
 1582000   0.61982641   -8.4900211    260.42046  0.013717892  0.012903387            2 
 1583000   0.61411548   -8.4915596    260.61908  0.013719682  0.012892103            2 
 1584000   0.63028927   -8.4777684    260.70583  0.013715585  0.012880831            5 
 1585000   0.61519486   -8.5144198    260.35787  0.013688637  0.012869567            2 
 1586000   0.60255768   -8.4928852    260.26076  0.013674903   0.01285831            4 
 1587000   0.61944515   -8.4868603    261.05872  0.013708187  0.012847086            3 
 1588000   0.62389297   -8.5015387    260.86326  0.013689298  0.012835862            2 
 1589000   0.62373311    -8.480254     260.3641  0.013654505  0.012824652            2 
 1590000     0.614674   -8.4830725    260.97097  0.013677724  0.012813445            4 
 1591000   0.63278284   -8.4856705    260.56942  0.013648094  0.012802249            3 
 1592000   0.62415582   -8.4714799    261.25605  0.013675463  0.012791087            2 
 1593000   0.62962877   -8.4841954     260.6603  0.013635714  0.012779926            2 
 1594000   0.62137625   -8.5084026    260.18411  0.013602264  0.012768754            1 
 1595000   0.61266513   -8.4929814    260.82022  0.013626971  0.012757597            3 
 1596000   0.62446099   -8.5036398    260.28883  0.013590687  0.012746433            2 
 1597000    0.6157265   -8.4900241     260.1534  0.013575109  0.012735291            2 
 1598000   0.63246484   -8.4931712    260.49644  0.013584504  0.012724158            1 
 1599000   0.61209426   -8.5144007    260.77994  0.013590783  0.012713037            2 
 1600000   0.61418548     -8.50853    260.55004  0.013570314  0.012701907            3 
 1601000   0.60735932   -8.4938849    260.59448  0.013564152  0.012690808            2 
 1602000   0.60945022   -8.5092958    260.66085  0.013559137  0.012679714            3 
 1603000   0.62756458   -8.4967129    260.24365   0.01352899   0.01266863            2 
 1604000   0.61575939   -8.5013232    260.63395  0.013540833  0.012657547            1 
 1605000   0.61437304   -8.4790059    260.73787  0.013537792  0.012646495            2 
 1606000   0.60817685   -8.5204841    260.51422  0.013517757  0.012635438            3 
 1607000   0.61660946   -8.5006778    259.80858  0.013472754  0.012624389            4 
 1608000   0.60414178   -8.4833029    260.55712  0.013503167  0.012613338            2 
 1609000   0.60695802    -8.499127    260.37862   0.01348553  0.012602306            2 
 1610000   0.60352464   -8.5019014    261.11955  0.013515505  0.012591295            3 
 1611000   0.59917208   -8.5157006    260.25852  0.013462576  0.012580277            3 
 1612000   0.58897695   -8.5167598    260.30065  0.013456402  0.012569273            2 
 1613000   0.59151256   -8.4863741    260.18955   0.01344232  0.012558277            1 
 1614000   0.60810407   -8.5198097    260.18353  0.013433681  0.012547302            2 
 1615000   0.60628625   -8.5294074    260.29642  0.013431188  0.012536334            1 
 1616000    0.6036703   -8.5219267     260.6915   0.01344325  0.012525392            2 
 1617000   0.60001855   -8.5250009     259.9594  0.013397207  0.012514427            4 
 1618000   0.61603994   -8.5084192    260.31373  0.013407176  0.012503493            2 
 1619000   0.60361564   -8.5196165    260.01045  0.013383284  0.012492555            3 
 1620000   0.59963108   -8.5191472    260.11491  0.013380397  0.012481638            2 
 1621000   0.60022522   -8.5383234    260.40325  0.013386965  0.012470732            3 
 1622000   0.60536071    -8.534688    260.55834   0.01338668   0.01245983            2 
 1623000   0.61068414   -8.5238139    260.07225  0.013353473  0.012448949            2 
 1624000    0.6029733   -8.5157711    259.73759  0.013328078  0.012438061            2 
 1625000   0.60914682    -8.515413    260.71012   0.01336975  0.012427173            3 
 1626000   0.60984861   -8.5413171    260.21448  0.013336125  0.012416299            3 
 1627000   0.60560122   -8.5387504    260.05817  0.013319923  0.012405436            7 
 1628000   0.59760408   -8.5297286    259.87069  0.013302144  0.012394575            3 
 1629000   0.60130014   -8.5240211    260.30431  0.013316161  0.012383733            3 
 1630000   0.59805874   -8.5296915    260.45087  0.013315484  0.012372895            3 
 1631000   0.60792408   -8.5217296    260.08999  0.013288882  0.012362086            3 
 1632000   0.59769237   -8.5596765    260.05579  0.013278992  0.012351272            3 
 1633000   0.61450713   -8.5411377    260.13708  0.013275009  0.012340501            2 
 1634000    0.5890066   -8.5404703    259.76838  0.013248081  0.012329721            3 
 1635000   0.60822601   -8.5345346    259.83457  0.013243352  0.012318939            2 
 1636000   0.60113089    -8.538634    259.91559  0.013239384  0.012308184            2 
 1637000   0.59092026   -8.5379025     259.7815  0.013224471  0.012297436            3 
 1638000   0.59230936   -8.5466019    259.57268  0.013205773    0.0122867            3 
 1639000   0.59169296    -8.547307    259.82221  0.013210403   0.01227598            3 
 1640000   0.60041877   -8.5453953    260.25199  0.013224187  0.012265282            2 
 1641000   0.60056327   -8.5299472    260.33101  0.013220141  0.012254585            2 
 1642000   0.59424442   -8.5513232    260.45358   0.01321831  0.012243908            3 
 1643000   0.60122853   -8.5305586    260.36977  0.013206014   0.01223323            3 
 1644000   0.59339322   -8.5351501    259.97208  0.013177822  0.012222582            1 
 1645000   0.60262599   -8.5399788    260.57469  0.013200339  0.012211938            3 
 1646000   0.60594083   -8.5438505    259.67618   0.01314683  0.012201291            1 
 1647000   0.59495004   -8.5469006    260.03373  0.013156938  0.012190675            2 
 1648000   0.60026257   -8.5650365    259.80965  0.013137624  0.012180061            2 
 1649000     0.598317   -8.5370607    260.27822  0.013153336  0.012169447            3 
 1650000   0.60145182   -8.5249741    260.35815  0.013149401  0.012158841            3 
 1651000   0.60395441   -8.5286842    260.39026  0.013143058  0.012148244            4 
 1652000   0.58672761   -8.5318522    260.46979  0.013139114  0.012137663            2 
 1653000   0.59646555   -8.5416739    259.86786   0.01310082   0.01212709            1 
 1654000   0.59316734   -8.5431646    260.12326  0.013105767  0.012116516            2 
 1655000   0.60126065   -8.5450309    260.19813  0.013101618  0.012105951            3 
 1656000   0.59499961   -8.5548637    259.99979  0.013083725  0.012095403            3 
 1657000    0.5862883   -8.5506526    259.60606  0.013056028  0.012084866            3 
 1658000   0.59741694   -8.5410812    260.23334  0.013079681  0.012074344            3 
 1659000   0.60787981   -8.5493619    260.02016  0.013061089  0.012063827            2 
 1660000   0.61931754   -8.5566856    259.63632  0.013033952  0.012053304            2 
 1661000   0.59309069   -8.5539619    259.69731  0.013029165  0.012042784            2 
 1662000   0.59030632   -8.5640565    259.69293  0.013021105  0.012032277            3 
 1663000   0.59357895   -8.5552212     260.0658   0.01303196  0.012021788            2 
 1664000   0.60853094   -8.5564489    259.78018  0.013009825  0.012011308            3 
 1665000   0.59131308   -8.5644144    259.62386  0.012994187  0.012000826            2 
 1666000   0.57484708   -8.5619151     260.0951  0.013009959  0.011990356            2 
 1667000   0.57744704   -8.5610682    259.31158  0.012962986  0.011979901            3 
 1668000   0.59418171   -8.5591765    259.60707  0.012969977  0.011969459            3 
 1669000   0.57762189   -8.5489259    260.04034  0.012983839  0.011959039            1 
 1670000   0.59343401   -8.5703079      259.799  0.012964022   0.01194862            1 
 1671000   0.57498141   -8.5679086    259.60585  0.012946631  0.011938196            2 
 1672000   0.58789882   -8.5699936    259.84451  0.012950783  0.011927791            1 
 1673000   0.58962457   -8.5659211    259.84857  0.012943244  0.011917382            2 
 1674000   0.58229725   -8.5737706    259.42085   0.01291422  0.011907005            3 
 1675000    0.5931209   -8.5598393    259.90317  0.012930506   0.01189662            3 
 1676000   0.58519411   -8.5719549    259.79644  0.012917484  0.011886251            1 
 1677000   0.59224069   -8.5638203    259.55111  0.012897591  0.011875893            4 
 1678000   0.57816281   -8.5565933    259.96367  0.012910393  0.011865553            2 
 1679000   0.59035289   -8.5808515    259.66834  0.012888045  0.011855209            3 
 1680000   0.57784953   -8.5555917    259.60995  0.012877478  0.011844883            3 
 1681000   0.59016192   -8.5738476    259.62075  0.012870353  0.011834584            3 
 1682000   0.58500452   -8.5683142    259.39645  0.012851588  0.011824295            3 
 1683000    0.5926299   -8.5670313    259.28171   0.01283827  0.011814012            2 
 1684000   0.59640088   -8.5697426    259.64286  0.012848518  0.011803753            2 
 1685000   0.58576276   -8.5671263    259.33728   0.01282578  0.011793502            2 
 1686000   0.58639656   -8.5956321    260.29402  0.012865462  0.011783252            4 
 1687000   0.58918131   -8.5652269    259.60586  0.012823842  0.011773002            2 
 1688000   0.56719027   -8.5861864     259.6736  0.012819589  0.011762767            3 
 1689000   0.57709436   -8.5873133    259.60938  0.012808831  0.011752532            1 
 1690000   0.57865922   -8.5785541    260.11699  0.012826282  0.011742311            2 
 1691000   0.58180613   -8.5796048    259.64382  0.012795379  0.011732101            2 
 1692000   0.57816794   -8.5857126    260.03675  0.012807168  0.011721878            2 
 1693000    0.5686784     -8.59139    259.80968  0.012788427  0.011711681            2 
 1694000   0.57654646   -8.5729731     259.2429  0.012752996  0.011701493            2 
 1695000   0.57041518   -8.6056969     259.6747  0.012766701  0.011691313            3 
 1696000   0.58629569   -8.6050206    259.30955  0.012741232  0.011681149            2 
 1697000   0.57066772    -8.579145    259.55685  0.012745868  0.011670989            1 
 1698000   0.56600704   -8.5876576    259.21675   0.01272167  0.011660842            3 
 1699000   0.57523518   -8.6068622    259.57144  0.012731579  0.011650708            2 
 1700000   0.55626717   -8.5936797    259.51444  0.012721296  0.011640572            1 
 1701000   0.57283716   -8.6042833    259.24293  0.012700516  0.011630452            2 
 1702000   0.57654077   -8.5971792    258.95906  0.012679155  0.011620346            2 
 1703000   0.56503638    -8.582829    259.49885  0.012698124  0.011610244            3 
 1704000   0.58242731   -8.6029928    259.35763  0.012683765  0.011600167            3 
 1705000   0.58882427   -8.5905451    259.32551  0.012674756  0.011590101            2 
 1706000   0.56705439   -8.5935226    259.73441    0.0126873  0.011580037            2 
 1707000   0.57514465   -8.5927032    259.43407  0.012665206  0.011569985            4 
 1708000    0.5625183   -8.5798237    259.64783   0.01266822  0.011559946            1 
 1709000   0.57324455   -8.5930868    259.60768  0.012658849  0.011549908            2 
 1710000    0.5632348   -8.6185504    258.81964  0.012613043  0.011539876            1 
 1711000   0.56596338   -8.5736113    259.39843  0.012633861  0.011529849            2 
 1712000   0.56835952   -8.6110456    259.58884   0.01263575  0.011519849            3 
 1713000   0.57392852   -8.5962612      259.323  0.012615441   0.01150986            2 
 1714000   0.55716667    -8.587835    259.41716  0.012612659  0.011499874            2 
 1715000   0.57100638   -8.6034208    259.07898  0.012588872  0.011489897            2 
 1716000   0.56709099    -8.599973    259.54546  0.012604189  0.011479942            1 
 1717000   0.56408504   -8.6040414    259.39071  0.012589338  0.011469981            1 
 1718000   0.56005249   -8.6144594    259.34007  0.012579553  0.011460045            1 
 1719000   0.56551903   -8.6009499    259.54407  0.012582125  0.011450101            2 
 1720000    0.5762786   -8.5821407    259.14044  0.012555254  0.011440177            1 
 1721000   0.56755499   -8.6138392    259.21528  0.012551582  0.011430278            1 
 1722000   0.56097755    -8.583114    259.50058    0.0125581   0.01142039            2 
 1723000   0.55643085   -8.6015019    259.05392  0.012529209  0.011410495            1 
 1724000   0.55306509   -8.6170384    258.86117  0.012512624  0.011400618            2 
 1725000   0.57964739     -8.61926    259.02861   0.01251346   0.01139074            5 
 1726000   0.56346055   -8.6205665     259.1864  0.012513828  0.011380881            2 
 1727000    0.5631802   -8.6000564     259.3928  0.012516541   0.01137102            1 
 1728000   0.55748421   -8.6176236    259.20271  0.012500131  0.011361164            2 
 1729000   0.56118694   -8.6311366    259.85875   0.01252452  0.011351312            1 
 1730000   0.56522847   -8.5968957    259.44554  0.012497377  0.011341477            2 
 1731000   0.55639618   -8.6172145    259.08739  0.012472915  0.011331652            2 
 1732000   0.56509558   -8.6156609    259.28912   0.01247542  0.011321841            3 
 1733000   0.55230499   -8.6133763    259.35287  0.012471286  0.011312031            1 
 1734000    0.5742044   -8.6170757    259.32236  0.012462628  0.011302238            1 
 1735000   0.56342503   -8.6266147    258.52621  0.012417205  0.011292447            3 
 1736000   0.55866282   -8.6272424    258.96096  0.012430922  0.011282671            2 
 1737000   0.56984801   -8.6079484    258.51466  0.012402354  0.011272902            2 
 1738000   0.55950322   -8.6243645    259.16948  0.012426615  0.011263143            3 
 1739000   0.55809969   -8.6118063    259.06194  0.012414316  0.011253386            2 
 1740000   0.55551829   -8.6146342    258.80343    0.0123948  0.011243649            1 
 1741000   0.56436953   -8.6135041    259.45668  0.012418949  0.011233923            1 
 1742000   0.56165676   -8.6292124    258.40121  0.012361329  0.011224192            2 
 1743000   0.55313955    -8.622254    258.72236  0.012369591  0.011214479            1 
 1744000   0.56046695   -8.6095533    259.28308  0.012389291  0.011204775            2 
 1745000   0.55782893   -8.6146873      259.167  0.012376648  0.011195083            3 
 1746000   0.54889741   -8.6284856    259.13816  0.012368182    0.0111854            3 
 1747000   0.55301206     -8.60818    259.31009  0.012369304  0.011175726            3 
 1748000    0.5605129   -8.6298603    259.11151  0.012352761  0.011166069            2 
 1749000   0.55705007   -8.6198238    259.00739  0.012340737  0.011156422            1 
 1750000   0.54848355   -8.6281651    259.05243   0.01233583  0.011146783            1 
 1751000   0.55582788   -8.6202534    259.21954  0.012336738  0.011137153            3 
 1752000   0.54572534   -8.6276175    258.98723  0.012318647  0.011127533            2 
 1753000   0.55868305   -8.6377114    258.65372  0.012295766   0.01111792            3 
 1754000   0.56910841   -8.6304955    259.05812  0.012307968   0.01110832            1 
 1755000   0.55271083    -8.627851    258.84948  0.012291048  0.011098739            3 
 1756000   0.54780445   -8.6221532    258.43467  0.012264363  0.011089168            2 
 1757000   0.56606261    -8.616892    258.90992  0.012279924  0.011079601            2 
 1758000   0.54275649   -8.6308832    258.97266  0.012275913  0.011070052            3 
 1759000   0.56089027    -8.644819    258.94636  0.012267688   0.01106051            2 
 1760000   0.55500481   -8.6294011    258.48337  0.012238796  0.011050973            1 
 1761000   0.55078387   -8.6200055    258.73435  0.012243723  0.011041433            2 
 1762000   0.54667761   -8.6323018    259.04215  0.012251331  0.011031898            2 
 1763000   0.54478033   -8.6162788     259.0906  0.012246672  0.011022378            2 
 1764000   0.55179757   -8.6507389    259.22066  0.012245874  0.011012887            4 
 1765000   0.55000805   -8.6174991    258.85825  0.012221825  0.011003394            3 
 1766000   0.55052653   -8.6225001    258.92942  0.012218263  0.010993911            3 
 1767000   0.55650569   -8.6235196    258.95326  0.012212472  0.010984431            3 
 1768000   0.53998979   -8.6477927    258.86755  0.012201525  0.010974966            6 
 1769000   0.53837263   -8.6287995    258.56248  0.012180256   0.01096552            2 
 1770000   0.55740467   -8.6363366    258.85104   0.01218696  0.010956087            5 
 1771000   0.55530893   -8.6262245    259.01032  0.012187574  0.010946663            2 
 1772000   0.55105139   -8.6309469    259.10662  0.012185225  0.010937236            2 
 1773000   0.54348039   -8.6403871    258.77955  0.012162979  0.010927814            4 
 1774000   0.55721507   -8.6517023    258.98586  0.012165815  0.010918416            4 
 1775000    0.5461407   -8.6400041    258.83131  0.012151705  0.010909025            2 
 1776000   0.53609909   -8.6481789     258.7007  0.012138734  0.010899633            4 
 1777000   0.54434389   -8.6351283    259.06729  0.012149094  0.010890264            2 
 1778000   0.55080577   -8.6442453    258.75337  0.012127548  0.010880897            2 
 1779000   0.55270713    -8.646836     259.4635  0.012153996  0.010871545            2 
 1780000   0.55032808   -8.6372413    258.89897  0.012120738  0.010862197            2 
 1781000   0.54415017   -8.6363536      258.587  0.012099336  0.010852858            3 
 1782000   0.54072338    -8.649276    258.60217  0.012093255  0.010843523            3 
 1783000   0.53126157   -8.6483963    258.60315  0.012086518    0.0108342            2 
 1784000   0.54996979   -8.6444914    258.77994  0.012088002   0.01082488            3 
 1785000   0.54237598    -8.649515    258.71294  0.012078102  0.010815571            2 
 1786000   0.54308349   -8.6469556    258.83475  0.012077023  0.010806277            3 
 1787000   0.54833436   -8.6461115    258.28416  0.012044589  0.010796993            4 
 1788000   0.53791528   -8.6592874    259.00865  0.012071619   0.01078772            4 
 1789000    0.5532584   -8.6412565    258.63192  0.012047322  0.010778462            5 
 1790000   0.52393458   -8.6542341    258.71708  0.012044557  0.010769216            2 
 1791000    0.5323642   -8.6553314    259.08358  0.012054885  0.010759985            2 
 1792000   0.54430163   -8.6491151    258.68546  0.012029644   0.01075076            3 
 1793000   0.52724535   -8.6627168    258.46593  0.012012731  0.010741544            4 
 1794000   0.53175326   -8.6661936    258.82576   0.01202275  0.010732338            2 
 1795000   0.53542729    -8.657093    258.37096  0.011994938   0.01072313            3 
 1796000   0.55305956   -8.6452107    258.62376  0.011999989  0.010713926            1 
 1797000   0.53253353   -8.6468144    258.55097  0.011989935  0.010704738            3 
 1798000    0.5390119     -8.67591    258.43877  0.011978067  0.010695565            2 
 1799000   0.54390323    -8.635884    258.80317  0.011988289    0.0106864            2 
 1800000   0.53374601   -8.6608673    259.22469  0.012001143  0.010677245            3 
 1801000   0.53916919   -8.6683359    258.45514  0.011958872  0.010668093            2 
 1802000   0.52652907   -8.6639548    259.04617  0.011979567  0.010658954            3 
 1803000   0.53683024    -8.642852    258.97296   0.01196954  0.010649824            2 
 1804000   0.53172726   -8.6601583    258.68476  0.011949592  0.010640712            2 
 1805000   0.52879859   -8.6617137    259.05667  0.011960142  0.010631605            2 
 1806000    0.5258687   -8.6558679    258.39296  0.011922894  0.010622513            4 
 1807000   0.52862536   -8.6646867    258.25762  0.011910054  0.010613415            2 
 1808000   0.52820778   -8.6566116    259.07862  0.011941308  0.010604335            4 
 1809000   0.51450044   -8.6607743      258.463  0.011906348  0.010595273            4 
 1810000    0.5387512   -8.6502516    258.69912  0.011910641  0.010586215            4 
 1811000   0.53326263   -8.6543086    258.83716  0.011910416  0.010577164            3 
 1812000   0.53184655   -8.6879807    258.39279  0.011883407  0.010568119            2 
 1813000   0.52842011   -8.6506743    258.87729  0.011899122  0.010559098            4 
 1814000   0.53058581    -8.659017    258.44278  0.011872601  0.010550081            3 
 1815000   0.53500698   -8.6725886    258.86446   0.01188542   0.01054107            8 
 1816000    0.5170361   -8.6663409      258.878  0.011879497  0.010532084            4 
 1817000   0.52904196   -8.6588327    258.20689   0.01184218  0.010523107            2 
 1818000   0.52796819   -8.6644878     258.5551  0.011851627  0.010514129            3 
 1819000   0.52078284   -8.6737752    258.61881  0.011848031  0.010505162            2 
 1820000   0.51991025   -8.6681602    258.67562  0.011844122  0.010496195            3 
 1821000   0.52102878   -8.6780378     258.5318  0.011831036  0.010487244            2 
 1822000   0.52725509   -8.6713952    258.65663  0.011830252  0.010478309            3 
 1823000   0.51736203    -8.657858    258.49603  0.011816421  0.010469377            3 
 1824000   0.51890152   -8.6880216    258.32167  0.011801977  0.010460449            2 
 1825000   0.53765341   -8.6761617    258.11746  0.011786185  0.010451528            2 
 1826000   0.51891733     -8.67061    258.37529  0.011791497  0.010442622            4 
 1827000   0.53334724   -8.6598891    258.89456  0.011808729   0.01043373            1 
 1828000   0.52739371   -8.6823443    258.57222  0.011787574  0.010424832            1 
 1829000   0.52201207   -8.6925193    258.70135  0.011787013   0.01041595            5 
 1830000   0.53507165   -8.6659122    258.56421  0.011774326   0.01040708            2 
 1831000   0.51818143   -8.6864229    258.48591  0.011764332  0.010398222            3 
 1832000   0.51408696   -8.6758681    258.29297  0.011749135  0.010389371            3 
 1833000   0.51484177   -8.6705196    258.16843  0.011737063  0.010380532            2 
 1834000   0.52717836   -8.6915911    258.06353  0.011725897  0.010371691            2 
 1835000   0.51905554   -8.6887391    258.11784  0.011721973  0.010362862            3 
 1836000   0.51819443    -8.696938    258.56852  0.011736044  0.010354027            4 
 1837000   0.51647958   -8.6856644    258.07664  0.011707342  0.010345216            2 
 1838000    0.5107896   -8.6792846    258.31521  0.011711789  0.010336413            2 
 1839000   0.51740187    -8.693428    258.44926  0.011711495  0.010327623            2 
 1840000   0.51426398   -8.6976997    258.75842  0.011719131  0.010318844            3 
 1841000   0.52269373   -8.6805084    258.28438  0.011691308  0.010310071            4 
 1842000   0.51484731   -8.6683049    258.38624  0.011689569   0.01030132            3 
 1843000   0.52177765   -8.6693658    258.67257  0.011696173  0.010292567            1 
 1844000   0.52842299   -8.6761202    258.87238   0.01169886  0.010283828            2 
 1845000   0.50682203   -8.6763796    258.24905  0.011664365    0.0102751            3 
 1846000   0.51388478   -8.6886898    258.28951  0.011659873  0.010266378            2 
 1847000   0.51571007   -8.6769884    258.37581  0.011657454  0.010257672            1 
 1848000   0.51061044   -8.6622803    258.47517  0.011655627  0.010248969            1 
 1849000   0.50796762   -8.6918684    258.50939  0.011650865   0.01024028            2 
 1850000    0.5009453   -8.6885818    258.62067   0.01164958  0.010231602            5 
 1851000   0.52315909   -8.6818001    258.35446  0.011631301  0.010222933            3 
 1852000   0.51818676   -8.6861925    258.11826  0.011614393  0.010214264            2 
 1853000   0.51425311   -8.6968558    258.34512  0.011618327  0.010205604            3 
 1854000   0.52240292   -8.6778605    258.13214  0.011602487  0.010196947            1 
 1855000   0.51653288   -8.6921162     258.3533  0.011606168  0.010188312            2 
 1856000   0.50557349   -8.6892849    258.03333  0.011585548  0.010179679            4 
 1857000   0.49873169   -8.6895984    258.02715  0.011579032  0.010171051            3 
 1858000   0.51222494   -8.6953842    258.32986  0.011586377  0.010162437            3 
 1859000   0.51337218   -8.6962042    257.88507  0.011560206  0.010153836            2 
 1860000   0.51409429   -8.6986818    258.34357  0.011574533  0.010145236            3 
 1861000   0.51614701   -8.7057403    258.01727  0.011553702  0.010136649            2 
 1862000   0.51461365   -8.7124602    258.18305  0.011554916  0.010128079            2 
 1863000   0.50448878   -8.6975003    258.04618  0.011542592  0.010119503            2 
 1864000   0.50946841    -8.697469    258.08902  0.011538315  0.010110935            1 
 1865000   0.51097661   -8.6941191    258.09847   0.01153255  0.010102371            2 
 1866000   0.51187697    -8.711862    258.20815  0.011531268  0.010093818            2 
 1867000   0.52430353   -8.7002516    257.92204  0.011512321  0.010085285            2 
 1868000   0.50856013   -8.6947008     258.5485  0.011534105  0.010076762            2 
 1869000   0.50446719   -8.6877245    258.06897  0.011506553   0.01006824            2 
 1870000   0.51336026   -8.7021691    258.55641  0.011522122  0.010059726            1 
 1871000   0.49521573   -8.7093715    258.51364  0.011514059  0.010051233            2 
 1872000   0.50950292   -8.6945817     258.0732  0.011488301  0.010042737            3 
 1873000   0.49982724   -8.7015983    257.73318   0.01146704  0.010034261            3 
 1874000   0.49819732   -8.6909712    258.28146  0.011485302  0.010025781            2 
 1875000   0.51419394    -8.691784    258.48191  0.011488085  0.010017322            3 
 1876000    0.5067103   -8.7005257    257.52636  0.011439515  0.010008867            3 
 1877000   0.50329871   -8.7058732    258.12795  0.011460129  0.010000421            2 
 1878000   0.49951406   -8.7175766     257.9286  0.011445181 0.0099919864            2 
 1879000   0.49569045   -8.6906899    257.61318  0.011425101 0.0099835612            2 
 1880000   0.51597831   -8.7058206    257.70331  0.011423019 0.0099751482            2 
 1881000   0.51076282   -8.7139888     258.2055  0.011439195 0.0099667426            2 
 1882000   0.50069914   -8.7039901    257.71377  0.011411343 0.0099583443            3 
 1883000   0.50593002   -8.7083807    257.99692  0.011417814 0.0099499498            4 
 1884000   0.49791578   -8.7022686    257.84404  0.011404991 0.0099415643            2 
 1885000   0.49966233   -8.7049745       257.86  0.011399646 0.0099331972            3 
 1886000   0.49686103   -8.6815277    258.48211   0.01142109 0.0099248372            1 
 1887000   0.49889504   -8.7005998    258.08637  0.011397561 0.0099164859            5 
 1888000     0.498549    -8.704364    258.07777  0.011391145 0.0099081354            3 
 1889000   0.49102449   -8.7095211    257.74065  0.011370242 0.0098998005            2 
 1890000   0.50721067   -8.7044399     258.4032  0.011393439 0.0098914633            3 
 1891000   0.49282848   -8.7098154    258.09196  0.011373698 0.0098831408            2 
 1892000   0.49166401   -8.7336496    258.12984  0.011369355 0.0098748166            2 
 1893000   0.48753585   -8.7293927    257.73136  0.011345807 0.0098665067            2 
 1894000   0.50386818   -8.7287172    257.96601  0.011350141 0.0098582057            2 
 1895000   0.49983553    -8.729845    258.08637  0.011349445 0.0098499148            2 
 1896000   0.48528461   -8.7245354    257.56776  0.011320664 0.0098416308            2 
 1897000   0.49918043   -8.6908189    257.79064  0.011324488 0.0098333627            3 
 1898000   0.49761353   -8.7119929    257.75538  0.011316973 0.0098250908            3 
 1899000   0.49271312    -8.711269    258.24254  0.011332392 0.0098168322            4 
 1900000   0.49933976   -8.7201089    257.81126  0.011307511 0.0098085832            4 
 1901000   0.49413879   -8.7145897    257.40669  0.011283828 0.0098003476            3 
 1902000   0.49398921   -8.7426413    258.00151  0.011303957 0.0097921213            2 
 1903000   0.49632449   -8.7314821    257.81299  0.011289761 0.0097838909            2 
 1904000   0.49804566   -8.7146739    257.72653  0.011280048 0.0097756732            3 
 1905000    0.4919935   -8.7202888    257.47043  0.011262924 0.0097674783            2 
 1906000    0.4863289   -8.7275413    257.75611  0.011269505 0.0097592845            3 
 1907000   0.48351416   -8.7256896      258.077  0.011277618 0.0097510945            2 
 1908000   0.48338061   -8.7068937    258.07877  0.011271784 0.0097429199            3 
 1909000   0.48965414   -8.7354952    258.06509  0.011265282 0.0097347526            1 
 1910000   0.49124189   -8.7251474      258.303  0.011269765 0.0097266026            3 
 1911000   0.48171111   -8.7462469    257.73608  0.011239145 0.0097184495            2 
 1912000   0.49742236   -8.7197404    257.88522  0.011239767 0.0097102978            2 
 1913000   0.49375165   -8.7247902    257.71163   0.01122633  0.009702162            4 
 1914000   0.49907772   -8.7225788     257.3285  0.011203784  0.009694028            1 
 1915000   0.49204133   -8.7097576    257.80605  0.011218714 0.0096859024            3 
 1916000   0.48873521   -8.7414808    257.74482  0.011210196 0.0096777881            2 
 1917000   0.48723043   -8.7271714    258.06687  0.011218348 0.0096696813            2 
 1918000    0.5108487   -8.7342123     257.7592  0.011199131 0.0096615829            2 
 1919000   0.49690031   -8.7240197    257.93773  0.011201048 0.0096534981            3 
 1920000    0.4847899   -8.7283771    257.89854  0.011193513 0.0096454209            2 
 1921000   0.48494214   -8.7414698    257.64401  0.011176644 0.0096373508            3 
 1922000   0.48620119    -8.732572     257.5468  0.011166614 0.0096292866            6 
 1923000   0.49489368   -8.7248745    258.00485  0.011180658 0.0096212267            2 
 1924000   0.49614652   -8.7324029     257.9426   0.01117215 0.0096131847            2 
 1925000   0.48165254   -8.7506005    257.43436  0.011144344 0.0096051475            2 
 1926000   0.49037137   -8.7334391    257.43009  0.011138374 0.0095971183            2 
 1927000   0.49541905    -8.732249    257.32164  0.011127904  0.009589094            2 
 1928000   0.47836038   -8.7599544    257.51677  0.011130566 0.0095810804            4 
 1929000   0.47485147   -8.7584581     257.3848  0.011119094  0.009573068            2 
 1930000   0.47211225    -8.737006    257.44019  0.011115725 0.0095650579            4 
 1931000   0.48546299   -8.7223945    257.92343  0.011130823 0.0095570707            4 
 1932000   0.47374689   -8.7520779    257.68175  0.011114637 0.0095490908            3 
 1933000   0.48491431   -8.7403993    257.34749  0.011094477 0.0095411144            2 
 1934000   0.48754369   -8.7481742    257.77661  0.011107231 0.0095331493            3 
 1935000   0.48197607   -8.7490746    257.78146  0.011101699 0.0095251924            1 
 1936000   0.47317992   -8.7455132    257.48522  0.011083214 0.0095172446            2 
 1937000   0.47212205   -8.7345363    257.65943  0.011084987  0.009509317            2 
 1938000   0.48227347   -8.7527032    257.66622  0.011079559 0.0095013883            2 
 1939000   0.47406011   -8.7544849    257.60326  0.011071139 0.0094934637            1 
 1940000   0.47298427   -8.7504425    257.25524  0.011050483 0.0094855558            1 
 1941000   0.48414695   -8.7344201    257.36738  0.011049604 0.0094776589            3 
 1942000   0.48163227   -8.7440119    257.64476  0.011055817  0.009469759            3 
 1943000   0.48660357   -8.7472093    257.34562  0.011037297 0.0094618695            2 
 1944000   0.47027564   -8.7273902    257.65467  0.011044868 0.0094539944            2 
 1945000    0.4733825   -8.7441658    257.44658  0.011030273 0.0094461232            3 
 1946000   0.46978922   -8.7422078    257.50402  0.011027065 0.0094382603            2 
 1947000   0.48704042    -8.752787    258.04038  0.011044358 0.0094304045            2 
 1948000   0.47663373   -8.7426693    257.66667  0.011022701  0.009422559            2 
 1949000   0.46336996   -8.7504269     257.6597  0.011016748 0.0094147197            2 
 1950000   0.47000322   -8.7566277     257.9044  0.011021556 0.0094068859            3 
 1951000   0.47696125   -8.7618448    257.24485  0.010987735 0.0093990665            4 
 1952000   0.47898551   -8.7517311    257.48277  0.010992263   0.00939125            3 
 1953000   0.48306762   -8.7583183    257.55842  0.010989863 0.0093834394            2 
 1954000   0.47511945   -8.7653021    257.24431  0.010970842 0.0093756372            5 
 1955000   0.47656123   -8.7488532    257.49452  0.010975896 0.0093678442            2 
 1956000   0.47730106   -8.7650301     257.2697  0.010960706 0.0093600551            3 
 1957000   0.47437082   -8.7617029     257.3678  0.010959283 0.0093522817            3 
 1958000   0.47279491   -8.7529192    257.43096  0.010956374 0.0093445119            2 
 1959000   0.47706157   -8.7408567    257.47697  0.010952738 0.0093367551            3 
 1960000   0.47573961   -8.7425305    257.18558  0.010934761 0.0093290069            2 
 1961000   0.47019429   -8.7605589    257.65727   0.01094923 0.0093212633            2 
 1962000   0.46831751   -8.7543002    257.31834  0.010929253 0.0093135303            3 
 1963000   0.46544126   -8.7534584    257.31772  0.010923659 0.0093058107            3 
 1964000   0.45962634   -8.7527485    257.38457  0.010920934 0.0092980879            3 
 1965000   0.48113806   -8.7572411    257.33542  0.010913292 0.0092903749            3 
 1966000   0.46946561   -8.7531547    257.22516  0.010903067 0.0092826767            3 
 1967000   0.46232735   -8.7584674    257.27778  0.010899753 0.0092749899            4 
 1968000   0.47448445   -8.7694857    257.72347  0.010913087 0.0092673004            3 
 1969000   0.45643119   -8.7780303    257.46386  0.010896557 0.0092596257            2 
 1970000   0.47514842   -8.7615162    256.86889  0.010865858 0.0092519572            3 
 1971000   0.46711129   -8.7755913    257.57516  0.010890206 0.0092442932            3 
 1972000   0.46928651   -8.7736612    257.39235  0.010876959 0.0092366396            2 
 1973000   0.46933779   -8.7649441    257.49563  0.010875808 0.0092289942            2 
 1974000   0.46011473   -8.7661833    257.31072  0.010862492  0.009221357            2 
 1975000   0.46454457   -8.7685898    257.47357  0.010863864 0.0092137213            2 
 1976000   0.47486042    -8.769375     257.6027  0.010863812 0.0092060971            2 
 1977000   0.45922202   -8.7757016    257.38184  0.010849007 0.0091984812            1 
 1978000     0.457427   -8.7694367     257.3344  0.010841524 0.0091908772            4 
 1979000   0.45727837   -8.7718554    257.03273  0.010823342 0.0091832749            3 
 1980000      0.46414   -8.7730249    257.17933  0.010824046 0.0091756789            3 
 1981000   0.46425523   -8.7737452    257.50908  0.010832453  0.009168091            2 
 1982000   0.46180519   -8.7610261    257.51043  0.010827044 0.0091605124            1 
 1983000   0.45331319   -8.7703668    257.39217  0.010816615 0.0091529469            2 
 1984000   0.46623226   -8.7925389     257.1679  0.010801743 0.0091453878            3 
 1985000   0.46179334   -8.7795798    257.38232  0.010805303 0.0091378311            3 
 1986000    0.4617145   -8.7696865     257.1806  0.010791398 0.0091302856            2 
 1987000   0.47338061   -8.7824439    257.13636  0.010784112  0.009122749            2 
 1988000   0.46090008   -8.7715813    257.14478   0.01077904 0.0091152221            2 
 1989000   0.46291541   -8.7773759    257.20685  0.010776221 0.0091077011            3 
 1990000   0.45593481   -8.7840238    257.15016  0.010768432 0.0091001843            1 
 1991000   0.45589429   -8.7700115    257.03563   0.01075823 0.0090926723            1 
 1992000   0.45810055   -8.7806556    257.16981  0.010758442 0.0090851736            3 
 1993000   0.45413408   -8.7786641    257.17286  0.010753172 0.0090776908            2 
 1994000   0.47094302   -8.7673073    257.37404  0.010756187 0.0090702124            1 
 1995000   0.46803487   -8.7918966    256.80007   0.01072682 0.0090627375            3 
 1996000   0.45883284   -8.7803314    257.17249  0.010736994 0.0090552727            2 
 1997000   0.45197818   -8.7758229    257.10282  0.010728711 0.0090478182            2 
 1998000   0.45033818   -8.7762188    257.26097  0.010729937 0.0090403647            2 
 1999000   0.45486474   -8.7749505    256.99514  0.010713487 0.0090329165            2 
 2000000   0.45349055    -8.779907    257.00318  0.010708466 0.0090254835            2 
 2001000   0.45155051   -8.7678224    257.43206  0.010720975 0.0090180557            3 
 2002000   0.45584016   -8.7655596    256.93911  0.010695101 0.0090106378            4 
 2003000   0.45340675   -8.7907416    257.28896  0.010704317 0.0090032227            3 
 2004000   0.45115705   -8.7908134    257.25144  0.010697415 0.0089958234            2 
 2005000    0.4583125   -8.7930068    257.34667  0.010696038 0.0089884208            3 
 2006000   0.45334978   -8.7794104     257.0107  0.010676749 0.0089810286            2 
 2007000   0.46100925   -8.7971249    257.08145  0.010674367 0.0089736414            3 
 2008000   0.44366298   -8.7975474    256.92236  0.010662449 0.0089662687            2 
 2009000    0.4577006   -8.7851373    256.70494  0.010648123 0.0089588975            1 
 2010000   0.45353538   -8.7875801    257.20632  0.010663612 0.0089515433            2 
 2011000    0.4528703   -8.7823842    257.18094  0.010657258 0.0089441933            3 
 2012000   0.44975382    -8.789492     256.6799  0.010631208 0.0089368522            3 
Loop time of 4788.2 on 48 procs for 2000000 steps with 4000 atoms

Performance: 72177.483 tau/day, 417.694 timesteps/s
99.4% CPU use with 48 MPI tasks x no OpenMP threads

MPI task timing breakdown:
Section |  min time  |  avg time  |  max time  |%varavg| %total
---------------------------------------------------------------
Pair    | 301.08     | 325.01     | 343.49     |  55.2 |  6.79
Neigh   | 31.598     | 32.999     | 34.268     |  12.8 |  0.69
Comm    | 303.36     | 326.79     | 354.91     |  65.8 |  6.82
Output  | 4.1046     | 4.1069     | 4.1442     |   0.3 |  0.09
Modify  | 4046.7     | 4056.5     | 4066       |   8.2 | 84.72
Other   |            | 42.82      |            |       |  0.89

Nlocal:        83.3333 ave          92 max          74 min
Histogram: 2 0 7 5 7 10 5 8 3 1
Nghost:        2096.73 ave        2107 max        2070 min
Histogram: 1 0 0 1 4 5 5 14 11 7
Neighs:        13751.2 ave       15270 max       12065 min
Histogram: 3 2 2 10 5 7 6 7 3 3
FullNghs:      27501.9 ave       30324 max       24234 min
Histogram: 2 0 5 5 10 6 7 9 1 3

Total # of neighbors = 1320090
Ave neighs/atom = 330.02250
Neighbor list builds = 106993
Dangerous builds = 0

#clear
#
#next RN
#
#jump SELF
Total wall time: 1:19:51
