
units lj                  # Use reduced LJ style units
atom_style atomic         # Uncharged point particles
atom_modify map hash      # Needed for indexing of clusters etc
                          # Used to be able to find where atoms are in relation to each other.

lattice fcc 1.0 spacing 1 1 1
Lattice spacing in x,y,z = 1.5874011 1.5874011 1.5874011
region box block 0 10 0 10 0 10 units lattice
create_box 2 box
Created orthogonal box = (0.0000000 0.0000000 0.0000000) to (15.874011 15.874011 15.874011)
  3 by 4 by 4 MPI processor grid
create_atoms 1 box
Created 4000 atoms
  using lattice units in orthogonal box = (0.0000000 0.0000000 0.0000000) to (15.874011 15.874011 15.874011)
  create_atoms CPU = 0.002 seconds
set type 1 type/fraction 2 0.08 78393
Setting atom values ...
  344 settings made for type/fraction
mass 1 1.0
mass 2 1.0
pair_style lj/cut  3.5
pair_modify tail  yes
pair_coeff 1  1  1.0  1.0   # Intearaction between 1 and 1 set with epsilon = 1 and sigma = 1
pair_coeff 1  2  1.5  0.8
pair_coeff 2  2  0.5  0.88

write_data data.0
System init for write_data ...
Neighbor list info ...
  update every 1 steps, delay 10 steps, check yes
  max neighbors/atom: 2000, page size: 100000
  master list distance cutoff = 3.8
  ghost atom cutoff = 3.8
  binsize = 1.9, bins = 9 9 9
  1 neighbor lists, perpetual/occasional/extra = 1 0 0
  (1) pair lj/cut, perpetual
      attributes: half, newton on
      pair build: half/bin/atomonly/newton
      stencil: half/bin/3d
      bin: standard
WARNING: Not all mixed pair coeffs generated from mixing. Use write_data with 'pair ij' option to store all pair coeffs. (../write_data.cpp:312)


#############################
#   M E L T   S Y S T E M   #
#############################

velocity all create 2.4 6583654 mom yes dist gaussian # Assign velocities
                                                    # Temperature 2.4, random number seed, zero linear momentum
                                                                                # Gaussian distribution

timestep 0.002   # simulation timestep
thermo 1000       # output thermodynamic data every 1000 steps bf 100

# Define a fix  in this case with index 1 applied to all
# particles in the simulation. This fix is for simulations
# in the anisotropic NPT ensemble. Note that we use the MTK
# correction.
fix 1 all npt temp 2.4 2.4 0.1 iso 5.68 5.68 0.5 mtk yes tchain 5 pchain 5 # Use NPT ensemble
                                                                         # Set temperature and pressure and damping
                                                                         # Numbers of thermostats in chain and in barostat
run 10000          # run for 10000 steps
Per MPI rank memory allocation (min/avg/max) = 3.642 | 3.644 | 3.648 Mbytes
Step Temp E_pair E_mol TotEng Press Volume 
       0          2.4   -7.8205278            0   -4.2214278   -2.8943486         4000 
    1000     2.417758   -4.5569034            0  -0.93117306     5.612354    4930.1393 
    2000    2.4476133   -4.6170583            0  -0.94655621     5.817804    4863.7191 
    3000    2.4051776    -4.561843            0  -0.95497861    5.5298618    4935.7224 
    4000    2.3758161   -4.5456061            0  -0.98277285    5.6884611    4917.3723 
    5000     2.422879   -4.6134766            0  -0.98006668    5.7255747    4877.1154 
    6000    2.3599366   -4.5616594            0   -1.0226396    5.7182626    4897.6784 
    7000    2.4167456   -4.6010964            0   -0.9768843    5.7191491    4882.6121 
    8000    2.4029959   -4.5258153            0  -0.92222269    5.6740213    4943.3463 
    9000    2.3982161   -4.6052088            0    -1.008784     5.669139    4890.4034 
   10000    2.4261555   -4.5692442            0  -0.93092076    5.7136832    4912.2776 
Loop time of 2.11802 on 48 procs for 10000 steps with 4000 atoms

Performance: 815857.847 tau/day, 4721.400 timesteps/s
99.6% CPU use with 48 MPI tasks x no OpenMP threads

MPI task timing breakdown:
Section |  min time  |  avg time  |  max time  |%varavg| %total
---------------------------------------------------------------
Pair    | 0.87709    | 0.9494     | 1.0335     |   3.2 | 44.82
Neigh   | 0.18667    | 0.19562    | 0.21368    |   1.1 |  9.24
Comm    | 0.62759    | 0.73285    | 0.82237    |   4.6 | 34.60
Output  | 0.00024709 | 0.00025525 | 0.00031418 |   0.0 |  0.01
Modify  | 0.20278    | 0.22542    | 0.25015    |   2.7 | 10.64
Other   |            | 0.01447    |            |       |  0.68

Nlocal:        83.3333 ave          93 max          72 min
Histogram: 2 1 2 5 9 7 10 10 1 1
Nghost:        1433.27 ave        1473 max        1393 min
Histogram: 2 2 6 4 9 10 3 7 3 2
Neighs:        7768.71 ave        8808 max        6584 min
Histogram: 2 2 2 9 8 7 5 9 1 3

Total # of neighbors = 372898
Ave neighs/atom = 93.224500
Neighbor list builds = 901
Dangerous builds = 172

# Equilibrate just above the melting temperature to avoid step fn in T

fix 1 all npt temp 1.25 1.25 0.1 iso 5.68 5.68 0.5 mtk yes tchain 5 pchain 5
run 2000
Per MPI rank memory allocation (min/avg/max) = 3.642 | 3.644 | 3.648 Mbytes
Step Temp E_pair E_mol TotEng Press Volume 
   10000    2.4261555   -4.5692442            0  -0.93092076    5.7136832    4912.2776 
   11000    1.2547777   -6.0999093            0   -4.2182133    5.8547746    4053.2986 
   12000    1.2629045   -6.1275278            0   -4.2336447    5.8902776    4041.0593 
Loop time of 0.483349 on 48 procs for 2000 steps with 4000 atoms

Performance: 715010.735 tau/day, 4137.794 timesteps/s
99.6% CPU use with 48 MPI tasks x no OpenMP threads

MPI task timing breakdown:
Section |  min time  |  avg time  |  max time  |%varavg| %total
---------------------------------------------------------------
Pair    | 0.20328    | 0.22298    | 0.26799    |   2.4 | 46.13
Neigh   | 0.030901   | 0.033054   | 0.039271   |   0.8 |  6.84
Comm    | 0.12608    | 0.16845    | 0.18746    |   3.0 | 34.85
Output  | 4.9583e-05 | 5.0775e-05 | 6.3231e-05 |   0.0 |  0.01
Modify  | 0.038144   | 0.054236   | 0.077444   |   4.6 | 11.22
Other   |            | 0.004576   |            |       |  0.95

Nlocal:        83.3333 ave          92 max          76 min
Histogram: 1 5 5 11 4 11 5 4 0 2
Nghost:        1630.62 ave        1651 max        1602 min
Histogram: 1 1 2 4 8 8 9 10 3 2
Neighs:        9442.15 ave       10472 max        8605 min
Histogram: 4 2 8 7 6 10 5 1 2 3

Total # of neighbors = 453223
Ave neighs/atom = 113.30575
Neighbor list builds = 142
Dangerous builds = 7

#############################
# L I N E A R  Q U E N C H  #
#############################

# Define solid atoms. This closely follows ten Wolde  Ruiz-Montero and Frenkel  Faraday Discuss  1996  104  93-110
# Compute components of the per-atom q6 vector
compute q6 all orientorder/atom degrees 1 6 components 6 nnn NULL cutoff 1.3 # compute the Q6 parameter.
                                                                             # Use all neighbours within 1.3 unit cell.

# get number of connections
compute coord_number all coord/atom orientorder q6 0.5

# An atom is solid if it has 8 or more connections (of a possible 14)
variable is_solid atom c_coord_number>=8
group solid dynamic all var is_solid    # Must be dynamic to update
dynamic group solid defined

# do clustering
compute cluster solid cluster/atom 1.3 # Create a cluster where all atoms within are solid and max 1.3 units from another member

# define chunks one chunk per cluster
compute clus_chunks solid chunk/atom c_cluster nchunk every compress yes  # Says which atoms are in which chunk

# count the size of each chunk
compute size_chunks solid property/chunk clus_chunks count


# Find the maximum entry in the vector of chunk sizes
variable max_n equal max(c_size_chunks)


# Thermo style which includes this variable
# thermo_style custom step temp pe vol v_max_n

thermo ${N}  # Print the thermo information every 100 steps
thermo 1000  

# Reset the npt fix at a lower temperature (below freezing)
fix 1  all npt temp  ${temp} ${temp}  0.1  iso  5.68  5.68  0.5  mtk yes tchain  5  pchain  5
fix 1  all npt temp  0.45 ${temp}  0.1  iso  5.68  5.68  0.5  mtk yes tchain  5  pchain  5
fix 1  all npt temp  0.45 0.45  0.1  iso  5.68  5.68  0.5  mtk yes tchain  5  pchain  5

dump dmp2 all dcd ${N} traj.dcd
dump dmp2 all dcd 1000 traj.dcd


compute msd all msd com yes
variable twopoint equal c_msd[4]/6/(step*dt+1.0e-6)
fix 9 all vector 10 c_msd[4]
variable fit equal slope(f_9)/6/(10*dt)
thermo_style custom step temp pe c_msd[4] v_twopoint v_fit v_max_n

fix 1 all npt temp 1.25 ${temp} 0.1 iso 5.68 5.68 0.5 mtk yes tchain 5 pchain 5
fix 1 all npt temp 1.25 0.45 0.1 iso 5.68 5.68 0.5 mtk yes tchain 5 pchain 5
run 500000 # 5000000  # Run for this many steps
Neighbor list info ...
  update every 1 steps, delay 10 steps, check yes
  max neighbors/atom: 2000, page size: 100000
  master list distance cutoff = 3.8
  ghost atom cutoff = 3.8
  binsize = 1.9, bins = 9 9 9
  4 neighbor lists, perpetual/occasional/extra = 1 3 0
  (1) pair lj/cut, perpetual
      attributes: half, newton on
      pair build: half/bin/atomonly/newton
      stencil: half/bin/3d
      bin: standard
  (2) compute orientorder/atom, occasional
      attributes: full, newton on
      pair build: full/bin/atomonly
      stencil: full/bin/3d
      bin: standard
  (3) compute coord/atom, occasional
      attributes: full, newton on
      pair build: full/bin/atomonly
      stencil: full/bin/3d
      bin: standard
  (4) compute cluster/atom, occasional
      attributes: full, newton on
      pair build: full/bin/atomonly
      stencil: full/bin/3d
      bin: standard
Per MPI rank memory allocation (min/avg/max) = 9.744 | 9.752 | 9.758 Mbytes
Step Temp PotEng c_msd[4] v_twopoint v_fit v_max_n 
   12000    1.2629045   -6.1275278 1.1337903e-30 7.8735437e-33 8.3333333e+20            4 
   13000    1.2298492   -6.1670177   0.56693666 0.0036342092  0.046483686            2 
   14000    1.2618562   -6.1620534    1.0700294 0.0063692224  0.044471744            2 
   15000    1.2240048   -6.0988679    1.5737862 0.0087432566  0.043370541            4 
   16000    1.2409495   -6.1470714    2.1397014  0.011144278  0.043089763            3 
   17000    1.2487866   -6.1351793    2.6735405   0.01310559    0.0439149            2 
   18000    1.2504229   -6.1534063     3.175147  0.014699754  0.043912534            3 
   19000    1.2149034   -6.1571701    3.8166394  0.016739646  0.044376316            2 
   20000    1.2518668   -6.1149187    4.2962476  0.017901031  0.044795157            4 
   21000    1.2161219   -6.2027373    4.8263629  0.019152233  0.044770825            3 
   22000    1.2017338   -6.1545427    5.3475521  0.020255879   0.04487341            2 
   23000    1.2494798   -6.1879345    5.8761923  0.021290551  0.044750892            2 
   24000    1.2461044   -6.1824315    6.3498197  0.022047985  0.044497039            1 
   25000    1.2299175   -6.1718338    6.9446963  0.023148987  0.044369447            2 
   26000    1.2064599    -6.166911    7.4674285  0.023934065  0.044360079            3 
   27000    1.2192232   -6.1981295    7.9490844  0.024534211  0.044292996            1 
   28000    1.2240211   -6.1561714    8.5019558  0.025303439  0.044198164            2 
   29000    1.2066618   -6.1651946    9.0251167  0.025934243  0.044179127            1 
   30000    1.2488536   -6.1477049    9.5502357  0.026528432  0.044105538            3 
   31000    1.2168204   -6.2033231    10.062452  0.027049601  0.044078182            1 
   32000     1.216046   -6.1871866    10.685382  0.027826514  0.044132826            3 
   33000       1.2445   -6.1940672    11.114823  0.028067735  0.044139475            3 
   34000    1.2515135   -6.1814769    11.700669  0.028678109  0.044065604            4 
   35000    1.2280378   -6.2463035     12.07906  0.028759667  0.044024414            4 
   36000    1.2291308   -6.2345006    12.454766  0.028830477  0.043888718            2 
   37000    1.2109624   -6.2732114    12.910264  0.029077171  0.043696184            2 
   38000    1.2326665   -6.2176984    13.467559  0.029534119  0.043526513            2 
   39000    1.2178082   -6.2240583    14.076388  0.030077751  0.043393318            2 
   40000    1.1977034   -6.2416898    14.476249  0.030158852  0.043292289            4 
   41000    1.2067808   -6.2587444    14.990152  0.030467789  0.043194384            3 
   42000    1.2075398   -6.2026327    15.466403  0.030687307  0.043121763            3 
   43000    1.1890633   -6.2264575    15.860626  0.030737648  0.042997405            6 
   44000    1.1859901   -6.2233754    16.222885   0.03072516  0.042823026            4 
   45000    1.2035648   -6.2038875     16.69889  0.030923869  0.042621791            2 
   46000    1.1714419   -6.2391022    17.041922  0.030873046  0.042435652            4 
   47000    1.1579799   -6.1997031    17.526884  0.031076035  0.042229412            6 
   48000    1.2014297   -6.2386449    17.912527  0.031098138  0.042048908            2 
   49000    1.1637348   -6.2711958    18.398648  0.031290217  0.041860162            2 
   50000    1.1818693   -6.2219977    19.040269  0.031733782  0.041699679            5 
   51000     1.179168   -6.2796218    19.339812     0.031601  0.041551438            2 
   52000    1.2003229   -6.2342569    19.877161  0.031854424  0.041416582            5 
   53000    1.1845282    -6.252572     20.42505  0.032114858  0.041314589            4 
   54000    1.1681104   -6.3107214    21.023486  0.032443651   0.04126383            3 
   55000    1.1860863   -6.2495338    21.563503  0.032671974  0.041217583            3 
   56000    1.1779559   -6.2872546    21.983716  0.032713863  0.041172646            3 
   57000     1.210599   -6.2270052    22.605677  0.033049234   0.04115342            3 
   58000    1.1937706   -6.2946928    22.859467  0.032844062  0.041114535            5 
   59000    1.1572568   -6.2695286    23.315015  0.032930811  0.041049292            2 
   60000    1.1751693   -6.2595732    23.761835  0.033002549  0.040987047            3 
   61000    1.1784556   -6.2535841    24.237359  0.033111146  0.040933343            6 
   62000     1.160641   -6.2740731    24.766841  0.033288764  0.040883134            1 
   63000    1.1349622   -6.2831337    25.210327  0.033346994  0.040839943            2 
   64000    1.1710752   -6.2748842    25.808484  0.033604797   0.04080535            2 
   65000    1.1610206   -6.2966715    26.385839  0.033827998  0.040796985            1 
   66000    1.1532533   -6.2835114    26.699538  0.033711538  0.040771563            5 
   67000    1.1527843   -6.3116566    27.115493  0.033725737  0.040730851            5 
   68000    1.1538725   -6.3067162    27.609762  0.033835493  0.040693269            2 
   69000    1.1621156   -6.3147435    27.792484  0.033565802  0.040626268            3 
   70000    1.1501959   -6.2964697    28.304633  0.033695992  0.040553265            6 
   71000    1.1609701   -6.2813145    28.716812  0.033705178  0.040476669            4 
   72000    1.1327803   -6.3300213    29.121139  0.033705021  0.040414605            3 
   73000    1.1426667   -6.2904398    29.848248  0.034073342  0.040357198            2 
   74000    1.1410306   -6.3146234    30.291199   0.03411171  0.040314471            2 
   75000    1.1632632    -6.324586    30.935142   0.03437238  0.040282108            2 
   76000    1.1390218   -6.3086608    31.198264  0.034208623  0.040246896            8 
   77000    1.1341353   -6.3210317    31.404961  0.033988052  0.040198509            5 
   78000    1.1613098   -6.2872527    31.730452  0.033900055   0.04012419            4 
   79000    1.1537142   -6.3164457     32.25527  0.034024546  0.040057149            2 
   80000    1.1313212   -6.3533133    32.631948  0.033991613  0.039987876            2 
   81000    1.1347052   -6.3315205    33.026441  0.033977819  0.039914183            8 
   82000     1.124032   -6.3558947    33.458827  0.034002873   0.03984042            2 
   83000    1.1287988   -6.3548258    33.820261  0.033956085   0.03976132            4 
   84000    1.1339136    -6.350792    34.208791  0.033937293  0.039678539            6 
   85000    1.1348117   -6.3665034    34.525721  0.033848746  0.039596007            9 
   86000    1.1243577   -6.3414253    34.857254  0.033776408  0.039500256            3 
   87000    1.1322101    -6.389843    35.349735  0.033859899  0.039405939            3 
   88000    1.1345605   -6.3609447    35.683244   0.03379095  0.039313838            4 
   89000    1.1160336   -6.3280861    36.216581  0.033910656  0.039233351            3 
   90000    1.1421016   -6.3767663    36.588559  0.033878296  0.039157311            2 
   91000    1.1121814   -6.3426883     37.19769  0.034063819  0.039079844            4 
   92000    1.1298339   -6.3637771    37.384607  0.033862869  0.039003278            2 
   93000    1.1145532   -6.3890366    37.818806  0.033887819  0.038933486            3 
   94000    1.1063848   -6.3765863    38.353645  0.034001458  0.038860134            4 
   95000      1.09245   -6.3738054    38.616025  0.033873706  0.038787558            2 
   96000    1.1298896   -6.3753537    39.215325  0.034041081  0.038721418            3 
   97000    1.0967727    -6.372779    39.522629  0.033954148   0.03865457            3 
   98000    1.1128771   -6.3945777    39.857663   0.03389257  0.038580801            3 
   99000    1.1092169   -6.3720245    40.114596  0.033766495  0.038502043            4 
  100000    1.1054273   -6.3703466    40.449405  0.033707837  0.038418648            5 
  101000    1.1288026   -6.3686535     41.10486  0.033914901  0.038338467            3 
  102000    1.0814912   -6.3943123    41.547161  0.033943759  0.038271101            5 
  103000    1.0930434   -6.3924338    41.900299  0.033899918  0.038207762            2 
  104000    1.1231313   -6.4179753    42.196763  0.033811509  0.038140774            4 
  105000    1.1131179   -6.3991853    42.393548  0.033645673  0.038064114            3 
  106000    1.0928181   -6.4677686    42.477535  0.033394289  0.037977123            4 
  107000    1.1155558   -6.3997724    43.043172   0.03352272  0.037889112            2 
  108000    1.0857502   -6.4131632    43.417576  0.033501216  0.037803997            3 
  109000    1.0942249   -6.4099498    43.603225  0.033335799  0.037716018            4 
  110000    1.1168946   -6.4289171     44.14742  0.033445015  0.037622071            3 
  111000    1.0955466   -6.4395858    44.080539  0.033093498  0.037531487            2 
  112000     1.101251   -6.4474785    44.623404  0.033201937  0.037439303            5 
  113000    1.0759759   -6.4097324    44.976951  0.033168843  0.037342092            7 
  114000    1.0837941   -6.4345999    45.243496  0.033072731  0.037249616            4 
  115000    1.0721797   -6.4086565    45.871187   0.03323999  0.037163346            3 
  116000    1.0924189    -6.454957     46.12986  0.033139267  0.037078959            2 
  117000    1.0829093   -6.4471521    46.517878  0.033132391   0.03699499            7 
  118000    1.0961663   -6.4687884    46.488414  0.032830801    0.0369067            3 
  119000    1.0877759    -6.440346    47.165178  0.033028836  0.036814148            5 
  120000    1.0977851   -6.4765713    47.311502  0.032855209  0.036730438            3 
  121000    1.0654631   -6.4210727    47.665205  0.032827276  0.036643167            4 
  122000    1.0566281   -6.4728239     48.06216  0.032829344  0.036553148            6 
  123000     1.063323   -6.4763445    48.187962  0.032647671  0.036459919            4 
  124000    1.0747935   -6.4614012     48.73657  0.032753071  0.036370047            3 
  125000    1.0845594   -6.4673262    49.008214  0.032672142  0.036281713            5 
  126000    1.0574284   -6.4542651    49.504064  0.032740783  0.036193841            2 
  127000    1.0549268   -6.4576238    49.907053   0.03274741  0.036115723            4 
  128000    1.0790102   -6.4876816    50.286362  0.032738517  0.036042522            3 
  129000    1.0634573   -6.4447615    50.577962  0.032673102  0.035964385            5 
  130000    1.0606695    -6.491132     50.72594  0.032516628  0.035883527            4 
  131000    1.0647085   -6.4684117     51.26976  0.032614351  0.035808287            3 
  132000    1.0605001   -6.4786116    51.633521   0.03259692    0.0357338            5 
  133000    1.0666309   -6.4480333    51.840947  0.032481796  0.035658911            6 
  134000    1.0427653   -6.4950234    52.190069   0.03245651  0.035581868            4 
  135000    1.0628536   -6.4896096     52.45679  0.032380734    0.0355043            3 
  136000    1.0567825   -6.5074954    52.784113  0.032343206  0.035427165            4 
  137000    1.0503805   -6.4810203    53.161242  0.032336522   0.03535421            4 
  138000    1.0374117   -6.4705256    53.515848  0.032316333  0.035281009            3 
  139000    1.0493489   -6.4902432    53.947108  0.032342391  0.035207423            6 
  140000    1.0121267   -6.4841211    54.332295  0.032340652  0.035136162            5 
  141000    1.0605114   -6.4936717    54.430989  0.032169615  0.035063261            4 
  142000    1.0688951   -6.5020857       54.712  0.032107981  0.034988222            4 
  143000    1.0486979   -6.5185624     54.96412  0.032030373  0.034913352            5 
  144000    1.0406899   -6.5431751    55.349732  0.032031095   0.03484162            5 
  145000    1.0516142   -6.5631257    55.672812  0.031995869  0.034766602            3 
  146000    1.0474183   -6.5256273    55.986441  0.031955731  0.034694416            4 
  147000    1.0239058   -6.5051548    56.291563  0.031911317  0.034622252            4 
  148000    1.0288729   -6.5195529    56.249167  0.031671828  0.034545185            7 
  149000    1.0515107   -6.5245092    56.630242  0.031672395  0.034466436            4 
  150000    1.0233627   -6.5202884      56.8349  0.031574944  0.034387497            3 
  151000    1.0202037   -6.5366723    57.232551  0.031585293  0.034308048            3 
  152000    1.0033831   -6.4960635    57.679116  0.031622322   0.03422944            4 
  153000    1.0224333   -6.5434365    57.875999  0.031522875  0.034154465            4 
  154000    1.0317952   -6.5545085    58.106981  0.031443172  0.034076492            4 
  155000    1.0324067   -6.5384209    58.466931  0.031433834  0.033998616            2 
  156000    1.0075756   -6.5260125    58.663792  0.031337496  0.033920645            6 
  157000    1.0379833   -6.5032062    58.848851   0.03123612  0.033839484            4 
  158000     1.019758   -6.5638238    58.722035  0.030971537  0.033755704            5 
  159000    1.0017369   -6.5446929    59.019252  0.030932522  0.033670504            5 
  160000    1.0273214   -6.5369536    59.447619  0.030962302  0.033583948            9 
  161000    1.0318528    -6.544827    59.737267   0.03091991  0.033499773            5 
  162000    1.0244893   -6.5403786    59.915892  0.030820932  0.033415741            2 
  163000    1.0039848   -6.5733073    60.079198  0.030715336  0.033332035            4 
  164000     1.021216   -6.5549983    60.563676  0.030774225  0.033248484            4 
  165000    1.0208917   -6.5657483    60.739401  0.030676465  0.033166277            4 
  166000    1.0039972   -6.6026058    60.904444   0.03057452  0.033082966           13 
  167000    1.0073296   -6.5801744    61.273125  0.030575412   0.03299936            7 
  168000    1.0144785   -6.6118703    61.492843  0.030502402  0.032917214            3 
  169000     1.007083   -6.6095387    62.094112  0.030618398  0.032837462            7 
  170000   0.99411066   -6.5838338    62.466681  0.030620922  0.032760232            2 
  171000   0.99932748   -6.5730096    62.839085  0.030623336  0.032686264            8 
  172000   0.98761503   -6.6160061    63.041375  0.030543302  0.032613681            4 
  173000   0.98424291   -6.5847818    63.256721  0.030470482  0.032541675            3 
  174000    0.9859109   -6.6076568    63.563681  0.030442376  0.032469655            7 
  175000   0.99464647   -6.6139926    64.155946   0.03055045  0.032403576            6 
  176000   0.98438241   -6.6186436     64.13065  0.030364891  0.032337577            4 
  177000   0.97338878   -6.5889008    64.500601  0.030367515  0.032271947            5 
  178000   0.98928815   -6.6027064    64.684357  0.030282939  0.032204141            7 
  179000   0.98116715   -6.6060008    64.883669   0.03020655  0.032133825            4 
  180000   0.99262124   -6.6381964    65.114099  0.030145416  0.032064974            6 
  181000   0.99813693   -6.5866401    65.342195  0.030083883  0.031996449            4 
  182000   0.96879265   -6.6415217     65.56288  0.030019634   0.03192783            4 
  183000   0.98584991   -6.6523894    65.888586   0.03000391  0.031857683            5 
  184000   0.97112461   -6.6463054    66.127143  0.029948887  0.031788772            7 
  185000   0.96470875   -6.6484144    66.413952  0.029916194  0.031719919           11 
  186000   0.97460379    -6.680993    66.478843  0.029784428  0.031652016            8 
  187000   0.96062992   -6.6639519    66.986673  0.029851458  0.031583316            4 
  188000    0.9654591   -6.6459305    66.855074  0.029634341  0.031513615            4 
  189000    0.9565996   -6.6394134    66.993843  0.029538731  0.031439775            7 
  190000   0.94147242    -6.658406    67.137945  0.029446467  0.031365337            5 
  191000   0.95706032   -6.6886763    67.153404  0.029299042  0.031291162            3 
  192000   0.95997358   -6.6681939     67.63336  0.029354757  0.031217852            3 
  193000   0.98527771   -6.6916592    67.798443  0.029273939  0.031143012            3 
  194000   0.96703751   -6.6862541    68.010616  0.029214182  0.031067998            6 
  195000   0.96593161   -6.6746368    68.227105  0.029156882  0.030993759            6 
  196000     0.948104   -6.6984357    68.684919  0.029202772  0.030920764            5 
  197000   0.96569447   -6.6763269    69.100413  0.029230293   0.03084952            4 
  198000   0.96695226   -6.6567071    69.132763  0.029096281  0.030779229            6 
  199000   0.95818857   -6.6824415    69.345592  0.029039193  0.030708534            3 
  200000    0.9356347   -6.6816791    69.628794  0.029011997  0.030638797            2 
  201000   0.95603798   -6.6974128     70.15471  0.029085701  0.030571512            6 
  202000   0.96644793   -6.6880083     70.23975  0.028976795   0.03050423           10 
  203000   0.91572127    -6.685382    70.204459  0.028819564  0.030436753           10 
  204000   0.93351573   -6.7316135    70.664714  0.028866305   0.03036884            7 
  205000   0.93444203   -6.7120706    70.687141   0.02873461  0.030300623            4 
  206000   0.93334316   -6.7356724    70.896015  0.028679617  0.030231709            5 
  207000   0.93670853   -6.6812863    70.954049  0.028564432  0.030161745            9 
  208000   0.94734536   -6.7169997    70.974617  0.028435343  0.030090037            6 
  209000   0.93633346   -6.7216074    71.354626  0.028450808  0.030018571            4 
  210000   0.91337623   -6.6775803    71.660423  0.028436676  0.029948051            7 
  211000   0.93758914   -6.6874948    71.531055  0.028250812  0.029876059            7 
  212000   0.93724817   -6.7340599     71.82303  0.028232323  0.029802962            5 
  213000   0.92373118   -6.7645863    71.921091  0.028138142  0.029730817            9 
  214000   0.92860048   -6.7327885     72.05484  0.028058738  0.029657609            5 
  215000   0.92562795   -6.7173268    72.196147  0.027983003  0.029583342            5 
  216000   0.92806313   -6.7711817    72.411727  0.027936623  0.029509586            8 
  217000   0.91472657   -6.7575774    72.294026  0.027762683  0.029434989            8 
  218000   0.90396584   -6.7364665    72.597411  0.027751304  0.029360411            5 
  219000   0.91753169   -6.7866836    72.942462  0.027755884  0.029286179            9 
  220000   0.88891257   -6.7764693    72.996903  0.027650342  0.029211699            3 
  221000   0.91827201   -6.7307998    73.264605  0.027626171  0.029137692            6 
  222000   0.90930878   -6.7251252     73.61196  0.027632117  0.029064707            8 
  223000   0.89575736   -6.7418828     73.75339  0.027561057   0.02899266            3 
  224000   0.92957128   -6.7740902    73.971348  0.027519103   0.02892141            4 
  225000   0.91634347   -6.7835763     74.22519  0.027490811   0.02885121            5 
  226000   0.91183643   -6.7786062    73.975845  0.027277229  0.028779054           12 
  227000   0.88446992   -6.7772239     74.11145  0.027206847  0.028706608            9 
  228000   0.90055152   -6.7854064    74.211861  0.027124218   0.02863244            4 
  229000   0.90650893   -6.7999495    74.584022  0.027141202  0.028559065            5 
  230000   0.88565649   -6.7864844    74.835872  0.027114446   0.02848625            4 
  231000   0.90648881   -6.7722309    74.773346  0.026974511  0.028411799            6 
  232000   0.89137193   -6.7937763    75.150765  0.026993809  0.028338444            5 
  233000   0.89943039   -6.7930599    75.239232  0.026909597  0.028265577            9 
  234000   0.90704664   -6.7676675    75.692032  0.026955852  0.028193743            5 
  235000   0.89351751   -6.8170312    75.836683  0.026892441  0.028122869            4 
  236000   0.88325114   -6.8197595     75.68201  0.026723874  0.028051915            5 
  237000   0.88424781    -6.786691     75.97809  0.026715221  0.027980198            5 
  238000   0.88778072   -6.8159224    76.277951  0.026707966  0.027909689            5 
  239000   0.87365765   -6.8112918    76.203214  0.026570158  0.027838932            5 
  240000   0.89099399   -6.8317799    76.629801   0.02660757  0.027768405            8 
  241000   0.87909139   -6.8297694    76.774547  0.026547215  0.027699307            4 
  242000   0.89644453    -6.839886    76.759168   0.02643222  0.027629683            6 
  243000   0.87912287    -6.856372    77.185285  0.026469576  0.027560524            7 
  244000   0.87872946   -6.8553229    77.147183  0.026348081  0.027491798            7 
  245000   0.86919498   -6.8574401    77.336139  0.026304809  0.027423655            9 
  246000   0.87086769   -6.8144708     77.83489  0.026366833  0.027356195           13 
  247000      0.86102   -6.8301546    77.782761  0.026242497  0.027289665           14 
  248000   0.86294817   -6.8294645    78.084929  0.026238215  0.027224149            5 
  249000     0.878178   -6.8290797    78.089308  0.026134306  0.027158112           13 
  250000   0.87921452   -6.8762863    78.361678  0.026120559  0.027092388            5 
  251000   0.89449393   -6.8637038    78.417717  0.026035099  0.027025757           12 
  252000   0.87495279   -6.8451681    78.459937  0.025945746  0.026958357           11 
  253000   0.86182199    -6.881014    78.580994  0.025883068  0.026890593            7 
  254000   0.85133907   -6.8661055    78.819311  0.025859354  0.026823724            7 
  255000   0.86388782   -6.8822151    78.830934  0.025761743  0.026756103           10 
  256000   0.85073321   -6.8885031    78.966651   0.02570529  0.026689238           10 
  257000   0.83635789   -6.8581637    79.204721  0.025682465  0.026623302            9 
  258000   0.85461226   -6.8930196    79.248813  0.025597162  0.026556826           10 
  259000   0.84216039   -6.8794647    79.376552  0.025539431  0.026490524            5 
  260000   0.83671167    -6.866969    79.425138  0.025456775   0.02642432            5 
  261000   0.85118855   -6.8926077    79.584065  0.025409982  0.026358184            6 
  262000   0.84783495   -6.8941929    79.965249  0.025434239  0.026292229            5 
  263000   0.83974208   -6.9044609    79.886297  0.025312515  0.026225531            6 
  264000   0.84692327   -6.9096172    79.912654  0.025224954  0.026158944           17 
  265000   0.84913076   -6.8946726    80.019206  0.025163272  0.026092093            6 
  266000   0.83720537   -6.8818001    80.213957  0.025129686  0.026025319            7 
  267000   0.83156716   -6.9185983    80.166203  0.025020662   0.02595841           22 
  268000   0.86313426   -6.8849813    80.352633  0.024985272  0.025890537           13 
  269000    0.8415226   -6.9208316    80.364411  0.024896038  0.025822104            5 
  270000   0.83554872   -6.9514902    80.302194  0.024784628  0.025753675            6 
  271000   0.84415083   -6.8972233    80.364316  0.024712274  0.025685005           10 
  272000    0.8380586   -6.9355112    80.680162  0.024718187   0.02561612           11 
  273000   0.83895718   -6.9354208    80.764031  0.024653245  0.025547539            5 
  274000   0.83990853   -6.9309338    81.024108  0.024642369  0.025480205            7 
  275000   0.81127916    -6.937468    80.928745  0.024523862  0.025413519           10 
  276000   0.81449221   -6.9237456    81.155061   0.02450334  0.025346082           12 
  277000   0.81901213   -6.9265669    81.218833  0.024434065  0.025278706            7 
  278000   0.82644224   -6.9377279    81.238545  0.024352082  0.025211562            7 
  279000   0.83420272   -6.9655029    81.326352  0.024291025  0.025143836           15 
  280000   0.81025567   -6.9304568    81.424907  0.024233603  0.025076157           14 
  281000   0.81883259   -6.9512629    81.648316  0.024213617  0.025008769           13 
  282000   0.81786077   -6.9470321    81.429478  0.024063085  0.024940874           10 
  283000   0.81428183   -6.9243487    81.773737  0.024079428  0.024873567           11 
  284000   0.81443274   -6.9601892    81.882732  0.024026623  0.024807324            9 
  285000   0.83235793   -6.9722253    81.892897  0.023945292  0.024739923            7 
  286000   0.81639169   -6.9631599    82.012288  0.023896354  0.024672787            6 
  287000   0.81596697   -6.9680522    82.059855  0.023826903  0.024606496            4 
  288000   0.81836395   -6.9731109     82.15195  0.023770819  0.024540112            5 
  289000    0.8179118   -6.9710933     82.21025  0.023705378  0.024473849            8 
  290000   0.80193852   -6.9645212    82.405667  0.023679789  0.024407446            7 
  291000   0.79187154   -7.0150168    82.541655  0.023637358  0.024341249           13 
  292000   0.80922905   -6.9858534    82.535313  0.023554598  0.024275116            6 
  293000   0.80168189    -6.962244     82.63751  0.023503274  0.024209343           17 
  294000   0.80785195    -6.979457    82.844089  0.023481885  0.024143388           11 
  295000    0.7969165   -7.0090252    82.894688  0.023416578  0.024077885            7 
  296000   0.80414265   -7.0137847    82.991601  0.023364752  0.024012451           15 
  297000   0.82150766    -7.005869    82.679352  0.023198471  0.023946501            8 
  298000   0.79230086   -6.9904298    83.039432  0.023221318  0.023880315            7 
  299000   0.79969615   -7.0336911    82.855235  0.023092317  0.023814115            9 
  300000   0.77916304   -6.9994227    83.113309   0.02308703  0.023747783           11 
  301000   0.79211212   -7.0296932    82.965906   0.02296952  0.023681749           10 
  302000   0.78279176   -6.9934773    83.136751  0.022940605  0.023615373           15 
  303000   0.78391926   -7.0175721     83.16799  0.022873485  0.023549227           12 
  304000   0.80426649   -7.0444115    83.464221  0.022879447  0.023483681           11 
  305000    0.7883622    -7.024283    83.530279   0.02282248   0.02341801           17 
  306000   0.76822037   -7.0506642    83.518586  0.022744713  0.023352478           12 
  307000   0.77129976   -7.0414359    83.592774  0.022690764  0.023287154           14 
  308000   0.78067518   -7.0079696    83.707623  0.022648166  0.023221726           11 
  309000   0.77712146   -7.0317817    83.638666  0.022556274  0.023156535            6 
  310000   0.75117996   -7.0609299    83.627285  0.022480453   0.02309106            5 
  311000   0.78264288   -7.0767758    83.722811  0.022433765  0.023025433           10 
  312000   0.76914444   -7.0658771    83.611686  0.022332181  0.022959603           29 
  313000   0.77635488   -7.0559271      83.7277   0.02229172  0.022893964           25 
  314000   0.76719534   -7.0915886     83.63835  0.022197014  0.022827956           16 
  315000   0.75896965   -7.0734889    83.705619  0.022144344  0.022761994           10 
  316000   0.77268102   -7.0517118    83.892713  0.022123606  0.022695878           16 
  317000   0.74767462   -7.0705188    83.850955  0.022042838  0.022629901            7 
  318000   0.75404885    -7.086129    84.005987  0.022014148  0.022563832           25 
  319000   0.75468552   -7.0871033    83.916597  0.021921786  0.022498074           12 
  320000   0.76146311   -7.0816321    83.757363  0.021811813  0.022432187           13 
  321000   0.75295733   -7.0715664     84.02132  0.021812388  0.022366252           15 
  322000    0.7600142   -7.0977239    83.849341   0.02170014  0.022300243           18 
  323000   0.76561454   -7.0817543    83.816968  0.021624605  0.022234388           29 
  324000   0.75878815   -7.0988214    83.846413  0.021565436  0.022167977           28 
  325000   0.78212003    -7.114918    83.847262  0.021499298  0.022101485           18 
  326000   0.74181151   -7.0850301    83.885835  0.021443209  0.022035234           22 
  327000     0.764846   -7.1117612    83.985077  0.021402925  0.021968992           19 
  328000   0.74266186   -7.0976604    83.957149  0.021330577  0.021903272            9 
  329000    0.7338906   -7.1100531    83.979635  0.021271437  0.021837234            9 
  330000   0.74627177   -7.1166241    84.003062  0.021212895  0.021770961           14 
  331000   0.74013735   -7.1077255    84.179632  0.021193261  0.021705059            9 
  332000   0.72498463   -7.1183031    83.979913  0.021079296  0.021639202           42 
  333000   0.73985576   -7.1094906    84.186066  0.021067584  0.021573044           30 
  334000    0.7454256   -7.1289956    84.127242  0.020989831  0.021507128            7 
  335000   0.74656154   -7.1041117    84.144739  0.020931527  0.021440963           14 
  336000   0.73962778    -7.116069    84.241041  0.020893115  0.021375132            7 
  337000   0.72878766   -7.1265744    84.121818  0.020801637  0.021309671           11 
  338000   0.71662649   -7.1235816    84.136079  0.020743609  0.021244134           14 
  339000   0.73243835   -7.1381113    84.402271  0.020747854  0.021178769           12 
  340000   0.71917617   -7.1556112    84.267162  0.020653716  0.021113602            9 
  341000   0.72319078   -7.1567861    84.256078  0.020590439  0.021048705           12 
  342000   0.71959872   -7.1718783    84.133359  0.020500331  0.020983568           15 
  343000   0.73398799   -7.1723616    84.421107  0.020510473  0.020918625           12 
  344000   0.71870205   -7.1806157    84.382861  0.020441585  0.020853805           15 
  345000   0.70220289   -7.1852411    84.464425  0.020402035  0.020789195           15 
  346000   0.69505873   -7.1750984     84.57287  0.020369188  0.020725215           14 
  347000    0.7022892   -7.1214357    84.681752  0.020336636  0.020661423           10 
  348000   0.71137794   -7.1314018    84.693522  0.020281016  0.020597811           14 
  349000   0.71404922   -7.1753117     84.60003   0.02020058   0.02053437           18 
  350000   0.73075642   -7.1738859    84.472377  0.020112471  0.020470874           12 
  351000   0.69746877   -7.1675273    84.449691  0.020049784   0.02040746           18 
  352000   0.70036771   -7.1762676    84.470501  0.019997751  0.020343926            7 
  353000   0.70900163   -7.2053777    84.619292  0.019976226  0.020280487           19 
  354000   0.70081842   -7.2094333    84.783643  0.019958485  0.020217595           14 
  355000   0.70120908   -7.2052344    84.780585  0.019901546  0.020154695           29 
  356000   0.70346079   -7.2019693    84.509876  0.019782274  0.020091878           11 
  357000   0.68263697   -7.2316799    84.461186  0.019715496  0.020028933           20 
  358000   0.69235526   -7.1946708    84.767152  0.019731646  0.019966344           13 
  359000   0.69418939   -7.2295441     84.60542  0.019639141  0.019903925           18 
  360000   0.69475999   -7.2444203    84.756131  0.019619475  0.019841557           26 
  361000    0.6964454   -7.2379509    84.770732  0.019568498  0.019779491           26 
  362000    0.7017945   -7.2524737    84.677927  0.019493077   0.01971767           16 
  363000    0.7045262    -7.236984    84.758318  0.019457832  0.019655875           19 
  364000   0.68485757   -7.2358533    84.802371  0.019414462  0.019594501           28 
  365000   0.69632702   -7.2217148    84.931178   0.01939068   0.01953352           20 
  366000   0.68082645   -7.2202039    84.899573  0.019330504  0.019472811           20 
  367000   0.68398233   -7.2145652    84.960241  0.019291608  0.019412131           19 
  368000   0.68781277    -7.240688    85.027537  0.019254424  0.019351835           27 
  369000   0.68209521   -7.2530921    84.966568  0.019188475  0.019291442           34 
  370000   0.67364307   -7.2651372    84.769805  0.019092298  0.019230854           25 
  371000     0.666557   -7.2419984    85.000966   0.01909276  0.019170575           22 
  372000   0.68330389   -7.2410921    84.970785  0.019034674   0.01911044           25 
  373000   0.69493131   -7.2589945    84.929073  0.018974324  0.019050438           23 
  374000   0.66808721   -7.2620444    85.002255  0.018939896   0.01899053           17 
  375000   0.67047825    -7.270342    85.056797  0.018901511  0.018930776           31 
  376000   0.67591213   -7.2736671    84.847083  0.018804761  0.018871293           21 
  377000   0.65890121   -7.2856991    84.875523  0.018761168  0.018811785           34 
  378000   0.65696755   -7.2855894    84.787615  0.018692155  0.018752193           31 
  379000    0.6548184   -7.2880436    84.891041  0.018665576  0.018692857           26 
  380000    0.6577963   -7.2889488    84.966549  0.018633015  0.018633536           37 
  381000   0.66032735   -7.2767908    84.920295  0.018573993  0.018574142           31 
  382000   0.66720277    -7.273004    84.963127  0.018534714  0.018514933           24 
  383000   0.65631912   -7.3052207    84.824564  0.018456171     0.018456           18 
  384000   0.65917948   -7.2980106    85.006132  0.018447511   0.01839735           28 
  385000   0.65366872   -7.2964499    85.139536  0.018428471  0.018338975           21 
  386000   0.64511811   -7.3210784    84.733471  0.018293064  0.018280688           35 
  387000    0.6541487   -7.3182705    84.956335  0.018293785  0.018222296           22 
  388000   0.64404482   -7.3163544    84.972846  0.018250182  0.018164256           27 
  389000   0.65549374    -7.325126    84.934621  0.018195077  0.018106337           32 
  390000   0.64723937   -7.3259157    84.818377  0.018123585  0.018048421           52 
  391000   0.64246041   -7.3342589    84.938665   0.01810287   0.01799086           22 
  392000   0.66260825   -7.3050067    84.844763  0.018036727  0.017933669           44 
  393000   0.62479447   -7.3211774    84.987402  0.018021078  0.017876581           40 
  394000   0.63817003   -7.3179755    84.976234  0.017972977  0.017819725           48 
  395000   0.64378544   -7.3427742    85.042597  0.017941476  0.017763064           47 
  396000   0.65120508   -7.3485942    84.999524  0.017887105  0.017706608           35 
  397000   0.63953719   -7.3323809    85.105841  0.017864366  0.017650271          144 
  398000    0.6401935   -7.3179026    85.062638  0.017810435  0.017594295           78 
  399000   0.62151134   -7.3445152    85.095131  0.017772584  0.017538462           35 
  400000   0.62422654   -7.3700165     84.95134  0.017698196  0.017482738           45 
  401000   0.61614245   -7.3340634    85.039385  0.017672358   0.01742732           41 
  402000   0.62546049   -7.3394422    85.195395  0.017660737  0.017372213           52 
  403000   0.62691292   -7.3641556    85.145231  0.017606541  0.017317426           39 
  404000   0.63034824    -7.331942    84.919266   0.01751635  0.017262562           29 
  405000   0.61165952   -7.3920071     85.08535  0.017507274  0.017207815           26 
  406000   0.61014677   -7.3768018    85.078766  0.017462801  0.017153245           59 
  407000   0.61506283   -7.3802572    85.246024  0.017454141   0.01709879           65 
  408000   0.60805813   -7.3699559    84.934556  0.017347744  0.017044528          101 
  409000    0.6210811   -7.3784707    84.927757  0.017303944  0.016990469           58 
  410000   0.61236328    -7.381308    85.089869  0.017294689  0.016936432           83 
  411000   0.60818012   -7.4061384    85.227959  0.017280608  0.016882674          133 
  412000   0.61013853    -7.397249    85.094576  0.017211686  0.016829083           75 
  413000   0.62126336   -7.3910813    85.053792  0.017161782  0.016775572          119 
  414000   0.59767488   -7.3864474    84.911406  0.017091668   0.01672217          180 
  415000   0.60480472   -7.3759916    84.937182  0.017055659   0.01666897          203 
  416000   0.58397234   -7.4027035    84.984978  0.017024234  0.016616008          138 
  417000   0.61282091   -7.4089936    85.054296  0.016997261  0.016563267          155 
  418000   0.59906803   -7.4208713    84.925879  0.016930997    0.0165107          124 
  419000   0.60168052   -7.4259104    85.141777  0.016933528  0.016458289          173 
  420000   0.59124239   -7.4123723    85.163259  0.016897472  0.016406281          264 
  421000   0.59757265   -7.4203343     85.14334  0.016853393  0.016354421          201 
  422000   0.59731673   -7.4248685    85.039268  0.016792904  0.016302617          269 
  423000   0.59469468   -7.4210479    85.210976  0.016787032  0.016250829          241 
  424000   0.59356014   -7.4278942    85.036632  0.016713174  0.016199283          218 
  425000   0.59176161   -7.4345186     84.91695  0.016650382  0.016147806          219 
  426000   0.59265301   -7.4374023    85.196228  0.016665929  0.016096665          191 
  427000   0.58361869   -7.4381618    84.939524    0.0165768  0.016045581          328 
  428000    0.5835191   -7.4128426    85.030234  0.016555731  0.015994667          201 
  429000   0.58209933   -7.4478812    85.150206  0.016540444  0.015943792          198 
  430000   0.57313931   -7.4468722    84.956493  0.016464437  0.015893124          185 
  431000   0.58907498   -7.4388359    85.147267  0.016463122  0.015842618          256 
  432000   0.57809256    -7.471545    84.928054  0.016382726  0.015792289          307 
  433000   0.58009877   -7.4486441    84.898041  0.016339115  0.015742156          234 
  434000   0.57459062   -7.4542514    84.933442  0.016308265  0.015692078          250 
  435000   0.57874393   -7.4485358    84.923334  0.016268838  0.015642071          308 
  436000    0.5697212   -7.4523438     84.88947  0.016225052  0.015592291          273 
  437000   0.56789077   -7.4888536    84.804871  0.016171791   0.01554251          361 
  438000   0.56790972   -7.4859613    84.698583  0.016114647   0.01549284          318 
  439000   0.56977763   -7.4863828    84.803562  0.016097867  0.015443357          289 
  440000   0.56560074   -7.4893074     84.89883  0.016079324  0.015394031          263 
  441000   0.55505288    -7.484854    84.764717   0.01601752  0.015344816          237 
  442000   0.56330297   -7.4833367    84.926507  0.016011785  0.015295792          328 
  443000   0.55239423   -7.4910027    84.675371  0.015928399  0.015246886          222 
  444000   0.56763654   -7.4907896    84.866126  0.015928327  0.015198168          185 
  445000   0.55269215   -7.4980735       84.881  0.015895318  0.015149597          250 
  446000   0.57208111   -7.5332768    84.785184  0.015841776  0.015101233          250 
  447000   0.54341516   -7.5316881    84.835814  0.015815774  0.015053064          204 
  448000   0.56252366   -7.4985534    84.766069  0.015767498  0.015005062          293 
  449000   0.55909811   -7.5046166    84.847252  0.015747448  0.014957309          201 
  450000   0.53874124   -7.5116114    84.708251  0.015686713  0.014909633          245 
  451000   0.54573946   -7.4920256    84.746313  0.015658964  0.014862181          260 
  452000   0.54735228   -7.4962438    84.809809  0.015636027  0.014814965          236 
  453000    0.5521795    -7.517418    84.824064  0.015604132  0.014767906          285 
  454000   0.54087069   -7.5062424    84.700877  0.015547151   0.01472093          340 
  455000   0.54122753   -7.5289767    84.774329  0.015526434  0.014674311          264 
  456000   0.54363907   -7.5270306    84.723601  0.015483114  0.014627765          319 
  457000   0.54587847    -7.530244    84.679757  0.015441239  0.014581354          288 
  458000   0.54559675   -7.5205995    84.798569  0.015429143  0.014535128          331 
  459000    0.5320665   -7.5250932    84.756978  0.015387977   0.01448904          386 
  460000   0.52342573   -7.5041048    84.761332  0.015355314  0.014443234          369 
  461000   0.52814464   -7.5438579    84.711044  0.015312915  0.014397462          351 
  462000   0.52062472   -7.5424788    84.690286  0.015276026  0.014351862          372 
  463000    0.5226648   -7.5470326    84.518526  0.015212118  0.014306363          316 
  464000   0.52198842   -7.5490784    84.690294  0.015210182   0.01426107          328 
  465000   0.52728235   -7.5532484    84.663431  0.015172658  0.014216009          315 
  466000   0.51913201    -7.555509    84.579462  0.015125083  0.014171129          310 
  467000   0.51271677   -7.5534058    84.659898  0.015107048  0.014126311          360 
  468000   0.51699636   -7.5606675    84.592337  0.015062738  0.014081681          383 
  469000   0.51388557   -7.5635005    84.681318  0.015046432  0.014037168          392 
  470000   0.51422455   -7.5619371    84.711522  0.015019773  0.013992849          382 
  471000    0.5104291   -7.5499477    84.646839   0.01497644  0.013948662          275 
  472000   0.51431004   -7.5684795    84.632171  0.014942121  0.013904641          305 
  473000   0.50337546   -7.5653539    84.654705  0.014914501  0.013860804          365 
  474000   0.51531952   -7.5784958    84.660775  0.014884102  0.013817019          386 
  475000   0.51424405   -7.5665471    84.679889  0.014856121  0.013773518          460 
  476000   0.51592394   -7.5609455    84.658601  0.014821184  0.013730134          414 
  477000   0.51612878   -7.5663514    84.345759  0.014735457  0.013686868          488 
  478000   0.50729668   -7.5704576    84.552457  0.014740665  0.013643758          446 
  479000   0.48919044   -7.5925323    84.383718  0.014680535  0.013600877          378 
  480000   0.50657648    -7.582148    84.530322  0.014675403  0.013558107          442 
  481000   0.49983274   -7.5858576    84.544492  0.014647348  0.013515477          421 
  482000   0.49509928    -7.607389     84.64639  0.014634576  0.013473021          435 
  483000    0.4981933   -7.6057372    84.407426  0.014563048  0.013430695          392 
  484000   0.48580758   -7.5828488    84.431669  0.014537133  0.013388535          395 
  485000   0.48936858   -7.6067636    84.518911   0.01452215  0.013346468          389 
  486000    0.4996046   -7.6039193    84.304943   0.01445558  0.013304599          393 
  487000   0.49011018   -7.6153352    84.281592  0.014421901  0.013262832          422 
  488000   0.48408063   -7.5998621     84.46663  0.014423946  0.013221256          513 
  489000   0.49737588   -7.6074651    84.419551  0.014386427  0.013179819          512 
  490000    0.4918922   -7.6068262    84.341876  0.014343856  0.013138474          480 
  491000   0.47887032     -7.62853    84.446277  0.014332362   0.01309731          496 
  492000    0.4788595   -7.6095432      84.3433  0.014285789   0.01305633          401 
  493000   0.48359121   -7.6295894    84.254472  0.014241797   0.01301551          468 
  494000   0.48371856   -7.6103059    84.343065  0.014227912  0.012974803          382 
  495000   0.47353859   -7.6220452    84.377699     0.014205  0.012934248          460 
  496000   0.47108015   -7.6390315    84.349837   0.01417168   0.01289382          503 
  497000    0.4619299   -7.6283095    84.406663  0.014152693   0.01285359          521 
  498000    0.4682652   -7.6417776    84.376421  0.014119214  0.012813479          562 
  499000   0.46351845   -7.6309397    84.320308  0.014081548  0.012773541          513 
  500000   0.46602183   -7.6435618    84.400933  0.014066822  0.012733804          518 
  501000   0.47585078   -7.6404689    84.353813  0.014030907  0.012694193          462 
  502000   0.46030254   -7.6388106     84.40184   0.01401093  0.012654704          502 
  503000   0.46187925    -7.647958    84.301893  0.013966516  0.012615425          494 
  504000   0.47344549   -7.6402332    84.322723  0.013942249  0.012576214          474 
  505000   0.47362929   -7.6496182    84.253617  0.013903237  0.012537115          482 
  506000    0.4633002   -7.6629993    84.312153  0.013885401  0.012498204          565 
  507000   0.46031837   -7.6578546    84.223901  0.013843508  0.012459484          490 
  508000   0.45251325   -7.6695738    84.210889  0.013814122  0.012420838          495 
  509000   0.45286742   -7.6498471     84.26743  0.013796239  0.012382338          458 
  510000   0.44717251   -7.6527437    84.221698  0.013761715  0.012343984          408 
  511000     0.456146   -7.6493234    84.181478  0.013728225  0.012305768          427 
  512000   0.44625001   -7.6635046    84.261556  0.013714446  0.012267739          499 
Loop time of 1073.56 on 48 procs for 500000 steps with 4000 atoms

Performance: 80480.188 tau/day, 465.742 timesteps/s
99.4% CPU use with 48 MPI tasks x no OpenMP threads

MPI task timing breakdown:
Section |  min time  |  avg time  |  max time  |%varavg| %total
---------------------------------------------------------------
Pair    | 67.025     | 70.266     | 74.815     |  18.1 |  6.55
Neigh   | 6.6523     | 6.8222     | 6.9986     |   3.2 |  0.64
Comm    | 55.366     | 60.443     | 66.134     |  29.3 |  5.63
Output  | 0.82484    | 0.82535    | 0.83377    |   0.1 |  0.08
Modify  | 915.54     | 923.44     | 928.17     |   8.8 | 86.02
Other   |            | 11.76      |            |       |  1.10

Nlocal:        83.3333 ave          90 max          76 min
Histogram: 2 3 8 5 3 7 3 11 3 3
Nghost:        1789.29 ave        1821 max        1763 min
Histogram: 2 2 11 9 7 5 1 7 3 1
Neighs:        10958.3 ave       11889 max        9743 min
Histogram: 1 3 5 6 6 4 5 8 3 7
FullNghs:      21916.9 ave       23975 max       19758 min
Histogram: 1 5 7 5 6 4 4 10 3 3

Total # of neighbors = 1052009
Ave neighs/atom = 263.00225
Neighbor list builds = 26944
Dangerous builds = 0

#clear
#
#next RN
#
#jump SELF
Total wall time: 0:17:56
