
units lj                  # Use reduced LJ style units
atom_style atomic         # Uncharged point particles
atom_modify map hash      # Needed for indexing of clusters etc
                          # Used to be able to find where atoms are in relation to each other.

lattice fcc 1.0 spacing 1 1 1
Lattice spacing in x,y,z = 1.5874011 1.5874011 1.5874011
region box block 0 10 0 10 0 10 units lattice
create_box 2 box
Created orthogonal box = (0.0000000 0.0000000 0.0000000) to (15.874011 15.874011 15.874011)
  3 by 4 by 4 MPI processor grid
create_atoms 1 box
Created 4000 atoms
  using lattice units in orthogonal box = (0.0000000 0.0000000 0.0000000) to (15.874011 15.874011 15.874011)
  create_atoms CPU = 0.019 seconds
set type 1 type/fraction 2 0.68 78393
Setting atom values ...
  2740 settings made for type/fraction
mass 1 1.0
mass 2 1.0
pair_style lj/cut  3.5
pair_modify tail  yes
pair_coeff 1  1  1.0  1.0   # Intearaction between 1 and 1 set with epsilon = 1 and sigma = 1
pair_coeff 1  2  1.5  0.8
pair_coeff 2  2  0.5  0.88

write_data data.0
System init for write_data ...
Neighbor list info ...
  update every 1 steps, delay 10 steps, check yes
  max neighbors/atom: 2000, page size: 100000
  master list distance cutoff = 3.8
  ghost atom cutoff = 3.8
  binsize = 1.9, bins = 9 9 9
  1 neighbor lists, perpetual/occasional/extra = 1 0 0
  (1) pair lj/cut, perpetual
      attributes: half, newton on
      pair build: half/bin/atomonly/newton
      stencil: half/bin/3d
      bin: standard
WARNING: Not all mixed pair coeffs generated from mixing. Use write_data with 'pair ij' option to store all pair coeffs. (../write_data.cpp:312)


#############################
#   M E L T   S Y S T E M   #
#############################

velocity all create 2.4 3143649 mom yes dist gaussian # Assign velocities
                                                    # Temperature 2.4, random number seed, zero linear momentum
                                                                                # Gaussian distribution

timestep 0.002   # simulation timestep
thermo 1000       # output thermodynamic data every 1000 steps bf 100

# Define a fix  in this case with index 1 applied to all
# particles in the simulation. This fix is for simulations
# in the anisotropic NPT ensemble. Note that we use the MTK
# correction.
fix 1 all npt temp 2.4 2.4 0.1 iso 5.68 5.68 0.5 mtk yes tchain 5 pchain 5 # Use NPT ensemble
                                                                         # Set temperature and pressure and damping
                                                                         # Numbers of thermostats in chain and in barostat
run 10000          # run for 10000 steps
Per MPI rank memory allocation (min/avg/max) = 3.642 | 3.644 | 3.648 Mbytes
Step Temp E_pair E_mol TotEng Press Volume 
       0          2.4   -4.2819815            0  -0.68288149   -3.8317514         4000 
    1000    2.3997601   -3.9728563            0  -0.37411604    5.7823121    3612.1456 
    2000    2.3923884   -3.9004976            0  -0.31281216    5.8131387    3658.5452 
    3000    2.3871112   -3.9138592            0  -0.33408753    5.5110707    3671.0275 
    4000    2.4292326   -3.9530523            0  -0.31011446    5.6081945    3639.0385 
    5000    2.4449948   -3.9579453            0  -0.29137005    5.6879517     3642.262 
    6000    2.3415166   -3.8649488            0  -0.35355198    5.8269538    3661.1591 
    7000    2.4443907   -3.9371479            0  -0.27147856    5.5156404    3663.3148 
    8000    2.4399769   -3.9262946            0  -0.26724436    5.8534443    3629.3979 
    9000    2.3488357   -3.9140022            0  -0.39162944    5.8206326    3644.6848 
   10000    2.3702884   -3.9424541            0   -0.3879104    5.5869195    3638.0247 
Loop time of 2.66248 on 48 procs for 10000 steps with 4000 atoms

Performance: 649019.408 tau/day, 3755.899 timesteps/s
99.6% CPU use with 48 MPI tasks x no OpenMP threads

MPI task timing breakdown:
Section |  min time  |  avg time  |  max time  |%varavg| %total
---------------------------------------------------------------
Pair    | 1.2152     | 1.2736     | 1.3657     |   2.9 | 47.84
Neigh   | 0.21869    | 0.22479    | 0.24156    |   0.9 |  8.44
Comm    | 0.80742    | 0.89969    | 0.96071    |   3.8 | 33.79
Output  | 0.00025656 | 0.00026248 | 0.00033275 |   0.0 |  0.01
Modify  | 0.2262     | 0.24819    | 0.29058    |   3.3 |  9.32
Other   |            | 0.01595    |            |       |  0.60

Nlocal:        83.3333 ave          95 max          71 min
Histogram: 1 2 4 6 7 11 10 5 0 2
Nghost:        1751.75 ave        1795 max        1704 min
Histogram: 2 2 3 6 7 10 10 3 3 2
Neighs:        10486.5 ave       11976 max        8858 min
Histogram: 2 2 4 6 7 11 7 4 2 3

Total # of neighbors = 503354
Ave neighs/atom = 125.83850
Neighbor list builds = 904
Dangerous builds = 192

# Equilibrate just above the melting temperature to avoid step fn in T

fix 1 all npt temp 1.25 1.25 0.1 iso 5.68 5.68 0.5 mtk yes tchain 5 pchain 5
run 2000
Per MPI rank memory allocation (min/avg/max) = 3.644 | 3.646 | 3.649 Mbytes
Step Temp E_pair E_mol TotEng Press Volume 
   10000    2.3702884   -3.9424541            0   -0.3879104    5.5869195    3638.0247 
   11000    1.2298712   -5.7572986            0   -3.9129529    5.9130624    2785.6213 
   12000    1.2492661   -5.8369422            0   -3.9635115    5.6323177    2766.7312 
Loop time of 0.656515 on 48 procs for 2000 steps with 4000 atoms

Performance: 526415.916 tau/day, 3046.388 timesteps/s
99.6% CPU use with 48 MPI tasks x no OpenMP threads

MPI task timing breakdown:
Section |  min time  |  avg time  |  max time  |%varavg| %total
---------------------------------------------------------------
Pair    | 0.30716    | 0.32662    | 0.34347    |   1.6 | 49.75
Neigh   | 0.042823   | 0.044746   | 0.046981   |   0.5 |  6.82
Comm    | 0.21423    | 0.23497    | 0.25747    |   2.2 | 35.79
Output  | 5.3063e-05 | 5.4445e-05 | 7.1719e-05 |   0.0 |  0.01
Modify  | 0.041886   | 0.045143   | 0.048032   |   1.0 |  6.88
Other   |            | 0.004982   |            |       |  0.76

Nlocal:        83.3333 ave          94 max          73 min
Histogram: 1 1 4 10 10 7 11 3 0 1
Nghost:        2112.00 ave        2133 max        2088 min
Histogram: 1 1 3 12 4 11 3 5 4 4
Neighs:        13795.4 ave       15200 max       11591 min
Histogram: 1 1 2 5 7 6 6 9 5 6

Total # of neighbors = 662179
Ave neighs/atom = 165.54475
Neighbor list builds = 145
Dangerous builds = 20

#############################
# L I N E A R  Q U E N C H  #
#############################

# Define solid atoms. This closely follows ten Wolde  Ruiz-Montero and Frenkel  Faraday Discuss  1996  104  93-110
# Compute components of the per-atom q6 vector
compute q6 all orientorder/atom degrees 1 6 components 6 nnn NULL cutoff 1.3 # compute the Q6 parameter.
                                                                             # Use all neighbours within 1.3 unit cell.

# get number of connections
compute coord_number all coord/atom orientorder q6 0.5

# An atom is solid if it has 8 or more connections (of a possible 14)
variable is_solid atom c_coord_number>=8
group solid dynamic all var is_solid    # Must be dynamic to update
dynamic group solid defined

# do clustering
compute cluster solid cluster/atom 1.3 # Create a cluster where all atoms within are solid and max 1.3 units from another member

# define chunks one chunk per cluster
compute clus_chunks solid chunk/atom c_cluster nchunk every compress yes  # Says which atoms are in which chunk

# count the size of each chunk
compute size_chunks solid property/chunk clus_chunks count


# Find the maximum entry in the vector of chunk sizes
variable max_n equal max(c_size_chunks)


# Thermo style which includes this variable
# thermo_style custom step temp pe vol v_max_n

thermo ${N}  # Print the thermo information every 100 steps
thermo 1000  

# Reset the npt fix at a lower temperature (below freezing)
fix 1  all npt temp  ${temp} ${temp}  0.1  iso  5.68  5.68  0.5  mtk yes tchain  5  pchain  5
fix 1  all npt temp  0.45 ${temp}  0.1  iso  5.68  5.68  0.5  mtk yes tchain  5  pchain  5
fix 1  all npt temp  0.45 0.45  0.1  iso  5.68  5.68  0.5  mtk yes tchain  5  pchain  5

dump dmp2 all dcd ${N} traj.dcd
dump dmp2 all dcd 1000 traj.dcd


compute msd all msd com yes
variable twopoint equal c_msd[4]/6/(step*dt+1.0e-6)
fix 9 all vector 10 c_msd[4]
variable fit equal slope(f_9)/6/(10*dt)
thermo_style custom step temp pe c_msd[4] v_twopoint v_fit v_max_n

fix 1 all npt temp 1.25 ${temp} 0.1 iso 5.68 5.68 0.5 mtk yes tchain 5 pchain 5
fix 1 all npt temp 1.25 0.45 0.1 iso 5.68 5.68 0.5 mtk yes tchain 5 pchain 5
run 500000 # 5000000  # Run for this many steps
Neighbor list info ...
  update every 1 steps, delay 10 steps, check yes
  max neighbors/atom: 2000, page size: 100000
  master list distance cutoff = 3.8
  ghost atom cutoff = 3.8
  binsize = 1.9, bins = 8 8 8
  4 neighbor lists, perpetual/occasional/extra = 1 3 0
  (1) pair lj/cut, perpetual
      attributes: half, newton on
      pair build: half/bin/atomonly/newton
      stencil: half/bin/3d
      bin: standard
  (2) compute orientorder/atom, occasional
      attributes: full, newton on
      pair build: full/bin/atomonly
      stencil: full/bin/3d
      bin: standard
  (3) compute coord/atom, occasional
      attributes: full, newton on
      pair build: full/bin/atomonly
      stencil: full/bin/3d
      bin: standard
  (4) compute cluster/atom, occasional
      attributes: full, newton on
      pair build: full/bin/atomonly
      stencil: full/bin/3d
      bin: standard
Per MPI rank memory allocation (min/avg/max) = 9.846 | 9.851 | 9.854 Mbytes
Step Temp PotEng c_msd[4] v_twopoint v_fit v_max_n 
   12000    1.2492661   -5.8369422 8.3500927e-31 5.7986752e-33 8.3333333e+20            3 
   13000    1.2527004   -5.8461402   0.57566743 0.0036901757  0.047611804            4 
   14000    1.2333773   -5.8309052    1.1383858 0.0067761056   0.04697898            3 
   15000    1.2407861   -5.8719431     1.644505 0.0091361388   0.04550815            3 
   16000    1.2508274   -5.9061651    2.2052575  0.011485716  0.045102631            4 
   17000     1.239203   -5.8385047    2.8034953  0.013742624  0.045679201            3 
   18000     1.242866   -5.8914608    3.3345139  0.015437564  0.046055784            2 
   19000    1.2546382   -5.9103086    3.9213599  0.017198947  0.046236652            2 
   20000    1.2417996   -5.9259228    4.6029206  0.019178835  0.046988666            3 
   21000    1.2452091    -5.903476    5.2013378  0.020640229  0.047947637            5 
   22000    1.2015924   -5.9227234    5.7269505  0.021692994  0.048295818            3 
   23000    1.2506663   -5.9257515    6.2650546  0.022699473  0.048184759            3 
   24000    1.2379405   -5.9016807     6.773637  0.023519572  0.047907355            2 
   25000    1.2218379    -5.915747     7.271852  0.024239506  0.047594657            6 
   26000    1.2561119   -5.9225373    7.8053937  0.025017287  0.047275742            3 
   27000    1.2346378   -5.8719801    8.3350094  0.025725337  0.046920966            2 
   28000    1.2197721   -5.8994288    8.8063081   0.02620925  0.046569648            2 
   29000    1.2275497   -5.9427901    9.1885436  0.026403861  0.046088491            5 
   30000    1.2329081   -5.9237016     9.650971  0.026808252  0.045613228            3 
   31000    1.2463542   -5.9182662     10.21677  0.027464434  0.045263193            2 
   32000    1.2350896   -5.9348325     10.70964  0.027889688  0.044973009            2 
   33000    1.2014911   -5.9118065     11.24607  0.028399165  0.044723452            2 
   34000      1.19287   -5.9374698    11.748438  0.028795191  0.044484347            4 
   35000    1.2156809   -5.9583299    12.001149  0.028574164  0.044154382            3 
   36000    1.2187305   -5.9739637    12.510671  0.028959887  0.043836953            5 
   37000     1.216894   -5.9973291    13.023523  0.029332258  0.043556278            2 
   38000    1.2149219   -5.9654637    13.500541  0.029606449  0.043314788            2 
   39000    1.2352465   -5.9700294     14.02626   0.02997064  0.043116908            5 
   40000    1.2113933   -5.9649824    14.583524  0.030382342  0.042976093            2 
   41000    1.2155485   -5.9676805    15.081317  0.030653082  0.042858482            2 
   42000    1.1749644   -5.9925704    15.579351  0.030911411  0.042767848            4 
   43000     1.229134   -5.9863567    15.995243  0.030998533  0.042678046            5 
   44000    1.2157349   -5.9885683    16.533883  0.031314172  0.042549307            2 
   45000    1.1918985   -5.9402832      16.9763  0.031437592  0.042422772            3 
   46000    1.2028873   -5.9385572    17.473683  0.031655223  0.042315461            1 
   47000    1.2079101   -5.9372535    18.080188  0.032057071  0.042259936            3 
   48000    1.1657081    -5.967238    18.384062  0.031916774  0.042198198            3 
   49000    1.1973592   -5.9803534    19.006516  0.032324006  0.042118002            1 
   50000    1.1668904   -5.9792342    19.337547  0.032229244  0.042039261            2 
   51000    1.1859124   -6.0162602    19.826705  0.032396576  0.041928534            2 
   52000    1.1767317    -6.009736    20.274563  0.032491286  0.041834539            3 
   53000    1.1962372   -5.9847431    20.786996  0.032683956  0.041745301            1 
   54000    1.1632344   -6.0404349    21.226144  0.032756394  0.041680744            2 
   55000    1.1740122   -6.0167576    21.651534  0.032805354  0.041594042            8 
   56000    1.2011583   -6.0178989    22.113403   0.03290685  0.041512198            2 
   57000     1.202965   -6.0269812    22.692128  0.033175626  0.041439721            4 
   58000    1.2022079   -6.0402723    23.107704  0.033200724  0.041365629            2 
   59000    1.1894075   -6.0038914     23.64601  0.033398319  0.041312981            2 
   60000    1.1525019   -6.0690239    24.065862  0.033424808  0.041270143            4 
   61000     1.169749   -6.0253785    24.591222  0.033594566  0.041219519            2 
   62000     1.173475   -6.0904634    24.830949  0.033374931  0.041149177            1 
   63000     1.148621   -5.9921937    25.487663   0.03371384  0.041073263            5 
   64000    1.1905618    -6.055025    25.693988  0.033455713  0.040972402            4 
   65000    1.1672922   -6.0020903    26.255151  0.033660449  0.040882083            4 
   66000    1.1763402   -6.0492631    26.666561    0.0336699  0.040793481            2 
   67000    1.1484634   -6.0587054    27.247257  0.033889623  0.040722852            4 
   68000    1.1420166   -6.0745161    27.661479  0.033898871  0.040674306            2 
   69000    1.1645875   -6.0604683    27.911384    0.0337094  0.040602795            2 
   70000    1.1404741   -6.1096072    28.530839  0.033965284  0.040531324            4 
   71000    1.1678323   -6.1294335     28.88823  0.033906373  0.040463475            5 
   72000    1.1445404   -6.0718486    29.343963   0.03396292  0.040396552            3 
   73000    1.1738511   -6.0468892    29.943383  0.034181944  0.040331814            3 
   74000    1.1646544   -6.0889022    30.383049  0.034215145  0.040282879            3 
   75000    1.1677313   -6.0953338    30.754917   0.03417213  0.040227805            5 
   76000    1.1547154   -6.0819722    31.407017  0.034437519  0.040179568            2 
   77000    1.1474691   -6.0934321    31.749123  0.034360522  0.040133444            3 
   78000    1.1457944   -6.1434087    32.021739   0.03421126  0.040073148            2 
   79000    1.1568329   -6.1319218    32.629992  0.034419822  0.040021623            2 
   80000    1.1766013   -6.0827559    33.224577  0.034608934  0.039976127            5 
   81000    1.1405027   -6.1017512    33.662442  0.034632142  0.039952585            5 
   82000    1.1732106   -6.1205799    34.031147  0.034584498  0.039925999            2 
   83000    1.1262875   -6.1090228    34.471932  0.034610374  0.039881071            4 
   84000    1.1275847   -6.1373536    34.616904  0.034342166  0.039825886            5 
   85000     1.113273   -6.1163001    35.045369  0.034358204  0.039759335            4 
   86000    1.1024468   -6.1163937    35.522732  0.034421252  0.039690267            3 
   87000    1.0830913   -6.1132596    35.841339  0.034330784  0.039622696            2 
   88000    1.1269063   -6.1219436    36.103324  0.034188754  0.039540522            3 
   89000    1.1108228   -6.1556093    36.492702  0.034169197  0.039459243            2 
   90000    1.1200085   -6.2141224    36.769895  0.034046199  0.039372021            3 
   91000    1.1056756   -6.1433874     37.22234  0.034086391  0.039286507            2 
   92000    1.1350219   -6.1223694    37.467896  0.033938311  0.039193056            3 
   93000     1.129304   -6.1530722    37.850325  0.033916062  0.039097726            4 
   94000    1.1334388   -6.1401355    38.098401  0.033775178   0.03899286            3 
   95000    1.1125934   -6.1672753    38.247257  0.033550225  0.038883107           11 
   96000    1.1016396   -6.1651198    38.530435  0.033446558  0.038762995            2 
   97000    1.1168357   -6.1713012    38.909016   0.03342699  0.038635983            4 
   98000    1.1408581   -6.1641365    39.273535  0.033395863  0.038513687            1 
   99000    1.1309856   -6.2295344     39.38703  0.033154065  0.038387033            3 
  100000    1.1126582     -6.17731    39.855872  0.033213227  0.038257778            3 
  101000    1.1270996   -6.2207174     40.18609   0.03315684  0.038133254            5 
  102000    1.1082516   -6.1690963    40.523678   0.03310758   0.03800318            7 
  103000    1.1120708   -6.1875927    40.642174  0.032882018  0.037870807            4 
  104000     1.080619   -6.1660121    40.952114  0.032814194  0.037734962            3 
  105000    1.1160517   -6.1657617    41.253375  0.032740774  0.037600409            6 
  106000    1.0910583   -6.1840199    41.679392  0.032766817  0.037468785            3 
  107000    1.0888276   -6.2425551    42.071174  0.032765711  0.037346428            5 
  108000     1.098662   -6.1908318    42.628344  0.032892241  0.037225934            2 
  109000    1.0795548   -6.2160469    42.843491  0.032754962   0.03710069            3 
  110000    1.0981413   -6.2831907     42.96021  0.032545613  0.036975742            2 
  111000    1.1007743   -6.2490074     43.34875  0.032544107  0.036854787            5 
  112000      1.07906   -6.2028922    43.569308   0.03241764  0.036733092            5 
  113000    1.0934111   -6.2138709    44.127363  0.032542303  0.036609715            2 
  114000    1.1057599   -6.2437197    44.447093  0.032490565   0.03649339            7 
  115000    1.0964708   -6.2152482    44.842634  0.032494662  0.036383514            3 
  116000    1.0682448   -6.2129624    45.180549  0.032457291  0.036275247            7 
  117000    1.0707855   -6.2159972    45.396164   0.03233345  0.036164224            2 
  118000    1.0703331   -6.2795081    45.627028  0.032222477  0.036052861            3 
  119000    1.0962738   -6.2381885    46.044396  0.032243975  0.035947263            6 
  120000    1.0761187   -6.3129806    46.280088   0.03213895  0.035843426            1 
  121000     1.059465   -6.2589379    46.924441  0.032317108  0.035745395            2 
  122000    1.0702636    -6.253591    47.180492  0.032227112  0.035651824            3 
  123000    1.0790103   -6.2565811    47.535133  0.032205374  0.035557359            4 
  124000    1.0669069   -6.3127287     47.60302  0.031991277  0.035460778            4 
  125000    1.0482631   -6.2234608    48.203249  0.032135499   0.03536047            2 
  126000    1.0709409   -6.2982267    48.597698  0.032141334  0.035266074            4 
  127000    1.0473054   -6.2956781    48.869606   0.03206667  0.035178597            3 
  128000    1.0743718   -6.2965266    49.206073  0.032035204  0.035091747            7 
  129000    1.0577644   -6.3055179    49.399757  0.031911988  0.035002128            5 
  130000    1.0456885   -6.2971839    49.893194  0.031982817  0.034913289            4 
  131000    1.0581801   -6.3248851    50.036417  0.031829782   0.03482619            4 
  132000    1.0526977   -6.3792108    50.229863  0.031710772  0.034736656            3 
  133000    1.0712854   -6.2957864    50.873521  0.031875639  0.034649967            2 
  134000     1.041829   -6.3199361    51.041884  0.031742465  0.034565606            2 
  135000    1.0521476   -6.3409137    51.189015  0.031598158  0.034477182            2 
  136000      1.05703   -6.3370304    51.503124  0.031558286  0.034388874            3 
  137000     1.053864   -6.3388181    51.667052  0.031427647  0.034300219            5 
  138000    1.0482982   -6.3364642    52.063256  0.031439164  0.034213538            5 
  139000    1.0495561   -6.3372023    52.413261  0.031422818  0.034128181            3 
  140000    1.0235854   -6.3506492    52.508878  0.031255285  0.034037771            5 
  141000    1.0468688   -6.3786312    52.656961  0.031121135  0.033942909            2 
  142000    1.0543029   -6.3538994    52.976072  0.031089244  0.033850259            4 
  143000    1.0485317   -6.3387814    53.557565  0.031210702  0.033761275            2 
  144000    1.0708331   -6.3671025    53.692801  0.031072223  0.033672879            5 
  145000    1.0510147   -6.3525139     54.23601   0.03117012  0.033590572            3 
  146000    1.0299481   -6.3624516    54.143104  0.030903598   0.03350465            7 
  147000    1.0394621   -6.3523688    54.496446  0.030893677  0.033415832            9 
  148000    1.0394998   -6.3843697    54.848889  0.030883383   0.03332998            2 
  149000    1.0242905   -6.3738807     54.87486  0.030690637  0.033244613            7 
  150000    1.0086795   -6.4066739    55.147191  0.030637328  0.033154642            5 
  151000    1.0267969   -6.4010079    55.647169  0.030710358  0.033063204            3 
  152000    1.0153782   -6.4239841    55.524786   0.03044122   0.03297636            6 
  153000    1.0275813    -6.402453     56.14583  0.030580517  0.032889964            4 
  154000     1.009546   -6.4292725    56.350714  0.030492811  0.032806695            4 
  155000    1.0083157   -6.4094396    56.692027  0.030479584  0.032721431            6 
  156000    1.0113154   -6.3963052    56.978208  0.030437077  0.032637458            7 
  157000    1.0112782   -6.4045867    57.271753  0.030399019  0.032554201            4 
  158000    0.9957772   -6.4081486    57.361856  0.030254143  0.032470203            5 
  159000    1.0007983   -6.4012508    57.432313  0.030100793  0.032385213            6 
  160000    1.0411792   -6.4348168    57.852931  0.030131735  0.032300983            5 
  161000    1.0241543     -6.43771    58.329522  0.030191264  0.032220582            4 
  162000    1.0159316    -6.410231    58.568903  0.030128036  0.032141101            3 
  163000    1.0139628   -6.4196647    58.766847    0.0300444  0.032063152            3 
  164000    1.0205497   -6.4053438    59.051502  0.030005844   0.03198458            2 
  165000   0.99571404   -6.4659845    59.420197  0.030010201  0.031907029            3 
  166000    1.0153424   -6.4602071    59.600915  0.029920138  0.031832291            5 
  167000    1.0083233   -6.4304417    60.174838  0.030027364  0.031760442            4 
  168000    1.0013744    -6.468422    60.226403  0.029874208  0.031687409            3 
  169000    1.0003775   -6.4838319    60.383951  0.029775124  0.031614779            5 
  170000    1.0170745   -6.4401183    60.916609  0.029861083  0.031542598            5 
  171000   0.97547643   -6.4790418    61.029909  0.029741671  0.031469638            9 
  172000   0.98118215   -6.4870624     61.37213  0.029734559  0.031396365            6 
  173000    1.0048455   -6.4680961    61.625718  0.029684835  0.031325346            5 
  174000   0.99182954   -6.4950884     61.64084  0.029521475  0.031252019            4 
  175000   0.97952043   -6.4876649    61.804324   0.02943063  0.031176356            3 
  176000   0.97966461   -6.5124478    62.182709   0.02944257  0.031101263            4 
  177000   0.99266674   -6.5131624    62.343143  0.029351762  0.031026317            5 
  178000   0.97921697   -6.5142924    62.648875  0.029329998  0.030951831            2 
  179000   0.95099119   -6.5134763    62.708065  0.029193699  0.030877214            9 
  180000   0.97446686   -6.4933607    63.007939  0.029170342  0.030802061            7 
  181000   0.99668265    -6.503842     63.04471  0.029026109  0.030725725            5 
  182000   0.97395076   -6.4931708    63.237668  0.028954976  0.030646247            4 
  183000   0.96961375    -6.531364    63.476571  0.028905542  0.030565382            3 
  184000   0.94126599    -6.533331    63.694067  0.028846951   0.03048507            4 
  185000   0.98673289   -6.5306216    63.705644  0.028696236  0.030405774            4 
  186000   0.96390517   -6.5408145    63.982187  0.028665854  0.030326784            4 
  187000   0.98502908   -6.5607251    64.375941  0.028688031  0.030250367            3 
  188000   0.96707196   -6.5968372    64.451003  0.028568707  0.030173633            5 
  189000   0.96067114   -6.5577408    64.554381  0.028463131  0.030095736            6 
  190000   0.96261719   -6.5375289    64.919853   0.02847362  0.030016902            6 
  191000   0.96971871     -6.55322    65.317239  0.028497923  0.029941399           10 
  192000   0.97430525   -6.4918916    65.557125  0.028453613  0.029867559            7 
  193000   0.97285374   -6.5720462    65.488513   0.02827656  0.029793233            4 
  194000   0.95895107   -6.5215897    65.802069  0.028265493  0.029718196            5 
  195000    0.9580237   -6.5588565    66.039738   0.02822211  0.029644409            4 
  196000   0.97372487   -6.5798962    66.040545  0.028078463  0.029568866            4 
  197000   0.94773585   -6.6101903    66.240277  0.028020422  0.029490481            8 
  198000    0.9367103   -6.5835552    66.505965  0.027990726  0.029413779            7 
  199000   0.94652967   -6.6183324    66.881215  0.028007209  0.029339014            4 
  200000   0.94298556   -6.5982287    66.892403  0.027871835  0.029263284           12 
  201000   0.94852824   -6.6031095    67.171385  0.027848833  0.029190561           10 
  202000   0.95062643   -6.5962947    67.456926  0.027828765  0.029118263            3 
  203000   0.95410847   -6.5759278    67.803771   0.02783406  0.029045715            5 
  204000   0.93212819   -6.5736501    67.885345  0.027730942  0.028972676            6 
  205000   0.94454484   -6.6108841    68.118928  0.027690621  0.028899446            3 
  206000   0.94214307   -6.6328225    68.059048  0.027531977  0.028824445            7 
  207000   0.95440565   -6.6068905    68.280266   0.02748803  0.028748755            6 
  208000   0.92189505   -6.5950886    68.461603  0.027428527  0.028673866            8 
  209000   0.93542423   -6.6028091    68.651019  0.027372815  0.028600114           13 
  210000   0.93771451   -6.6180197      68.7331   0.02727504  0.028524865            2 
  211000   0.94367502   -6.5909668    69.132559  0.027303538  0.028449508            3 
  212000   0.93754007   -6.6004152    69.170584  0.027189695  0.028374892            5 
  213000   0.92276613   -6.6467271     69.25418  0.027094749  0.028300349            7 
  214000   0.92280764   -6.6932291    69.124621  0.026917687  0.028225199            3 
  215000   0.92860052    -6.676576    69.598897  0.026976317   0.02815142            4 
  216000   0.92042828   -6.6576605    69.902891  0.026968708  0.028078802            5 
  217000   0.93674008   -6.6306307    69.985145  0.026876016   0.02800739            4 
  218000   0.92887979   -6.6155606    70.438026  0.026925851  0.027936219           10 
  219000    0.9095726   -6.6727695    70.157886  0.026696303  0.027864984            5 
  220000   0.90254911   -6.6673413    70.313213  0.026633793  0.027791824            4 
  221000   0.89440099   -6.6782544     70.53774  0.026597941  0.027717129            3 
  222000   0.91558899    -6.665668    70.640618  0.026516748  0.027642689            4 
  223000   0.89306755   -6.7162378    70.808743  0.026460666  0.027568748            6 
  224000   0.88818041   -6.7094335    70.936647  0.026390121  0.027494525            5 
  225000   0.90090727   -6.6914284    71.186278  0.026365288  0.027421611            4 
  226000    0.9008635   -6.6984856    71.561856  0.026387115  0.027349991            8 
  227000   0.90321007    -6.668574      71.6516  0.026303818  0.027277885            6 
  228000   0.91454376   -6.7279443    71.725111  0.026215318  0.027205713           15 
  229000   0.89264289   -6.7081865    71.877865  0.026156428  0.027133906            6 
  230000   0.90629201   -6.7187077     71.74149  0.025993293  0.027060653           16 
  231000   0.90011128   -6.6893938    71.828444  0.025912137  0.026986501            3 
  232000   0.87746743   -6.7308764    71.890329  0.025822675  0.026911551            5 
  233000   0.88466527   -6.7299935    72.056027  0.025771111  0.026836727            4 
  234000   0.91808957   -6.7127532    72.286526  0.025743065  0.026763373           20 
  235000   0.87770797    -6.726547    72.489276  0.025705417  0.026690432            7 
  236000   0.90431493   -6.7446264    72.512033  0.025604532   0.02661702            7 
  237000   0.90147542    -6.762524    72.488767  0.025488315  0.026543358           13 
  238000   0.87625231   -6.7363872    72.730778  0.025465959  0.026468868            9 
  239000   0.89586472   -6.7125383    72.991225  0.025450218  0.026395901            7 
  240000   0.88435061     -6.75747    73.063681  0.025369334  0.026322884            9 
  241000    0.8803263   -6.7548932    73.430253   0.02539082   0.02625056            8 
  242000   0.89953927   -6.7809063    73.530818  0.025320529  0.026178668           11 
  243000    0.8792359   -6.7783071     73.46229  0.025192829  0.026106792            6 
  244000   0.88508716   -6.8010706    73.751826  0.025188465   0.02603564            8 
  245000   0.86968786   -6.7955292    74.066346  0.025192635  0.025965619            8 
  246000    0.8934467   -6.7656191    74.246497  0.025151252  0.025895412            7 
  247000   0.87499871   -6.7810356    74.340081  0.025080999  0.025824966            9 
  248000   0.86175308   -6.7882522    74.349224  0.024982938  0.025753826            7 
  249000   0.87964872   -6.7883759    74.448242  0.024915744  0.025682772            5 
  250000   0.87691572   -6.7895041    74.306796  0.024768932  0.025611459            3 
  251000   0.86641583   -6.7933661    74.370801  0.024691501  0.025538799            6 
  252000   0.86015583   -6.8092818    74.481933  0.024630269  0.025465498           11 
  253000   0.88343002   -6.8006743    74.731749  0.024615201   0.02539402            5 
  254000   0.85623349   -6.8292728    74.600832  0.024475338  0.025321867           10 
  255000   0.88987825   -6.8675565     74.51431  0.024351082  0.025247648            8 
  256000   0.87899745   -6.8395313    74.623179  0.024291399  0.025173359            9 
  257000   0.84023048   -6.8204449    74.806663  0.024256376  0.025099125           11 
  258000   0.85775997    -6.844992    74.777932  0.024153079  0.025025509            8 
  259000   0.84602647    -6.832609    74.870873  0.024089728  0.024951366            8 
  260000   0.86881164   -6.8477728    74.864578  0.023995057   0.02487684            4 
  261000   0.85965406   -6.8269418    74.976853   0.02393897  0.024801896            6 
  262000   0.83832978   -6.8411129    74.930202  0.023832761  0.024727255            5 
  263000   0.85633101   -6.8580216    75.147871  0.023811113   0.02465193            7 
  264000   0.84647661   -6.8594115    75.173563  0.023729029  0.024577112           12 
  265000   0.85594149   -6.9035235    75.182167  0.023642191    0.0245024            7 
  266000   0.85837315   -6.9132545    75.329692  0.023599528  0.024427451           11 
  267000   0.83065838   -6.9057573    75.488947  0.023560845  0.024353118            5 
  268000   0.84160088   -6.8703938    75.719587  0.023544648  0.024279533            3 
  269000   0.83177721   -6.8836601    75.920141   0.02351925  0.024206957           15 
  270000   0.82824089   -6.8681821    75.922781  0.023432957    0.0241342            8 
  271000   0.83342761    -6.916758     75.99333  0.023368183  0.024061881            7 
  272000    0.8416383   -6.8996703    76.172784   0.02333725  0.023989711            4 
  273000   0.84118509   -6.8985031    76.189261  0.023256795  0.023917801           21 
  274000   0.82401039   -6.8726622    76.424286  0.023243396  0.023846313            7 
  275000   0.83808704   -6.8930867    76.202937  0.023091799  0.023774706            8 
  276000   0.82391802   -6.9312915    76.275934  0.023030173  0.023702905           14 
  277000   0.80673489   -6.9359232    76.324273  0.022961574  0.023630849            5 
  278000     0.811622   -6.9299948    76.380715  0.022895898  0.023558645            9 
  279000   0.80990383   -6.9356738    76.558878  0.022867048  0.023486871           10 
  280000   0.83663265   -6.9407993    76.577305  0.022790865  0.023415358           20 
  281000   0.83370162   -6.9340505    76.486492  0.022682827  0.023344292           11 
  282000   0.82684062   -6.9559224    76.758679  0.022682825  0.023273248            6 
  283000   0.83336809   -6.9456917    76.991559  0.022671248  0.023203147           10 
  284000   0.79754094   -6.9441477    76.983462  0.022589044  0.023132527            7 
  285000   0.83325243   -6.9549495    76.884602  0.022480878  0.023061372            7 
  286000    0.8108479   -6.9712801    76.940383  0.022418526  0.022989927           19 
  287000   0.81851642   -6.9684727    76.909488  0.022331443  0.022918949            4 
  288000   0.79909342   -6.9803146    77.036977  0.022290792  0.022847756            8 
  289000   0.80841515   -7.0092068    77.154885   0.02224766  0.022777369            7 
  290000   0.80949835    -6.993614    77.219429  0.022189491   0.02270724            9 
  291000     0.828736   -7.0143426    77.320703   0.02214224   0.02263655            6 
  292000   0.80784591    -6.985219    77.169777  0.022023338  0.022566589            6 
  293000   0.80193656   -6.9960893    77.412436  0.022017189  0.022496614           10 
  294000   0.81227112   -6.9826057    77.595348  0.021994146  0.022427505            9 
  295000   0.78647584    -6.986361    77.890642  0.022003006  0.022359109            7 
  296000   0.78645103   -7.0044112    77.852003  0.021917794  0.022290935            7 
  297000   0.78327295   -7.0442677     77.79412  0.021827755   0.02222258            8 
  298000   0.80384658   -6.9980362    77.825969  0.021763414  0.022154223           13 
  299000   0.79525232   -7.0322901    77.759297  0.021672045  0.022085318           11 
  300000   0.79288548   -7.0324142    78.028197  0.021674499  0.022017193           11 
  301000   0.79375692   -7.0227436    77.974705  0.021587681  0.021949799           10 
  302000   0.78457285   -7.0015917    78.194393  0.021576819  0.021882439            9 
  303000   0.77905071   -7.0505876    78.112674  0.021483134  0.021814767           17 
  304000   0.78778026   -7.0232897    78.153914   0.02142377  0.021747216            7 
  305000   0.79120942   -7.0642779    78.059605  0.021327761  0.021679982            8 
  306000   0.79400781   -7.0858108    77.904939  0.021215942  0.021612499           11 
  307000   0.76859586   -7.0549574    78.289284  0.021251163  0.021545259           14 
  308000   0.79933027   -7.0749838    78.257813  0.021173651  0.021478375           19 
  309000   0.77174042   -7.1091987     78.41799  0.021148325   0.02141146            9 
  310000   0.75921688    -7.072205    78.283566  0.021043969  0.021343878           11 
  311000   0.77651471   -7.0842838    78.348771  0.020993776  0.021276696           10 
  312000    0.8030485   -7.1424505    78.356554  0.020928567  0.021209892            6 
  313000   0.76115426   -7.1222986     78.48229  0.020895178  0.021143151           37 
  314000   0.75856244    -7.131021     78.41414  0.020810547  0.021076702           15 
  315000   0.75771094   -7.0897475    78.606613    0.0207954  0.021010228           10 
  316000   0.76788181   -7.1284758    78.584301  0.020723708  0.020944022           16 
  317000   0.77352537   -7.1201397    78.460129  0.020625691  0.020877905           16 
  318000   0.74774106   -7.1161991     78.53894  0.020581483  0.020811729           21 
  319000   0.76183594   -7.1470467    78.515601  0.020510868  0.020746051           36 
  320000   0.75610803   -7.1354339    78.643039  0.020479958  0.020679788           13 
  321000   0.75160427   -7.1549717    78.821298  0.020462434  0.020613881           26 
  322000   0.75912716   -7.1490013    78.887296  0.020415967  0.020548583           19 
  323000   0.75419998   -7.1363796    78.789103  0.020327426  0.020483518           15 
  324000   0.75199306   -7.1300048    78.862893  0.020283666  0.020418899           35 
  325000   0.71257749   -7.1288182    78.929716  0.020238389  0.020354719           15 
  326000   0.74560437   -7.1739548    79.089265  0.020217092  0.020290526           14 
  327000    0.7380679   -7.1745859    78.978007  0.020126913    0.0202264           41 
  328000   0.74391781   -7.1635179     79.09035  0.020094093  0.020162702           12 
  329000   0.74354083   -7.1762148    78.991329  0.020007935  0.020099168           11 
  330000   0.75892831    -7.177214    79.028306  0.019956643  0.020035756           10 
  331000   0.72073117   -7.1988691     79.01674  0.019893439  0.019972341           23 
  332000   0.73603821   -7.1949947    79.262227  0.019895137  0.019909234           37 
  333000   0.74009465   -7.1511086    79.490572  0.019892536  0.019846541           47 
  334000   0.74631665   -7.1569011    79.402645  0.019811039  0.019784146           13 
  335000   0.72669773   -7.1717205    79.431452  0.019759068  0.019722029           10 
  336000   0.74127226   -7.1899845    79.474008  0.019710816  0.019660163           33 
  337000   0.71684739   -7.1917324    79.582752  0.019679217  0.019598344           21 
  338000   0.72968141   -7.2048671    79.367129  0.019567833  0.019536784           29 
  339000   0.73093722   -7.1814357    79.613865  0.019570763  0.019475286            7 
  340000   0.71936152   -7.1946048    79.593847  0.019508296  0.019413803           10 
  341000   0.71939468   -7.2196876     79.50463  0.019429284  0.019352229           28 
  342000   0.71231364   -7.2237553    79.417557  0.019351257  0.019290795           28 
  343000   0.72317003   -7.2465268    79.470979  0.019307818  0.019229475           10 
  344000   0.72629979   -7.2165941    79.633583  0.019291081  0.019168502           12 
  345000   0.70637762   -7.2304398    79.627841  0.019233778  0.019107791           12 
  346000   0.71424678   -7.2766708    79.770152  0.019212464  0.019047276           20 
  347000   0.72184163     -7.23453    79.615795  0.019120028  0.018986625           13 
  348000   0.70477942   -7.2010416    79.888929  0.019130491  0.018926565           18 
  349000   0.71085087   -7.2789049    79.615205  0.019010316  0.018866428           24 
  350000   0.70384028   -7.2558442    79.696769  0.018975421   0.01880639           26 
  351000    0.7251663   -7.2835814    79.951086  0.018981739  0.018746762           20 
  352000   0.70851951   -7.2580471    79.811413  0.018894747  0.018687328           26 
  353000   0.68497297   -7.2693052    79.686588  0.018811753   0.01862779           32 
  354000   0.71362962   -7.2762535    79.876356  0.018803285  0.018568336           40 
  355000   0.70247376   -7.2804967    79.742547  0.018718908   0.01850884           16 
  356000   0.69413747   -7.2688694    79.766151  0.018671852  0.018450034           25 
  357000   0.71038345   -7.2779366    80.008106  0.018676028  0.018391155           24 
  358000   0.68857814   -7.2827908    79.887459  0.018595777  0.018332727           26 
  359000   0.69769397   -7.2979274    79.825155  0.018529516  0.018274309           27 
  360000   0.69620053   -7.2945234    79.722692  0.018454327  0.018216139           18 
  361000   0.69088749   -7.2856572    80.025667  0.018473146  0.018158064           25 
  362000    0.6931068   -7.3027402    79.891333  0.018391191  0.018100382           15 
  363000   0.69750707   -7.3436866    79.863446  0.018334124  0.018042397           15 
  364000   0.69155821   -7.3288066    79.790141  0.018266974  0.017984133           11 
  365000   0.69212466   -7.3430376    79.821088  0.018223993  0.017925941           15 
  366000   0.67356796   -7.3229455    79.920933  0.018196934  0.017867914           21 
  367000    0.7036818   -7.3632813    79.781233   0.01811563  0.017810118           35 
  368000    0.6841828   -7.3644857    79.882078  0.018089239  0.017752332           23 
  369000   0.67439056   -7.3472944    79.920802  0.018048962  0.017694806           33 
  370000   0.67136651   -7.3736129    79.797021  0.017972302  0.017637201           39 
  371000   0.67436857    -7.355202    79.778424  0.017919682  0.017579653           38 
  372000   0.68037239   -7.3957244    79.700758  0.017854113  0.017521891           83 
  373000   0.66966453   -7.3829331    79.697401  0.017805496  0.017464419           26 
  374000   0.66623878   -7.3877397    79.748937  0.017769371  0.017407007           22 
  375000   0.66099739   -7.3593682      79.7624  0.017724978  0.017349814           58 
  376000   0.68025817   -7.3674704    79.804732  0.017687219  0.017292862           42 
  377000   0.67821195   -7.3877754    79.779976  0.017634831  0.017236003           41 
  378000   0.67681619   -7.4002843    79.762269  0.017584275  0.017179129           65 
  379000   0.66922748   -7.4289489    79.560624  0.017493541  0.017122406           66 
  380000   0.65208466   -7.4170527    79.554785  0.017446225  0.017065838          117 
  381000   0.65589015   -7.4039257    79.680129   0.01742785  0.017009565           73 
  382000   0.68098393    -7.406781    79.589625  0.017362484  0.016953313           68 
  383000   0.65713195   -7.4124811    79.567624  0.017312364  0.016896972           84 
  384000   0.67704212   -7.4198969    79.583735  0.017270776  0.016840932           59 
  385000   0.63464432    -7.433418    79.554301  0.017219546  0.016785089           50 
  386000   0.64573145   -7.4363922    79.610618  0.017187094   0.01672937           64 
  387000   0.65701992   -7.4368438    79.462619  0.017110814  0.016673599           47 
  388000   0.65654577   -7.4529529    79.344401  0.017041323  0.016617828           52 
  389000   0.65861984   -7.4449138    79.558261  0.017043329  0.016562437           76 
  390000   0.65027953   -7.4427906    79.334894    0.0169519  0.016507189           37 
  391000   0.64902504   -7.4556961    79.485903  0.016940729  0.016451957           59 
  392000   0.65021627   -7.4620711     79.59043  0.016919734  0.016397084           38 
  393000   0.62891244   -7.4519054    79.511996   0.01686005   0.01634235           49 
  394000   0.63367598   -7.4841134    79.478591  0.016810193  0.016287664           64 
  395000   0.63974173   -7.4873096    79.338979  0.016738181  0.016233153           38 
  396000   0.62360356    -7.487739    79.413459  0.016711586  0.016178779           68 
  397000   0.62540663   -7.4841156    79.475373  0.016682488  0.016124563           51 
  398000   0.62937882   -7.4821991    79.542904  0.016654712  0.016070422           28 
  399000   0.61899112   -7.4906383    79.382841  0.016579541  0.016016407           67 
  400000   0.63487832   -7.4989179    79.374774  0.016536411  0.015962504           48 
  401000   0.62619179   -7.4782768    79.557679  0.016533183  0.015908872           32 
  402000   0.61229607   -7.5000413    79.212748  0.016420553  0.015855486           80 
  403000   0.62665081   -7.5104141    79.361804  0.016410629  0.015802195           29 
  404000   0.62390137   -7.4901358    79.409307  0.016379808    0.0157492           63 
  405000   0.62111003   -7.5023153    79.522715  0.016362699  0.015696384           75 
  406000    0.6258362   -7.5074494    79.308915  0.016278513  0.015643877           73 
  407000   0.60844545   -7.5225018      79.3779  0.016252641  0.015591294           87 
  408000   0.61329306   -7.5237305    79.335737  0.016204195  0.015538889           45 
  409000   0.61019631   -7.5250208    79.408489  0.016179399  0.015486679           44 
  410000   0.59791458   -7.5265582    79.216262  0.016100866  0.015434618           55 
  411000   0.60811971   -7.5359299    79.425644  0.016104145  0.015382876          122 
  412000   0.59332034    -7.528376    79.314516   0.01604258  0.015331275           54 
  413000   0.60843037   -7.5211873    79.296567  0.016000114  0.015279807          132 
  414000   0.59387886   -7.5526973    79.204694  0.015942974  0.015228445           85 
  415000   0.61190927    -7.562763    79.445953  0.015953003  0.015177321          109 
  416000   0.60299716   -7.5689909    79.408349  0.015907121  0.015126141          153 
  417000   0.61366981    -7.556406    79.234612  0.015834255  0.015075135           96 
  418000   0.60504511   -7.5593471    79.280015  0.015805426  0.015024391           70 
  419000   0.60246388   -7.5564795    79.259964  0.015763716  0.014973756          107 
  420000   0.59177456   -7.5850143    79.213249  0.015716914  0.014923205          182 
  421000   0.60608013   -7.5853814    79.148212  0.015666709  0.014872798          121 
  422000   0.59165813   -7.5822085    79.308379  0.015661212  0.014822529          157 
  423000   0.59550467   -7.5899315    79.090489  0.015581263  0.014772583          121 
  424000   0.58551594   -7.5852516    79.185419  0.015563172  0.014722679           78 
  425000   0.58335118   -7.5909179    79.002871  0.015490759  0.014673044           65 
  426000   0.59236785   -7.5804673    79.139893    0.0154812  0.014623484          141 
  427000   0.57654801   -7.5958646    79.072978  0.015431885  0.014574141          138 
  428000    0.5954311   -7.5881873    79.148596  0.015410552   0.01452497          109 
  429000   0.58885754   -7.6037104    79.024843  0.015350591  0.014475834          250 
  430000    0.5873989   -7.6070002    79.027415   0.01531539  0.014426753          102 
  431000   0.58439344   -7.5946745    78.910966  0.015257341  0.014377812           88 
  432000   0.57465962   -7.6312417    78.938285  0.015227293  0.014329126          116 
  433000   0.57869534   -7.5938368    78.782851  0.015162211  0.014280551          109 
  434000    0.5650021   -7.6210005    78.863092  0.015142683  0.014232223          129 
  435000   0.58236115   -7.6247938    78.942499  0.015123084  0.014184018           80 
  436000   0.58275257   -7.6135581     78.89382  0.015079094     0.014136          100 
  437000   0.57373182   -7.6404406     78.79733  0.015026188  0.014088144           65 
  438000   0.58126513     -7.63948    78.911287  0.015013563  0.014040365          110 
  439000   0.56108605    -7.612528    78.981376  0.014992668   0.01399276           80 
  440000     0.563657    -7.632238    78.756018  0.014915912  0.013945419          309 
  441000   0.56089551   -7.6400128     78.85045  0.014899934  0.013898227          286 
  442000   0.56428591   -7.6256016     78.85929   0.01486789  0.013851259          171 
  443000   0.55943953   -7.6556324    78.788665  0.014821043   0.01380446          351 
  444000   0.55062888   -7.6716152    78.841445  0.014797569  0.013757827           89 
  445000   0.56695485   -7.6696306    78.839196  0.014763894  0.013711369          299 
  446000   0.55512433   -7.6654084    78.604255  0.014686894  0.013665006          166 
  447000   0.56418764   -7.6465618    78.824985  0.014695187  0.013618863          116 
  448000   0.56476375   -7.6836723    78.744792  0.014647469   0.01357292           99 
  449000   0.55858131   -7.6392648    78.815511  0.014627972  0.013527218          200 
  450000   0.54498874    -7.664466    78.737695  0.014581055  0.013481677           71 
  451000   0.53496867   -7.6629114    78.696959  0.014541197  0.013436264          163 
  452000   0.54713137   -7.6720965    78.813363  0.014530487  0.013391064          173 
  453000   0.55777479   -7.6826653     78.74127  0.014485149  0.013346195          302 
  454000   0.55762262   -7.6581162    78.850127  0.014473224  0.013301404          144 
  455000   0.54083038   -7.6987963    78.694284  0.014412873  0.013256705           92 
  456000   0.53765538   -7.6784704    78.617628  0.014367257  0.013212162          257 
  457000   0.53852921   -7.6816038     78.77767  0.014365002  0.013167801          188 
  458000   0.54092255   -7.6956274    78.614674   0.01430398  0.013123642          212 
  459000   0.51916317   -7.6809147     78.68278  0.014285182  0.013079628          133 
  460000   0.53452281   -7.7032422    78.693636  0.014256093  0.013035824          225 
  461000   0.52899424   -7.6982523    78.724243  0.014230702  0.012992227          155 
  462000   0.53526069   -7.7220182    78.673389  0.014190727  0.012948802          340 
  463000   0.52804316   -7.7171498    78.677787  0.014160869  0.012905509          109 
  464000     0.539804   -7.6991068    78.603281  0.014116969  0.012862564          145 
  465000   0.52628867   -7.7090819    78.746581  0.014112291  0.012819593          137 
  466000   0.52060326   -7.7185107    78.713075  0.014076015  0.012776739          197 
  467000   0.52842761   -7.6981383    78.789995  0.014059599  0.012734136          159 
  468000   0.51388402   -7.7246256    78.508836  0.013979494  0.012691671          190 
  469000   0.51179919   -7.7199826    78.457202  0.013940512  0.012649337          401 
  470000   0.51763047   -7.7265346    78.556147  0.013928395   0.01260728          208 
  471000   0.51393966   -7.7266259    78.401264   0.01387142   0.01256531          184 
  472000    0.5168781   -7.7297444    78.510676  0.013861348  0.012523522          148 
  473000   0.49891458   -7.7434171    78.632633  0.013853529  0.012481974          169 
  474000    0.5011077    -7.732142    78.480067   0.01379748  0.012440571          334 
  475000   0.50886323   -7.7302781    78.526094  0.013776508  0.012399322          182 
  476000     0.511835   -7.7430535    78.692388  0.013776678  0.012358297          153 
  477000   0.50974366   -7.7394981    78.517755  0.013717288  0.012317479          169 
  478000   0.50305457   -7.7336224    78.609571  0.013704597   0.01227682          112 
  479000    0.4983604   -7.7494313    78.542595  0.013664334  0.012236224          251 
  480000   0.49451026   -7.7801388    78.451863  0.013620115  0.012195739          188 
  481000   0.51521875   -7.7545612    78.340722  0.013572544  0.012155371          143 
  482000   0.49556774   -7.7555812    78.448079  0.013562946  0.012115247          101 
  483000   0.49443629   -7.7782186    78.379543  0.013523041  0.012075213          301 
  484000   0.48855038   -7.7617071    78.422621  0.013502517  0.012035348          179 
  485000   0.49493737   -7.7759319    78.345963  0.013461506   0.01199561          354 
  486000   0.49587256   -7.7850769    78.288856  0.013424015  0.011956022          163 
  487000   0.48770746   -7.7894424    78.350543  0.013407006  0.011916567          274 
  488000   0.49450396   -7.7985025    78.269484  0.013365691  0.011877263          141 
  489000    0.4863167   -7.7857023    78.262144  0.013337107  0.011838113          178 
  490000   0.49933843   -7.7742449    78.366177  0.013327581  0.011799104          133 
  491000   0.47691132   -7.7988301    78.198854  0.013272039  0.011760285          127 
  492000    0.4746776   -7.7896582    78.336118  0.013268313  0.011721609          143 
  493000   0.47983129    -7.794424    78.235282  0.013224355  0.011683113          193 
  494000   0.47870906   -7.7979409    78.320567  0.013211971  0.011644706          130 
  495000   0.46904492   -7.7950747    78.217074  0.013167858  0.011606537          141 
  496000   0.46927541   -7.7889017    78.214681  0.013140907  0.011568445           95 
  497000   0.47140335   -7.8056307    78.301425  0.013129012  0.011530517          243 
  498000   0.47942074   -7.8188286    78.129552  0.013073888  0.011492697          156 
  499000   0.47200439   -7.8028988    78.293323  0.013075037  0.011454999          229 
  500000    0.4712562   -7.8184531    78.367068  0.013061178  0.011417494          175 
  501000   0.47552555   -7.8152478    78.239494  0.013013888  0.011380125          212 
  502000   0.47171628   -7.8157047    78.187546   0.01297934   0.01134292          401 
  503000   0.45500291   -7.8173026    78.242484  0.012962638   0.01130583          301 
  504000   0.46431638   -7.8276304    78.065328  0.012907627   0.01126888          438 
  505000   0.46731694   -7.8309892    78.003475  0.012871861  0.011232115          281 
  506000   0.45422553   -7.8318778    78.071341  0.012857599  0.011195512          153 
  507000   0.45488937   -7.8394619    78.193175  0.012852264  0.011159017          192 
  508000    0.4633321   -7.8349078    78.093212  0.012810566  0.011122698          274 
  509000   0.44829783   -7.8526558    78.166566  0.012797408  0.011086517          576 
  510000   0.45392083   -7.8143444    78.195703  0.012777076  0.011050504          320 
  511000    0.4509886   -7.8385977    78.061295  0.012730152  0.011014677          188 
  512000   0.45407976   -7.8455754    78.089756  0.012709921   0.01097896          372 
Loop time of 1304.98 on 48 procs for 500000 steps with 4000 atoms

Performance: 66208.025 tau/day, 383.148 timesteps/s
99.4% CPU use with 48 MPI tasks x no OpenMP threads

MPI task timing breakdown:
Section |  min time  |  avg time  |  max time  |%varavg| %total
---------------------------------------------------------------
Pair    | 93.539     | 99.969     | 105.95     |  33.7 |  7.66
Neigh   | 9.1519     | 9.5069     | 9.9496     |   6.2 |  0.73
Comm    | 85.511     | 93.092     | 101.4      |  38.2 |  7.13
Output  | 0.97055    | 0.97133    | 0.99549    |   0.4 |  0.07
Modify  | 1084.2     | 1088.8     | 1093       |   5.8 | 83.44
Other   |            | 12.61      |            |       |  0.97

Nlocal:        83.3333 ave          89 max          78 min
Histogram: 3 1 8 5 8 8 9 2 1 3
Nghost:        2422.40 ave        2438 max        2410 min
Histogram: 5 7 5 6 6 3 7 3 2 4
Neighs:        16792.1 ave       19616 max       14839 min
Histogram: 4 7 8 4 6 8 5 4 0 2
FullNghs:      33583.7 ave       35822 max       31400 min
Histogram: 2 2 6 7 8 8 9 2 1 3

Total # of neighbors = 1612017
Ave neighs/atom = 403.00425
Neighbor list builds = 26704
Dangerous builds = 0

#clear
#
#next RN
#
#jump SELF
Total wall time: 0:21:48
