
units lj                  # Use reduced LJ style units
atom_style atomic         # Uncharged point particles
atom_modify map hash      # Needed for indexing of clusters etc
                          # Used to be able to find where atoms are in relation to each other.

lattice fcc 1.0 spacing 1 1 1
Lattice spacing in x,y,z = 1.5874011 1.5874011 1.5874011
region box block 0 10 0 10 0 10 units lattice
create_box 2 box
Created orthogonal box = (0.0000000 0.0000000 0.0000000) to (15.874011 15.874011 15.874011)
  3 by 4 by 4 MPI processor grid
create_atoms 1 box
Created 4000 atoms
  using lattice units in orthogonal box = (0.0000000 0.0000000 0.0000000) to (15.874011 15.874011 15.874011)
  create_atoms CPU = 0.003 seconds
set type 1 type/fraction 2 0.97 78393
Setting atom values ...
  3879 settings made for type/fraction
mass 1 1.0
mass 2 1.0
pair_style lj/cut  3.5
pair_modify tail  yes
pair_coeff 1  1  1.0  1.0   # Intearaction between 1 and 1 set with epsilon = 1 and sigma = 1
pair_coeff 1  2  1.5  0.8
pair_coeff 2  2  0.5  0.88

write_data data.0
System init for write_data ...
Neighbor list info ...
  update every 1 steps, delay 10 steps, check yes
  max neighbors/atom: 2000, page size: 100000
  master list distance cutoff = 3.8
  ghost atom cutoff = 3.8
  binsize = 1.9, bins = 9 9 9
  1 neighbor lists, perpetual/occasional/extra = 1 0 0
  (1) pair lj/cut, perpetual
      attributes: half, newton on
      pair build: half/bin/atomonly/newton
      stencil: half/bin/3d
      bin: standard
WARNING: Not all mixed pair coeffs generated from mixing. Use write_data with 'pair ij' option to store all pair coeffs. (../write_data.cpp:312)


#############################
#   M E L T   S Y S T E M   #
#############################

velocity all create 2.4 1741580 mom yes dist gaussian # Assign velocities
                                                    # Temperature 2.4, random number seed, zero linear momentum
                                                                                # Gaussian distribution

timestep 0.002   # simulation timestep
thermo 1000       # output thermodynamic data every 1000 steps bf 100

# Define a fix  in this case with index 1 applied to all
# particles in the simulation. This fix is for simulations
# in the anisotropic NPT ensemble. Note that we use the MTK
# correction.
fix 1 all npt temp 2.4 2.4 0.1 iso 5.68 5.68 0.5 mtk yes tchain 5 pchain 5 # Use NPT ensemble
                                                                         # Set temperature and pressure and damping
                                                                         # Numbers of thermostats in chain and in barostat
run 10000          # run for 10000 steps
Per MPI rank memory allocation (min/avg/max) = 3.642 | 3.644 | 3.648 Mbytes
Step Temp E_pair E_mol TotEng Press Volume 
       0          2.4   -2.8451072            0   0.75399283    -1.976462         4000 
    1000    2.3862846    -1.703023            0    1.8755091    5.7862625     4121.269 
    2000     2.500006   -1.6568071            0    2.0922644    5.8660226    4176.5929 
    3000    2.3641178   -1.6543605            0    1.8909297    5.7898477    4168.0602 
    4000    2.4261947   -1.6588513            0     1.979531    5.6965563    4187.1767 
    5000    2.3918464   -1.6704738            0    1.9163989    5.7841808     4144.863 
    6000    2.3419575   -1.7029645            0    1.8090936    5.7940198    4117.7039 
    7000    2.3987157   -1.7134109            0    1.8837632    5.5318839    4167.3265 
    8000    2.4078389   -1.6493175            0    1.9615379    5.6810535    4210.6671 
    9000    2.4024945   -1.6881463            0    1.9146946    5.6864097    4165.1697 
   10000    2.4262071   -1.6727201            0    1.9656807    5.8589807    4140.5391 
Loop time of 2.37754 on 48 procs for 10000 steps with 4000 atoms

Performance: 726800.290 tau/day, 4206.020 timesteps/s
99.6% CPU use with 48 MPI tasks x no OpenMP threads

MPI task timing breakdown:
Section |  min time  |  avg time  |  max time  |%varavg| %total
---------------------------------------------------------------
Pair    | 1.0514     | 1.1008     | 1.1673     |   2.5 | 46.30
Neigh   | 0.20295    | 0.20914    | 0.2179     |   0.8 |  8.80
Comm    | 0.73947    | 0.80703    | 0.86488    |   2.8 | 33.94
Output  | 0.00023539 | 0.00024434 | 0.00040058 |   0.0 |  0.01
Modify  | 0.21746    | 0.24561    | 0.26537    |   2.5 | 10.33
Other   |            | 0.01475    |            |       |  0.62

Nlocal:        83.3333 ave          96 max          73 min
Histogram: 3 1 5 10 12 5 8 2 1 1
Nghost:        1606.83 ave        1641 max        1577 min
Histogram: 2 4 4 6 13 6 8 2 1 2
Neighs:        9214.00 ave       10710 max        7705 min
Histogram: 1 1 5 7 11 10 5 4 3 1

Total # of neighbors = 442272
Ave neighs/atom = 110.56800
Neighbor list builds = 904
Dangerous builds = 178

# Equilibrate just above the melting temperature to avoid step fn in T

fix 1 all npt temp 1.25 1.25 0.1 iso 5.68 5.68 0.5 mtk yes tchain 5 pchain 5
run 2000
Per MPI rank memory allocation (min/avg/max) = 3.643 | 3.645 | 3.649 Mbytes
Step Temp E_pair E_mol TotEng Press Volume 
   10000    2.4262071   -1.6727201            0    1.9656807    5.8589807    4140.5391 
   11000    1.2177104   -2.5527212            0  -0.72661228    5.6150097    3267.9327 
   12000    1.2550359   -2.5610391            0  -0.67895582    5.4544218    3278.9353 
Loop time of 0.56635 on 48 procs for 2000 steps with 4000 atoms

Performance: 610223.209 tau/day, 3531.384 timesteps/s
99.7% CPU use with 48 MPI tasks x no OpenMP threads

MPI task timing breakdown:
Section |  min time  |  avg time  |  max time  |%varavg| %total
---------------------------------------------------------------
Pair    | 0.25699    | 0.27481    | 0.28958    |   1.5 | 48.52
Neigh   | 0.03747    | 0.039689   | 0.041697   |   0.5 |  7.01
Comm    | 0.18908    | 0.20473    | 0.2261     |   2.0 | 36.15
Output  | 4.9999e-05 | 5.1226e-05 | 6.4687e-05 |   0.0 |  0.01
Modify  | 0.03997    | 0.042512   | 0.045145   |   0.8 |  7.51
Other   |            | 0.004554   |            |       |  0.80

Nlocal:        83.3333 ave          91 max          72 min
Histogram: 1 1 2 4 7 6 12 9 5 1
Nghost:        1881.04 ave        1906 max        1854 min
Histogram: 3 2 8 5 4 7 6 6 3 4
Neighs:        11643.5 ave       13018 max        9793 min
Histogram: 2 4 2 6 6 3 7 8 4 6

Total # of neighbors = 558886
Ave neighs/atom = 139.72150
Neighbor list builds = 142
Dangerous builds = 8

#############################
# L I N E A R  Q U E N C H  #
#############################

# Define solid atoms. This closely follows ten Wolde  Ruiz-Montero and Frenkel  Faraday Discuss  1996  104  93-110
# Compute components of the per-atom q6 vector
compute q6 all orientorder/atom degrees 1 6 components 6 nnn NULL cutoff 1.3 # compute the Q6 parameter.
                                                                             # Use all neighbours within 1.3 unit cell.

# get number of connections
compute coord_number all coord/atom orientorder q6 0.5

# An atom is solid if it has 8 or more connections (of a possible 14)
variable is_solid atom c_coord_number>=8
group solid dynamic all var is_solid    # Must be dynamic to update
dynamic group solid defined

# do clustering
compute cluster solid cluster/atom 1.3 # Create a cluster where all atoms within are solid and max 1.3 units from another member

# define chunks one chunk per cluster
compute clus_chunks solid chunk/atom c_cluster nchunk every compress yes  # Says which atoms are in which chunk

# count the size of each chunk
compute size_chunks solid property/chunk clus_chunks count


# Find the maximum entry in the vector of chunk sizes
variable max_n equal max(c_size_chunks)


# Thermo style which includes this variable
# thermo_style custom step temp pe vol v_max_n

thermo ${N}  # Print the thermo information every 100 steps
thermo 1000  

# Reset the npt fix at a lower temperature (below freezing)
fix 1  all npt temp  ${temp} ${temp}  0.1  iso  5.68  5.68  0.5  mtk yes tchain  5  pchain  5
fix 1  all npt temp  0.45 ${temp}  0.1  iso  5.68  5.68  0.5  mtk yes tchain  5  pchain  5
fix 1  all npt temp  0.45 0.45  0.1  iso  5.68  5.68  0.5  mtk yes tchain  5  pchain  5

dump dmp2 all dcd ${N} traj.dcd
dump dmp2 all dcd 1000 traj.dcd


compute msd all msd com yes
variable twopoint equal c_msd[4]/6/(step*dt+1.0e-6)
fix 9 all vector 10 c_msd[4]
variable fit equal slope(f_9)/6/(10*dt)
thermo_style custom step temp pe c_msd[4] v_twopoint v_fit v_max_n

fix 1 all npt temp 1.25 ${temp} 0.1 iso 5.68 5.68 0.5 mtk yes tchain 5 pchain 5
fix 1 all npt temp 1.25 0.45 0.1 iso 5.68 5.68 0.5 mtk yes tchain 5 pchain 5
run 500000 # 5000000  # Run for this many steps
Neighbor list info ...
  update every 1 steps, delay 10 steps, check yes
  max neighbors/atom: 2000, page size: 100000
  master list distance cutoff = 3.8
  ghost atom cutoff = 3.8
  binsize = 1.9, bins = 8 8 8
  4 neighbor lists, perpetual/occasional/extra = 1 3 0
  (1) pair lj/cut, perpetual
      attributes: half, newton on
      pair build: half/bin/atomonly/newton
      stencil: half/bin/3d
      bin: standard
  (2) compute orientorder/atom, occasional
      attributes: full, newton on
      pair build: full/bin/atomonly
      stencil: full/bin/3d
      bin: standard
  (3) compute coord/atom, occasional
      attributes: full, newton on
      pair build: full/bin/atomonly
      stencil: full/bin/3d
      bin: standard
  (4) compute cluster/atom, occasional
      attributes: full, newton on
      pair build: full/bin/atomonly
      stencil: full/bin/3d
      bin: standard
Per MPI rank memory allocation (min/avg/max) = 9.809 | 9.821 | 9.829 Mbytes
Step Temp PotEng c_msd[4] v_twopoint v_fit v_max_n 
   12000    1.2550359   -2.5610391 1.069301e-30 7.4257008e-33 8.3333333e+20            1 
   13000    1.2640141   -2.5395293    1.1307097 0.0072481387  0.097508534            3 
   14000     1.269961   -2.5484914    2.3787049  0.014158957   0.10105489            3 
   15000    1.2369553   -2.5573251    3.6247974  0.020137763   0.10197164            2 
   16000    1.2480796   -2.5679566    4.9311891  0.025683276   0.10334038            1 
   17000     1.255326   -2.5590265    6.2944123  0.030854961   0.10507789            4 
   18000    1.2267337    -2.535397    7.5889985  0.035134251   0.10674384            1 
   19000    1.2380416   -2.5738165    8.7977832  0.038586767   0.10679316            1 
   20000    1.2439566   -2.5404727    9.9364271  0.041401779   0.10615788            1 
   21000    1.2162367   -2.5654844    11.132909  0.044178208   0.10523106            1 
   22000    1.2174808   -2.5706027    12.390025  0.046931911   0.10477939            2 
   23000     1.260253   -2.5707776    13.561676  0.049136506   0.10431538            1 
   24000    1.2012237   -2.5692921    14.867663   0.05162383   0.10398499            2 
   25000    1.2455169   -2.5581547     16.18143    0.0539381   0.10392407            1 
   26000    1.2506127   -2.5594913     17.28343  0.055395609   0.10381103            1 
   27000    1.2216696   -2.5801892    18.569444  0.057313097   0.10349878            1 
   28000    1.2674151   -2.5740897    19.732808  0.058728596   0.10332581            1 
   29000    1.2024616    -2.595225    20.797574  0.059763143   0.10310654            2 
   30000    1.2187609   -2.5736981    21.835345  0.060653734   0.10262394            2 
   31000    1.2126769   -2.6096415    23.088391  0.062065566   0.10208677            1 
   32000    1.2279712   -2.5426079      24.1161  0.062802342   0.10164344            2 
   33000    1.2144589   -2.5699826    25.427549  0.064210982    0.1013766            3 
   34000    1.2126966   -2.5719663    26.778898  0.065634554   0.10111289            1 
   35000    1.2286287   -2.6011885    28.013326  0.066698393   0.10103167            2 
   36000    1.2397313   -2.6005029    29.158947  0.067497561   0.10095762            1 
   37000    1.1903762   -2.6005141    30.080943  0.067749871   0.10078847            1 
   38000    1.2033951    -2.592723    31.314133  0.068671344   0.10052831            1 
   39000    1.2157869   -2.5595893    32.660497  0.069787386   0.10033217            1 
   40000    1.1930927   -2.5991533     33.62591  0.070053979   0.10023268            1 
   41000    1.2133119    -2.622463    34.790389  0.070712173     0.100108            1 
   42000    1.2151091    -2.597774    36.370208   0.07216311   0.10007386            1 
   43000    1.1871212   -2.5951379     37.55936  0.072789456   0.10002647            2 
   44000    1.1615874   -2.5953507    38.369676   0.07266984  0.099982622            2 
   45000    1.1895049   -2.6070043    39.847365  0.073791415  0.099937262            1 
   46000    1.1886481   -2.6065089    41.069611  0.074401469  0.099960091            1 
   47000    1.2101776    -2.584955    42.364155  0.075113748  0.099984983            3 
   48000    1.1762586    -2.623799    43.656574  0.075792662   0.10001375            1 
   49000    1.1855059   -2.6135736     44.78223  0.076160254   0.10010849            1 
   50000    1.1876916   -2.6322098    45.754084  0.076256805   0.10008426            2 
   51000    1.2059044   -2.5834269    46.958571  0.076729691   0.10003129            1 
   52000    1.1781647   -2.6373101     48.13596   0.07714096  0.099972015            2 
   53000    1.1942899   -2.6071371    49.559067  0.077923061  0.099950044            1 
   54000    1.1995477   -2.6303833    50.372812  0.077735821  0.099915853            2 
   55000    1.1855078   -2.6130343    51.461148  0.077971436  0.099866021            3 
   56000    1.1819401   -2.6082511    52.996693  0.078864126  0.099813532            3 
   57000    1.1790638   -2.6240835    53.972384  0.078906993  0.099767099            2 
   58000    1.1856148   -2.6355236    55.113528  0.079186103   0.09971121            2 
   59000    1.1857699   -2.6603486    56.126955  0.079275359  0.099628877            3 
   60000    1.1909555    -2.604246    57.226133   0.07948074  0.099522162            3 
   61000    1.1817759   -2.6252321    58.138461  0.079424127  0.099391871            1 
   62000    1.1588657   -2.6806512    58.905399  0.079173923   0.09920987            1 
   63000    1.1925126   -2.6540389    60.077934  0.079468166  0.099006468            1 
   64000    1.1975571    -2.616532    61.097358  0.079553851  0.098842078            2 
   65000    1.1657292   -2.6368732    62.439835   0.08005107  0.098674007            3 
   66000    1.1577145   -2.6494155    63.448083  0.080111215  0.098527737            1 
   67000    1.1602667   -2.6110129    64.659937  0.080422807  0.098388548            3 
   68000    1.1861206   -2.6455663    65.805282  0.080643727  0.098264429            1 
   69000    1.1318037    -2.652429    66.524901  0.080344083  0.098123315            1 
   70000    1.1465104   -2.6571316    67.560678  0.080429377  0.097956244            2 
   71000    1.1353922   -2.6336808    68.554077  0.080462531   0.09776231            1 
   72000    1.1365434   -2.6444155    69.606731  0.080563345  0.097571804            2 
   73000    1.1440266   -2.6248415    70.880228  0.080913502  0.097379824            2 
   74000    1.1556727   -2.6076167    72.046608  0.081133567  0.097218387            2 
   75000    1.1482886    -2.677892    73.124114  0.081249015  0.097070598            2 
   76000     1.136741   -2.6800916     74.09014  0.081239188  0.096924242            3 
   77000    1.1391312   -2.6539363    75.167066  0.081349638  0.096787363            2 
   78000    1.1546468   -2.6614274    76.122622  0.081327588  0.096622673            2 
   79000    1.1330222    -2.678739    77.247178  0.081484365    0.0964527            1 
   80000    1.1444589   -2.6368473    78.201754   0.08146016  0.096286143            3 
   81000    1.1418696   -2.6668615    79.109928  0.081388814  0.096127993            2 
   82000    1.1229991   -2.6685679    80.559455  0.081869365  0.095958509            2 
   83000    1.1338591    -2.675563    80.933183  0.081258216  0.095784544            2 
   84000    1.1315401   -2.6360281    81.882298  0.081232438  0.095622103            2 
   85000    1.1427134   -2.6755856    83.224206  0.081592358  0.095465782            1 
   86000    1.1380679   -2.6750681    84.141933   0.08153288  0.095310051            4 
   87000    1.1614005   -2.6871411    85.155264  0.081566344   0.09515791            2 
   88000    1.1220949   -2.6601279    86.509508  0.081921882  0.095026877            1 
   89000    1.1198654   -2.6728512     87.93929  0.082340159  0.094881173            4 
   90000    1.1290371   -2.6721894    88.287057  0.081747275  0.094743047            4 
   91000    1.1123473   -2.6308813    89.706409  0.082148726  0.094577591            2 
   92000    1.1216954   -2.7092611    90.014864  0.081535203  0.094408832            3 
   93000    1.1132196   -2.6903411    90.898945  0.081450667  0.094222791            2 
   94000    1.1228589   -2.6892229    92.240437  0.081773437  0.094045145            1 
   95000    1.1074112   -2.7154472    92.154214   0.08083703  0.093850739            1 
   96000    1.1206428   -2.6810384    94.526078  0.082053887  0.093668243            2 
   97000     1.129292   -2.7116219    95.032766  0.081643269   0.09351042            2 
   98000    1.1106499   -2.6585374    96.210037  0.081811255  0.093366203            2 
   99000     1.109457   -2.7174171    97.882544  0.082392713  0.093237524            1 
  100000    1.1090636   -2.7254746    98.447921  0.082039934  0.093114358            2 
  101000    1.1224985   -2.7062032    99.480764  0.082079838  0.092986751            2 
  102000    1.0859149   -2.7091961    100.87018   0.08241028  0.092877047            4 
  103000    1.1052572   -2.7096034    101.71333  0.082292336  0.092760752            2 
  104000    1.1011712   -2.6826669     102.5134  0.082142148  0.092654459            4 
  105000    1.1366804   -2.6991099    103.68346  0.082288461  0.092543178            1 
  106000    1.0900084   -2.7182342    103.90797  0.081688659  0.092424281            2 
  107000     1.077476   -2.7050065    105.70807  0.082327159  0.092303571            1 
  108000     1.110339   -2.7009071    106.71556  0.082342252  0.092187845            1 
  109000    1.0971663   -2.7393977    107.62522  0.082282281  0.092081279            2 
  110000    1.1028593   -2.7252149    108.01429  0.081829006  0.091958134            2 
  111000    1.0997537   -2.7314953    109.27413  0.082037637  0.091830096            1 
  112000    1.0605959   -2.7055619     109.7806  0.081681996   0.09170417            1 
  113000    1.0906004   -2.7235806    110.94911  0.081820881  0.091553634            2 
  114000    1.0987057   -2.7561454    111.96169  0.081843343  0.091414554            1 
  115000    1.0844984   -2.7476599    111.81061  0.081022184  0.091264678            2 
  116000     1.066487   -2.7362169     113.0034  0.081180603  0.091113662            3 
  117000    1.0931314   -2.7502764    114.34484  0.081442196  0.090956111            1 
  118000    1.0667496   -2.7215839    115.31989  0.081440601  0.090816528            1 
  119000    1.0614332   -2.7518974    116.68763  0.081714026   0.09068028            2 
  120000    1.0936043   -2.7403587    117.01586  0.081261014  0.090547019            4 
  121000    1.0503048   -2.7367161    117.93834  0.081224752   0.09040993            3 
  122000    1.0840351   -2.7333526     118.9459    0.0812472  0.090274314            3 
  123000    1.0649842   -2.7360036    119.99991   0.08130075  0.090128512            1 
  124000    1.0689311   -2.7126749    120.63786  0.081073833  0.089974874            2 
  125000    1.0513631   -2.7284416    120.81916  0.080546103  0.089805753            2 
  126000    1.0735098   -2.7690444    121.92394  0.080637527  0.089637849            2 
  127000    1.0610917   -2.7617156    122.42971  0.080334457   0.08946669            2 
  128000    1.0672466   -2.7628615     123.4137  0.080347458  0.089300084            4 
  129000    1.0551496   -2.7407717    124.98851  0.080741931  0.089145489            2 
  130000    1.0545279   -2.7511731    126.55644   0.08112592  0.089010974            2 
  131000    1.0587877   -2.7546192    126.91995  0.080737884  0.088871937            3 
  132000    1.0530255   -2.7293697    128.62286  0.081201301  0.088738143            1 
  133000    1.0770808   -2.7660571    128.94694  0.080793822  0.088602944            2 
  134000    1.0550996   -2.7533719    129.79422  0.080717797   0.08846966            5 
  135000    1.0393235    -2.741344    131.05237  0.080896524  0.088344998            2 
  136000    1.0739076   -2.7454979     131.7001  0.080698589   0.08822676            3 
  137000     1.021003   -2.7349076    133.71577  0.081335627  0.088117861            3 
  138000    1.0181228    -2.781232    133.18376  0.080424978  0.088003499            1 
  139000    1.0452975   -2.7553426    134.67664  0.080741388   0.08789235            4 
  140000    1.0376833   -2.7846406    135.64296  0.080739859   0.08777918            5 
  141000    1.0429333   -2.7723124    136.49355  0.080669944  0.087667855            1 
  142000    1.0560446   -2.7806492    136.93291  0.080359692  0.087549551            3 
  143000    1.0355673   -2.7578442    138.33939   0.08061736  0.087431723            1 
  144000    1.0535329   -2.7778247     139.2973  0.080611863  0.087323874            4 
  145000    1.0462471   -2.7871408    139.94435  0.080427785  0.087213946            2 
  146000    1.0349526    -2.780805    141.42172  0.080720162  0.087114919            2 
  147000    1.0311868   -2.8090892    141.89423  0.080438908  0.087021268            1 
  148000    1.0068791   -2.7803115     143.4127  0.080750393  0.086925234            1 
  149000    1.0433296   -2.8148915    143.29957  0.080145174  0.086824805            2 
  150000    1.0274564    -2.784599    144.29214    0.0801623  0.086715177            4 
  151000    1.0252729   -2.7632829    145.98546  0.080565926  0.086605305            2 
  152000    1.0445702   -2.7886611    145.51717  0.079779149  0.086494108            4 
  153000    1.0156428   -2.7873399    146.54529  0.079817698   0.08637418            3 
  154000      1.01772   -2.7835329     147.1348  0.079618396  0.086254814            3 
  155000     1.003168   -2.8191854    147.97361  0.079555703  0.086137676            1 
  156000    1.0239257   -2.7803579     148.8133  0.079494286   0.08600491            4 
  157000    1.0175069    -2.782686      149.857  0.079541932  0.085872877            4 
  158000    1.0300826   -2.8118833    150.28427  0.079263856  0.085750248            4 
  159000    1.0254147   -2.8168504    151.20217  0.079246419   0.08562798            1 
  160000    1.0033738   -2.7807731    152.01571  0.079174846  0.085507181            2 
  161000    1.0214185    -2.835182    152.47229  0.078919404  0.085382964            2 
  162000    1.0048973   -2.8078577    153.66038  0.079043405  0.085256555            4 
  163000    1.0002421   -2.8098356    155.19832  0.079344742  0.085128537            2 
  164000    1.0247514   -2.8022325    155.29728  0.078911219  0.085002463            3 
  165000    1.0034029   -2.8373642    155.63819  0.078605148  0.084878821            3 
  166000    1.0192244   -2.8148821    157.43029  0.079031268   0.08475937            3 
  167000    1.0051466   -2.8064074    157.65184  0.078668581  0.084635763            2 
  168000    0.9856345    -2.829207    158.01104  0.078378492  0.084503725            2 
  169000   0.98969276   -2.8091102    157.93601  0.077877715  0.084366601            2 
  170000    1.0029963   -2.8215431     159.4938  0.078183235  0.084230349            2 
  171000   0.99075227   -2.8351731    160.03553  0.077990024  0.084097839            1 
  172000    0.9975996   -2.8123278    160.73769  0.077876786  0.083964366            2 
  173000   0.97450669   -2.8467816    161.47881  0.077783625  0.083826439            2 
  174000   0.99893802   -2.8429612    162.25955  0.077710511  0.083689019            2 
  175000   0.99449381   -2.8349983     163.5796  0.077895048  0.083548081            4 
  176000   0.98955502   -2.8227873      163.359  0.077348012  0.083411618            3 
  177000   0.97307118   -2.8386497    164.97192  0.077670395  0.083272696            2 
  178000   0.97536864   -2.8194683    164.91917  0.077209348  0.083138443            4 
  179000   0.98042638   -2.8232848    165.84145  0.077207377  0.082997298            2 
  180000    0.9700865   -2.8425205    166.03838   0.07686962   0.08284962            3 
  181000   0.98564419   -2.8526668    167.92693  0.077314423  0.082703536            2 
  182000   0.98883596   -2.8687435    167.60734  0.076743287  0.082561042            1 
  183000   0.98994563   -2.8641088    167.56034  0.076302522  0.082413299            3 
  184000    0.9721013   -2.8515566    169.35411   0.07670023  0.082269583            3 
  185000   0.97161774   -2.8591037    169.17797  0.076206294  0.082121087            4 
  186000   0.95889227   -2.8698013    170.49996  0.076388873  0.081979544            3 
  187000   0.96189122   -2.8868099    170.96946  0.076189599  0.081838883            1 
  188000   0.96472351   -2.8928815    171.68534  0.076101657  0.081696796            2 
  189000   0.96825976   -2.8500252    172.22831  0.075938406  0.081554993            4 
  190000    0.9674833   -2.8970156    173.34664  0.076029227  0.081408091            2 
  191000   0.95684864   -2.8850567    172.83577  0.075408276  0.081255815            3 
  192000   0.95768576   -2.8307759    174.14659  0.075584459  0.081103588            1 
  193000   0.95955158    -2.878762    173.39679  0.074869082  0.080944508            3 
  194000   0.94650877   -2.8869227    174.89832  0.075128146  0.080783322            2 
  195000   0.94491142   -2.9002387    175.63949  0.075059613  0.080623958            2 
  196000   0.95634878   -2.8825101    176.29496   0.07495534  0.080465385            2 
  197000   0.93273772   -2.8787878    176.18143   0.07452683   0.08030741            3 
  198000   0.96244095   -2.9127142     176.8004  0.074410943  0.080146531            2 
  199000   0.94220147   -2.8963286    177.23778  0.074220177   0.07998308            2 
  200000   0.94983939   -2.8953986    177.91553   0.07413147  0.079818325            2 
  201000    0.9605758    -2.888829    178.88287   0.07416371  0.079655876            2 
  202000   0.93986306   -2.9195813    179.28586  0.073962812  0.079496456            4 
  203000   0.95202991   -2.9034122    180.39917  0.074055487  0.079333725            4 
  204000   0.93518122   -2.8922231    180.71185  0.073820201  0.079174679            5 
  205000   0.93662881   -2.8954058    181.25544  0.073681074  0.079019863            6 
  206000   0.94360081    -2.882219    182.84399  0.073966016  0.078868315            4 
  207000   0.94042103   -2.9072793      183.767  0.073980274  0.078721736            1 
  208000   0.94083764     -2.91997    184.54655  0.073936917  0.078578737            2 
  209000    0.9314484   -2.9400084    184.35372  0.073506269  0.078436919            2 
  210000   0.93523501   -2.9113251    185.34769  0.073550669  0.078290628            2 
  211000   0.93682124   -2.9202773    185.54696  0.073280789  0.078144757            4 
  212000   0.91774641   -2.9200952     186.3297  0.073242808  0.077997258            3 
  213000    0.9448272   -2.9315525    186.55777  0.072988175     0.077851            4 
  214000   0.93197061   -2.9272901    187.62126  0.073061236  0.077703029            2 
  215000   0.92386311    -2.909504    188.49446  0.073059868  0.077554333            3 
  216000   0.94025729   -2.9534367     188.5339  0.072736843  0.077404661            3 
  217000   0.91107314   -2.9063256    188.46201  0.072374045  0.077252482            4 
  218000   0.90507887   -2.9270104    189.26459  0.072348849  0.077099216            3 
  219000   0.91633994   -2.9473326    189.78717  0.072217339  0.076947132            4 
  220000   0.92084998   -2.9344607    190.42675  0.072131344  0.076796277            2 
  221000   0.90648501   -2.9266998    190.99597  0.072019597  0.076643127            7 
  222000   0.90305705   -2.9476351    192.52907  0.072270673  0.076495162            3 
  223000   0.92900239   -2.9143332    193.91578  0.072464791  0.076350342            4 
  224000   0.90799305   -2.9262233    193.28607  0.071907021  0.076210528            2 
  225000   0.90305042    -2.977226    194.46435  0.072023833  0.076068477            4 
  226000   0.90384012   -2.9524429    195.31303  0.072018079  0.075930589            2 
  227000   0.91296333   -2.9408295    195.40331   0.07173396  0.075794837            6 
  228000   0.89936697   -2.9412451    196.42747  0.071793666  0.075657683            4 
  229000   0.90731758   -2.9676957      197.789  0.071975619  0.075522939            5 
  230000   0.91129809   -2.9498893    197.59712  0.071593161  0.075391021            2 
  231000   0.88770842   -2.9521227    197.67184  0.071310186  0.075255635            2 
  232000   0.90495427   -2.9413886    198.02078  0.071128154  0.075119168            4 
  233000   0.87940873   -2.9309147    198.98425   0.07116747  0.074982636            3 
  234000   0.89902538   -2.9464953    199.52526  0.071056004  0.074846585           11 
  235000   0.88654585   -2.9811266    199.62412  0.070788694  0.074703988            3 
  236000   0.89407801   -2.9525058    200.34195  0.070742216  0.074561357            6 
  237000   0.90408065   -2.9635596    201.15083   0.07072814  0.074419434            2 
  238000   0.89610327   -2.9567917    201.57699  0.070580177  0.074277843            3 
  239000   0.88542597   -2.9632766    201.96588   0.07042046  0.074137927            5 
  240000   0.87833154   -2.9620701    203.79874  0.070763451  0.074002982            1 
  241000   0.89631507    -2.970886    203.45327   0.07035037  0.073869311            4 
  242000   0.87165226   -2.9967572    203.69413  0.070142606  0.073736193            5 
  243000   0.91034734   -2.9745029    204.21824  0.070033689  0.073602199            4 
  244000   0.87402751    -2.975695    204.68444  0.069905888  0.073467207            2 
  245000   0.85493045   -3.0032664    205.00751  0.069730447  0.073330929            2 
  246000   0.85550365    -2.964714    205.23771   0.06952497  0.073193049            4 
  247000   0.85113898   -2.9770234    206.10295  0.069535408  0.073057123            5 
  248000   0.87624667   -2.9812919     206.9341  0.069534307  0.072921437            4 
  249000   0.87261615   -3.0063077    207.40154  0.069411493  0.072787531            4 
  250000   0.84631403   -2.9998858    207.59975  0.069199917  0.072651452            2 
  251000   0.87527406   -2.9948094    208.32665  0.069165553  0.072513075            1 
  252000   0.87553627   -2.9952578    208.29218  0.068879691  0.072375972            3 
  253000   0.85646854   -2.9960079    209.11952  0.068879949  0.072239856            1 
  254000   0.85251046   -3.0001045    209.03934  0.068582462  0.072103518            3 
  255000   0.84447712   -3.0161967    209.58304  0.068491191  0.071964657            5 
  256000   0.84674659   -2.9766941    211.40839  0.068817836  0.071827844            4 
  257000   0.86453622   -3.0305664    210.55995  0.068274952  0.071694588            2 
  258000    0.8551409   -2.9860983    212.17567  0.068532192  0.071561972            5 
  259000     0.836071   -3.0348969    212.90397  0.068501922  0.071427765            3 
  260000   0.85248893   -3.0141973    212.93355  0.068247934  0.071293727            3 
  261000   0.86585176   -3.0349127    212.73881  0.067924268  0.071158318            4 
  262000   0.86452743   -3.0190769    213.30283  0.067844412  0.071024647            2 
  263000   0.84481714    -3.024635    213.35321  0.067602411  0.070885932            6 
  264000   0.87545192   -3.0189618    213.79324  0.067485239  0.070744659            5 
  265000   0.85470811   -3.0182134    213.51353  0.067142619  0.070603307            5 
  266000   0.84996547   -3.0321246    215.17729  0.067411433   0.07046355            4 
  267000   0.83576023   -3.0602157    213.70689  0.066700027  0.070321163            7 
  268000   0.83268349   -3.0437005     215.6285  0.067048664  0.070181554            4 
  269000   0.83021702   -3.0324503    216.06107  0.066933417  0.070042077            2 
  270000    0.8413256   -3.0547487    216.45995  0.066808628  0.069905083            3 
  271000    0.8310301   -3.0483429    217.00832  0.066730725  0.069766063            4 
  272000   0.82551364   -3.0331917    217.65461  0.066683397  0.069629064            5 
  273000   0.85626394   -3.0520432    218.49056  0.066694309  0.069493076            8 
  274000   0.83185955   -3.0481736    218.53509  0.066464444  0.069358549            5 
  275000   0.82130578   -3.0851132    218.54805  0.066226682  0.069220561            4 
  276000   0.83455168   -3.0565085    218.39311   0.06593995  0.069083034            4 
  277000   0.84488125   -3.0515286    219.47256  0.066026641  0.068946767            6 
  278000   0.82322163   -3.0501544    221.25068  0.066322145  0.068814046            2 
  279000   0.83643513   -3.0373908    221.32257  0.066105904  0.068681334            2 
  280000   0.83237612   -3.0596296    220.69428  0.065682823  0.068547198            5 
  281000   0.82891051   -3.0983647    221.46931  0.065678917  0.068411715            4 
  282000     0.829029   -3.0703764    222.17127  0.065653447  0.068275769            3 
  283000   0.80679363    -3.069873    221.98615  0.065366945   0.06814208            4 
  284000   0.79441724   -3.0769375    222.55983  0.065305113   0.06800793            8 
  285000   0.80381177   -3.0789792     222.7444  0.065129942  0.067874064            4 
  286000   0.78567391   -3.0804293    222.99975  0.064976616  0.067740183            6 
  287000   0.81362227   -3.0757502    224.19682  0.065097799  0.067607009            2 
  288000   0.81981321   -3.0972206    224.74136  0.065029327  0.067478438            4 
  289000   0.81695851   -3.0795347    224.99136  0.064876401  0.067351169            3 
  290000   0.81405879   -3.0864071    225.43463  0.064780067  0.067223051            5 
  291000   0.79754723    -3.092507    226.19664  0.064775669  0.067096595            4 
  292000   0.80124949   -3.1044821     227.0485  0.064796946  0.066969169            3 
  293000   0.79527681   -3.0909147    227.89696  0.064817109  0.066842651            3 
  294000   0.80794248   -3.0991016    227.11226  0.064374224  0.066716926            6 
  295000   0.78885655   -3.0728263      228.097   0.06443418  0.066588847            4 
  296000   0.79354749    -3.093986    227.96697  0.064179889  0.066462041            5 
  297000   0.80321948   -3.1173613    228.80998   0.06420033  0.066337247            4 
  298000   0.80170804   -3.0934674    229.62941  0.064214039   0.06621476            3 
  299000   0.79988412   -3.1129426    230.50941  0.064244541  0.066093549            6 
  300000   0.80369508   -3.0875634    230.61315  0.064059207  0.065973757            5 
  301000   0.77724413   -3.0941693    230.50003  0.063815068  0.065852729            3 
  302000   0.78686298   -3.1029773    231.59875  0.063906941  0.065731183            4 
  303000   0.77288038   -3.1190502    231.94956  0.063792509  0.065612891            3 
  304000   0.79011165    -3.116725    232.63005  0.063769202  0.065493678           10 
  305000   0.78370739   -3.1374832    232.11549  0.063419533  0.065373379            3 
  306000   0.78764258   -3.1238145    233.16451   0.06349796  0.065253389            7 
  307000   0.77204792   -3.1334657    233.18393  0.063296398  0.065133345            4 
  308000   0.77206193   -3.1351326     234.2261  0.063372861  0.065014139            5 
  309000   0.77909345   -3.1063756    234.14612  0.063146203  0.064896398            5 
  310000   0.75628266   -3.0896463    235.89129  0.063411637   0.06477857            3 
  311000    0.7791531    -3.130826    235.51826  0.063107787  0.064661033            5 
  312000    0.7528065   -3.1444085    235.00582  0.062768649  0.064545091            7 
  313000   0.77424716   -3.1566076     235.6712  0.062745262   0.06442667            2 
  314000   0.76510028   -3.1388766    236.08515  0.062655295  0.064306751            2 
  315000   0.76198008   -3.1292846      235.657  0.062343123  0.064186421            3 
  316000   0.76090028   -3.1253257    236.48713   0.06236475  0.064067301            4 
  317000   0.75200542   -3.1524437    236.88808  0.062273416  0.063947618            3 
  318000   0.75230594   -3.1624094    236.74079  0.062038991  0.063828997            5 
  319000   0.75611649   -3.1605067    237.12332   0.06194444  0.063709725            3 
  320000   0.76019519   -3.1642182    238.41241  0.062086566  0.063589064            6 
  321000   0.74338268    -3.151154      238.441  0.061900572  0.063468984            4 
  322000   0.75659613   -3.1711646      238.082  0.061615424   0.06334958            2 
  323000   0.75448844   -3.1663933    239.18379  0.061708925  0.063231721            6 
  324000   0.76841167    -3.170111    239.99484  0.061727067  0.063115332            2 
  325000   0.76788491   -3.1668236    239.58166  0.061431194  0.062998587            4 
  326000   0.74746049   -3.1800927    240.87898  0.061574382  0.062881398            4 
  327000     0.748483   -3.1622125    240.51464  0.061293231  0.062764538            8 
  328000   0.75463278   -3.1636428    241.03559  0.061238718   0.06264748           10 
  329000   0.75305126   -3.1935798    240.73853  0.060977338  0.062531941            8 
  330000   0.72388368   -3.1794304    242.05879  0.061125958  0.062415989            6 
  331000   0.74623481   -3.1831248    241.66001  0.060840888  0.062301487            5 
  332000   0.74574968   -3.1722259    242.22706  0.060799965  0.062185536            4 
  333000   0.71983392   -3.1748588    242.29466    0.0606343  0.062068574            9 
  334000    0.7260522   -3.1871007    241.80415  0.060330377  0.061950404            6 
  335000   0.71884446   -3.1957352    243.25036  0.060510039  0.061833194            8 
  336000   0.73571453   -3.1858174    243.40137  0.060367402  0.061715162           16 
  337000   0.75086617   -3.1806477    243.61607  0.060241362  0.061599078            5 
  338000   0.75197058   -3.2057719     243.7128  0.060086982  0.061483293            7 
  339000    0.7363556    -3.195713    244.62392  0.060133708   0.06136808            5 
  340000   0.72762342   -3.1909946    243.78023  0.059750057  0.061252777            6 
  341000   0.72403742   -3.1824719    245.30517  0.059947501  0.061138211            7 
  342000   0.72258074   -3.2414134    244.20495   0.05950413  0.061022746            7 
  343000   0.72144318   -3.1912545    245.78519  0.059714575  0.060907577            4 
  344000   0.71205498   -3.2311726    246.15031  0.059629434  0.060792958            4 
  345000   0.72357521   -3.2059839    245.92582  0.059402371   0.06067848            7 
  346000   0.71399839   -3.2238997    246.78414  0.059437413  0.060563639           11 
  347000   0.71365386   -3.2205996    246.11435  0.059105272  0.060447272            3 
  348000   0.69967052   -3.2301376    247.12251  0.059176846  0.060330657            5 
  349000   0.72529645   -3.2143797    246.98269  0.058973899  0.060214339            7 
  350000   0.68783217   -3.2269081    247.87086   0.05901687  0.060098645            8 
  351000    0.6949681   -3.2449692    247.88978  0.058853223  0.059982481            3 
  352000   0.71436186   -3.2340254    247.24539  0.058533472  0.059865256            9 
  353000   0.69775621   -3.2297098    248.26873  0.058609238  0.059749689            5 
  354000   0.69825874    -3.225614    248.63049  0.058528834  0.059633587            6 
  355000   0.69556658   -3.2484952     248.6227  0.058362136  0.059517923            7 
  356000   0.70348418   -3.2260893    249.67796  0.058445216  0.059403403            5 
  357000   0.69004716   -3.2578499      248.925  0.058105741  0.059287638            7 
  358000   0.69545245   -3.2470679    249.64143  0.058110202  0.059172635            7 
  359000   0.69684041   -3.2337019    250.72929  0.058200857  0.059059335            3 
  360000   0.69808844   -3.2422435    250.94978  0.058090226  0.058946093            9 
  361000   0.68359988   -3.2716334    250.00333  0.057710832  0.058831312            4 
  362000   0.69379197   -3.2493299    250.67782  0.057706681  0.058716411            4 
  363000   0.69190565   -3.2451373    250.95867  0.057612184  0.058602592            6 
  364000   0.69063331   -3.2820849    251.29922  0.057531873  0.058489748            2 
  365000   0.70590031   -3.2638324    251.93985  0.057520514  0.058377519            7 
  366000   0.67958931    -3.271845    251.61513  0.057289419  0.058265955           13 
  367000   0.69371015   -3.2624749    252.02768  0.057226993  0.058153491            3 
  368000   0.67079104   -3.2595007    251.48689  0.056949023  0.058039829            4 
  369000   0.68058192   -3.2505401    251.33258  0.056759841  0.057925741            3 
  370000   0.68117727   -3.2837208    251.94687  0.056744791  0.057811566           10 
  371000   0.66599139   -3.2838011    252.64086  0.056747722  0.057696579            4 
  372000   0.67535238   -3.2802573    252.37235  0.056535024  0.057582635           11 
  373000   0.69678784   -3.2862953    253.96112  0.056738409  0.057470211            8 
  374000   0.67658416   -3.2744466    253.74589  0.056538746   0.05735883            4 
  375000   0.68334858   -3.2768018    253.65945  0.056368766  0.057247698            5 
  376000   0.65909518   -3.2836627    254.12042  0.056321016  0.057135592            6 
  377000    0.6726213   -3.3119944     253.9693  0.056138219  0.057023212            6 
  378000   0.66647592   -3.3011861     254.3134  0.056065565  0.056909741            6 
  379000   0.68166717   -3.2955666     254.5599  0.055971833   0.05679701            7 
  380000   0.67149535   -3.2859818    254.15591  0.055735945  0.056683967           11 
  381000   0.65406346   -3.3176375    254.39164  0.055641216  0.056571238           10 
  382000    0.6540683   -3.2938142    254.94156  0.055615523  0.056457369            4 
  383000   0.65368739   -3.2994275    254.81186  0.055442092  0.056344552           14 
  384000   0.64507337   -3.3018831    255.80955  0.055514226  0.056231219            3 
  385000   0.64771615   -3.3142738    255.37076  0.055275056  0.056117536            6 
  386000    0.6513206   -3.3330859    255.19068  0.055092979  0.056003181            6 
  387000   0.64109078   -3.3204025    255.82617   0.05508746  0.055889282            8 
  388000   0.64072169   -3.3324718    255.80922  0.054941842  0.055776388            6 
  389000   0.65039761    -3.323628     256.4732  0.054942845  0.055663434           11 
  390000   0.64406309   -3.3220276    256.32674   0.05477067  0.055551618            9 
  391000   0.62808596   -3.3229168    255.96814  0.054554164  0.055439455            6 
  392000   0.65186451   -3.3350948    256.71437  0.054573633  0.055326928            8 
  393000   0.64278036   -3.3393929    255.78562  0.054237832  0.055214586            9 
  394000   0.64031843   -3.3158425    256.46095  0.054243009  0.055102712            7 
  395000   0.63511911    -3.359978    257.21694  0.054265178  0.054990727            7 
  396000   0.62929229   -3.3571688    256.47684    0.0539724  0.054877958            9 
  397000   0.64210025   -3.3573002    257.46888  0.054044685  0.054765037            4 
  398000   0.62618944   -3.3483787    257.44926  0.053904786  0.054651694            8 
  399000   0.62268419   -3.3302836    257.27856  0.053734034  0.054538001            5 
  400000   0.63529839    -3.352857    256.67465  0.053473886  0.054423662            7 
  401000   0.62706975   -3.3655515    257.39258  0.053489729  0.054310052            9 
  402000   0.63229992   -3.3803312    258.38971  0.053563373  0.054195695            5 
  403000   0.62863978   -3.3545147    257.53085  0.053252864  0.054081496            9 
  404000   0.63067417    -3.380515      257.689  0.053153672  0.053967157            8 
  405000   0.61398659   -3.3467231    257.51885  0.052987417  0.053853207            7 
  406000   0.61456107   -3.3558356     258.0604  0.052968063  0.053739466           11 
  407000   0.61037931   -3.3785973    258.29586   0.05288613  0.053625396           11 
  408000   0.62025234   -3.3696155    258.85725  0.052871169  0.053511848           12 
  409000   0.62473022   -3.3865492    258.25548  0.052619291  0.053397401            5 
  410000   0.62024693   -3.3579435     259.2728  0.052697723   0.05328407            4 
  411000   0.61543478    -3.402497    257.90065  0.052291292  0.053170322            9 
  412000   0.61304195   -3.3757146    258.84479  0.052355338  0.053056651           15 
  413000    0.6165022   -3.4032555    258.84366  0.052228341  0.052942539            8 
  414000   0.60759106    -3.405346    259.81503  0.052297712  0.052828986           11 
  415000   0.61465419    -3.403582    259.19107    0.0520464  0.052715325            3 
  416000   0.60589261   -3.4071508    259.02749   0.05188852  0.052602273            6 
  417000   0.60477724   -3.4060786    258.09679  0.051578096  0.052488715           12 
  418000   0.60347697    -3.368766    259.05375  0.051645484  0.052375506            6 
  419000   0.61199894   -3.3954698    259.84199  0.051678995  0.052262039            6 
  420000   0.60367417   -3.3954794    259.69722  0.051527227  0.052149219            8 
  421000   0.59107783   -3.4184437    258.53314  0.051174414  0.052035021            4 
  422000   0.59277777   -3.3998375    260.08275  0.051359152  0.051921644            8 
  423000   0.59271665   -3.3981486    260.55169   0.05133012  0.051809453           15 
  424000   0.60190118   -3.4272127    259.17764  0.050939001  0.051696756           12 
  425000   0.58682168   -3.4272303    258.97203  0.050778829  0.051583801            9 
  426000   0.59386732   -3.4147079     259.9935  0.050859448  0.051470875           12 
  427000   0.58855246   -3.4378182    259.70939  0.050684892   0.05135803           10 
  428000   0.58147404   -3.4344677    260.38841  0.050698678  0.051244591           11 
  429000   0.57041769   -3.4670265    260.26824  0.050557156  0.051131938            7 
  430000   0.57328922   -3.4343393    260.12635  0.050412084  0.051019305           12 
  431000   0.58117562   -3.4394528    261.09933  0.050483241  0.050906938            7 
  432000   0.57629668   -3.4328867    259.40817  0.050040156  0.050794757           10 
  433000    0.5776585   -3.4443643    260.97555  0.050226242  0.050683027            5 
  434000   0.56644453   -3.4381068    261.17549  0.050148903  0.050572432            5 
  435000   0.56015057   -3.4282351    261.29395  0.050056312  0.050460989           11 
  436000   0.56288314   -3.4319312    260.35116  0.049761306  0.050350052           13 
  437000   0.56793258   -3.4494079    261.20733  0.049810704  0.050238981            6 
  438000   0.56606219   -3.4696543    261.30106  0.049714814  0.050127286           19 
  439000   0.56842533   -3.4406332    261.58717  0.049655879  0.050016525            8 
  440000   0.56773624     -3.45832    261.73836  0.049571658  0.049906566           28 
  441000   0.56700697   -3.4563178    261.26821   0.04937041  0.049795673            9 
  442000   0.56458484   -3.4709607      261.652  0.049331071  0.049685936            7 
  443000   0.54507866   -3.4675056    262.32841  0.049346954  0.049576151           12 
  444000   0.55799406   -3.4589561    262.18609  0.049209101  0.049466873           16 
  445000   0.55969599   -3.4705584    261.69504  0.049006562  0.049357425            7 
  446000   0.56815296   -3.4649933    262.07832  0.048968296  0.049247756           13 
  447000   0.54605329   -3.4594472    263.02905   0.04903599  0.049139774           16 
  448000    0.5511198   -3.4769865    262.26179  0.048783816  0.049031648           21 
  449000   0.54913324   -3.4936835    262.64503  0.048746294  0.048923824           11 
  450000   0.53606198   -3.5030704    262.85791  0.048677391  0.048816071            5 
  451000   0.54797644   -3.4955834     263.5072  0.048689432  0.048709006           13 
  452000   0.54841464   -3.5085218     263.1587  0.048517459  0.048601685           11 
  453000   0.55191796   -3.5193919    262.32643  0.048257253  0.048493619            5 
  454000   0.54584976   -3.5132335     262.4786  0.048178892  0.048385727           12 
  455000   0.52799443   -3.5069879    262.97977  0.048164794  0.048278398            7 
  456000   0.54536931   -3.5062879    262.75075  0.048017316  0.048171333           15 
  457000   0.54844408    -3.504745    262.33872  0.047837111  0.048063935            7 
  458000   0.53430442   -3.5103141    262.22137  0.047711312  0.047956323           26 
  459000   0.52120875   -3.5111525    262.90589  0.047731643   0.04784865           29 
  460000   0.53440861   -3.5238069    263.21959  0.047684708  0.047741683            8 
  461000   0.53301863   -3.5160338    263.44971  0.047622868  0.047635115           10 
  462000   0.52860554   -3.5278165    263.10203  0.047457076  0.047528558           12 
  463000   0.51865388   -3.4865849    263.34183  0.047397738  0.047422602            8 
  464000    0.5275419   -3.5166408    262.76922  0.047192748  0.047316349           19 
  465000   0.53125392   -3.5335897    263.17018  0.047163114  0.047209279            9 
  466000   0.53270975   -3.5411509    263.06014  0.047042229  0.047102815           15 
  467000    0.5200571   -3.5356044    263.54843  0.047028627  0.046996636            9 
  468000   0.50981932   -3.5461426    263.19531  0.046865262  0.046890037            7 
  469000   0.51501205   -3.5360033    263.95785  0.046900827   0.04678401           23 
  470000   0.51196928   -3.5376954    263.57727  0.046733559  0.046678346           15 
  471000   0.50818208   -3.5406278    263.67511  0.046651646  0.046573045           17 
  472000   0.51760029   -3.5415995    263.11162  0.046453323   0.04646822           13 
  473000   0.50531651   -3.5628589    263.34247  0.046395784  0.046362867           11 
  474000   0.51607088   -3.5577511    263.11189  0.046257364  0.046257278           10 
  475000   0.51595373   -3.5547933    263.70777  0.046264521  0.046152433           17 
  476000   0.50546137   -3.5762688    263.47435  0.046126462  0.046047898           11 
  477000    0.4903443   -3.5678603    264.54058  0.046216033   0.04594319           18 
  478000   0.50764624   -3.5771909    262.85198  0.045824962  0.045838205           23 
  479000   0.49599048   -3.5607002     263.3839  0.045821834  0.045733723           22 
  480000   0.50427544   -3.5905237    264.00419   0.04583406  0.045629088            9 
  481000   0.50394221   -3.5639081    263.95366  0.045730017  0.045524875           15 
  482000    0.5050994   -3.5818311     263.2997  0.045522078  0.045421344           15 
  483000   0.49708608   -3.5757314    264.25255  0.045592228  0.045317184           11 
  484000    0.5023609   -3.5894081    263.19447  0.045315851  0.045213282           31 
  485000   0.48130991   -3.5756807     263.3677  0.045252182  0.045108835           22 
  486000   0.48247306   -3.5885746    262.85392  0.045070975  0.045004616           27 
  487000   0.48993088   -3.6051222    263.61619  0.045108861  0.044900358           23 
  488000   0.48725546   -3.5942516    263.63535  0.045019697  0.044796247           19 
  489000   0.49023302   -3.5880257    263.64864  0.044929898  0.044692339           15 
  490000   0.48449247   -3.5853282    263.35052  0.044787503  0.044588506           14 
  491000   0.48409457   -3.5846866    263.78733  0.044770422  0.044484877           15 
  492000   0.47983549   -3.5855727    263.44835  0.044622011  0.044381119           18 
  493000   0.47626564   -3.6048336    263.46359  0.044534076  0.044277375           11 
  494000   0.47543971   -3.6147042     263.3447   0.04442387  0.044173682           15 
  495000   0.47974393   -3.6132023    263.25256  0.044318613  0.044069913           18 
  496000   0.47664074   -3.6135591    263.19638  0.044219821  0.043966188           16 
  497000   0.46719745   -3.6115506    263.47398  0.044177395  0.043862847           15 
  498000   0.46958012   -3.6200622    262.45637  0.043918402  0.043759364           34 
  499000   0.47757149   -3.6113017    262.94056  0.043911249  0.043656204           27 
  500000   0.46850284    -3.641346    262.78165  0.043796942  0.043552996           39 
  501000   0.46553825   -3.6262762    262.73179   0.04370123  0.043449769           57 
  502000   0.47074555   -3.6467068    263.54648  0.043749416  0.043346496           58 
  503000   0.46515489   -3.6350118    263.35279  0.043630349  0.043243291          109 
  504000   0.45534343   -3.6360472    263.10259  0.043502412  0.043140039           25 
  505000   0.46108506   -3.6434626    262.83048  0.043371367  0.043036896           17 
  506000   0.46137064   -3.6378388    262.79209   0.04327933   0.04293352           22 
  507000     0.449322   -3.6545138    262.64174  0.043169254  0.042830848           57 
  508000   0.45763105    -3.671955    262.74861  0.043101806  0.042728664           39 
  509000   0.45059293   -3.6593487    262.86182  0.043035661  0.042626562           22 
  510000   0.44742541   -3.6627759    262.71439  0.042927188  0.042524324           15 
  511000   0.45939038   -3.6530794    262.83948  0.042863582  0.042422515           20 
  512000   0.44205868    -3.660159     262.3393  0.042698454  0.042320642           21 
Loop time of 1216.12 on 48 procs for 500000 steps with 4000 atoms

Performance: 71045.865 tau/day, 411.145 timesteps/s
99.4% CPU use with 48 MPI tasks x no OpenMP threads

MPI task timing breakdown:
Section |  min time  |  avg time  |  max time  |%varavg| %total
---------------------------------------------------------------
Pair    | 78.82      | 83.653     | 88.241     |  24.7 |  6.88
Neigh   | 8.1225     | 8.4653     | 9.0263     |   6.5 |  0.70
Comm    | 79.436     | 84.604     | 90.465     |  28.6 |  6.96
Output  | 0.88552    | 0.88594    | 0.89368    |   0.1 |  0.07
Modify  | 1023.3     | 1026.8     | 1029.2     |   4.0 | 84.44
Other   |            | 11.68      |            |       |  0.96

Nlocal:        83.3333 ave          92 max          77 min
Histogram: 2 1 7 5 19 5 7 1 0 1
Nghost:        2190.17 ave        2215 max        2166 min
Histogram: 1 3 7 7 9 7 5 4 2 3
Neighs:        14511.3 ave       16715 max       13011 min
Histogram: 2 5 8 8 9 11 3 1 0 1
FullNghs:      29023.2 ave       32408 max       26660 min
Histogram: 2 4 7 7 16 6 5 0 0 1

Total # of neighbors = 1393114
Ave neighs/atom = 348.27850
Neighbor list builds = 27144
Dangerous builds = 0

#clear
#
#next RN
#
#jump SELF
Total wall time: 0:20:19
